# x y z rho theta phi s1 s2 stress_xx np intf bulk
-0.755288 -10.680927 -14.268225 17.839140 1.500200 2.497803 -0.008366 -0.001149 364298.000000 1 0 0
2.135812 -13.441627 -13.050025 18.855826 -1.413218 2.335184 -0.012955 0.004319 -367909.000000 1 0 0
2.085612 -11.031627 -14.537925 18.368392 -1.383944 2.483997 -0.007182 -0.002038 -818684.000000 1 0 0
-5.445088 -6.195527 -16.404125 18.361069 0.849776 2.675695 -0.000952 -0.007568 200614.000000 1 0 0
4.429012 -14.199027 -11.486725 18.792907 -1.268437 2.228406 -0.013777 0.003437 104487.000000 1 0 0
13.945812 -10.656727 -7.869325 19.234807 -0.652497 1.992285 0.019941 -0.010667 3160.440000 1 0 0
7.148712 10.817673 -10.789925 16.868569 0.986841 2.264835 0.000622 -0.005512 465445.000000 1 0 0
5.703312 -4.152827 -12.537525 14.386218 -0.629365 2.629040 -0.003860 -0.002621 999663.000000 1 0 0
13.665512 0.581173 -10.107725 17.007354 0.042503 2.207210 0.001254 0.002238 555799.000000 1 0 0
14.161812 5.170673 -10.304025 18.261044 0.350075 2.170336 -0.007745 0.002071 161830.000000 1 0 0
4.188112 4.328173 -13.451925 14.738645 0.801843 2.720634 0.005965 -0.001210 1101020.000000 1 0 0
10.234212 -4.997327 -13.593525 17.734043 -0.454241 2.444203 0.006935 -0.004963 160673.000000 1 0 0
2.488512 -7.498527 -11.948625 14.324463 -1.250366 2.557370 -0.007917 -0.000160 1869010.000000 1 0 0
-5.521388 -2.038827 -15.170825 16.272568 0.353729 2.771502 -0.000835 -0.006659 -854341.000000 1 0 0
10.731212 0.119073 -9.688925 14.458505 0.011095 2.305166 0.002075 0.000044 2599940.000000 1 0 0
-1.595788 -9.404427 -16.864425 19.375206 1.402713 2.626836 0.005844 -0.005648 1712450.000000 1 0 0
8.587512 1.722573 -18.078325 20.088267 0.197963 2.690439 -0.000919 0.006414 -928494.000000 1 0 0
16.402012 -5.756027 -8.675625 19.427412 -0.337507 2.033720 0.028076 -0.005362 -790649.000000 1 0 0
10.167512 7.542673 -9.944925 16.098812 0.638259 2.236665 -0.002673 -0.000890 16533.400000 1 0 0
13.797312 -2.287927 -10.703925 17.611770 -0.164329 2.224047 0.014462 0.001881 -638194.000000 1 0 0
7.206112 -1.871027 -13.658325 15.555662 -0.254035 2.642525 -0.000137 -0.004358 -123199.000000 1 0 0
-2.742888 6.622473 -13.776325 15.529575 -1.178127 2.661826 -0.001164 -0.004698 -234644.000000 1 0 0
11.401712 1.872773 -13.957825 18.119801 0.162800 2.450120 -0.000189 0.003355 374935.000000 1 0 0
-2.227188 10.709573 -12.890325 16.906087 -1.365757 2.437913 -0.001380 0.000720 -2129640.000000 1 0 0
2.829012 -0.984727 -15.185025 15.477661 -0.334965 2.946827 0.003147 -0.005707 921825.000000 1 0 0
-8.936288 0.501473 -15.210325 17.648306 -0.056058 2.609717 0.006397 -0.005157 -1638850.000000 1 0 0
2.399412 -1.745427 -17.926425 18.170317 -0.628905 2.977564 0.012464 -0.012764 1287490.000000 1 0 0
1.144612 7.926873 -13.205725 15.444631 1.427391 2.596418 0.004000 -0.003921 736276.000000 1 0 0
9.208512 -9.040027 -9.927725 16.281232 -0.776166 2.226560 0.008607 -0.001792 432025.000000 1 0 0
4.013312 7.353873 -13.600525 15.973741 1.071229 2.589503 0.002131 -0.001742 1729230.000000 1 0 0
-2.597288 9.100173 -15.436725 18.106671 -1.292777 2.591629 -0.005851 -0.001155 897846.000000 1 0 0
5.474512 -7.590527 -15.216725 17.864353 -0.945964 2.590194 0.000097 -0.002311 -550383.000000 1 0 0
4.365712 7.252573 -16.473325 18.521061 1.028942 2.666909 0.006178 0.000638 2797080.000000 1 0 0
-0.132388 5.153273 -13.468825 14.421615 -1.545112 2.776059 0.006250 -0.006154 2806720.000000 1 0 0
8.900512 4.275673 -16.719125 19.417251 0.447833 2.608117 0.001994 0.004770 -37815.400000 1 0 0
5.332712 0.294473 -14.267925 15.234770 0.055164 2.783414 0.000609 -0.000743 1439650.000000 1 0 0
6.454412 7.968873 -11.680025 15.543016 0.890016 2.421075 -0.004365 0.000728 -18966.000000 1 0 0
2.661112 -8.190927 -14.983325 17.282154 -1.256668 2.619911 -0.003669 -0.003804 893562.000000 1 0 0
4.111112 11.537573 -13.775125 18.432875 1.228499 2.414805 -0.001826 -0.002153 -1413870.000000 1 0 0
0.610412 -4.462227 -13.706625 14.427600 -1.434845 2.824122 0.000381 -0.005297 362025.000000 1 0 0
8.503912 -0.058727 -11.695825 14.460715 -0.006906 2.512905 -0.005966 -0.000361 321961.000000 1 0 0
-0.863488 -5.075627 -16.236725 17.033462 1.402285 2.834529 0.001867 -0.009557 691791.000000 1 0 0
4.502012 0.948973 -11.583025 12.463351 0.207747 2.763490 0.001145 -0.004554 678356.000000 1 0 0
-2.807888 -7.128527 -15.491825 17.282846 1.195564 2.682308 -0.002814 -0.006806 1480150.000000 1 0 0
11.257912 -3.702827 -11.297525 16.373319 -0.317763 2.332280 0.010073 -0.004607 883575.000000 1 0 0
6.417612 -7.084827 -12.430425 15.681071 -0.834772 2.486026 -0.001074 -0.001501 -1099840.000000 1 0 0
3.418312 -3.948827 -14.630625 15.534905 -0.857285 2.798713 0.003036 -0.002907 2450100.000000 1 0 0
-0.552688 -1.490327 -18.279325 18.348304 1.215669 3.054854 0.012416 -0.011805 1770090.000000 1 0 0
14.836212 2.990373 -8.456625 17.336956 0.198894 2.080342 -0.005795 -0.000208 -1132710.000000 1 0 0
7.026812 4.397673 -14.435625 16.646407 0.559204 2.620331 0.001280 0.004136 3726480.000000 1 0 0
10.090012 -9.575427 -14.011725 19.744001 -0.759237 2.359826 0.022724 -0.011289 -371634.000000 1 0 0
8.989712 -3.136427 -15.492925 18.184686 -0.335686 2.590545 0.003579 -0.011840 329231.000000 1 0 0
-5.280988 -2.048627 -18.108925 18.974163 0.370054 2.838437 -0.010859 0.001960 -1168380.000000 1 0 0
4.926612 -9.185427 -11.086425 15.216846 -1.078493 2.387017 -0.008985 0.002319 1320200.000000 1 0 0
-2.416688 3.954973 -17.111725 17.728320 -1.022291 2.877079 0.000609 -0.003589 2598420.000000 1 0 0
9.519812 9.427273 -14.496425 19.739469 0.780514 2.395561 0.003077 -0.000931 -1161010.000000 1 0 0
9.811812 9.944973 -11.625325 18.174772 0.792138 2.264827 0.001129 -0.004186 -1509710.000000 1 0 0
11.937212 -5.941727 -9.623625 16.444309 -0.461845 2.195954 0.020613 -0.005060 -26487.400000 1 0 0
8.339012 6.955273 -13.763725 17.531545 0.695170 2.473627 0.002227 0.006374 1088310.000000 1 0 0
4.026412 -4.132227 -17.455425 18.384209 -0.798367 2.822369 0.014714 -0.009240 -964544.000000 1 0 0
9.267012 -7.419227 -12.310525 17.101797 -0.675110 2.374365 0.010699 -0.007138 1106040.000000 1 0 0
11.977812 -8.733027 -8.764825 17.220799 -0.629991 2.104781 0.017504 -0.004776 2668750.000000 1 0 0
-2.953788 -2.508627 -13.869025 14.400275 0.704083 2.869120 0.000866 -0.008811 -3221960.000000 1 0 0
-0.347488 6.108473 -17.608925 18.641578 -1.513971 2.807185 0.007416 -0.002626 1938960.000000 1 0 0
1.121912 -8.394627 -17.538325 19.476172 -1.437937 2.691718 0.005804 -0.003143 1831360.000000 1 0 0
0.169412 8.499573 -15.994725 18.113604 1.550867 2.653061 0.001937 0.000479 -414719.000000 1 0 0
1.819812 3.376173 -14.967725 15.451312 1.076425 2.890746 0.010074 -0.003140 1714690.000000 1 0 0
-1.971988 -0.451227 -15.821625 15.950428 0.224946 3.014423 0.006103 -0.007698 460175.000000 1 0 0
14.037312 -4.210127 -8.423325 16.903364 -0.291387 2.092459 0.020034 -0.004173 585548.000000 1 0 0
0.534912 0.705373 -14.524625 14.551578 0.921979 3.080719 0.005200 -0.006563 2140860.000000 1 0 0
8.839312 2.755173 -12.645625 15.672787 0.302152 2.509601 -0.001947 0.003010 1942240.000000 1 0 0
5.972312 0.965173 -17.034025 18.076451 0.160223 2.800329 0.012768 -0.000016 -209456.000000 1 0 0
15.267812 1.626073 -12.331925 19.693313 0.106103 2.247464 -0.005710 0.003413 -465747.000000 1 0 0
8.638712 -11.197227 -11.967225 18.526190 -0.913674 2.273080 0.010949 -0.004299 -665258.000000 1 0 0
-4.599988 0.755073 -15.056825 15.761916 -0.162696 2.841355 0.001329 -0.006156 473359.000000 1 0 0
2.401012 5.101373 -17.342125 18.235629 1.130895 2.827258 0.010457 -0.000724 744793.000000 1 0 0
5.836912 -11.764927 -12.435425 18.086538 -1.110251 2.328908 -0.005385 0.005649 124618.000000 1 0 0
12.829512 7.299973 -8.577725 17.072298 0.517312 2.097209 0.002577 0.001394 1396150.000000 1 0 0
-4.946588 3.597473 -15.717025 16.865213 -0.628790 2.770467 0.001056 -0.003556 -761492.000000 1 0 0
-0.599288 -4.380827 -19.038725 19.545430 1.434842 2.913394 0.009491 -0.011515 -1283880.000000 1 0 0
9.774812 4.432273 -10.285125 14.865254 0.425709 2.334900 -0.007359 0.004361 269216.000000 1 0 0
13.408112 3.789073 -12.743125 18.881784 0.275414 2.311612 -0.011709 0.000371 1171080.000000 1 0 0
-6.025688 5.866773 -17.263125 19.202693 -0.772036 2.688266 -0.000369 0.005788 303334.000000 1 0 0
-10.041588 3.263873 -15.440225 18.705264 -0.314264 2.541792 0.009029 -0.001337 -457514.000000 1 0 0
10.657212 13.305873 -8.259825 18.943261 0.895482 2.021979 0.021339 -0.010503 116628.000000 1 0 0
7.402212 13.458973 -12.309725 19.684157 1.067966 2.246392 0.003571 -0.003785 641778.000000 1 0 0
5.180412 15.171473 -11.207325 19.560531 1.241752 2.180904 -0.001803 -0.007318 1699300.000000 1 0 0
14.035212 9.628473 -9.959125 19.720011 0.601283 2.100209 0.011827 -0.006166 -1020110.000000 1 0 0
8.305312 -17.260127 -2.109425 19.270181 -1.122314 1.680482 0.013156 0.000608 -587356.000000 1 0 0
0.632312 -15.981127 -0.033725 15.993667 -1.531251 1.572905 0.007791 -0.003330 3041460.000000 1 0 0
-9.113988 -11.715527 7.578275 16.665791 0.909652 1.098738 0.004061 -0.007356 1409990.000000 1 0 0
2.049612 -15.910127 -2.636625 16.256840 -1.442678 1.733701 0.007969 -0.003596 3104890.000000 1 0 0
-1.295588 -11.053227 -9.460725 14.606769 1.454115 2.275351 -0.006293 -0.000038 1754430.000000 1 0 0
-4.734288 -12.626527 -12.950025 18.696144 1.212071 2.335963 0.010143 -0.004850 -378864.000000 1 0 0
-8.206588 -17.790327 -1.785025 19.673082 1.138589 1.661656 0.002361 -0.009010 32107.100000 1 0 0
-11.390988 -7.008627 -8.868025 16.047346 0.551578 2.156296 0.020761 -0.005758 4417260.000000 1 0 0
-13.495588 -11.461927 -4.733525 18.327927 0.704093 1.832026 0.004463 -0.004385 1586600.000000 1 0 0
-5.927188 -13.215027 9.860575 17.521400 1.149175 0.973059 0.010485 -0.011592 460686.000000 1 0 0
0.058912 -14.017027 -3.744725 14.508738 -1.566593 1.831853 0.002539 -0.000262 -303472.000000 1 0 0
-14.647388 -11.611627 1.900175 18.787935 0.670301 1.469485 0.005616 -0.001369 388902.000000 1 0 0
-3.982088 -16.477527 -7.570625 18.565567 1.333675 1.990815 -0.004850 -0.003255 183429.000000 1 0 0
0.489912 -15.319627 -9.305225 17.930929 -1.538828 2.116416 -0.004612 0.001761 1630830.000000 1 0 0
4.510812 -14.151627 -2.657325 15.088981 -1.262229 1.747830 0.001957 0.001209 612183.000000 1 0 0
-3.667688 -18.128227 -2.564325 18.672448 1.371172 1.708564 -0.002306 -0.008301 30482.200000 1 0 0
-1.018288 -13.485727 0.667075 13.540559 1.495431 1.521511 0.003717 -0.000484 2799390.000000 1 0 0
-8.404488 -11.082127 -10.568925 17.468575 0.921952 2.220594 0.010785 -0.008618 2027950.000000 1 0 0
-3.829388 -14.189927 -0.471325 14.705114 1.307209 1.602854 -0.006672 0.000678 4210100.000000 1 0 0
-1.589588 -14.918127 -7.306125 16.687024 1.464643 2.023983 -0.005092 0.001396 758460.000000 1 0 0
-14.153088 -7.983527 -1.884825 16.358458 0.513592 1.686273 0.002673 -0.000230 1251640.000000 1 0 0
-10.746788 -7.173027 -11.649425 17.396979 0.588550 2.304498 0.020415 -0.009757 -576231.000000 1 0 0
-9.434588 -14.714627 6.824575 18.764502 1.000653 1.198564 -0.004797 0.001345 173520.000000 1 0 0
-2.474188 -14.223427 -12.413025 19.039713 1.398568 2.280955 0.004407 -0.003904 -516166.000000 1 0 0
2.280412 -17.837827 -4.821625 18.618175 -1.443645 1.832756 0.014629 -0.003196 -324603.000000 1 0 0
-6.449788 -9.592527 -9.202925 14.775323 0.978851 2.243187 0.004727 -0.006031 -577011.000000 1 0 0
-10.974188 -15.376127 0.315375 18.893320 0.950924 1.554103 0.007365 -0.002117 -45988.800000 1 0 0
-12.605188 -11.083227 4.018575 17.259132 0.721237 1.335802 0.010316 -0.004209 1025450.000000 1 0 0
-17.015788 -8.892327 -1.635825 19.268794 0.481558 1.655794 0.003981 0.002384 168338.000000 1 0 0
-1.541288 -19.315827 -4.097625 19.805739 1.491171 1.779192 0.002347 -0.000886 805957.000000 1 0 0
3.232012 -14.289127 -8.755825 17.067206 -1.348353 2.109496 -0.014782 0.001323 1550840.000000 1 0 0
-4.269788 -7.915327 -12.989925 15.799419 1.076102 2.536022 -0.003413 -0.005036 1153960.000000 1 0 0
5.476512 -16.691227 1.292375 17.614184 -1.253757 1.497359 0.015659 -0.000497 3413660.000000 1 0 0
-2.860688 -13.846027 -3.206825 14.497577 1.367056 1.793838 -0.005876 -0.000524 -741957.000000 1 0 0
-0.483688 -13.984927 3.681675 14.469515 1.536224 1.313524 0.005037 -0.000246 -1981440.000000 1 0 0
1.201412 -16.133427 6.907075 17.590866 -1.496466 1.167284 0.024541 -0.008415 1257300.000000 1 0 0
-5.486988 -10.208127 -14.475125 18.542981 1.077592 2.466462 0.009372 -0.007969 -582306.000000 1 0 0
-0.404988 -17.269927 -5.965125 18.275588 1.547350 1.903287 0.005968 -0.002918 -148790.000000 1 0 0
-6.643888 -13.471627 -1.293525 15.076445 1.112623 1.656700 -0.005728 0.000793 1642580.000000 1 0 0
-1.807988 -17.822327 -0.299725 17.916305 1.469697 1.587526 0.000468 -0.001142 2255680.000000 1 0 0
-9.450088 -9.721627 -4.876025 14.407977 0.799561 1.916039 0.008314 -0.006438 1686370.000000 1 0 0
-0.891688 -16.726527 4.868375 17.443420 1.517537 1.287945 0.009314 -0.002736 2319370.000000 1 0 0
-6.773788 -9.786327 -6.299325 13.466176 0.965346 2.057584 0.007780 -0.004304 2477800.000000 1 0 0
-6.113888 -14.497227 -8.612725 17.936785 1.171700 2.071646 0.003469 -0.006651 1174120.000000 1 0 0
-5.718788 -12.138827 -10.285925 16.907274 1.130522 2.224805 0.006984 -0.006107 982656.000000 1 0 0
-10.574788 -11.979627 -8.820025 18.251861 0.847604 2.075148 0.019983 -0.018080 -1045810.000000 1 0 0
3.985312 -17.134427 6.390075 18.716420 -1.342269 1.222374 0.039970 -0.012387 1337660.000000 1 0 0
-6.687388 -14.487927 -4.194725 16.498997 1.138351 1.827859 -0.001105 -0.006179 -520978.000000 1 0 0
-2.888688 -12.235227 -7.136425 14.455928 1.338946 2.087098 -0.002250 -0.000713 3330770.000000 1 0 0
-6.983688 -12.845227 4.428975 15.277028 1.072819 1.276663 -0.003970 0.000961 1707840.000000 1 0 0
2.503312 -16.481527 2.369475 16.838103 -1.420062 1.429607 0.015650 -0.003725 4703020.000000 1 0 0
-6.107588 -12.038127 7.238775 15.317278 1.101283 1.078570 -0.003190 -0.000116 1583250.000000 1 0 0
-11.216188 -12.815827 -1.082325 17.065161 0.851863 1.634262 0.005793 -0.000723 1685060.000000 1 0 0
-14.201188 -8.732627 4.498175 17.267487 0.551320 1.307257 0.005653 -0.004155 118583.000000 1 0 0
-7.958088 -15.567827 4.394775 18.027824 1.098238 1.324538 -0.005212 0.006204 -358601.000000 1 0 0
-16.454288 -9.209527 1.172775 18.892707 0.510263 1.508681 -0.001009 0.000863 -697806.000000 1 0 0
-6.648188 -17.072127 2.312475 18.466279 1.199446 1.445240 -0.006051 0.001001 2020840.000000 1 0 0
-11.596088 -14.885227 -4.710825 19.448165 0.908971 1.815454 0.021748 -0.007142 1520950.000000 1 0 0
-10.078088 -9.850727 -12.614025 18.913442 0.773990 2.300883 0.018951 -0.006139 -673021.000000 1 0 0
-4.335188 -16.050427 -4.590025 17.247562 1.306993 1.840168 -0.007827 -0.004678 -393465.000000 1 0 0
-11.788288 -8.325427 -0.018125 14.431798 0.614905 1.572052 -0.002929 -0.002471 1187330.000000 1 0 0
-9.601688 -11.234927 3.466475 15.180002 0.863621 1.340406 -0.002105 0.004117 3790490.000000 1 0 0
-14.064988 -12.921127 -0.698825 19.111980 0.743037 1.607369 0.003255 0.003891 -589478.000000 1 0 0
5.545112 -14.990827 -7.120625 17.497899 -1.216504 1.989900 -0.002336 -0.000820 -466005.000000 1 0 0
-7.483588 -10.587527 -1.263125 13.026715 0.955501 1.667913 -0.003532 -0.001417 444616.000000 1 0 0
-11.679788 -8.176927 -6.024025 15.477999 0.610788 1.970558 0.014333 -0.008356 -331019.000000 1 0 0
-14.480388 -6.668427 -9.269925 18.441287 0.431563 2.097484 0.017722 -0.007688 993504.000000 1 0 0
-3.895188 -16.530427 1.362775 17.037742 1.339380 1.490725 -0.006413 -0.000688 601791.000000 1 0 0
-8.004888 -15.628027 0.202075 17.560020 1.097426 1.559288 0.003629 0.000286 2192000.000000 1 0 0
0.884212 -18.675427 3.681075 19.055281 -1.523485 1.376395 0.017139 -0.005609 -372919.000000 1 0 0
-14.219088 -8.707427 -4.686625 17.319532 0.549470 1.844810 0.011016 -0.006943 681857.000000 1 0 0
-3.485888 -14.304127 11.233575 18.518982 1.331758 0.919022 0.007277 -0.016307 385800.000000 1 0 0
-10.736388 -12.068827 -3.872925 16.611025 0.843759 1.806116 0.009898 -0.010640 2157160.000000 1 0 0
-9.971488 -10.702527 0.535475 14.637670 0.820744 1.534206 -0.001472 0.000397 698403.000000 1 0 0
-0.137888 -13.194127 -11.151825 17.276203 1.560346 2.272477 -0.007362 -0.001016 1628480.000000 1 0 0
-5.910188 -12.622927 -6.342025 15.313063 1.132902 1.997814 -0.004169 -0.007591 2126150.000000 1 0 0
1.757812 -15.839127 9.787575 18.701991 -1.460269 1.020026 0.025124 -0.011470 694701.000000 1 0 0
-9.039588 -15.708427 -5.541125 18.951857 1.048616 1.867510 0.020918 -0.009362 -953180.000000 1 0 0
-3.409688 -15.478427 5.915475 16.917462 1.353973 1.213581 0.001007 0.001383 -821975.000000 1 0 0
-17.526788 -5.371827 -6.548625 19.466107 0.297402 1.913900 0.010205 -0.001261 403878.000000 1 0 0
18.804412 5.725773 -2.820825 19.858183 0.295572 1.713327 -0.005569 0.011243 -904906.000000 1 0 0
12.709512 -12.538427 -5.810025 18.774990 -0.778622 1.885417 0.023674 -0.007673 -2147730.000000 1 0 0
10.882212 -13.531527 -1.644425 17.442159 -0.893493 1.665215 0.016820 -0.006160 3094750.000000 1 0 0
18.530412 -3.008327 4.511075 19.307408 -0.160941 1.334972 0.014024 -0.009140 -693669.000000 1 0 0
8.668012 -17.004527 4.914675 19.708943 -1.099381 1.318774 0.024450 -0.011032 -487409.000000 1 0 0
17.878312 -1.127827 6.538475 19.069811 -0.063000 1.220825 0.025919 -0.010177 -893751.000000 1 0 0
18.033812 -4.097127 -5.046725 19.169618 -0.223399 1.837203 0.034371 -0.010766 -327148.000000 1 0 0
5.408312 -11.803527 14.732775 19.637407 -1.141149 0.722371 0.007255 -0.003831 -465615.000000 1 0 0
15.894112 -8.925927 -0.843825 18.248480 -0.511696 1.617054 0.015729 -0.006693 905526.000000 1 0 0
13.739612 -12.675327 -1.335625 18.740991 -0.745129 1.642124 0.018976 -0.003208 1187730.000000 1 0 0
11.159612 -2.134327 13.803075 17.877841 -0.188973 0.688693 0.000010 0.000709 -1277350.000000 1 0 0
16.862912 -6.127127 -1.522925 18.006077 -0.348517 1.655476 0.016156 -0.010706 -1756500.000000 1 0 0
17.705112 3.658473 -0.951225 18.104150 0.203766 1.623362 0.001867 -0.000516 -156525.000000 1 0 0
9.726512 -11.213327 9.449875 17.596701 -0.856283 1.003889 0.009610 -0.001762 -99900.600000 1 0 0
8.996012 -11.119427 4.309475 14.937921 -0.890570 1.278145 0.004161 -0.004103 375473.000000 1 0 0
13.968012 -10.145227 6.783575 18.548528 -0.628172 1.196390 0.016478 -0.011636 -1086230.000000 1 0 0
16.101812 -0.515227 -4.759525 16.798419 -0.031987 1.858063 0.005275 -0.005255 -1091300.000000 1 0 0
15.646012 -0.376227 -1.792725 15.752876 -0.024042 1.684846 0.003713 -0.006658 -309352.000000 1 0 0
12.843312 -5.127727 -0.286625 13.832079 -0.379862 1.591520 0.007214 -0.005513 224591.000000 1 0 0
14.180912 -7.545027 1.102075 16.100940 -0.488962 1.502295 0.009063 -0.004765 2212910.000000 1 0 0
15.393012 2.497173 3.598275 16.004008 0.160827 1.344022 0.001659 -0.003837 202117.000000 1 0 0
15.876312 -7.078227 4.986275 18.083737 -0.419386 1.291445 0.018202 -0.010931 -2368750.000000 1 0 0
13.656912 -12.061727 3.236675 18.506015 -0.723453 1.394994 0.011780 -0.010139 148394.000000 1 0 0
13.879112 -1.078527 9.117275 16.640844 -0.077553 0.990962 0.011809 -0.009269 418289.000000 1 0 0
14.072212 -2.760327 -1.634625 14.433245 -0.193695 1.684294 -0.000278 -0.004677 -40194.600000 1 0 0
14.942112 1.707773 9.190475 17.625210 0.113799 1.022260 0.017354 -0.006080 -566876.000000 1 0 0
14.269012 -10.268027 -2.970425 17.828643 -0.623762 1.738187 0.020036 -0.002059 342657.000000 1 0 0
7.310912 -12.741727 6.115775 15.912377 -1.049882 1.176303 0.004471 -0.005766 -200315.000000 1 0 0
12.397012 -4.649527 7.035875 14.993584 -0.358816 1.082345 0.006299 -0.003932 2756740.000000 1 0 0
14.860112 -9.100427 -5.628125 18.311649 -0.549492 1.883206 0.027711 -0.006434 14131.200000 1 0 0
14.292912 -4.567327 4.612775 15.697946 -0.309296 1.272549 0.005278 -0.005843 612691.000000 1 0 0
16.988012 -4.218727 0.861575 17.525197 -0.243412 1.521614 0.006564 -0.011488 -1207450.000000 1 0 0
10.078212 -14.485827 1.126075 17.682692 -0.962942 1.507071 0.014595 -0.007731 -231741.000000 1 0 0
16.356812 -2.577227 8.514775 18.619581 -0.156278 1.095837 0.029211 -0.010418 1514010.000000 1 0 0
15.927112 -2.597427 3.091875 16.431045 -0.161659 1.381495 0.007181 -0.008097 -45880.200000 1 0 0
7.716312 -15.344927 2.721075 17.390012 -1.104865 1.413677 0.009911 -0.006663 3185880.000000 1 0 0
16.595412 -7.176427 7.913275 19.736482 -0.408151 1.158246 0.027192 -0.004172 -19265.500000 1 0 0
10.204012 -8.557627 5.142575 14.275886 -0.697870 1.202284 0.005331 -0.006700 1633210.000000 1 0 0
10.852912 -11.887627 2.157675 16.240596 -0.830868 1.437545 0.009056 -0.006529 428753.000000 1 0 0
12.405712 -7.332927 11.854975 18.660492 -0.533844 0.882402 0.011967 -0.014467 705321.000000 1 0 0
15.086612 -9.778427 4.218975 18.466815 -0.575075 1.340298 0.014260 -0.014106 -1361540.000000 1 0 0
7.348212 -10.422527 7.839375 14.969339 -0.956701 1.019613 0.002916 -0.003304 978212.000000 1 0 0
15.190912 -3.310327 -4.358325 16.146736 -0.214561 1.844106 0.015565 -0.004002 -253557.000000 1 0 0
11.804212 -9.099527 9.751875 17.811229 -0.656725 0.991407 0.007968 -0.008123 -1311660.000000 1 0 0
16.883512 -6.630427 2.360675 18.291756 -0.374211 1.441379 0.015827 -0.008608 752288.000000 1 0 0
17.391212 4.070173 1.968075 17.969248 0.229898 1.461052 -0.001616 0.001632 -369702.000000 1 0 0
14.781012 -5.027027 8.804875 17.924150 -0.327828 1.057295 0.023318 -0.007411 254659.000000 1 0 0
12.781412 -12.656327 6.066975 18.983027 -0.780481 1.245489 0.012143 -0.006874 -1140590.000000 1 0 0
18.215212 0.700473 -0.906325 18.251193 0.038436 1.620475 0.015200 -0.008385 693863.000000 1 0 0
11.595312 -2.232927 10.928975 16.089740 -0.190243 0.824054 -0.000368 -0.001843 1757370.000000 1 0 0
5.885112 -12.505327 10.608275 17.422780 -1.130937 0.916156 0.006765 -0.002999 -1060190.000000 1 0 0
10.712812 -5.158427 11.016275 16.209011 -0.448754 0.823526 0.004455 -0.003943 529935.000000 1 0 0
17.720712 1.194173 4.851375 18.411560 0.067287 1.304152 0.018260 -0.008228 -647401.000000 1 0 0
12.274112 -7.790727 7.131175 16.192681 -0.565564 1.114758 0.011049 -0.008840 -1258790.000000 1 0 0
10.928312 -7.865627 14.262675 19.614281 -0.623857 0.756624 0.025316 -0.012401 -963573.000000 1 0 0
14.112612 -0.253527 3.617275 14.571025 -0.017963 1.319922 -0.003146 -0.005365 1554420.000000 1 0 0
11.598312 -7.780127 2.599875 14.206005 -0.590857 1.386747 0.007356 -0.004556 729447.000000 1 0 0
9.264812 6.056873 3.465275 11.598732 0.579007 1.267400 0.000557 -0.004035 1206110.000000 1 0 0
-3.758088 14.761273 -9.869925 18.150312 -1.321501 2.145741 -0.003646 0.000726 560085.000000 1 0 0
8.752312 -6.606527 9.256775 14.350507 -0.646587 0.869709 0.004427 -0.003309 248182.000000 1 0 0
5.750612 -10.703327 -8.537425 14.849861 -1.077777 2.183298 -0.007431 0.001435 715852.000000 1 0 0
5.360312 1.058373 0.543075 5.490722 0.194939 1.471727 0.002299 -0.000682 3034780.000000 1 0 0
-0.612588 9.857873 10.977775 14.767006 -1.508734 0.732659 -0.008563 0.002106 1931000.000000 1 0 0
-6.404488 -5.222627 1.108975 8.338053 0.684099 1.437399 0.004474 -0.004761 1702830.000000 1 0 0
-0.929688 3.960073 -10.841725 11.579702 -1.340207 2.782653 0.006645 -0.007210 1758630.000000 1 0 0
10.962612 5.788773 1.230975 12.458092 0.485833 1.471826 -0.002884 -0.000765 117125.000000 1 0 0
-10.073788 -1.747227 -13.585825 17.003195 0.171734 2.496453 0.014359 -0.012785 646193.000000 1 0 0
7.467412 10.822873 -6.054025 14.475774 0.966837 2.002279 0.001709 -0.005639 1179480.000000 1 0 0
-12.450388 -2.985327 -9.593225 15.998572 0.235335 2.213835 0.010671 -0.003769 -161875.000000 1 0 0
-3.905988 -8.682327 2.510875 9.846016 1.148044 1.312934 0.002964 -0.000852 -1154140.000000 1 0 0
7.941712 -6.717427 -5.876625 11.946939 -0.702075 2.085060 -0.000250 -0.002808 2169700.000000 1 0 0
14.266712 3.268473 -4.197025 15.226195 0.225211 1.850057 0.002883 0.000854 474088.000000 1 0 0
-2.546688 -4.915927 9.808275 11.262958 1.092815 0.513880 0.002537 -0.002597 2528430.000000 1 0 0
3.485112 -1.946627 -4.541325 6.046404 -0.509388 2.420491 -0.001174 -0.003604 -3530640.000000 1 0 0
-4.007588 8.505173 -3.504825 10.034068 -1.130458 1.927612 -0.001601 -0.000191 -59258.800000 1 0 0
5.814512 -0.011227 11.739575 13.100622 -0.001931 0.459874 -0.005968 0.003632 1795560.000000 1 0 0
7.144612 4.666273 12.405475 15.057071 0.578564 0.602543 -0.005218 0.008970 1067110.000000 1 0 0
1.371312 -14.526927 12.342475 19.111484 -1.476677 0.868707 0.017060 -0.007013 613027.000000 1 0 0
3.030912 8.685173 -9.133925 12.963304 1.235035 2.352654 0.003040 -0.002639 1507600.000000 1 0 0
-4.438788 -8.857027 -4.539925 10.897738 1.106221 2.000491 0.002662 -0.002650 1122760.000000 1 0 0
5.668612 -6.657927 -4.051525 9.637220 -0.865485 2.004687 -0.001226 -0.002872 1482600.000000 1 0 0
-3.172888 3.465573 8.626275 9.822934 -0.829459 0.498759 0.000959 0.002744 2733120.000000 1 0 0
-3.636988 3.070673 -11.095625 12.073508 -0.701170 2.736348 0.001282 -0.007998 1570550.000000 1 0 0
3.029212 -6.156127 8.522575 10.941130 -1.113517 0.677809 -0.005237 0.000176 -1074520.000000 1 0 0
-5.077488 -8.661127 10.542675 14.558297 1.040557 0.760967 0.004647 -0.009630 265196.000000 1 0 0
-13.250788 -2.512827 6.511775 14.976678 0.187411 1.120986 -0.000155 -0.001491 -526898.000000 1 0 0
3.900212 -5.902427 -8.296525 10.903331 -0.986879 2.435521 -0.004963 -0.002201 2560940.000000 1 0 0
2.966112 -0.586527 12.376575 12.740544 -0.195224 0.239603 -0.000837 -0.000864 1513030.000000 1 0 0
1.449712 -1.396527 -7.558125 7.821586 -0.766714 2.881306 0.001136 -0.006947 -622104.000000 1 0 0
3.587612 -3.565127 3.503975 6.152962 -0.782255 0.964926 -0.001840 0.000831 2405720.000000 1 0 0
1.586212 0.432373 -11.802025 11.915989 0.266117 3.003178 0.004298 -0.008534 480245.000000 1 0 0
4.093412 3.607573 -10.620525 11.940107 0.722394 2.667009 0.001615 -0.003471 -105925.000000 1 0 0
2.855412 3.257273 3.349775 5.475783 0.851046 0.912533 -0.003494 0.004920 -808487.000000 1 0 0
-5.360288 0.905573 2.603475 6.027506 -0.167361 1.124162 0.002696 0.000942 1792490.000000 1 0 0
-9.452288 -9.311127 5.620275 14.409383 0.777875 1.170118 0.003078 -0.004990 -564365.000000 1 0 0
-3.029788 3.791673 -0.687025 4.901877 -0.896627 1.711415 -0.000896 -0.002099 1027930.000000 1 0 0
-15.823188 -6.579727 4.969475 17.842695 0.394076 1.288548 0.007524 -0.009146 1062380.000000 1 0 0
1.011012 6.683173 -8.085425 10.538550 1.420657 2.445297 0.006226 -0.004693 -209887.000000 1 0 0
-1.584388 6.467773 -9.460225 11.568847 -1.330561 2.528257 0.002752 -0.004791 1475110.000000 1 0 0
2.065612 -0.370727 5.287175 5.688446 -0.177585 0.377854 0.001420 0.002425 2268960.000000 1 0 0
-3.442688 -0.590427 -6.227725 7.140396 0.169849 2.630441 0.007785 -0.008764 -81294.500000 1 0 0
1.930212 -1.168327 -2.403225 3.296392 -0.544296 2.387725 0.003759 -0.002889 2257800.000000 1 0 0
2.416712 -8.562127 -7.655625 11.737083 -1.295697 2.281358 -0.006959 0.000746 3550900.000000 1 0 0
-2.362288 14.133673 -5.491525 15.345943 -1.405188 1.936759 0.001468 0.000614 2471710.000000 1 0 0
6.849112 -5.061327 -8.085025 11.742870 -0.636408 2.330222 -0.000485 -0.003699 2988840.000000 1 0 0
-14.204488 -5.049727 -2.200325 15.235112 0.341568 1.715728 0.001662 -0.002042 -1084330.000000 1 0 0
-2.683388 6.919473 -6.826825 10.083908 -1.200849 2.314478 0.002707 -0.003358 -1893200.000000 1 0 0
-5.674188 -1.094027 -8.139725 9.982406 0.190470 2.524228 0.011046 -0.011851 1197220.000000 1 0 0
-5.703088 -10.632127 3.432475 12.543892 1.078453 1.293624 -0.001780 -0.000702 -4724070.000000 1 0 0
7.990312 -7.709327 6.663675 12.949262 -0.767503 1.030257 0.001749 -0.004629 453751.000000 1 0 0
8.873512 -6.079827 13.184275 17.015541 -0.600701 0.684339 0.012969 -0.004207 961990.000000 1 0 0
-4.739588 9.638073 -0.787325 10.769216 -1.113765 1.643970 -0.005332 0.003275 -961227.000000 1 0 0
2.730912 6.587673 12.051875 14.003678 1.177811 0.534306 -0.001229 0.001465 1480710.000000 1 0 0
6.065412 -2.910327 10.925475 12.830637 -0.447376 0.551929 -0.001212 -0.000768 107217.000000 1 0 0
-9.723388 -6.523827 -1.121325 11.762736 0.590956 1.666270 0.002009 -0.006006 -567834.000000 1 0 0
0.814212 -13.369027 6.266275 14.787158 -1.509969 1.133199 0.007109 -0.003787 1127660.000000 1 0 0
-0.566588 -3.143727 8.717275 9.284122 1.392483 0.351247 0.002166 -0.003015 2896750.000000 1 0 0
4.164312 0.729673 3.338975 5.387270 0.173460 0.902321 -0.002587 0.002425 1945570.000000 1 0 0
-10.236588 5.619273 8.331175 14.344770 -0.502029 0.951108 -0.001682 -0.000440 652684.000000 1 0 0
9.458912 8.039673 -0.067525 12.414182 0.704469 1.576236 -0.000355 -0.002144 2479390.000000 1 0 0
4.298712 2.906673 8.096475 9.616683 0.594555 0.569965 -0.004626 0.000113 2568450.000000 1 0 0
1.402912 2.635373 -9.777325 10.222986 1.081613 2.845233 0.006325 -0.006546 1789460.000000 1 0 0
-1.375488 -10.206427 3.025775 10.733985 1.436837 1.285036 0.001366 -0.001676 -888486.000000 1 0 0
-9.835888 9.597973 9.121375 16.494401 -0.773156 0.984838 -0.007041 -0.001699 -581846.000000 1 0 0
9.793612 -1.858227 -7.667525 12.576120 -0.187510 2.226465 0.007245 -0.002296 2152990.000000 1 0 0
-5.278188 -1.966627 6.760775 8.799714 0.356661 0.694623 0.003865 -0.000121 -445839.000000 1 0 0
3.100312 -7.842727 -4.911925 9.759473 -1.194339 2.098208 -0.006601 -0.001260 1885520.000000 1 0 0
-4.976388 4.818973 -13.013625 14.742502 -0.769329 2.652434 -0.004262 -0.010633 1097210.000000 1 0 0
-5.678188 9.644573 5.435275 12.441938 -1.038694 1.118701 -0.008447 0.003714 1025620.000000 1 0 0
-0.460988 -1.716827 -9.349825 9.517312 1.308472 2.953710 0.002584 -0.009842 -84266.400000 1 0 0
-16.784688 0.060073 6.387975 17.959276 -0.003579 1.207142 0.007207 -0.001304 -1116250.000000 1 0 0
-5.979788 -2.888827 4.090475 7.799690 0.450035 1.018738 0.000045 -0.000658 1430930.000000 1 0 0
0.895812 -5.732327 -5.095225 7.721617 -1.415776 2.291435 0.000044 -0.002738 1557880.000000 1 0 0
-6.978288 1.439373 -8.479525 11.075678 -0.203412 2.442768 0.004534 -0.006029 206614.000000 1 0 0
8.024312 1.938073 4.651075 9.475137 0.236987 1.057706 -0.004550 -0.000649 589458.000000 1 0 0
0.463512 -8.101927 -0.408025 8.125426 -1.513648 1.621033 0.000928 -0.001219 1469490.000000 1 0 0
5.558612 5.527273 -3.393325 8.541871 0.782571 1.979323 0.002783 -0.001762 -952145.000000 1 0 0
-0.775088 -0.424827 -1.289525 1.563366 0.501385 2.540713 0.005704 -0.003027 -200566.000000 1 0 0
9.139012 6.361773 -6.303125 12.795432 0.608112 2.085880 -0.002896 -0.000488 1560150.000000 1 0 0
-14.983088 -7.055627 2.401775 16.734495 0.440103 1.426777 -0.003020 -0.004856 -213014.000000 1 0 0
-6.448688 6.835873 8.928975 12.963076 -0.814535 0.810963 -0.006158 0.002869 42817.400000 1 0 0
-9.435288 -3.127327 -9.569525 13.797849 0.320055 2.337204 0.015504 -0.007905 1717020.000000 1 0 0
14.834312 3.506273 -1.176525 15.288394 0.232103 1.647828 -0.008742 -0.000040 272646.000000 1 0 0
12.052112 1.662573 -5.779925 13.469413 0.137083 2.014309 0.004230 -0.001331 -624354.000000 1 0 0
1.655612 -9.420027 12.762675 15.948788 -1.396819 0.643120 0.000195 -0.004130 -545131.000000 1 0 0
-3.645288 6.326573 7.862175 10.729746 -1.048071 0.748448 -0.003477 0.004459 1525720.000000 1 0 0
-3.871488 13.104573 -12.309625 18.391441 -1.283537 2.304080 -0.003910 -0.000790 1160910.000000 1 0 0
-10.244888 7.868073 6.534875 14.476494 -0.654922 1.102448 -0.003561 -0.000929 613445.000000 1 0 0
7.988212 -9.318527 -7.203525 14.231558 -0.862114 2.101529 -0.002499 -0.000143 -956362.000000 1 0 0
5.821312 -3.881727 -0.348725 7.005504 -0.588104 1.620596 0.001008 -0.000689 -1417400.000000 1 0 0
-1.613688 -4.475827 4.146175 6.310926 1.224768 0.853986 0.002412 -0.001340 257791.000000 1 0 0
9.885912 -2.093227 -2.609025 10.436468 -0.208657 1.823467 -0.001843 -0.000916 -2070990.000000 1 0 0
13.458412 7.238673 1.560975 15.361116 0.493471 1.469002 -0.006060 0.003494 -2662320.000000 1 0 0
5.408312 -3.756427 -3.252625 7.344396 -0.607069 2.029595 0.002569 -0.004075 -3259140.000000 1 0 0
-12.250788 -5.933627 1.851875 13.737510 0.451047 1.435580 -0.001775 -0.002403 2243530.000000 1 0 0
3.689712 -5.719027 -0.256925 6.810819 -0.997828 1.608528 -0.000113 -0.002563 -718000.000000 1 0 0
-5.139588 3.756873 -8.682725 10.766576 -0.631209 2.508923 0.003312 -0.007389 749891.000000 1 0 0
-1.739388 -9.211027 7.196275 11.817566 1.384157 0.916064 0.000156 -0.002497 2895990.000000 1 0 0
-7.396088 -7.474527 2.587975 10.829048 0.790673 1.329476 0.006089 -0.004252 -4737360.000000 1 0 0
-5.699188 13.119873 -8.581625 16.681010 -1.160996 2.111168 0.003951 -0.005074 1508460.000000 1 0 0
9.131912 -13.946527 -4.190425 17.188866 -0.991068 1.817065 0.008368 -0.000600 1544080.000000 1 0 0
-6.519988 -5.137227 -6.662525 10.643805 0.667331 2.247150 0.009146 -0.006610 1233170.000000 1 0 0
3.390312 0.353473 -6.161625 7.041646 0.103884 2.636286 0.001219 -0.007403 1563790.000000 1 0 0
-3.573488 5.780473 4.934275 8.398259 -1.017102 0.942786 -0.004123 0.006757 -141940.000000 1 0 0
-2.724388 -10.798427 -2.829125 11.490529 1.323659 1.819568 0.002512 0.000285 1953970.000000 1 0 0
-12.591688 -0.468327 1.746275 12.720826 0.037176 1.433085 -0.001173 -0.000164 317429.000000 1 0 0
8.344012 -12.035627 -6.134525 15.878012 -0.964597 1.967471 0.002714 -0.005466 -329226.000000 1 0 0
6.173312 3.942973 1.029275 7.397042 0.568399 1.431196 0.000844 -0.001454 -1336070.000000 1 0 0
3.449912 -4.797427 -10.880725 12.381736 -0.947355 2.644080 -0.006539 -0.004018 -1327120.000000 1 0 0
-7.689488 4.291573 8.626975 12.327632 -0.509048 0.795668 -0.005858 0.003580 1752220.000000 1 0 0
8.098512 8.700773 4.068875 12.563642 0.821233 1.240989 0.006113 -0.002990 2024170.000000 1 0 0
0.249712 10.504373 -6.309025 12.255937 1.547029 2.111539 0.001200 -0.000191 3245680.000000 1 0 0
5.329312 8.100873 3.167875 10.201036 0.988909 1.255031 0.005331 -0.001280 2901270.000000 1 0 0
8.148512 6.648773 -3.707025 11.151075 0.684391 1.909682 0.002069 -0.002535 762249.000000 1 0 0
10.485612 2.617173 -8.194025 13.562437 0.244599 2.219521 -0.004772 0.000730 -185629.000000 1 0 0
3.252412 -12.536227 -0.308225 12.954929 -1.316952 1.594591 -0.000510 0.000055 -2918750.000000 1 0 0
0.615412 2.107473 5.216175 5.659387 1.286682 0.398393 0.000983 0.003270 1430310.000000 1 0 0
-4.831188 13.431773 1.458575 14.348531 -1.225521 1.468967 -0.008526 0.005052 1935360.000000 1 0 0
8.193412 4.085973 -8.013025 12.166994 0.462599 2.289736 -0.003769 0.001982 76440.600000 1 0 0
-13.854988 -0.527627 -3.546525 14.311426 0.038064 1.821216 -0.000258 -0.001469 -137743.000000 1 0 0
-8.581788 0.040273 -0.474925 8.595013 -0.004693 1.626080 -0.000276 -0.000430 -455291.000000 1 0 0
1.806112 -3.845227 -1.113925 4.391884 -1.131679 1.827230 0.003215 -0.002310 -1963980.000000 1 0 0
8.049112 -5.685327 -0.298925 9.859032 -0.614961 1.601121 0.000080 -0.001772 2293130.000000 1 0 0
-2.392988 -1.159427 7.328075 7.795598 0.451179 0.348086 0.006210 -0.000297 3521270.000000 1 0 0
-5.712888 8.817873 -11.666725 15.700460 -0.995916 2.408460 -0.001346 -0.004845 -935150.000000 1 0 0
-6.101688 9.216873 -8.866325 14.170147 -0.986023 2.246831 -0.002412 -0.004621 652433.000000 1 0 0
-1.304788 13.925973 -8.270225 16.249056 -1.477375 2.104780 0.009583 0.000232 668949.000000 1 0 0
-1.497988 7.112573 9.793375 12.196018 -1.363219 0.638488 -0.001619 0.000297 -48063.900000 1 0 0
10.042112 2.331873 -3.943025 11.037622 0.228166 1.936102 -0.003062 0.001825 -1363660.000000 1 0 0
-3.009688 -7.445227 -6.946025 10.617763 1.186637 2.283906 0.002938 -0.002914 2036420.000000 1 0 0
-5.616288 -4.961027 -1.545925 7.651429 0.723528 1.774241 0.005293 -0.005093 -140582.000000 1 0 0
5.785312 7.403573 -8.918725 12.954782 0.907487 2.330147 -0.000917 -0.000876 -878651.000000 1 0 0
-9.435188 5.359373 -7.491425 13.185867 -0.516573 2.175041 -0.004983 -0.000166 1213390.000000 1 0 0
-0.405688 6.164373 -5.343825 8.168264 -1.505079 2.283944 0.004478 -0.002522 -498966.000000 1 0 0
-8.183188 2.893073 -6.381025 10.772739 -0.339824 2.204745 0.003504 -0.001169 2043970.000000 1 0 0
3.668812 1.424273 -2.046825 4.436015 0.370302 2.050381 0.001425 -0.002428 2748450.000000 1 0 0
-6.737188 12.478073 -3.638125 14.639944 -1.075723 1.821935 -0.003833 0.000022 830385.000000 1 0 0
-6.594688 3.144973 -2.344325 7.673110 -0.444993 1.881286 -0.000350 0.001557 -901387.000000 1 0 0
12.078112 4.070473 -0.715825 12.765655 0.325058 1.626900 -0.005655 0.000599 -1397450.000000 1 0 0
2.272912 12.314973 -5.510825 13.681881 1.388285 1.985351 0.001408 -0.000914 443581.000000 1 0 0
-9.210488 -1.391127 -4.262825 10.244022 0.149904 1.999979 0.001802 -0.001052 -1226710.000000 1 0 0
-1.193288 5.793173 3.318575 6.782162 -1.367656 1.059499 -0.002286 0.004108 950728.000000 1 0 0
11.459612 2.636373 11.978175 16.785406 0.226123 0.776163 0.000067 0.008610 -600348.000000 1 0 0
-7.056888 -2.273427 -5.754825 9.385422 0.311659 2.230859 0.010159 -0.005698 -426043.000000 1 0 0
7.443812 -7.507427 10.939275 15.213137 -0.789653 0.768337 0.004269 -0.004032 -904066.000000 1 0 0
-5.516388 -1.909227 -11.042125 12.490164 0.333197 2.655287 0.011661 -0.010541 -890617.000000 1 0 0
0.804412 -6.224027 4.444375 7.690128 -1.442266 0.954603 -0.000669 -0.001464 1225660.000000 1 0 0
-4.815788 -9.315227 7.452475 12.864861 1.093657 0.952940 -0.002684 -0.003446 1508500.000000 1 0 0
-8.790888 9.412673 1.694075 12.990304 -0.819542 1.440013 -0.007153 0.004180 245885.000000 1 0 0
-8.114888 7.309973 -9.179525 14.267122 -0.733262 2.269733 -0.002506 -0.003462 -1401790.000000 1 0 0
-1.215588 -10.661027 -0.093625 10.730514 1.457265 1.579522 0.002007 0.000477 409844.000000 1 0 0
-4.005288 10.277473 7.733275 13.471166 -1.199187 0.959339 -0.004430 0.004333 2876340.000000 1 0 0
-7.454888 12.074073 1.974575 14.326812 -1.017660 1.432532 -0.012840 0.002165 2341250.000000 1 0 0
-8.171688 -8.275227 -2.809025 11.964384 0.791693 1.807791 0.006557 -0.004985 -98021.600000 1 0 0
5.402312 4.664273 -8.116625 10.808331 0.712213 2.420311 0.001312 0.000109 866039.000000 1 0 0
-8.958888 -0.076327 -10.153925 13.541406 0.008520 2.418621 0.008839 -0.005372 -840069.000000 1 0 0
-15.155788 -2.297027 -1.491625 15.401272 0.150416 1.667799 0.001011 -0.001628 1095590.000000 1 0 0
-7.193388 -5.882527 8.765675 12.774428 0.685482 0.814559 0.003927 -0.006824 -771238.000000 1 0 0
8.146712 3.384273 -0.885725 8.866044 0.393725 1.670864 -0.001499 0.001544 282420.000000 1 0 0
11.936112 7.370573 -5.781925 15.173226 0.553189 1.961740 -0.000240 -0.001762 899019.000000 1 0 0
3.728112 13.231073 -9.505025 16.712439 1.296148 2.175769 -0.004901 -0.002069 1298530.000000 1 0 0
-9.673188 5.489373 -0.539125 11.135279 -0.516167 1.619231 -0.003996 0.003527 2366780.000000 1 0 0
11.292512 -1.277327 -5.162625 12.482191 -0.112634 1.997200 0.009210 -0.002558 -1344640.000000 1 0 0
10.586112 1.753273 -1.127425 10.789385 0.164130 1.675481 -0.005506 -0.000211 -574572.000000 1 0 0
14.562512 4.998673 4.780375 16.121584 0.330654 1.269749 -0.003643 -0.004716 1930390.000000 1 0 0
0.906912 -0.820927 10.316175 10.388449 -0.735675 0.118028 0.004635 -0.001170 1744090.000000 1 0 0
-7.905188 1.377073 -12.493725 14.848619 -0.172468 2.570677 0.003272 -0.005777 -323056.000000 1 0 0
3.028812 -11.530527 -7.836525 14.266670 -1.313922 2.152309 -0.008926 0.000731 -313226.000000 1 0 0
2.900212 4.976973 -6.720925 8.851685 1.043175 2.433005 0.004635 -0.001430 -1131840.000000 1 0 0
6.496512 8.066073 0.493275 10.368680 0.892764 1.523205 0.007400 -0.004224 -61484.500000 1 0 0
-9.084388 -5.480427 6.696975 12.546340 0.542828 1.007733 0.001832 -0.002345 -1187070.000000 1 0 0
-0.285488 -6.780427 -11.771425 13.587573 1.528717 2.618619 -0.006463 -0.000304 2784810.000000 1 0 0
6.345412 -13.415527 -4.692825 15.564808 -1.128989 1.877064 -0.000010 -0.000424 2837490.000000 1 0 0
-3.333388 -0.347027 10.023375 10.568820 0.103733 0.322673 0.006135 0.000503 -1378940.000000 1 0 0
8.574212 8.374173 6.943475 13.851200 0.773596 1.045707 0.000123 -0.003372 -564980.000000 1 0 0
-7.878888 5.785773 -2.729925 10.149115 -0.633402 1.843132 -0.001202 0.001012 1650630.000000 1 0 0
-5.362288 5.867073 -6.505925 10.271501 -0.830320 2.256730 -0.000951 -0.001772 -303839.000000 1 0 0
3.272812 -13.697627 2.566475 14.315135 -1.336261 1.390538 0.008592 -0.006207 -2808500.000000 1 0 0
-11.280288 -7.100727 6.452475 14.808769 0.561815 1.119958 0.006409 -0.006225 -633710.000000 1 0 0
-12.973788 -3.712927 -6.717625 15.074199 0.278736 2.032682 0.013856 -0.005103 -1656140.000000 1 0 0
6.010412 0.402473 -7.264025 9.436795 0.066863 2.449254 -0.001223 -0.000216 971807.000000 1 0 0
-1.418188 2.132473 -2.570625 3.628610 -0.983918 2.358071 0.003699 -0.003140 2718880.000000 1 0 0
7.584212 0.953373 -4.964425 9.114533 0.125049 2.146793 -0.000245 0.001207 303141.000000 1 0 0
3.685012 -4.567727 10.851675 12.337030 -0.891953 0.495772 -0.004513 0.000884 151179.000000 1 0 0
6.003212 -2.628427 2.057575 6.868828 -0.412693 1.266573 -0.000204 0.000113 -1747860.000000 1 0 0
-6.256088 7.868373 1.122875 10.114879 -0.899055 1.459555 -0.005853 0.003315 1783170.000000 1 0 0
6.072912 -3.496327 7.960975 10.605739 -0.522379 0.721783 -0.000559 -0.000951 673218.000000 1 0 0
6.788012 -2.184827 -7.860525 10.613125 -0.311394 2.404821 -0.003145 -0.002701 288990.000000 1 0 0
12.031812 -8.235627 -5.777425 15.683389 -0.600239 1.948061 0.019763 -0.004768 -936485.000000 1 0 0
5.538612 -9.716227 10.015175 15.012829 -1.052700 0.840477 -0.000640 -0.001932 1890350.000000 1 0 0
-6.589888 7.590673 -4.588525 11.049864 -0.855856 1.999021 -0.003733 -0.000406 607837.000000 1 0 0
-1.268088 -7.530327 9.729675 12.368527 1.403964 0.665436 0.003862 -0.005640 -957724.000000 1 0 0
10.011512 -9.364027 0.751575 13.728811 -0.751993 1.516025 0.004645 -0.005233 313383.000000 1 0 0
11.066612 5.966073 9.663875 15.857314 0.494441 0.915459 -0.001669 -0.001002 2355400.000000 1 0 0
-15.310788 -4.264327 -5.006125 16.663313 0.271634 1.875938 0.002109 -0.003436 1657310.000000 1 0 0
-4.743388 -4.651327 7.858575 10.290373 0.775599 0.701799 0.002929 -0.002643 -456726.000000 1 0 0
2.993212 10.865273 -11.067025 15.795332 1.301980 2.347107 -0.001914 -0.001645 -1146890.000000 1 0 0
9.868712 -1.421227 1.507275 10.083811 -0.143030 1.420759 -0.004233 -0.001087 -594839.000000 1 0 0
-1.651588 -2.682127 0.605275 3.207477 1.018858 1.380950 0.004587 -0.003213 575013.000000 1 0 0
1.580812 2.944873 0.846775 3.447937 1.078143 1.322669 0.000112 0.001390 -1856320.000000 1 0 0
-8.944988 -2.443027 4.249075 10.199795 0.266615 1.141111 -0.001641 -0.001274 4537890.000000 1 0 0
9.974912 4.889473 -2.676125 11.426612 0.455758 1.807193 -0.003767 0.001290 423936.000000 1 0 0
2.469212 8.399673 2.417875 9.082821 1.284885 1.301344 -0.000590 0.000616 1237110.000000 1 0 0
-8.144588 -0.108527 2.466975 8.510702 0.013324 1.276708 -0.001735 -0.001004 2254550.000000 1 0 0
6.888812 2.014973 13.674575 15.443764 0.284561 0.483350 -0.008288 0.009844 -1679260.000000 1 0 0
6.830912 4.422273 3.736875 8.954446 0.574539 1.140301 -0.002942 -0.000584 1037770.000000 1 0 0
-0.321788 3.382273 7.786075 8.495074 -1.475942 0.411455 -0.000466 0.003232 257998.000000 1 0 0
2.643112 -10.304427 9.194775 14.060980 -1.319707 0.858040 0.000253 -0.006411 2611080.000000 1 0 0
1.371512 -4.585227 6.914475 8.409240 -1.280151 0.605448 -0.002690 -0.001435 369453.000000 1 0 0
-0.134688 10.847973 -1.950125 11.022688 -1.558381 1.748652 0.001238 -0.000184 2835910.000000 1 0 0
8.722912 5.408773 7.850375 12.921781 0.555043 0.917849 -0.004184 0.001630 -1596430.000000 1 0 0
2.624112 11.359473 -2.886425 12.010622 1.343772 1.813495 0.007914 -0.007141 2017820.000000 1 0 0
1.584012 2.443173 -6.764625 7.364668 0.995587 2.735127 0.002002 -0.005304 1730800.000000 1 0 0
-13.654488 -2.212427 3.579675 14.288245 0.160633 1.317566 -0.001573 -0.002767 1557560.000000 1 0 0
-0.990488 -10.676127 -5.293325 11.957426 1.478285 2.029383 -0.000847 -0.000405 1206570.000000 1 0 0
-5.669188 2.903073 0.482375 6.387504 -0.473264 1.495206 0.001305 0.001765 542460.000000 1 0 0
3.796312 7.240173 -5.063425 9.616151 1.087867 2.125339 0.006194 -0.002771 -561227.000000 1 0 0
2.984712 9.712073 -6.455725 12.037826 1.272638 2.136828 0.004277 -0.002087 402293.000000 1 0 0
-12.163388 1.725173 -2.529825 12.542896 -0.140893 1.773883 -0.000056 0.002285 1659890.000000 1 0 0
-2.463288 9.648373 -5.797825 11.522745 -1.320830 2.098052 -0.001899 -0.002242 -1002750.000000 1 0 0
-1.286288 3.305773 1.696075 3.931837 -1.199719 1.124786 -0.002430 0.002684 -142549.000000 1 0 0
12.781312 3.632073 9.578775 16.380074 0.276872 0.946185 0.000390 -0.000607 584277.000000 1 0 0
-2.483088 -9.482027 11.643275 15.219738 1.314675 0.699737 0.001021 -0.011312 -101466.000000 1 0 0
-0.522188 -8.929627 -7.547025 11.703354 1.512385 2.271636 -0.002780 -0.001270 2646370.000000 1 0 0
2.385012 7.597973 -0.557825 7.983022 1.266635 1.640730 0.003357 -0.001007 2236480.000000 1 0 0
-11.887288 -1.312227 -5.497825 13.162660 0.109944 2.001690 0.001532 -0.001455 -892747.000000 1 0 0
-6.192288 -6.993527 -10.934325 14.381005 0.846089 2.434619 0.003511 -0.006523 1450940.000000 1 0 0
-4.800088 -2.230627 -1.355325 5.463831 0.435016 1.821467 0.004350 -0.004132 -1133070.000000 1 0 0
-10.423188 3.734273 4.507175 11.954173 -0.344020 1.184200 0.000015 0.001347 2482130.000000 1 0 0
6.840112 9.306173 -3.604825 12.099039 0.936959 1.873333 0.005671 -0.002844 1781630.000000 1 0 0
1.283912 -2.663927 -11.423625 11.800176 -1.121683 2.888287 0.001861 -0.008049 -829842.000000 1 0 0
1.244612 8.725873 7.575275 11.622165 1.429117 0.860847 -0.006623 0.005366 968250.000000 1 0 0
10.305312 0.364773 10.478675 14.701536 0.035382 0.777370 -0.006418 0.004237 2195370.000000 1 0 0
-5.284288 -0.874827 -3.896325 6.623471 0.164064 2.199702 0.004908 -0.004121 49354.100000 1 0 0
11.660612 5.613173 5.392375 14.019818 0.448640 1.175995 -0.003145 -0.000999 3047970.000000 1 0 0
9.876012 -3.543727 3.660975 11.112892 -0.344512 1.235091 0.005214 -0.004853 -543771.000000 1 0 0
7.281212 -1.660327 -3.495325 8.245607 -0.224196 2.008545 0.000744 -0.001191 -2344420.000000 1 0 0
2.340612 9.254973 10.485475 14.180204 1.323087 0.738551 -0.006784 0.004485 2168390.000000 1 0 0
2.338812 -10.895427 6.329875 12.815916 -1.359345 1.054219 -0.001563 -0.003864 296511.000000 1 0 0
5.835312 -7.621627 -1.262325 9.681608 -0.917370 1.701552 -0.002898 -0.003295 1521120.000000 1 0 0
-0.288188 -5.615127 -2.280825 6.067526 1.519518 1.956172 0.002718 -0.002311 1129630.000000 1 0 0
7.709212 -5.121527 2.612575 9.617044 -0.586389 1.295678 0.001373 -0.002548 2055880.000000 1 0 0
-2.725588 -12.491227 4.712075 13.625830 1.355963 1.217684 -0.002069 0.000313 -1076350.000000 1 0 0
4.833312 -10.360427 -1.118425 11.486959 -1.134292 1.668316 -0.002887 -0.004453 282950.000000 1 0 0
0.997012 0.118273 1.072775 1.469309 0.118075 0.752295 -0.000694 0.000965 -1201130.000000 1 0 0
-1.685088 8.707273 2.456475 9.202738 -1.379633 1.300592 -0.006197 0.006404 -1473690.000000 1 0 0
-7.525288 0.640073 -3.102825 8.164997 -0.084852 1.960609 0.001590 -0.000279 -1147020.000000 1 0 0
4.422912 -6.422727 12.937075 15.105677 -0.967739 0.542467 0.008311 -0.006811 -527348.000000 1 0 0
-5.054188 13.075973 8.385575 16.335353 -1.201960 1.031725 -0.004674 -0.000025 3676070.000000 1 0 0
0.591012 6.051173 8.285775 10.277162 1.473436 0.633042 -0.002999 0.005128 704695.000000 1 0 0
7.902112 -0.552427 -0.796225 7.961314 -0.069795 1.670976 -0.000964 -0.000747 5163450.000000 1 0 0
2.391312 -9.253727 -2.349625 9.842285 -1.317912 1.811852 -0.005056 -0.001969 1899730.000000 1 0 0
-7.020588 12.301073 4.842175 14.968357 -1.052177 1.241376 -0.012560 0.002279 -510765.000000 1 0 0
-14.936388 0.222773 0.148675 14.938789 -0.014914 1.560844 0.001958 0.000139 156941.000000 1 0 0
6.843712 -0.576627 3.900775 7.898414 -0.084058 1.054264 -0.001016 0.001403 1188940.000000 1 0 0
-4.133688 -5.022527 5.122175 8.279483 0.882170 0.903762 0.005345 -0.001999 -455413.000000 1 0 0
2.881312 5.131473 6.857375 9.036458 1.059168 0.709241 -0.004618 0.003508 511396.000000 1 0 0
2.050912 -7.250627 1.850375 7.758977 -1.295138 1.329994 -0.002097 -0.002894 2620320.000000 1 0 0
-2.508988 6.507473 -1.769725 7.195425 -1.202804 1.819297 0.000357 0.000657 1600400.000000 1 0 0
2.560012 -3.847527 -6.541225 8.009042 -0.983695 2.526517 -0.002355 -0.004625 -664254.000000 1 0 0
-5.064688 0.929073 -12.233025 13.272571 -0.181424 2.743178 0.002553 -0.004894 132988.000000 1 0 0
-7.353588 6.397573 -11.918925 15.396914 -0.715987 2.456106 -0.000289 -0.007647 2459730.000000 1 0 0
-0.973888 11.161073 -8.986325 14.362174 -1.483759 2.246817 -0.000484 0.000575 735696.000000 1 0 0
4.643412 5.901073 -0.676625 7.539347 0.904109 1.660663 0.005203 -0.002286 653795.000000 1 0 0
-2.610788 13.535173 3.622175 14.252623 -1.380247 1.313837 -0.006231 0.006096 1651980.000000 1 0 0
1.475912 -7.947027 10.201475 13.015516 -1.387170 0.670046 -0.005514 -0.004749 -1233090.000000 1 0 0
12.906412 -0.232827 -1.147825 12.959444 -0.018038 1.659483 0.001260 -0.006198 -77097.100000 1 0 0
-0.977788 3.146873 -5.507125 6.417733 -1.269536 2.602375 0.004681 -0.006869 914479.000000 1 0 0
6.591412 1.034073 7.280075 9.874995 0.155613 0.741845 -0.005041 0.001714 1613630.000000 1 0 0
5.449112 -6.251627 6.907375 10.792937 -0.853878 0.876311 -0.003273 -0.000440 360990.000000 1 0 0
12.132712 -4.954227 2.620775 13.364712 -0.387672 1.373421 0.003027 -0.004329 -718716.000000 1 0 0
4.299012 -9.251927 13.862975 17.212256 -1.135817 0.634424 0.005855 -0.004192 -66352.600000 1 0 0
-2.785188 -4.344227 -1.477125 5.367632 1.000686 1.849585 0.007351 -0.004992 3852030.000000 1 0 0
-9.320988 -5.139927 -7.520325 13.032841 0.503945 2.185882 0.014639 -0.007039 986543.000000 1 0 0
-10.616088 -3.215627 7.842375 13.584713 0.294116 0.955385 -0.001042 -0.000017 87971.400000 1 0 0
12.029812 -0.662527 1.592475 12.152831 -0.055018 1.439381 -0.002838 -0.003803 297573.000000 1 0 0
-7.550888 4.694673 4.402075 9.921397 -0.556250 1.111079 -0.001675 0.002879 2765860.000000 1 0 0
-1.129188 10.586073 6.997275 12.739775 -1.464531 0.989334 -0.006843 0.006788 1747350.000000 1 0 0
7.358112 -9.975027 1.942375 12.546546 -0.935244 1.415358 -0.001233 -0.004927 2578730.000000 1 0 0
-4.317588 -1.695027 1.686875 4.935608 0.374099 1.221990 0.003403 -0.001129 1477120.000000 1 0 0
6.600412 -15.028527 -0.939525 16.440948 -1.156966 1.627973 0.007787 -0.002416 -334985.000000 1 0 0
-10.517888 1.716473 2.366775 10.916678 -0.161770 1.352257 -0.004281 0.002831 858646.000000 1 0 0
-2.917888 8.338773 -11.331825 14.368697 -1.234194 2.479401 -0.005261 -0.002360 -1337610.000000 1 0 0
-1.323088 -5.131727 -6.868025 8.674961 1.318467 2.484394 -0.001213 -0.004984 -1732190.000000 1 0 0
12.849112 -0.486727 6.299275 14.318431 -0.037862 1.115263 0.002117 -0.005471 3140250.000000 1 0 0
5.889212 -13.349127 3.681275 15.047718 -1.155311 1.323648 0.007469 -0.005460 -76289.500000 1 0 0
-5.558688 3.619673 -4.943825 8.272995 -0.577200 2.211283 0.002096 -0.003506 1659900.000000 1 0 0
-4.381188 8.122473 3.374875 9.826452 -1.076135 1.220211 -0.006086 0.006297 -912222.000000 1 0 0
13.958412 6.241973 -3.936525 15.789101 0.420509 1.822773 0.008406 0.001917 840775.000000 1 0 0
-6.675088 -8.534127 5.291075 12.057512 0.907026 1.116511 0.007212 -0.003610 -44818.100000 1 0 0
1.631712 11.409573 2.669875 11.830852 1.428747 1.343165 -0.003686 -0.000598 1351890.000000 1 0 0
-7.383788 7.283073 5.965075 11.964347 -0.778531 1.048847 -0.007363 0.000122 1359180.000000 1 0 0
-17.355288 -4.095527 5.182175 18.569714 0.231742 1.287975 0.009164 -0.008649 -1557630.000000 1 0 0
7.407412 -13.181627 -8.629825 17.409737 -1.058825 2.089425 -0.001692 -0.002538 -769215.000000 1 0 0
-2.234088 12.900873 -2.729525 13.374377 -1.399324 1.776326 -0.003750 0.003191 1165670.000000 1 0 0
-5.401988 13.960973 -5.789125 16.050053 -1.201603 1.939806 0.003326 -0.000394 1497940.000000 1 0 0
-5.721088 2.454573 7.456775 9.713870 -0.405287 0.695643 0.001390 0.002933 1609800.000000 1 0 0
-7.442288 5.174773 1.475675 9.183874 -0.607578 1.409416 -0.003000 0.002976 1574670.000000 1 0 0
10.722112 -5.783427 -5.128625 13.217962 -0.494663 1.969261 0.010770 -0.001962 2785340.000000 1 0 0
-9.577788 -0.837027 6.836075 11.796888 0.087171 0.952704 -0.000866 0.000796 1167320.000000 1 0 0
-11.309388 -4.541927 -2.532125 12.447611 0.381891 1.775649 -0.000421 -0.003365 1058530.000000 1 0 0
6.529912 -4.405827 13.481375 15.614050 -0.593554 0.528800 0.009472 -0.008503 -557410.000000 1 0 0
0.298012 10.239273 -11.636025 15.502535 1.541700 2.419749 -0.000819 0.000287 -945005.000000 1 0 0
-11.862488 -3.253327 1.445275 12.385135 0.267672 1.453836 -0.001155 -0.004300 3009140.000000 1 0 0
5.162912 6.004573 5.301175 9.529586 0.860623 0.980887 -0.002130 0.001616 -4166790.000000 1 0 0
-7.162688 -0.064027 8.162475 10.859751 0.008939 0.720272 -0.002261 0.003623 496059.000000 1 0 0
1.801912 2.056173 9.575675 9.958328 0.851206 0.278115 0.000236 0.000740 2599370.000000 1 0 0
10.432312 -5.011427 -2.082425 11.759423 -0.447825 1.748821 -0.000400 -0.002674 2753150.000000 1 0 0
-9.719388 -2.333927 -1.589125 10.121217 0.235669 1.728458 -0.000761 -0.002689 374142.000000 1 0 0
-1.975188 -5.101927 -9.869425 11.284351 1.201420 2.635431 0.002359 -0.007143 544277.000000 1 0 0
7.682612 -1.628227 6.538675 10.218998 -0.208846 0.876487 -0.000957 -0.000926 1035140.000000 1 0 0
1.444712 -11.866827 -2.583925 12.230513 -1.449649 1.783669 -0.003111 0.001142 -3246850.000000 1 0 0
-0.756588 -1.495627 4.791575 5.076270 1.102467 0.336499 0.003470 -0.000063 3101520.000000 1 0 0
7.529512 1.447773 9.874275 12.501636 0.189961 0.660251 -0.007133 0.003003 -211059.000000 1 0 0
-3.817588 10.767973 -8.023825 13.960837 -1.230090 2.183080 0.000009 -0.000183 1806280.000000 1 0 0
-9.428688 12.713273 6.393175 17.070447 -0.932666 1.186920 -0.013610 0.000448 563919.000000 1 0 0
-2.553288 -2.366327 -11.088125 11.621760 0.747413 2.837380 0.006127 -0.009514 -302177.000000 1 0 0
1.108912 -11.907727 11.094375 16.312842 -1.477939 0.822896 0.006034 -0.004994 2079410.000000 1 0 0
1.349412 3.428673 -1.964125 4.175464 1.195848 2.060537 0.003826 -0.002311 1640180.000000 1 0 0
-1.982288 -9.362927 -12.002425 15.350963 1.362161 2.468453 -0.004594 -0.002582 1532040.000000 1 0 0
1.310212 -2.740527 1.603875 3.435049 -1.124832 1.084998 0.004155 -0.002061 4246830.000000 1 0 0
-1.079088 -2.226127 -6.596725 7.045343 1.119433 2.782808 0.003849 -0.009175 486452.000000 1 0 0
1.769612 5.856573 4.034275 7.328462 1.277361 0.987840 -0.006129 0.004910 -1630250.000000 1 0 0
-11.034888 8.682673 3.685775 14.516973 -0.666664 1.314092 -0.011541 0.000801 1592170.000000 1 0 0
-16.383688 -1.539327 3.954375 16.924297 0.093680 1.334966 0.008120 -0.001870 -91762.900000 1 0 0
-12.296488 0.218673 6.799375 14.052862 -0.017781 1.065756 -0.004222 0.003131 1228180.000000 1 0 0
-5.054488 3.084073 4.664975 7.537993 -0.547860 0.903504 -0.001551 0.004651 237096.000000 1 0 0
5.165812 -6.098927 3.987875 8.932283 -0.868044 1.107995 -0.005162 -0.001269 2072850.000000 1 0 0
9.960612 3.297673 6.258975 12.217332 0.319713 1.032932 -0.006257 0.001394 -200668.000000 1 0 0
-12.113788 5.837073 3.214675 13.825679 -0.449025 1.336134 -0.002376 0.002851 1470120.000000 1 0 0
-4.929188 12.401973 -1.377125 13.416493 -1.192489 1.673622 -0.008892 0.005530 2632430.000000 1 0 0
-1.861288 -12.090927 10.337275 16.016060 1.418054 0.869208 0.009065 -0.010062 1578160.000000 1 0 0
5.158312 6.300073 13.864275 16.078471 0.884714 0.531026 -0.000858 0.003477 790355.000000 1 0 0
12.914312 -3.739127 -5.895825 14.680643 -0.281827 1.984065 0.008627 -0.002345 975284.000000 1 0 0
3.559012 -2.604727 6.436975 7.802937 -0.631795 0.600696 -0.003366 0.002069 1134030.000000 1 0 0
7.106112 -11.914627 -0.521925 13.882636 -1.033014 1.608401 0.000503 -0.001731 -2651510.000000 1 0 0
-6.101388 -6.557727 -4.010625 9.814063 0.821431 1.991783 0.007718 -0.005795 1397820.000000 1 0 0
0.307412 -8.926627 5.064975 10.268065 -1.536372 1.054946 -0.001945 -0.002245 1485230.000000 1 0 0
-10.244188 2.537373 -0.383225 10.560706 -0.242802 1.607092 -0.001689 0.003980 -1431560.000000 1 0 0
-1.881888 8.978773 -0.391625 9.182224 -1.364194 1.613460 -0.000903 0.002249 931478.000000 1 0 0
-3.497288 2.322373 -6.524425 7.758386 -0.586189 2.569835 0.006497 -0.008829 -496431.000000 1 0 0
-12.619588 3.015273 6.412775 14.473063 -0.234539 1.111761 -0.002804 0.002483 -1115230.000000 1 0 0
11.358412 1.571273 7.845675 13.893777 0.137463 0.970739 -0.003976 -0.004011 -2445640.000000 1 0 0
6.103312 2.634373 -3.164325 7.362289 0.407473 2.015070 0.000940 -0.000262 2147300.000000 1 0 0
10.528312 -2.357827 6.355575 12.521903 -0.220316 1.038450 0.004030 -0.003661 2850990.000000 1 0 0
-1.003888 11.097473 4.174575 11.899108 -1.480581 1.212338 -0.004982 0.004856 1108450.000000 1 0 0
-1.664988 -12.217827 7.486775 14.425647 1.435355 1.025127 0.001531 -0.001547 -534628.000000 1 0 0
8.135512 8.608573 -7.789625 14.176471 0.813643 2.152533 -0.001452 -0.003954 2241820.000000 1 0 0
-4.653388 -5.894127 -8.738625 11.522080 0.902493 2.431688 0.007066 -0.007477 97403.300000 1 0 0
-8.591488 -5.254527 -11.615725 15.373639 0.548903 2.427307 0.017655 -0.007998 1242950.000000 1 0 0
6.068512 -0.621727 -9.933325 11.656943 -0.102095 2.590854 -0.001428 -0.001118 184794.000000 1 0 0
-11.215488 -5.470527 -5.337525 13.572141 0.453812 1.974983 0.006921 -0.007136 -1207520.000000 1 0 0
3.976412 8.919173 -2.725925 10.138746 1.151418 1.843008 0.011558 -0.004795 -53763.200000 1 0 0
11.568412 -10.486027 -3.970125 16.110457 -0.736360 1.819793 0.015698 -0.007024 832306.000000 1 0 0
3.918112 -11.376127 3.934875 12.659033 -1.239105 1.254725 0.000395 -0.003424 381389.000000 1 0 0
-1.030688 0.832973 3.088875 3.361147 -0.679704 0.405274 0.002074 0.002345 -883023.000000 1 0 0
-10.586988 -5.180827 4.468375 12.605223 0.455098 1.208432 0.002710 -0.004894 4547610.000000 1 0 0
4.545512 -8.704627 2.832175 10.220246 -1.089551 1.290007 -0.006149 -0.002324 4942940.000000 1 0 0
-3.718688 -5.708127 2.542675 7.271626 0.993387 1.213577 0.002819 -0.002735 2753590.000000 1 0 0
10.018612 5.088973 12.276775 16.643000 0.469989 0.741207 -0.003754 0.007667 1193470.000000 1 0 0
1.577012 -12.335827 -5.290525 13.514779 -1.443646 1.973016 -0.003552 0.000178 844168.000000 1 0 0
9.687112 -10.736127 -1.717325 14.562066 -0.836717 1.689003 0.005949 -0.006630 2009670.000000 1 0 0
9.562812 -4.433727 -9.119425 13.938050 -0.434141 2.284030 0.008555 -0.003801 2548060.000000 1 0 0
-7.419488 -3.103227 -13.112925 15.382705 0.396143 2.591442 0.007254 -0.006116 1726850.000000 1 0 0
0.410812 6.221873 -2.534625 6.730883 1.504865 1.956883 0.004004 -0.001015 1944430.000000 1 0 0
-5.961688 -9.554027 0.933475 11.300112 1.012918 1.488094 0.001740 -0.001806 1066740.000000 1 0 0
-9.043688 -4.171727 0.622975 9.978963 0.432200 1.508327 -0.001475 -0.003614 1011100.000000 1 0 0
1.891612 3.759773 12.010475 12.726571 1.104657 0.337056 -0.000467 0.000996 181848.000000 1 0 0
6.666412 4.256573 9.584875 12.426958 0.568256 0.689920 -0.006144 0.004689 1058160.000000 1 0 0
-8.225388 9.909473 -3.643525 13.383943 -0.877997 1.846507 -0.004919 0.000400 1958220.000000 1 0 0
16.276312 2.193973 -6.010325 17.488735 0.133988 1.921617 -0.000424 0.001436 -1230520.000000 1 0 0
-10.901988 2.608573 -5.149925 12.336114 -0.234859 2.001453 -0.004235 0.003042 902513.000000 1 0 0
-13.824588 4.047773 1.507575 14.483662 -0.284834 1.466519 0.001616 0.003874 -499679.000000 1 0 0
-17.271388 10.570073 3.384175 20.529976 -0.549196 1.405200 0.021379 -0.012036 -622593.000000 1 0 0
-14.317988 2.861573 -1.200625 14.650422 -0.197260 1.652840 0.001377 0.002793 209201.000000 1 0 0
-14.340288 5.016473 5.149175 16.041286 -0.336512 1.244016 -0.001937 0.001398 1328340.000000 1 0 0
-17.317388 7.644973 3.134375 19.187544 -0.415731 1.406706 0.007532 -0.003218 -1280910.000000 1 0 0
-15.000088 12.682673 -3.343125 19.925594 -0.701880 1.739374 0.040573 -0.004461 -1448920.000000 1 0 0
-8.503388 12.623073 -9.539225 17.962360 -0.977983 2.130656 0.012392 -0.012164 208159.000000 1 0 0
-12.366288 8.893873 -10.030325 18.238242 -0.623498 2.153114 0.003994 0.004899 -1109290.000000 1 0 0
-13.980288 -3.316527 -12.122225 18.798833 0.232923 2.271609 0.021449 -0.008685 366145.000000 1 0 0
-14.668988 5.833373 -7.609325 17.524533 -0.378494 2.019957 0.013486 0.006171 917803.000000 1 0 0
-10.907088 13.550473 -8.223025 19.240530 -0.893061 2.012390 0.023720 -0.014421 1602160.000000 1 0 0
-10.721888 13.530973 3.932675 17.706271 -0.900709 1.346822 -0.015702 -0.004073 -2401420.000000 1 0 0
-15.242388 3.218673 3.087775 15.881580 -0.208109 1.375125 0.003311 0.003351 -265194.000000 1 0 0
-10.930188 9.483773 -12.545325 19.151922 -0.714662 2.285035 0.000730 -0.006225 751721.000000 1 0 0
-13.116188 11.622273 -9.015425 19.707600 -0.725083 2.045932 0.024402 -0.012788 -153768.000000 1 0 0
-8.798288 14.697873 -3.482125 17.480347 -1.031400 1.771340 -0.003092 -0.002648 990568.000000 1 0 0
-16.587188 8.359573 -4.064325 19.014100 -0.466825 1.786212 0.024623 0.005015 -358074.000000 1 0 0
-16.860788 6.797173 0.342875 18.182554 -0.383206 1.551938 0.016486 0.004481 -181098.000000 1 0 0
-10.420488 2.846573 -12.556525 16.563691 -0.266665 2.431153 0.006752 -0.007829 170191.000000 1 0 0
-16.876788 0.857873 2.386175 17.066216 -0.050788 1.430518 0.009188 0.000329 594401.000000 1 0 0
-12.677788 1.170173 -6.972025 14.515672 -0.092040 2.071805 0.001942 -0.000704 1292480.000000 1 0 0
-12.222888 9.031673 -5.525725 16.171077 -0.636369 1.919526 0.009175 0.001611 831287.000000 1 0 0
-9.543588 13.970273 1.205375 16.961766 -0.971479 1.499672 -0.004492 -0.001169 -599858.000000 1 0 0
-12.117788 11.221473 2.771075 16.746375 -0.747013 1.404559 -0.008409 -0.000640 90019.500000 1 0 0
-12.559888 6.917373 -3.731225 14.816304 -0.503420 1.825370 0.001690 0.006023 -29180.900000 1 0 0
-15.636688 3.719373 -9.431625 18.635860 -0.233522 2.101454 0.005075 -0.002589 -2706550.000000 1 0 0
-15.042988 5.933573 -4.726025 16.847376 -0.375705 1.855132 0.016196 0.009514 1947830.000000 1 0 0
-17.872888 5.303473 7.461075 20.080702 -0.288457 1.190113 0.012057 -0.003328 -1083500.000000 1 0 0
-15.794388 10.179273 -1.926625 18.888943 -0.572490 1.672972 0.025683 -0.001359 38634.900000 1 0 0
-8.710088 10.001473 -8.335125 15.664271 -0.854304 2.131888 0.001556 -0.009418 -39090.300000 1 0 0
-16.975588 4.244273 -1.248625 17.542619 -0.245000 1.642033 0.009469 0.005038 701648.000000 1 0 0
-10.212888 5.398573 -4.606925 12.436696 -0.486268 1.950268 -0.004816 0.004175 41197.100000 1 0 0
-18.106688 2.688173 6.137775 19.306753 -0.147386 1.247274 0.008594 -0.002273 290019.000000 1 0 0
-10.286988 10.205573 -5.769525 15.596899 -0.781425 1.949714 0.001022 -0.001729 989452.000000 1 0 0
-15.319888 0.453573 -5.888525 16.418874 -0.029598 1.937611 0.003875 0.000999 -437600.000000 1 0 0
-16.395388 -4.080827 -8.895625 19.094345 0.243944 2.055422 0.001650 -0.007649 -1878420.000000 1 0 0
-9.929788 9.672173 -1.089125 13.904596 -0.772257 1.649205 -0.006423 0.004351 1890110.000000 1 0 0
-17.281188 -2.926827 -3.274325 17.830507 0.167773 1.755481 0.004934 0.000388 -739507.000000 1 0 0
-11.881688 5.077373 -11.550025 17.330819 -0.403840 2.300226 0.008217 -0.003747 -219411.000000 1 0 0
-16.271388 7.034273 5.868275 18.672860 -0.408045 1.251111 0.004524 -0.001747 -186494.000000 1 0 0
-12.086188 6.132773 -8.813425 16.166734 -0.469566 2.147374 0.004138 0.001466 1168280.000000 1 0 0
-14.447088 8.433773 0.023275 16.728640 -0.528400 1.569405 0.010211 0.002941 1445610.000000 1 0 0
-14.800688 12.062273 3.973275 19.502454 -0.683809 1.365628 0.000566 -0.007464 1706610.000000 1 0 0
-17.256988 4.132773 -4.045125 18.200178 -0.235057 1.794926 0.018656 0.003348 259247.000000 1 0 0
-13.724288 13.508273 -0.832425 19.274917 -0.777466 1.613997 0.017552 -0.005656 -352860.000000 1 0 0
-9.969188 6.864973 -13.053325 17.801737 -0.603047 2.393902 -0.005797 -0.010321 1329850.000000 1 0 0
-15.842488 -1.079227 -8.402525 17.965288 0.068017 2.057493 0.003895 -0.004741 -1133770.000000 1 0 0
-11.379988 11.946273 -0.032825 16.499049 -0.809670 1.572786 -0.000286 0.000492 318866.000000 1 0 0
-11.933988 7.454573 -1.013725 14.107387 -0.558348 1.642716 -0.004844 0.008024 1957390.000000 1 0 0
-11.415288 0.202573 -11.675225 16.329749 -0.017744 2.367373 0.008689 -0.010987 -225717.000000 1 0 0
-19.053288 -1.166427 -4.840525 19.693121 0.061143 1.819139 0.013599 -0.003665 -409811.000000 1 0 0
-17.920088 1.511273 -5.152625 18.707299 -0.084135 1.849837 0.013648 -0.000491 -252465.000000 1 0 0
-13.367288 -0.150527 -9.573225 16.442435 0.011260 2.192261 0.011189 -0.003902 -1879130.000000 1 0 0
-5.966288 11.332573 -13.277525 18.447668 -1.086196 2.374224 -0.013736 0.001149 -2289650.000000 1 0 0
16.272712 5.652973 7.159975 18.655361 0.334348 1.176886 0.003933 -0.006220 1801640.000000 1 0 0
14.985612 10.167873 -5.528425 18.934563 0.596156 1.867088 0.033444 -0.004847 154001.000000 1 0 0
2.406512 16.887173 4.455575 17.630090 1.429244 1.315300 0.013597 -0.011220 973062.000000 1 0 0
-3.892888 18.283373 -5.808125 19.574744 -1.361010 1.872047 0.005030 -0.004784 452543.000000 1 0 0
5.422112 14.457873 5.689375 16.455953 1.212001 1.217776 0.003717 -0.014133 -885158.000000 1 0 0
9.914812 6.169873 15.062975 19.059487 0.556647 0.659475 0.006018 0.009103 -2270870.000000 1 0 0
4.667412 12.725673 -1.146525 13.603015 1.219259 1.655181 0.006201 -0.008348 2500270.000000 1 0 0
3.492312 13.742373 12.928175 19.188193 1.321937 0.831515 0.004351 -0.005224 -385028.000000 1 0 0
-0.758588 12.321073 9.242875 15.421253 -1.509306 0.928096 -0.005270 -0.000427 679151.000000 1 0 0
-7.716588 14.039373 8.439775 18.107444 -1.068230 1.085925 -0.003964 -0.001325 1234280.000000 1 0 0
11.457512 12.863173 -4.126425 17.713362 0.843131 1.805912 0.024561 -0.006075 30731.500000 1 0 0
-5.736788 16.221173 0.956075 17.232274 -1.230864 1.515286 -0.009145 0.005244 799750.000000 1 0 0
3.242412 10.516973 6.710175 12.889779 1.271740 1.023265 -0.007138 0.005492 3506050.000000 1 0 0
-1.143688 15.649273 2.560875 15.898611 -1.497844 1.409016 -0.001581 -0.001260 -763592.000000 1 0 0
9.837512 8.689373 9.465375 16.182558 0.723506 0.946025 0.004300 -0.006415 597954.000000 1 0 0
7.246512 12.230773 6.218575 15.516908 1.035923 1.158449 0.004270 -0.008616 534676.000000 1 0 0
11.969612 14.012673 -1.535925 18.492855 0.863870 1.653947 0.020099 -0.004924 -330248.000000 1 0 0
9.717412 15.928573 -1.238025 18.699739 1.023011 1.637050 0.018973 -0.007956 393120.000000 1 0 0
10.120512 13.653673 3.027175 17.263005 0.932932 1.394529 0.012585 -0.006651 2379540.000000 1 0 0
-6.021588 14.677673 6.294375 17.067887 -1.181481 1.193095 -0.009722 0.001494 -575371.000000 1 0 0
-0.915388 18.329673 -6.177825 19.364410 -1.520898 1.895502 0.015261 0.004225 2204360.000000 1 0 0
-3.543488 15.886973 5.456975 17.167725 -1.351345 1.247322 -0.003845 -0.000960 789006.000000 1 0 0
7.014712 12.130673 10.605375 17.573656 1.046514 0.922936 0.000844 -0.008814 2864600.000000 1 0 0
1.484712 14.629473 6.239875 15.973787 1.469655 1.169478 0.000862 -0.007035 -214410.000000 1 0 0
17.437212 7.767473 -1.359425 19.137347 0.419067 1.641891 -0.003975 0.009985 -57311.600000 1 0 0
2.136712 16.100273 -3.385725 16.590583 1.438855 1.776315 -0.000060 -0.005545 287595.000000 1 0 0
6.725412 11.156773 0.585975 13.040250 1.028313 1.525845 0.009899 -0.006101 2156350.000000 1 0 0
12.655512 9.405373 3.383375 16.126694 0.639125 1.359426 0.002175 -0.001130 -192409.000000 1 0 0
6.094912 14.293873 -3.363925 15.899017 1.167740 1.783988 -0.001885 -0.006634 1429740.000000 1 0 0
3.118212 16.404873 1.623875 16.777368 1.382959 1.473855 0.005241 -0.013130 -2293910.000000 1 0 0
2.866912 18.832573 -2.593725 19.225306 1.419725 1.706121 0.006496 -0.013232 -913925.000000 1 0 0
3.960312 11.906173 10.635875 16.448795 1.249682 0.867671 -0.000434 -0.005284 1225570.000000 1 0 0
7.997412 11.512673 3.365675 14.416241 0.963662 1.335158 0.003968 -0.002471 2161000.000000 1 0 0
0.768712 12.606173 0.188275 12.630992 1.509893 1.555890 0.004543 -0.004402 -2222520.000000 1 0 0
12.099612 10.025273 -4.568825 16.364011 0.691915 1.853757 0.015487 -0.000343 683275.000000 1 0 0
-1.262588 16.573473 10.001975 19.398805 -1.494762 1.029091 0.000672 -0.004194 949201.000000 1 0 0
8.084912 14.685873 -8.061325 18.601764 1.067552 2.019018 0.001708 -0.005688 2177810.000000 1 0 0
14.517012 7.631073 -1.270225 16.449632 0.483967 1.648092 0.000581 0.002836 874679.000000 1 0 0
12.526812 8.239473 6.077475 16.178555 0.581802 1.185698 0.002882 -0.003713 -968759.000000 1 0 0
-2.987388 14.212473 10.320775 17.816769 -1.363618 0.952960 -0.005752 -0.005425 2312560.000000 1 0 0
-4.506088 17.209473 -3.077325 18.053828 -1.314708 1.742085 -0.000259 -0.001654 -557266.000000 1 0 0
-7.043288 16.473573 -1.750225 18.001383 -1.166767 1.668177 -0.006088 0.002992 1019160.000000 1 0 0
8.347412 11.220973 -1.850225 14.107192 0.931203 1.702330 0.010224 -0.006988 -834123.000000 1 0 0
8.636212 12.932473 -4.119125 16.087268 0.982014 1.829729 0.018372 -0.007224 1052540.000000 1 0 0
2.649312 14.796973 -7.250225 16.689368 1.393629 2.020193 -0.005057 0.001083 -1350000.000000 1 0 0
11.272012 11.157573 9.749375 18.617197 0.780296 1.019636 0.017898 -0.014615 1449550.000000 1 0 0
8.672912 15.638373 1.453475 17.941313 1.064435 1.489695 0.012228 -0.009342 1383790.000000 1 0 0
6.044712 9.831173 7.719275 13.884441 1.019528 0.981272 -0.000037 0.001472 763162.000000 1 0 0
14.418512 11.515073 2.774575 18.659814 0.673906 1.421550 0.013895 0.001909 -13774.300000 1 0 0
12.163612 12.678673 1.154875 17.607838 0.806128 1.505161 0.016553 -0.000600 3183130.000000 1 0 0
5.317212 15.773373 8.239775 18.573258 1.245659 1.111144 0.014357 -0.013292 -1965000.000000 1 0 0
11.429212 14.887773 5.294275 19.501334 0.916069 1.295863 0.019092 -0.011596 1116990.000000 1 0 0
5.964212 16.781973 1.770075 17.898034 1.229324 1.471737 0.000190 -0.013060 1429610.000000 1 0 0
-0.589988 16.237573 -4.128725 16.764642 -1.534478 1.819632 0.006075 -0.001256 456558.000000 1 0 0
15.938012 6.500073 2.597975 17.407489 0.387242 1.420992 -0.011971 0.000074 -827631.000000 1 0 0
7.770612 16.758773 -3.208525 18.749227 1.136629 1.742771 -0.003706 -0.004367 999407.000000 1 0 0
14.852412 8.051073 7.570175 18.512738 0.496736 1.149529 0.013322 -0.004336 -308478.000000 1 0 0
2.112212 12.898073 8.535075 15.609908 1.408475 0.992291 -0.000311 -0.005319 1743040.000000 1 0 0
15.994612 7.415973 -5.773925 18.551617 0.434151 1.887289 0.007523 0.004006 -913760.000000 1 0 0
-2.954388 17.121673 0.744575 17.390643 -1.399926 1.527969 -0.006626 0.000425 1617170.000000 1 0 0
-2.810188 18.717573 4.730275 19.509490 -1.421773 1.325895 -0.006622 -0.001660 1350920.000000 1 0 0
-0.803788 19.151773 0.938275 19.191582 -1.528852 1.521887 -0.001350 -0.003459 1518710.000000 1 0 0
6.959712 16.727373 -6.137625 19.128853 1.176516 1.897430 -0.003463 -0.004323 -404614.000000 1 0 0
11.021812 10.137973 0.864575 15.000211 0.743653 1.513127 0.005935 0.000230 -2022680.000000 1 0 0
8.989912 8.816973 14.314775 19.064898 0.775687 0.721456 0.006015 0.005337 1181980.000000 1 0 0
6.393012 12.352373 -8.390725 16.243644 1.093205 2.113618 0.002676 -0.006341 1167360.000000 1 0 0
6.199712 8.955873 13.308975 17.198050 0.965290 0.685875 0.002336 -0.001085 1104150.000000 1 0 0
16.603712 9.513973 3.123775 19.389608 0.520332 1.408986 0.005192 0.000048 -1523510.000000 1 0 0
2.612012 14.735273 -0.767025 14.984632 1.395356 1.622006 0.002419 -0.007496 -848929.000000 1 0 0
9.078312 12.785073 8.451375 17.812905 0.953343 1.076454 0.010682 -0.012560 867268.000000 1 0 0
7.197812 9.205373 10.524575 15.726222 0.907181 0.837614 0.001985 -0.003937 1311870.000000 1 0 0
4.436812 15.725973 -5.306025 17.179797 1.295811 1.884783 -0.001077 -0.007102 946069.000000 1 0 0
0.334512 16.466773 -8.020425 18.319217 1.550485 2.023963 -0.002090 0.003688 872257.000000 1 0 0
-2.361988 15.768273 -1.899725 16.056973 -1.422108 1.689386 -0.003821 0.002445 -1498370.000000 1 0 0
13.357612 10.421073 7.735975 18.624443 0.662526 1.142450 0.017971 -0.011009 2252480.000000 1 0 0
-1.010488 15.951473 7.148475 17.509177 -1.507533 1.150238 0.004722 -0.004985 3601410.000000 1 0 0
13.224412 13.219173 6.835875 19.908812 0.785200 1.220305 0.023488 -0.012024 -1609660.000000 1 0 0
5.385912 17.284273 4.493275 18.653248 1.268725 1.327519 0.006955 -0.014480 1272000.000000 1 0 0
10.915312 9.580973 -1.837825 14.639559 0.720388 1.696667 0.004574 -0.000325 727640.000000 1 0 0
3.146712 12.689273 4.702875 13.893757 1.327718 1.225486 -0.002444 0.001152 2717080.000000 1 0 0
-0.082988 18.142973 3.643875 18.505463 -1.566222 1.372593 0.002220 -0.007914 3294210.000000 1 0 0
-7.545888 16.006973 -5.795825 18.621364 -1.130279 1.887300 0.018456 -0.008684 -62921.400000 1 0 0
-12.370688 -9.177327 8.204075 17.451765 0.638272 1.081392 0.001750 -0.008245 -69444.500000 1 0 0
-13.381988 -11.647527 6.716075 18.969664 0.716212 1.208906 0.019659 -0.008827 -630381.000000 1 0 0
-6.755888 -12.056027 12.357975 18.539400 1.060023 0.841186 0.016941 -0.015918 -1431240.000000 1 0 0
-1.828088 -10.712527 14.366775 18.014005 1.401775 0.647600 0.010356 -0.010182 2419810.000000 1 0 0
-8.831588 2.887873 11.002375 14.401007 -0.316034 0.701306 -0.001744 0.003690 991148.000000 1 0 0
0.527312 10.163473 15.060475 18.176692 1.518960 0.594266 -0.014483 -0.001376 -703239.000000 1 0 0
0.987712 -6.863627 16.599775 17.989927 -1.427872 0.395702 0.004356 -0.010441 2000760.000000 1 0 0
6.060112 2.292573 17.804775 18.947054 0.361665 0.349009 0.007431 0.003407 847339.000000 1 0 0
-5.075888 -2.964127 17.624875 18.579206 0.528544 0.321905 0.015478 -0.010621 930817.000000 1 0 0
-4.339688 8.120473 13.024475 15.950295 -1.079999 0.615359 -0.010605 -0.001668 -319433.000000 1 0 0
0.102712 -4.886727 18.610075 19.241246 -1.549781 0.256842 0.009552 -0.012546 -553275.000000 1 0 0
-11.556388 1.904573 11.128975 16.156472 -0.163339 0.810930 -0.005557 0.000500 649456.000000 1 0 0
-3.371288 -6.170927 14.393475 16.019302 1.070784 0.454437 0.014106 -0.010478 1552610.000000 1 0 0
-7.527788 -2.442027 14.687075 16.683563 0.313691 0.494235 0.005123 -0.002937 -885622.000000 1 0 0
-6.147888 -1.162127 10.656975 12.357920 0.186824 0.530884 0.002433 0.000043 1464450.000000 1 0 0
-4.001288 2.382873 11.153175 12.086426 -0.537124 0.395549 0.001721 0.004343 1006200.000000 1 0 0
-6.413088 6.221973 13.606775 16.278359 -0.770274 0.581060 -0.012800 -0.000779 871265.000000 1 0 0
-9.019988 5.462173 12.570875 16.407998 -0.544500 0.697978 -0.007463 -0.001006 1062110.000000 1 0 0
-12.147688 -2.378027 15.793675 20.066427 0.193315 0.664752 -0.009658 -0.003306 1942830.000000 1 0 0
-3.470288 -7.738427 16.908075 18.915844 1.149233 0.464919 0.024579 -0.007673 -2081470.000000 1 0 0
-0.528788 -5.378427 14.373275 15.355720 1.472795 0.359648 0.009435 -0.006263 1260820.000000 1 0 0
-14.221588 -2.311627 13.614275 19.822857 0.161134 0.813723 -0.006910 -0.003130 -631670.000000 1 0 0
-6.529088 1.434173 12.170975 13.885909 -0.216225 0.502257 0.000113 0.002040 2434320.000000 1 0 0
2.288712 -2.221627 14.553875 14.899299 -0.770526 0.215750 0.002030 -0.001413 377565.000000 1 0 0
-12.610788 3.918873 9.184975 16.085811 -0.301295 0.963075 -0.006503 0.003091 -1152820.000000 1 0 0
-9.124588 -3.091627 12.574875 15.841204 0.326684 0.653751 -0.003822 0.002047 387549.000000 1 0 0
-7.095488 -7.389127 15.244675 18.366961 0.805668 0.591679 0.011774 -0.011416 -2576520.000000 1 0 0
-3.208988 5.959073 19.477475 20.619898 -1.076822 0.334434 -0.001582 0.002189 -382131.000000 1 0 0
0.561612 5.566673 16.123075 17.066248 1.470248 0.334012 -0.004088 0.003063 531886.000000 1 0 0
3.495712 1.434273 16.706375 17.128342 0.389350 0.222429 -0.000128 0.000927 1314330.000000 1 0 0
-11.566288 11.494373 7.910275 18.123798 -0.782280 1.119138 -0.003684 -0.006333 -739478.000000 1 0 0
0.587012 -9.537927 15.523375 18.228873 -1.509329 0.551801 -0.003817 0.002251 1823540.000000 1 0 0
-2.487688 -3.628927 18.899875 19.405231 0.969857 0.228718 0.022854 -0.015607 1102830.000000 1 0 0
-12.767088 2.143773 13.800675 18.922286 -0.166362 0.753448 -0.013942 -0.003591 -204707.000000 1 0 0
-5.435788 -0.632127 15.787875 16.709410 0.115770 0.333662 0.013918 -0.000902 2748290.000000 1 0 0
-4.453688 -5.979627 11.677775 13.855025 0.930625 0.568230 0.005617 -0.006780 580310.000000 1 0 0
2.458212 1.816473 13.947975 14.278949 0.636385 0.215728 0.000447 0.002352 595219.000000 1 0 0
0.095812 3.341573 14.279375 14.665464 1.542131 0.229968 0.007909 0.000390 1068130.000000 1 0 0
-12.969688 7.160873 12.117475 19.139595 -0.504472 0.885232 0.002424 -0.005028 -762106.000000 1 0 0
0.935012 1.272873 18.199775 18.268176 0.937245 0.086564 0.006525 -0.002033 1469640.000000 1 0 0
-2.023288 6.352573 12.552775 14.213411 -1.262456 0.488231 -0.002452 0.001298 568955.000000 1 0 0
-13.502588 -2.814927 10.821875 17.531591 0.205529 0.905517 -0.000734 -0.004615 -458753.000000 1 0 0
-2.588188 3.548573 13.518775 14.214372 -0.940636 0.314136 0.001891 0.003558 57678.700000 1 0 0
3.426412 6.243373 16.319475 17.805765 1.068869 0.411486 -0.001657 0.007682 869943.000000 1 0 0
-3.836788 12.331273 12.336475 17.859727 -1.269148 0.808281 -0.004677 -0.003199 572047.000000 1 0 0
3.784112 -1.509827 17.080375 17.559564 -0.379636 0.234155 0.013679 -0.006668 144935.000000 1 0 0
-15.868388 0.266973 9.215275 18.352065 -0.016823 1.044727 0.000681 0.001694 -330516.000000 1 0 0
-4.733688 4.511673 15.274075 16.615064 -0.761389 0.404522 0.000995 -0.000185 335049.000000 1 0 0
-7.959188 -8.251727 10.447475 15.510945 0.803442 0.831788 0.006146 -0.011297 3889270.000000 1 0 0
-2.638888 -0.549527 14.753675 14.997888 0.205308 0.180707 0.012003 -0.001336 2134080.000000 1 0 0
-1.834888 0.844973 17.235675 17.353654 -0.431554 0.116672 0.006603 -0.001715 1796300.000000 1 0 0
-0.673488 -2.479927 14.340275 14.568703 1.305617 0.177316 0.010802 -0.003548 514377.000000 1 0 0
5.170112 -8.372227 16.475175 19.189988 -1.017586 0.538401 0.013328 -0.009285 634379.000000 1 0 0
-4.507388 9.953473 10.635475 15.248000 -1.145578 0.798894 -0.008960 -0.000065 -1550550.000000 1 0 0
-6.252688 2.001073 15.220475 16.575984 -0.309734 0.407222 0.006317 0.000458 820436.000000 1 0 0
-4.948688 6.756473 17.239375 19.165998 -0.938631 0.452225 -0.004877 0.003497 -576879.000000 1 0 0
-4.133688 9.139973 15.738975 18.663917 -1.146061 0.567433 -0.013045 0.001518 12599.900000 1 0 0
-4.497488 -10.004427 18.395375 21.417418 1.148317 0.537682 0.035183 -0.008114 -354555.000000 1 0 0
-6.883688 -4.158827 11.153475 13.750673 0.543470 0.624728 0.003837 -0.001310 1483020.000000 1 0 0
-2.345888 -0.814727 19.631875 19.788317 0.334268 0.125827 0.016275 -0.004660 -1242050.000000 1 0 0
-5.723088 -4.684227 15.315275 17.007450 0.685908 0.449869 0.014455 -0.007742 1319290.000000 1 0 0
-12.991188 -0.108327 9.678475 16.200481 0.008338 0.930518 -0.005467 0.001043 562236.000000 1 0 0
-14.445188 8.840173 10.229375 19.785151 -0.549182 1.027427 0.003923 -0.006799 -824829.000000 1 0 0
-8.265288 10.526273 12.863975 18.563385 -0.905142 0.805188 -0.007450 -0.010318 -950579.000000 1 0 0
-10.469288 7.274673 10.741675 16.670646 -0.607267 0.870628 -0.004560 0.001545 -936322.000000 1 0 0
-9.772588 -6.740827 14.705875 18.899867 0.603826 0.679170 -0.004514 -0.009593 -745523.000000 1 0 0
-0.588688 -13.480927 14.388375 19.725803 1.527156 0.753324 0.006513 -0.009446 664833.000000 1 0 0
3.817312 -5.744627 16.901575 18.254749 -0.984294 0.387457 0.017507 -0.017701 2828490.000000 1 0 0
-7.259188 9.324473 10.416375 15.752539 -0.909298 0.848312 -0.011581 -0.003275 -477681.000000 1 0 0
-10.293688 -6.771927 11.749275 17.025407 0.581889 0.809166 -0.004023 -0.009750 2238920.000000 1 0 0
-10.949488 -4.043227 10.669575 15.813880 0.353730 0.830242 -0.001030 -0.001250 -649556.000000 1 0 0
-10.082988 -10.274227 9.780575 17.403621 0.794792 0.974013 0.008301 -0.012770 1637870.000000 1 0 0
-9.852988 -3.874927 15.247975 18.563329 0.374695 0.606930 -0.000174 -0.005006 1268300.000000 1 0 0
5.603312 -3.467727 16.057275 17.356795 -0.554180 0.389421 0.013619 -0.012396 -520091.000000 1 0 0
-11.166088 0.349273 15.301975 18.946080 -0.031270 0.630625 -0.008229 -0.005985 -23421.600000 1 0 0
-3.076288 3.163273 18.800175 19.311044 -0.799338 0.230531 0.002970 0.001581 486189.000000 1 0 0
0.500512 7.414273 13.911675 15.772021 1.503392 0.490606 -0.005482 -0.001903 1033680.000000 1 0 0
-13.120988 -7.389327 12.059275 19.292190 0.512897 0.895555 -0.012393 -0.011304 -598388.000000 1 0 0
-1.478088 -1.139927 12.076275 12.219681 0.656943 0.153354 0.008939 -0.002642 148561.000000 1 0 0
2.000312 -4.901427 13.095775 14.125316 -1.183320 0.384160 0.001753 -0.005657 -578992.000000 1 0 0
-14.594688 -4.176927 8.511375 17.403883 0.278744 1.059796 -0.001935 -0.011053 -1159190.000000 1 0 0
8.063712 0.838273 16.132475 18.054997 0.103584 0.465675 0.005319 0.002184 937294.000000 1 0 0
-1.396388 11.357073 13.280275 17.529938 -1.448457 0.711203 -0.017303 0.000906 -689216.000000 1 0 0
2.784112 -12.137927 -13.657025 18.482286 -1.345324 2.402270 -0.009709 0.000690 -1182970.000000 1 0 0
0.788812 -10.518427 -13.829125 17.392649 -1.495943 2.489991 -0.008799 0.001222 -1695090.000000 1 0 0
3.157712 -14.438727 -12.397325 19.290973 -1.355489 2.268747 -0.014369 0.003690 -1623250.000000 1 0 0
-5.148188 -10.162627 -16.043325 19.676664 1.101898 2.524126 0.008582 -0.011235 -109536.000000 1 0 0
-1.052788 -12.104327 -14.930625 19.249588 1.484039 2.458514 -0.005182 -0.003473 -631362.000000 1 0 0
5.572712 -15.181527 -12.017025 20.148022 -1.218994 2.209851 -0.013803 0.004995 -117954.000000 1 0 0
1.840212 -11.625927 -15.993725 19.858192 -1.413814 2.507141 -0.005655 -0.006789 -1065600.000000 1 0 0
1.238512 -14.196827 -14.162525 20.091315 -1.483778 2.353090 -0.006155 0.003905 -292939.000000 1 0 0
-0.960088 -10.434727 -15.844125 18.995831 1.479046 2.557267 -0.004668 -0.009578 -885090.000000 1 0 0
-5.864088 -5.494627 -15.046025 17.057588 0.752883 2.651039 0.003632 -0.006448 -14693.100000 1 0 0
-6.368088 -7.502627 -16.523825 19.232232 0.867010 2.604449 0.005134 -0.005984 528610.000000 1 0 0
4.943912 -12.696727 -11.451325 17.798370 -1.199474 2.269717 -0.008905 0.007426 -2481.190000 1 0 0
-1.713588 -15.399427 -13.200325 20.355032 1.459976 2.276414 -0.000052 -0.007085 85080.100000 1 0 0
15.713512 -7.169527 -8.704825 19.341421 -0.428052 2.037630 0.017386 -0.003349 92963.600000 1 0 0
19.147012 -3.501227 -4.083025 19.888131 -0.180862 1.777566 0.019419 -0.017057 153137.000000 1 0 0
14.842412 -11.660227 -8.811625 20.830334 -0.665900 2.007571 0.022843 -0.007142 803893.000000 1 0 0
18.160312 -3.245627 -6.426025 19.535220 -0.176854 1.905983 0.062025 -0.005409 849232.000000 1 0 0
9.601212 -9.082327 -15.420225 20.308995 -0.757633 2.433003 0.028739 -0.017238 -102552.000000 1 0 0
1.237412 1.908473 -15.274125 15.442550 0.995562 2.993765 0.007696 -0.006046 -12733.100000 1 0 0
4.835412 -4.241127 -13.901225 15.317063 -0.720017 2.708244 -0.001730 0.000235 689975.000000 1 0 0
13.040612 -5.439527 -8.612425 16.547504 -0.395179 2.118194 0.019997 -0.003452 -955578.000000 1 0 0
3.013412 1.018573 -12.161825 12.570924 0.325956 2.885775 0.003071 -0.007348 -2594570.000000 1 0 0
0.857912 6.336773 -13.009225 14.495883 1.436228 2.684734 0.011043 -0.006061 165351.000000 1 0 0
3.134012 -1.093527 -16.722825 17.049068 -0.335715 2.945650 0.008687 -0.006042 -346310.000000 1 0 0
13.176512 4.571873 -11.382525 18.002343 0.333974 2.255289 -0.013335 0.003364 487490.000000 1 0 0
-3.824888 9.480673 -16.430725 19.351528 -1.187327 2.585011 -0.006142 -0.001590 536896.000000 1 0 0
-0.232488 -5.161027 -17.702625 18.441073 1.525780 2.857643 0.003452 -0.007035 279346.000000 1 0 0
-0.474988 -8.557527 -17.650625 19.621454 1.515348 2.689552 0.003176 0.000040 -89239.300000 1 0 0
5.463112 -10.204527 -12.205125 16.820911 -1.079261 2.382691 -0.003436 0.003070 336403.000000 1 0 0
1.867612 -9.748627 -18.018925 20.571956 -1.381513 2.638089 0.009409 -0.006728 -172070.000000 1 0 0
11.052812 9.063473 -14.737425 20.530536 0.686827 2.371476 0.010189 0.001385 -687210.000000 1 0 0
10.810612 -3.690227 -12.808025 17.161953 -0.328950 2.413287 0.006070 -0.007922 520411.000000 1 0 0
5.115812 7.506073 -12.437525 15.401451 0.972556 2.510792 -0.001615 0.001931 513856.000000 1 0 0
9.608712 -5.926327 -12.480925 16.829206 -0.552656 2.406283 0.008722 -0.007892 -1329720.000000 1 0 0
-3.315088 0.315673 -15.899525 16.244517 -0.094937 2.935132 0.003173 -0.005108 -2959150.000000 1 0 0
-0.667188 10.781673 -12.822825 16.766468 -1.508993 2.441511 -0.004044 0.002702 -2009180.000000 1 0 0
6.508112 -5.496327 -12.299925 14.961727 -0.701313 2.535873 -0.000354 -0.003909 -23720.800000 1 0 0
17.814212 -5.952627 -7.941625 20.392384 -0.322486 1.970821 0.019730 -0.008618 243896.000000 1 0 0
13.145612 4.800873 -13.924525 19.742034 0.350158 2.353676 -0.007791 -0.000955 339396.000000 1 0 0
14.041712 0.879473 -11.618925 18.246714 0.062551 2.261096 -0.005601 0.002560 -231819.000000 1 0 0
15.259312 6.179873 -10.967725 19.782023 0.384801 2.158473 0.006844 -0.005721 1005050.000000 1 0 0
8.196812 1.509873 -11.795025 14.442647 0.182160 2.526431 -0.007247 0.004535 891759.000000 1 0 0
9.935112 1.314673 -8.975125 13.453166 0.131562 2.301157 -0.006496 0.001130 451493.000000 1 0 0
-0.098288 -5.743827 -12.992225 14.205602 1.553686 2.725276 -0.003577 -0.005232 -91.758300 1 0 0
10.545112 -5.718927 -8.881625 14.926111 -0.496935 2.208111 0.012930 -0.003515 -558095.000000 1 0 0
10.309512 8.502673 -11.224125 17.451718 0.689646 2.269405 -0.001335 -0.002138 322668.000000 1 0 0
8.580112 8.172673 -14.792025 18.952966 0.761082 2.466197 0.006493 0.006576 569559.000000 1 0 0
8.728712 10.539273 -10.645825 17.337828 0.879090 2.231944 0.001508 -0.006626 -800377.000000 1 0 0
7.044312 1.791973 -17.887525 19.307953 0.249102 2.755621 0.009692 0.002317 -2689790.000000 1 0 0
12.215012 2.709473 -12.853425 17.937622 0.218281 2.369658 -0.005953 0.000960 -839869.000000 1 0 0
2.762112 -0.825827 -19.220525 19.435530 -0.290524 2.992711 0.021039 -0.012144 -130780.000000 1 0 0
10.231312 -2.071327 -15.322825 18.540742 -0.199750 2.543553 0.005878 -0.011233 869154.000000 1 0 0
8.254012 -0.793527 -13.094525 15.499193 -0.095844 2.577085 -0.001785 -0.001455 176065.000000 1 0 0
0.584712 4.290373 -14.613425 15.241436 1.435346 2.853529 0.007369 -0.004270 -353102.000000 1 0 0
3.974712 -7.588627 -15.656525 17.846915 -1.088312 2.640937 0.006193 -0.005826 -2261370.000000 1 0 0
11.447112 -5.671527 -14.425325 19.268954 -0.460005 2.416790 0.012556 -0.007752 -687844.000000 1 0 0
-5.754988 4.339273 -16.923225 18.394149 -0.646058 2.738961 0.004463 -0.000598 185081.000000 1 0 0
11.348312 7.767473 -8.939725 16.402332 0.600221 2.147218 0.000515 -0.002423 -1731590.000000 1 0 0
9.757612 6.176073 -13.499025 17.764530 0.564295 2.433935 0.007086 0.005012 884881.000000 1 0 0
12.103012 0.811973 -10.184525 15.838774 0.066988 2.269221 0.001364 0.003325 -1671080.000000 1 0 0
5.476012 -7.323727 -13.688225 16.461810 -0.928763 2.552624 -0.000323 -0.001352 -859241.000000 1 0 0
8.478212 -10.203727 -10.725725 17.059816 -0.877500 2.250693 0.006536 -0.002192 20344.300000 1 0 0
10.232012 4.924773 -16.053725 19.663915 0.448584 2.525955 0.011313 0.005634 634228.000000 1 0 0
9.894012 -0.349727 -10.978525 14.783159 -0.035333 2.407796 -0.004286 0.001241 -492773.000000 1 0 0
-1.604488 5.559273 -14.016025 15.163405 -1.289817 2.750078 0.000888 -0.005468 93493.600000 1 0 0
1.294312 -0.647927 -14.860725 14.931048 -0.464124 3.044499 0.003353 -0.007927 -314341.000000 1 0 0
11.499312 -10.328227 -14.238625 21.015349 -0.731798 2.315202 0.025296 -0.014799 50212.000000 1 0 0
9.300012 -7.730427 -10.766925 16.191862 -0.693494 2.298235 0.010039 -0.004533 -68048.800000 1 0 0
14.008212 -0.926127 -9.778125 17.108461 -0.066017 2.179174 0.006697 0.000020 703387.000000 1 0 0
4.075312 11.286973 -12.205625 17.116694 1.224300 2.364682 0.001338 -0.001021 -117785.000000 1 0 0
-1.150588 2.915473 -16.937725 17.225282 -1.194912 2.958614 0.003615 -0.005856 1083980.000000 1 0 0
5.978112 -0.521727 -17.565525 18.562265 -0.087052 2.812398 0.005054 -0.001211 -237685.000000 1 0 0
6.297712 -6.444027 -15.977025 18.342628 -0.796881 2.628097 0.004563 -0.002974 -32137.200000 1 0 0
-1.636688 -5.276827 -19.859125 20.613309 1.270040 2.870253 0.009696 -0.010832 -956223.000000 1 0 0
-0.005588 -4.196327 -15.205125 15.773554 1.569465 2.872314 -0.001935 -0.007302 -284445.000000 1 0 0
0.597812 0.956873 -12.947325 12.996392 1.012372 3.054669 0.004699 -0.009215 491293.000000 1 0 0
15.820412 0.684573 -13.505525 20.812335 0.043245 2.276959 0.004302 -0.001883 485910.000000 1 0 0
-0.075688 6.953573 -16.289825 17.712038 -1.559912 2.738121 0.005104 -0.002629 -448859.000000 1 0 0
-4.792488 -0.494527 -18.271825 18.896351 0.102824 2.883780 -0.009889 -0.003233 -145601.000000 1 0 0
10.345612 -8.256627 -13.111325 18.630900 -0.673569 2.351446 0.012524 -0.013865 210285.000000 1 0 0
4.392312 8.517473 -17.474925 19.930197 1.094682 2.639976 0.006952 -0.005669 -406408.000000 1 0 0
9.202212 0.497373 -17.226725 19.536841 0.053997 2.650368 0.001185 0.007251 -388371.000000 1 0 0
3.402612 4.777973 -18.531725 19.437891 0.951965 2.835046 0.014562 -0.004239 -610342.000000 1 0 0
1.436212 -8.048427 -16.022625 17.987896 -1.394209 2.669778 -0.004460 -0.002748 300974.000000 1 0 0
4.656512 7.832273 -15.014725 17.563302 1.034409 2.596139 0.004753 0.003510 988698.000000 1 0 0
-5.624488 -0.450227 -15.073925 16.095365 0.079877 2.783418 -0.004013 -0.006350 -890190.000000 1 0 0
2.998912 3.364973 -13.871325 14.585272 0.842856 2.827413 0.006660 -0.002657 25468.100000 1 0 0
-2.552588 -10.189527 -17.906925 20.760543 1.325337 2.611077 0.017441 -0.007300 168145.000000 1 0 0
6.140512 -9.038827 -15.478425 18.946977 -0.974065 2.526871 0.001751 -0.003238 225950.000000 1 0 0
-1.752388 5.397273 -17.278325 18.186311 -1.256854 2.824266 0.000750 -0.006832 797183.000000 1 0 0
9.802612 -12.266927 -11.736825 19.604126 -0.896599 2.212663 0.014314 -0.004625 -749370.000000 1 0 0
10.888212 3.704173 -9.342325 14.817324 0.327918 2.252994 -0.006355 0.001771 -699160.000000 1 0 0
4.782912 -0.467827 -10.903925 11.915985 -0.097502 2.726470 0.000052 -0.006402 743801.000000 1 0 0
6.381612 9.552473 -11.416925 16.196323 0.981831 2.353090 -0.001826 -0.003789 211649.000000 1 0 0
10.728912 -9.460727 -9.580525 17.216311 -0.722667 2.160939 0.013837 -0.007109 1439610.000000 1 0 0
3.215812 -2.370327 -14.441825 14.984198 -0.635184 2.871715 0.002883 -0.004524 -106570.000000 1 0 0
9.174512 -4.471327 -14.685925 17.884094 -0.453488 2.534259 0.008799 -0.007627 135322.000000 1 0 0
-3.898988 -6.583127 -16.508725 18.195540 1.036080 2.707603 -0.005384 -0.008146 -851064.000000 1 0 0
5.834212 -7.878027 -11.180325 14.869466 -0.933359 2.421733 -0.003229 -0.001117 109361.000000 1 0 0
5.601112 6.322073 -16.948325 18.936388 0.845792 2.679258 0.010227 -0.006684 -756554.000000 1 0 0
8.889112 1.442873 -19.609225 21.578227 0.160916 2.711077 -0.001324 0.000804 426163.000000 1 0 0
13.195712 5.958173 -9.327225 17.222769 0.424120 2.143092 -0.005649 0.003642 437893.000000 1 0 0
-1.590988 -0.715227 -17.346425 17.433911 0.422479 3.041369 0.009844 -0.007199 251193.000000 1 0 0
-0.401888 -0.599827 -19.608425 19.621713 0.980486 3.104788 0.014182 -0.009854 -270254.000000 1 0 0
2.893512 6.458873 -16.577725 18.025271 1.149615 2.738095 0.007810 -0.000895 1820820.000000 1 0 0
7.765712 3.798473 -15.728425 17.947647 0.454917 2.639028 0.004046 0.003637 39199.600000 1 0 0
2.979112 -9.721227 -14.811125 17.965155 -1.273429 2.540002 -0.003066 -0.003710 74266.900000 1 0 0
8.925512 -10.443927 -13.365725 19.167237 -0.863630 2.342450 0.016603 -0.007684 23786.200000 1 0 0
3.798412 0.192473 -14.763425 15.245448 0.050629 2.889459 0.005223 -0.004247 -873286.000000 1 0 0
-1.207488 -2.900327 -18.806125 19.066732 1.176294 2.976067 0.015052 -0.009510 580909.000000 1 0 0
9.191512 9.995473 -13.065525 18.844132 0.827275 2.336920 0.001396 -0.006718 -433155.000000 1 0 0
4.688712 2.137573 -10.576025 11.764588 0.427748 2.688211 -0.000004 -0.002158 -169566.000000 1 0 0
-0.447488 7.169573 -18.864125 20.185594 -1.508462 2.777744 0.013680 -0.004520 -276723.000000 1 0 0
0.841412 -1.752827 -17.550625 17.657996 -1.123251 3.031259 0.013201 -0.012908 -1287360.000000 1 0 0
-4.472488 -2.409627 -14.103725 14.990814 0.494178 2.795851 0.003429 -0.007089 -5528840.000000 1 0 0
10.140712 5.983473 -10.480925 15.763432 0.533067 2.298141 -0.002736 0.005371 246310.000000 1 0 0
8.202712 5.321573 -17.707825 20.227968 0.575501 2.637086 0.002795 0.001314 -404746.000000 1 0 0
11.636412 0.283973 -13.745025 18.011453 0.024399 2.438934 0.003424 0.009010 672518.000000 1 0 0
6.865812 12.028773 -11.823425 18.210550 1.052137 2.277411 0.003589 -0.005244 -392949.000000 1 0 0
-0.977788 0.574973 -15.045725 15.088423 -0.531575 3.066344 0.007009 -0.006507 371098.000000 1 0 0
-4.304988 -2.922727 -19.036525 19.734856 0.596435 2.874773 -0.001964 -0.003095 -71209.200000 1 0 0
5.723912 -12.202027 -13.937425 19.388255 -1.132177 2.372956 -0.007671 -0.000453 -197817.000000 1 0 0
2.149712 -4.683527 -14.026325 14.943041 -1.140488 2.789499 -0.000510 -0.003392 -1557160.000000 1 0 0
11.842112 2.139773 -15.481725 19.608622 0.178763 2.480850 0.002805 0.004035 381401.000000 1 0 0
9.853812 2.253473 -13.789225 17.097324 0.224824 2.509028 -0.000844 0.002874 95863.600000 1 0 0
-2.200788 -4.182527 -16.302425 16.973687 1.086420 2.859420 -0.001853 -0.011025 -958716.000000 1 0 0
-2.777888 10.094873 -14.283925 17.710269 -1.302265 2.509061 -0.003215 -0.003971 284624.000000 1 0 0
3.669712 5.804473 -13.645325 15.275915 1.007021 2.675336 -0.000524 -0.000850 -342059.000000 1 0 0
-5.070388 -2.553827 -16.621125 17.563959 0.466583 2.812450 -0.003402 -0.003570 369961.000000 1 0 0
-4.184588 6.070573 -13.456025 15.343638 -0.967272 2.640332 -0.004031 -0.006369 -1262170.000000 1 0 0
5.851012 -1.163727 -13.935025 15.158282 -0.196331 2.737097 0.003871 -0.004802 -2310990.000000 1 0 0
6.834812 -3.075727 -12.625625 14.682682 -0.422861 2.605868 0.000380 -0.003305 178800.000000 1 0 0
3.001212 -3.157727 -18.146825 18.662416 -0.810805 2.905985 0.013231 -0.013119 -393586.000000 1 0 0
7.354512 -12.056327 -12.076325 18.581752 -1.023047 2.278252 0.000241 -0.000179 -2847710.000000 1 0 0
-6.058988 -5.345027 -17.615625 19.380167 0.722874 2.711558 0.015524 -0.008055 591045.000000 1 0 0
0.614112 8.685973 -11.881825 14.730954 1.500212 2.509155 0.001843 -0.002591 87418.800000 1 0 0
0.522412 8.619873 -14.481225 16.860634 1.510265 2.603871 0.001868 -0.001884 -327405.000000 1 0 0
7.643812 -2.418927 -15.083225 17.081649 -0.306484 2.653028 -0.000370 -0.007486 -699962.000000 1 0 0
14.325612 1.511973 -8.937425 16.952486 0.105154 2.126104 0.000518 -0.000605 549159.000000 1 0 0
2.912612 10.788773 -14.488425 18.297415 1.307115 2.484594 0.005144 0.000416 -851292.000000 1 0 0
6.244612 0.930473 -15.439825 16.680802 0.147916 2.753426 0.008099 -0.000466 619525.000000 1 0 0
16.717212 -5.301927 -10.192025 20.284304 -0.307119 2.097236 0.044644 -0.014157 700315.000000 1 0 0
4.834112 -4.129027 -11.174825 12.856680 -0.706895 2.624347 -0.004740 -0.002991 -1923360.000000 1 0 0
8.919012 -3.475627 -17.023125 19.529863 -0.371585 2.629347 0.003823 -0.010857 373769.000000 1 0 0
13.292112 -9.646527 -8.884125 18.672531 -0.627789 2.066654 0.022861 -0.007031 -87452.400000 1 0 0
2.213812 -7.550727 -13.576625 15.692010 -1.285597 2.616332 -0.006961 -0.001365 -206062.000000 1 0 0
-6.769888 -2.242427 -18.588225 19.909344 0.319861 2.775249 -0.004940 -0.000274 -1700480.000000 1 0 0
-1.401988 -6.426727 -15.661325 16.986627 1.356012 2.743958 -0.003452 -0.006547 -547249.000000 1 0 0
1.668612 -7.271227 -18.523525 19.969376 -1.345220 2.758723 0.013466 -0.001161 -108211.000000 1 0 0
5.432112 10.835873 -14.412425 18.831940 1.106103 2.442332 0.005604 -0.011901 205777.000000 1 0 0
5.440612 -3.485827 -17.174525 18.349811 -0.569813 2.781747 0.014751 -0.010251 -1294670.000000 1 0 0
3.976712 13.054773 -14.169025 19.672382 1.275109 2.374958 0.001891 -0.000418 24445.300000 1 0 0
9.098812 10.578473 -15.556325 20.897170 0.860453 2.410466 0.000428 -0.006147 319775.000000 1 0 0
2.492112 3.906173 -16.327525 16.972238 1.002908 2.865081 0.013583 -0.001563 598444.000000 1 0 0
16.493212 1.810073 -11.304125 20.076993 0.109309 2.168854 -0.006237 0.001024 -143472.000000 1 0 0
9.896212 -3.622127 -10.446225 14.838411 -0.350867 2.351809 0.008946 -0.004003 250327.000000 1 0 0
14.609812 -2.135927 -12.057325 19.062735 -0.145170 2.255583 0.011863 0.001183 45131.100000 1 0 0
-2.582188 -8.621927 -15.891325 18.263065 1.279807 2.626272 -0.000334 -0.005129 -231933.000000 1 0 0
13.943312 8.446773 -8.895025 18.571090 0.544669 2.070279 0.011122 -0.001315 1279820.000000 1 0 0
-8.129588 0.059273 -16.533525 18.424200 -0.007291 2.684594 -0.005209 -0.005333 -430336.000000 1 0 0
-3.431388 3.912673 -15.867925 16.699535 -0.850839 2.824678 0.002182 -0.005673 -2292180.000000 1 0 0
15.045612 4.040473 -9.606625 18.302544 0.262358 2.123370 -0.000902 0.005025 578640.000000 1 0 0
5.391512 1.101273 -12.915525 14.038945 0.201489 2.738821 0.000073 -0.001778 -47651.800000 1 0 0
7.801112 -7.689227 -12.937625 16.951805 -0.778175 2.439048 0.006597 -0.005619 -1675390.000000 1 0 0
3.329012 -6.146527 -11.798025 13.713333 -1.074418 2.606718 -0.006044 -0.001114 -1235200.000000 1 0 0
-3.219588 3.507873 -18.440725 19.045505 -0.828224 2.888911 0.002691 -0.007014 -105637.000000 1 0 0
0.904712 5.133273 -17.840225 18.586087 1.396343 2.857334 0.010264 -0.005962 -1068020.000000 1 0 0
6.483612 7.166473 -10.314125 14.134240 0.835383 2.388718 -0.007257 0.001638 -22895.100000 1 0 0
9.750612 3.634173 -11.679425 15.642590 0.356763 2.413797 -0.001747 0.000945 -136330.000000 1 0 0
4.595912 1.715673 -17.369125 18.048613 0.357283 2.866324 0.017707 -0.004774 -472858.000000 1 0 0
2.717412 8.238473 -13.343225 15.915351 1.252189 2.565114 0.001441 -0.002025 -539008.000000 1 0 0
14.286212 -3.512427 -9.833325 17.695403 -0.241080 2.160000 0.018020 -0.000566 -95502.900000 1 0 0
-1.191688 9.329373 -16.160325 18.697952 -1.443749 2.614520 0.001675 0.001556 -651120.000000 1 0 0
-5.227688 2.055473 -15.805525 16.774037 -0.374622 2.800116 0.000998 -0.003743 582993.000000 1 0 0
4.620812 4.212473 -11.952025 13.488800 0.739204 2.659594 0.000802 -0.000995 431912.000000 1 0 0
9.372012 3.073973 -17.631725 20.203011 0.316938 2.631558 0.001282 0.006641 1106540.000000 1 0 0
-4.134588 14.335273 -13.257225 19.958679 -1.289996 2.297264 -0.001802 -0.002164 -190150.000000 1 0 0
15.464512 -4.695427 -7.871425 17.976582 -0.294780 2.024026 0.023582 -0.007353 429337.000000 1 0 0
1.352412 9.006673 -16.900125 19.198005 1.421753 2.647304 0.010610 -0.001306 -1160970.000000 1 0 0
0.505712 -3.151727 -12.752925 13.146339 -1.411697 2.896333 0.000524 -0.006477 230720.000000 1 0 0
7.660012 3.694573 -13.165225 15.673187 0.449403 2.568050 0.000595 0.002705 -114192.000000 1 0 0
-2.846588 7.597873 -14.997325 17.051407 -1.212327 2.645682 -0.004976 -0.000507 257909.000000 1 0 0
11.999612 -5.079327 -10.982225 17.041113 -0.400422 2.271106 0.018691 -0.006926 -1395670.000000 1 0 0
0.717412 -4.342127 -19.935725 20.415726 -1.407054 2.924318 0.019605 -0.012730 -903799.000000 1 0 0
3.368212 -4.505527 -16.091725 17.046649 -0.928850 2.805291 0.007305 -0.006879 411488.000000 1 0 0
-5.515588 4.121073 -14.329125 15.897445 -0.641686 2.693667 -0.000051 -0.005473 319531.000000 1 0 0
12.251112 -7.510727 -9.744725 17.362616 -0.549971 2.166689 0.019889 -0.003386 341201.000000 1 0 0
-2.175188 -1.834227 -15.064025 15.330384 0.700562 2.954910 0.006888 -0.007247 17020.400000 1 0 0
7.231412 6.009773 -14.346225 17.152984 0.693398 2.561422 0.005335 0.004155 -466233.000000 1 0 0
4.307112 -5.401527 -18.392625 19.647299 -0.897650 2.782284 0.020241 -0.011631 179985.000000 1 0 0
7.791512 7.517973 -12.396625 16.459158 0.767533 2.423672 0.000052 0.000735 -1224910.000000 1 0 0
12.227712 -2.470327 -10.960825 16.605997 -0.199344 2.291685 0.011980 -0.003794 -629684.000000 1 0 0
7.450212 -0.670927 -10.697625 13.053543 -0.089813 2.531367 -0.003723 -0.001734 -1560450.000000 1 0 0
5.432212 4.088273 -14.385225 15.910927 0.645162 2.700088 0.000703 -0.000467 8089.680000 1 0 0
14.836512 3.070273 -12.899125 19.898143 0.204060 2.276090 -0.008146 -0.001232 432992.000000 1 0 0
-6.158088 6.606773 -15.878825 18.267692 -0.820534 2.624439 -0.002076 0.002646 170546.000000 1 0 0
-11.063188 3.904073 -16.463825 20.216168 -0.339246 2.522472 0.023881 -0.014886 -492947.000000 1 0 0
-4.780188 6.524773 -18.063825 19.792034 -0.938511 2.720595 0.000770 0.011704 489687.000000 1 0 0
-9.882588 1.689273 -15.700525 18.628625 -0.169298 2.573293 0.014972 -0.003489 -205757.000000 1 0 0
-7.490288 6.015873 -17.945225 20.355005 -0.676663 2.650064 -0.001219 0.002109 729408.000000 1 0 0
-8.597088 3.942673 -15.662025 18.296273 -0.429987 2.598322 0.000882 0.002556 -426386.000000 1 0 0
8.982712 13.516273 -12.010725 20.190004 0.984236 2.207919 0.010168 -0.007511 -473824.000000 1 0 0
13.611012 9.146973 -11.377625 19.959387 0.591705 2.177349 -0.004842 -0.008782 26247.000000 1 0 0
8.409712 15.847473 -9.118325 20.124848 1.082918 2.041022 0.009708 -0.005154 159647.000000 1 0 0
7.112912 13.634273 -13.908425 20.734782 1.089945 2.306053 0.002995 -0.004096 83369.400000 1 0 0
4.470112 15.901273 -12.407125 20.658391 1.296752 2.215029 0.007372 -0.010869 170358.000000 1 0 0
11.033012 10.957373 -11.602225 19.401108 0.781959 2.211823 0.007964 -0.007356 -768349.000000 1 0 0
15.592212 10.039073 -10.019925 21.078400 0.572041 2.066175 0.024730 0.005145 407074.000000 1 0 0
13.187712 10.870773 -9.425325 19.517331 0.689390 2.074783 0.034858 -0.005948 -244784.000000 1 0 0
10.395912 11.740373 -8.279125 17.732886 0.846059 2.056555 0.016505 -0.003439 -89241.500000 1 0 0
5.206512 16.150873 -9.945925 19.669262 1.258948 2.100941 -0.001067 -0.009243 -90285.000000 1 0 0
6.695012 14.691373 -11.596225 19.877929 1.143204 2.193670 -0.000796 0.005413 992243.000000 1 0 0
10.876212 13.756473 -9.758825 20.069061 0.901798 2.078603 0.029575 -0.005443 -156297.000000 1 0 0
8.370112 -18.519627 -1.132425 20.354797 -1.146314 1.626459 0.025011 -0.000041 -333586.000000 1 0 0
7.284112 -17.462027 -3.350225 19.214700 -1.175602 1.746049 0.015217 0.003034 -25274.200000 1 0 0
4.412512 -18.412727 5.536275 19.726863 -1.335587 1.286329 0.039366 -0.000888 156731.000000 1 0 0
9.757912 -17.102727 -2.716425 19.877100 -1.052315 1.707886 0.015260 -0.000500 -1362220.000000 1 0 0
-9.641988 -11.944827 -10.077625 18.363152 0.891674 2.151720 0.020016 -0.011158 -855147.000000 1 0 0
-5.105988 -6.835127 -12.115125 14.817771 0.929204 2.528040 -0.000845 -0.004576 876430.000000 1 0 0
-10.764188 -9.438327 -5.735825 15.422368 0.719864 1.951869 0.010674 -0.008514 -787825.000000 1 0 0
-4.506688 -11.332127 -13.882025 18.478040 1.192282 2.420783 0.008876 -0.007362 80537.000000 1 0 0
-2.885088 -15.392827 7.414575 17.327400 1.385515 1.128617 0.001351 -0.003255 138164.000000 1 0 0
-4.677388 -12.050827 -11.478725 17.287612 1.200557 2.296933 0.003941 -0.003747 -25373.200000 1 0 0
-14.298588 -12.762827 -4.265625 19.635043 0.728708 1.789788 0.009923 -0.006491 24682.600000 1 0 0
-3.206388 -12.270027 -3.237925 13.088875 1.315193 1.820772 -0.000083 -0.001007 488205.000000 1 0 0
-2.581388 -17.481027 -1.637225 17.746278 1.424188 1.663185 -0.007942 -0.000672 -1514260.000000 1 0 0
-5.773888 -12.163027 3.699775 13.962999 1.127586 1.302624 -0.005829 0.000359 -550235.000000 1 0 0
-8.741988 -10.418927 -12.016525 18.148644 0.872694 2.294436 0.011704 -0.003517 -460226.000000 1 0 0
-9.715988 -11.822427 -7.505825 17.044284 0.882887 2.026809 0.016196 -0.014265 -267444.000000 1 0 0
-10.842088 -15.097727 6.155975 19.580303 0.948008 1.250976 0.008549 -0.004478 -610821.000000 1 0 0
-9.507388 -15.743127 0.772175 18.407410 1.027509 1.528835 0.006053 0.006383 -1394700.000000 1 0 0
-14.952188 -7.764927 -8.199025 18.737290 0.478982 2.023700 0.008449 -0.005069 127263.000000 1 0 0
-2.459488 -16.530927 5.144275 17.486686 1.423099 1.272196 0.004378 -0.000087 299359.000000 1 0 0
4.455912 -15.851527 5.549675 17.375988 -1.296765 1.245713 0.028383 -0.007146 -81994.900000 1 0 0
4.209712 -14.593527 -9.967525 18.167120 -1.289956 2.151554 -0.009965 -0.001996 -578425.000000 1 0 0
-7.659288 -14.145727 -0.275125 16.088567 1.074537 1.587898 -0.005065 0.005498 524950.000000 1 0 0
2.908412 -14.734727 9.530875 17.787879 -1.375917 1.005333 0.019129 -0.014311 -510317.000000 1 0 0
2.356712 -17.258527 10.226175 20.198651 -1.435082 1.039931 0.037525 -0.010619 -643409.000000 1 0 0
-8.372488 -17.151427 -5.749925 19.933179 1.116673 1.863414 0.018704 -0.006673 -339226.000000 1 0 0
-6.326988 -9.084727 -7.696425 13.483249 0.962462 2.178293 0.006901 -0.005637 130743.000000 1 0 0
-6.072388 -13.117327 -4.797525 15.230050 1.137243 1.891257 -0.003790 -0.005764 337655.000000 1 0 0
2.010512 -19.372927 -4.811625 20.062507 -1.467387 1.812989 0.004987 -0.006816 -278289.000000 1 0 0
-5.397488 -12.830027 8.395675 16.255148 1.172580 1.028046 0.002149 -0.005538 957499.000000 1 0 0
2.057212 -17.673427 3.352675 18.105872 -1.454916 1.384551 0.018403 -0.004996 -40594.600000 1 0 0
-17.443488 -10.065127 -2.605825 20.306954 0.523346 1.699473 0.000174 -0.000934 412435.000000 1 0 0
-3.436188 -15.598127 2.542375 16.173207 1.353965 1.412945 -0.005916 0.004133 1313.920000 1 0 0
-10.157988 -10.161827 -14.188225 20.192899 0.785587 2.349889 0.017872 -0.008541 -261562.000000 1 0 0
5.989212 -14.654727 -5.650725 16.809592 -1.182823 1.913634 -0.003220 -0.000322 175730.000000 1 0 0
-7.227688 -12.110327 -10.819025 17.775005 1.032718 2.225173 0.010324 -0.008810 -1463380.000000 1 0 0
-7.130388 -14.308027 3.874275 16.449075 1.108471 1.333031 -0.007460 0.005694 940744.000000 1 0 0
3.128812 -14.846027 -3.152525 15.496206 -1.363085 1.775665 0.005683 -0.001875 113841.000000 1 0 0
-7.511488 -11.423827 7.613075 15.648808 0.989147 1.062722 -0.001029 -0.009578 -392220.000000 1 0 0
-12.720188 -12.279527 -1.242725 17.723835 0.767773 1.640970 0.007448 0.001198 -1529480.000000 1 0 0
-1.994088 -13.682427 4.019075 14.399242 1.426074 1.287922 -0.002009 0.001181 -2427120.000000 1 0 0
-3.338288 -13.912727 5.317075 15.263664 1.335303 1.214988 -0.005194 0.002888 689654.000000 1 0 0
-14.483488 -10.244827 -4.426625 18.284499 0.615639 1.815323 0.005406 -0.003985 701810.000000 1 0 0
-6.067888 -8.541227 -10.359325 14.733887 0.953109 2.350537 0.002467 -0.004243 -107586.000000 1 0 0
0.541512 -19.590927 2.421775 19.747472 -1.543162 1.447850 0.013640 -0.006109 375617.000000 1 0 0
6.490612 -14.365827 -8.226625 17.781518 -1.146439 2.051779 -0.006864 0.000366 -2222900.000000 1 0 0
-4.001688 -16.737627 -5.990725 18.222252 1.336118 1.905785 -0.005556 -0.005142 -243284.000000 1 0 0
-3.601088 -13.664427 -13.325025 19.422685 1.313118 2.326849 0.016367 -0.001907 -1984480.000000 1 0 0
-8.210988 -14.710027 -4.586025 17.459577 1.061687 1.836580 0.002446 -0.006391 -1037030.000000 1 0 0
-4.806488 -14.218527 10.340875 18.226424 1.244812 0.967505 0.013831 -0.006353 -385336.000000 1 0 0
-0.148788 -12.057527 -10.005825 15.669162 1.558457 2.263432 0.001582 0.000903 1160300.000000 1 0 0
2.373212 -17.187127 6.568375 18.551901 -1.433583 1.208894 0.030627 -0.014493 496986.000000 1 0 0
-3.024388 -19.183327 -3.536425 19.739637 1.414426 1.750922 -0.008222 -0.006464 -922709.000000 1 0 0
0.613912 -15.393527 -3.186625 15.731883 -1.530936 1.774766 0.004153 -0.001636 512563.000000 1 0 0
5.959112 -18.057727 0.526475 19.022873 -1.252046 1.543117 0.019692 -0.003905 -409428.000000 1 0 0
-7.070788 -16.740227 3.845775 18.574747 1.171144 1.362245 -0.007554 0.006688 170581.000000 1 0 0
-5.296888 -13.450627 -9.548125 17.324638 1.195644 2.154514 0.002320 -0.005366 205955.000000 1 0 0
5.606512 -15.165327 -2.150425 16.310869 -1.216687 1.703021 0.005557 0.001095 -1159750.000000 1 0 0
-8.824288 -10.270027 -0.441125 13.547550 0.860970 1.603363 -0.002244 -0.000659 -1161640.000000 1 0 0
-7.270388 -17.969427 -3.099825 19.630786 1.186333 1.729366 -0.002835 -0.016737 67458.200000 1 0 0
7.873912 -16.004527 -1.264825 17.881364 -1.113585 1.641590 0.010997 -0.000022 962929.000000 1 0 0
-7.937688 -9.881027 -9.557825 15.874306 0.894031 2.216918 0.011554 -0.006303 -2128020.000000 1 0 0
-9.231788 -15.126827 -7.057125 19.074848 1.022843 1.949773 0.024198 -0.009367 -117528.000000 1 0 0
-11.436388 -10.379527 -11.947625 19.526169 0.736992 2.229229 0.018043 -0.001252 -289135.000000 1 0 0
6.457312 -16.383627 2.503675 17.787313 -1.195359 1.429571 0.019585 -0.002113 566806.000000 1 0 0
-2.279388 -11.173827 -6.100825 12.933294 1.369564 2.062031 -0.001169 -0.000510 -12661.700000 1 0 0
-12.379388 -15.245327 -3.393325 19.929473 0.888774 1.741897 0.012776 -0.009841 -531146.000000 1 0 0
-0.450088 -19.770527 -2.966325 19.996885 1.548035 1.719685 0.015864 -0.006080 673020.000000 1 0 0
-5.842888 -15.652927 -4.848025 17.397035 1.213537 1.853205 -0.010165 -0.003562 -2420980.000000 1 0 0
1.889612 -15.920727 -1.043925 16.066424 -1.452660 1.635818 0.009118 -0.006034 696756.000000 1 0 0
-13.260588 -11.952927 5.158375 18.582909 0.733581 1.289515 0.020859 -0.006501 -220115.000000 1 0 0
2.033912 -15.343327 -8.857625 17.832891 -1.439005 2.090591 -0.006457 0.003152 -253133.000000 1 0 0
-11.708288 -16.720527 -0.127325 20.412649 0.959913 1.577034 0.020387 -0.003436 186997.000000 1 0 0
-7.522088 -16.617427 -0.921925 18.263916 1.145730 1.621296 0.005844 -0.002310 599248.000000 1 0 0
-3.087788 -14.561227 -1.816225 14.995414 1.361836 1.692213 -0.005000 -0.000899 282980.000000 1 0 0
-1.876488 -10.418627 -13.178725 16.904076 1.392598 2.464852 -0.005233 -0.001320 -621217.000000 1 0 0
1.405912 -19.663827 4.805775 20.291332 -1.499420 1.331686 0.029144 -0.007576 -81171.400000 1 0 0
-17.392688 -9.409327 2.457575 19.926884 0.495902 1.447152 0.004467 -0.004290 -226941.000000 1 0 0
-2.793188 -15.587527 -8.073925 17.775296 1.393484 2.042295 -0.005294 -0.002144 -1393360.000000 1 0 0
-10.539788 -12.098827 0.145675 16.046494 0.854156 1.561718 0.000747 0.000157 77206.400000 1 0 0
-6.885188 -11.379527 -6.424725 14.770800 1.026672 2.020792 0.005299 -0.005913 -57263.700000 1 0 0
-2.289588 -13.610527 -6.686125 15.336001 1.404135 2.021919 -0.006611 0.000137 737273.000000 1 0 0
-14.233988 -14.469127 -1.172925 20.330711 0.793590 1.628521 0.014679 0.001810 21968.500000 1 0 0
-9.467388 -11.264327 -4.465725 15.377230 0.871858 1.865453 0.005424 -0.008784 1091860.000000 1 0 0
9.449212 -15.222527 -5.150525 18.642448 -1.015267 1.850717 0.002246 0.000419 343362.000000 1 0 0
-5.496288 -10.922627 -9.285925 15.353871 1.104590 2.220303 0.005563 -0.005299 233106.000000 1 0 0
-10.425188 -15.953927 -4.877525 19.672381 0.991995 1.821347 0.020568 -0.008358 -2161000.000000 1 0 0
2.369212 -17.338027 -3.310525 17.809546 -1.434989 1.757769 0.015687 -0.004347 516208.000000 1 0 0
-0.337288 -14.539227 -8.210025 16.700521 1.547602 2.084726 -0.003854 0.000772 -324776.000000 1 0 0
-0.707388 -18.280927 -7.189325 19.656528 1.532120 1.945232 0.002505 -0.000928 -16254.000000 1 0 0
-1.899888 -10.042127 -10.560325 14.696066 1.383815 2.372557 -0.004931 -0.000719 381412.000000 1 0 0
-5.121688 -17.419027 1.908775 18.256440 1.284827 1.466051 -0.006646 -0.002092 135901.000000 1 0 0
0.182212 -12.837627 -2.670425 13.113697 -1.556604 1.775867 -0.000790 -0.000165 -1445370.000000 1 0 0
2.600612 -15.047427 3.047675 15.571659 -1.399659 1.373805 0.013734 -0.003380 -474817.000000 1 0 0
-9.350488 -13.125227 6.849475 17.510526 0.951793 1.168901 -0.004229 -0.003333 -272676.000000 1 0 0
-1.076288 -17.878127 -4.630725 18.499444 1.510668 1.823804 0.001613 -0.003511 25273.700000 1 0 0
-9.680488 -17.381827 -2.291925 20.027298 1.062647 1.685488 0.018082 -0.017842 -293946.000000 1 0 0
1.187212 -16.350527 1.422275 16.455154 -1.498313 1.484255 0.009490 -0.003580 1126860.000000 1 0 0
-0.525588 -18.050627 4.074875 18.512320 1.541687 1.348862 0.020532 -0.011212 94178.400000 1 0 0
-17.366888 -9.211627 -0.116025 19.659001 0.487681 1.576698 0.000200 0.000364 436819.000000 1 0 0
-14.879688 -7.291327 -10.713325 19.731799 0.455631 2.144739 0.021692 -0.007153 500114.000000 1 0 0
2.734312 -12.761527 -8.809625 15.746191 -1.359726 2.164550 -0.011373 0.000180 478616.000000 1 0 0
-11.685888 -14.756227 1.637775 18.894140 0.900996 1.484006 0.011535 0.003212 176596.000000 1 0 0
-2.563188 -15.575127 10.862775 19.161274 1.407689 0.968043 0.020757 -0.001566 132221.000000 1 0 0
-7.017788 -15.831227 1.442575 17.376942 1.153538 1.487684 0.001572 0.001069 -1078010.000000 1 0 0
-12.702488 -15.013027 -5.965725 20.550768 0.868572 1.865328 0.021231 -0.008343 1763870.000000 1 0 0
0.840712 -13.759427 -5.110025 14.701734 -1.509771 1.925785 0.000716 0.000836 515611.000000 1 0 0
5.690512 -16.608727 -7.293325 19.011163 -1.240710 1.964524 -0.001343 -0.001350 -108140.000000 1 0 0
-6.476288 -12.943027 5.957175 15.650949 1.106854 1.180322 -0.002165 0.001241 294287.000000 1 0 0
-2.635388 -13.552127 0.466675 13.813877 1.378730 1.537007 -0.000322 0.000579 2374320.000000 1 0 0
-4.294488 -15.580827 0.122175 16.162293 1.301848 1.563237 -0.008192 0.000959 94846.700000 1 0 0
-17.571888 -7.480227 -2.045125 19.206967 0.402457 1.677477 -0.008053 0.008499 89457.900000 1 0 0
1.171412 -12.784127 -12.011325 17.580615 -1.479421 2.322952 -0.007876 0.002727 69998.200000 1 0 0
1.143312 -17.091027 -5.674025 18.044526 -1.504000 1.890669 0.006396 -0.002916 -1159480.000000 1 0 0
-12.918488 -6.442727 -9.184725 17.110091 0.462624 2.137438 0.017125 -0.003005 969962.000000 1 0 0
-11.328288 -13.399527 -8.824325 19.640421 0.868965 2.036771 0.021541 -0.014189 345967.000000 1 0 0
-4.323088 -9.940927 3.486075 11.387003 1.160589 1.259655 0.000267 -0.000761 -5380230.000000 1 0 0
-7.320088 -14.008027 9.680575 18.534348 1.089261 1.021245 0.009034 -0.014551 -404204.000000 1 0 0
-5.378688 -15.846027 -8.101825 18.592107 1.243565 2.021686 -0.002535 -0.008580 388996.000000 1 0 0
-0.473688 -13.435827 2.156675 13.616060 1.535555 1.411734 0.002996 -0.002019 641992.000000 1 0 0
-10.938488 -13.369427 -4.746525 17.914285 0.885073 1.838956 0.019472 -0.009600 -424513.000000 1 0 0
-9.702388 -10.575827 6.628775 15.809020 0.828444 1.138118 0.005664 -0.004787 -532231.000000 1 0 0
-15.600388 -7.969127 -5.014125 18.221431 0.472273 1.849570 0.009246 0.000117 -161408.000000 1 0 0
-14.464388 -7.412727 5.370175 17.117413 0.473583 1.251682 0.004937 -0.005786 347688.000000 1 0 0
-1.692588 -19.384427 -0.197225 19.459182 1.483700 1.580932 0.002851 -0.003467 -464664.000000 1 0 0
-15.217388 -12.091327 -1.441925 19.489695 0.671423 1.644848 0.004757 0.005238 198867.000000 1 0 0
-4.495188 -12.128827 -6.962925 14.690047 1.215871 2.064612 -0.003161 -0.003098 454182.000000 1 0 0
-7.505188 -18.381227 1.928675 19.947861 1.183149 1.473959 0.000824 -0.000397 69083.000000 1 0 0
-2.428088 -11.891127 -8.649825 14.903489 1.369372 2.190003 -0.006951 -0.000553 628222.000000 1 0 0
-1.577588 -20.340827 -5.353525 21.092612 1.493394 1.827414 0.004423 -0.002980 -224323.000000 1 0 0
-5.363088 -8.775027 -13.771525 17.187749 1.022200 2.500162 0.005091 -0.006542 238843.000000 1 0 0
-8.218988 -19.169627 -0.955825 20.879175 1.165753 1.616591 0.002127 0.002929 82755.100000 1 0 0
-17.114288 -7.365627 5.546375 19.440000 0.406418 1.281469 0.010302 -0.011758 192361.000000 1 0 0
-3.562988 -14.682027 -4.351425 15.722331 1.332722 1.851225 -0.006870 -0.002832 -2624970.000000 1 0 0
-3.005388 -14.853727 -11.020925 18.738366 1.371159 2.199563 -0.002002 -0.002509 -233221.000000 1 0 0
-0.143188 -16.591727 6.298175 17.747477 1.562166 1.208014 0.019647 -0.010475 -1844420.000000 1 0 0
-11.116388 -11.621927 3.919775 16.553184 0.807627 1.331727 0.006427 -0.000289 -285044.000000 1 0 0
-0.245688 -14.662627 -0.136725 14.665323 1.554042 1.580119 0.003323 0.000931 758214.000000 1 0 0
-7.332688 -9.565827 -2.440825 12.297601 0.916787 1.770603 0.003120 -0.002529 -401200.000000 1 0 0
-11.067588 -14.343427 -0.940525 18.141389 0.913605 1.622664 0.007066 -0.007373 -201540.000000 1 0 0
0.381712 -14.640327 -10.701725 18.138682 -1.544730 2.201848 -0.010023 0.001353 317807.000000 1 0 0
-1.489288 -14.108327 -3.929425 14.720844 1.465625 1.841002 -0.003513 -0.000909 -3725920.000000 1 0 0
-11.427288 -7.991027 -7.592825 15.877355 0.610252 2.069420 0.016022 -0.007534 707959.000000 1 0 0
-0.305988 -17.254827 -0.395325 17.262067 1.553065 1.593700 0.004498 -0.001895 542907.000000 1 0 0
-12.834488 -9.563527 4.485975 16.622548 0.640385 1.297535 0.009380 -0.002989 -723169.000000 1 0 0
3.894912 -16.891227 1.582275 17.406536 -1.344170 1.479769 0.014606 -0.004804 2365090.000000 1 0 0
-3.786488 -17.919427 -8.253025 20.088698 1.362553 1.994160 0.003820 -0.004490 112589.000000 1 0 0
-13.255488 -11.235727 2.546175 17.562247 0.703116 1.425304 0.002569 -0.003904 -570444.000000 1 0 0
-8.461388 -12.173927 4.167275 15.400187 0.963406 1.296781 0.001452 -0.000304 1686090.000000 1 0 0
-8.277088 -9.370927 -5.941225 13.842782 0.847300 2.014395 0.009083 -0.006232 90129.000000 1 0 0
3.668112 -17.713627 -5.558725 18.924245 -1.366604 1.868929 0.003403 0.013174 -1309400.000000 1 0 0
-2.677388 -12.961927 11.379875 17.455129 1.367103 0.860643 0.007290 -0.010093 -237556.000000 1 0 0
-0.079388 -16.809027 -9.461525 19.289120 1.566073 2.083472 -0.004859 0.001882 -75355.800000 1 0 0
-7.002388 -10.684027 -14.378825 19.233629 0.990629 2.415219 0.011482 -0.002724 -1325330.000000 1 0 0
-4.637588 -18.901027 -1.541425 19.522603 1.330188 1.649834 0.005609 -0.010556 -986819.000000 1 0 0
-2.583388 -17.325427 1.000875 17.545543 1.422777 1.513721 0.005321 -0.005046 -475332.000000 1 0 0
4.067712 -14.507427 -7.376525 16.775722 -1.297428 2.026077 -0.008409 -0.003255 -763268.000000 1 0 0
-1.083488 -15.862627 -6.157325 17.050206 1.502598 1.940275 -0.001523 -0.001117 -667274.000000 1 0 0
-9.517588 -15.248227 8.363575 19.825294 1.012789 1.135296 -0.005734 -0.002772 -438443.000000 1 0 0
-7.308788 -12.088927 -1.744225 14.233863 1.027012 1.693646 -0.005705 -0.002150 618603.000000 1 0 0
-7.450688 -14.972527 -9.427025 19.197867 1.109051 2.084086 0.017421 -0.010462 891171.000000 1 0 0
-5.162888 -13.316327 -0.665725 14.297663 1.200929 1.617375 -0.008530 0.000911 1013910.000000 1 0 0
-6.585888 -13.676927 -7.328925 16.856613 1.122031 2.020591 0.003818 -0.008380 428536.000000 1 0 0
5.624312 -15.537327 0.230975 16.525579 -1.223483 1.556819 0.006907 -0.000695 758557.000000 1 0 0
-14.288688 -12.794127 0.876075 19.199578 0.730269 1.525151 -0.002766 -0.003807 943784.000000 1 0 0
0.870712 -15.253727 10.990675 18.820980 -1.513776 0.947200 0.025256 -0.012597 368675.000000 1 0 0
-9.245388 -10.957227 1.943375 14.467713 0.869930 1.436064 -0.001271 0.001612 223277.000000 1 0 0
-9.464088 -8.864027 -3.525525 13.437606 0.752670 1.836266 0.006256 -0.005979 -774676.000000 1 0 0
-12.245388 -7.113727 -12.208925 18.697927 0.526280 2.282277 0.018979 -0.012207 -759549.000000 1 0 0
-13.201488 -8.544127 -0.706925 15.741065 0.574411 1.615721 -0.002636 -0.000973 -615054.000000 1 0 0
-11.142888 -9.637227 0.655575 14.746860 0.713068 1.526326 -0.004019 0.000811 7008.500000 1 0 0
-15.661988 -12.221027 2.985775 20.088958 0.662612 1.421616 0.009538 0.001440 -96841.600000 1 0 0
-10.314288 -12.382127 -2.376925 16.289609 0.876256 1.717236 0.008506 -0.008583 1111830.000000 1 0 0
-3.456888 -8.798827 -12.005725 15.280931 1.196442 2.474570 -0.003065 -0.003129 -1872400.000000 1 0 0
-0.416288 -15.586527 3.865075 16.063995 1.544094 1.327807 0.008450 -0.001354 -370681.000000 1 0 0
-15.697988 -7.765727 1.131575 17.550322 0.459395 1.506276 -0.005963 -0.002921 551605.000000 1 0 0
-6.117888 -13.364727 -13.271225 19.803280 1.141505 2.305211 0.015235 -0.006510 -543107.000000 1 0 0
-15.329988 -10.349127 1.129175 18.530731 0.593812 1.509823 0.004579 -0.002551 446292.000000 1 0 0
-9.990188 -8.233327 -12.589625 18.057967 0.689289 2.342250 0.025662 -0.004524 249603.000000 1 0 0
-13.202288 -11.672927 -6.298025 18.714239 0.723994 1.914033 0.010153 -0.005883 -44912.500000 1 0 0
-12.091588 -11.205827 -3.921325 16.945614 0.747397 1.804319 0.006141 -0.006436 58273.800000 1 0 0
-11.672088 -10.834827 -8.902925 18.245361 0.748215 2.080542 0.012884 -0.014747 115924.000000 1 0 0
-13.203688 -8.448127 -5.898825 16.748264 0.569193 1.930723 0.007085 -0.006823 -2325040.000000 1 0 0
-13.523888 -8.160627 -3.360925 16.148907 0.542933 1.780450 0.006722 -0.005028 173741.000000 1 0 0
-4.426488 -17.032527 -3.382425 17.920423 1.316537 1.760682 -0.004709 -0.009020 -456922.000000 1 0 0
-15.415588 -8.916527 -1.764125 17.895724 0.524393 1.669535 0.003433 0.001500 -1678720.000000 1 0 0
-9.339788 -15.585927 3.580575 18.519538 1.030932 1.376231 0.001363 0.002065 -1089030.000000 1 0 0
4.707212 -17.200427 7.790175 19.460200 -1.303669 1.158938 0.042710 -0.024923 51578.500000 1 0 0
-8.276588 -15.465627 5.962775 18.526797 1.079418 1.243118 -0.006311 0.007075 270377.000000 1 0 0
0.841612 -16.026627 8.437075 18.131336 -1.518331 1.086788 0.025283 -0.008904 1032790.000000 1 0 0
-10.787788 -7.692027 -10.152125 16.691593 0.619418 2.224610 0.020868 -0.006917 622981.000000 1 0 0
-4.935988 -15.953027 5.967075 17.733275 1.270731 1.227609 -0.001605 0.002653 -700227.000000 1 0 0
-1.371788 -13.126927 -12.126425 17.923398 1.466672 2.313890 -0.006309 -0.003148 -1386610.000000 1 0 0
-6.482988 -14.397127 -2.599225 16.001949 1.147695 1.733951 -0.003068 -0.002942 523152.000000 1 0 0
-17.766688 -6.788627 -7.194225 20.334638 0.364980 1.932418 0.007515 -0.002962 57700.300000 1 0 0
-17.290088 -4.066427 -10.203225 20.483866 0.230990 2.092214 0.004515 -0.009618 237919.000000 1 0 0
-15.306488 -5.289727 -9.081325 18.567182 0.332738 2.081861 0.004914 -0.007120 592094.000000 1 0 0
-16.211188 -5.407127 -5.635025 17.994253 0.321939 1.889312 0.006444 -0.001023 -262023.000000 1 0 0
-15.299588 -4.244927 -12.314025 20.093083 0.270646 2.230457 0.023379 -0.010485 68841.200000 1 0 0
-18.811288 -5.100227 -5.608425 20.281304 0.264761 1.850980 0.013738 0.002194 -238431.000000 1 0 0
-17.413788 -4.336227 -7.749825 19.547446 0.244048 1.978456 -0.001582 -0.004337 -32827.800000 1 0 0
12.121412 -7.990527 8.688775 16.919574 -0.582821 1.031498 0.014084 -0.008783 320615.000000 1 0 0
15.903212 -3.402727 1.739075 16.355889 -0.210786 1.464268 0.005592 -0.009410 500875.000000 1 0 0
12.011812 -2.108327 12.458575 17.434012 -0.173751 0.774725 0.004222 -0.002043 314170.000000 1 0 0
9.688212 -10.053427 5.245875 14.914827 -0.803896 1.211386 0.003630 -0.004183 330696.000000 1 0 0
16.664312 -1.937927 7.115175 18.223078 -0.115772 1.169678 0.015044 -0.012210 -523175.000000 1 0 0
5.325712 -12.860527 9.144175 16.654498 -1.178183 0.989568 0.010509 -0.001437 -223112.000000 1 0 0
15.109612 -9.121927 -2.196925 17.785849 -0.543148 1.694634 0.014052 -0.001644 305636.000000 1 0 0
11.028812 -8.581227 6.506375 15.414444 -0.661227 1.135040 0.008892 -0.009143 -1630760.000000 1 0 0
19.797512 -3.345127 3.579675 20.394741 -0.167386 1.394363 0.025090 -0.013376 303422.000000 1 0 0
13.574412 -8.611927 6.856575 17.476916 -0.565347 1.167642 0.015745 -0.008516 -2151020.000000 1 0 0
8.266212 -11.264727 8.869375 16.549627 -0.937735 1.005192 0.005548 -0.000325 -2133440.000000 1 0 0
16.738212 0.099873 -0.749425 16.755279 0.005967 1.615539 0.009440 -0.006932 -236682.000000 1 0 0
12.349012 -12.367227 2.334875 17.632301 -0.786135 1.437986 0.008279 -0.006628 -732694.000000 1 0 0
10.344212 -11.579527 3.582975 15.935052 -0.841685 1.344009 0.007912 -0.007434 336314.000000 1 0 0
16.087712 3.198073 2.353975 16.570557 0.196232 1.428256 -0.002213 -0.004482 -51074.400000 1 0 0
18.157212 -3.179827 0.412775 18.438168 -0.173369 1.548407 0.008069 -0.012198 821597.000000 1 0 0
13.328512 -11.652127 -0.139425 17.704258 -0.718391 1.578672 0.018452 -0.003719 -488148.000000 1 0 0
16.838312 -7.629927 -0.947625 18.510606 -0.425453 1.622012 0.016473 -0.007534 305616.000000 1 0 0
10.126712 -5.877527 9.729475 15.223610 -0.525882 0.877463 0.008026 -0.002628 616887.000000 1 0 0
11.326012 -13.272727 5.990475 18.448025 -0.864372 1.240079 0.010031 -0.008751 -949486.000000 1 0 0
12.927912 -2.005227 10.036775 16.489048 -0.153882 0.916384 0.007245 -0.006482 712956.000000 1 0 0
15.468812 -1.940427 -1.459325 15.658194 -0.124789 1.664131 0.003480 -0.010281 555982.000000 1 0 0
10.493712 -12.481427 8.824975 18.541419 -0.871699 1.074741 0.013291 -0.012881 161316.000000 1 0 0
14.509912 1.228973 3.182975 14.905679 0.084497 1.355598 -0.002658 -0.004753 815798.000000 1 0 0
15.066212 -5.774527 5.293275 16.981009 -0.366007 1.253796 0.016012 -0.009029 -1066960.000000 1 0 0
14.351212 -3.387027 -3.035725 15.054729 -0.231769 1.773834 0.006717 -0.005225 792547.000000 1 0 0
13.976512 0.482673 9.597975 16.961633 0.034521 0.969316 0.011921 -0.004862 329194.000000 1 0 0
15.260312 -3.373927 4.285975 16.205866 -0.217591 1.303141 0.006213 -0.004429 -1195850.000000 1 0 0
18.492512 5.048873 -4.192825 19.622536 0.266527 1.786131 -0.010644 0.004979 498313.000000 1 0 0
18.472612 -5.626327 -5.163025 19.988742 -0.295650 1.832055 0.064012 -0.010693 886157.000000 1 0 0
17.202812 -0.104327 5.574075 18.083638 -0.006064 1.257455 0.024201 -0.011708 413195.000000 1 0 0
16.952912 -6.641927 3.950275 18.631186 -0.373406 1.357150 0.012384 -0.010385 -500829.000000 1 0 0
9.919312 -6.659627 14.186975 18.547605 -0.591259 0.699918 0.018464 -0.007148 -1066200.000000 1 0 0
8.483812 -12.354727 5.115875 15.836241 -0.969062 1.241847 0.004276 -0.006490 -1646740.000000 1 0 0
16.804812 -10.246027 -0.541725 19.689496 -0.547527 1.598313 0.022352 -0.003259 262313.000000 1 0 0
14.822812 -8.782927 0.353575 17.233125 -0.534907 1.550278 0.018949 -0.009488 324705.000000 1 0 0
9.869212 -12.944727 1.466875 16.343777 -0.919399 1.480924 0.008304 -0.008598 283839.000000 1 0 0
16.697712 -8.510227 8.795775 20.702735 -0.471349 1.131988 0.022046 -0.009831 363083.000000 1 0 0
19.060012 -0.195027 -1.947725 19.160265 -0.010232 1.672627 0.025086 -0.008139 -4327.140000 1 0 0
13.453512 -1.309027 7.560475 15.487780 -0.096995 1.060819 0.008109 -0.006058 -69753.400000 1 0 0
12.714112 -9.928727 -2.950825 16.399257 -0.662999 1.751718 0.014938 -0.001425 -764253.000000 1 0 0
8.692112 -15.251827 1.410075 17.611342 -1.052799 1.490644 0.017353 -0.002207 12034.800000 1 0 0
11.454512 -8.436027 11.120075 18.056259 -0.634792 0.907323 0.014629 -0.009848 630142.000000 1 0 0
13.794812 -3.857227 -0.505625 14.332854 -0.272651 1.606081 0.004852 -0.008900 -425719.000000 1 0 0
7.246312 -13.370427 10.903775 18.712821 -1.074142 0.948761 0.015505 0.006604 722819.000000 1 0 0
15.364712 -6.767827 1.872675 16.893335 -0.414908 1.459715 0.007901 -0.006776 -482664.000000 1 0 0
15.783312 -6.150127 -2.697025 17.152579 -0.371561 1.728689 0.017764 -0.008241 57656.900000 1 0 0
11.155612 -8.614727 3.876275 14.618027 -0.657579 1.302415 0.010712 -0.007510 154035.000000 1 0 0
10.502212 -14.546227 -0.449825 17.946909 -0.945465 1.595863 0.019866 -0.004124 538216.000000 1 0 0
13.516112 -12.831427 4.664575 19.211691 -0.759417 1.325546 0.012522 -0.007455 471081.000000 1 0 0
12.754712 -11.124827 6.542375 18.145168 -0.717249 1.201931 0.009356 -0.008331 -511827.000000 1 0 0
10.905112 -10.536727 1.358975 15.224681 -0.768219 1.481416 0.006090 -0.006015 592998.000000 1 0 0
13.983112 -7.651727 11.660575 19.749566 -0.500700 0.939215 0.016988 -0.018846 237689.000000 1 0 0
15.224412 -1.832127 -4.946025 16.112187 -0.119765 1.882808 0.010721 -0.004255 -601773.000000 1 0 0
12.876312 -11.447327 -6.961525 18.582345 -0.726717 1.954795 0.023056 -0.007269 15545.500000 1 0 0
17.636912 -5.326827 1.808475 18.512330 -0.293316 1.472950 0.016682 -0.009572 775967.000000 1 0 0
10.542512 -9.866627 9.144675 17.091518 -0.752293 1.006239 0.003550 -0.004540 -635153.000000 1 0 0
16.308112 1.795273 10.085075 19.258408 0.109643 1.019642 0.022308 -0.002649 1573730.000000 1 0 0
18.014112 3.650273 0.633075 18.391126 0.199927 1.536367 -0.005669 -0.000820 248300.000000 1 0 0
13.310112 -4.118327 5.826275 15.101827 -0.300070 1.174722 0.005932 -0.008320 -445632.000000 1 0 0
12.173212 -6.205827 6.706175 15.220781 -0.471452 1.114537 0.010153 -0.006525 -231403.000000 1 0 0
16.437912 -10.218227 3.517675 19.672091 -0.556169 1.391014 0.006302 -0.010336 -1152470.000000 1 0 0
16.135512 -8.162927 -5.279425 18.837740 -0.468355 1.854859 0.022148 -0.006462 721080.000000 1 0 0
14.037712 -0.386427 5.186975 14.970351 -0.027521 1.216977 0.000391 -0.006661 1151980.000000 1 0 0
18.040112 -4.379927 5.190875 19.276270 -0.238180 1.298142 0.017438 -0.007596 -24782.200000 1 0 0
13.661012 -13.528727 7.110775 20.499094 -0.780533 1.216551 0.020508 -0.005717 470559.000000 1 0 0
14.894612 -13.704927 -0.747625 20.254221 -0.743824 1.607717 0.018792 -0.001222 1642700.000000 1 0 0
17.775112 -6.226827 8.473275 20.652467 -0.336952 1.148036 0.034258 0.008177 -635936.000000 1 0 0
14.226312 3.150673 9.082475 17.169917 0.217950 1.013403 0.002878 -0.007013 -126763.000000 1 0 0
18.527312 3.829873 3.049975 19.163287 0.203844 1.410959 0.005150 -0.001578 -428982.000000 1 0 0
14.813412 -10.604427 8.079575 19.929139 -0.621296 1.153363 0.020473 -0.012788 -412110.000000 1 0 0
14.743312 -4.862327 10.406975 18.689907 -0.318566 0.980240 0.021527 -0.011279 198302.000000 1 0 0
17.717412 -7.922227 1.864175 19.497270 -0.420476 1.475038 0.022835 -0.011969 -16175.900000 1 0 0
18.339512 -5.779827 -2.005525 19.333035 -0.305304 1.674719 0.021162 -0.013964 -394493.000000 1 0 0
14.100812 -13.102427 -5.370025 19.983585 -0.748714 1.842862 0.020729 -0.010075 -1946920.000000 1 0 0
15.315112 -1.676827 9.358075 18.026036 -0.109054 1.024949 0.028496 -0.011832 -1112110.000000 1 0 0
12.987212 -10.146527 9.997075 19.275923 -0.663216 1.025548 0.004264 -0.018776 -1636230.000000 1 0 0
16.462312 2.151973 4.697775 17.254211 0.129984 1.295047 0.008601 -0.007477 -1111980.000000 1 0 0
14.878212 2.404873 0.011475 15.071322 0.160251 1.570035 -0.000739 -0.002194 -1157940.000000 1 0 0
14.970312 -9.776527 -7.048725 19.219138 -0.578524 1.946315 0.026959 -0.008204 499593.000000 1 0 0
16.090612 -0.008027 -3.265925 16.418713 -0.000499 1.771047 0.004451 -0.003666 -77408.600000 1 0 0
11.777212 2.604173 13.523975 18.121323 0.217618 0.728308 0.003748 0.005899 -434703.000000 1 0 0
17.643812 -2.882327 9.483975 20.237532 -0.161932 1.083054 0.030414 -0.015148 834779.000000 1 0 0
7.823612 -18.235027 4.320375 20.307407 -1.165506 1.356409 0.034701 -0.012352 -239277.000000 1 0 0
6.785412 -11.357127 6.647575 14.805959 -1.032248 1.105173 0.005110 -0.005505 219901.000000 1 0 0
18.024012 2.182273 -1.460625 18.214301 0.120489 1.651074 0.012130 -0.003873 528986.000000 1 0 0
17.403912 -2.372027 3.567075 17.923356 -0.135458 1.370440 0.008285 -0.009450 -1785590.000000 1 0 0
12.481712 -13.405227 -1.972125 18.422338 -0.821058 1.678053 0.018150 -0.003743 625667.000000 1 0 0
14.945512 -8.185327 4.350375 17.586747 -0.501059 1.320835 0.011587 -0.009441 -643872.000000 1 0 0
11.610312 -3.387927 14.719575 19.051071 -0.283920 0.687811 0.002613 -0.006062 95874.700000 1 0 0
11.857112 -13.788027 -6.397225 19.277585 -0.860550 1.909058 0.011917 -0.009877 -346079.000000 1 0 0
10.455512 -12.041527 -1.175325 15.990544 -0.855781 1.644364 0.014012 -0.008973 -631258.000000 1 0 0
13.086212 -8.082927 2.148675 15.530598 -0.553309 1.432000 0.007656 -0.003989 -1436860.000000 1 0 0
8.650012 -8.016327 10.029675 15.481557 -0.747395 0.866042 0.003485 -0.005388 -1226820.000000 1 0 0
15.752412 -3.967527 8.146375 18.172595 -0.246736 1.105958 0.030826 -0.011483 -519596.000000 1 0 0
10.201112 -17.419027 5.137875 20.829857 -1.041010 1.321565 0.022931 -0.008752 -126350.000000 1 0 0
15.185712 -6.468027 8.288375 18.469932 -0.402657 1.105431 0.025051 -0.002824 367354.000000 1 0 0
16.422612 -5.020727 -0.428725 17.178292 -0.296697 1.595756 0.006122 -0.011603 -435822.000000 1 0 0
13.887612 -10.477927 3.444675 17.734670 -0.646362 1.375320 0.013348 -0.009965 -241836.000000 1 0 0
14.749712 -10.213027 -4.477325 18.490711 -0.605622 1.815366 0.024469 -0.006140 -282082.000000 1 0 0
13.612812 -6.523427 -0.034225 15.095196 -0.446880 1.573064 0.007089 -0.006668 -37405.000000 1 0 0
17.650012 -0.847627 -4.974925 18.357322 -0.047987 1.845233 0.007162 -0.006330 -571164.000000 1 0 0
14.258712 0.321573 -1.817625 14.377693 0.022549 1.697555 -0.002139 -0.004336 -2190690.000000 1 0 0
4.877312 -12.864427 11.789375 18.118251 -1.208408 0.862303 0.005431 -0.001975 -1068810.000000 1 0 0
12.180112 -7.445727 13.418075 19.591803 -0.548688 0.816354 0.018307 -0.011970 -485498.000000 1 0 0
12.084212 -5.853827 11.450575 17.646845 -0.451106 0.864693 0.010470 -0.006098 46387.500000 1 0 0
13.313812 -4.631527 8.338675 16.378100 -0.334779 1.036616 0.012142 -0.008474 -920375.000000 1 0 0
15.253212 -1.176727 2.906475 15.572179 -0.076994 1.383050 0.005113 -0.005747 914645.000000 1 0 0
15.073712 -10.374227 5.699575 19.165765 -0.602785 1.268846 0.017196 -0.014597 -304049.000000 1 0 0
13.589112 -8.137027 -5.652225 16.817337 -0.539529 1.913564 0.023581 -0.004755 -2433010.000000 1 0 0
9.607912 -2.361227 13.577375 16.799776 -0.240983 0.629728 0.000183 0.001411 -1224560.000000 1 0 0
10.171912 -9.135627 13.622375 19.300171 -0.731777 0.787222 0.025444 -0.009674 -249707.000000 1 0 0
20.285412 6.330473 -2.883425 21.444976 0.302493 1.705662 0.009505 0.007312 -768510.000000 1 0 0
11.001512 -3.665127 10.540575 15.670678 -0.321583 0.833039 0.003267 -0.001828 832476.000000 1 0 0
10.170012 -14.032127 -2.964825 17.581807 -0.943641 1.740236 0.013192 -0.003137 298525.000000 1 0 0
14.883912 -12.615427 2.450375 19.664287 -0.703092 1.445861 0.017688 -0.006871 -1304360.000000 1 0 0
11.345112 -0.767327 14.604375 18.509137 -0.067532 0.661558 0.010379 0.009719 234406.000000 1 0 0
18.902712 -2.054427 5.716275 19.854697 -0.108259 1.278757 0.033677 -0.011639 742075.000000 1 0 0
18.660412 -0.422227 7.754275 20.211829 -0.022623 1.177050 0.023347 -0.011083 61551.700000 1 0 0
18.990812 0.673273 0.501275 19.009354 0.035438 1.544423 0.021961 -0.010918 254603.000000 1 0 0
18.306912 0.833773 3.374075 18.633910 0.045513 1.388720 0.015347 -0.006049 459667.000000 1 0 0
16.647712 -3.897727 -4.262825 17.621302 -0.229987 1.815133 0.013175 -0.008572 -1134220.000000 1 0 0
11.389812 -8.216227 15.780775 21.125034 -0.624922 0.727232 0.030991 -0.013406 375639.000000 1 0 0
16.662412 -7.479227 6.360275 19.339802 -0.421912 1.235690 0.027048 -0.011483 941763.000000 1 0 0
18.902812 1.899573 5.671775 19.826591 0.100155 1.280674 0.029891 -0.010238 234849.000000 1 0 0
15.531812 1.430173 7.750175 17.416883 0.091821 1.109644 0.024856 -0.007263 407869.000000 1 0 0
8.634812 -15.791227 3.914275 18.418588 -1.070405 1.356646 0.012868 -0.011809 156424.000000 1 0 0
11.151412 -15.119827 2.138675 18.908652 -0.935320 1.457448 0.012259 -0.000906 -229744.000000 1 0 0
8.027712 -16.393727 6.223475 19.285489 -1.115437 1.242213 0.019733 -0.003415 -122178.000000 1 0 0
14.449012 -11.751727 -2.428425 18.782287 -0.682813 1.700453 0.017803 -0.002752 568992.000000 1 0 0
13.589212 -4.977727 3.252175 14.833108 -0.351121 1.349750 0.003188 -0.004422 -1720150.000000 1 0 0
-1.104488 10.295073 -5.494425 11.721652 -1.463922 2.058662 0.000561 -0.000542 -2673240.000000 1 0 0
8.273512 -1.615727 -8.080225 11.676969 -0.192862 2.335024 -0.002598 -0.001960 -2737660.000000 1 0 0
2.981812 -10.228227 7.623375 13.100522 -1.287130 0.949716 -0.001771 -0.005372 891209.000000 1 0 0
-6.419088 1.307573 8.339975 10.605169 -0.200951 0.665826 -0.000742 0.003659 -246362.000000 1 0 0
7.184012 -6.243627 -7.143925 11.900780 -0.715479 2.214661 -0.002209 -0.002032 -323755.000000 1 0 0
-11.294888 -4.525527 -4.115925 12.845066 0.381084 1.896978 0.002108 -0.005201 331355.000000 1 0 0
2.081912 -3.285327 2.907675 4.856162 -1.005965 0.928844 0.001184 -0.000712 1549310.000000 1 0 0
-3.723788 -4.199627 8.995675 10.603096 0.845381 0.557839 0.001274 -0.003456 -1221560.000000 1 0 0
-4.904288 -1.055227 -2.385025 5.554627 0.211933 2.014598 0.002485 -0.002684 -531529.000000 1 0 0
5.017012 -5.271027 -3.638225 8.135774 -0.810083 2.034416 0.001405 -0.002468 65580.000000 1 0 0
2.705812 14.199773 -8.742025 16.893134 1.382500 2.114711 -0.001682 -0.003094 142100.000000 1 0 0
5.517012 -5.590227 13.715375 15.805049 -0.791990 0.520070 0.010926 -0.008804 -1283180.000000 1 0 0
-4.731188 -0.996227 9.948975 11.061587 0.207534 0.452363 0.006787 0.000604 -3842890.000000 1 0 0
-0.878488 12.050773 -2.748325 12.391374 -1.498026 1.794450 -0.000263 -0.001205 318271.000000 1 0 0
3.181012 9.342873 -10.589325 14.475563 1.242632 2.391361 0.004936 -0.002042 -345465.000000 1 0 0
-10.669488 2.697973 1.147075 11.064936 -0.247676 1.466942 -0.003484 0.003741 264771.000000 1 0 0
5.572912 -9.074327 -0.671025 10.670100 -1.020044 1.633726 -0.004786 -0.003480 189040.000000 1 0 0
-7.069588 5.492773 9.448275 13.016126 -0.660532 0.758469 -0.006910 0.002856 -700535.000000 1 0 0
-5.610888 -1.830127 5.213975 7.875085 0.315294 0.847199 0.002006 -0.001109 526912.000000 1 0 0
6.748512 -3.686527 -7.293725 10.598647 -0.499977 2.329767 -0.002533 -0.003637 259894.000000 1 0 0
6.306412 4.743273 11.050775 13.578995 0.644866 0.620111 -0.004137 0.004647 257392.000000 1 0 0
3.657212 -9.990127 3.228875 11.117710 -1.219866 1.276124 -0.005012 -0.002170 1530040.000000 1 0 0
-6.643588 6.698473 -5.938725 11.147881 -0.789512 2.132610 -0.002243 -0.000660 359426.000000 1 0 0
-10.967788 8.582773 5.292175 14.898439 -0.664006 1.207650 -0.008632 -0.001349 118439.000000 1 0 0
-9.138188 -5.597727 5.094675 11.865780 0.549607 1.127014 0.002771 -0.003863 -494913.000000 1 0 0
3.258912 9.771273 -7.994225 13.038632 1.248878 2.230798 0.002326 -0.002172 860825.000000 1 0 0
-8.100188 -8.559327 5.964975 13.208181 0.812951 1.102225 0.003950 -0.003796 -2319010.000000 1 0 0
-7.835688 -5.727827 -7.352825 12.176619 0.631225 2.219116 0.010698 -0.006059 -180955.000000 1 0 0
9.253612 -1.523727 6.915175 11.652070 -0.163198 0.935431 0.000002 -0.003288 1526060.000000 1 0 0
-4.045888 -0.544227 -4.809925 6.308785 0.133711 2.437836 0.006829 -0.007310 -1406680.000000 1 0 0
9.082012 1.148273 -4.476925 10.190404 0.125766 2.025646 -0.004911 0.001184 -2278240.000000 1 0 0
-2.046088 -10.571927 10.590375 15.103250 1.379620 0.793719 0.004238 -0.009032 343945.000000 1 0 0
-12.823388 0.277173 -2.687625 13.104939 -0.021611 1.777347 0.001821 -0.000379 -971010.000000 1 0 0
-9.871088 -5.103827 -6.044325 12.649952 0.477193 2.068961 0.007853 -0.006862 -1844780.000000 1 0 0
-5.617688 8.436273 -0.191725 10.137350 -0.983327 1.589710 -0.006638 0.004386 396065.000000 1 0 0
6.221612 9.643973 0.378075 11.482927 0.997853 1.537865 0.012080 -0.006325 548098.000000 1 0 0
-0.507088 -12.104627 -0.016325 12.115255 1.528929 1.572144 0.002934 0.001038 -599671.000000 1 0 0
6.128812 4.790973 2.342075 8.124105 0.663490 1.278359 0.002072 -0.002017 705256.000000 1 0 0
3.480212 -7.467727 -8.266725 11.671228 -1.134689 2.357883 -0.005974 -0.001672 1043290.000000 1 0 0
-6.468088 -9.948627 4.662075 12.749364 0.994317 1.196442 0.001390 -0.001393 -2173580.000000 1 0 0
-0.008988 6.420473 -9.204425 11.222477 -1.569396 2.532518 0.003315 -0.004041 -2089050.000000 1 0 0
-17.308488 -2.806227 4.263075 18.045289 0.160732 1.332299 0.014255 -0.006385 432942.000000 1 0 0
-8.363588 0.966973 -9.115225 12.408544 -0.115106 2.395862 0.004629 -0.003801 490380.000000 1 0 0
-10.099688 -5.717627 -11.817325 16.563337 0.515135 2.365224 0.022031 -0.008401 -624282.000000 1 0 0
2.158812 9.354573 6.372075 11.522667 1.343991 0.984831 -0.005416 0.003840 699708.000000 1 0 0
-11.345788 1.742773 -1.171825 11.538515 -0.152414 1.672529 -0.000694 0.001829 -2180360.000000 1 0 0
-5.993388 -5.284127 -3.058325 8.555469 0.722589 1.936354 0.010970 -0.005782 451536.000000 1 0 0
-6.968788 -8.386527 1.340675 10.986139 0.877466 1.448458 0.003504 -0.002770 -163087.000000 1 0 0
0.027012 10.753673 -7.841225 13.308907 1.568284 2.200829 0.001653 0.001605 227855.000000 1 0 0
-2.970588 9.356073 -4.322825 10.726011 -1.263359 1.985613 -0.000450 -0.000446 -626202.000000 1 0 0
3.463112 -4.865227 9.342675 11.088244 -0.952189 0.568750 -0.003645 -0.001281 -1192430.000000 1 0 0
-8.945588 1.615473 -0.391025 9.098692 -0.178663 1.613786 -0.001281 0.002633 -1670790.000000 1 0 0
2.521312 3.564373 -10.446125 11.321806 0.955145 2.745707 0.003260 -0.004845 -1305270.000000 1 0 0
-13.661388 0.459173 1.063275 13.710394 -0.033598 1.493166 0.000617 -0.000168 -1537840.000000 1 0 0
9.385112 -12.704227 -5.133325 16.608093 -0.934541 1.885028 0.010648 -0.004577 -2236150.000000 1 0 0
-4.606988 9.409873 -8.310525 13.372915 -1.115511 2.241381 -0.003360 -0.002960 -321428.000000 1 0 0
-2.384488 7.132073 8.427375 11.294817 -1.248146 0.728569 -0.003361 0.002934 -694310.000000 1 0 0
-10.727288 -1.227927 -4.491725 11.694362 0.113972 1.965022 0.000397 -0.001454 -4519200.000000 1 0 0
2.730912 -7.166527 9.662775 12.336378 -1.206719 0.670880 -0.004817 -0.002969 -1153950.000000 1 0 0
-16.076188 -6.493727 3.378575 17.664288 0.383894 1.378345 0.004868 -0.007732 -663059.000000 1 0 0
-10.825588 -0.074627 6.150075 12.450797 0.006893 1.054169 -0.003464 0.001615 529620.000000 1 0 0
-8.325888 9.914473 9.370275 15.981841 -0.872271 0.944303 -0.009216 -0.003310 -1464110.000000 1 0 0
0.203612 -6.119427 -3.726925 7.167902 -1.537536 2.117585 0.000667 -0.002329 183209.000000 1 0 0
4.912912 1.522673 -3.052825 5.981219 0.300544 2.106448 0.000124 -0.000632 764494.000000 1 0 0
0.319812 5.422073 3.590875 6.511186 1.511881 0.986643 -0.002736 0.005463 -2289820.000000 1 0 0
6.021212 -11.334927 -1.482125 12.920227 -1.082495 1.685763 -0.002664 -0.002343 -2932590.000000 1 0 0
6.177012 -13.480327 5.275775 15.738758 -1.141124 1.228969 0.009904 -0.009056 -236662.000000 1 0 0
8.082312 -8.288027 -5.981725 13.030587 -0.797964 2.047725 -0.001323 -0.001980 553353.000000 1 0 0
-13.204988 -1.349927 -4.640825 14.061695 0.101875 1.907135 0.001742 -0.001890 -3114970.000000 1 0 0
-6.802188 -1.518927 -7.081525 9.936040 0.219696 2.364152 0.009181 -0.005781 -434186.000000 1 0 0
-5.624588 12.860073 -4.690125 14.799146 -1.158496 1.893275 -0.002410 0.001152 131780.000000 1 0 0
-4.270588 6.946973 -6.853025 10.651868 -1.019608 2.269680 0.002125 -0.003241 -1980840.000000 1 0 0
-9.337388 -3.647427 -8.060025 12.862913 0.372399 2.247991 0.013540 -0.004848 615731.000000 1 0 0
-2.120888 -6.304527 9.177275 11.334355 1.246282 0.627178 0.002973 -0.003258 55501.900000 1 0 0
7.439612 -6.145327 10.061275 13.940665 -0.690411 0.764510 0.004729 -0.002439 112523.000000 1 0 0
9.674012 -5.100927 12.214675 16.395251 -0.485234 0.730242 0.011062 0.000012 -459120.000000 1 0 0
-6.387088 2.819373 -9.114725 11.481375 -0.415694 2.487944 0.002595 -0.006798 306154.000000 1 0 0
7.409112 5.378173 8.729775 12.650244 0.627889 0.809186 -0.006071 0.001750 -840854.000000 1 0 0
12.651812 3.233173 11.119175 17.151030 0.250195 0.865434 0.001516 0.005289 -533036.000000 1 0 0
-7.528388 -7.299627 -3.896025 11.186608 0.769972 1.926527 0.008016 -0.009265 -242445.000000 1 0 0
2.238612 1.393873 -5.741325 6.317996 0.556908 2.711017 0.003512 -0.005436 452430.000000 1 0 0
12.910712 6.975373 -7.014525 16.264866 0.495348 2.016695 0.006204 0.000156 300757.000000 1 0 0
0.715212 -7.800827 1.146375 7.916982 -1.479368 1.425486 0.001899 -0.001621 941093.000000 1 0 0
-10.335488 -5.888027 -8.492225 14.615370 0.517835 2.190812 0.015814 -0.007992 -389475.000000 1 0 0
-6.721788 0.236273 3.188375 7.443386 -0.035136 1.128130 0.001459 -0.000727 1110240.000000 1 0 0
10.743812 -8.046827 1.260575 13.482210 -0.642844 1.477160 0.001929 -0.004555 -1976.320000 1 0 0
6.214612 0.934973 10.523275 12.257035 0.149328 0.538362 -0.003173 0.002974 -1473010.000000 1 0 0
-12.949988 5.304273 1.937875 14.127733 -0.388752 1.433194 -0.001876 0.003980 370375.000000 1 0 0
2.055512 7.415073 3.646775 8.515128 1.300379 1.128219 -0.006161 0.003984 -184322.000000 1 0 0
10.058012 -9.506327 -0.817025 13.863672 -0.757207 1.629763 0.002010 -0.004676 565097.000000 1 0 0
6.695312 -11.845327 -9.123925 16.382460 -1.056337 2.161484 -0.009139 -0.000581 -611224.000000 1 0 0
10.180912 3.558973 11.878575 16.044245 0.336294 0.737185 -0.007345 0.008810 -1678690.000000 1 0 0
-11.099988 -3.126127 -1.827025 11.675634 0.274523 1.727924 -0.001421 -0.002851 -78458.300000 1 0 0
12.475712 0.984373 6.851175 14.267130 0.078740 1.069906 -0.002456 -0.003044 -216441.000000 1 0 0
-9.598188 9.170773 3.047975 13.620515 -0.762630 1.345107 -0.007712 0.001434 1096440.000000 1 0 0
-6.643788 7.727773 -8.817325 13.476038 -0.860681 2.284048 -0.000816 -0.005808 -2103590.000000 1 0 0
8.478912 5.503573 12.069275 15.743210 0.575735 0.697215 -0.004335 0.007932 -714168.000000 1 0 0
1.224012 4.831073 -2.703425 5.669742 1.322656 2.067825 0.004947 -0.002285 577882.000000 1 0 0
1.416712 0.460973 9.491775 9.607984 0.314577 0.155689 0.003549 -0.000867 660741.000000 1 0 0
2.531212 12.546873 -3.938825 13.391990 1.371728 1.869329 0.005070 -0.005625 455232.000000 1 0 0
2.077412 0.580673 13.000875 13.178603 0.272561 0.164417 0.000881 -0.000163 202034.000000 1 0 0
-12.279288 -1.820427 0.838375 12.441774 0.147180 1.503361 -0.004184 -0.002581 -204535.000000 1 0 0
3.309112 8.753073 -1.240625 9.439579 1.209353 1.702606 0.008311 -0.002308 31692.500000 1 0 0
3.569812 -2.846327 -5.840825 7.413526 -0.673112 2.478124 -0.001733 -0.004262 -1119160.000000 1 0 0
-7.693988 -7.267127 9.279375 14.075347 0.756875 0.850956 0.000791 -0.006989 -360624.000000 1 0 0
-7.008288 10.922873 -3.699525 13.494878 -1.000338 1.848495 -0.003065 0.000683 -182227.000000 1 0 0
0.354012 0.412673 2.434175 2.494160 0.861761 0.219759 0.000270 0.002576 -1908260.000000 1 0 0
-7.092088 4.614573 -2.023925 8.699900 -0.576843 1.805585 -0.000000 0.001223 -1031310.000000 1 0 0
-6.968688 -3.877327 -5.821625 9.873580 0.507738 2.201380 0.006273 -0.005513 -25441.600000 1 0 0
2.954512 -6.085427 13.434675 15.041678 -1.118811 0.466466 0.004113 -0.007966 -1621800.000000 1 0 0
-5.466488 -0.570527 -11.890325 13.099153 0.103992 2.708607 0.006882 -0.009356 -823753.000000 1 0 0
11.896912 2.451373 -0.580325 12.160696 0.203207 1.618536 -0.007272 -0.000579 -1631110.000000 1 0 0
6.098012 -10.937827 10.899675 16.601950 -1.062201 0.854587 0.006187 -0.001792 556136.000000 1 0 0
-8.121888 6.445573 -10.528925 14.777304 -0.670830 2.363860 -0.001889 -0.005344 187833.000000 1 0 0
2.813512 7.890873 11.085275 13.894785 1.228296 0.647157 -0.005136 0.003322 659818.000000 1 0 0
-6.214588 -10.202727 -0.442725 11.954612 1.023705 1.607839 0.003537 0.000630 -818829.000000 1 0 0
11.257912 4.211573 6.089475 13.474407 0.357980 1.101870 -0.004723 0.000355 -408612.000000 1 0 0
-8.009888 10.742573 1.378275 13.470739 -0.930104 1.468301 -0.011047 0.005036 327194.000000 1 0 0
4.232212 -2.854827 -3.574825 6.232257 -0.593439 2.181691 0.000234 -0.003710 -5400890.000000 1 0 0
6.318112 6.488173 6.230775 10.992611 0.798677 0.968162 -0.000763 -0.000824 -5019040.000000 1 0 0
-0.322688 10.318473 -10.170325 14.491740 -1.539534 2.348720 -0.002317 -0.000105 -257758.000000 1 0 0
13.949112 6.561273 -2.364525 15.595480 0.439666 1.722999 -0.002128 0.002056 894484.000000 1 0 0
1.456712 9.413973 -6.108325 11.316206 1.417275 2.140979 0.004614 -0.002630 266656.000000 1 0 0
0.569912 7.313073 7.306575 10.353351 1.493023 0.787356 -0.005278 0.005716 47344.900000 1 0 0
12.147112 6.516573 1.945875 13.921368 0.492397 1.430561 -0.004166 -0.001894 -2940000.000000 1 0 0
-6.682688 6.689073 -3.279525 10.007862 -0.785876 1.904659 -0.005834 -0.000350 547124.000000 1 0 0
1.029112 9.883373 11.182475 14.959541 1.467045 0.726484 -0.007674 0.000472 2019150.000000 1 0 0
-3.428588 13.572873 -10.901825 17.743390 -1.323367 2.232442 -0.003363 0.002114 -160205.000000 1 0 0
-10.034388 -5.515227 -2.302925 11.679475 0.502561 1.769274 0.000509 -0.003622 607720.000000 1 0 0
-3.868688 3.893673 -12.440725 13.597760 -0.788617 2.726081 0.001203 -0.010057 -993678.000000 1 0 0
-3.226488 8.615273 2.468575 9.525073 -1.212457 1.308638 -0.005308 0.008213 -5083910.000000 1 0 0
7.014512 8.805073 7.080275 13.298984 0.898105 1.009372 0.003312 -0.001319 -394162.000000 1 0 0
-1.412888 -2.138327 -8.128025 8.522528 0.986905 2.836139 0.003533 -0.009773 -1166500.000000 1 0 0
0.867212 -1.327927 4.897975 5.148360 -0.992275 0.313156 0.003513 0.000092 151272.000000 1 0 0
2.811112 -8.801627 -6.130025 11.088201 -1.261651 2.156567 -0.006123 0.000328 443519.000000 1 0 0
5.347412 3.920573 8.737475 10.968554 0.632644 0.649158 -0.004853 0.001580 -256247.000000 1 0 0
6.106412 -7.652127 -2.822025 10.188579 -0.897275 1.851445 -0.001289 -0.003668 908403.000000 1 0 0
1.961612 2.295373 -8.316525 8.847669 0.863641 2.793333 0.001098 -0.006404 64631.600000 1 0 0
-5.456988 11.055073 -0.749625 12.351327 -1.112267 1.631525 -0.007379 0.004453 551128.000000 1 0 0
-5.407888 3.394673 -3.380825 7.224890 -0.560557 2.057756 -0.000207 0.000521 273382.000000 1 0 0
2.093312 13.663173 -6.308625 15.194176 1.418770 1.998959 -0.004796 0.000173 574004.000000 1 0 0
-5.230588 -2.614027 2.708075 6.444056 0.463454 1.137082 0.000837 -0.001415 701880.000000 1 0 0
10.293912 -3.459227 -1.871825 11.019737 -0.324190 1.741485 -0.004003 0.000057 90449.200000 1 0 0
2.349412 -3.336527 7.132975 8.217754 -0.957291 0.519645 -0.002698 -0.000732 -1528760.000000 1 0 0
-2.822688 9.899573 -11.646025 15.543455 -1.293035 2.417734 -0.004376 0.001374 -3073770.000000 1 0 0
0.503012 -1.989227 9.239075 9.464172 -1.323120 0.218536 0.004003 -0.002918 1280650.000000 1 0 0
9.455912 2.657273 4.899875 10.976527 0.273952 1.108063 -0.005033 -0.003226 221795.000000 1 0 0
13.384612 2.193473 -5.012925 14.459896 0.162436 1.924823 0.002064 -0.001261 -1559180.000000 1 0 0
-6.543288 3.798973 7.620275 10.738501 -0.526026 0.781835 -0.003321 0.003505 55679.800000 1 0 0
10.558612 -0.029627 1.855675 10.720480 -0.002806 1.396824 -0.006037 0.000204 1438940.000000 1 0 0
15.387012 6.717573 -4.493025 17.380253 0.411633 1.832279 0.008642 0.002455 226200.000000 1 0 0
8.027512 -4.942127 -9.165725 13.148235 -0.551846 2.342151 0.000596 -0.001109 586769.000000 1 0 0
4.489412 5.646073 -2.242725 7.553991 0.899026 1.872233 0.004655 -0.003158 -18597.000000 1 0 0
-1.650488 -10.450627 1.419875 10.675007 1.414158 1.437392 0.001467 0.001025 -934919.000000 1 0 0
-2.744588 12.206373 -12.958525 18.012542 -1.349626 2.373759 -0.002636 0.002077 -726947.000000 1 0 0
8.348412 4.309573 -9.621025 13.447398 0.476535 2.368073 -0.003495 0.002966 -1739300.000000 1 0 0
4.248212 7.657573 -9.076125 12.611969 1.064296 2.374085 0.004136 -0.003169 -1684400.000000 1 0 0
-1.764988 -5.071027 -2.489125 5.918297 1.235857 2.004882 0.007028 -0.005033 -290990.000000 1 0 0
-3.329588 -8.912127 7.130075 11.889076 1.213252 0.927650 -0.001290 0.000447 -834324.000000 1 0 0
1.088812 7.264873 -1.530525 7.503759 1.422030 1.776206 0.003224 -0.000677 1505610.000000 1 0 0
0.370912 -0.825027 -2.256125 2.430709 -1.148295 2.760277 0.005812 -0.001845 -1489170.000000 1 0 0
4.114612 -6.775027 7.572875 10.962640 -1.025012 0.808216 -0.002249 -0.000065 -1769050.000000 1 0 0
-13.863288 3.865673 6.096675 15.630215 -0.271935 1.170103 -0.006326 0.007952 -1739660.000000 1 0 0
4.241912 6.373373 12.536175 14.689091 0.983555 0.548257 -0.000454 0.001894 -573572.000000 1 0 0
8.380112 10.084973 -7.187825 14.953186 0.877466 2.072236 0.006022 -0.007054 196590.000000 1 0 0
12.442012 5.153773 9.329075 16.382817 0.392707 0.964969 0.001107 0.001586 851560.000000 1 0 0
7.564512 4.161573 0.372275 8.641708 0.502954 1.527704 -0.000238 -0.001006 -2259640.000000 1 0 0
-10.888688 -7.579927 -1.059625 13.309456 0.608123 1.650495 -0.001401 -0.002937 -2258860.000000 1 0 0
10.435112 6.797073 0.214775 12.455436 0.577335 1.553552 -0.003007 -0.001937 -187943.000000 1 0 0
14.431512 3.525873 4.258275 15.454230 0.239623 1.291644 -0.001142 -0.004337 102796.000000 1 0 0
2.129012 5.556973 8.247975 10.170631 1.204922 0.625005 -0.005563 0.004683 239169.000000 1 0 0
4.223412 0.065473 11.640375 12.383046 0.015501 0.348092 -0.000735 0.000102 -920734.000000 1 0 0
-1.517688 -1.656627 -0.608225 2.327601 0.829140 1.835175 0.006271 -0.004964 -1576320.000000 1 0 0
3.071312 -5.201327 -9.414125 11.185370 -1.037402 2.571121 -0.007583 -0.002168 89619.000000 1 0 0
-4.082488 -5.276227 -1.285325 6.793919 0.912267 1.761131 0.005721 -0.005564 -1012250.000000 1 0 0
-1.263288 -8.612427 8.587775 12.227824 1.425153 0.792153 0.001747 -0.003730 -319691.000000 1 0 0
4.005612 8.582173 -5.953925 11.186950 1.134112 2.132018 0.007490 -0.002312 303569.000000 1 0 0
-14.186788 -1.743727 -2.594625 14.527134 0.122299 1.750365 -0.000928 -0.004048 -1037590.000000 1 0 0
8.761712 -10.610127 -6.710925 15.309439 -0.880528 2.024561 -0.006288 -0.004157 -24747.900000 1 0 0
14.626412 6.243473 1.757775 16.000083 0.403447 1.460714 -0.009896 0.001972 -2563660.000000 1 0 0
-5.770188 0.449973 -8.630625 10.391594 -0.077825 2.550871 0.010534 -0.010896 -599720.000000 1 0 0
-8.074188 -4.583727 -12.913725 15.904947 0.516332 2.518249 0.012593 -0.009242 599987.000000 1 0 0
0.874912 -10.651927 12.067175 16.119731 -1.488844 0.724854 0.006467 -0.007773 -249443.000000 1 0 0
0.253112 11.716773 3.415475 12.207059 1.549197 1.287216 -0.003252 0.002329 -834508.000000 1 0 0
5.092612 -13.157827 -3.744625 14.597443 -1.201512 1.830223 -0.002187 0.000523 -99507.300000 1 0 0
-7.346988 1.687973 -6.993625 10.282911 -0.225831 2.318724 0.005247 -0.002220 625438.000000 1 0 0
1.532212 2.698873 4.051075 5.103215 1.054448 0.653718 -0.000446 0.004022 -1184420.000000 1 0 0
17.064112 5.653773 1.925375 18.079163 0.319942 1.464097 -0.011904 -0.002507 -501588.000000 1 0 0
2.414912 -8.275127 -3.586225 9.336517 -1.286854 1.965037 -0.006650 -0.000991 399523.000000 1 0 0
-0.357288 -9.449627 -0.613025 9.476229 1.533005 1.635532 0.005727 0.000141 -1733540.000000 1 0 0
0.787612 11.824773 -5.656125 13.131540 1.504288 2.016096 0.002486 0.000371 -1748800.000000 1 0 0
6.009912 -5.075027 7.843275 11.108191 -0.701259 0.786849 -0.002093 -0.000744 -1195900.000000 1 0 0
-5.945788 -1.800527 -9.515425 11.363873 0.294046 2.563196 0.012517 -0.010169 -289005.000000 1 0 0
2.053412 -1.366527 11.318275 11.583922 -0.587188 0.214572 -0.000041 -0.001855 81116.900000 1 0 0
17.856312 2.233373 -5.746825 18.890787 0.124429 1.879909 -0.006403 0.004678 -622948.000000 1 0 0
-8.974688 4.790773 7.801275 12.820157 -0.490328 0.916607 -0.000274 -0.000883 -423406.000000 1 0 0
11.388812 -7.166627 -4.821625 14.293833 -0.561663 1.914867 0.016817 -0.004016 -94758.800000 1 0 0
10.805212 0.558273 8.927275 14.027135 0.051621 0.880937 -0.003863 -0.000276 360789.000000 1 0 0
-8.445288 -7.396427 -1.475725 11.322888 0.719286 1.701499 0.005503 -0.006918 -1007240.000000 1 0 0
10.132212 -10.560527 -3.256125 14.992959 -0.806094 1.789718 0.011674 -0.005005 529588.000000 1 0 0
7.576712 -13.930427 -3.755825 16.296306 -1.072651 1.803358 0.005965 -0.001645 -553471.000000 1 0 0
1.776312 -1.133327 -11.586525 11.776556 -0.567909 2.961704 0.001429 -0.007550 -44099.700000 1 0 0
-11.898988 -2.630027 -6.311125 13.723456 0.217532 2.048655 0.007484 -0.003889 102483.000000 1 0 0
2.696012 -12.094427 -6.374525 13.934784 -1.351469 2.045926 -0.005185 0.000073 267561.000000 1 0 0
-5.598888 1.454673 1.122475 5.892671 -0.254194 1.379138 0.001836 0.000085 135527.000000 1 0 0
0.166312 6.888773 -3.976825 7.956003 1.546659 2.094224 0.006617 -0.002473 1240820.000000 1 0 0
5.421412 -11.819627 3.567075 13.484040 -1.140749 1.303069 -0.004050 -0.007260 -1963040.000000 1 0 0
-4.386688 -9.237227 1.113475 10.286361 1.127436 1.462336 0.004485 -0.000801 46362.800000 1 0 0
7.062212 -6.218927 -4.661625 10.501459 -0.721988 2.030746 0.000655 -0.002989 -648561.000000 1 0 0
-7.031388 -6.042327 2.210975 9.530926 0.709889 1.336685 0.004228 -0.003757 -353095.000000 1 0 0
-6.261788 -0.821927 7.142275 9.534026 0.130515 0.724041 0.001100 0.001739 -1283840.000000 1 0 0
4.065512 -5.084527 3.292975 7.295512 -0.896308 1.102496 -0.004846 0.001297 -316047.000000 1 0 0
-2.490788 10.695573 -8.888225 14.127981 -1.341994 2.251220 -0.002925 0.000800 -1290220.000000 1 0 0
-2.343888 -4.823727 2.749375 6.026709 1.118486 1.097078 0.002461 -0.001511 800681.000000 1 0 0
14.957212 4.999173 6.352775 17.001990 0.322559 1.187857 -0.000400 -0.006207 2239030.000000 1 0 0
6.769412 0.264073 0.121675 6.775654 0.038990 1.552838 0.001076 -0.000928 4470230.000000 1 0 0
-9.704888 9.174773 0.408275 13.361437 -0.757327 1.540235 -0.008367 0.001988 -1428610.000000 1 0 0
7.178412 10.465673 -2.566125 12.947776 0.969596 1.770308 0.007476 -0.005233 -747716.000000 1 0 0
1.510112 -4.281227 -5.372425 7.033654 -1.231693 2.440003 -0.000892 -0.004020 -475549.000000 1 0 0
0.849112 -8.088527 -7.807025 11.273637 -1.466202 2.335749 -0.007028 -0.000085 2274830.000000 1 0 0
-10.469288 0.278773 -10.414825 14.769979 -0.026621 2.353409 0.004920 -0.007727 -3933650.000000 1 0 0
5.878012 -2.572127 0.476575 6.433816 -0.412481 1.496655 0.001203 0.000558 89113.300000 1 0 0
-3.309888 5.239173 -1.221525 6.316361 -1.007352 1.765413 0.000006 -0.001571 943778.000000 1 0 0
-0.372688 4.581673 -5.174625 6.921515 -1.489632 2.415259 0.005351 -0.004828 -1332060.000000 1 0 0
3.954012 -9.888527 10.052975 14.645118 -1.190412 0.814216 -0.000858 -0.003718 -920454.000000 1 0 0
7.213612 -13.534627 -0.667825 15.351493 -1.081118 1.614312 0.007987 -0.003048 616993.000000 1 0 0
12.999612 -0.130527 0.468775 13.008717 -0.010041 1.534753 -0.006391 -0.006010 232070.000000 1 0 0
9.304512 2.416373 -0.452425 9.623798 0.254086 1.617825 -0.004523 0.000129 -794906.000000 1 0 0
-0.742188 -5.792927 4.357975 7.287029 1.443371 0.929736 -0.000692 -0.001262 -84784.100000 1 0 0
11.417512 -3.794727 3.353375 12.490183 -0.320875 1.298981 0.002601 -0.005438 -1441130.000000 1 0 0
1.748012 -8.238227 11.743075 14.450735 -1.361714 0.622149 -0.002111 -0.004171 132456.000000 1 0 0
9.361412 -5.954627 -5.944125 12.586749 -0.566529 2.062641 0.000289 -0.004440 -353008.000000 1 0 0
3.163612 6.231773 -0.207625 6.991891 1.101041 1.600496 0.001802 0.000309 -835368.000000 1 0 0
6.415612 -1.469127 11.506575 13.255930 -0.225111 0.519571 -0.005591 0.002611 575285.000000 1 0 0
-4.864688 -7.539527 -3.750225 9.724908 0.997786 1.966688 0.005716 -0.004901 198307.000000 1 0 0
-3.392788 -8.411227 -5.694525 10.709219 1.187393 2.131451 0.004254 -0.000111 -161079.000000 1 0 0
9.755112 5.396473 2.144875 11.352736 0.505292 1.380724 -0.002560 -0.004116 -591956.000000 1 0 0
8.856412 -1.478127 0.233675 8.981954 -0.165375 1.544777 -0.001593 0.000256 1621280.000000 1 0 0
-3.938988 9.544773 9.176775 13.814178 -1.179402 0.844238 -0.005873 0.002657 216478.000000 1 0 0
-14.438688 -3.641927 -6.194425 16.127933 0.247080 1.965008 0.001917 -0.005436 -2057680.000000 1 0 0
10.678612 6.371473 -5.875625 13.753232 0.537958 2.012210 -0.001612 -0.003386 -715766.000000 1 0 0
-1.889588 4.559573 2.565575 5.562591 -1.177919 1.091427 -0.000607 0.004578 718887.000000 1 0 0
6.945912 -3.704327 2.627275 8.298814 -0.489939 1.248670 -0.001176 -0.001633 -2253370.000000 1 0 0
8.162912 -11.176027 -1.438525 13.914240 -0.939961 1.674366 0.007191 -0.007209 -1683400.000000 1 0 0
4.476512 0.486673 1.719275 4.819950 0.108292 1.206063 0.001265 0.001351 -217788.000000 1 0 0
-10.874388 2.374373 3.783275 11.755983 -0.214972 1.243148 -0.001619 0.001605 124697.000000 1 0 0
-0.793688 -3.094827 4.382975 5.423870 1.319751 0.629894 0.004541 -0.001322 493606.000000 1 0 0
8.498712 -8.680227 -8.567125 14.865062 -0.795964 2.185022 0.001984 -0.001769 -501214.000000 1 0 0
11.987612 -4.896327 1.023675 12.989410 -0.387769 1.491906 0.001464 -0.004812 42481.200000 1 0 0
2.858612 4.855173 3.472975 6.618604 1.038670 1.018399 -0.003513 0.002457 -1051870.000000 1 0 0
6.163312 7.531473 1.932275 9.921854 0.884972 1.374794 0.004530 -0.002845 -561403.000000 1 0 0
-1.634288 -1.290327 -10.311025 10.519176 0.668327 2.942327 0.006424 -0.009737 932759.000000 1 0 0
-0.974988 -8.541227 5.968475 10.465460 1.457138 0.963923 -0.003136 -0.003691 -113217.000000 1 0 0
-4.267188 -0.245527 2.385275 4.894764 0.057475 1.061788 0.002601 -0.000656 381861.000000 1 0 0
-8.317488 6.263873 -8.056925 13.165513 -0.645480 2.229348 -0.004201 -0.004948 -1706980.000000 1 0 0
6.509512 11.112873 -9.371225 15.927635 1.040911 2.199829 0.000553 -0.007345 126080.000000 1 0 0
-11.089188 -5.794527 3.045675 12.877219 0.481515 1.332017 0.000380 -0.003309 1362030.000000 1 0 0
1.650912 -6.301127 3.053075 7.193816 -1.314553 1.132494 -0.006334 -0.002214 -129449.000000 1 0 0
10.110512 1.922773 7.003675 12.448734 0.187931 0.973267 -0.004511 0.001512 -2302940.000000 1 0 0
-4.098688 -2.477127 -10.720225 11.741321 0.543627 2.721458 0.005369 -0.010871 -2454940.000000 1 0 0
-8.126888 11.931173 5.902175 15.595989 -0.972835 1.182684 -0.012637 0.002903 -757610.000000 1 0 0
6.974512 5.980873 -2.895925 9.633330 0.708851 1.876134 0.003310 -0.001254 -3792020.000000 1 0 0
3.853612 -9.933027 -2.285325 10.896700 -1.200713 1.782091 -0.006519 -0.003282 -1045830.000000 1 0 0
8.434312 -12.939327 -7.458825 17.152198 -0.993132 2.020680 0.002214 -0.004083 474018.000000 1 0 0
-1.247788 9.546673 3.759075 10.335695 -1.440829 1.198561 -0.008593 0.005495 -23470.100000 1 0 0
0.412012 -13.138627 4.745575 13.975470 -1.539448 1.224342 0.004516 -0.002086 -1243480.000000 1 0 0
-11.217888 -6.985627 -5.020025 14.136500 0.556960 1.933829 0.007853 -0.009070 35940.100000 1 0 0
3.662712 10.314973 -3.416625 11.466798 1.229597 1.873349 0.011095 -0.005355 -518567.000000 1 0 0
11.566312 -8.179527 -7.309725 15.941026 -0.615532 2.047157 0.022318 -0.004851 265395.000000 1 0 0
11.771212 -4.858827 -5.930625 14.047845 -0.391468 2.006638 0.009790 -0.003117 40565.300000 1 0 0
1.204112 -10.305127 -2.637825 10.705310 -1.454478 1.819764 -0.004364 0.002058 -561305.000000 1 0 0
2.317012 -12.056627 -3.919325 12.887665 -1.380934 1.879805 -0.003306 0.001474 -1624560.000000 1 0 0
-7.654188 -5.693727 7.271875 11.995219 0.639567 0.919483 0.002920 -0.001364 -2802880.000000 1 0 0
-7.258388 -0.945327 9.497875 11.991141 0.129510 0.656597 -0.000928 0.002417 611883.000000 1 0 0
16.126112 2.785273 -7.518825 18.009497 0.171031 2.001480 -0.001811 0.004943 -6824.350000 1 0 0
-1.991788 6.422773 -5.478925 8.673975 -1.270087 2.254477 0.003273 -0.002753 81855.300000 1 0 0
7.685012 1.120073 8.375975 11.422388 0.144729 0.747641 -0.003717 -0.000153 -761445.000000 1 0 0
8.010912 8.232773 -3.695725 12.066965 0.799056 1.882066 0.005033 -0.002226 -171596.000000 1 0 0
8.025812 0.497673 3.942675 8.955782 0.061930 1.114933 -0.003304 -0.000293 380349.000000 1 0 0
-6.966788 5.821573 5.400775 10.563864 -0.696085 1.034158 -0.002172 0.000169 349058.000000 1 0 0
-6.052588 -2.060927 -4.560025 7.853347 0.328190 2.190320 0.007345 -0.004728 -1354390.000000 1 0 0
-15.197688 -2.227827 3.116175 15.673017 0.145553 1.370638 0.007436 -0.003208 -493614.000000 1 0 0
1.171812 1.228873 -10.458025 10.594978 0.809162 2.980632 0.004341 -0.008616 416321.000000 1 0 0
1.440612 -9.264727 9.370775 13.256016 -1.416537 0.785680 -0.001067 -0.006303 -609418.000000 1 0 0
-0.277288 -6.812327 -1.161925 6.916268 1.530115 1.739596 0.002573 -0.001235 1040610.000000 1 0 0
-0.406388 -10.190427 -8.478725 13.262682 1.530938 2.264373 -0.005438 -0.000584 -267562.000000 1 0 0
-4.317288 6.583773 3.782075 8.734365 -0.990392 1.122966 -0.003858 0.005866 -607951.000000 1 0 0
10.868712 -1.097527 -8.631225 13.922339 -0.100639 2.239482 0.005114 -0.001377 829191.000000 1 0 0
3.005912 -1.097127 6.335275 7.097528 -0.349966 0.467710 -0.000366 0.003066 449316.000000 1 0 0
1.875612 -12.331027 6.772675 14.193001 -1.419848 1.073349 0.004810 -0.003823 -203716.000000 1 0 0
2.904612 -4.914627 -1.379625 5.873134 -1.037011 1.807917 0.003391 -0.003689 -2244700.000000 1 0 0
-1.032488 9.504273 -1.629525 9.698071 -1.462587 1.739623 0.000094 -0.000088 482866.000000 1 0 0
4.546212 -2.653727 2.651275 5.894029 -0.528365 1.104228 -0.000948 0.002374 -1808000.000000 1 0 0
17.783712 6.928873 -2.654325 19.269539 0.371525 1.708983 -0.002004 0.014103 -39764.800000 1 0 0
-7.094988 3.577373 -5.395625 9.604645 -0.467011 2.167323 0.000469 -0.002654 -219341.000000 1 0 0
-13.843888 -6.008127 2.158275 15.244965 0.409462 1.428746 -0.004243 -0.003143 558072.000000 1 0 0
6.588112 -6.122627 3.224975 9.554593 -0.748793 1.226503 -0.002623 -0.003331 988209.000000 1 0 0
-4.643888 2.023573 3.542575 6.181454 -0.410940 0.960516 0.000926 0.002028 909518.000000 1 0 0
6.837612 -12.165427 -5.582525 15.030474 -1.058747 1.951328 0.000176 -0.001224 -397442.000000 1 0 0
2.853412 -12.396027 3.390875 13.164402 -1.344550 1.310280 0.004484 -0.006086 -939498.000000 1 0 0
3.370012 11.227573 -6.097325 13.213355 1.279197 2.050427 0.000802 -0.000711 899798.000000 1 0 0
-5.721088 -8.308627 6.561075 12.033779 0.967781 0.994143 0.002272 -0.003296 -229750.000000 1 0 0
-3.940288 6.502373 6.311375 9.881304 -1.025994 0.877964 -0.002782 0.005343 240886.000000 1 0 0
4.318612 4.348273 -7.016725 9.316239 0.788820 2.423666 0.001179 -0.000951 -1773610.000000 1 0 0
-0.341288 -2.675727 1.596575 3.134493 1.443932 1.036359 0.004358 -0.002861 2217840.000000 1 0 0
-13.269988 -0.931227 6.434275 14.776997 0.070061 1.120286 -0.005241 -0.001795 -979605.000000 1 0 0
-0.487088 -9.287527 -5.987225 11.060844 1.518399 2.142778 -0.003001 0.000635 643512.000000 1 0 0
2.098812 -1.611627 -3.913625 4.724279 -0.654844 2.547054 0.001574 -0.003830 -2014200.000000 1 0 0
11.316512 -2.040627 1.095175 11.551061 -0.178406 1.475842 -0.002478 -0.004001 1285700.000000 1 0 0
0.525312 -4.255627 -1.959525 4.714452 -1.447978 1.999445 0.002680 -0.003392 -876222.000000 1 0 0
1.126412 -7.246527 -11.116225 13.317335 -1.416589 2.558418 -0.009818 0.000659 335517.000000 1 0 0
-4.261688 4.007773 -9.966525 11.556636 -0.754703 2.610802 0.001457 -0.006301 -299248.000000 1 0 0
-1.102288 5.880673 -2.181025 6.368220 -1.385504 1.920358 0.003549 -0.001268 -1434940.000000 1 0 0
-11.246888 1.764473 -3.866825 12.023235 -0.155617 1.898228 -0.000585 0.002608 120125.000000 1 0 0
-1.798388 -11.269027 4.171475 12.150160 1.412544 1.220340 0.001566 0.000359 -411385.000000 1 0 0
-3.526488 -5.319827 -9.670325 11.586710 0.985409 2.558211 0.001863 -0.005263 -2130500.000000 1 0 0
-12.795988 -3.762027 -8.287225 15.702492 0.285944 2.126763 0.007844 -0.002704 359502.000000 1 0 0
11.574912 4.463473 0.683175 12.424488 0.368045 1.515782 -0.001605 0.001040 -143647.000000 1 0 0
-8.945588 -2.278727 -2.973525 9.698350 0.249427 1.882416 0.001766 -0.004469 11943.100000 1 0 0
-2.558088 -5.978227 -6.388125 9.115435 1.166471 2.347319 0.002347 -0.004005 -1470760.000000 1 0 0
-0.062888 2.717573 -1.930625 3.334137 -1.547659 2.188357 0.004412 -0.002123 -1132940.000000 1 0 0
8.119112 5.973573 -5.142725 11.315970 0.634313 2.042569 0.000906 -0.000279 -696260.000000 1 0 0
-9.795888 -0.914527 -0.793925 9.870466 0.093088 1.651318 -0.001436 -0.000539 -930841.000000 1 0 0
6.118412 0.544273 -8.836825 10.762001 0.088723 2.534156 -0.002022 -0.000833 86900.700000 1 0 0
-4.202988 2.477773 7.912575 9.295876 -0.532683 0.552544 0.000804 0.004431 -867550.000000 1 0 0
-10.228088 -3.411527 1.467175 10.881402 0.321941 1.435551 -0.002010 -0.003679 1853970.000000 1 0 0
-1.827288 -8.075727 -7.883625 11.432755 1.348274 2.331684 -0.002381 -0.003204 -67669.000000 1 0 0
-9.318188 -9.819427 4.109875 14.147114 0.811584 1.276037 0.000093 -0.002858 -307025.000000 1 0 0
-1.233288 -10.706227 7.362575 13.051889 1.456108 0.971453 0.002177 -0.002833 24329.000000 1 0 0
9.486412 3.785273 -3.715325 10.868484 0.379662 1.919675 -0.003591 0.001157 -820649.000000 1 0 0
12.702712 -0.693927 3.010375 13.072980 -0.054574 1.338436 -0.002900 -0.005845 -820230.000000 1 0 0
6.666212 11.916673 -6.878225 15.289063 1.060763 2.037426 0.002118 -0.003601 -338783.000000 1 0 0
-11.812488 -0.097027 -6.485325 13.476042 0.008214 2.072875 0.001755 -0.000455 1134420.000000 1 0 0
-7.672788 -6.564027 -11.322725 15.171098 0.707675 2.413335 0.013372 -0.010659 -1216490.000000 1 0 0
4.036112 6.126573 6.431275 9.756352 0.988268 0.851057 -0.004742 0.002116 -2087870.000000 1 0 0
-4.293088 -1.407127 -7.330625 8.610962 0.316731 2.589279 0.008891 -0.010847 -41770.900000 1 0 0
9.667912 9.309873 0.839975 13.447967 0.766534 1.508295 0.005511 -0.002315 -1838970.000000 1 0 0
-8.870288 3.846373 4.851575 10.817318 -0.409153 1.105709 -0.001767 0.000369 670329.000000 1 0 0
-6.871988 7.879873 -12.235825 16.094472 -0.853615 2.434494 0.000783 -0.007526 -613217.000000 1 0 0
11.146412 -3.607927 7.202875 13.752856 -0.313042 1.019565 0.006019 -0.004570 557719.000000 1 0 0
11.813712 6.804573 6.439275 15.077476 0.522578 1.129536 0.000687 -0.001475 234431.000000 1 0 0
-9.853988 -0.605027 -14.634225 17.652979 0.061322 2.548104 0.007668 -0.009741 -423969.000000 1 0 0
1.837312 -13.060427 11.957675 17.802710 -1.431036 0.834326 0.015210 -0.005826 -275472.000000 1 0 0
2.951812 3.045173 12.970375 13.646132 0.800965 0.316020 -0.001562 0.002997 -710027.000000 1 0 0
-2.576088 -1.371027 10.940175 11.322693 0.489085 0.260673 0.009239 -0.001687 -765204.000000 1 0 0
2.485812 -10.073927 -8.272725 13.270315 -1.328872 2.243881 -0.009100 0.002357 -1241100.000000 1 0 0
13.805112 3.630673 -7.455925 16.104463 0.257171 2.052142 -0.001780 -0.000202 -3541440.000000 1 0 0
7.286812 -1.614127 5.018575 8.993839 -0.217993 0.978821 -0.003361 -0.000021 539709.000000 1 0 0
-1.195988 8.637773 10.114575 13.354630 -1.433211 0.711500 -0.004908 0.002342 127486.000000 1 0 0
-12.322288 -4.654627 0.861175 13.200225 0.361171 1.505511 -0.000998 -0.003825 -140993.000000 1 0 0
-4.807288 4.974173 -5.356325 8.748864 -0.802458 2.229675 0.001428 -0.003705 -95847.200000 1 0 0
-11.264688 0.378773 1.875275 11.425993 -0.033612 1.405927 -0.002985 0.000633 -1912890.000000 1 0 0
-1.300688 2.253273 -4.149025 4.897288 -1.047277 2.581505 0.004845 -0.005572 687210.000000 1 0 0
3.086712 -9.944627 13.122075 16.751485 -1.269835 0.670778 0.006223 -0.003838 -3338610.000000 1 0 0
8.964712 4.582973 -1.511025 10.181007 0.472586 1.719763 0.000028 -0.001267 -1438940.000000 1 0 0
4.076512 2.315373 3.710675 5.978964 0.516542 0.901261 -0.004216 0.003280 -435249.000000 1 0 0
-5.603888 -3.376527 7.434975 9.903704 0.542280 0.721635 0.003197 -0.001025 -317934.000000 1 0 0
1.705612 -5.873827 7.768375 9.887296 -1.288193 0.666981 -0.004203 -0.002461 -1503050.000000 1 0 0
-5.892988 -6.077427 -9.679225 12.858842 0.800805 2.422994 0.006206 -0.005387 -560322.000000 1 0 0
-11.757388 -5.876627 5.449975 14.229306 0.463507 1.177743 0.004205 -0.004472 120739.000000 1 0 0
10.508312 6.216373 4.428575 12.987694 0.534196 1.222835 -0.002246 -0.003035 -672031.000000 1 0 0
1.415912 -3.709827 0.362075 3.987320 -1.206195 1.479864 0.006410 -0.001914 -925894.000000 1 0 0
8.750912 4.134773 6.903375 11.888288 0.441403 0.951224 -0.003427 0.002450 287309.000000 1 0 0
-7.869188 12.225973 3.492675 14.953170 -0.998901 1.335044 -0.014269 0.004299 -759834.000000 1 0 0
-6.116788 13.398173 -7.086525 16.344570 -1.142518 2.019248 0.005016 -0.004754 461608.000000 1 0 0
4.422012 -6.921527 -0.963225 8.269796 -1.002279 1.687536 -0.000868 -0.004393 -59962.500000 1 0 0
-1.893188 -8.093527 11.089875 13.859101 1.341014 0.643189 0.000962 -0.008525 -563397.000000 1 0 0
11.556612 8.972473 -5.645125 15.682091 0.660180 1.939035 0.010146 -0.001915 692780.000000 1 0 0
-3.434488 -2.895927 -1.858525 4.861709 0.700527 1.963057 0.006758 -0.004536 -2685520.000000 1 0 0
-2.006988 5.961773 4.677275 7.838854 -1.246070 0.931441 -0.004384 0.004661 -331343.000000 1 0 0
0.316012 -11.504727 -5.687925 12.837878 -1.543335 2.029803 -0.004369 -0.002593 -589585.000000 1 0 0
-8.814888 6.384373 -1.583725 10.998666 -0.626831 1.715291 -0.002839 0.002476 -30707.600000 1 0 0
2.880412 -0.068427 3.887075 4.838472 -0.023752 0.637866 -0.001636 0.002898 31982.400000 1 0 0
-10.086288 4.008873 -0.974825 10.897456 -0.378313 1.660370 0.000535 0.003442 234080.000000 1 0 0
6.352212 5.308973 13.601075 15.922470 0.696173 0.546774 0.000301 0.008096 -678052.000000 1 0 0
-8.808388 -1.649127 5.661875 10.600196 0.185080 1.007319 -0.001198 -0.000243 137250.000000 1 0 0
12.859012 -1.769027 -1.639525 13.083260 -0.136713 1.696441 0.002666 -0.006279 -2976740.000000 1 0 0
5.272612 -5.588427 5.486175 9.440820 -0.814468 0.950702 -0.004872 -0.001055 43727.300000 1 0 0
-8.986088 -1.348427 3.036675 9.580680 0.148946 1.248276 -0.003486 -0.001658 363663.000000 1 0 0
1.887712 5.403573 5.585275 7.997334 1.234705 0.797648 -0.002202 0.003052 -495129.000000 1 0 0
9.240812 3.051673 -7.354125 12.197888 0.318963 2.217929 -0.003349 0.001086 -1461890.000000 1 0 0
2.325012 -2.412027 -1.527225 3.681844 -0.803765 1.998518 0.001562 -0.001479 -16262.300000 1 0 0
-6.277388 0.377973 -4.074325 7.493236 -0.060139 2.145676 0.000233 0.001153 -987101.000000 1 0 0
-3.913488 4.168473 4.887675 7.522029 -0.816938 0.863499 -0.001564 0.003985 -37795.900000 1 0 0
-6.397888 1.814373 -12.300525 13.983126 -0.276334 2.645962 0.000932 -0.004505 -1820930.000000 1 0 0
-0.164288 3.031573 6.209575 6.912036 -1.516657 0.454749 -0.001087 0.003259 1148140.000000 1 0 0
-8.649488 9.578273 -2.112025 13.077370 -0.836309 1.733009 -0.008630 0.003541 1350810.000000 1 0 0
-1.305988 -3.720627 -6.100425 7.263873 1.233220 2.567768 0.001655 -0.005073 -44855.600000 1 0 0
-3.407388 7.119273 -2.952225 8.426741 -1.124403 1.928730 -0.000245 0.002093 623094.000000 1 0 0
6.932312 -0.388827 -4.363425 8.200464 -0.056030 2.131869 0.000404 -0.000252 -255886.000000 1 0 0
-5.052088 -10.826227 6.943075 13.817998 1.134181 1.044348 -0.001510 -0.001494 928842.000000 1 0 0
9.963412 8.367573 -1.528725 13.100491 0.698560 1.687755 0.003781 -0.002991 77891.900000 1 0 0
13.642412 4.738073 -4.291025 15.065777 0.334272 1.859614 -0.004091 0.000774 698286.000000 1 0 0
4.637412 1.093073 -6.810225 8.311412 0.231482 2.531129 -0.000213 -0.002477 -923020.000000 1 0 0
8.893612 -4.846527 3.607675 10.751767 -0.498954 1.228615 0.001044 -0.003045 -113114.000000 1 0 0
-8.797688 -3.372527 -0.753525 9.452039 0.366064 1.650602 -0.001193 -0.002617 320685.000000 1 0 0
-8.540188 -4.224227 -10.347625 14.065996 0.459342 2.397419 0.014180 -0.008249 -74433.300000 1 0 0
10.398212 -1.192127 10.678175 14.952171 -0.114149 0.775379 -0.002300 0.001608 877420.000000 1 0 0
2.066412 -11.636827 9.823575 15.368423 -1.395053 0.877332 0.003293 -0.007726 719082.000000 1 0 0
-6.384688 -10.596527 2.026275 12.536204 1.028521 1.408450 0.000037 0.000118 -1172660.000000 1 0 0
-3.792388 -1.531627 6.614075 7.776508 0.383837 0.553823 0.006819 -0.000847 -1995510.000000 1 0 0
4.607012 -7.607727 3.952075 9.732470 -1.026291 1.152646 -0.006719 -0.001291 385977.000000 1 0 0
11.456912 -9.610027 -5.259125 15.851557 -0.697954 1.908979 0.015762 -0.004007 288961.000000 1 0 0
11.300312 1.133673 11.528175 16.182741 0.099988 0.777920 -0.000699 0.007644 600342.000000 1 0 0
-10.212588 -3.571427 4.356775 11.663341 0.336415 1.187969 0.001673 -0.002670 2125470.000000 1 0 0
1.997412 8.687073 9.003375 12.669477 1.344795 0.780396 -0.007072 0.004136 -392664.000000 1 0 0
6.462512 8.811573 4.125475 11.680215 0.937996 1.209805 0.004904 -0.002270 2215970.000000 1 0 0
-4.249488 3.621473 0.396075 5.597329 -0.705778 1.499976 0.000481 -0.000261 103380.000000 1 0 0
4.886212 6.991573 4.094975 9.461817 0.960828 1.123212 0.001768 0.000535 -1361250.000000 1 0 0
-8.184788 13.133573 1.067275 15.511949 -1.013495 1.501939 -0.011937 0.002387 13472.700000 1 0 0
8.906812 8.080873 -9.100125 15.081249 0.736817 2.218562 -0.004216 -0.004422 -1552170.000000 1 0 0
7.165612 1.841473 6.026475 9.542297 0.251544 0.887241 -0.003478 0.001100 -677908.000000 1 0 0
11.478912 -6.304527 3.157875 13.471624 -0.502249 1.334185 0.006188 -0.004050 -9873.550000 1 0 0
11.419512 4.729573 -2.021825 12.524452 0.392658 1.732936 -0.004149 -0.000796 -769579.000000 1 0 0
-3.868688 14.350073 -5.994825 16.025893 -1.307463 1.954191 -0.001202 0.001558 -625212.000000 1 0 0
7.211912 -3.080127 6.907775 10.450656 -0.403639 0.848660 -0.001400 -0.001518 -15375.800000 1 0 0
-7.866388 -0.401627 0.885375 7.926238 0.051012 1.458861 0.003328 -0.000811 110782.000000 1 0 0
-3.237788 1.064673 10.730375 11.258674 -0.317690 0.307556 0.005537 0.002923 -124326.000000 1 0 0
7.037612 -1.223427 -1.968625 7.409470 -0.172121 1.839716 0.003171 -0.001079 -1163140.000000 1 0 0
-7.770888 5.414173 3.018075 9.940259 -0.608525 1.262305 -0.003057 0.002322 703742.000000 1 0 0
9.421812 -2.254727 2.793475 10.082552 -0.234892 1.290063 -0.001969 -0.002593 -1560470.000000 1 0 0
0.256112 3.412973 1.547975 3.756355 1.495896 1.146044 -0.000287 0.002779 -4622390.000000 1 0 0
-7.538288 -3.196327 4.024775 9.123656 0.401034 1.113932 0.000470 -0.001043 -449540.000000 1 0 0
-2.293488 8.439273 -6.821925 11.091441 -1.305441 2.233261 -0.003205 -0.002316 -845038.000000 1 0 0
4.508512 9.720273 7.397175 13.020314 1.136505 0.966570 -0.005026 0.005090 -196451.000000 1 0 0
-11.857288 -3.184827 6.846075 14.057281 0.262403 1.062130 0.002404 -0.002977 -1765530.000000 1 0 0
-4.699388 2.406573 -5.520025 7.638489 -0.473283 2.378438 0.005955 -0.006669 -614149.000000 1 0 0
-2.737488 2.807673 -1.910525 4.361992 -0.798054 2.024162 0.001453 0.000875 1186970.000000 1 0 0
2.420612 5.141873 11.341175 12.685443 1.130809 0.464534 -0.000533 0.000663 528734.000000 1 0 0
-0.686388 1.627473 4.418475 4.758437 -1.171681 0.380293 0.002119 0.001235 571636.000000 1 0 0
5.098012 1.590173 7.589475 9.280006 0.302357 0.613165 -0.002766 0.001995 1177150.000000 1 0 0
3.421312 -8.134427 1.869975 9.020593 -1.172661 1.361981 -0.003218 -0.002547 1955310.000000 1 0 0
5.152712 6.445373 -4.638825 9.466360 0.896395 2.082923 0.006381 -0.002418 -1083780.000000 1 0 0
-4.121188 2.832673 -7.881425 9.334082 -0.602181 2.576186 0.005830 -0.009527 -144950.000000 1 0 0
-8.677588 -2.143327 -12.937825 15.725193 0.242149 2.537020 0.009245 -0.012543 -670608.000000 1 0 0
-7.775188 8.283273 1.397575 11.446369 -0.817027 1.448393 -0.006094 0.005045 -1613580.000000 1 0 0
7.325112 1.021573 -6.544425 9.875747 0.138568 2.295183 -0.003085 0.000334 807421.000000 1 0 0
8.900712 8.846873 5.435675 13.676125 0.782365 1.162052 0.003301 -0.003263 496108.000000 1 0 0
9.369012 -1.101627 -1.419025 9.539686 -0.117045 1.720100 -0.003193 -0.000476 1667930.000000 1 0 0
5.414212 0.126073 4.194475 6.850052 0.023281 0.911795 -0.003771 0.002462 253309.000000 1 0 0
-4.212088 -7.206627 -7.965125 11.537780 1.041871 2.332771 0.007162 -0.008075 -1053030.000000 1 0 0
-2.286888 7.432073 -0.486325 7.791154 -1.272286 1.633257 -0.001828 0.002082 435697.000000 1 0 0
13.317312 -3.300427 -7.355325 15.567416 -0.242935 2.062901 0.013540 -0.004072 577298.000000 1 0 0
-4.867388 -5.049127 1.573175 7.187491 0.803723 1.350133 0.004550 -0.004491 1266770.000000 1 0 0
-8.998588 1.247173 2.554475 9.436915 -0.137719 1.296687 -0.002559 0.002503 -726567.000000 1 0 0
-1.086688 11.089773 10.163575 15.081850 -1.473118 0.831329 -0.007965 0.002315 301150.000000 1 0 0
-8.576388 0.218073 7.463675 11.371386 -0.025422 0.854818 -0.003897 0.001751 -361564.000000 1 0 0
-6.099388 12.993573 -2.268425 14.532075 -1.131914 1.727535 -0.009263 0.001419 236541.000000 1 0 0
-12.975388 -0.819627 3.291375 13.411399 0.063084 1.322847 -0.000702 -0.002659 410387.000000 1 0 0
-6.648288 12.886573 8.761675 16.941973 -1.094503 1.027269 -0.003188 0.001127 1496410.000000 1 0 0
-8.024788 1.133273 -14.078525 16.244580 -0.140294 2.619264 0.003008 -0.007438 -653289.000000 1 0 0
7.254512 2.867773 3.692675 8.630638 0.376456 1.128676 -0.002670 0.000020 -747830.000000 1 0 0
-1.608388 0.582273 -2.161925 2.756786 -0.347345 2.472233 0.003488 -0.005326 244353.000000 1 0 0
-6.172888 9.687573 -10.366325 15.473018 -1.003475 2.304953 -0.002500 -0.004616 -113110.000000 1 0 0
-9.968788 13.750973 5.316375 17.796905 -0.943520 1.267440 -0.019547 0.002547 -16742.500000 1 0 0
-5.610088 8.436573 2.423075 10.417300 -0.983968 1.336045 -0.008038 0.003871 -1546900.000000 1 0 0
-2.472188 -10.701927 -1.197625 11.048858 1.343775 1.679403 0.002294 0.001590 1599490.000000 1 0 0
-2.420288 -12.373527 8.872475 15.416964 1.377633 0.957580 0.002586 -0.005380 346102.000000 1 0 0
-14.620688 -6.462727 -1.724825 16.078133 0.416203 1.678281 0.001193 -0.000134 121662.000000 1 0 0
-2.621988 -9.243427 3.267175 10.148409 1.294397 1.243019 0.000786 -0.000614 -224404.000000 1 0 0
4.698912 -2.778027 7.535775 9.305113 -0.533929 0.626894 -0.004140 0.002522 -1183830.000000 1 0 0
-15.104488 -1.294127 -0.246125 15.161823 0.085470 1.587030 0.002089 -0.003686 194399.000000 1 0 0
5.538212 8.717473 -2.814125 10.704458 1.004824 1.836816 0.007516 -0.003421 -1111510.000000 1 0 0
-5.623188 -5.769627 8.575175 11.766158 0.798251 0.754229 0.003793 -0.004656 -2273120.000000 1 0 0
3.481612 3.632773 6.954175 8.583660 0.806642 0.626364 -0.003580 0.002361 -28753.700000 1 0 0
3.370412 2.309573 9.268675 10.129272 0.600757 0.415193 -0.000016 -0.000970 582125.000000 1 0 0
9.907912 -3.251727 5.168175 11.638320 -0.317119 1.110665 0.006101 -0.004125 -274491.000000 1 0 0
6.568012 9.936073 -5.029125 12.928899 0.986708 1.970324 0.007959 -0.005099 203474.000000 1 0 0
-4.556388 12.011673 -8.656625 15.491227 -1.208235 2.163744 -0.001599 -0.000376 -711508.000000 1 0 0
-3.518588 -7.199827 2.061475 8.274518 1.116226 1.319009 0.001125 -0.002012 787263.000000 1 0 0
-7.545388 -4.119327 1.147775 8.672896 0.499721 1.438066 -0.000013 -0.003169 480896.000000 1 0 0
-1.949988 -3.909727 -10.936625 11.777019 1.108147 2.761529 0.002890 -0.007641 -851432.000000 1 0 0
-5.198388 8.339673 -4.536725 10.823828 -1.013397 2.003297 -0.001889 -0.001771 -1624090.000000 1 0 0
-10.959988 -3.268127 -10.073725 15.240798 0.289793 2.292908 0.016655 -0.005352 -389497.000000 1 0 0
4.588112 -11.392527 -7.665925 14.477806 -1.187939 2.128801 -0.007296 -0.001496 -1766140.000000 1 0 0
-9.420788 -4.010927 7.206075 12.520635 0.402508 0.957537 -0.000296 -0.001260 -786350.000000 1 0 0
-5.735488 -9.615327 -5.067325 12.289350 1.032959 1.995812 0.004248 -0.004730 -46004.200000 1 0 0
4.764812 4.498273 -9.562725 11.592394 0.756632 2.540846 -0.000057 -0.000266 -81893.700000 1 0 0
-3.368588 -7.056027 -14.002125 16.037282 1.125387 2.632318 -0.006346 -0.003928 -354659.000000 1 0 0
0.668312 -0.756527 -8.759925 8.817894 -0.847231 3.026865 0.001887 -0.011618 -187460.000000 1 0 0
-7.754288 2.204073 -2.902925 8.568190 -0.276935 1.916440 0.001557 0.000479 -214961.000000 1 0 0
-2.357588 7.502573 -12.569925 14.827334 -1.266330 2.582532 -0.003582 -0.005111 40829.000000 1 0 0
-9.743488 8.869373 7.689275 15.255369 -0.738470 1.042529 -0.007807 -0.002857 -272933.000000 1 0 0
-10.534288 -3.031827 -14.459525 18.145001 0.280232 2.492922 0.015432 -0.004070 -516675.000000 1 0 0
-3.223888 4.837273 7.934375 9.836004 -0.982931 0.632306 -0.001221 0.002566 -280320.000000 1 0 0
8.703312 -2.288027 -3.654625 9.712826 -0.257075 1.956561 -0.000699 -0.000070 -4254140.000000 1 0 0
1.874912 -8.423227 -1.114825 8.701085 -1.351779 1.699274 -0.001350 -0.001186 -346908.000000 1 0 0
-13.555988 -2.867027 5.025475 14.739065 0.208424 1.222855 0.003301 -0.005448 348844.000000 1 0 0
7.117512 2.671573 -1.898825 7.835931 0.359079 1.815556 -0.000737 -0.000488 459942.000000 1 0 0
-11.196688 4.581273 8.979775 15.066195 -0.388381 0.932259 -0.004258 0.001904 -2441870.000000 1 0 0
-1.822188 -2.512027 7.916075 8.502640 0.943236 0.373616 0.004861 -0.002764 231953.000000 1 0 0
2.965812 11.875773 -9.852525 15.713124 1.326066 2.248525 -0.002371 -0.003812 875508.000000 1 0 0
3.477112 -5.050827 -7.063425 9.353777 -0.967882 2.426666 -0.005115 -0.003392 79934.800000 1 0 0
8.355112 -13.816727 -9.772825 18.873737 -1.026921 2.115074 0.001968 0.001454 587865.000000 1 0 0
-6.454188 -5.751127 -0.411925 8.654576 0.727859 1.618411 0.004622 -0.004632 -734595.000000 1 0 0
-1.198088 -4.016427 9.871675 10.724601 1.280903 0.401515 0.001709 -0.002689 1120190.000000 1 0 0
2.778112 3.304673 1.739575 4.654556 0.871749 1.187763 -0.003028 0.003170 -1343060.000000 1 0 0
-9.056888 13.441873 7.792175 17.984136 -0.977884 1.122667 -0.011388 -0.005034 -283785.000000 1 0 0
3.979812 -11.116327 0.023775 11.807294 -1.226999 1.568783 -0.003329 -0.003792 8588.800000 1 0 0
-12.660788 -1.489327 -9.086525 15.654986 0.117095 2.190045 0.008733 -0.003091 -248958.000000 1 0 0
-4.223488 1.066073 -13.544025 14.227261 -0.247251 2.830426 0.001863 -0.007139 27561.700000 1 0 0
3.947312 -3.106727 5.004175 7.090472 -0.666794 0.787300 -0.003699 0.003059 -145013.000000 1 0 0
1.715112 -1.304827 1.107975 2.423178 -0.650366 1.095907 0.003374 -0.001234 42305.300000 1 0 0
8.116512 -9.169727 7.332275 14.273189 -0.846251 1.031293 0.007570 -0.002966 -1808870.000000 1 0 0
-0.007788 2.342073 -6.535525 6.942510 -1.567471 2.797488 0.003096 -0.008354 241601.000000 1 0 0
-3.861388 -9.760827 -3.320225 11.009448 1.194088 1.877145 0.004278 -0.000484 382431.000000 1 0 0
-9.385288 2.348773 -5.481425 11.119639 -0.245224 2.086273 -0.000689 0.000894 -1449970.000000 1 0 0
8.821612 -7.698627 5.291275 12.848630 -0.717526 1.146350 0.002207 -0.004498 1861540.000000 1 0 0
-5.436188 -4.244027 4.701375 8.346666 0.662861 0.972466 0.003578 -0.001197 -901596.000000 1 0 0
-0.309088 -12.418727 10.551875 16.299153 1.545913 0.866644 0.010129 -0.005410 -716944.000000 1 0 0
-14.166988 -8.267027 3.009975 16.676547 0.528230 1.389310 -0.001729 -0.005375 -1443940.000000 1 0 0
10.881112 -1.362927 -3.588325 11.538295 -0.124607 1.887034 0.005381 -0.000721 -1321480.000000 1 0 0
-13.706588 2.994673 2.724475 14.292004 -0.215104 1.378993 -0.001161 0.003318 -1657230.000000 1 0 0
-6.311388 6.275173 1.098275 8.967587 -0.782521 1.448016 -0.002227 0.002893 1054410.000000 1 0 0
7.006412 -6.917127 -0.417625 9.854485 -0.778986 1.613188 -0.002155 -0.002862 42311.300000 1 0 0
-6.787888 7.838173 10.087375 14.466081 -0.857084 0.799156 -0.007268 0.000884 -98015.900000 1 0 0
-12.666588 -5.079827 -1.993325 13.792042 0.381404 1.715831 -0.001038 -0.003810 -4223260.000000 1 0 0
-9.497888 -5.676927 0.221575 11.067361 0.538730 1.550774 0.000780 -0.004513 -1364950.000000 1 0 0
-1.854488 1.806673 2.124475 3.349117 -0.772339 0.883643 0.000862 0.001836 266575.000000 1 0 0
-7.065288 7.377873 7.533675 12.692815 -0.807037 0.935348 -0.006169 -0.000270 -87415.800000 1 0 0
5.556712 7.168173 -0.410525 9.079002 0.911366 1.616029 0.008145 -0.005058 -2060910.000000 1 0 0
-0.016588 -4.089227 7.490475 8.534007 1.566740 0.499712 0.000546 -0.002404 -840291.000000 1 0 0
6.475412 0.528273 13.135375 14.654287 0.081401 0.459329 -0.006242 0.006376 990322.000000 1 0 0
5.821012 6.145373 -7.971825 11.627544 0.812497 2.326222 -0.001057 -0.000384 -192902.000000 1 0 0
9.878612 5.219373 8.904875 14.287254 0.486070 0.897874 -0.004359 0.003502 -2014410.000000 1 0 0
-1.259588 -4.886227 -8.430325 9.825078 1.318506 2.602240 0.002501 -0.005245 531010.000000 1 0 0
9.904612 -3.435027 -7.907625 13.131309 -0.333831 2.217046 0.009649 -0.006169 245501.000000 1 0 0
8.460812 -5.493927 1.248775 10.165039 -0.575910 1.447635 0.002224 -0.002411 1217760.000000 1 0 0
15.670612 3.245773 -4.939125 16.748077 0.204237 1.870154 0.000042 0.002348 -663534.000000 1 0 0
-6.853288 3.716673 1.138675 7.878946 -0.496927 1.425767 0.000456 0.002795 40637.800000 1 0 0
-1.726588 3.749773 0.218675 4.133971 -1.139285 1.517875 0.000669 -0.002014 -690591.000000 1 0 0
-2.625988 10.056873 6.926975 12.490776 -1.315385 0.982954 -0.006556 0.007314 -207288.000000 1 0 0
5.466612 -5.663227 -8.625025 11.676774 -0.803062 2.401859 -0.004391 -0.002335 -162698.000000 1 0 0
-1.281788 -0.937827 6.169275 6.370436 0.631657 0.251972 0.004873 -0.000117 630846.000000 1 0 0
-5.625488 5.058273 -7.857525 10.907471 -0.732357 2.375146 0.000211 -0.004672 -12416.600000 1 0 0
6.707512 -1.300027 2.488575 7.271437 -0.191443 1.221497 -0.002207 0.000763 -1043120.000000 1 0 0
8.643712 7.503273 3.186175 11.881270 0.714887 1.299306 0.003066 -0.003589 -577981.000000 1 0 0
-5.332088 -4.917327 -7.718125 10.591540 0.744953 2.387228 0.007381 -0.009542 916259.000000 1 0 0
-2.136188 7.887373 -10.012725 12.923955 -1.306305 2.457103 -0.001844 -0.002478 349787.000000 1 0 0
-2.856088 -2.293327 1.587575 3.992115 0.676544 1.161812 0.001993 -0.000124 -1127190.000000 1 0 0
6.004412 -2.062727 -9.231725 11.204131 -0.330904 2.539156 -0.003760 -0.002873 779094.000000 1 0 0
1.145312 -7.596127 5.167375 9.258221 -1.421148 0.978655 -0.004263 -0.001171 190652.000000 1 0 0
1.804812 12.060373 1.235475 12.257093 1.422251 1.469828 0.003920 -0.005636 127287.000000 1 0 0
-1.249888 7.190173 2.447075 7.697336 -1.398683 1.247270 -0.001678 0.005477 278737.000000 1 0 0
8.712312 7.829173 -6.555225 13.422790 0.732059 2.081012 0.001203 -0.004880 -22667.200000 1 0 0
3.614712 -11.178027 5.470575 12.959230 -1.258033 1.134995 0.002729 -0.003591 -213908.000000 1 0 0
8.038912 -7.260227 12.405075 16.468786 -0.734545 0.717810 0.010724 -0.008366 826735.000000 1 0 0
-8.701988 0.056673 -3.913025 9.541466 -0.006513 1.993368 0.003713 -0.001827 -1917410.000000 1 0 0
-3.151088 -5.153727 11.251675 12.770687 1.022023 0.492709 0.007016 -0.007172 424357.000000 1 0 0
-8.204388 0.146473 -11.544825 14.163912 -0.017851 2.523676 0.004920 -0.005893 -1849390.000000 1 0 0
1.473912 -5.096627 5.378875 7.555152 -1.289283 0.778528 -0.001188 -0.000028 -234756.000000 1 0 0
6.680812 3.797373 -7.772825 10.930238 0.516860 2.361901 -0.001667 0.000863 -1942030.000000 1 0 0
16.236612 4.202873 -1.194225 16.814217 0.253292 1.641881 -0.006534 0.004603 -2301930.000000 1 0 0
7.884212 7.664173 -0.100925 10.995933 0.771247 1.579975 0.005627 -0.006284 -1075970.000000 1 0 0
5.389412 -10.441927 13.906575 18.206385 -1.094327 0.701570 0.004161 -0.005468 228578.000000 1 0 0
-5.074988 -9.283127 9.033275 13.911578 1.070498 0.864087 -0.004595 -0.006565 490806.000000 1 0 0
-12.648988 -3.183127 2.827775 13.346367 0.246532 1.357302 -0.000599 -0.002690 -91108.400000 1 0 0
-2.114488 -1.323627 -5.826025 6.337635 0.559304 2.737029 0.004545 -0.008862 -1357280.000000 1 0 0
-2.511588 13.123573 -4.254425 14.022709 -1.381703 1.879050 -0.000477 0.003389 555259.000000 1 0 0
3.949212 -0.515327 -4.959125 6.360406 -0.129755 2.464962 0.001036 -0.002943 -916815.000000 1 0 0
-8.785488 3.919073 -7.463325 12.175596 -0.419593 2.230616 -0.000637 -0.001564 502651.000000 1 0 0
-4.445088 7.943373 -11.232325 14.457562 -1.060615 2.460550 -0.001486 -0.004895 -2192320.000000 1 0 0
-10.073888 -6.537727 7.355975 14.083162 0.575656 1.021222 0.001220 -0.004592 -1339660.000000 1 0 0
8.136512 5.232873 4.164475 10.532267 0.571534 1.164291 -0.002616 -0.001970 -1417650.000000 1 0 0
-6.709888 -7.587927 4.021075 10.898086 0.846732 1.192895 0.005313 -0.002236 -624555.000000 1 0 0
-4.130388 11.842773 8.039375 14.897749 -1.235219 1.000791 -0.004692 0.003518 -256979.000000 1 0 0
-7.133788 10.057773 -8.002725 14.700113 -0.953869 2.146469 0.001965 -0.006664 -703093.000000 1 0 0
13.037912 5.421873 4.583375 14.845578 0.394099 1.256932 -0.004673 -0.002676 -14040.900000 1 0 0
5.553712 4.032073 -3.745725 7.818682 0.627973 2.070395 0.001181 -0.000400 682552.000000 1 0 0
-2.789588 -4.189227 5.155775 7.205098 0.983328 0.773352 0.003837 -0.001386 -1694280.000000 1 0 0
12.320712 -2.478327 -5.181425 13.593720 -0.198502 1.961850 0.008251 -0.001568 -1989490.000000 1 0 0
-5.349688 9.796673 6.956575 13.152486 -1.070974 1.013472 -0.008843 0.003820 595068.000000 1 0 0
1.731312 3.726473 -0.502025 4.139574 1.135869 1.692370 0.001885 -0.000659 530099.000000 1 0 0
-0.071688 9.587373 7.674475 12.280897 -1.563319 0.895778 -0.006466 0.005812 -506362.000000 1 0 0
-5.620588 2.182073 5.891375 8.429754 -0.370318 0.796968 0.000488 0.002601 766811.000000 1 0 0
8.801012 0.907873 10.668275 13.859803 0.102792 0.692382 -0.005794 0.006252 -429199.000000 1 0 0
0.359012 -2.835127 -10.123225 10.518865 -1.444837 2.866454 0.000636 -0.006745 -2859820.000000 1 0 0
1.219712 10.547773 -2.709925 10.958417 1.455671 1.820680 0.005894 -0.001997 -342746.000000 1 0 0
2.313012 -4.338727 11.628575 12.625306 -1.081014 0.400021 -0.001932 -0.002279 -409465.000000 1 0 0
6.582512 -3.143027 9.376875 11.879978 -0.445471 0.661127 -0.001402 -0.001334 340618.000000 1 0 0
-10.675588 -8.251827 5.563875 14.595120 0.658036 1.179686 0.005383 -0.005315 -602934.000000 1 0 0
-2.982588 0.855073 -6.726425 7.407548 -0.279200 2.709401 0.007978 -0.011144 552994.000000 1 0 0
11.072112 2.576973 -5.081325 12.452001 0.228673 1.991139 -0.003140 0.001285 -3627510.000000 1 0 0
-1.995888 -4.160827 -0.033925 4.614889 1.123532 1.578148 0.004754 -0.003963 1380750.000000 1 0 0
-1.338088 -6.391827 -10.587125 12.439178 1.364433 2.588895 -0.003839 -0.003089 1281140.000000 1 0 0
0.330912 6.821773 -6.632025 9.519971 1.522326 2.341504 0.006044 -0.001781 -3105390.000000 1 0 0
2.019312 3.828573 -6.087725 7.469671 1.085445 2.523512 0.001853 -0.004338 -2461680.000000 1 0 0
1.696012 -14.682527 6.489475 16.142068 -1.455794 1.157072 0.015831 -0.006335 736282.000000 1 0 0
-1.716588 5.333073 -10.570725 11.963635 -1.259393 2.654231 0.004014 -0.005443 -806653.000000 1 0 0
13.606012 4.433573 -0.759425 14.330278 0.315004 1.623816 -0.005693 0.000055 -1588920.000000 1 0 0
-2.380888 3.403573 -6.213725 7.474176 -0.960389 2.552345 0.004200 -0.007604 -1420690.000000 1 0 0
5.791912 7.697873 14.146375 17.115006 0.925758 0.597849 0.006970 0.001895 126504.000000 1 0 0
15.795312 0.636173 -5.834125 16.850330 0.040254 1.924348 0.000958 -0.001714 217027.000000 1 0 0
6.111112 -8.342027 10.609275 14.815257 -0.938545 0.772591 0.002427 -0.001883 377483.000000 1 0 0
-0.078488 -5.977727 -6.378025 8.741772 1.557667 2.388538 -0.000914 -0.003309 -905775.000000 1 0 0
8.767412 5.503273 -7.552125 12.813591 0.560536 2.201092 -0.004975 0.002008 -46219.200000 1 0 0
-15.975688 -0.753727 5.295475 16.847337 0.047145 1.251055 0.002223 -0.004305 -734595.000000 1 0 0
-0.173288 4.102373 -12.270825 12.939576 -1.528581 2.818687 0.005464 -0.008307 644974.000000 1 0 0
-11.287988 3.685373 5.872875 13.247313 -0.315576 1.111491 -0.000037 0.000519 -571674.000000 1 0 0
5.069612 -9.798427 -9.623225 14.639556 -1.093333 2.288085 -0.007996 0.003054 -363043.000000 1 0 0
1.606912 11.108073 -11.707325 16.218289 1.427131 2.377282 0.000133 0.000855 -3646900.000000 1 0 0
5.957512 2.357773 1.238575 6.525727 0.376850 1.379839 0.001599 0.000579 -290221.000000 1 0 0
5.664412 4.555173 4.843575 8.734723 0.677281 0.983011 -0.003865 0.001378 434104.000000 1 0 0
0.362812 -1.529627 -6.370325 6.561435 -1.337910 2.899647 0.003375 -0.007069 -148791.000000 1 0 0
12.662112 6.971373 -4.477025 15.131850 0.503280 1.871160 0.001851 -0.000651 -571043.000000 1 0 0
7.463412 3.092273 12.673875 15.029697 0.392794 0.567485 -0.006967 0.007973 -440365.000000 1 0 0
-2.578288 -0.170927 8.605475 8.985042 0.066198 0.291702 0.006242 0.000780 810013.000000 1 0 0
2.484512 -15.445227 13.042275 20.367346 -1.411303 0.875840 0.024975 -0.005443 -298342.000000 1 0 0
18.731412 4.663873 -1.594225 19.369023 0.244025 1.653198 -0.006875 0.000772 101851.000000 1 0 0
-0.428988 -13.217427 7.279275 15.095438 1.538351 1.067613 0.000942 -0.003838 -473712.000000 1 0 0
4.354812 1.594873 -0.625225 4.679628 0.351062 1.704803 0.002278 -0.001041 734983.000000 1 0 0
2.732112 -0.492127 -7.319525 7.828287 -0.178216 2.779083 -0.000810 -0.005785 -191232.000000 1 0 0
7.103412 -11.288427 1.001875 13.375007 -1.009136 1.495820 -0.001214 -0.004414 272339.000000 1 0 0
-11.987688 -7.371727 1.218775 14.125595 0.551334 1.484408 -0.000063 -0.002998 -205525.000000 1 0 0
0.205712 -7.075627 10.053275 12.295331 -1.541731 0.613479 -0.002550 -0.004426 -3269800.000000 1 0 0
-4.684188 -7.155527 10.631775 13.644700 0.991177 0.677428 0.005092 -0.007216 -1146880.000000 1 0 0
11.796812 0.812073 -1.634625 11.937179 0.068730 1.708164 -0.004648 -0.002801 -270706.000000 1 0 0
6.512712 -9.755227 -7.488225 13.915940 -0.982139 2.138983 -0.005866 0.000712 -1953530.000000 1 0 0
-10.878088 4.929273 3.594575 12.472028 -0.425460 1.278438 -0.005065 0.001566 -356495.000000 1 0 0
5.998412 -9.076727 2.123575 11.085012 -0.986827 1.378033 -0.004681 -0.005360 3223080.000000 1 0 0
11.552912 -1.300927 5.773675 12.980659 -0.112134 1.109856 0.000684 -0.006027 -359260.000000 1 0 0
-6.277488 3.823973 4.058375 8.396430 -0.547125 1.066324 -0.000745 0.003354 -2204810.000000 1 0 0
9.617612 6.310473 -3.153225 11.927420 0.580677 1.838345 0.000583 -0.001225 177466.000000 1 0 0
-2.309788 6.500573 10.991875 12.977438 -1.229389 0.560482 -0.004378 0.000422 30037.200000 1 0 0
1.753512 9.791173 2.668375 10.298645 1.393584 1.308706 -0.004269 0.003112 74187.300000 1 0 0
2.857212 6.083673 -5.609325 8.754385 1.131720 2.266264 0.002669 -0.001652 -1840370.000000 1 0 0
12.046812 0.058773 -5.575325 13.274539 0.004879 2.004243 0.004985 -0.001147 280234.000000 1 0 0
-2.670688 -12.491127 6.305575 14.245038 1.360161 1.112244 -0.001280 0.000187 -551050.000000 1 0 0
10.844212 1.851273 -2.666425 11.319628 0.169085 1.808589 -0.003428 0.000365 285258.000000 1 0 0
-8.871088 5.428073 0.856275 10.435199 -0.549112 1.488648 -0.002981 0.002377 -499752.000000 1 0 0
1.115312 -10.160227 5.631275 11.669850 -1.461462 1.067234 -0.004323 -0.003867 -783443.000000 1 0 0
9.248412 -5.890227 -1.331525 11.045400 -0.567104 1.691640 0.001363 -0.002888 1254940.000000 1 0 0
-7.794788 8.602473 -4.484025 12.444586 -0.834616 1.939407 -0.004954 -0.000923 -625603.000000 1 0 0
-7.499988 -0.072227 -1.659125 7.681649 0.009630 1.788497 0.000107 -0.000588 -1403370.000000 1 0 0
4.018712 8.833373 2.633475 10.055532 1.143836 1.305813 0.005185 -0.003559 286181.000000 1 0 0
-1.408788 -10.500427 -3.745025 11.236942 1.437428 1.910574 0.003348 0.000528 -113429.000000 1 0 0
3.337712 7.877373 -3.701325 9.321648 1.170020 1.979116 0.008975 -0.003907 -655658.000000 1 0 0
-4.276988 1.606273 -11.068925 11.974716 -0.359263 2.750146 0.002821 -0.008951 -586174.000000 1 0 0
1.326812 2.736373 10.968375 11.382154 1.119318 0.270465 0.001647 0.000614 531430.000000 1 0 0
2.096812 5.510273 -7.995025 9.933788 1.207188 2.506188 0.003090 -0.002054 59016.000000 1 0 0
15.615512 5.982473 4.077075 17.212110 0.365863 1.331651 0.002629 -0.004274 389305.000000 1 0 0
-4.440888 9.028873 4.654175 11.086179 -1.113687 1.137552 -0.006830 0.005443 -507796.000000 1 0 0
-0.896188 -8.163927 -12.264125 14.760136 1.461460 2.551511 -0.006701 -0.002975 676629.000000 1 0 0
14.234412 -4.268827 -5.160925 15.731387 -0.291360 1.905051 0.013051 -0.001822 171097.000000 1 0 0
-6.015488 -6.189027 -5.568025 10.270981 0.799616 2.143745 0.008035 -0.005406 481325.000000 1 0 0
-8.887488 2.612373 -12.227025 15.339885 -0.285886 2.493231 0.002280 -0.005751 -846877.000000 1 0 0
10.484912 5.428373 13.807875 18.167499 0.477732 0.707434 0.003681 0.007841 779745.000000 1 0 0
-0.487488 11.055473 5.632575 12.417207 -1.526730 1.099984 -0.005300 0.005530 722663.000000 1 0 0
0.423312 11.265973 -0.542025 11.286945 1.533240 1.618837 0.001804 -0.001444 -162860.000000 1 0 0
-1.484888 -0.582427 3.666075 3.998027 0.373796 0.410375 0.003552 0.000861 202852.000000 1 0 0
-4.866188 6.663073 8.859475 12.106470 -0.940009 0.749842 -0.004853 0.002984 -921658.000000 1 0 0
3.402012 -8.758327 -11.428325 14.794884 -1.200302 2.453488 -0.011949 0.003963 1191650.000000 1 0 0
6.708012 -3.890727 11.989075 14.278414 -0.525593 0.574131 0.008242 -0.003342 -481711.000000 1 0 0
-2.463188 -1.788527 -12.548025 12.911973 0.628031 2.903600 0.003085 -0.011360 994155.000000 1 0 0
-16.025988 -4.995727 5.274475 17.595728 0.302180 1.266356 0.004556 -0.009292 415868.000000 1 0 0
-8.984388 7.322673 5.758475 12.942210 -0.683847 1.109692 -0.009694 0.000999 -1805980.000000 1 0 0
-12.826988 1.487373 6.027475 14.250416 -0.115441 1.134078 -0.004092 0.002205 294362.000000 1 0 0
-3.593288 3.550873 10.153375 11.340698 -0.779461 0.461683 0.001319 0.004630 657432.000000 1 0 0
1.977912 -12.293327 -1.132325 12.502807 -1.411270 1.661486 -0.000299 0.001217 -3950940.000000 1 0 0
10.345712 -5.153427 -3.694625 12.134324 -0.462144 1.880186 0.006215 -0.001070 619468.000000 1 0 0
2.991212 -13.378727 1.014775 13.746544 -1.350834 1.496909 0.000634 0.000280 604099.000000 1 0 0
10.077112 -1.512627 -6.140325 11.897051 -0.148993 2.113113 0.003894 -0.001860 -579284.000000 1 0 0
11.919612 -5.272327 -1.560325 13.126660 -0.416452 1.689945 0.008673 -0.004201 -746944.000000 1 0 0
1.439012 0.916873 5.921475 6.162409 0.567292 0.280552 0.002048 0.001347 431839.000000 1 0 0
-10.575788 11.676273 6.674475 17.109391 -0.834813 1.170050 -0.013315 -0.002577 -529315.000000 1 0 0
4.707912 -14.124127 3.004475 15.188228 -1.249054 1.371667 0.006411 -0.005564 -4500160.000000 1 0 0
5.298612 -3.423627 -1.726825 6.540523 -0.573654 1.837983 0.002199 -0.002253 -1552780.000000 1 0 0
2.034712 -2.898527 -7.756025 8.526279 -0.958742 2.713264 -0.003293 -0.005748 -312514.000000 1 0 0
-2.631988 14.729573 -8.764425 17.340785 -1.393975 2.100668 0.002194 -0.002483 -557964.000000 1 0 0
-2.303088 6.059973 -8.110425 10.382990 -1.207606 2.467264 0.005066 -0.006350 -460044.000000 1 0 0
2.568412 -3.570227 -11.328325 12.152128 -0.947170 2.771266 -0.002393 -0.005713 -2057110.000000 1 0 0
14.615812 2.917073 -2.639825 15.136048 0.196995 1.746099 -0.002766 0.000698 857659.000000 1 0 0
-3.463988 13.232873 2.252275 13.862932 -1.314770 1.407606 -0.008381 0.004202 -184435.000000 1 0 0
7.902912 -5.062927 13.925175 16.792848 -0.569768 0.593063 0.007918 -0.009036 -1187800.000000 1 0 0
-11.526988 7.324973 3.012275 13.985724 -0.566088 1.353713 -0.005974 0.003078 1040550.000000 1 0 0
-2.306188 12.017073 4.151575 12.921460 -1.381192 1.243702 -0.005748 0.005094 130224.000000 1 0 0
1.802312 1.371173 0.657475 2.358117 0.650368 1.288238 -0.001377 0.000716 -1671130.000000 1 0 0
-6.876288 8.615973 5.215375 12.195018 -0.897224 1.128889 -0.010589 0.001252 -1238650.000000 1 0 0
-1.219988 9.330873 1.018575 9.465255 -1.440786 1.462976 -0.001712 0.004712 347380.000000 1 0 0
4.922812 12.951073 -8.472525 16.240322 1.207555 2.119635 -0.002216 -0.007325 -1571200.000000 1 0 0
8.881512 6.804273 7.063575 13.231534 0.653736 1.007656 -0.005903 0.000513 -1604100.000000 1 0 0
7.197012 -13.812827 2.905775 15.844075 -1.090460 1.386354 0.010436 -0.007763 -507189.000000 1 0 0
4.099912 -13.378127 -1.322125 14.054593 -1.273420 1.665006 -0.000212 0.002904 -2858110.000000 1 0 0
11.988012 -11.934727 -4.531625 17.512446 -0.783171 1.832541 0.012438 -0.006537 -1324830.000000 1 0 0
3.011112 -0.046827 -1.950525 3.587971 -0.015550 2.145551 0.001658 -0.002450 1350840.000000 1 0 0
-13.568388 -3.451727 -10.607625 17.565229 0.249111 2.219180 0.009277 -0.009315 -392401.000000 1 0 0
-6.465588 13.808173 4.992775 16.043605 -1.132875 1.254341 -0.009522 0.000674 -28830.500000 1 0 0
7.296212 -4.344527 -0.701125 8.520634 -0.537067 1.653175 0.000015 -0.001131 -1354670.000000 1 0 0
11.710012 2.056173 -7.326525 13.965321 0.173819 2.123068 0.003744 -0.001492 -1372750.000000 1 0 0
-7.472588 -4.681527 9.776275 13.165554 0.559673 0.733905 0.005129 -0.002313 256704.000000 1 0 0
0.993112 2.831973 8.489275 9.004118 1.233517 0.339800 0.001641 0.001834 -1414460.000000 1 0 0
1.641012 7.947473 -8.833025 11.994898 1.367176 2.398528 0.004248 -0.003779 21295.800000 1 0 0
-8.608188 -1.984027 -5.588425 10.453122 0.226526 2.134852 0.007138 -0.003563 -827764.000000 1 0 0
6.679812 -0.537727 7.059175 9.733499 -0.080327 0.759406 -0.001881 0.001295 -92300.100000 1 0 0
-10.945288 6.566273 7.190075 14.649657 -0.540359 1.057787 0.000912 -0.000014 786663.000000 1 0 0
-5.919288 11.156573 4.924275 13.555647 -1.082997 1.199028 -0.012484 0.004352 -349979.000000 1 0 0
6.072012 -1.177827 -6.898125 9.265028 -0.191597 2.410632 -0.000766 -0.001695 -822033.000000 1 0 0
4.471112 -5.843427 11.458675 13.617552 -0.917668 0.570810 0.001906 -0.005291 -1457810.000000 1 0 0
-8.948988 -7.413827 2.753075 11.942723 0.691852 1.338181 0.003881 -0.004027 -3203370.000000 1 0 0
-0.923088 12.725973 -9.214125 15.738570 -1.498387 2.196230 0.002594 0.001108 711351.000000 1 0 0
-4.650388 9.408773 -2.344425 10.753950 -1.111751 1.790567 -0.005944 0.002566 432333.000000 1 0 0
-3.283788 9.741273 -0.292325 10.284022 -1.245659 1.599225 -0.003086 0.001416 -2776860.000000 1 0 0
-3.423288 10.745073 -6.470625 13.001710 -1.262372 2.091712 -0.002643 -0.000256 614208.000000 1 0 0
4.892912 -4.923127 0.363075 6.950510 -0.788476 1.518535 -0.002215 -0.001169 -1931620.000000 1 0 0
-2.043788 2.774073 -10.944225 11.473823 -0.935832 2.836579 0.004147 -0.005604 1198420.000000 1 0 0
-3.498688 12.148773 -2.156825 12.825186 -1.290397 1.739770 -0.006652 0.004152 927267.000000 1 0 0
-0.225888 0.245273 0.013375 0.333711 -0.826518 1.530705 -0.000443 -0.001994 -394169.000000 1 0 0
-4.847188 -1.610627 0.136375 5.109594 0.320803 1.544103 0.002864 -0.002849 261452.000000 1 0 0
2.564412 2.529473 -2.490725 4.379287 0.778539 2.175783 -0.002784 -0.002102 1227370.000000 1 0 0
6.012012 -9.897327 8.502775 14.366578 -1.024926 0.937452 0.000140 -0.002384 -523727.000000 1 0 0
-4.162488 -5.461927 6.644275 9.555383 0.919602 0.801898 0.005477 -0.002710 -18336.700000 1 0 0
-6.162588 5.278673 -12.009725 14.493977 -0.708295 2.547401 -0.002754 -0.006806 1351170.000000 1 0 0
-12.836788 3.018173 7.974975 15.410799 -0.230925 1.026878 -0.005529 0.003680 658317.000000 1 0 0
4.662412 -7.472627 -4.956725 10.106798 -1.012965 2.083385 -0.004359 -0.002401 -164612.000000 1 0 0
-6.040888 2.494373 -0.990825 6.610291 -0.391590 1.721255 0.001724 0.001147 -515422.000000 1 0 0
-6.791988 -2.795327 -14.578525 16.324164 0.390434 2.674906 0.001716 -0.003987 -326695.000000 1 0 0
2.661112 -6.148127 0.854075 6.753550 -1.162310 1.443994 -0.002234 -0.001247 -24506.200000 1 0 0
4.781312 -7.971327 13.016775 15.994982 -1.030514 0.620129 0.005575 -0.007176 -237267.000000 1 0 0
-10.055488 -1.752527 8.014075 12.977272 0.172552 0.905176 0.000908 0.000579 -323258.000000 1 0 0
-4.541688 13.382573 -0.169025 14.133250 -1.243620 1.582756 -0.007678 0.005378 684255.000000 1 0 0
6.913112 2.231373 -4.489625 8.539723 0.312217 2.124374 -0.000514 0.001056 -1862440.000000 1 0 0
5.119212 4.565773 0.045675 6.859643 0.728316 1.564138 0.001326 -0.000904 -944317.000000 1 0 0
-5.830588 12.210773 1.868175 13.659751 -1.125314 1.433601 -0.011426 0.003657 1439010.000000 1 0 0
6.416112 -7.491627 6.685275 11.915699 -0.862577 0.975145 -0.001814 -0.001824 -1368740.000000 1 0 0
-0.311788 4.951973 7.618775 9.092028 -1.507917 0.577258 -0.003560 0.004489 -1215810.000000 1 0 0
-5.950188 -3.354627 -1.446425 6.982149 0.513365 1.779468 0.002658 -0.005528 -6447.690000 1 0 0
2.259312 -6.535327 -5.104225 8.594656 -1.237951 2.206674 -0.003260 -0.001155 -781432.000000 1 0 0
-14.452488 -4.895027 -3.766425 15.716922 0.326571 1.812793 0.002267 -0.002341 12420.200000 1 0 0
-12.386388 -5.100927 -6.314925 14.809468 0.390652 2.011318 0.010869 -0.008911 -1883810.000000 1 0 0
-14.843988 -3.872827 -1.261525 15.392667 0.255213 1.652845 0.002029 -0.002714 208492.000000 1 0 0
11.736412 2.838273 8.702075 14.883725 0.237279 0.946322 -0.005687 -0.000947 -1602100.000000 1 0 0
8.590312 -6.607627 7.645775 13.263185 -0.655673 0.956399 0.006195 -0.005840 -383416.000000 1 0 0
-8.875888 -1.583727 -9.634625 13.195286 0.176572 2.389347 0.012704 -0.006799 300775.000000 1 0 0
-8.848988 5.153173 -3.842225 10.937206 -0.527337 1.929754 -0.001181 0.000828 -812013.000000 1 0 0
-4.034588 -6.216027 4.072175 8.455738 0.995081 1.068331 0.004570 -0.001753 -1489570.000000 1 0 0
-0.070988 -9.437427 3.576575 10.092669 1.563275 1.208552 -0.002568 -0.002874 376896.000000 1 0 0
7.848812 -10.440827 3.412975 13.500486 -0.926181 1.315219 -0.000608 -0.005031 34688.400000 1 0 0
-0.068888 6.410373 9.735175 11.656383 -1.560050 0.582337 -0.004439 0.000944 -232840.000000 1 0 0
0.028912 3.472973 -9.710425 10.312843 1.562472 2.798104 0.006592 -0.007584 -542468.000000 1 0 0
4.506412 -3.192427 11.022775 12.328865 -0.616354 0.464463 -0.001871 -0.000850 -1815880.000000 1 0 0
8.548412 -9.143227 1.299975 12.584272 -0.819007 1.467310 -0.000401 -0.004004 -1438670.000000 1 0 0
-0.297388 -0.474627 11.279675 11.293573 1.011068 0.049615 0.009003 -0.001914 -2539870.000000 1 0 0
10.816212 6.015873 11.258075 16.730972 0.507583 0.832690 -0.001568 0.001978 6233.520000 1 0 0
-6.353988 -3.003227 -11.895625 13.816600 0.441531 2.607962 0.010246 -0.008798 56989.600000 1 0 0
-1.673788 2.889973 8.478375 9.112429 -1.045833 0.375242 0.002609 -0.000095 242533.000000 1 0 0
-1.523988 13.542673 -6.738125 15.202922 -1.458735 2.029976 0.006344 -0.000085 695012.000000 1 0 0
7.619012 3.007373 9.752475 12.735950 0.375946 0.698599 -0.005087 0.004027 205511.000000 1 0 0
6.536012 8.465373 -8.013525 13.364078 0.913308 2.213837 0.002411 -0.002725 466183.000000 1 0 0
6.506012 -2.944827 -3.980625 8.175914 -0.425040 2.079302 0.003694 -0.002730 -2947000.000000 1 0 0
1.904512 8.081673 0.917375 8.353573 1.339361 1.460756 0.001244 -0.000516 1116060.000000 1 0 0
-17.620988 6.270673 6.254175 19.721441 -0.341889 1.248099 0.012868 -0.003893 -16046.300000 1 0 0
-14.514988 2.857273 -10.088925 17.906292 -0.194365 2.169327 0.014080 -0.006894 -1460300.000000 1 0 0
-18.297288 0.144873 -4.414125 18.822758 -0.007918 1.807511 0.021958 -0.004978 204684.000000 1 0 0
-12.944988 7.959273 0.090375 15.196411 -0.551270 1.564849 -0.001728 0.006653 -1375640.000000 1 0 0
-12.880088 -3.990827 -13.145225 18.831365 0.300464 2.343466 0.027436 0.000135 513842.000000 1 0 0
-17.333488 -0.545027 -8.703225 19.403427 0.031433 2.035928 0.004900 -0.007500 -24223.700000 1 0 0
-16.664688 -2.086727 -2.083925 16.923622 0.124570 1.694247 0.006903 -0.004093 935763.000000 1 0 0
-15.396188 4.136173 1.789875 16.042262 -0.262452 1.458991 0.004079 0.001783 -1100330.000000 1 0 0
-13.141888 5.837873 4.437775 15.049379 -0.418036 1.271465 -0.002344 0.001733 325622.000000 1 0 0
-9.895888 14.218073 2.738675 17.538031 -0.962755 1.413998 -0.009925 -0.001984 -146739.000000 1 0 0
-11.756088 2.303273 -6.489625 13.624459 -0.193471 2.067263 -0.003694 0.006503 -192402.000000 1 0 0
-15.830088 10.848873 4.047675 19.613092 -0.600814 1.362926 0.007131 -0.004076 299941.000000 1 0 0
-12.844188 0.975473 -8.549525 15.460242 -0.075801 2.156758 0.006034 -0.004595 500726.000000 1 0 0
-12.039088 14.416573 3.976075 19.198604 -0.875024 1.362184 -0.002915 -0.008914 -845365.000000 1 0 0
-10.308788 11.200273 -0.955925 15.252246 -0.826821 1.633512 -0.003313 0.003014 51311.300000 1 0 0
-17.094988 5.789373 8.786975 20.074022 -0.326536 1.117725 0.012223 -0.001138 38597.300000 1 0 0
-11.768788 12.454473 -9.109325 19.406134 -0.813697 2.059412 0.023320 -0.014281 -432682.000000 1 0 0
-17.228988 -0.582027 3.029475 17.502985 0.033769 1.396837 0.012765 -0.001281 658164.000000 1 0 0
-12.998388 14.951273 -0.849525 19.829784 -0.855156 1.613650 0.016831 -0.009041 37711.700000 1 0 0
-16.112688 4.734873 -10.604225 19.861705 -0.285814 2.134006 0.011878 0.001867 964271.000000 1 0 0
-11.847188 7.748673 -9.031925 16.792065 -0.579218 2.138703 0.001909 0.001477 -230782.000000 1 0 0
-14.697388 13.605873 -2.101325 20.138236 -0.746852 1.675332 0.034567 -0.011401 282902.000000 1 0 0
-11.841488 10.601573 -5.528725 16.827982 -0.730207 1.905557 0.017492 -0.003269 1120730.000000 1 0 0
-17.708588 2.861673 -0.822225 17.957152 -0.160213 1.616600 0.013501 0.003147 -14409.200000 1 0 0
-9.358188 15.421973 0.514075 18.046529 -1.025385 1.542306 -0.003265 -0.001866 154135.000000 1 0 0
-8.087588 13.283373 -3.858525 16.023273 -1.023895 1.813994 -0.003891 -0.000999 -266618.000000 1 0 0
-17.636088 11.692773 2.324575 21.287465 -0.585462 1.461379 0.040818 -0.001280 -430386.000000 1 0 0
-8.013388 15.665073 -7.312325 19.054632 -1.097956 1.964656 0.034467 -0.018391 92691.600000 1 0 0
-6.148788 15.309373 -5.505925 17.392518 -1.188881 1.892906 -0.000494 -0.001301 -865200.000000 1 0 0
-17.331788 5.395073 -0.182225 18.152985 -0.301775 1.580835 0.015440 0.007647 783891.000000 1 0 0
-5.286488 12.307773 -12.194025 18.114151 -1.165100 2.309293 -0.015299 -0.002759 746136.000000 1 0 0
-11.035088 3.718973 -11.363825 16.270846 -0.325059 2.343979 0.005370 -0.007008 575095.000000 1 0 0
-11.748488 11.101473 1.225875 16.210257 -0.757090 1.495101 -0.002915 0.000891 -101188.000000 1 0 0
-12.905888 0.192173 -11.053225 16.993312 -0.014889 2.278967 0.012267 -0.010937 535644.000000 1 0 0
-14.406388 -1.822627 -12.609325 19.231772 0.125847 2.285840 0.032586 -0.020629 355281.000000 1 0 0
-18.657288 -2.283827 -3.742225 19.165451 0.121803 1.767318 0.006261 -0.000848 578792.000000 1 0 0
-18.313688 4.887573 -5.015125 19.606912 -0.260802 1.829454 0.033730 0.002796 586527.000000 1 0 0
-8.090588 15.375473 -2.228725 17.516563 -1.086408 1.698377 -0.004330 -0.005577 -57103.300000 1 0 0
-15.950888 9.297673 -5.188925 19.178177 -0.527746 1.844775 0.027438 0.005089 262413.000000 1 0 0
-18.244588 1.667673 2.117375 18.442597 -0.091153 1.455734 0.014547 0.001102 155797.000000 1 0 0
-15.672888 -2.650427 -8.668625 18.105503 0.167524 2.070065 -0.000427 -0.005924 -163671.000000 1 0 0
-9.571888 10.547373 -7.161525 15.942257 -0.833845 2.036685 0.004563 -0.006812 -351498.000000 1 0 0
-13.942588 11.958973 -7.665125 19.903942 -0.708965 1.966119 0.032036 -0.010411 286370.000000 1 0 0
-11.022988 6.529273 -3.880125 13.386300 -0.534762 1.864875 -0.004161 0.004799 -1206140.000000 1 0 0
-13.013488 4.988473 -12.684825 18.845172 -0.366054 2.309199 0.018743 -0.007733 -23121.600000 1 0 0
-17.288288 9.175973 2.665075 19.753126 -0.487954 1.435464 -0.003515 -0.008518 481286.000000 1 0 0
-13.236788 8.652873 -6.681925 17.167786 -0.578971 1.970573 0.005676 0.000247 -768370.000000 1 0 0
-15.726288 7.032573 -3.806625 17.642664 -0.420511 1.788269 0.016598 0.008195 -847915.000000 1 0 0
-14.915188 -0.323527 -9.407425 17.637095 0.021688 2.133398 0.011534 -0.006574 -2239370.000000 1 0 0
-9.861388 5.884873 -6.048325 12.979250 -0.538033 2.055560 -0.006376 0.002522 512328.000000 1 0 0
-12.627388 12.325973 -0.953125 17.671700 -0.773320 1.624758 0.011274 -0.003410 -125120.000000 1 0 0
-10.591188 3.522673 -13.960625 17.874046 -0.321094 2.467151 0.008013 -0.004713 239574.000000 1 0 0
-10.931088 6.291073 -11.924825 17.357065 -0.522226 2.328190 0.002495 -0.006239 -724342.000000 1 0 0
-5.531388 11.748973 -14.767625 19.665130 -1.130782 2.420303 -0.014724 -0.003090 -504208.000000 1 0 0
-15.582488 13.379773 3.584775 20.849049 -0.709490 1.397998 0.013258 -0.014015 36377.600000 1 0 0
-15.047588 11.092473 -3.003225 18.933890 -0.635232 1.730085 0.029500 -0.000317 859016.000000 1 0 0
-18.106288 8.009573 -4.521625 20.308520 -0.416486 1.795325 0.030796 0.003869 779905.000000 1 0 0
-3.817488 16.234573 -10.460125 19.686259 -1.339846 2.130980 0.010034 0.001360 232311.000000 1 0 0
-15.744288 4.548773 -4.425125 16.975148 -0.281257 1.834525 0.016877 0.009232 398756.000000 1 0 0
-18.595688 -1.731727 -6.282325 19.704469 0.092857 1.895288 0.011808 -0.005614 192692.000000 1 0 0
-10.637288 8.654773 -5.830125 14.901253 -0.682994 1.972787 -0.000410 0.001109 1996840.000000 1 0 0
-11.160588 13.519173 -6.622125 18.739778 -0.880676 1.931970 0.020762 -0.012499 365907.000000 1 0 0
-9.466688 10.564573 -4.446525 14.866067 -0.840152 1.874552 -0.009332 -0.000246 -355841.000000 1 0 0
-11.045188 6.308173 -0.321225 12.723694 -0.518917 1.596045 -0.006124 0.004710 -25115.700000 1 0 0
-14.599688 9.537373 -1.098225 17.473364 -0.578663 1.633689 0.015667 0.002077 504256.000000 1 0 0
-18.363688 3.405173 4.745275 19.270129 -0.183347 1.321987 -0.007085 -0.000496 72770.500000 1 0 0
-14.496488 13.258873 0.531875 19.652703 -0.740838 1.543729 0.004263 -0.004431 -387558.000000 1 0 0
-16.901388 2.808673 -9.223825 19.458276 -0.164675 2.064659 0.015313 -0.001901 -878528.000000 1 0 0
-9.101988 8.564373 -8.922125 15.355747 -0.754976 2.190788 0.000592 -0.002039 -1946650.000000 1 0 0
-17.545288 4.735373 -2.630125 18.362419 -0.263613 1.714525 0.011371 0.006539 783807.000000 1 0 0
-13.450588 5.854573 -4.479925 15.338320 -0.410533 1.867191 0.003930 0.010374 -821158.000000 1 0 0
-12.153488 9.729873 3.349075 15.924635 -0.675096 1.358907 -0.008364 0.003274 67121.900000 1 0 0
-17.571888 2.586073 -4.040725 18.215007 -0.146122 1.794492 0.021970 0.003305 911338.000000 1 0 0
-11.291388 1.516973 -12.587725 16.977852 -0.133548 2.405981 0.015580 -0.008977 252432.000000 1 0 0
-10.955388 11.994473 3.555975 16.629277 -0.830644 1.355294 -0.012674 -0.002485 74349.600000 1 0 0
-16.387188 13.112273 -3.985325 21.362454 -0.674835 1.758453 0.038246 -0.005983 -520168.000000 1 0 0
-11.105788 4.069673 -4.585125 12.685587 -0.351250 1.940612 -0.006206 0.005496 123234.000000 1 0 0
-11.264688 15.082373 -8.670125 20.725400 -0.929296 2.002406 0.032855 -0.006298 392690.000000 1 0 0
-15.461988 7.209273 -0.316025 17.063017 -0.436291 1.589318 0.012063 0.004850 59469.000000 1 0 0
-12.698688 8.442973 -4.145425 15.802690 -0.586758 1.836226 0.007514 0.003991 446073.000000 1 0 0
-19.178788 1.992873 -6.062925 20.212781 -0.103539 1.875442 0.028136 -0.000703 1020310.000000 1 0 0
-12.726888 10.096273 -9.069625 18.605550 -0.670644 2.079985 0.015136 -0.001791 606488.000000 1 0 0
-16.823788 11.036973 -0.959525 20.143865 -0.580605 1.618448 0.033225 -0.003331 1617740.000000 1 0 0
-10.630588 6.550373 -14.442725 19.092121 -0.552233 2.428704 0.008680 -0.014946 -504808.000000 1 0 0
-13.918588 12.982073 -4.490125 19.555626 -0.750598 1.802471 0.036721 -0.003938 -82627.900000 1 0 0
-18.074688 7.749173 -0.077225 19.665960 -0.405026 1.574723 0.032453 0.001380 319489.000000 1 0 0
-12.833788 6.764973 -2.143625 14.665132 -0.485109 1.717493 -0.003690 0.008681 575904.000000 1 0 0
-13.694388 8.344473 -10.747325 19.304701 -0.547255 2.161229 0.007732 0.000796 -426695.000000 1 0 0
-14.953388 1.366073 -1.007125 15.049394 -0.091103 1.637768 0.002280 0.004246 -663921.000000 1 0 0
-13.353188 2.821373 -2.467225 13.869209 -0.208226 1.749640 -0.000073 0.005248 181652.000000 1 0 0
-11.188188 9.336473 -10.969025 18.239100 -0.695423 2.216051 0.005270 -0.004431 -651361.000000 1 0 0
-15.114888 4.374273 -8.053325 17.676259 -0.281705 2.043844 0.003335 0.001790 585480.000000 1 0 0
-18.337288 10.524873 4.553775 21.627897 -0.521052 1.358658 0.043841 -0.022177 -127352.000000 1 0 0
-15.330988 6.248073 -6.222425 17.686044 -0.386994 1.930318 0.017580 0.008274 737199.000000 1 0 0
-7.520988 11.307573 -13.034725 18.823669 -0.983859 2.335696 -0.005435 -0.004499 -1897750.000000 1 0 0
-16.682688 9.080573 -2.677425 19.181696 -0.498465 1.710836 0.022745 -0.001583 1040410.000000 1 0 0
-20.647788 -0.906727 -4.942425 21.250432 0.043886 1.805526 0.019825 0.000748 1002860.000000 1 0 0
-15.428888 4.250273 4.239175 16.555543 -0.268808 1.311855 0.004610 0.003284 273826.000000 1 0 0
-6.937888 12.625473 -9.442425 17.224873 -1.068325 2.150989 0.001946 -0.008395 -1966310.000000 1 0 0
-17.086788 1.500173 5.846475 18.121537 -0.087573 1.242294 0.005355 -0.001035 -19577.700000 1 0 0
-10.353688 14.472773 -3.167825 18.074709 -0.949816 1.746969 0.015786 -0.011191 50495.700000 1 0 0
-9.789488 8.445773 -12.979025 18.319941 -0.711843 2.358116 -0.011657 -0.007481 -59938.300000 1 0 0
-13.607888 11.762673 2.917575 18.222166 -0.712795 1.409993 -0.002290 -0.005052 630739.000000 1 0 0
-16.776488 6.761473 1.947575 18.192336 -0.383118 1.463536 0.008286 0.002135 749869.000000 1 0 0
-9.338088 13.336573 -8.404125 18.321937 -0.959945 2.047319 0.029165 -0.013285 -914759.000000 1 0 0
-5.427588 9.858073 -12.895625 17.115415 -1.067513 2.424091 -0.007798 -0.002094 -874584.000000 1 0 0
-15.891088 1.775473 3.258375 16.318578 -0.111266 1.369772 0.002869 0.002805 -280537.000000 1 0 0
-18.578288 -4.974027 4.673175 19.792228 0.261598 1.332434 0.017558 -0.005393 -568744.000000 1 0 0
-5.179988 14.467273 -9.232625 17.926952 -1.226969 2.111820 0.001001 0.000218 -462118.000000 1 0 0
-15.519688 -0.816127 -6.846325 16.982312 0.052538 1.985747 0.009960 -0.000714 648319.000000 1 0 0
-8.865588 11.102873 -9.507125 17.095551 -0.896974 2.160503 0.003393 -0.012554 306033.000000 1 0 0
-16.656988 1.315073 -6.078025 17.779962 -0.078787 1.919678 0.007989 0.000177 -800081.000000 1 0 0
-11.122488 8.743273 -1.565825 14.233986 -0.666201 1.681025 -0.004798 0.001869 -830156.000000 1 0 0
-10.575088 11.031973 -12.827325 19.951871 -0.806540 2.269092 0.001871 -0.003834 -567605.000000 1 0 0
-14.065588 11.781973 -10.298125 21.040604 -0.697278 2.082244 0.028481 -0.004815 -120554.000000 1 0 0
-13.052988 5.819573 -7.590625 16.182259 -0.419391 2.059035 0.003589 0.005912 -201978.000000 1 0 0
-8.762688 15.596373 -4.794225 18.520695 -1.058907 1.832636 0.018307 -0.008752 1419020.000000 1 0 0
-8.515588 6.159673 -12.953725 16.681001 -0.626220 2.459977 -0.000593 -0.008204 132610.000000 1 0 0
-16.313888 7.475073 4.335475 18.461202 -0.429655 1.333740 0.006193 0.001367 188250.000000 1 0 0
-12.593388 5.495673 -10.195625 17.109839 -0.411481 2.209173 0.004486 -0.000014 231267.000000 1 0 0
-12.274788 9.148273 -13.387025 20.336513 -0.640480 2.289322 0.014051 -0.007451 -415826.000000 1 0 0
-10.727288 5.326573 -8.509125 14.691912 -0.460879 2.188507 -0.002658 0.002203 564730.000000 1 0 0
-17.659088 -4.367827 -2.611525 18.377741 0.242475 1.713382 -0.000786 -0.000880 288071.000000 1 0 0
-8.936388 13.248473 -10.916325 19.353222 -0.977375 2.170087 0.020490 -0.008586 -35808.100000 1 0 0
-15.069588 6.023073 6.125375 17.346184 -0.380234 1.209887 0.001344 -0.001962 -1094180.000000 1 0 0
-16.240288 -3.077227 -4.475725 17.124497 0.187261 1.835231 0.002194 -0.003143 -420701.000000 1 0 0
-11.135288 -1.166727 -12.505025 16.784860 0.104397 2.411358 0.014035 -0.008833 615998.000000 1 0 0
-15.208888 7.024473 -8.587425 18.825444 -0.432678 2.044472 0.009450 0.007161 -171831.000000 1 0 0
-14.734588 9.209273 1.390675 17.431373 -0.558607 1.490931 0.001923 -0.001903 -688188.000000 1 0 0
-19.396088 5.352273 7.946775 21.633453 -0.269245 1.194652 0.027146 -0.009624 -705178.000000 1 0 0
-16.220888 0.605873 0.959675 16.260543 -0.037334 1.511743 0.002654 -0.000256 -704800.000000 1 0 0
-17.479688 3.774973 7.145775 19.257518 -0.212697 1.190642 0.009228 0.001212 719417.000000 1 0 0
-15.384988 4.018973 -1.417325 15.964298 -0.255517 1.659694 0.009276 0.004133 -833423.000000 1 0 0
-10.733588 13.283173 0.461075 17.084062 -0.891161 1.543804 -0.000973 -0.006237 -1568330.000000 1 0 0
-13.526788 3.401673 0.060875 13.948085 -0.246368 1.566432 0.001850 0.003426 -553821.000000 1 0 0
-15.086788 0.154073 -4.327625 15.695962 -0.010212 1.850131 0.004999 -0.000319 155097.000000 1 0 0
-18.879488 7.269473 3.382675 20.511528 -0.367549 1.405124 0.021574 0.000695 1305010.000000 1 0 0
-14.142588 1.380673 -6.335425 15.558170 -0.097317 1.990192 0.002254 0.001895 -659551.000000 1 0 0
-14.056988 12.395973 5.377275 19.498055 -0.722689 1.291390 -0.001409 -0.007899 307138.000000 1 0 0
17.594512 5.294873 6.315575 19.429077 0.292318 1.239723 0.003926 -0.005517 -39623.300000 1 0 0
18.520812 7.623073 -0.179425 20.029077 0.390462 1.579755 0.004793 0.007587 143311.000000 1 0 0
16.539612 5.040673 8.619275 19.319914 0.295821 1.108355 0.012518 -0.001468 220252.000000 1 0 0
11.473612 12.153373 11.025275 20.022611 0.814161 0.987664 0.015797 -0.018451 560235.000000 1 0 0
-2.252488 16.299073 -0.389925 16.458600 -1.433469 1.594490 -0.005705 0.000202 -409077.000000 1 0 0
14.980912 12.796273 3.534675 20.016650 0.706911 1.393279 0.022409 -0.003821 235325.000000 1 0 0
13.601612 11.690173 6.826275 19.190154 0.709966 1.207115 0.021540 -0.006001 688805.000000 1 0 0
-0.692888 15.861673 8.671975 18.090769 -1.527141 1.070872 0.001981 -0.007361 245694.000000 1 0 0
0.753312 12.790273 9.367675 15.871733 1.511967 0.939476 -0.003639 -0.005901 -1375420.000000 1 0 0
0.775712 15.484673 -3.878825 15.981930 1.520743 1.815945 0.001083 -0.001821 -1599640.000000 1 0 0
5.103212 10.125773 13.598275 17.705568 1.103968 0.695049 0.004377 -0.006294 717718.000000 1 0 0
-1.278988 16.554973 -2.717925 16.825280 -1.493692 1.733045 0.001575 0.001678 -602515.000000 1 0 0
8.504112 9.992373 3.314175 13.533336 0.865687 1.323390 0.006279 -0.003678 579875.000000 1 0 0
12.628412 13.672673 -4.843325 19.232175 0.825081 1.825372 0.036439 -0.012499 155425.000000 1 0 0
2.452412 11.542573 7.748875 14.117024 1.361443 0.989745 0.000505 0.000920 757421.000000 1 0 0
-0.277188 15.075273 -8.557325 17.336911 -1.552411 2.087009 0.003969 0.005035 -1529510.000000 1 0 0
2.391712 15.879373 0.298075 16.061246 1.421302 1.552237 0.003167 -0.009061 -703465.000000 1 0 0
1.799012 13.389773 5.255675 14.496364 1.437239 1.199792 -0.001446 -0.000803 613278.000000 1 0 0
17.396612 9.318673 -1.764325 19.813950 0.491767 1.659959 -0.017347 0.005552 -23458.000000 1 0 0
-7.182988 15.054473 7.306875 18.210516 -1.125609 1.157921 -0.005273 -0.002586 -1288720.000000 1 0 0
8.628312 15.743673 -0.117425 17.953406 1.069452 1.577337 0.008958 -0.012104 -670423.000000 1 0 0
15.681512 10.649173 2.391275 19.105834 0.596555 1.445308 0.008229 0.005251 -135609.000000 1 0 0
14.136112 7.356173 8.859475 18.232752 0.479820 1.063392 0.008563 -0.003550 -956281.000000 1 0 0
4.077512 18.412473 -1.624325 18.928383 1.352860 1.656716 0.005073 -0.013738 -241306.000000 1 0 0
-0.329488 17.676673 -4.790225 18.317193 -1.552159 1.835388 0.007767 0.002094 698861.000000 1 0 0
1.373512 13.755073 -0.691625 13.840770 1.471271 1.620787 0.005585 -0.006265 -684594.000000 1 0 0
10.134612 14.592373 4.344975 18.290066 0.963762 1.330944 0.008772 -0.011593 1013050.000000 1 0 0
-1.663888 15.476473 -5.063325 16.368475 -1.463697 1.885289 0.004613 -0.001168 406318.000000 1 0 0
15.176412 8.740773 -6.143225 18.559736 0.522544 1.908157 0.020335 -0.002506 245775.000000 1 0 0
-2.311988 18.556073 0.959575 18.724153 -1.446840 1.519526 -0.006988 -0.002225 445007.000000 1 0 0
-3.771788 19.482973 3.706775 20.187937 -1.379568 1.386135 -0.000787 -0.005335 -93419.200000 1 0 0
1.924012 17.589473 -2.699225 17.899084 1.461845 1.722176 0.002253 -0.009389 -713635.000000 1 0 0
2.931712 12.087873 3.282775 12.864222 1.332857 1.312756 0.001161 -0.001138 236636.000000 1 0 0
-2.528688 16.211473 1.969275 16.525258 -1.416062 1.451345 -0.004980 -0.001891 -397784.000000 1 0 0
11.943212 12.811773 -2.623825 17.710627 0.820470 1.719493 0.019567 -0.002107 553700.000000 1 0 0
7.157712 11.664773 4.746775 14.485567 1.020424 1.236939 0.002160 -0.004081 175269.000000 1 0 0
7.154312 15.726473 1.976575 17.390025 1.143857 1.456889 0.005653 -0.009673 -202303.000000 1 0 0
5.441612 12.134273 10.154075 16.731914 1.149232 0.918681 -0.000204 -0.003702 -239416.000000 1 0 0
-1.252688 14.249273 3.263375 14.671763 -1.483109 1.346495 -0.004643 0.001344 -926015.000000 1 0 0
4.605812 15.962373 1.584475 16.688961 1.289884 1.475712 0.001604 -0.013932 -2843740.000000 1 0 0
7.286712 12.928773 11.975375 19.069844 1.057568 0.891849 0.007308 -0.010144 190600.000000 1 0 0
0.960512 17.207073 -9.298825 19.582494 1.515033 2.065594 0.004894 0.002210 577445.000000 1 0 0
9.550312 9.742373 15.469875 20.626181 0.795353 0.722717 0.004918 0.001029 -310447.000000 1 0 0
13.537712 7.660273 -0.000725 15.554724 0.514928 1.570843 -0.006404 0.003191 393549.000000 1 0 0
12.553612 13.551973 -0.121525 18.473330 0.823623 1.577375 0.018426 -0.004611 733711.000000 1 0 0
9.448612 12.262173 3.354275 15.839454 0.914273 1.357414 0.007460 -0.004264 1698850.000000 1 0 0
-0.616388 13.075173 0.774975 13.112615 -1.523689 1.511660 0.000116 -0.003124 -1207790.000000 1 0 0
16.021012 7.293773 -0.824925 17.622499 0.427222 1.617624 -0.002841 0.004536 -1032720.000000 1 0 0
-4.125488 18.606873 -2.336325 19.201400 -1.352607 1.692773 0.001218 0.001786 223997.000000 1 0 0
11.885012 9.421573 -3.091125 15.478198 0.670291 1.771857 0.016294 -0.000501 167983.000000 1 0 0
14.768412 9.643773 7.826175 19.296564 0.578481 1.153190 0.021286 -0.008485 96151.200000 1 0 0
4.461312 13.641073 4.710975 15.105478 1.254711 1.253634 0.003111 -0.005497 631794.000000 1 0 0
2.137512 15.992273 5.758875 17.131444 1.437925 1.227962 0.009649 -0.006759 68703.500000 1 0 0
6.213412 18.283673 5.392575 20.049415 1.243207 1.298479 0.014262 -0.017962 -270060.000000 1 0 0
10.660712 17.160873 -0.903025 20.222804 1.014918 1.615465 0.024766 -0.008671 -1166020.000000 1 0 0
10.054112 13.609473 -4.331925 17.466210 0.934529 1.821430 0.024035 -0.009154 -607801.000000 1 0 0
16.390212 8.058273 2.455175 18.428313 0.456947 1.437171 -0.013334 0.003167 -674527.000000 1 0 0
3.974912 14.004973 -0.510125 14.567066 1.294247 1.605823 0.001433 -0.008806 -655830.000000 1 0 0
5.678612 13.164473 -2.345825 14.527659 1.163552 1.732979 0.004480 -0.009024 360656.000000 1 0 0
-6.050588 16.902073 -2.978525 18.197837 -1.227031 1.735211 -0.002956 -0.002642 -990475.000000 1 0 0
18.126612 9.869573 2.844375 20.834419 0.498595 1.433846 0.016774 -0.005844 -711511.000000 1 0 0
7.824712 12.752573 9.435375 17.688430 1.020452 1.008157 0.007885 -0.010382 -453670.000000 1 0 0
-2.579388 15.798673 6.715775 17.359520 -1.408958 1.173568 -0.002175 -0.003656 878308.000000 1 0 0
11.064612 15.913873 6.483575 20.438046 0.963245 1.247988 0.015139 -0.011937 -224470.000000 1 0 0
13.626312 11.966673 1.476875 18.195021 0.720641 1.489538 0.022424 -0.000004 1741960.000000 1 0 0
17.544712 7.787873 -5.563325 19.985457 0.417759 1.852892 -0.004177 0.010362 205371.000000 1 0 0
9.443112 9.166873 7.958075 15.379691 0.770556 1.026939 0.003116 -0.003111 -1117960.000000 1 0 0
-1.941988 14.239273 -1.903425 14.496594 -1.435250 1.702478 -0.003466 0.001414 669618.000000 1 0 0
11.009112 11.689373 0.770975 16.075957 0.815359 1.522820 0.009583 0.004755 -760369.000000 1 0 0
11.808912 9.877773 -0.499925 15.403595 0.696585 1.603257 0.006017 0.002359 -862440.000000 1 0 0
-0.053588 16.447673 11.075775 19.829312 -1.567538 0.978153 0.004823 -0.003558 237802.000000 1 0 0
1.976012 19.949473 -1.886525 20.135666 1.472068 1.664625 0.005275 -0.016852 -767236.000000 1 0 0
9.161412 14.198373 1.913975 17.005545 0.997772 1.458007 0.008574 -0.009338 -635560.000000 1 0 0
8.498412 11.677073 -5.141425 15.330078 0.941664 1.912807 0.011421 -0.005714 -375814.000000 1 0 0
10.558712 9.830573 10.235375 17.688682 0.749701 0.953736 0.005022 -0.011018 -298557.000000 1 0 0
-5.066188 15.929773 5.923475 17.734471 -1.262879 1.230243 -0.013600 0.003167 -33313.900000 1 0 0
14.480912 9.097673 -1.872925 17.203846 0.560935 1.679879 0.016763 0.002511 -1163640.000000 1 0 0
12.213512 9.482273 7.045575 16.991866 0.660169 1.143245 0.007114 -0.006389 -840036.000000 1 0 0
3.151512 12.938673 9.731175 16.493546 1.331876 0.939739 0.001568 -0.007291 -1001050.000000 1 0 0
8.631812 12.578273 -2.559925 15.468495 0.969360 1.737054 0.010261 -0.006278 -502002.000000 1 0 0
9.448712 16.888073 2.097775 19.464990 1.060696 1.462815 0.014463 -0.008755 -214574.000000 1 0 0
9.527312 14.145273 -7.505725 18.633151 0.978055 1.985387 0.021483 -0.015843 756772.000000 1 0 0
6.391612 11.360073 7.289175 14.934391 1.058302 1.060908 0.002102 -0.003646 -565743.000000 1 0 0
5.496912 16.863673 -5.579625 18.593862 1.255695 1.875572 -0.001575 -0.005420 -2590040.000000 1 0 0
-4.053688 17.284873 -4.584725 18.336273 -1.340437 1.823514 0.001040 -0.004047 129981.000000 1 0 0
-0.112088 18.726373 -0.469925 18.732603 -1.564811 1.595885 -0.001911 0.000359 -294923.000000 1 0 0
6.576312 15.701073 -2.820625 17.254782 1.174151 1.735002 -0.000917 -0.004058 925948.000000 1 0 0
-0.931988 20.748173 1.061975 20.796227 -1.525907 1.519708 0.000345 -0.000795 -47346.000000 1 0 0
-1.246488 19.000873 4.362075 19.534958 -1.505289 1.345602 0.001538 -0.006459 1102320.000000 1 0 0
7.302612 13.768973 -4.312125 16.171184 1.083151 1.840717 0.005244 -0.006211 22681.200000 1 0 0
-1.117488 11.977873 7.768875 14.320392 -1.477770 0.997381 -0.004978 0.004666 360930.000000 1 0 0
7.616212 10.682173 10.865675 17.034624 0.951410 0.879082 0.006091 -0.010154 156713.000000 1 0 0
1.555512 15.983373 -7.106325 17.560970 1.473781 1.987410 -0.002196 -0.001675 577626.000000 1 0 0
8.857512 7.310573 14.806175 18.738272 0.690010 0.659731 0.001773 0.008008 -110758.000000 1 0 0
11.356512 11.425673 -4.795525 16.808136 0.788434 1.860126 0.021469 -0.004223 -462869.000000 1 0 0
-3.275788 17.206873 4.554075 18.098256 -1.382671 1.316432 -0.008975 -0.000311 -251254.000000 1 0 0
4.061212 15.204073 -6.741525 17.120322 1.309777 1.975529 -0.000813 -0.009268 -1866970.000000 1 0 0
-4.324488 14.064973 9.450875 17.488387 -1.272505 0.999874 -0.002987 -0.006428 -10690.200000 1 0 0
6.319312 17.685873 0.479575 18.787065 1.227626 1.545267 0.000064 -0.016732 -102401.000000 1 0 0
9.799512 10.647873 -2.097525 14.622149 0.826864 1.714741 0.011926 -0.002428 -1244890.000000 1 0 0
7.474512 18.158973 -2.440725 19.788223 1.180317 1.694454 0.004034 -0.003789 122592.000000 1 0 0
3.510112 10.356773 10.432675 15.113714 1.244027 0.808922 -0.003495 0.001862 485683.000000 1 0 0
0.140812 18.582173 2.108675 18.701965 1.563219 1.457805 0.002320 -0.009413 480875.000000 1 0 0
-0.842388 17.291773 -7.332025 18.800894 -1.522119 1.971409 0.012619 0.005563 360243.000000 1 0 0
9.970012 8.944773 13.053875 18.703309 0.731248 0.798273 0.005707 0.003691 -329124.000000 1 0 0
3.633612 11.353573 5.420575 13.095396 1.261056 1.144029 -0.004330 0.001046 670736.000000 1 0 0
12.927412 13.723173 8.350675 20.619826 0.815248 1.153836 0.019517 -0.019754 -58494.400000 1 0 0
-0.494388 17.440973 6.850275 18.744552 -1.542458 1.196676 0.006523 -0.007658 -667266.000000 1 0 0
11.972212 13.506073 5.919175 18.994328 0.845528 1.253890 0.015115 -0.009207 -561519.000000 1 0 0
4.891912 14.519273 -4.370825 15.932489 1.245816 1.848693 -0.002737 -0.004538 -1078890.000000 1 0 0
3.804712 17.582473 4.713475 18.596667 1.357690 1.314543 0.009809 -0.013200 -483690.000000 1 0 0
7.073512 11.666273 2.060775 13.797945 1.025742 1.420882 0.007894 -0.004499 460257.000000 1 0 0
6.345412 8.618473 11.735175 15.882590 0.936149 0.739404 -0.000088 -0.000680 380993.000000 1 0 0
-5.393988 14.911673 1.845475 15.964300 -1.223711 1.454937 -0.008214 0.005392 50680.400000 1 0 0
6.774212 13.772473 6.115975 16.521989 1.113677 1.191602 0.002981 -0.009149 -713105.000000 1 0 0
5.889612 15.785973 4.882875 17.542148 1.213700 1.288719 0.005713 -0.014367 1110280.000000 1 0 0
1.351412 18.115673 4.418575 18.695661 1.496335 1.332197 0.014000 -0.008419 934368.000000 1 0 0
7.250312 17.911973 -7.170425 20.611181 1.186181 1.926116 -0.008431 -0.001475 294399.000000 1 0 0
-2.416688 18.844973 -5.891625 19.891823 -1.443252 1.871490 0.015277 -0.000725 -909065.000000 1 0 0
13.672212 10.193973 -4.631825 17.672019 0.640678 1.835993 0.025925 0.001547 -1438380.000000 1 0 0
-1.658688 18.118173 9.714075 20.624808 -1.479503 1.080384 0.014500 -0.012303 -615997.000000 1 0 0
3.399512 11.774073 -1.559725 12.353874 1.289712 1.697388 0.009839 -0.008279 1142150.000000 1 0 0
4.213612 13.960373 -10.820225 18.158298 1.277665 2.209161 -0.004338 -0.010135 223801.000000 1 0 0
11.595512 13.526773 2.378975 17.974677 0.862122 1.438055 0.018131 -0.002612 415856.000000 1 0 0
15.974012 6.385173 -7.006725 18.575083 0.380267 1.957579 0.000292 0.003161 213560.000000 1 0 0
2.531212 16.021573 3.088775 16.511764 1.414104 1.382623 0.005478 -0.008386 -132193.000000 1 0 0
13.446312 10.764773 3.755275 17.629116 0.675091 1.356136 0.007223 0.002392 -483026.000000 1 0 0
-4.962488 19.499573 -5.724625 20.919631 -1.321594 1.847981 0.000785 -0.007625 510535.000000 1 0 0
5.466512 12.073173 0.032975 13.253126 1.145632 1.568308 0.008517 -0.007950 1314000.000000 1 0 0
4.751312 15.326373 9.648375 18.723349 1.270183 1.029424 0.009179 -0.011804 -206077.000000 1 0 0
7.575512 9.510773 13.890675 18.460608 0.898181 0.719023 0.001331 -0.001366 -173849.000000 1 0 0
-5.016588 13.683673 6.941775 16.143026 -1.219400 1.126285 -0.009853 0.004655 -1977120.000000 1 0 0
-4.545188 17.212573 0.626675 17.813594 -1.312627 1.535609 -0.003973 0.001743 -1416800.000000 1 0 0
-0.609088 16.683473 3.650875 17.089123 -1.534304 1.355500 0.001315 -0.005081 -1976950.000000 1 0 0
7.906112 16.876973 -4.837625 19.254647 1.132701 1.824762 -0.001659 -0.005247 676501.000000 1 0 0
3.178212 16.396573 -4.576725 17.317478 1.379337 1.838257 -0.001841 -0.004806 79458.500000 1 0 0
9.530912 14.280973 8.335775 19.085849 0.982296 1.118812 0.017515 -0.015207 -129948.000000 1 0 0
12.763412 10.824673 9.171975 19.084113 0.703391 1.069449 0.021416 -0.015734 1553500.000000 1 0 0
3.829412 12.390073 12.142675 17.765778 1.271038 0.818268 0.005111 -0.004712 603763.000000 1 0 0
-3.149488 19.078073 6.223875 20.313266 -1.407188 1.259393 -0.001691 -0.012863 -14653.700000 1 0 0
-2.578688 15.770473 10.451275 19.094151 -1.408717 0.991596 0.002167 -0.005273 209350.000000 1 0 0
2.069512 14.259373 7.685975 16.330548 1.426669 1.080769 0.004517 -0.007261 -341817.000000 1 0 0
4.618512 17.187273 7.914975 19.477675 1.308281 1.152328 0.021438 -0.014973 234995.000000 1 0 0
-1.790888 13.462673 9.558375 16.607630 -1.438547 0.957531 -0.002590 -0.002943 -665253.000000 1 0 0
5.889912 17.701373 3.056275 18.904245 1.249582 1.408412 0.002128 -0.013445 581001.000000 1 0 0
7.217012 15.259173 -6.864925 18.222371 1.129012 1.957061 -0.004152 -0.008884 -685952.000000 1 0 0
10.884412 7.510373 9.276475 16.153301 0.603991 0.959075 0.002167 -0.006509 -182916.000000 1 0 0
9.155012 16.100073 -2.758825 18.725323 1.053761 1.718666 0.012456 -0.017464 -304612.000000 1 0 0
14.756112 11.262373 -6.686325 19.730454 0.651917 1.916526 0.047192 -0.006508 455372.000000 1 0 0
11.161512 6.760773 15.826975 20.512936 0.544616 0.689505 0.031168 -0.006282 -875289.000000 1 0 0
8.537712 8.322673 10.323875 15.771551 0.772645 0.857158 0.003710 -0.000690 -156390.000000 1 0 0
16.217812 9.443373 4.692475 19.344613 0.527291 1.325779 0.007381 -0.000377 123901.000000 1 0 0
-3.396988 14.505573 4.650075 15.606869 -1.340757 1.268251 -0.005902 0.005426 -1104940.000000 1 0 0
4.675712 14.743573 12.534375 19.908435 1.263694 0.889756 0.006810 -0.005210 -455084.000000 1 0 0
16.252612 10.639873 -4.690425 19.983853 0.579641 1.807717 0.031361 -0.006043 57121.900000 1 0 0
14.515312 14.038173 6.413475 21.187195 0.768689 1.263267 0.021684 -0.002695 -948790.000000 1 0 0
6.241212 9.393973 9.230475 14.573988 0.984375 0.884918 -0.000065 0.000604 813386.000000 1 0 0
10.337612 11.836273 8.693175 17.959256 0.852882 1.065519 0.015833 -0.020247 -441063.000000 1 0 0
8.021312 11.424273 -0.277925 13.961830 0.958643 1.590704 0.008852 -0.006150 -618266.000000 1 0 0
7.353412 13.520473 -8.864225 17.760922 1.072670 2.093340 0.000508 -0.002815 -965097.000000 1 0 0
2.768212 15.193973 -2.251525 15.607344 1.390582 1.715562 -0.001942 -0.006204 390639.000000 1 0 0
12.083012 13.627373 -7.599525 19.734671 0.845394 1.966096 0.021593 -0.016766 105110.000000 1 0 0
-8.093788 14.861273 9.729075 19.519778 -1.072091 1.049019 0.007727 -0.002636 199599.000000 1 0 0
11.521712 9.691473 2.271375 15.226084 0.699333 1.421061 0.008196 -0.000077 -1430450.000000 1 0 0
12.057212 8.693873 4.629975 15.569087 0.624715 1.268846 0.000275 -0.002716 124382.000000 1 0 0
14.053112 7.882873 6.226575 17.274255 0.511199 1.202042 0.003232 -0.001124 -3198090.000000 1 0 0
16.208812 7.250773 7.316375 19.204912 0.420636 1.179958 0.012560 -0.005724 -158490.000000 1 0 0
13.600012 8.492173 2.490475 16.225899 0.558185 1.416700 -0.005012 0.000958 -2922230.000000 1 0 0
-4.323088 17.542473 -7.134525 19.424955 -1.329175 1.946886 0.004382 -0.004688 178828.000000 1 0 0
3.452412 19.335873 -4.034825 20.051806 1.394109 1.773400 0.011106 -0.015881 679400.000000 1 0 0
-0.067388 14.867273 6.406775 16.189105 -1.566264 1.163916 0.004367 -0.002714 -866772.000000 1 0 0
6.885212 15.962573 8.196775 19.219703 1.163572 1.130201 0.014309 -0.015968 -1645330.000000 1 0 0
12.938612 15.224573 -2.026325 20.082363 0.866389 1.671869 0.034924 -0.009945 389362.000000 1 0 0
12.576812 15.584773 4.424475 20.509445 0.891806 1.353358 0.024860 -0.014393 -395324.000000 1 0 0
3.042612 17.965673 1.404975 18.275581 1.403031 1.493843 0.012145 -0.013427 -872614.000000 1 0 0
10.519112 14.533173 -1.228225 17.982585 0.944275 1.639150 0.018483 -0.000700 -1831330.000000 1 0 0
-6.267588 15.876473 -0.498025 17.076097 -1.194805 1.599965 -0.009810 0.002128 -474199.000000 1 0 0
-3.823988 15.969873 -2.395925 16.595185 -1.335771 1.715677 -0.003514 0.000783 -2405510.000000 1 0 0
-6.809788 17.102773 1.793075 18.495761 -1.191870 1.473699 -0.005535 0.003654 299809.000000 1 0 0
0.041512 19.543473 -6.615325 20.632779 1.568672 1.897183 0.010422 0.000236 345208.000000 1 0 0
4.833912 14.737173 7.145475 17.076557 1.253846 1.139072 0.009612 -0.010048 -674277.000000 1 0 0
8.645512 12.315573 6.964275 16.580692 0.958730 1.137325 0.010665 -0.009069 -832131.000000 1 0 0
-7.383288 17.618573 -5.638925 19.917945 -1.173965 1.857829 0.016478 -0.008805 155098.000000 1 0 0
-7.877988 17.767473 -1.269925 19.477127 -1.153450 1.636043 0.004614 -0.001948 236169.000000 1 0 0
-13.646788 -9.178727 9.168475 18.829360 0.592094 1.062231 -0.000010 -0.011763 -162073.000000 1 0 0
-12.842288 -12.940927 7.448875 19.694611 0.789224 1.182925 0.022788 -0.006368 -40348.600000 1 0 0
-4.007588 -14.538427 12.736375 19.739348 1.301821 0.869475 0.011545 -0.020636 118823.000000 1 0 0
-1.883388 -14.253127 14.990275 20.770343 1.439419 0.764519 0.015870 -0.003070 -16712.300000 1 0 0
-7.347288 -13.506927 12.737175 19.966355 1.072599 0.878987 0.021603 -0.021701 137863.000000 1 0 0
-9.873088 -11.643527 8.960675 17.701505 0.867496 1.040012 0.004135 -0.009244 615516.000000 1 0 0
-10.765188 -10.665927 11.128775 18.801620 0.780767 0.937376 0.012288 -0.018573 152869.000000 1 0 0
-6.173288 -12.008927 10.870675 17.334803 1.095965 0.892970 0.012120 -0.015238 684835.000000 1 0 0
-12.446088 -10.437727 7.201775 17.768422 0.697859 1.153475 0.002692 -0.005275 -347526.000000 1 0 0
-7.939788 -11.067627 12.738675 18.649570 0.948495 0.818859 0.018714 -0.013961 -373735.000000 1 0 0
-14.905388 -11.476627 7.224275 20.151271 0.656157 1.204133 0.014096 -0.003679 345810.000000 1 0 0
-11.000988 -9.195327 9.050175 16.955278 0.696230 1.007747 -0.000769 -0.011944 -32857.000000 1 0 0
-5.621188 -11.659427 13.401775 18.631897 1.121559 0.768014 0.021679 -0.019367 -1170940.000000 1 0 0
4.022712 -12.580227 14.629275 19.709389 -1.261307 0.734376 0.004983 -0.004174 -978824.000000 1 0 0
6.556112 -12.806727 14.202675 20.216598 -1.097653 0.791856 0.012030 -0.002470 14085.200000 1 0 0
6.667212 -8.571227 15.906875 19.259967 -0.909702 0.598993 0.011061 -0.013655 -315158.000000 1 0 0
0.765012 -1.763227 14.352675 14.480798 -1.161436 0.133123 0.006715 -0.003510 -860058.000000 1 0 0
-0.121888 -6.366727 15.537375 16.791668 1.551654 0.388963 0.007162 -0.006436 240416.000000 1 0 0
-1.392388 -4.567627 18.282075 18.895402 1.274907 0.255485 0.017822 -0.019013 -2974980.000000 1 0 0
-5.280688 12.639073 12.947375 18.848510 -1.175034 0.813557 -0.001837 -0.002450 -901398.000000 1 0 0
-3.955488 8.964973 11.718375 15.275370 -1.155271 0.696423 -0.010238 0.004913 -529140.000000 1 0 0
-0.604088 -3.931227 14.939575 15.459960 1.418325 0.260195 0.009143 -0.007028 94801.800000 1 0 0
-4.502788 9.176173 14.199375 17.495699 -1.114613 0.623924 -0.009601 -0.002653 104801.000000 1 0 0
-13.447188 -2.426827 16.798175 21.653984 0.178549 0.682886 -0.009239 -0.000404 231422.000000 1 0 0
-0.220988 0.750573 17.206175 17.223956 -1.284462 0.045442 0.005977 0.000415 145600.000000 1 0 0
-3.371588 -7.411727 15.386375 17.408097 1.143876 0.486738 0.016047 -0.011994 94166.200000 1 0 0
-7.413788 5.532973 12.607975 15.637745 -0.641134 0.633006 -0.009033 -0.000717 -659488.000000 1 0 0
-9.722888 10.218173 13.422675 19.470845 -0.810231 0.810173 -0.000930 -0.008660 -796128.000000 1 0 0
-5.594988 2.206773 11.148075 12.667017 -0.375686 0.494751 0.002894 0.003072 -1164590.000000 1 0 0
-7.147388 -7.573327 16.823975 19.786020 0.814325 0.554249 0.014908 -0.011995 -118591.000000 1 0 0
-4.659788 2.832873 18.682575 19.462205 -0.546238 0.284003 0.000301 0.001813 80131.700000 1 0 0
0.931312 -8.471227 16.671975 18.723883 -1.461298 0.472546 0.003671 0.000811 625288.000000 1 0 0
-15.004488 -3.655027 13.958075 20.816381 0.238942 0.835869 0.001426 -0.005903 89671.600000 1 0 0
-14.238688 2.204373 13.164375 19.516666 -0.153596 0.830482 -0.012625 -0.000471 -548610.000000 1 0 0
-5.436388 0.934573 16.071675 16.991953 -0.170247 0.330623 0.011284 -0.002779 91143.400000 1 0 0
4.367712 5.775773 15.140675 16.783221 0.923331 0.446111 -0.000313 0.007192 -111444.000000 1 0 0
-1.041588 -12.041627 13.864475 18.393188 1.484512 0.716996 0.008522 -0.009259 -9420.890000 1 0 0
-5.808888 -4.156027 16.843875 18.295679 0.621027 0.401060 0.018422 -0.008127 375286.000000 1 0 0
-12.916188 -1.671627 9.898275 16.358426 0.128706 0.920921 -0.004756 -0.000192 -962554.000000 1 0 0
-14.323988 10.440873 10.343475 20.522571 -0.629865 1.042567 -0.001732 0.003921 198005.000000 1 0 0
-3.495988 -3.274027 17.738175 18.373460 0.752624 0.263732 0.019317 -0.012635 -681910.000000 1 0 0
-7.853688 9.296973 11.872975 17.002401 -0.869354 0.797760 -0.012832 -0.005382 -464761.000000 1 0 0
-4.246888 10.640273 16.330175 19.948085 -1.191037 0.611768 -0.013872 -0.000625 85814.900000 1 0 0
-12.230988 12.872473 8.363575 19.627710 -0.810946 1.130607 -0.002927 -0.008938 -40354.400000 1 0 0
-12.580588 3.004373 10.479675 16.646953 -0.234420 0.889854 -0.007494 0.003911 1047070.000000 1 0 0
-10.146488 -3.641127 13.679075 17.416260 0.344542 0.667422 -0.005510 -0.001644 -1302460.000000 1 0 0
-4.338688 -6.600627 17.687475 19.371094 0.989296 0.420007 0.026694 -0.008866 -331698.000000 1 0 0
0.942312 -3.608627 18.045775 18.427158 -1.315372 0.203807 0.009040 -0.011726 -691967.000000 1 0 0
-6.041588 1.816473 13.653575 15.040627 -0.292064 0.432837 0.002284 0.002117 -582719.000000 1 0 0
-10.438088 8.830973 10.391975 17.173611 -0.702187 0.920889 -0.004201 -0.003149 -419570.000000 1 0 0
4.632112 2.523273 17.102275 17.897240 0.498792 0.299169 0.003978 0.000072 35376.500000 1 0 0
0.533412 -5.425227 13.207475 14.288283 -1.472791 0.391449 0.005058 -0.003750 -2124480.000000 1 0 0
-4.115988 5.647673 20.781975 21.925512 -0.941006 0.324393 0.010485 0.004267 -61574.200000 1 0 0
-10.657488 10.909573 9.072975 17.745977 -0.797086 1.034135 -0.002823 -0.004840 -143250.000000 1 0 0
0.682712 4.122073 12.977675 13.633695 1.406663 0.311475 0.003388 0.001560 -2173000.000000 1 0 0
-3.174788 7.080873 13.369275 15.458187 -1.149306 0.525911 -0.007344 0.001825 -958721.000000 1 0 0
0.783312 8.973773 14.025075 16.668681 1.483728 0.570922 -0.008659 0.001819 273905.000000 1 0 0
-4.152788 -6.658427 13.104075 15.274066 1.013140 0.539570 0.012590 -0.008999 -93736.700000 1 0 0
-5.098888 8.134673 16.498575 19.088597 -1.010897 0.527008 -0.004882 0.002838 -294131.000000 1 0 0
1.611412 -10.773027 15.764875 19.162099 -1.422319 0.604632 0.002302 -0.001609 177590.000000 1 0 0
-15.074088 -1.070627 14.209275 20.743140 0.070905 0.816178 -0.012822 -0.006243 761371.000000 1 0 0
-13.697988 -5.442727 8.237775 16.885470 0.378209 1.061158 0.005851 -0.011852 -774385.000000 1 0 0
-14.252088 -2.107727 12.023175 18.764894 0.146825 0.875351 0.001089 -0.006564 205293.000000 1 0 0
9.390912 1.258273 16.929875 19.400855 0.133195 0.510223 0.015732 0.002338 -552232.000000 1 0 0
5.011512 -6.812927 16.862775 18.864899 -0.936582 0.464891 0.015813 -0.013020 427631.000000 1 0 0
-6.170088 -2.713527 11.152775 13.031408 0.414329 0.543627 0.002837 -0.001753 424207.000000 1 0 0
0.534712 -6.279027 18.004575 19.075556 -1.485843 0.336682 0.012520 -0.010288 -210235.000000 1 0 0
-8.329788 11.992273 12.145775 18.992626 -0.963706 0.876949 -0.001850 -0.006987 -198198.000000 1 0 0
-6.563388 -5.982227 14.843275 17.297049 0.739107 0.539162 0.010094 -0.007697 -1056730.000000 1 0 0
-4.169588 -9.140427 17.109575 19.841130 1.142823 0.530946 0.029179 -0.010249 66285.300000 1 0 0
2.452512 -6.317427 16.225375 17.583728 -1.200492 0.395642 0.009823 -0.012790 468882.000000 1 0 0
2.132012 5.309473 16.146575 17.130320 1.188956 0.340545 -0.002296 0.003985 -1385230.000000 1 0 0
0.960012 -8.863327 14.117975 16.697228 -1.462904 0.563243 0.001217 -0.003617 -226628.000000 1 0 0
-10.023888 -2.852327 11.259475 15.342421 0.277226 0.746782 -0.005872 0.000718 459934.000000 1 0 0
-1.353388 10.088373 12.345775 16.000784 -1.437439 0.689486 -0.009730 -0.000359 -1032280.000000 1 0 0
-12.362888 -3.869327 11.400475 17.256405 0.303321 0.849110 -0.001793 0.000220 -184689.000000 1 0 0
-1.904788 6.685573 20.027475 21.199643 -1.293240 0.334093 -0.003712 0.007641 -674601.000000 1 0 0
0.422512 -13.426927 15.590575 20.579770 -1.539339 0.711217 0.001576 -0.011118 -1282040.000000 1 0 0
4.095312 -8.754127 15.343775 18.133884 -1.133227 0.562099 0.010983 -0.007746 -374605.000000 1 0 0
4.328412 -4.467327 16.126875 17.284914 -0.801190 0.368127 0.016625 -0.011119 19256.900000 1 0 0
7.932412 1.793373 14.850875 16.931859 0.222344 0.501013 -0.011056 0.013934 101372.000000 1 0 0
-6.343988 -0.161427 11.895275 13.482203 0.025440 0.490081 0.003187 0.001288 272007.000000 1 0 0
-3.383988 -11.171527 18.544375 21.912285 1.276670 0.561795 0.031302 -0.003768 46988.200000 1 0 0
3.348812 -1.497127 13.639575 14.124233 -0.420408 0.262724 0.000481 -0.002210 50985.000000 1 0 0
-2.595388 8.696873 16.002675 18.397208 -1.280783 0.515913 -0.012340 0.004852 -275808.000000 1 0 0
-3.321888 3.950773 14.843975 15.715825 -0.871656 0.334654 0.000694 0.000474 -934881.000000 1 0 0
-4.423588 -9.106127 19.695475 22.145009 1.118588 0.474795 0.038073 -0.009666 109125.000000 1 0 0
-5.756588 -3.136927 19.044375 20.141173 0.498941 0.331533 0.023075 -0.013705 -745801.000000 1 0 0
-6.537588 -8.643127 11.111375 15.521158 0.923217 0.772905 0.010150 -0.013554 -1405410.000000 1 0 0
-11.653988 2.260173 12.644775 17.343995 -0.191562 0.753852 -0.008167 -0.003151 37892.900000 1 0 0
-11.662488 -7.512127 11.491875 18.014130 0.572236 0.878980 -0.006196 -0.011691 -2317930.000000 1 0 0
-10.953788 -7.543727 15.404475 20.351686 0.603093 0.712218 0.001315 -0.016248 -341617.000000 1 0 0
0.195712 5.789373 17.701475 18.625181 1.537004 0.316259 -0.005136 0.006719 -126318.000000 1 0 0
-2.103588 -0.157527 13.236575 13.403612 0.074746 0.158038 0.011945 -0.000257 300553.000000 1 0 0
-5.927588 -10.753627 18.302875 22.040237 1.067019 0.590917 0.027105 -0.004669 105617.000000 1 0 0
0.466512 2.388473 19.261975 19.415100 1.377906 0.125677 0.010730 0.002847 -260129.000000 1 0 0
-0.818288 10.885173 14.698675 18.308676 -1.495763 0.638777 -0.015005 -0.001878 -917664.000000 1 0 0
-12.781788 -2.390427 14.299475 19.327784 0.184882 0.737963 -0.003360 -0.002932 -422166.000000 1 0 0
-13.966888 8.249973 11.597575 19.940907 -0.533539 0.950106 0.019289 -0.015263 -458345.000000 1 0 0
-18.096488 -0.689727 6.894275 19.377555 0.038095 1.207041 0.021528 -0.008394 -600499.000000 1 0 0
-2.089088 -7.795227 17.659075 19.415787 1.308954 0.428665 0.019953 -0.007570 -2570330.000000 1 0 0
5.654612 2.607173 14.422275 15.709042 0.432022 0.407568 -0.004817 0.006618 -3546860.000000 1 0 0
-14.120988 -6.694227 10.987675 19.103507 0.442683 0.957990 -0.001035 -0.014793 734960.000000 1 0 0
3.033212 7.856773 16.220675 18.276749 1.202362 0.478898 -0.001809 0.000569 -248110.000000 1 0 0
1.060012 2.134973 14.678175 14.870459 1.109953 0.160988 0.005156 -0.001111 -980716.000000 1 0 0
-14.436188 0.517873 9.808475 17.460753 -0.035858 0.974304 -0.005684 0.002099 -2760940.000000 1 0 0
-9.455988 -5.390627 15.515175 18.952446 0.518126 0.611762 -0.003655 -0.002340 -629825.000000 1 0 0
-2.392388 -0.319827 18.127675 18.287657 0.132897 0.132370 0.011221 -0.004887 -21668.700000 1 0 0
6.881712 3.636273 17.564475 19.211747 0.486106 0.417126 0.015756 0.002132 -417534.000000 1 0 0
-4.186588 -0.961327 14.792575 15.403634 0.225708 0.282612 0.013736 -0.001195 415660.000000 1 0 0
4.972912 -9.197827 17.828975 20.668871 -1.075151 0.530409 0.016644 -0.001553 -100068.000000 1 0 0
1.860312 6.788273 13.384175 15.122088 1.303315 0.484142 -0.001405 0.001640 -1151350.000000 1 0 0
-3.751588 -0.619727 20.362575 20.714559 0.163712 0.184610 0.020806 -0.009763 -1321500.000000 1 0 0
-10.603588 1.455973 16.320575 19.517098 -0.136456 0.580444 -0.001638 -0.004522 -632143.000000 1 0 0
-3.986588 6.929173 18.514475 20.166609 -1.048711 0.407598 0.001107 0.004302 -278417.000000 1 0 0
-12.593588 0.852973 14.723275 19.393320 -0.067627 0.708724 -0.007011 -0.007106 665511.000000 1 0 0
-16.134788 -4.644927 8.463575 18.802628 0.280303 1.103888 0.013663 -0.012243 -634292.000000 1 0 0
-2.358588 0.643273 15.700075 15.889276 -0.266261 0.154474 0.010791 -0.000927 44499.600000 1 0 0
-13.689088 -8.878527 12.373175 20.477178 0.575379 0.921982 -0.013559 -0.013607 463023.000000 1 0 0
6.141612 -3.288227 14.545275 16.127519 -0.491566 0.446667 0.012697 -0.009893 664027.000000 1 0 0
-15.799588 0.316273 7.619375 17.543713 -0.020015 1.121526 0.001247 -0.000567 366801.000000 1 0 0
-13.688788 5.800173 12.533875 19.445384 -0.400783 0.870338 -0.014897 -0.006962 -400314.000000 1 0 0
0.348812 9.693773 16.609875 19.234834 1.534829 0.528566 -0.015080 0.004158 -253466.000000 1 0 0
-10.302688 -5.464427 10.826375 15.912754 0.487662 0.822545 -0.003721 -0.007601 -478292.000000 1 0 0
-3.257888 -11.252227 14.974675 19.012295 1.288970 0.663841 0.019593 -0.011885 317244.000000 1 0 0
-3.521088 2.621373 12.634875 13.375714 -0.639958 0.334383 0.005509 0.002994 -1224020.000000 1 0 0
-12.405988 -7.767527 7.379575 16.392106 0.559398 1.103817 0.006826 -0.008008 116718.000000 1 0 0
-8.213788 -2.047527 13.307875 15.772071 0.244300 0.566542 -0.002173 -0.000790 -725431.000000 1 0 0
-9.746288 6.471773 9.572175 15.116233 -0.586171 0.885066 -0.003911 0.001451 -1111710.000000 1 0 0
-17.826588 -3.560027 6.582275 19.333581 0.197110 1.223392 0.007886 -0.012378 250393.000000 1 0 0
-1.395088 0.099673 20.535575 20.583150 -0.071324 0.068003 0.007231 -0.004321 -950792.000000 1 0 0
-2.689888 2.818473 20.307675 20.678031 -0.808738 0.189548 0.009040 0.004859 -564900.000000 1 0 0
-3.924088 11.340973 11.057475 16.318207 -1.237681 0.826281 -0.005736 -0.001394 -844674.000000 1 0 0
-4.170588 -4.883527 14.993575 16.311037 0.863978 0.404679 0.016957 -0.008000 225105.000000 1 0 0
0.051812 -14.393627 13.256275 19.568036 -1.567197 0.826512 0.011548 -0.007097 189757.000000 1 0 0
-12.218788 0.327573 8.378775 14.819243 -0.026803 0.969880 -0.003089 0.002609 -494476.000000 1 0 0
-7.842988 1.856373 15.515775 17.484217 -0.232415 0.479087 0.004537 0.000401 -245962.000000 1 0 0
3.645612 -2.218327 18.525675 19.010842 -0.546640 0.226406 0.014067 -0.006399 -524472.000000 1 0 0
-2.090588 4.767973 12.669075 13.697065 -1.157576 0.389897 -0.001808 0.002850 -937301.000000 1 0 0
-10.215388 -6.343927 13.256575 17.897942 0.555730 0.736720 -0.014654 -0.009301 -87422.300000 1 0 0
2.408412 -3.748327 14.184075 14.867360 -0.999690 0.304352 0.001860 -0.006769 -148461.000000 1 0 0
6.785112 1.095573 17.087375 18.417829 0.160085 0.382424 0.002513 0.006541 -678596.000000 1 0 0
-1.931788 -5.772327 13.815575 15.097075 1.247849 0.415001 0.006926 -0.007779 -2159900.000000 1 0 0
-12.540388 3.437673 14.698675 19.624729 -0.267555 0.724264 -0.029654 -0.001831 91851.500000 1 0 0
-13.293888 -6.504727 13.389475 19.957880 0.455053 0.835393 -0.009442 -0.010437 -170934.000000 1 0 0
-9.559188 6.902173 11.998675 16.822196 -0.625369 0.776651 -0.009378 0.000769 11857.300000 1 0 0
-1.046288 -2.487127 12.793275 13.074724 1.172589 0.207865 0.008114 -0.002058 248256.000000 1 0 0
0.089912 6.882473 15.376475 16.846736 1.557733 0.420886 -0.005431 0.005664 354444.000000 1 0 0
-16.411688 -1.140927 9.716875 19.106619 0.069408 1.037284 0.006159 -0.000564 -258814.000000 1 0 0
-1.288988 2.688473 13.821675 14.139593 -1.123724 0.212457 0.007043 0.001041 -1086360.000000 1 0 0
-11.255588 -3.688427 16.000175 19.907244 0.316670 0.637248 0.000913 -0.003124 131200.000000 1 0 0
-5.251688 -1.450927 17.137775 17.983013 0.269554 0.307815 0.022650 -0.002535 295712.000000 1 0 0
-11.942988 6.795773 10.976075 17.586691 -0.517327 0.896801 -0.000585 0.001648 -2869380.000000 1 0 0
-2.736888 4.697173 18.642475 19.418956 -1.043219 0.283743 0.000039 0.002712 136334.000000 1 0 0
5.128712 -1.971027 16.365175 17.262897 -0.366910 0.323914 0.015099 -0.006730 -629882.000000 1 0 0
-8.121288 -4.259127 12.201475 15.263403 0.483008 0.644510 0.005479 -0.002626 -1408250.000000 1 0 0
-11.361488 -1.036427 16.056475 19.696903 0.090971 0.617760 -0.007529 -0.009550 57020.500000 1 0 0
2.152612 1.934473 17.367975 17.607455 0.732076 0.165118 0.004978 -0.000016 -1048490.000000 1 0 0
-8.969788 -7.705227 11.557875 16.535178 0.709707 0.796816 0.007354 -0.012044 1207750.000000 1 0 0
-7.249488 6.906173 14.796875 17.866108 -0.761150 0.594892 -0.014913 -0.001205 -526410.000000 1 0 0
-5.741688 3.414773 15.803275 17.157248 -0.536538 0.399940 0.000090 -0.000598 193084.000000 1 0 0
-9.374688 4.257673 11.609975 15.517863 -0.426314 0.725499 -0.006407 0.000847 127352.000000 1 0 0
-10.127788 0.186773 14.111775 17.370929 -0.018440 0.622576 -0.005125 -0.003107 -815821.000000 1 0 0
8.112212 -0.727727 15.706875 17.693035 -0.089468 0.478377 0.000220 -0.000361 1835.280000 1 0 0
-8.503088 -7.675327 14.638175 18.587343 0.734278 0.663998 0.005487 -0.007031 -2999190.000000 1 0 0
-0.112188 4.311273 15.497575 16.086469 -1.544780 0.271417 0.003845 -0.000441 -332620.000000 1 0 0
-8.094688 3.129873 9.645575 12.975253 -0.368952 0.732683 -0.008745 0.004538 -966524.000000 1 0 0
-2.012588 -9.688927 13.135375 16.445787 1.365988 0.645652 0.001951 -0.010283 163505.000000 1 0 0
-6.058088 10.278773 10.615775 15.970231 -1.038223 0.843674 -0.007005 -0.003693 -3575630.000000 1 0 0
-8.661088 -2.888727 15.682775 18.146863 0.321927 0.527210 0.008867 -0.006495 -501902.000000 1 0 0
4.184712 5.940173 17.719075 19.151060 0.957072 0.389163 0.003724 0.012972 367178.000000 1 0 0
-6.841188 -1.115827 15.189175 16.696046 0.161681 0.428122 0.008964 -0.001597 9909.470000 1 0 0
-0.986488 -9.950627 15.494975 18.441323 1.471981 0.573087 0.002364 -0.004911 706037.000000 1 0 0
-4.326988 5.699773 16.250875 17.756722 -0.921464 0.414803 -0.003946 -0.000901 147295.000000 1 0 0
3.899512 0.074173 17.413875 17.845300 0.019019 0.220336 0.009196 -0.001761 -925636.000000 1 0 0
1.292412 -0.060227 19.060775 19.104636 -0.046567 0.067774 0.003296 -0.006526 -327722.000000 1 0 0
-6.390588 6.317173 17.756175 19.900453 -0.779621 0.468493 -0.001338 -0.001759 -1080950.000000 1 0 0
-12.121188 0.421173 10.886075 16.297460 -0.034733 0.839330 -0.004911 0.000011 -6743.340000 1 0 0
-5.352488 5.124373 14.023475 15.860838 -0.763628 0.486109 -0.006287 0.002591 -1379170.000000 1 0 0
-8.612288 -9.646127 9.997275 16.345176 0.841960 0.912671 0.007358 -0.009597 726467.000000 1 0 0
6.755912 -3.773727 17.064675 18.737303 -0.509408 0.425741 0.008520 -0.007571 -1279840.000000 1 0 0
-16.702788 1.493873 9.858875 19.452820 -0.089201 1.039317 0.006570 -0.000008 149001.000000 1 0 0
-4.073888 -9.478727 11.544375 15.482746 1.164873 0.729319 0.005236 -0.012821 872.771000 1 0 0
-11.142788 -4.028127 9.122475 14.953497 0.346884 0.914665 -0.000191 -0.000823 -323011.000000 1 0 0
3.544812 -5.368827 18.434775 19.525136 -0.987243 0.335773 0.009128 -0.018423 -183202.000000 1 0 0
2.556412 -1.934327 16.114075 16.429860 -0.647748 0.196377 0.004511 -0.005008 198818.000000 1 0 0
-3.173388 -4.428927 20.107475 20.832579 0.949073 0.264613 0.027003 -0.013285 -1021440.000000 1 0 0
-6.405488 -3.500527 14.423975 16.165860 0.500143 0.468494 0.015591 -0.004327 -333960.000000 1 0 0
-9.659788 5.167373 13.990875 17.769576 -0.491205 0.664298 -0.006559 -0.004858 154668.000000 1 0 0
-5.826188 -5.158027 11.817075 14.148957 0.724644 0.582317 0.005603 -0.005058 273229.000000 1 0 0
5.959012 2.074073 19.404975 20.405016 0.334942 0.314373 0.017812 -0.003559 20333.800000 1 0 0
-2.861288 11.831073 13.505475 18.181285 -1.333507 0.733519 -0.011065 -0.007372 -2176890.000000 1 0 0
3.389812 1.280473 15.111375 15.539759 0.361172 0.235349 0.001401 0.003223 -1346040.000000 1 0 0
-5.668588 7.347073 12.774275 15.789062 -0.913649 0.628248 -0.015610 -0.008110 -1696580.000000 1 0 0
-1.779188 -1.792727 15.249575 15.457326 0.789189 0.164137 0.012760 -0.003672 -138060.000000 1 0 0
-7.257688 10.532173 14.165175 19.085410 -0.967425 0.734450 0.003226 -0.008747 390734.000000 1 0 0
-10.133088 2.094373 10.515975 14.753020 -0.203817 0.777312 -0.007506 0.003496 -2078110.000000 1 0 0
-13.755788 4.989573 9.309675 17.343229 -0.347966 1.004168 -0.004977 0.006516 -871734.000000 1 0 0
0.375912 -5.079827 20.218875 20.850632 -1.496930 0.246793 0.008623 -0.008149 -154272.000000 1 0 0
-14.434288 -3.039027 7.417275 16.510612 0.207511 1.104879 0.005123 -0.006070 84919.400000 1 0 0
-2.215788 2.306473 17.735475 18.021560 -0.805449 0.178419 0.001822 0.000977 -292.053000 1 0 0
-6.166988 -8.506127 14.628775 18.010747 0.943485 0.622840 0.013809 -0.011179 -645934.000000 1 0 0
-8.077688 1.903373 12.012575 14.600474 -0.231412 0.604560 -0.005733 0.003028 667519.000000 1 0 0
-14.497288 -3.580327 9.942075 17.939759 0.242120 0.983404 -0.002203 -0.009539 -911097.000000 1 0 0
-0.610988 7.012473 12.837675 14.640833 -1.483887 0.501546 -0.001264 0.001396 -1137900.000000 1 0 0
-1.875088 -2.313827 19.609975 19.834840 0.889756 0.150721 0.015718 -0.001744 71522.200000 1 0 0
-12.717088 10.488673 7.526075 18.121214 -0.689663 1.142503 -0.006124 -0.005894 -677745.000000 1 0 0
-19.548988 2.162973 6.710975 20.781688 -0.110196 1.241975 0.027355 -0.009185 1635560.000000 1 0 0
-16.144988 8.436273 6.655075 19.393848 -0.481510 1.220524 0.010246 -0.004772 316162.000000 1 0 0
-12.346588 7.786573 13.478375 19.867953 -0.562663 0.825217 0.012469 -0.004793 -67306.300000 1 0 0
-15.989388 8.390773 10.164475 20.721538 -0.483268 1.058102 0.004662 -0.006487 -496333.000000 1 0 0
1.753012 11.170373 14.822775 18.643094 1.415132 0.651655 -0.011253 -0.006871 -301713.000000 1 0 0
2.173212 14.469573 12.369375 19.159667 1.421719 0.868995 -0.001322 -0.008726 -858093.000000 1 0 0
-3.172888 13.686273 11.771275 18.328781 -1.342991 0.873394 -0.010949 -0.002850 -105369.000000 1 0 0
9.237612 5.060373 16.002975 19.158185 0.501153 0.582105 0.009979 0.020208 207190.000000 1 0 0
-0.452788 12.522873 12.737175 17.867932 -1.534655 0.777241 -0.013382 -0.005051 -384149.000000 1 0 0
3.519212 13.655373 14.507175 20.231465 1.318569 0.771221 -0.003987 0.001859 -189126.000000 1 0 0
-2.731288 -4.055427 -13.704625 14.550710 0.978085 2.798898 -0.002727 -0.006225 -607468.000000 1 0 0
5.853812 -11.558627 16.251975 20.784506 -1.102006 0.673045 0.011968 -0.004831 268164.000000 1 0 0
7.909312 -13.679227 7.277175 17.396429 -1.046561 1.139208 0.003725 -0.004206 -114671.000000 1 0 0
-0.059388 15.673473 1.396075 15.735638 -1.567007 1.481959 -0.001404 -0.003060 -2813780.000000 1 0 0
-13.640488 8.188773 8.964875 18.261651 -0.540661 1.057659 -0.004238 -0.003987 665583.000000 1 0 0
-15.437088 -9.788127 4.700775 18.873484 0.565092 1.319079 0.006746 -0.005868 -584731.000000 1 0 0
9.530512 -11.358227 11.036575 18.483668 -0.872674 0.930917 0.011401 -0.003522 84748.500000 1 0 0
-5.819788 -10.471127 -16.640225 20.503939 1.063516 2.517618 0.016352 -0.006768 49440.900000 1 0 0
-1.894188 -12.531227 -14.819525 19.499690 1.420775 2.434091 0.001527 -0.002282 -220436.000000 1 0 0
5.310412 -16.093127 -12.068225 20.804597 -1.252067 2.189617 -0.013007 0.001345 238287.000000 1 0 0
2.629212 -11.748327 -16.508625 20.432098 -1.350629 2.511504 0.000762 -0.009247 215902.000000 1 0 0
0.321912 -13.949227 -14.195225 19.904496 -1.547723 2.364802 -0.000450 0.000123 122101.000000 1 0 0
-6.385988 -6.049527 -14.478425 16.941145 0.758348 2.595636 0.002251 -0.008168 30725.400000 1 0 0
-6.061288 -8.076527 -17.215925 19.958897 0.926987 2.611122 -0.001142 -0.008818 100349.000000 1 0 0
-2.197088 -16.209827 -13.091025 20.951387 1.436077 2.245708 -0.000443 -0.009584 296864.000000 1 0 0
16.183412 -7.913227 -9.063525 20.166048 -0.454786 2.036940 0.020358 -0.004899 -47370.300000 1 0 0
18.851912 -3.002927 -3.330025 19.377854 -0.157963 1.743501 0.007721 -0.019492 -58707.500000 1 0 0
15.713012 -11.353327 -9.036325 21.388127 -0.625696 2.006990 0.018994 -0.009301 276159.000000 1 0 0
18.745312 -2.512827 -6.578825 20.024534 -0.133257 1.905552 0.145533 -0.004559 -350680.000000 1 0 0
9.012412 -9.707327 -15.826725 20.638338 -0.822503 2.444731 0.032272 -0.003301 207036.000000 1 0 0
-4.595288 9.799073 -15.974925 19.296029 -1.132295 2.546126 -0.005579 -0.003673 391112.000000 1 0 0
2.732812 -9.660427 -18.401225 20.961803 -1.295112 2.642141 0.012365 0.001409 358638.000000 1 0 0
11.270212 8.465173 -15.442625 20.908168 0.644211 2.401777 0.008408 -0.006983 440646.000000 1 0 0
18.584212 -6.006327 -8.495425 21.298384 -0.312599 1.981088 0.028929 -0.003747 258858.000000 1 0 0
12.549112 5.517673 -13.743025 19.411225 0.414244 2.357450 -0.004894 0.002295 100255.000000 1 0 0
16.172712 6.144773 -10.709025 20.346942 0.363101 2.125064 0.006437 -0.006209 384584.000000 1 0 0
3.505212 -0.244727 -19.108725 19.429096 -0.069705 2.959742 0.028229 -0.009649 193935.000000 1 0 0
9.982912 -1.207827 -15.014525 18.070787 -0.120404 2.551471 -0.003437 0.001102 73127.800000 1 0 0
12.216112 -5.985327 -13.964225 19.495054 -0.455578 2.369276 0.014938 -0.002038 252290.000000 1 0 0
10.405012 6.626373 -12.969325 17.899064 0.567071 2.381223 0.003494 0.004627 475906.000000 1 0 0
10.590612 5.641873 -16.563425 20.453333 0.489483 2.514634 0.001888 0.003734 447641.000000 1 0 0
11.988712 -10.093227 -15.018225 21.705979 -0.699769 2.334905 0.036284 -0.016821 408301.000000 1 0 0
-1.153388 2.176773 -17.535125 17.707322 -1.083546 3.002019 0.003331 -0.005705 333103.000000 1 0 0
6.536412 -1.112427 -17.073725 18.315956 -0.168574 2.771179 0.012756 0.005486 151208.000000 1 0 0
6.778512 -5.912127 -15.353825 17.794421 -0.717234 2.611667 -0.007375 -0.011138 265636.000000 1 0 0
-1.890088 -4.813627 -20.648925 21.286652 1.196639 2.896196 0.014590 -0.012410 337799.000000 1 0 0
15.896312 -0.234127 -13.276125 20.712389 -0.014727 2.266564 -0.006018 0.003016 57617.000000 1 0 0
-3.879088 -0.328727 -18.473225 18.878968 0.084541 2.933895 -0.007950 -0.007289 125636.000000 1 0 0
3.679712 9.144973 -17.444325 20.036848 1.188244 2.627242 0.003913 -0.016268 -187257.000000 1 0 0
10.085912 0.707173 -16.948325 19.735031 0.070000 2.603707 0.014337 -0.016775 -51881.100000 1 0 0
4.211712 4.396673 -18.211325 19.202125 0.806881 2.818952 0.015779 -0.008464 437804.000000 1 0 0
-2.646388 -11.093927 -17.631525 20.998792 1.336629 2.567425 0.021434 -0.022527 321563.000000 1 0 0
6.015712 -9.348527 -16.367825 19.786092 -0.999009 2.544972 0.008938 0.001543 271075.000000 1 0 0
10.144512 -12.172027 -10.855525 19.207077 -0.876002 2.171452 0.005496 -0.002616 86339.600000 1 0 0
6.285312 6.935973 -17.188125 19.571523 0.834572 2.642926 0.009770 -0.002642 186130.000000 1 0 0
8.107112 1.537673 -20.140325 21.765165 0.187443 2.752746 -0.006454 -0.001626 141033.000000 1 0 0
-1.072488 -0.698327 -20.274125 20.314478 0.577168 3.078551 0.015459 -0.009238 149175.000000 1 0 0
-0.873488 6.794473 -19.625925 20.787130 -1.442939 2.805766 0.007461 -0.009437 -91473.100000 1 0 0
8.722812 5.928873 -18.220925 21.053292 0.596970 2.616878 0.006919 -0.001919 51743.400000 1 0 0
11.659612 0.004373 -12.837425 17.342031 0.000375 2.404237 -0.030598 -0.003185 -101186.000000 1 0 0
-3.825788 -2.598027 -19.789825 20.322981 0.596549 2.912029 -0.021815 -0.007560 493157.000000 1 0 0
5.448012 -11.549327 -14.570125 19.374115 -1.130030 2.421949 -0.016282 0.000229 99675.300000 1 0 0
11.673312 3.017273 -15.804125 19.878142 0.252940 2.489887 0.016384 0.003835 -132044.000000 1 0 0
-2.773288 -4.305227 -17.050625 17.803087 0.998532 2.849815 -0.004887 -0.006304 226892.000000 1 0 0
-6.535888 -4.542727 -17.438325 19.168969 0.607392 2.713397 0.001804 -0.017786 -23537.800000 1 0 0
2.871412 10.783773 -15.437425 19.048592 1.310563 2.515671 0.000400 -0.000303 286661.000000 1 0 0
16.861612 -6.026027 -10.789725 20.905624 -0.343236 2.113106 0.028608 -0.011877 -104798.000000 1 0 0
9.587512 -3.040327 -17.538925 20.218256 -0.307082 2.620910 -0.002261 -0.012857 74165.600000 1 0 0
-7.349788 -1.515427 -18.782125 20.225828 0.203337 2.761475 -0.001750 0.002379 790407.000000 1 0 0
1.992612 -7.519627 -19.381325 20.884230 -1.311762 2.759902 0.018745 -0.009122 248727.000000 1 0 0
5.937612 10.372773 -13.754625 18.221947 1.050901 2.426204 0.005676 -0.008773 375862.000000 1 0 0
6.200812 -4.036227 -17.321925 18.835878 -0.577021 2.737918 0.020799 -0.026742 589397.000000 1 0 0
4.641512 13.372373 -14.768725 20.456765 1.236710 2.377410 0.003166 -0.003385 133452.000000 1 0 0
8.905912 11.401573 -15.123025 20.928856 0.907679 2.378341 -0.000982 -0.014517 103758.000000 1 0 0
16.991712 1.001373 -11.296425 20.428662 0.058865 2.156720 0.006713 0.003989 -129859.000000 1 0 0
14.330712 -2.766427 -12.710825 19.354263 -0.190696 2.287291 -0.000737 0.009985 118214.000000 1 0 0
-8.612488 0.291273 -17.318025 19.343572 -0.033807 2.679869 0.002411 -0.007324 480700.000000 1 0 0
-3.403588 4.171473 -19.095125 19.839591 -0.886423 2.866779 0.009310 -0.007523 69140.500000 1 0 0
4.452112 2.515173 -16.876625 17.634281 0.514240 2.847395 0.017128 -0.007636 377056.000000 1 0 0
-4.970888 14.366573 -13.706725 20.469061 -1.237686 2.304509 -0.004042 -0.004785 231717.000000 1 0 0
1.108812 9.248073 -17.786025 20.077325 1.451469 2.659176 0.014727 -0.006733 336063.000000 1 0 0
0.963712 -5.243527 -20.106925 20.801725 -1.389034 2.882407 0.016095 0.005766 455487.000000 1 0 0
4.204812 -6.246527 -17.970625 19.484427 -0.978323 2.744805 0.025408 -0.015814 246768.000000 1 0 0
-6.830588 7.272773 -15.960525 18.822553 -0.816741 2.582896 -0.003699 -0.000914 90060.700000 1 0 0
-11.601688 3.208973 -16.823225 20.686168 -0.269849 2.520528 0.033875 -0.018963 274986.000000 1 0 0
-4.380388 7.280573 -17.649925 19.588629 -1.029161 2.692933 -0.003174 0.025190 361888.000000 1 0 0
-8.056588 5.256973 -17.868125 20.293207 -0.578135 2.647708 0.004730 0.000580 450384.000000 1 0 0
-8.036788 4.042573 -14.901325 17.406373 -0.466052 2.598442 -0.016142 -0.019719 359244.000000 1 0 0
9.526012 14.008273 -12.615125 21.121505 0.973601 2.210882 0.009614 -0.009472 479410.000000 1 0 0
14.314312 8.743773 -11.872925 20.550412 0.548353 2.186761 0.033205 -0.018411 -86673.500000 1 0 0
8.855212 15.608073 -9.922525 20.505687 1.054732 2.075892 0.001791 -0.005330 118636.000000 1 0 0
7.917512 14.013473 -14.242025 21.491852 1.056515 2.295176 0.004828 -0.010476 74315.800000 1 0 0
4.458112 15.382073 -13.202625 20.755535 1.288700 2.260231 -0.002032 -0.006588 227593.000000 1 0 0
10.819212 11.755373 -11.133125 19.472817 0.826844 2.179405 0.009052 -0.018016 175287.000000 1 0 0
15.693112 10.903673 -10.400525 21.756258 0.607232 2.069227 0.023507 -0.000868 349948.000000 1 0 0
12.852212 11.431373 -10.115025 19.954182 0.726955 2.102396 0.014578 -0.008901 -100742.000000 1 0 0
10.830912 11.341273 -7.534825 17.398469 0.808412 2.018697 0.017429 -0.008821 130952.000000 1 0 0
5.581412 17.014873 -10.070325 20.544330 1.253825 2.083087 0.019345 -0.000671 85917.600000 1 0 0
11.779512 13.937073 -9.990825 20.804218 0.869100 2.071714 0.040785 -0.018326 -59198.900000 1 0 0
8.325112 -19.389027 -1.512625 21.154903 -1.165228 1.642360 0.020447 0.000356 254626.000000 1 0 0
7.105212 -16.655527 -3.819325 18.506158 -1.167573 1.778672 0.006828 -0.011669 423615.000000 1 0 0
3.685012 -18.926927 5.206475 19.972863 -1.378505 1.307072 0.040598 -0.012440 -175002.000000 1 0 0
10.532712 -17.390627 -2.248125 20.455464 -1.026229 1.680922 0.022939 -0.017340 554074.000000 1 0 0
-3.214388 -14.702327 7.977875 17.033414 1.355552 1.083356 0.021125 -0.030324 59505.500000 1 0 0
-15.209888 -12.665727 -4.015525 20.196182 0.694382 1.770956 0.008505 -0.007621 225641.000000 1 0 0
-9.111788 -12.501427 -7.229525 17.075608 0.940963 2.007973 0.013657 -0.014710 133892.000000 1 0 0
-11.469488 -15.504827 6.741675 20.430345 0.933896 1.234510 0.005433 0.000421 322412.000000 1 0 0
-14.777988 -8.645827 -8.509025 19.119172 0.529353 2.032029 0.028628 -0.001828 54141.700000 1 0 0
4.897212 -15.274127 6.161475 17.182707 -1.260530 1.204044 0.027178 -0.015315 9904.520000 1 0 0
2.653512 -13.927727 9.099375 16.846998 -1.382532 1.000218 0.016091 -0.011830 320402.000000 1 0 0
3.306012 -17.229527 10.246575 20.316954 -1.381220 1.042183 0.030339 -0.012119 253920.000000 1 0 0
-7.499188 -17.280227 -5.398625 19.595643 1.161348 1.849907 -0.027899 -0.010639 -92563.600000 1 0 0
2.282612 -19.875827 -4.052925 20.412864 -1.456454 1.770672 0.017626 -0.003326 175728.000000 1 0 0
-17.441188 -10.903027 -2.158225 20.681609 0.558694 1.675341 -0.056831 0.007411 -16786.300000 1 0 0
-4.060688 -14.923227 2.781475 15.713959 1.305123 1.392852 -0.007397 0.006620 126174.000000 1 0 0
-10.368788 -9.398327 -14.712825 20.305357 0.736343 2.381219 0.005435 -0.007598 339209.000000 1 0 0
0.544412 -20.515327 2.640775 20.691755 -1.544266 1.442823 0.018454 -0.004913 174991.000000 1 0 0
6.871212 -18.202527 0.748975 19.470658 -1.209847 1.532320 0.025338 -0.007324 199434.000000 1 0 0
-7.511588 -18.771527 -3.548025 20.527607 1.190153 1.744510 -0.009357 -0.015840 128508.000000 1 0 0
-9.495888 -15.706727 -7.761625 19.927769 1.027020 1.970872 0.029287 -0.008784 4985.720000 1 0 0
-11.697788 -11.254027 -12.211225 20.312690 0.766066 2.215751 0.007277 0.003530 436350.000000 1 0 0
-13.296088 -14.996427 -3.402725 20.328731 0.845425 1.738973 0.013034 -0.010649 148701.000000 1 0 0
-0.882088 -20.425327 -2.430425 20.588323 1.527637 1.689121 0.009811 -0.008167 527116.000000 1 0 0
-11.874888 -16.875927 -1.049625 20.661839 0.957619 1.621618 0.012733 0.002687 120512.000000 1 0 0
0.652012 -20.078727 5.208275 20.753470 -1.538335 1.317125 0.027951 -0.013287 253023.000000 1 0 0
-18.318888 -9.203227 2.411975 20.642157 0.465558 1.453682 0.024885 0.001246 116817.000000 1 0 0
-14.876688 -14.924727 -0.642025 21.082588 0.787010 1.601254 0.013935 0.000608 -17368.100000 1 0 0
10.197312 -15.751627 -4.900025 19.393535 -0.996264 1.826228 0.008744 0.004242 -53042.500000 1 0 0
-0.254288 -19.107427 -7.070325 20.375179 1.557489 1.925174 0.006904 -0.000469 229602.000000 1 0 0
-9.894588 -17.667827 -3.172125 20.496765 1.060282 1.726183 0.010978 0.017328 479110.000000 1 0 0
-15.138788 -6.720827 -11.427425 20.123083 0.417809 2.174720 0.039167 -0.004835 152652.000000 1 0 0
-11.668288 -15.294727 2.420275 19.389052 0.919093 1.445643 0.008839 -0.001651 135461.000000 1 0 0
-2.926988 -16.441027 10.719975 19.844206 1.394613 1.000113 0.020066 -0.007747 104848.000000 1 0 0
-12.553588 -14.267427 -6.535325 20.096331 0.849211 1.902019 0.017443 -0.010612 312241.000000 1 0 0
5.852312 -17.022927 -6.453825 19.122800 -1.239664 1.915049 0.011986 -0.013386 -129563.000000 1 0 0
-17.552388 -7.480127 -2.994925 19.313420 0.402853 1.726494 -0.009463 0.010028 -6908.200000 1 0 0
-12.195088 -13.435827 -9.211425 20.349250 0.833768 2.040550 0.032189 -0.021982 65326.400000 1 0 0
-7.247688 -14.955227 9.685775 19.235437 1.119524 1.043107 0.005075 0.008081 457047.000000 1 0 0
-15.772688 -7.999127 -5.947825 18.658519 0.469352 1.895231 0.013648 0.001527 281655.000000 1 0 0
-0.814188 -19.612827 0.083375 19.629897 1.529307 1.566549 0.008364 -0.003850 197408.000000 1 0 0
-14.912188 -11.366327 -1.974625 18.853803 0.651274 1.675722 0.003941 0.000480 -57792.500000 1 0 0
-7.006588 -19.060627 1.490075 20.362223 1.218534 1.497552 -0.005583 -0.008354 163781.000000 1 0 0
-2.488188 -20.566227 -5.503725 21.434826 1.450397 1.830470 0.006592 -0.004627 268080.000000 1 0 0
-9.004588 -19.689527 -1.078225 21.677699 1.141865 1.620556 0.003857 0.006133 296442.000000 1 0 0
-17.677388 -7.648927 4.835675 19.859000 0.408371 1.324823 0.009815 -0.008669 69560.400000 1 0 0
-2.801888 -15.766327 -10.852725 19.344490 1.394919 2.166419 -0.000530 0.002054 74392.100000 1 0 0
-3.187588 -17.878127 -8.989325 20.263171 1.394355 2.030440 -0.001616 -0.002108 178455.000000 1 0 0
3.552912 -18.026927 -6.448225 19.472362 -1.376201 1.908316 -0.002573 0.042068 436152.000000 1 0 0
0.490912 -17.520627 -9.195325 19.793114 -1.542785 2.053947 -0.009661 0.006649 67856.700000 1 0 0
-7.309988 -11.533927 -14.671525 20.042980 1.005907 2.392054 0.001386 -0.011708 423053.000000 1 0 0
-5.158388 -19.584827 -1.946225 20.346061 1.313258 1.666599 0.005231 -0.006313 398247.000000 1 0 0
-10.425788 -15.384027 8.606775 20.480281 0.975193 1.137079 -0.003074 -0.018134 -44527.000000 1 0 0
-7.239788 -15.704727 -9.994425 19.973520 1.138837 2.094838 0.016094 0.005830 247780.000000 1 0 0
-12.594688 -7.951527 -12.489325 19.438009 0.563145 2.268580 0.014862 -0.007473 333219.000000 1 0 0
-15.695888 -13.170327 2.996175 20.707377 0.698128 1.425595 0.015357 0.000849 163366.000000 1 0 0
-6.116188 -14.257527 -12.946725 20.206497 1.165560 2.266233 -0.001113 -0.000869 488242.000000 1 0 0
-13.882988 -12.159527 -6.747825 19.650053 0.719316 1.921331 0.007644 -0.001387 273089.000000 1 0 0
-11.556488 -10.267627 -8.149625 17.475496 0.726410 2.055952 0.019046 -0.012027 311312.000000 1 0 0
-9.763988 -14.736027 3.593975 18.038919 0.985619 1.370220 -0.001791 -0.000422 473164.000000 1 0 0
4.798512 -18.079727 8.137975 20.399238 -1.311369 1.160441 0.045668 -0.020784 266028.000000 1 0 0
-5.126188 -16.745227 5.478375 18.349197 1.273727 1.267611 0.000670 0.014935 463344.000000 1 0 0
-18.526388 -7.216427 -6.816925 21.018428 0.371441 1.901101 0.006595 -0.003813 23850.800000 1 0 0
-17.081788 -3.410627 -10.858225 20.526103 0.197073 2.128213 0.015856 -0.014156 -237778.000000 1 0 0
-15.790388 -3.981627 -13.083625 20.889493 0.247006 2.247627 0.021114 -0.012037 222460.000000 1 0 0
-19.258888 -4.336027 -5.952025 20.618741 0.221452 1.863634 0.006345 0.000237 52590.200000 1 0 0
5.527912 -13.761627 8.921275 17.306916 -1.188834 1.029235 0.025453 -0.003301 312187.000000 1 0 0
19.711212 -3.793927 2.746875 20.260086 -0.190150 1.434797 0.018786 -0.008800 -174952.000000 1 0 0
17.928812 -2.257827 0.428675 18.075504 -0.125273 1.547078 0.010681 -0.024311 165033.000000 1 0 0
14.086112 -11.304227 0.316175 18.063889 -0.676269 1.553292 0.022112 -0.001963 138674.000000 1 0 0
11.124812 -13.637327 5.136675 18.333673 -0.886518 1.286818 0.009560 -0.005887 387930.000000 1 0 0
10.007212 -13.297427 8.832975 18.841107 -0.925654 1.082849 0.017168 -0.008084 138777.000000 1 0 0
18.467212 4.112573 -4.033725 19.344822 0.219120 1.780855 0.020157 0.001835 93810.000000 1 0 0
19.241312 -5.870327 -4.661025 20.649794 -0.296120 1.798476 0.058443 -0.015049 -82433.200000 1 0 0
17.471612 -10.069127 0.111375 20.165737 -0.522821 1.565273 0.019809 -0.003319 277742.000000 1 0 0
17.208212 -9.236127 8.456875 21.282560 -0.492596 1.162156 0.037710 -0.013018 -11381.700000 1 0 0
19.796212 -0.546527 -1.460925 19.857568 -0.027601 1.644433 0.033514 -0.011286 -361145.000000 1 0 0
7.602512 -13.411127 11.783475 19.403783 -1.055085 0.918167 0.017732 0.003936 421086.000000 1 0 0
16.150712 -6.485127 -3.506525 17.753819 -0.381832 1.769612 0.024050 -0.007383 344474.000000 1 0 0
14.552512 -6.935827 11.404175 19.746810 -0.444759 0.955109 0.022867 -0.037498 337989.000000 1 0 0
16.344012 1.179973 10.808075 19.629915 0.072071 0.987723 0.033186 -0.012821 320630.000000 1 0 0
16.513612 -10.051827 2.585375 19.504430 -0.546792 1.437852 0.009214 -0.012986 218344.000000 1 0 0
16.116112 -7.342827 -5.758725 18.622811 -0.427518 1.885179 0.024159 -0.004176 346911.000000 1 0 0
18.654812 -4.840627 5.749775 20.112026 -0.253885 1.280864 0.117147 -0.012517 -148450.000000 1 0 0
13.263512 -13.416727 7.966275 20.479035 -0.791141 1.171254 0.019631 -0.011769 285539.000000 1 0 0
15.418712 -14.121727 -1.421525 20.956636 -0.741521 1.638680 0.031363 -0.008265 231016.000000 1 0 0
18.639212 -6.565527 8.270475 21.422585 -0.338671 1.174436 0.037619 -0.010477 145455.000000 1 0 0
19.098912 3.106573 2.820775 19.554437 0.161245 1.426039 0.004461 -0.001465 104812.000000 1 0 0
15.559512 -11.182627 7.971775 20.753283 -0.623167 1.176541 0.028627 -0.020571 183144.000000 1 0 0
13.988212 -4.364327 10.697275 18.142468 -0.302430 0.940200 0.012534 -0.010017 -201247.000000 1 0 0
18.486612 -7.629827 1.389375 20.047430 -0.391425 1.501436 0.020981 -0.016345 5010.240000 1 0 0
18.730412 -5.019927 -1.590525 19.456561 -0.261856 1.652635 0.010914 -0.015285 136076.000000 1 0 0
14.398112 -13.702327 -6.043925 20.774707 -0.760643 1.865992 0.019574 -0.010704 397942.000000 1 0 0
13.846712 -9.791127 10.190675 19.785032 -0.615481 1.029707 0.009879 -0.011744 542438.000000 1 0 0
14.188612 2.449673 0.663375 14.413802 0.170965 1.524756 -0.010085 -0.004568 -198342.000000 1 0 0
12.587512 2.984873 13.841475 18.945748 0.232829 0.751618 -0.009724 0.002104 114540.000000 1 0 0
18.462912 -3.214027 9.135275 20.848558 -0.172353 1.117231 0.039801 -0.017925 365163.000000 1 0 0
6.944912 -18.316827 4.671875 20.138629 -1.208388 1.336678 0.016149 -0.014560 450142.000000 1 0 0
12.433312 -3.141027 15.124775 19.829577 -0.247452 0.703260 0.004809 0.007982 269369.000000 1 0 0
11.667712 -13.762827 -7.327825 19.474289 -0.867598 1.956576 0.019076 -0.004175 189980.000000 1 0 0
10.448812 -18.048327 4.470775 21.328564 -1.046010 1.359616 0.010989 -0.001840 480574.000000 1 0 0
18.185112 -0.515127 -4.263925 18.685415 -0.028319 1.801020 0.021056 -0.016432 46445.500000 1 0 0
4.131612 -13.277927 11.370575 17.962838 -1.269129 0.885367 0.004685 -0.014297 -365241.000000 1 0 0
9.097612 -2.678727 14.312975 17.169839 -0.286351 0.585182 -0.000266 -0.001885 451591.000000 1 0 0
9.328212 -9.232027 14.048275 19.224981 -0.780216 0.751405 0.030759 -0.012882 322344.000000 1 0 0
20.965312 5.891173 -2.386125 21.907620 0.273932 1.679930 0.015204 0.009937 536148.000000 1 0 0
14.716812 -13.374627 1.904375 19.977284 -0.737655 1.475324 0.021734 -0.005455 176377.000000 1 0 0
11.068912 0.012773 14.137875 17.955514 0.001154 0.664243 0.005081 -0.016602 115340.000000 1 0 0
18.710212 0.525673 7.714075 20.244884 0.028088 1.179877 0.003416 -0.008525 250391.000000 1 0 0
19.851512 1.069873 0.435675 19.885094 0.053842 1.548885 0.033401 -0.011875 269839.000000 1 0 0
18.032612 0.039473 2.930875 18.269283 0.002189 1.409674 0.019340 -0.006886 -907.101000 1 0 0
10.731412 -8.146527 16.462075 21.272730 -0.649318 0.685886 0.046488 -0.007328 41823.000000 1 0 0
19.044612 2.749173 5.271075 19.950926 0.143364 1.303420 0.025550 -0.010227 172701.000000 1 0 0
15.276112 1.961773 7.005475 16.919954 0.127722 1.143912 0.012158 -0.009909 -39509.100000 1 0 0
11.212912 -16.065927 2.199275 19.714975 -0.961460 1.459010 -0.003034 0.007338 91201.900000 1 0 0
8.667712 -16.322227 6.921875 19.734657 -1.082628 1.212427 0.016650 -0.001679 407575.000000 1 0 0
6.088512 6.577373 7.148375 11.464340 0.823976 0.897545 -0.000271 0.001444 -1127490.000000 1 0 0
18.467912 2.297873 -6.470925 19.703220 0.123789 1.905426 -0.002573 0.007277 405462.000000 1 0 0
14.096412 4.447673 -7.068425 16.384543 0.305632 2.016849 0.005674 -0.003981 352466.000000 1 0 0
-10.390688 -3.881427 -14.059425 17.908079 0.357498 2.473635 0.011999 -0.005828 -91558.800000 1 0 0
7.816212 -14.027827 -10.526125 19.200844 -1.062447 2.151021 -0.006465 0.000263 241851.000000 1 0 0
2.181012 -15.857527 13.842475 21.162044 -1.434116 0.857780 0.020256 -0.007837 465046.000000 1 0 0
-9.422988 -7.713927 1.986475 12.338697 0.685997 1.409097 0.002720 0.001131 357773.000000 1 0 0
-13.635888 3.023173 -9.769425 17.044608 -0.218178 2.181163 0.009907 -0.004213 379570.000000 1 0 0
-12.991288 -4.912927 -13.345025 19.261363 0.361548 2.336215 0.025763 -0.003191 133345.000000 1 0 0
-18.051088 -1.141827 -8.526325 19.996093 0.063171 2.011305 0.044060 -0.023243 399905.000000 1 0 0
-11.987588 15.324173 3.699975 19.804604 -0.906962 1.382868 -0.004108 -0.010574 221920.000000 1 0 0
-17.497588 6.583473 9.118475 20.800343 -0.359866 1.117000 0.024044 0.001235 290231.000000 1 0 0
-13.253088 15.606873 -0.210925 20.475920 -0.866777 1.581098 0.016168 -0.013267 153557.000000 1 0 0
-15.362288 5.227473 -10.915025 19.556690 -0.327989 2.162917 -0.008000 0.004018 13543.500000 1 0 0
-18.168788 2.877373 0.008675 18.395222 -0.157065 1.570325 0.027692 0.002008 7788.440000 1 0 0
-9.804388 15.494573 -0.321425 18.338787 -1.006634 1.588324 -0.003625 -0.003117 -16831.800000 1 0 0
-17.954788 12.483473 2.743675 22.039493 -0.607546 1.445983 0.060105 -0.019329 -62071.300000 1 0 0
-8.578888 16.312173 -7.717225 19.980987 -1.086629 1.967336 0.046936 -0.025523 101132.000000 1 0 0
-15.273688 -1.842827 -12.996425 20.139231 0.120073 2.272250 0.032788 -0.019819 30184.000000 1 0 0
-18.915788 5.504873 -4.616425 20.234180 -0.283198 1.800973 0.037705 0.002952 66475.100000 1 0 0
-16.431088 10.103073 -5.341425 20.014583 -0.551286 1.840947 0.030226 0.020242 51045.700000 1 0 0
-19.023388 1.165173 2.325775 19.200420 -0.061173 1.449367 0.020184 -0.002259 297143.000000 1 0 0
-13.463688 12.270473 -6.906025 19.481493 -0.739064 1.933167 0.024012 0.002351 -128898.000000 1 0 0
-13.342188 5.870473 -12.813225 19.407606 -0.414501 2.291904 0.038542 -0.019619 -187789.000000 1 0 0
-13.927988 9.285573 -6.837825 18.082216 -0.588015 1.958595 0.012931 -0.003209 339470.000000 1 0 0
-6.162188 11.620973 -15.466325 20.303368 -1.083231 2.436824 -0.016011 -0.013887 -56519.500000 1 0 0
-14.932788 14.035273 3.359675 20.766908 -0.754425 1.408302 0.011902 -0.014199 162835.000000 1 0 0
-18.571388 8.630073 -5.070225 21.096961 -0.435009 1.813502 0.039423 0.000574 310694.000000 1 0 0
-3.606388 16.915773 -9.832525 19.895425 -1.360744 2.087723 0.003742 0.000155 99337.800000 1 0 0
-19.302488 -1.951427 -6.877925 20.583973 0.100755 1.911489 0.011852 -0.007944 -195050.000000 1 0 0
-10.320488 13.626773 -6.191825 18.180762 -0.922596 1.918320 0.014566 -0.021104 172466.000000 1 0 0
-19.203088 3.133773 4.392775 19.946819 -0.161765 1.348752 0.013112 0.001928 104891.000000 1 0 0
-14.828288 12.374173 0.630875 19.323464 -0.695425 1.538142 -0.000496 -0.007715 27787.800000 1 0 0
-16.817488 2.030673 -8.685225 19.036403 -0.120166 2.044565 -0.025450 -0.004953 265829.000000 1 0 0
-16.488388 14.056473 -4.010725 22.034910 -0.705948 1.753833 0.024931 0.037083 307088.000000 1 0 0
-10.521488 15.655973 -8.524625 20.699768 -0.979081 1.995249 0.029043 -0.010125 114058.000000 1 0 0
-19.043488 1.770573 -6.976525 20.358321 -0.092709 1.920572 0.026039 -0.007187 152837.000000 1 0 0
-17.093588 10.623773 -0.147725 20.126528 -0.556083 1.578136 0.023922 0.001276 67628.700000 1 0 0
-11.501388 6.171173 -14.423625 19.452667 -0.492465 2.406059 0.014867 -0.024762 379309.000000 1 0 0
-13.084388 12.558173 -4.326225 18.644708 -0.764880 1.804966 0.031031 -0.007826 236972.000000 1 0 0
-18.900988 7.280573 -0.071625 20.254856 -0.367679 1.574333 0.032726 -0.000283 111037.000000 1 0 0
-14.521188 8.720073 -10.468325 19.912066 -0.540792 2.124367 0.015858 0.010596 597486.000000 1 0 0
-18.587788 11.389773 4.856675 22.334280 -0.549746 1.351591 0.044781 -0.026994 138345.000000 1 0 0
-7.971988 12.062673 -13.393725 19.709199 -0.986810 2.317969 -0.015219 -0.005202 510253.000000 1 0 0
-20.916788 -0.346327 -5.660925 21.672056 0.016556 1.835070 0.003199 0.008882 120256.000000 1 0 0
-10.611188 13.646873 -3.560525 17.649696 -0.909892 1.773923 0.004820 0.004462 334606.000000 1 0 0
-18.602988 -5.180927 3.746275 19.670987 0.271617 1.379179 0.011820 -0.003950 -9220.930000 1 0 0
-11.249488 11.655673 -13.069625 20.813956 -0.803130 2.249682 0.011566 0.000052 154225.000000 1 0 0
-14.883888 11.311373 -10.191225 21.291743 -0.649854 2.069909 0.025350 -0.007574 170714.000000 1 0 0
-12.206788 9.365873 -14.309225 21.011405 -0.654461 2.319953 0.013088 -0.004755 396399.000000 1 0 0
-18.306588 -4.876727 -3.085025 19.194557 0.260346 1.732220 -0.002547 0.001945 -271671.000000 1 0 0
-9.468188 12.651573 -11.429625 19.502441 -0.928333 2.196986 0.021307 -0.008033 147564.000000 1 0 0
-15.365388 7.798773 -8.059725 19.023017 -0.469673 2.008304 0.003698 0.006945 18032.000000 1 0 0
-14.422688 8.736973 2.153675 16.999616 -0.544659 1.443765 0.003304 0.001305 -51325.100000 1 0 0
-19.880188 6.139873 7.728375 22.195668 -0.299550 1.215154 0.036221 -0.011292 347255.000000 1 0 0
-19.065488 6.448473 3.822975 20.486356 -0.326149 1.383085 0.020471 0.009865 188478.000000 1 0 0
-14.447288 13.108173 5.870075 20.371698 -0.736839 1.278504 0.007083 -0.010257 40820.800000 1 0 0
17.763412 6.020473 5.726075 19.610529 0.326775 1.274490 -0.006634 -0.004042 103389.000000 1 0 0
18.163812 7.793773 0.684275 19.777138 0.405323 1.536190 0.001244 0.006623 -28116.700000 1 0 0
16.890512 4.157973 8.637375 19.421184 0.241373 1.109913 0.016866 -0.004518 -62513.100000 1 0 0
11.748112 13.038273 10.815475 20.615266 0.837402 1.018511 0.021837 -0.019483 126810.000000 1 0 0
15.546412 12.486073 4.232175 20.383921 0.676658 1.361652 0.030872 -0.003783 80547.300000 1 0 0
4.927912 10.312773 14.513075 18.473412 1.125029 0.667099 0.007071 -0.001295 237524.000000 1 0 0
13.201712 13.220473 -5.451025 19.462266 0.786108 1.854676 0.036544 -0.006450 305244.000000 1 0 0
18.131612 9.597373 -2.297725 20.643267 0.486825 1.682334 0.019601 0.004227 -157116.000000 1 0 0
14.434412 7.529173 9.744675 18.973650 0.480788 1.031433 0.004324 -0.002738 75148.900000 1 0 0
4.703212 19.106573 -1.453425 19.730529 1.329438 1.644527 0.001160 -0.010539 418697.000000 1 0 0
-4.681288 19.216173 3.770175 20.134298 -1.331839 1.382433 -0.005775 -0.009901 221036.000000 1 0 0
6.827412 13.747873 12.119075 19.557340 1.109860 0.902476 0.012588 0.012581 -258104.000000 1 0 0
0.345812 17.206173 -10.023225 19.915748 1.550701 2.098188 0.001342 0.014747 113276.000000 1 0 0
10.362012 9.546173 15.922675 21.261051 0.744441 0.724376 0.010936 0.007768 -28497.700000 1 0 0
-1.228388 12.354473 0.866675 12.445604 -1.471693 1.501103 -0.003491 0.001622 436170.000000 1 0 0
-4.760488 19.292273 -2.507925 20.028573 -1.328873 1.696343 0.001674 0.012064 51730.100000 1 0 0
6.131512 18.272773 6.338975 20.289709 1.247048 1.253053 0.015099 -0.019763 112656.000000 1 0 0
11.161112 17.352773 -1.687525 20.701133 0.999224 1.652405 0.027469 -0.007630 252285.000000 1 0 0
18.480812 10.552573 3.401575 21.551518 0.518824 1.412299 0.021594 -0.003684 292105.000000 1 0 0
11.529912 15.651473 7.269075 20.754444 0.935884 1.212967 0.024784 -0.014854 -64278.600000 1 0 0
18.193412 7.097173 -5.631225 20.324389 0.371939 1.851537 -0.004308 0.010712 346519.000000 1 0 0
0.836912 16.533173 10.756175 19.741872 1.520219 0.994597 -0.002915 0.016034 652928.000000 1 0 0
1.201512 20.184273 -2.384125 20.360072 1.511339 1.688164 0.004253 -0.006792 371753.000000 1 0 0
14.604412 9.846473 -1.301525 17.661706 0.593208 1.644555 0.014332 -0.002255 -68002.400000 1 0 0
9.694612 17.607173 1.527775 20.157682 1.067488 1.494932 0.021594 -0.012300 255086.000000 1 0 0
0.407212 17.930873 -0.459525 17.941382 1.548090 1.596412 -0.005406 0.003000 98793.800000 1 0 0
-0.178888 21.190573 1.435575 21.239898 -1.562355 1.503156 0.004077 0.005343 176187.000000 1 0 0
6.417612 17.119873 -0.277125 18.285311 1.212145 1.585953 0.005271 -0.025477 -21305.400000 1 0 0
6.646312 18.557873 -2.680425 19.893536 1.226889 1.705946 -0.016788 -0.013665 144841.000000 1 0 0
10.183412 9.838073 12.810975 19.094781 0.768151 0.835354 0.010498 -0.001009 142941.000000 1 0 0
13.039612 14.642673 8.561275 21.394737 0.843243 1.159107 0.026813 -0.016934 -13547.300000 1 0 0
0.446412 17.562873 6.901775 18.875600 1.545384 1.196470 0.006559 -0.014811 177442.000000 1 0 0
6.693212 17.938773 -7.939525 20.727632 1.213680 1.963882 -0.017610 -0.005524 18672.600000 1 0 0
-1.088888 18.469873 9.040275 20.592437 -1.511910 1.116300 0.032536 -0.025385 -424810.000000 1 0 0
15.939912 6.745673 -7.884925 19.019909 0.400340 1.998257 0.013673 0.002311 -166339.000000 1 0 0
-4.886488 20.061773 -6.486625 21.643216 -1.331877 1.875182 -0.010831 -0.001430 275862.000000 1 0 0
3.810212 15.433273 9.721175 18.633434 1.328753 1.021947 0.013754 -0.017229 230989.000000 1 0 0
9.001912 14.838373 7.777175 19.018312 1.025491 1.149514 0.014940 -0.008266 -118189.000000 1 0 0
-2.400888 19.313773 6.759275 20.602764 -1.447121 1.236530 0.003323 -0.011396 26924.000000 1 0 0
4.906612 17.856373 8.524775 20.386189 1.302633 1.139373 0.017504 -0.017318 112942.000000 1 0 0
13.923912 11.343773 -7.137325 19.326094 0.683639 1.949063 -0.039187 -0.026871 -22499.400000 1 0 0
11.699512 7.284473 15.244875 20.551116 0.556894 0.735042 0.019864 -0.004617 157351.000000 1 0 0
16.981912 9.588673 5.237875 20.193150 0.514014 1.308407 0.009578 -0.003552 151969.000000 1 0 0
4.336512 15.469473 12.024075 20.067095 1.297484 0.928303 -0.016029 0.006873 282769.000000 1 0 0
16.204912 10.557873 -3.745125 19.700097 0.577445 1.762067 0.038909 -0.008813 212839.000000 1 0 0
15.169012 13.895173 7.087675 21.757985 0.741598 1.238991 0.028596 0.008762 169903.000000 1 0 0
12.569912 14.375173 -7.925425 20.675121 0.852296 1.964197 0.038658 -0.015725 336034.000000 1 0 0
-8.198688 15.783473 9.526475 20.176477 -1.091712 1.079060 0.004144 -0.002779 199118.000000 1 0 0
-4.769588 16.736273 -6.904325 18.722219 -1.293171 1.948489 0.002164 -0.003922 -198645.000000 1 0 0
3.032912 18.911873 -4.774225 19.739572 1.411780 1.815079 0.014730 -0.033389 85816.400000 1 0 0
7.225112 16.515473 8.890475 20.099842 1.158407 1.112617 0.015009 -0.015268 549917.000000 1 0 0
13.498512 15.613273 -1.364525 20.684440 0.857914 1.636813 0.047770 -0.010676 213058.000000 1 0 0
12.528212 16.533473 4.431575 21.212041 0.922355 1.360328 0.031444 -0.016664 377024.000000 1 0 0
2.474412 18.190673 0.677575 18.370694 1.435600 1.533904 0.002147 -0.016628 -23098.900000 1 0 0
-6.772888 17.993973 1.466075 19.282231 -1.210801 1.494690 -0.032295 0.025844 231373.000000 1 0 0
0.112412 20.192273 -5.925125 21.043945 1.565229 1.856215 0.010718 0.006939 157643.000000 1 0 0
-7.513788 18.041773 -6.479325 20.589906 -1.176176 1.890921 0.030760 -0.013542 114917.000000 1 0 0
-7.440788 18.586073 -1.472925 20.074285 -1.189995 1.644236 0.001219 0.004048 124658.000000 1 0 0
-14.391788 -9.719927 8.934775 19.530252 0.594011 1.095633 0.003600 0.005341 407345.000000 1 0 0
-13.472288 -13.606927 7.697875 20.637546 0.790370 1.188552 0.018361 -0.003897 -16272.500000 1 0 0
-3.635688 -15.330927 13.105375 20.494058 1.337950 0.876985 0.022185 -0.007455 136692.000000 1 0 0
-1.721088 -14.712327 15.805975 21.662031 1.454343 0.752968 0.008799 0.004589 434022.000000 1 0 0
-7.958288 -13.508327 13.464575 20.666495 1.038401 0.861214 0.008666 -0.012238 186854.000000 1 0 0
-10.255388 -11.337527 11.566375 19.170121 0.835472 0.923096 0.021041 -0.009767 82741.300000 1 0 0
-7.686988 -10.225227 13.097875 18.308451 0.926165 0.773599 0.015648 -0.017090 340475.000000 1 0 0
-15.042388 -12.033127 7.981875 20.851377 0.674709 1.177973 0.003075 0.006324 136210.000000 1 0 0
-4.905088 -12.281527 13.350675 18.791922 1.190818 0.780662 0.024926 -0.018519 265960.000000 1 0 0
3.546912 -12.375327 13.832875 18.896501 -1.291667 0.749494 0.004509 -0.009352 483724.000000 1 0 0
6.875312 -13.416227 14.857775 21.166449 -1.097229 0.792666 0.024323 -0.000252 358755.000000 1 0 0
7.336712 -8.904427 16.492775 20.127787 -0.881627 0.610427 0.022186 -0.017248 625278.000000 1 0 0
-5.340888 13.486873 13.371975 19.728926 -1.193737 0.826050 -0.003218 0.002052 450690.000000 1 0 0
-13.677688 -1.558027 17.105675 21.957020 0.113421 0.677643 0.001238 -0.015620 -21397.800000 1 0 0
-10.082888 9.440073 13.013675 18.977232 -0.752484 0.815160 -0.006748 -0.009439 401897.000000 1 0 0
-7.431688 -8.463427 16.995475 20.388864 0.850216 0.585263 0.013672 -0.010830 194989.000000 1 0 0
-4.897088 2.176973 18.037575 18.816875 -0.418308 0.288805 0.005846 -0.006063 518467.000000 1 0 0
-15.055288 -3.979627 14.849475 21.517575 0.258424 0.809156 -0.012952 0.002568 -63331.800000 1 0 0
-14.425088 2.968473 12.631575 19.402363 -0.202952 0.861852 -0.012216 0.005853 343023.000000 1 0 0
-13.497688 10.855373 10.124875 20.063394 -0.677321 1.041827 -0.058898 0.026954 -138334.000000 1 0 0
-4.450488 11.208973 15.596875 19.715741 -1.192838 0.658212 -0.004705 -0.005563 298471.000000 1 0 0
-12.969588 13.174573 7.848075 20.084120 -0.793239 1.169339 0.004340 -0.020715 187496.000000 1 0 0
-4.014088 -6.187827 18.479175 19.896784 0.995331 0.379765 0.028547 -0.010883 198034.000000 1 0 0
0.496212 -2.866227 17.655575 17.893597 -1.399372 0.163289 0.004055 -0.019158 3125.350000 1 0 0
-4.144088 6.432073 21.317075 22.648680 -0.998449 0.344614 0.001071 0.010620 140523.000000 1 0 0
2.133212 -10.574127 16.533475 19.741291 -1.371729 0.578091 0.003717 -0.004935 265220.000000 1 0 0
-14.769188 -0.270427 13.797975 20.213514 0.018308 0.819466 -0.032003 -0.003944 -12603.500000 1 0 0
-14.109388 -6.047527 7.631475 17.143128 0.404931 1.109441 0.009566 -0.009104 297.841000 1 0 0
10.165712 0.908373 16.505675 19.406292 0.089120 0.553800 0.017852 0.013824 260418.000000 1 0 0
-7.462488 12.350973 11.998775 18.767148 -1.027293 0.877144 0.000441 -0.004865 -101345.000000 1 0 0
-2.166388 7.473773 20.488775 21.916670 -1.288663 0.362963 0.002408 0.010910 549045.000000 1 0 0
1.268412 -13.803627 15.378575 20.703854 -1.479164 0.733571 0.003106 -0.008113 494873.000000 1 0 0
-3.411888 -11.870827 17.901875 21.749360 1.290922 0.603950 0.026821 -0.005450 387438.000000 1 0 0
-2.318688 8.797673 16.905875 19.198541 -1.313099 0.493709 -0.011297 0.000586 409484.000000 1 0 0
-4.228188 -9.714727 20.398275 22.985716 1.160289 0.479051 0.038049 -0.007167 229971.000000 1 0 0
-6.675988 -2.934927 18.915975 20.273054 0.414192 0.367969 0.022978 -0.018140 221103.000000 1 0 0
-10.659188 -8.176427 16.049075 20.929526 0.654342 0.696932 0.016795 -0.012762 164665.000000 1 0 0
-0.586388 6.323873 17.774175 18.874759 -1.478335 0.343178 0.001237 0.000963 19699.300000 1 0 0
-5.937788 -11.540227 18.835375 22.873686 1.095593 0.603328 0.029445 -0.006210 335044.000000 1 0 0
0.218712 3.197673 18.830175 19.101006 1.502505 0.168597 0.006638 0.003664 45035.600000 1 0 0
-18.055788 -1.299427 7.621675 19.641535 0.071843 1.172294 -0.004247 0.000554 95263.200000 1 0 0
-1.640688 -8.612227 17.843375 19.880854 1.382545 0.456693 0.015897 0.001449 368954.000000 1 0 0
5.827712 3.437873 14.849475 16.318337 0.532973 0.427543 -0.002933 0.003428 269016.000000 1 0 0
-14.088788 -7.173327 10.167975 18.797295 0.470942 0.999257 0.014034 -0.006756 164834.000000 1 0 0
3.444312 8.313173 16.945375 19.186398 1.178007 0.488160 0.005532 0.008484 148114.000000 1 0 0
6.368912 4.412973 17.755175 19.372238 0.605940 0.411488 0.015825 -0.008351 398274.000000 1 0 0
5.810212 -9.519827 18.141675 21.295682 -1.022818 0.551204 0.031118 0.001549 299790.000000 1 0 0
-4.469188 -0.603327 19.740275 20.248854 0.134186 0.224599 0.014833 -0.011312 633029.000000 1 0 0
-11.169688 1.784473 17.009075 20.426818 -0.158422 0.586860 0.018140 -0.008263 -55316.000000 1 0 0
-16.743588 -4.084027 8.929575 19.410418 0.239244 1.092756 0.012566 -0.011949 400716.000000 1 0 0
-13.111388 -9.610727 12.192375 20.320644 0.632536 0.927296 -0.010844 -0.016867 81215.400000 1 0 0
-14.573388 6.056473 12.766775 20.299139 -0.393869 0.890618 -0.002300 -0.018928 -41312.400000 1 0 0
1.076012 9.141873 16.872875 19.220446 1.453634 0.499419 -0.011319 -0.008643 39862.100000 1 0 0
-3.985788 -10.652327 15.087775 18.894431 1.212753 0.645947 0.022676 -0.010182 707404.000000 1 0 0
-18.347788 -4.082527 7.180475 20.121321 0.218941 1.205893 0.061900 -0.002343 -166063.000000 1 0 0
-1.224888 -0.238227 21.406975 21.443313 0.192091 0.058225 0.005507 0.006973 347823.000000 1 0 0
-1.782088 2.547673 20.379475 20.615273 -0.960408 0.151393 0.005717 -0.002116 165241.000000 1 0 0
-8.063888 1.775673 16.436175 18.393672 -0.216742 0.465543 0.000268 0.007735 478949.000000 1 0 0
2.801512 -2.457227 18.890375 19.254421 -0.720022 0.194766 0.006403 -0.000960 -272499.000000 1 0 0
-12.179788 4.150673 14.184875 19.151658 -0.328441 0.736744 -0.023196 -0.006429 127136.000000 1 0 0
-13.029488 -5.600327 13.268175 19.421011 0.405946 0.818679 -0.027049 -0.006797 42777.000000 1 0 0
-17.150088 -1.112427 10.313975 20.043480 0.064773 1.030279 0.002944 -0.002003 151979.000000 1 0 0
-7.512088 7.795973 14.592775 18.170243 -0.803941 0.638293 -0.010868 -0.007856 61100.500000 1 0 0
-9.416888 0.816373 14.141675 17.009739 -0.086476 0.589197 0.001986 -0.002681 -121057.000000 1 0 0
7.293812 -1.034627 15.334775 17.012510 -0.140910 0.447845 -0.002082 0.000758 21022.500000 1 0 0
3.925112 6.548273 18.401175 19.922089 1.030809 0.393280 0.006281 0.012049 106991.000000 1 0 0
1.439812 0.119673 19.981875 20.034039 0.082926 0.072179 0.001150 0.000589 140292.000000 1 0 0
-7.058788 6.937773 17.489975 20.096229 -0.776752 0.514962 -0.005227 -0.004677 564636.000000 1 0 0
7.597812 -3.417627 16.805975 18.757605 -0.422702 0.460219 0.006750 0.000683 375051.000000 1 0 0
-16.955888 2.168173 9.239375 19.431139 -0.127181 1.075272 0.025769 -0.001343 218454.000000 1 0 0
4.383712 -5.328127 18.878775 20.100100 -0.882337 0.350393 0.033811 -0.025662 170586.000000 1 0 0
-3.748388 -3.868027 20.614675 21.306733 0.801105 0.255570 0.024040 -0.008502 369916.000000 1 0 0
-9.625888 5.883573 14.614075 18.461997 -0.548632 0.657412 -0.008330 -0.002349 -115494.000000 1 0 0
6.357712 2.738173 19.954975 21.121532 0.406676 0.333906 0.029108 -0.000500 78728.300000 1 0 0
-7.481088 11.081873 14.907075 20.024871 -0.976996 0.731119 0.011654 -0.008369 76401.200000 1 0 0
-14.574088 4.506973 9.311475 17.872336 -0.299917 1.022775 -0.003998 -0.000100 203965.000000 1 0 0
1.148112 -5.604227 20.395275 21.182369 -1.368727 0.273461 0.018015 -0.007502 352737.000000 1 0 0
-6.082588 -8.466827 13.683375 17.202319 0.947826 0.651067 0.012858 -0.009724 308763.000000 1 0 0
-12.965288 10.390773 6.614375 17.883423 -0.675612 1.191937 -0.009902 -0.010960 318612.000000 1 0 0
-19.452788 1.894773 7.617275 20.976749 -0.097097 1.199172 0.001303 -0.004836 210964.000000 1 0 0
-16.180688 9.216573 6.114375 19.599629 -0.517769 1.253537 0.015560 -0.007061 -5022.180000 1 0 0
-12.970288 7.776273 14.194875 20.741101 -0.540085 0.817038 0.016320 -0.009516 264926.000000 1 0 0
-16.563288 9.009073 10.601275 21.630833 -0.498162 1.058592 0.012865 -0.011707 399335.000000 1 0 0
2.457112 10.875573 14.257275 18.099320 1.348597 0.663690 -0.005603 -0.038582 425014.000000 1 0 0
1.394312 14.514973 12.911475 19.476517 1.475030 0.846077 -0.000213 -0.023287 641229.000000 1 0 0
8.929112 5.473773 16.800675 19.797826 0.549942 0.557440 0.013228 0.011432 134579.000000 1 0 0
-0.544788 13.339173 13.214475 18.784373 -1.529978 0.790511 -0.012135 0.002815 166356.000000 1 0 0
3.896212 12.845473 14.830475 20.003241 1.276302 0.735637 0.003695 0.003828 149762.000000 1 0 0
-3.504388 -4.520827 -13.407625 14.576797 0.911383 2.738347 -0.006851 -0.008127 168162.000000 1 0 0
5.256812 -11.840027 16.935275 21.321910 -1.152954 0.652997 -0.033948 0.014810 161041.000000 1 0 0
8.721712 -14.107627 7.034375 18.015989 -1.017083 1.169674 0.004363 -0.001502 338043.000000 1 0 0
-0.407588 15.367673 0.566775 15.383521 -1.544280 1.533945 -0.001162 -0.002834 -538418.000000 1 0 0
-14.096988 8.331273 8.143975 18.288234 -0.533773 1.109273 -0.000218 -0.002559 47605.600000 1 0 0
-15.651688 -9.817427 5.625775 19.313378 0.560211 1.275222 -0.003891 -0.004292 63386.300000 1 0 0
8.843112 -10.843827 11.443275 18.075889 -0.886677 0.885286 -0.006617 0.003584 163232.000000 1 0 0
-25.194768 6.364873 31.076077 40.509388 -0.247449 0.696437 -0.005446 -0.005075 168179.000000 0 0 1
-24.146188 5.385273 31.040337 39.693098 -0.219437 0.672915 -0.002044 -0.008401 409320.000000 0 0 1
-23.228288 5.671573 32.067867 40.000852 -0.239481 0.640697 -0.006237 -0.002160 -247768.000000 0 0 1
-21.835088 5.050973 31.895777 38.982355 -0.227325 0.612505 0.003376 -0.002599 -362332.000000 0 0 1
-21.653988 3.696573 32.293017 39.056354 -0.169081 0.597346 0.006121 0.000320 23086.100000 0 0 1
-20.282488 3.351873 32.290027 38.278717 -0.163779 0.566936 0.017030 0.007515 36949.900000 0 0 1
-19.982788 2.063573 33.136289 38.750275 -0.102903 0.545006 0.009957 0.004149 -88081.000000 0 0 1
-20.423088 0.882773 32.479647 38.377197 -0.043197 0.561745 0.015312 0.001968 177680.000000 0 0 1
-20.650688 -0.198527 33.374378 39.247158 0.009613 0.554119 0.007654 0.010334 -333112.000000 0 0 1
-21.146888 -1.561227 32.828077 39.080826 0.073694 0.573504 0.006288 -0.002769 -765331.000000 0 0 1
-20.276288 -2.480927 32.242717 38.169040 0.121751 0.564727 0.012768 -0.010303 -447924.000000 0 0 1
-20.479788 -3.856527 32.535857 38.637760 0.186129 0.569679 0.023095 -0.016818 -960550.000000 0 0 1
-21.822888 -4.436927 32.063577 39.038413 0.200581 0.607051 0.009597 -0.008783 -318754.000000 0 0 1
-22.960988 -4.089527 32.805157 40.250584 0.176259 0.618027 -0.002868 0.001926 101536.000000 0 0 1
-23.159188 -4.857427 33.964258 41.394606 0.206744 0.608512 -0.008822 0.002834 -6082.580000 0 0 1
-24.445688 -4.476427 -34.107926 42.201666 0.181111 2.511907 -0.015683 0.014741 565683.000000 0 0 1
-24.562088 -5.075227 -32.828535 41.313034 0.203761 2.489193 -0.008015 0.015949 -185096.000000 0 0 1
-25.616808 -4.480027 -32.150635 41.351600 0.173135 2.461468 -0.010802 0.014795 -646246.000000 0 0 1
-25.729688 -5.014627 -30.722785 40.386295 0.192484 2.435223 -0.020032 0.024286 -1095430.000000 0 0 1
-26.233158 -6.347927 -30.670615 40.855371 0.237417 2.419935 -0.016352 0.022057 558831.000000 0 0 1
-25.875718 -6.949127 -29.444775 39.810023 0.262367 2.403320 -0.031477 0.029181 -179280.000000 0 0 1
-25.977118 -8.476227 -29.336225 40.090786 0.315404 2.391675 -0.023615 0.021627 975550.000000 0 0 1
-27.366478 -8.872127 -29.370755 41.113015 0.313505 2.366549 -0.000906 0.022816 880271.000000 0 0 1
-27.470748 -10.199227 -28.843675 41.117196 0.355502 2.348295 0.001230 0.012407 34935.100000 0 0 1
-28.911098 -10.436127 -28.372295 41.830030 0.346417 2.316210 0.030894 0.012121 62120.500000 0 0 1
-28.960638 -11.399827 -27.342805 41.428294 0.375005 2.291619 0.043535 0.006427 -918030.000000 0 0 1
-30.276428 -11.533827 -26.934345 42.132531 0.363978 2.264354 0.046311 0.006237 -865368.000000 0 0 1
-30.469548 -12.312727 -25.584415 41.648036 0.384035 2.232296 0.057409 0.002661 -164470.000000 0 0 1
-29.932728 -11.703027 -24.449925 40.382272 0.372704 2.221142 0.048532 0.001417 172845.000000 0 0 1
-29.862178 -12.499727 -23.257625 39.861133 0.396421 2.193787 0.046935 -0.004593 -144489.000000 0 0 1
-29.419508 -11.664227 -22.006125 38.546481 0.377468 2.178396 0.047378 -0.008127 57538.500000 0 0 1
-29.280498 -12.247627 -20.727225 37.907384 0.396170 2.149317 0.044390 -0.006773 252190.000000 0 0 1
-28.137718 -13.070327 -20.605725 37.244604 0.434857 2.157062 0.036726 -0.011658 -391494.000000 0 0 1
-27.762688 -13.546627 -19.216825 36.380823 0.453956 2.127291 0.050648 -0.015769 -73507.200000 0 0 1
-27.333928 -12.428827 -18.446025 35.240249 0.426758 2.121675 0.044697 -0.008595 288873.000000 0 0 1
-26.816238 -12.951827 -17.214025 34.397428 0.449943 2.094909 0.045122 -0.009463 76896.400000 0 0 1
-26.385068 -11.768227 -16.307625 33.175316 0.419538 2.084675 0.038201 -0.011352 39165.100000 0 0 1
-25.194568 -11.056727 -16.589625 32.128385 0.413546 2.113384 0.040761 -0.010893 189817.000000 0 0 1
-25.128508 -9.885827 -15.806725 31.289360 0.374813 2.100386 0.038514 -0.019795 342725.000000 0 0 1
-23.756988 -9.139827 -15.925425 30.025823 0.367266 2.129858 0.047894 -0.019402 -113954.000000 0 0 1
-22.768588 -9.667527 -15.125025 28.993724 0.401531 2.119598 0.042181 -0.018276 -1417980.000000 0 0 1
-21.820688 -8.696827 -14.954425 27.846221 0.379263 2.137716 0.037869 -0.031854 -740246.000000 0 0 1
-20.700388 -9.187727 -14.002225 26.626729 0.417722 2.124535 0.012054 -0.010752 108462.000000 0 0 1
-19.946488 -10.323627 -14.457125 26.710449 0.477602 2.142723 0.004455 0.001455 743957.000000 0 0 1
-18.775988 -10.454527 -13.644325 25.455892 0.508051 2.136487 0.000154 0.006047 746676.000000 0 0 1
-17.788688 -11.563327 -14.165625 25.511034 0.576402 2.159489 0.010902 0.007457 445316.000000 0 0 1
-16.986488 -11.307027 -15.327225 25.520843 0.587297 2.215019 0.015710 -0.003693 108557.000000 0 0 1
-17.659588 -11.381327 -16.563325 26.753306 0.572488 2.238409 0.019659 -0.013603 -196954.000000 0 0 1
-16.815688 -10.778627 -17.698425 26.686708 0.570013 2.295873 0.014157 -0.010600 177547.000000 0 0 1
-17.387688 -11.171827 -18.966825 28.051414 0.571094 2.313314 0.026500 -0.011040 559519.000000 0 0 1
-16.988188 -10.219927 -19.967425 28.137937 0.541588 2.359764 0.027935 -0.010458 63284.800000 0 0 1
-17.784988 -10.450427 -21.300125 29.651518 0.531251 2.372222 0.031661 -0.006021 236395.000000 0 0 1
-19.084588 -9.892827 -21.168625 30.169524 0.478233 2.348515 0.025700 -0.006704 -368423.000000 0 0 1
-19.941088 -10.614727 -21.987125 31.523849 0.489156 2.342665 0.025533 0.006273 -344255.000000 0 0 1
-21.178788 -9.807127 -22.437325 32.375212 0.433664 2.336494 0.015913 0.002469 -108450.000000 0 0 1
-20.910588 -8.713227 -23.276025 32.479937 0.394811 2.369751 0.012891 -0.004884 941892.000000 0 0 1
-22.098688 -8.365327 -24.018425 33.692958 0.361874 2.364367 0.000340 -0.008839 577157.000000 0 0 1
-21.745588 -7.485227 -25.176105 34.098907 0.331515 2.401381 0.001513 -0.006994 380235.000000 0 0 1
-20.867688 -8.158927 -26.110415 34.406137 0.372710 2.432401 0.011993 -0.006570 629385.000000 0 0 1
-20.312688 -7.295227 -27.111635 34.653519 0.344800 2.469247 0.006178 -0.011979 -260842.000000 0 0 1
-19.091488 -7.933927 -27.774375 34.624384 0.393860 2.501704 0.036872 -0.010951 -479342.000000 0 0 1
-19.391588 -9.107227 -28.517455 35.668200 0.439073 2.497293 0.041071 -0.003257 -274055.000000 0 0 1
-18.240088 -9.741627 -28.981135 35.602054 0.490537 2.521853 0.018499 0.001664 -619824.000000 0 0 1
-18.494988 -10.980027 -29.886025 36.821190 0.535756 2.517772 0.024816 0.000522 -125757.000000 0 0 1
-18.975288 -10.757227 -31.210705 38.077389 0.515731 2.531622 0.027426 0.004297 524131.000000 0 0 1
-18.627988 -11.895027 -31.997905 38.889067 0.568289 2.537116 0.003060 0.008624 -135837.000000 0 0 1
-19.308288 -11.864427 -33.424865 40.383118 0.550994 2.545782 -0.008059 0.006137 44547.200000 0 0 1
-18.731588 -10.954427 -34.347367 40.627743 0.529176 2.578141 0.000195 -0.000188 26849.700000 0 0 1
-19.101988 -11.077427 33.174821 39.851776 0.525516 0.587272 0.007252 -0.007425 18681.200000 0 0 1
-18.436288 -12.266427 32.351577 39.204419 0.587085 0.600236 0.010849 -0.008797 468397.000000 0 0 1
-17.061688 -12.033927 32.045807 38.247227 0.614287 0.577446 0.009752 -0.006311 694032.000000 0 0 1
-16.547188 -12.838827 30.945447 37.366638 0.659867 0.594985 0.014044 -0.002190 144004.000000 0 0 1
-16.579688 -14.399727 30.937197 37.938745 0.715146 0.617288 0.017146 0.004174 -139619.000000 0 0 1
-17.855488 -15.005527 30.654327 38.518464 0.698887 0.650412 0.017914 -0.001557 634857.000000 0 0 1
-17.877688 -16.422227 30.803277 39.219168 0.742990 0.667432 0.026034 -0.005027 -116693.000000 0 0 1
-18.153888 -16.896127 32.287897 40.713033 0.749529 0.654979 0.002251 -0.003443 -159461.000000 0 0 1
-17.146888 -16.447127 33.179857 40.809639 0.764571 0.621442 0.002784 -0.004772 186331.000000 0 0 1
-17.719288 -16.189327 34.449874 41.986442 0.740309 0.608511 -0.002984 -0.007111 526259.000000 0 0 1
-16.699488 -15.639527 -33.386035 40.473387 0.752633 2.540801 0.007102 -0.002733 420576.000000 0 0 1
-16.345088 -14.296027 -33.715805 40.103538 0.718625 2.569406 0.009583 -0.003482 -3145.860000 0 0 1
-15.205688 -13.801927 -33.035555 38.897995 0.737043 2.585429 0.012087 0.001996 140724.000000 0 0 1
-15.466188 -13.443327 -31.557355 37.627020 0.715540 2.565667 0.012989 0.003001 -385140.000000 0 0 1
-15.496288 -14.579627 -30.743885 37.388326 0.754929 2.536212 0.013484 0.000769 -91818.800000 0 0 1
-15.918888 -14.297027 -29.440425 36.394431 0.731774 2.513120 0.016113 0.001833 -443031.000000 0 0 1
-15.919688 -15.535727 -28.522375 36.170722 0.773192 2.479242 0.012829 0.009586 44101.300000 0 0 1
-14.646988 -15.917327 -28.057625 35.427756 0.826937 2.484821 0.029906 -0.009220 -182002.000000 0 0 1
-13.844088 -16.638527 -28.977885 36.169285 0.876816 2.500051 0.027060 -0.015435 -915850.000000 0 0 1
-12.554188 -17.058227 -28.302715 35.350168 0.936341 2.499157 0.049351 -0.014000 -569580.000000 0 0 1
-11.612688 -16.009727 -28.199545 34.443870 0.943257 2.529957 0.046735 -0.010050 219657.000000 0 0 1
-10.329788 -16.405027 -27.723895 33.829629 1.008844 2.531361 0.051183 -0.015376 824330.000000 0 0 1
-9.252588 -15.299927 -27.882045 33.122599 1.026894 2.571374 0.036539 -0.011132 2338.710000 0 0 1
-9.305788 -14.229227 -26.953825 31.868123 0.991621 2.578846 0.036347 -0.012640 -787757.000000 0 0 1
-8.066288 -13.664427 -26.697105 31.056674 1.037530 2.605332 0.031499 -0.015601 -682275.000000 0 0 1
-7.951488 -12.225027 -27.342845 30.988847 0.994121 2.651618 0.026104 -0.019043 -121330.000000 0 0 1
-7.643088 -12.255827 -28.766675 32.189186 1.013184 2.676266 0.041334 -0.011656 247601.000000 0 0 1
-7.604088 -10.961927 -29.342205 32.232763 0.964323 2.714859 0.035581 -0.010295 -592944.000000 0 0 1
-6.566288 -10.879227 -30.411575 32.959636 1.027762 2.745801 0.025584 0.001524 -1474770.000000 0 0 1
-5.235788 -11.112927 -30.061155 32.474354 1.130499 2.753649 0.028289 0.000536 -81212.600000 0 0 1
-4.304188 -10.811627 -31.086955 33.193615 1.191923 2.783406 0.027125 0.003927 175850.000000 0 0 1
-4.076288 -9.257627 -31.307095 32.900668 1.156024 2.829080 0.016692 0.000990 -927410.000000 0 0 1
-2.900488 -8.939327 -32.012705 33.363718 1.257050 2.856041 0.012933 -0.004439 58757.700000 0 0 1
-3.113588 -7.598727 -32.395805 33.420402 1.181912 2.893336 0.009441 -0.009481 251901.000000 0 0 1
-1.825488 -6.880027 -32.871905 33.633752 1.311441 2.928345 0.011598 -0.013153 484905.000000 0 0 1
-1.173488 -7.231727 -34.123395 34.901018 1.409929 2.930103 0.015018 -0.017868 -193730.000000 0 0 1
-0.135288 -6.354527 -34.406249 34.988402 1.549510 2.958919 0.006498 -0.004963 -727977.000000 0 0 1
0.717412 -6.821127 33.350248 34.048223 -1.466007 0.202830 0.005951 0.000050 -255750.000000 0 0 1
0.059312 -6.761627 32.081237 32.786108 -1.562025 0.207733 0.004584 0.000663 617543.000000 0 0 1
0.757412 -7.590227 31.133587 32.054414 -1.471338 0.240273 0.005143 0.001643 3150.830000 0 0 1
0.332412 -7.207727 29.728927 30.592008 -1.524710 0.238102 0.013777 0.009833 321302.000000 0 0 1
0.999812 -6.004727 29.255147 29.881767 -1.405806 0.205152 0.010920 0.006368 575271.000000 0 0 1
0.637612 -5.692027 27.880217 28.462470 -1.459243 0.202618 0.005641 0.009919 281109.000000 0 0 1
-0.617988 -4.787927 27.715187 28.132503 1.442434 0.172457 0.018476 0.011217 821523.000000 0 0 1
-1.893788 -5.427127 27.729347 28.318842 1.235059 0.204397 0.027167 0.012734 -38494.800000 0 0 1
-2.835788 -4.476727 27.304547 27.814044 1.006143 0.191699 0.021567 0.006067 303169.000000 0 0 1
-4.339888 -4.814627 27.490567 28.244407 0.837210 0.231558 0.022446 0.004006 507549.000000 0 0 1
-4.912788 -5.818827 26.647957 27.714759 0.869626 0.278358 0.022191 0.011108 -322853.000000 0 0 1
-6.242488 -6.028627 27.050107 28.408120 0.767972 0.310450 0.023495 0.001728 96206.200000 0 0 1
-6.483988 -7.557527 27.016337 28.793068 0.861704 0.353135 0.025992 0.001471 104708.000000 0 0 1
-5.626688 -8.212727 27.921697 29.643375 0.970128 0.342493 0.021462 0.000390 -134938.000000 0 0 1
-5.803688 -9.606027 27.958147 30.126675 1.027315 0.381735 0.021983 -0.003941 -79110.900000 0 0 1
-4.969288 -10.280227 29.035487 31.199942 1.120530 0.374676 0.022676 -0.011406 -128765.000000 0 0 1
-5.404488 -11.619627 29.184757 31.874351 1.135442 0.413752 0.037641 -0.017547 391774.000000 0 0 1
-4.758188 -12.277927 30.280747 33.019865 1.201077 0.410187 0.035911 -0.012584 -228302.000000 0 0 1
-4.823688 -13.857827 30.091577 33.478506 1.235829 0.453697 0.035450 -0.019090 995626.000000 0 0 1
-6.164088 -14.418627 30.008577 33.858640 1.166803 0.481524 0.042692 -0.021008 892736.000000 0 0 1
-6.258888 -15.833627 30.043737 34.532645 1.194356 0.515574 0.042214 -0.021282 -1584.070000 0 0 1
-6.292388 -16.381627 31.454667 36.018716 1.204061 0.508888 0.046519 -0.019581 -904931.000000 0 0 1
-7.544988 -16.471527 32.026447 36.795806 1.141258 0.514817 0.054096 -0.018615 -1050870.000000 0 0 1
-7.579688 -16.696327 33.423796 38.123079 1.144643 0.501767 0.053224 -0.009455 -799534.000000 0 0 1
-8.929388 -17.125827 33.993969 39.097543 1.090177 0.516677 0.061964 -0.009196 -105427.000000 0 0 1
-9.471388 -18.396527 33.541216 39.410057 1.095342 0.552752 0.046971 -0.008315 503692.000000 0 0 1
-9.958988 -18.423927 32.185697 38.399761 1.075240 0.576869 0.039071 -0.016537 -706788.000000 0 0 1
-10.702388 -19.678927 31.757397 38.863010 1.072687 0.614325 0.025931 -0.019646 -711538.000000 0 0 1
-11.758088 -19.993827 32.622327 40.027765 1.039183 0.618080 0.037054 -0.018272 -160091.000000 0 0 1
-12.194788 -21.365927 32.526567 40.782266 1.052155 0.647546 0.027200 -0.016012 -211722.000000 0 0 1
-11.486788 -22.317527 33.546475 41.897307 1.095460 0.642361 0.027660 -0.017490 726369.000000 0 0 1
-10.049188 -22.403527 33.342702 41.408212 1.149146 0.634751 0.012263 -0.015231 1214180.000000 0 0 1
-9.363588 -23.080227 34.408888 42.477585 1.185388 0.626562 0.018724 -0.022357 345019.000000 0 0 1
-9.815088 -24.506427 -34.212039 43.213013 1.189850 2.484394 0.024848 -0.009978 -509474.000000 0 0 1
-9.318388 -25.397237 33.728591 43.237366 1.219141 0.676003 0.025119 -0.014896 5671.230000 0 0 1
-9.871688 -26.694897 33.886773 44.253600 1.216595 0.698604 0.035321 -0.022223 -370545.000000 0 0 1
-9.360188 -27.724007 32.808607 43.961783 1.245192 0.728313 0.013338 -0.011314 1071330.000000 0 0 1
-7.927188 -27.868277 32.806127 43.768975 1.293664 0.723446 0.020623 -0.006775 1024760.000000 0 0 1
-7.301388 -28.643387 33.845499 44.936307 1.321205 0.717901 0.007450 -0.011990 -407868.000000 0 0 1
-5.762688 -28.676107 33.792765 44.693162 1.372480 0.713454 0.005848 -0.008906 362146.000000 0 0 1
-5.144988 -27.408937 34.119182 44.066306 1.385244 0.685237 0.012725 -0.004602 192388.000000 0 0 1
-4.874788 -26.636937 32.990310 42.680798 1.389791 0.687312 0.044114 -0.002774 -246539.000000 0 0 1
-4.762888 -25.085757 33.233297 41.909812 1.383165 0.655125 0.036078 -0.019178 205119.000000 0 0 1
-3.545588 -24.685327 33.830197 42.028785 1.428141 0.635240 0.028020 -0.015427 -51643.700000 0 0 1
-3.578188 -23.313127 34.198667 41.543401 1.418501 0.603766 0.022878 -0.011492 -23566.400000 0 0 1
34.143137 -15.367627 2.457375 37.522746 -0.422932 1.505259 0.049002 -0.027966 -249238.000000 0 0 1
34.792073 -16.132627 3.482675 38.508168 -0.434177 1.480233 0.025333 -0.028184 22512.500000 0 0 1
33.950657 -16.653527 4.458675 38.077117 -0.456036 1.453431 0.047673 -0.025124 -142500.000000 0 0 1
34.809436 -16.868727 5.717875 39.101725 -0.451254 1.424039 0.039690 -0.013901 274099.000000 0 0 1
-35.011354 -17.822827 5.561575 39.678447 0.470868 1.430167 0.042052 -0.012327 -365179.000000 0 0 1
-34.223953 -17.820227 6.709075 39.164411 0.480066 1.398642 0.036894 -0.000127 149507.000000 0 0 1
-32.927358 -18.678727 6.593875 38.426357 0.516006 1.398345 0.023772 -0.002634 -484.001000 0 0 1
-33.121268 -20.094727 6.620175 39.301949 0.545333 1.401545 0.039845 -0.007031 554691.000000 0 0 1
-31.932418 -20.771727 7.051975 38.741119 0.576720 1.387748 0.020280 0.001042 485469.000000 0 0 1
-32.158168 -22.264827 7.322575 39.793095 0.605576 1.385725 0.008959 -0.010435 -283605.000000 0 0 1
-31.921178 -22.957427 6.135075 39.795027 0.623490 1.416012 0.028631 -0.014372 61444.900000 0 0 1
-32.474918 -24.246227 6.257675 41.008027 0.641331 1.417601 0.038098 -0.018149 -45800.400000 0 0 1
-31.956358 -25.284907 5.216975 41.082261 0.669372 1.443464 0.030657 -0.011343 119211.000000 0 0 1
-32.401018 -24.978927 3.911675 41.098345 0.656763 1.475474 0.033082 -0.014685 167295.000000 0 0 1
-31.720698 -25.854967 3.069275 41.037817 0.683870 1.495935 0.023415 -0.008507 -176393.000000 0 0 1
-32.243848 -25.672337 1.639675 41.248311 0.672416 1.531035 0.042136 -0.007561 59941.100000 0 0 1
-33.549138 -26.132127 1.339475 42.546761 0.661755 1.539309 0.038166 -0.002479 47827.000000 0 0 1
-34.127111 -25.451457 0.259375 42.573509 0.640797 1.564704 0.038236 -0.001456 -655031.000000 0 0 1
-35.157091 -24.425227 0.608875 42.813356 0.607191 1.556574 0.048558 -0.001355 -1081590.000000 0 0 1
34.388077 -24.860027 0.298075 42.434062 -0.625947 1.563772 0.034749 -0.002873 -527180.000000 0 0 1
33.485807 -23.910327 0.779075 41.153493 -0.620089 1.551864 0.049724 -0.003614 756269.000000 0 0 1
31.961217 -24.022127 0.426675 39.984547 -0.644526 1.560125 0.025188 0.002099 1114160.000000 0 0 1
31.623507 -23.624827 -0.909225 39.484241 -0.641620 1.593826 0.028103 -0.008166 1159130.000000 0 0 1
30.212167 -23.772727 -1.212625 38.462814 -0.666677 1.602329 0.023393 -0.005046 1379930.000000 0 0 1
29.914987 -23.375027 -2.696325 38.060064 -0.663285 1.641700 0.012063 0.005376 -69609.900000 0 0 1
30.266537 -22.072127 -3.071425 37.585578 -0.630094 1.652606 0.023944 -0.010258 60680.100000 0 0 1
30.095467 -21.895027 -4.479525 37.485937 -0.628957 1.690581 0.020110 -0.024753 2546.470000 0 0 1
30.136257 -20.387827 -4.785925 36.698263 -0.594794 1.701582 0.026474 -0.025050 521545.000000 0 0 1
29.067117 -19.781327 -4.057425 35.392950 -0.597546 1.685688 0.027488 -0.028004 177232.000000 0 0 1
28.944927 -18.398927 -4.292525 34.565229 -0.566223 1.695304 0.023836 -0.022239 -7775.120000 0 0 1
28.030217 -17.927027 -3.117825 33.418441 -0.569002 1.664229 0.030382 -0.022034 -117535.000000 0 0 1
28.525017 -17.629227 -1.823325 33.582596 -0.553569 1.625117 0.030384 -0.017480 446764.000000 0 0 1
29.299217 -18.714727 -1.169525 34.785815 -0.568422 1.604423 0.031823 -0.014475 786494.000000 0 0 1
28.419967 -20.036827 -0.822025 34.782822 -0.614091 1.594432 0.020217 -0.009003 641459.000000 0 0 1
27.429427 -19.685427 0.131675 33.762506 -0.622490 1.566896 0.019416 -0.001012 41507.500000 0 0 1
26.647417 -20.864527 0.333775 33.845601 -0.664279 1.560934 0.015320 0.000264 -277185.000000 0 0 1
25.478447 -20.640327 1.288275 32.815149 -0.680875 1.531528 0.014667 0.007302 -912885.000000 0 0 1
24.620447 -21.717527 1.497975 32.864286 -0.722833 1.525200 0.016220 0.010855 -195000.000000 0 0 1
23.832747 -21.588827 2.658075 32.266742 -0.736036 1.488325 0.017382 0.007175 585354.000000 0 0 1
22.445347 -20.869227 2.516375 30.751429 -0.749026 1.488875 0.011908 0.007245 -222310.000000 0 0 1
22.461647 -19.465827 2.167375 29.801703 -0.714067 1.498006 0.030611 0.000260 153661.000000 0 0 1
22.743947 -18.616527 3.251675 29.570857 -0.685936 1.460611 0.032711 0.004185 -255991.000000 0 0 1
22.767547 -17.152327 2.715875 28.634586 -0.645653 1.475808 0.028315 0.006797 525812.000000 0 0 1
21.507747 -16.806527 2.125275 27.378081 -0.663307 1.493091 0.030105 0.002769 367130.000000 0 0 1
21.413147 -15.506827 1.566475 26.484682 -0.626766 1.511615 0.036179 -0.005241 519596.000000 0 0 1
19.995147 -15.073727 1.088275 25.064068 -0.645973 1.527363 0.019809 -0.004203 624341.000000 0 0 1
18.940547 -15.017227 2.046075 24.257944 -0.670373 1.486349 0.028972 -0.008135 414229.000000 0 1 0
17.978147 -14.009727 1.872675 22.869043 -0.661969 1.488818 0.027846 -0.009204 -341716.000000 0 1 0
18.361547 -12.583327 2.261975 22.374160 -0.600798 1.469526 0.033823 -0.010897 -400797.000000 0 1 0
19.333547 -11.967227 1.414075 22.781575 -0.554264 1.508685 0.028491 -0.010622 631861.000000 0 1 0
19.775147 -10.768727 2.078075 22.612835 -0.498656 1.478768 0.028108 -0.012909 53444.200000 0 1 0
20.654547 -9.970727 1.048075 22.959185 -0.449743 1.525131 0.027166 -0.015264 24781.500000 0 1 0
19.951147 -9.530027 -0.080625 22.110544 -0.445623 1.574443 0.026317 -0.015014 207553.000000 0 1 0
20.871247 -9.122727 -1.045925 22.801909 -0.412071 1.616682 0.030894 -0.010500 -630551.000000 0 1 0
20.265847 -8.624727 -2.364425 22.151320 -0.402361 1.677740 0.038730 -0.007850 -137551.000000 0 1 0
21.151547 -8.076527 -3.352925 22.887995 -0.364755 1.717818 0.035715 -0.009058 732783.000000 0 1 0
22.199747 -8.895727 -3.865325 24.226090 -0.381121 1.731033 0.030786 -0.004019 -206336.000000 0 1 0
21.708247 -10.059027 -4.769925 24.396397 -0.433920 1.767582 0.017385 -0.002474 -427449.000000 0 1 0
21.114347 -9.755727 -6.013025 24.023870 -0.432823 1.823780 0.014413 -0.003455 920358.000000 0 1 0
19.754547 -9.306827 -5.975025 22.639790 -0.440281 1.837877 0.012044 -0.002300 532443.000000 0 1 0
19.092947 -8.971927 -7.399625 22.355996 -0.439285 1.908150 0.016980 -0.003950 -18892.200000 0 1 0
18.879847 -10.217727 -8.136625 22.957683 -0.496060 1.933088 0.013520 -0.007906 1312260.000000 0 1 0
20.039147 -10.789627 -8.806325 24.403582 -0.493915 1.939988 0.018915 -0.006689 537728.000000 0 1 0
19.770647 -12.188027 -9.334525 25.031177 -0.552442 1.952946 0.007366 -0.009406 -239326.000000 0 0 1
18.927847 -12.258527 -10.475525 24.865066 -0.574718 2.005669 0.028302 -0.013265 320508.000000 0 1 0
18.750047 -13.587727 -10.773225 25.539243 -0.627096 2.006259 0.027879 -0.009664 -169744.000000 0 0 1
17.635147 -13.759127 -11.841325 25.308673 -0.662557 2.057682 0.020299 -0.009635 39732.000000 0 0 1
17.443747 -15.134027 -12.071125 26.058303 -0.714618 2.052439 0.023905 -0.013409 164575.000000 0 0 1
16.370947 -15.338227 -12.960525 25.908383 -0.752841 2.094677 0.026654 -0.016261 -260357.000000 0 0 1
16.282147 -16.825927 -13.407425 26.981089 -0.801821 2.090841 0.025705 -0.010694 -237978.000000 0 0 1
15.687047 -17.705127 -12.469325 26.740214 -0.845760 2.055915 0.025177 -0.011098 281005.000000 0 0 1
15.752847 -19.001027 -12.902825 27.850926 -0.878590 2.052491 0.026038 -0.008493 101419.000000 0 0 1
14.779447 -19.953127 -12.093225 27.618932 -0.933268 2.024013 0.022702 -0.005404 917007.000000 0 0 1
13.445747 -19.827427 -12.594325 27.065328 -0.974894 2.054804 0.020462 -0.006664 -60224.400000 0 0 1
12.540447 -20.538127 -11.801025 26.801897 -1.022624 2.026735 0.012450 0.000709 667447.000000 0 0 1
11.053447 -20.375427 -12.289225 26.236649 -1.073738 2.058274 0.002580 -0.003649 330556.000000 0 0 1
10.194747 -20.985927 -11.403525 25.968873 -1.118581 2.025418 -0.001640 0.001750 -49252.300000 0 0 1
8.850747 -20.882427 -11.903725 25.614647 -1.169911 2.054118 -0.013520 -0.003571 633062.000000 0 0 1
7.735347 -21.450227 -11.031625 25.330704 -1.224693 2.021394 -0.015986 -0.000402 -670233.000000 0 0 1
7.734047 -22.855827 -10.947625 26.496317 -1.244507 1.996735 -0.006701 -0.000959 241956.000000 0 0 1
7.048947 -23.393127 -9.764025 26.310877 -1.278124 1.950992 -0.001958 -0.004362 406777.000000 0 0 1
7.046347 -24.917727 -9.634925 27.629258 -1.295207 1.927003 0.007830 -0.002688 1578090.000000 0 0 1
8.418047 -25.391587 -9.505925 28.389414 -1.250671 1.912232 0.001476 0.008490 1128760.000000 0 0 1
8.479547 -26.772047 -9.709725 29.714037 -1.264061 1.903683 0.005889 0.006020 -578117.000000 0 0 1
9.878147 -27.287627 -9.482825 30.530581 -1.223471 1.886621 0.002593 0.015347 -680240.000000 0 0 1
10.204147 -27.405697 -8.125125 30.351516 -1.214363 1.841802 0.004670 0.006546 993170.000000 0 0 1
11.613947 -27.726147 -8.011725 31.109657 -1.174120 1.831263 0.020323 0.014962 964455.000000 0 0 1
12.064547 -28.064397 -6.553725 31.242839 -1.164793 1.782133 0.018141 0.005517 -30814.100000 0 0 1
11.563747 -29.276277 -5.991625 32.042475 -1.194619 1.758894 0.020265 0.002413 -855462.000000 0 0 1
10.226447 -29.180497 -5.654225 31.433293 -1.233716 1.751661 0.023556 0.004120 -1132180.000000 0 0 1
9.776547 -30.399647 -4.810925 32.293411 -1.259642 1.720328 0.029919 -0.002122 -18173.000000 0 0 1
9.878547 -31.733467 -5.374425 33.667240 -1.269007 1.731116 0.046309 -0.002205 -370436.000000 0 0 1
8.851847 -32.065177 -6.262125 33.848855 -1.301447 1.756871 0.055689 0.000308 -25010.900000 0 0 1
9.118947 -33.539207 -6.749825 35.406126 -1.305325 1.762610 0.055884 0.001807 8906.660000 0 0 1
8.877647 -34.407868 -5.624425 35.977050 -1.318291 1.727774 0.043693 -0.000385 159193.000000 0 0 1
9.284347 33.308832 -5.828625 35.066369 1.298961 1.737788 0.045441 -0.002678 158206.000000 0 0 1
8.956947 32.419517 -4.552025 33.940726 1.301238 1.705319 0.044900 -0.001318 889647.000000 0 0 1
7.583347 32.039397 -4.427025 33.220907 1.338385 1.704454 0.046319 -0.007861 236904.000000 0 0 1
7.567347 31.053547 -3.424625 32.145226 1.331768 1.677535 0.038106 -0.008362 719373.000000 0 0 1
6.177647 30.319417 -3.300225 31.117870 1.369796 1.677052 0.031907 -0.004442 931935.000000 0 0 1
5.870447 29.500367 -4.422725 30.402209 1.374367 1.716788 0.027880 -0.009739 -72517.600000 0 0 1
5.256147 30.193387 -5.479525 31.133469 1.398441 1.747719 0.032194 -0.011500 -597352.000000 0 0 1
5.525147 29.663757 -6.907725 30.954521 1.386647 1.795848 0.041042 -0.010532 -225758.000000 0 0 1
4.686247 28.641397 -7.351025 29.938739 1.408615 1.818868 0.040769 -0.012717 -273735.000000 0 0 1
5.125847 27.344937 -6.955725 28.677552 1.385495 1.815789 0.028540 -0.011920 -332156.000000 0 0 1
4.243247 26.171567 -7.424425 27.533219 1.410063 1.843829 0.034655 -0.014322 448591.000000 0 0 1
2.901847 26.258457 -6.883625 27.300395 1.460732 1.825691 0.040383 -0.018135 -34487.300000 0 0 1
1.943647 26.689127 -7.758725 27.861893 1.498099 1.852998 0.049265 -0.019819 -482398.000000 0 0 1
1.529547 25.827587 -9.037125 27.405718 1.511644 1.906839 0.047931 -0.012241 448539.000000 0 0 1
2.652647 25.648377 -9.952925 27.639401 1.467739 1.939170 0.027702 -0.008732 999232.000000 0 0 1
2.292347 24.901187 -11.130625 27.371788 1.478997 1.989576 0.031152 -0.008229 -195258.000000 0 0 1
2.078747 23.368487 -10.895325 25.867267 1.482075 2.005566 0.041341 -0.010500 145417.000000 0 0 1
0.915847 22.995887 -10.187325 25.168059 1.530991 1.987526 0.049763 -0.011563 -490.711000 0 0 1
0.924647 21.592687 -10.150525 23.877443 1.528000 2.009879 0.024890 -0.011232 536.776000 0 1 0
-0.220553 21.037987 -9.257425 22.985766 -1.560313 1.985311 0.031961 -0.006732 -97951.200000 0 1 0
-1.478253 21.246987 -9.829825 23.457305 -1.501334 2.003197 0.040783 -0.001783 -76742.600000 0 1 0
-2.472653 20.416387 -9.178625 22.520880 -1.450272 1.990578 0.032324 -0.005617 918391.000000 0 1 0
-3.884053 20.447887 -9.821825 23.014565 -1.383084 2.011710 0.032361 -0.007072 -236105.000000 0 1 0
-4.817453 19.689787 -9.168825 22.247762 -1.330843 1.995580 0.021837 -0.014747 -569330.000000 0 1 0
-5.749953 19.209187 -10.111825 22.456710 -1.279951 2.037876 0.021254 -0.013622 -1048160.000000 0 1 0
-6.629253 18.064787 -9.574725 21.493229 -1.219083 2.032503 0.028751 -0.014398 -379104.000000 0 1 0
-7.651553 18.517387 -8.718025 21.850489 -1.178955 1.981206 0.040824 -0.011207 -496630.000000 0 1 0
-8.833153 18.769087 -9.452425 22.795867 -1.130926 1.998360 0.048653 -0.016401 -1558700.000000 0 1 0
-9.905853 19.191687 -8.518825 23.216743 -1.094310 1.946499 0.051890 -0.021294 -1167770.000000 0 1 0
-10.309153 18.134387 -7.785225 22.265317 -1.053871 1.928001 0.059062 -0.018299 -580733.000000 0 1 0
-11.195053 18.519387 -6.769225 22.674199 -1.027071 1.873962 0.054407 -0.011565 -431489.000000 0 1 0
-11.658453 17.407187 -5.860025 21.754760 -0.980663 1.843532 0.037937 -0.013115 -188321.000000 0 1 0
-12.446653 17.816387 -4.756725 22.247905 -0.961006 1.786265 0.050046 -0.011309 -189173.000000 0 1 0
-12.998953 16.662787 -4.231825 21.552949 -0.908296 1.768426 0.050888 -0.009145 -244878.000000 0 1 0
-14.174653 16.915587 -3.277625 22.311448 -0.873331 1.718233 0.036948 -0.013320 -45321.800000 0 1 0
-15.467753 17.068987 -3.828325 23.350756 -0.834572 1.735488 0.068899 -0.021164 161199.000000 0 1 0
-16.388253 17.331287 -2.787125 24.014921 -0.813358 1.687117 0.062262 -0.018294 -1034890.000000 0 1 0
-17.754953 17.632287 -3.327025 25.242920 -0.781932 1.702981 0.062274 -0.020199 -1177110.000000 0 0 1
-17.783453 18.857487 -4.015425 26.229367 -0.814702 1.724490 0.054981 -0.017119 638291.000000 0 0 1
-19.070153 19.193787 -4.553825 27.437375 -0.788629 1.737540 0.034367 -0.020953 556485.000000 0 0 1
-18.932053 19.864387 -5.895925 28.067391 -0.809425 1.782436 0.018036 -0.003090 -46020.600000 0 0 1
-18.435853 21.176787 -5.760125 28.662101 -0.854481 1.773141 0.017844 -0.014935 19308.300000 0 0 1
-18.471553 21.851387 -7.010625 29.458959 -0.869022 1.811081 0.010980 0.004828 -8205.800000 0 0 1
-18.413753 23.356187 -6.929625 30.538459 -0.903176 1.799705 0.011569 0.001104 287366.000000 0 0 1
-17.142953 23.937487 -6.655925 30.185849 -0.949310 1.793122 0.018960 -0.005140 287932.000000 0 0 1
-17.099053 24.575817 -5.429025 30.427335 -0.962917 1.750183 0.019182 -0.003825 168018.000000 0 0 1
-15.659153 24.986127 -5.042425 29.915576 -1.010965 1.740160 0.011200 -0.007937 -153316.000000 0 0 1
-15.844553 25.874667 -3.980325 30.600511 -1.021340 1.701240 0.010580 -0.012119 194066.000000 0 0 1
-14.704653 26.569077 -3.509325 30.568907 -1.065308 1.685850 0.013814 -0.004308 429704.000000 0 0 1
-14.038353 27.601227 -4.501025 31.291570 -1.100282 1.715138 0.014485 -0.006968 -168176.000000 0 0 1
-14.859353 28.734147 -4.574425 32.670735 -1.093537 1.711274 0.018166 -0.007229 -59109.200000 0 0 1
-14.300053 29.781457 -5.348925 33.466964 -1.123141 1.731312 0.008817 -0.011022 -491082.000000 0 0 1
-14.894153 31.153637 -4.959025 34.885195 -1.124832 1.713432 0.012846 -0.010705 -137831.000000 0 0 1
-16.262453 31.285957 -5.248225 35.648596 -1.091434 1.718554 0.028029 -0.007056 -522722.000000 0 0 1
-16.722853 32.212897 -4.317825 36.550898 -1.091958 1.689205 0.037345 -0.008262 -269870.000000 0 0 1
12.723512 -8.544727 18.802787 24.257884 -0.591389 0.683890 0.026454 -0.007139 -126237.000000 0 1 0
13.589912 -9.559427 19.233487 25.416439 -0.613018 0.712494 0.033099 -0.005218 34447.000000 0 0 1
13.540912 -10.652627 18.331787 25.157289 -0.666578 0.754394 0.025442 -0.009051 -111887.000000 0 0 1
13.944712 -11.913327 19.056887 26.448957 -0.707000 0.766251 0.038378 -0.018512 -221098.000000 0 0 1
15.279612 -12.056027 19.500887 27.551750 -0.668014 0.784430 0.031158 -0.014529 290525.000000 0 0 1
15.532512 -13.291127 20.146787 28.702021 -0.707792 0.792694 0.039640 -0.013740 -112774.000000 0 0 1
16.088712 -14.477127 19.292287 28.993555 -0.732722 0.842768 0.038065 -0.014406 -303588.000000 0 0 1
15.234912 -14.914327 18.251587 28.065284 -0.774765 0.862783 0.049624 -0.020952 304332.000000 0 0 1
15.727012 -16.118727 17.700687 28.643788 -0.797698 0.904652 0.051242 -0.022483 -431825.000000 0 0 1
15.094412 -16.457027 16.366787 27.686581 -0.828558 0.938318 0.047277 -0.026111 -220130.000000 0 0 1
13.685312 -16.309227 16.292287 26.808903 -0.872656 0.917611 0.068794 -0.021836 -9510.250000 0 0 1
13.207012 -16.248827 15.005487 25.760710 -0.888300 0.949001 0.078615 -0.029579 -463160.000000 0 0 1
12.620012 -17.597827 14.536887 26.081973 -0.948663 0.979601 0.041086 -0.012384 -280196.000000 0 0 1
13.535312 -18.616827 14.168187 27.028290 -0.942148 1.019023 0.034471 -0.014695 86780.700000 0 0 1
12.846312 -19.679927 13.553587 27.129817 -0.992482 1.047679 0.033907 -0.019301 -612027.000000 0 0 1
13.766612 -20.648627 12.858987 27.950652 -0.982765 1.092733 0.033831 -0.018145 -1056310.000000 0 0 1
14.581012 -21.264227 13.788687 29.238693 -0.969728 1.079703 0.033923 -0.019140 -467770.000000 0 0 1
14.845012 -22.600227 13.364987 30.162353 -0.989619 1.111741 0.008797 -0.016196 -178811.000000 0 0 1
15.531712 -23.562527 14.410087 31.687180 -0.988002 1.098693 -0.004380 -0.020128 135312.000000 0 0 1
16.873612 -23.143127 14.507587 32.105968 -0.940807 1.101941 -0.007356 -0.013772 -305136.000000 0 0 1
17.554412 -23.720527 15.599087 33.378920 -0.933693 1.084524 0.005956 -0.027709 351932.000000 0 0 1
18.982112 -23.125927 15.784787 33.827335 -0.883491 1.085322 -0.003726 -0.012310 147076.000000 0 0 1
19.970712 -23.864327 15.142987 34.607015 -0.873990 1.117902 -0.001418 -0.022610 228140.000000 0 0 1
21.220712 -23.134627 15.080487 34.827442 -0.828521 1.122971 -0.003629 -0.011753 955073.000000 0 0 1
22.380112 -23.999427 14.569087 35.904042 -0.820298 1.152966 -0.007114 -0.016178 -249939.000000 0 0 1
22.747312 -24.981317 15.453587 37.152655 -0.832170 1.141811 -0.002850 -0.015303 685032.000000 0 0 1
23.918712 -25.719907 15.059487 38.215266 -0.821668 1.165741 0.004039 -0.023409 396965.000000 0 0 1
24.367712 -26.861747 16.016987 39.646976 -0.834043 1.154922 0.005606 -0.026114 -327536.000000 0 0 1
24.848212 -26.338337 17.256587 40.111488 -0.814502 1.126065 0.011491 -0.014751 189858.000000 0 0 1
25.394912 -27.362437 18.081887 41.479624 -0.822675 1.119734 0.021016 -0.010634 11428.600000 0 0 1
25.749712 -26.838817 19.482087 41.987159 -0.806105 1.088290 0.008216 -0.001589 -424010.000000 0 0 1
24.626712 -26.435847 20.221787 41.403498 -0.820813 1.060532 0.019686 0.001941 -200042.000000 0 0 1
24.911212 -26.036787 21.555587 41.989595 -0.807487 1.031706 0.017641 0.008415 -68737.600000 0 0 1
23.648212 -25.848427 22.448187 41.608896 -0.829821 1.000948 0.019340 0.004360 92394.600000 0 0 1
23.028412 -27.091647 22.597287 42.129592 -0.866291 1.004659 0.028045 0.005208 -62877.100000 0 0 1
21.917212 -26.994807 23.469787 41.951337 -0.888838 0.977071 0.026175 0.010581 159271.000000 0 0 1
21.228712 -28.381847 23.679687 42.625287 -0.928597 0.981794 0.044822 0.012312 -94565.900000 0 0 1
22.094612 -29.300017 24.335287 44.032591 -0.924688 0.985237 0.030484 0.020294 652312.000000 0 0 1
21.965112 -30.576997 23.785687 44.532885 -0.947858 1.007336 0.037880 0.010575 -51810.000000 0 0 1
22.875112 -31.590627 24.534057 46.077743 -0.944071 1.009305 0.018590 0.015378 265737.000000 0 0 1
22.436412 -31.672247 25.895167 46.659228 -0.954459 0.982452 0.013630 0.016132 703098.000000 0 0 1
23.543412 -31.930567 26.752377 47.849170 -0.935452 0.977499 0.005829 0.018614 -74814.700000 0 0 1
23.150112 -32.510477 28.102477 48.811966 -0.952008 0.957301 0.006084 0.008894 -64805.100000 0 0 1
22.717812 -33.828997 28.195697 49.552975 -0.979422 0.965506 0.005098 0.006495 83143.800000 0 0 1
21.453312 -34.183878 27.679797 48.938260 -1.010340 0.969628 -0.000056 0.013582 -382537.000000 0 0 1
21.024012 33.503909 28.117717 48.529651 1.010395 0.952813 0.016862 -0.013797 -349401.000000 0 0 1
20.561712 33.703746 29.412807 49.232507 1.023004 0.930508 0.000967 -0.015281 -212198.000000 0 0 1
19.947212 32.511027 29.822487 48.417341 1.020472 0.907210 -0.000453 -0.020051 -204211.000000 0 0 1
19.550012 32.659187 31.308397 49.285304 1.031402 0.882467 -0.007061 -0.025462 -8288.120000 0 0 1
20.704612 32.844817 32.112437 50.385232 1.008340 0.879757 -0.008123 -0.015683 -46511.900000 0 0 1
20.462512 32.903607 33.484672 51.211181 1.014435 0.858128 -0.014986 -0.016128 -271590.000000 0 0 1
21.759212 32.879407 34.337059 52.283385 0.986179 0.854297 -0.015064 -0.005304 213216.000000 0 0 1
22.207212 31.571587 -34.397334 51.702050 0.957797 2.298691 -0.005763 -0.002240 -200733.000000 0 0 1
23.346412 31.438507 -33.581235 51.586181 0.932044 2.279662 -0.010065 0.010219 -131572.000000 0 0 1
23.785812 29.951177 -33.419265 50.790601 0.899631 2.288931 0.006008 0.003401 -338965.000000 0 0 1
24.123612 29.315417 34.286197 51.155505 0.882248 0.836271 0.015837 -0.006368 460663.000000 0 0 1
23.152812 28.300557 34.088746 49.990168 0.885113 0.820427 0.021003 -0.018010 -138475.000000 0 0 1
23.450212 27.557837 32.810537 48.845452 0.865754 0.834266 0.058699 -0.026568 -342853.000000 0 0 1
24.650412 26.847837 32.888207 49.092600 0.828042 0.836693 0.054311 -0.026685 -165684.000000 0 0 1
25.085812 26.346387 31.651467 48.220799 0.809903 0.854778 0.068873 -0.042334 -283459.000000 0 0 1
26.422212 25.586447 31.760767 48.595740 0.769330 0.858503 0.062338 -0.032889 -175705.000000 0 0 1
26.369112 24.548007 32.702987 48.656141 0.749647 0.833722 0.076787 -0.032590 120326.000000 0 0 1
27.286812 24.816587 33.752894 49.996910 0.738024 0.829697 0.069965 -0.033583 -667765.000000 0 0 1
27.022012 23.970887 -33.860255 49.510700 0.725635 2.323888 0.048315 -0.028833 -643475.000000 0 0 1
26.009312 24.368137 -32.995705 48.569609 0.752832 2.317671 0.034984 -0.019159 1468830.000000 0 0 1
24.640512 24.257587 -33.514535 48.154018 0.777567 2.340589 0.042163 -0.016185 1275720.000000 0 0 1
23.999212 22.832287 -33.616435 47.194705 0.760486 2.363555 0.038362 -0.018178 -627390.000000 0 0 1
23.767212 22.151087 -32.377115 45.867511 0.750217 2.354466 0.011361 -0.022769 401037.000000 0 0 1
23.692512 20.735887 -32.549625 45.285651 0.718948 2.372817 0.016699 -0.009448 -267688.000000 0 0 1
23.623912 19.819787 -31.322385 43.954579 0.698056 2.364005 0.009154 -0.014893 -80985.700000 0 0 1
22.424412 19.901287 -30.562025 42.812999 0.725856 2.365776 -0.001619 -0.006816 382810.000000 0 0 1
22.410312 19.048787 -29.442955 41.616895 0.704495 2.356717 -0.006581 -0.004163 545387.000000 0 0 1
21.172312 19.380387 -28.529685 40.469855 0.741239 2.353165 0.005065 -0.010806 362544.000000 0 0 1
21.176512 18.722887 -27.285055 39.286962 0.723980 2.338530 0.005606 -0.005611 -128872.000000 0 0 1
22.030612 19.269787 -26.319945 39.362572 0.718650 2.303194 0.001339 0.004876 -368642.000000 0 0 1
22.189312 18.524587 -24.940825 38.178144 0.695628 2.282698 0.009160 0.002904 207625.000000 0 0 1
22.936512 17.293387 -25.046225 38.111130 0.646036 2.287880 0.010001 -0.012905 343140.000000 0 0 1
22.956412 16.629387 -23.782925 37.002174 0.626908 2.268871 0.013308 -0.003911 -604002.000000 0 0 1
24.046912 15.580487 -23.633525 37.142281 0.574912 2.260485 0.026024 -0.008147 -152795.000000 0 0 1
25.368512 16.155587 -23.490025 38.162097 0.567066 2.233858 0.040500 -0.013789 1185830.000000 0 0 1
26.389312 15.161187 -23.336025 38.351368 0.521473 2.224940 0.040030 -0.022526 256398.000000 0 0 1
26.351012 14.238487 -22.126925 37.238571 0.495396 2.207059 0.047616 -0.018646 -681268.000000 0 0 1
25.175912 13.433987 -22.093225 36.088906 0.490169 2.229622 0.040487 -0.017200 173576.000000 0 0 1
24.976812 12.759587 -20.872225 34.961378 0.472296 2.210563 0.025531 -0.018241 -196916.000000 0 0 1
23.510612 12.298687 -20.815625 33.723832 0.481966 2.236023 0.026408 -0.013653 52640.700000 0 0 1
22.597212 13.378887 -20.702925 33.440091 0.534560 2.238399 0.038577 -0.011847 -526035.000000 0 0 1
21.332312 12.976787 -21.148225 32.721735 0.546512 2.273529 0.032916 -0.014146 -442813.000000 0 0 1
20.282712 14.069087 -20.952125 32.377757 0.606451 2.274590 0.037699 -0.013354 -724917.000000 0 0 1
20.526812 15.183787 -21.802125 33.574247 0.636880 2.277553 0.027166 -0.004081 320676.000000 0 0 1
19.547512 16.201087 -21.741625 33.425719 0.692060 2.278968 0.025355 -0.001060 38047.400000 0 0 1
18.252612 16.016787 -22.560225 33.146026 0.720248 2.319420 0.031613 0.007791 431885.000000 0 0 1
17.300512 15.073887 -22.013225 31.797985 0.716729 2.335445 0.036594 -0.003489 375887.000000 0 0 1
16.177412 14.971887 -22.852425 31.750581 0.746716 2.374236 0.042801 -0.016233 -339222.000000 0 0 1
15.053112 14.117587 -22.255625 30.351529 0.753338 2.393903 0.032301 -0.018639 59396.200000 0 0 1
13.903412 14.253287 -23.059125 30.466117 0.797824 2.429319 0.033087 -0.018072 -137031.000000 0 0 1
12.745512 13.567587 -22.601825 29.280881 0.816630 2.452616 0.040889 -0.019103 1029370.000000 0 0 1
11.481412 13.868487 -23.504625 29.607856 0.879286 2.487934 0.037166 -0.019158 486775.000000 0 0 1
11.077812 15.224887 -23.330625 29.980546 0.941778 2.462578 0.021379 -0.022429 -238767.000000 0 0 1
10.434812 15.643887 -24.473925 30.864049 0.982548 2.486447 0.038485 -0.020819 -933268.000000 0 0 1
10.490412 17.174187 -24.675425 31.841452 1.022456 2.457427 0.029921 -0.018420 482371.000000 0 0 1
11.739312 17.903487 -24.667725 32.662562 0.990425 2.426800 0.031636 -0.009741 631462.000000 0 0 1
12.741912 17.540287 -25.613085 33.556640 0.942547 2.439170 0.036682 -0.014058 -107092.000000 0 0 1
12.521012 17.650987 -27.156225 34.724539 0.953812 2.468740 0.045338 -0.013749 -1054850.000000 0 0 1
13.609112 17.128187 -27.873095 35.432925 0.899391 2.476151 0.030258 -0.010713 -331295.000000 0 0 1
13.341212 17.111087 -29.250945 36.419706 0.908568 2.503381 0.034987 -0.022155 -806920.000000 0 0 1
14.425712 17.746087 -30.106845 37.808027 0.888242 2.491964 0.020985 -0.012648 -1076060.000000 0 0 1
15.498912 16.910287 -30.272005 37.981158 0.828919 2.493153 0.001558 -0.011175 -1160420.000000 0 0 1
16.296112 17.281387 -31.349205 39.331695 0.814733 2.493186 0.000879 -0.003074 -45398.500000 0 0 1
17.492112 16.330587 -31.617545 39.652632 0.751070 2.493709 0.012536 -0.002999 -450839.000000 0 0 1
18.502812 16.429087 -30.646405 39.388718 0.726103 2.462353 0.012931 -0.009907 348715.000000 0 0 1
19.698412 15.732887 -30.977005 39.939029 0.673940 2.458473 0.011449 -0.008075 150938.000000 0 0 1
20.760412 16.521487 -31.739585 41.368533 0.672185 2.445323 0.014768 -0.006577 -907711.000000 0 0 1
20.430512 16.985487 -33.003265 42.368952 0.693583 2.463785 0.005935 -0.001025 53198.500000 0 0 1
21.525012 17.758587 -33.430475 43.546414 0.689813 2.446037 0.012577 -0.001035 -219345.000000 0 0 1
21.433312 18.281187 34.056486 44.197657 0.706195 0.691093 0.014175 0.012459 -363738.000000 0 0 1
22.467512 19.154387 33.704822 44.807306 0.705965 0.719376 0.024271 0.005219 -60859.700000 0 0 1
22.329212 19.522387 32.358137 43.894947 0.718432 0.741920 0.035726 0.007438 -327768.000000 0 0 1
23.221212 20.706787 31.934457 44.584810 0.728221 0.772364 0.051201 -0.002049 36573.000000 0 0 1
24.580912 20.347587 31.808627 45.055902 0.691452 0.786988 0.051295 -0.011610 117352.000000 0 0 1
25.484612 21.415587 31.602527 45.900028 0.698856 0.811367 0.056614 -0.029256 -92099.000000 0 0 1
26.950512 21.026587 31.445227 46.446203 0.662546 0.827084 0.054869 -0.033619 -503360.000000 0 0 1
27.499312 20.455087 32.584177 47.290077 0.639547 0.810650 0.046606 -0.027878 -294393.000000 0 0 1
28.862212 20.143987 32.450337 47.873081 0.609340 0.825974 0.045315 -0.018902 -211489.000000 0 0 1
29.533512 19.607587 33.709585 48.918524 0.586092 0.810555 0.027106 -0.018640 -89229.400000 0 0 1
29.676612 20.493287 -34.080753 49.620297 0.604358 2.327916 0.026928 -0.017768 638724.000000 0 0 1
28.547912 20.341287 -33.196245 48.277758 0.619087 2.328988 0.026154 -0.023383 370173.000000 0 0 1
28.791912 20.781287 -31.766015 47.643633 0.625191 2.300625 0.021480 -0.014552 -383864.000000 0 0 1
29.737212 19.944787 -31.168275 47.471651 0.590791 2.287053 0.021888 -0.019768 -83733.000000 0 0 1
30.122812 20.443087 -29.871815 47.091708 0.596258 2.257941 0.014519 -0.020875 -10638.900000 0 0 1
31.559812 20.023887 -29.478735 47.602244 0.565383 2.238611 0.028725 -0.011790 133140.000000 0 0 1
32.580012 20.686587 -30.175925 48.989576 0.565720 2.234408 0.005455 -0.013626 -461993.000000 0 0 1
33.816812 20.491087 -29.567295 49.372932 0.544778 2.212869 0.010134 -0.005299 379057.000000 0 0 1
35.113012 21.213087 -30.076695 50.867733 0.543456 2.203432 -0.000566 -0.004591 753199.000000 0 0 1
-35.346522 20.836287 -31.354195 51.639258 -0.532653 2.223300 0.003042 -0.006113 -852565.000000 0 0 1
-34.290522 21.606387 -31.781845 51.504966 -0.562257 2.235802 0.002023 -0.006173 -287187.000000 0 0 1
-33.398722 20.939687 -32.885445 51.336124 -0.560008 2.266064 -0.007196 -0.006295 896971.000000 0 0 1
-32.408322 19.953287 -32.461065 50.021533 -0.551872 2.276989 0.009242 -0.001646 991384.000000 0 0 1
-31.711022 19.445187 -33.593015 50.121800 -0.550069 2.305312 0.019582 0.001869 111059.000000 0 0 1
-30.841722 18.164887 -33.344575 48.918663 -0.532271 2.320788 0.009318 0.008393 331268.000000 0 0 1
-31.623322 16.999887 -33.115985 48.843619 -0.493253 2.315835 0.017587 0.005268 -17723.500000 0 0 1
-30.878422 15.862687 -33.306955 48.108783 -0.474559 2.335504 0.009775 0.011094 -188028.000000 0 0 1
-31.803322 14.626287 -33.203305 48.247684 -0.431055 2.329780 0.018372 0.009557 486610.000000 0 0 1
-31.124222 13.377287 -33.320385 47.517545 -0.405932 2.347907 0.030499 0.002002 -392364.000000 0 0 1
-32.098322 12.418987 -33.454155 47.997021 -0.369166 2.342008 0.044141 -0.003257 -538781.000000 0 0 1
-31.623222 10.941587 -33.409405 47.285673 -0.333106 2.355399 0.051370 -0.002239 -192875.000000 0 0 1
-31.005822 10.492687 34.319785 47.426840 -0.326313 0.761740 0.028985 -0.003788 92440.600000 0 0 1
-31.490722 9.218587 33.977238 47.234528 -0.284783 0.767958 0.047177 -0.011003 11605.200000 0 0 1
-30.652422 8.498387 32.875029 45.744520 -0.270457 0.768914 0.044889 -0.012302 -216037.000000 0 0 1
-29.371122 8.188987 33.329335 45.172634 -0.271906 0.740959 0.021220 -0.009235 -746563.000000 0 0 1
-28.582122 7.626887 32.326017 43.818700 -0.260765 0.741107 0.013048 -0.005196 -203180.000000 0 0 1
20.600012 -4.389927 -32.171755 38.453267 -0.209962 2.561926 0.021873 -0.020241 628735.000000 0 0 1
21.970312 -4.269727 -32.587795 39.533398 -0.191948 2.539780 0.007638 -0.019688 563098.000000 0 0 1
22.607012 -3.178227 -31.997995 39.307122 -0.139671 2.521889 0.017106 -0.015708 -245507.000000 0 0 1
22.492312 -1.772327 -32.589275 39.637181 -0.078635 2.536043 0.016129 -0.011925 -276668.000000 0 0 1
23.412512 -0.798127 -32.069835 39.714696 -0.034077 2.510707 0.021272 -0.010562 502188.000000 0 0 1
23.211212 0.433173 -32.711925 40.112567 0.018660 2.524394 0.015726 -0.015665 -176562.000000 0 0 1
24.178312 1.519073 -32.207365 40.301523 0.062745 2.496693 0.030132 -0.005276 18230.600000 0 0 1
25.497812 1.383273 -32.700725 41.489629 0.054198 2.478620 0.035579 -0.003280 -112733.000000 0 0 1
26.313012 2.278373 -31.908575 41.421284 0.086372 2.450174 0.040299 0.006158 -562282.000000 0 0 1
27.795612 2.297073 -32.229785 42.621962 0.082454 2.428249 0.045887 -0.000136 -562902.000000 0 0 1
28.109212 2.745973 -33.559565 43.862428 0.097380 2.442008 0.049083 -0.013120 68269.200000 0 0 1
28.144812 1.625773 -34.446218 44.511971 0.057700 2.455716 0.045560 -0.014481 -382300.000000 0 0 1
28.345712 2.136873 33.022004 43.571761 0.075244 0.710745 0.034274 -0.023248 -250456.000000 0 0 1
27.340812 2.992073 32.555337 42.618335 0.109002 0.701491 0.032585 -0.021253 -6754.020000 0 0 1
27.742412 4.373073 32.689497 43.097197 0.156345 0.709778 0.049028 -0.021390 448515.000000 0 0 1
26.869712 5.444173 31.864317 42.035166 0.199907 0.710494 0.036903 -0.020506 361901.000000 0 0 1
27.027112 6.810273 32.233307 42.612565 0.246841 0.712963 0.034895 -0.026419 264275.000000 0 0 1
26.493012 7.779073 31.262597 41.710234 0.285600 0.723462 0.032522 -0.024432 -160517.000000 0 0 1
26.860112 9.210973 31.579417 42.468426 0.330357 0.732361 0.018695 -0.019891 107038.000000 0 0 1
28.256512 9.427573 31.628297 43.447195 0.322029 0.755439 0.030642 -0.021952 -9546.450000 0 0 1
28.471612 10.834373 31.834787 44.062115 0.363612 0.763388 0.028787 -0.023276 583364.000000 0 0 1
29.805312 11.257273 31.129747 44.543731 0.361130 0.796997 0.026504 -0.015751 568003.000000 0 0 1
30.998212 10.718473 31.684367 45.603442 0.332908 0.802682 0.043600 -0.017895 929010.000000 0 0 1
32.222712 11.194173 31.130167 46.181165 0.334357 0.831067 0.039640 -0.018014 744171.000000 0 0 1
32.748812 12.651073 31.411197 47.108361 0.368646 0.840909 0.043402 -0.011514 -547974.000000 0 0 1
32.917612 13.004573 32.804907 48.258160 0.376244 0.823334 0.049491 -0.011143 86484.300000 0 0 1
33.499612 14.246073 33.073873 49.183897 0.402092 0.833278 0.054413 -0.005525 -101968.000000 0 0 1
32.646312 15.539573 32.829737 48.836991 0.444262 0.833578 0.043299 -0.012899 -438634.000000 0 0 1
32.247412 15.709973 31.499717 47.738151 0.453331 0.850186 0.035844 -0.018279 922135.000000 0 0 1
31.186912 16.699073 31.393837 47.297521 0.491605 0.844972 0.032795 -0.025529 1286740.000000 0 0 1
29.732312 16.157773 31.532167 46.253233 0.497794 0.820673 0.023568 -0.016299 156276.000000 0 0 1
29.206412 15.321573 30.494747 44.918757 0.483130 0.824551 0.024312 -0.014364 634493.000000 0 0 1
27.937112 14.766373 30.829267 44.147160 0.486232 0.797735 0.017172 -0.013600 772823.000000 0 0 1
27.025512 14.103073 29.755587 42.598943 0.480969 0.797490 0.018370 -0.007524 343263.000000 0 0 1
27.560512 12.867073 29.282047 42.220631 0.436791 0.804393 0.019024 -0.012203 -92323.300000 0 0 1
26.769512 12.408873 28.240627 40.842624 0.434061 0.807302 0.020681 -0.022596 -497897.000000 0 0 1
26.607712 10.902473 28.186867 40.265789 0.388882 0.795370 0.022583 -0.008988 -350777.000000 0 0 1
27.562612 10.195373 27.443217 40.209121 0.354291 0.819602 0.028584 -0.011859 -104474.000000 0 0 1
27.157712 8.853973 27.309857 39.519140 0.315155 0.807850 0.029983 -0.013680 -214675.000000 0 0 1
28.309712 7.902773 26.953087 39.879350 0.272224 0.828658 0.038269 -0.020191 -214850.000000 0 0 1
28.739712 7.948073 25.620687 39.313643 0.269810 0.860973 0.038750 -0.015939 455425.000000 0 0 1
29.826512 7.024073 25.449737 39.832745 0.231283 0.877709 0.046116 -0.004138 243351.000000 0 0 1
30.554812 7.241673 24.139777 39.607666 0.232712 0.915401 0.042497 0.002971 -122090.000000 0 0 1
31.146612 8.547473 23.987167 40.231268 0.267833 0.931997 0.022104 -0.001512 572925.000000 0 0 1
30.270712 9.514673 23.409587 39.431634 0.304542 0.935178 0.021019 -0.003692 -103077.000000 0 0 1
29.715712 9.411673 21.991987 38.147747 0.306728 0.956364 0.018436 0.002427 211830.000000 0 0 1
30.678212 9.781373 21.003887 38.444652 0.308648 0.992807 0.011935 0.000747 560108.000000 0 0 1
30.130212 9.782773 19.706087 37.307669 0.313945 1.014311 0.015913 -0.002694 -854655.000000 0 0 1
30.992412 10.674173 18.785587 37.780496 0.331688 1.050393 0.024542 -0.016808 809297.000000 0 0 1
32.220312 10.045073 18.379887 38.430096 0.302212 1.072115 0.022487 -0.017175 226512.000000 0 0 1
33.260012 10.235973 19.276887 39.781930 0.298557 1.064932 0.032653 -0.011859 -1149010.000000 0 0 1
34.660812 9.961073 18.686587 40.617526 0.279846 1.092731 0.047507 -0.008445 -226828.000000 0 0 1
34.957712 8.593073 18.585087 40.512813 0.241034 1.094213 0.032835 -0.003135 124872.000000 0 0 1
-34.936522 8.347773 17.569387 39.986613 -0.234544 1.115886 0.038575 -0.002639 -284597.000000 0 0 1
-34.695722 6.859073 17.210287 39.332353 -0.195176 1.117912 0.035539 -0.004098 -197502.000000 0 0 1
35.018412 6.175873 16.703287 39.286517 0.174566 1.131651 0.024360 -0.007185 99732.100000 0 0 1
35.258612 4.800973 16.410887 39.185920 0.135332 1.138678 0.022464 -0.007684 -917744.000000 0 0 1
34.044412 3.930373 16.225987 37.917707 0.114940 1.128599 0.020827 -0.010971 -719252.000000 0 0 1
33.479712 3.463473 17.443087 37.909736 0.103083 1.092664 0.017379 -0.005168 52385.000000 0 0 1
32.311612 2.690773 17.307587 36.753682 0.083084 1.080477 0.021539 -0.006580 -104021.000000 0 0 1
32.086912 2.018073 18.614687 37.150358 0.062811 1.045969 0.023098 -0.005816 -224686.000000 0 0 1
32.896712 0.861973 18.827987 37.913451 0.026196 1.051114 0.013978 -0.007705 96853.400000 0 0 1
32.582612 0.108873 19.974187 38.217884 0.003341 1.020852 0.010681 -0.001350 177806.000000 0 0 1
33.217812 -1.311827 20.016887 38.804893 -0.039471 1.028815 0.005049 0.000731 308846.000000 0 0 1
32.723212 -2.025727 21.150487 39.016090 -0.061826 0.997866 0.018140 0.002359 112623.000000 0 0 1
33.174512 -3.378327 21.118687 39.471006 -0.101485 1.006238 0.020381 0.002412 -119647.000000 0 0 1
32.738512 -4.228127 22.310987 39.843034 -0.128437 0.976444 0.019858 0.006044 -1721.570000 0 0 1
33.214712 -3.737127 23.553587 40.889543 -0.112043 0.956933 0.017068 -0.003313 223093.000000 0 0 1
32.724212 -4.600227 24.576307 41.182897 -0.139660 0.931339 0.026992 0.001562 227360.000000 0 0 1
33.173612 -4.148827 26.029227 42.370060 -0.124418 0.909259 0.010797 0.005603 132826.000000 0 0 1
32.405612 -4.643127 27.096107 42.495663 -0.142313 0.879391 0.023184 0.001612 -273479.000000 0 0 1
32.858212 -4.079227 28.299387 43.556372 -0.123514 0.863582 0.024693 0.003931 272830.000000 0 0 1
31.930112 -4.282527 29.541227 43.709910 -0.133326 0.828683 0.032540 -0.000431 351127.000000 0 0 1
31.993012 -5.599527 29.993947 44.210230 -0.173268 0.825160 0.027162 -0.003712 5632.360000 0 0 1
30.928612 -5.781827 30.906887 44.104923 -0.184808 0.794337 0.031891 -0.010629 -141174.000000 0 0 1
30.797012 -7.285827 31.308907 44.517265 -0.232305 0.790770 0.032265 -0.007428 847235.000000 0 0 1
31.876512 -7.813727 32.129847 45.929222 -0.240385 0.796027 0.036222 -0.012816 295317.000000 0 0 1
32.729112 -8.692427 31.432577 46.203463 -0.259594 0.822614 0.036816 -0.004362 -437875.000000 0 0 1
33.980412 -8.886027 32.285367 47.707178 -0.255777 0.827470 0.033313 -0.000061 -432937.000000 0 0 1
33.766512 -9.472827 33.551968 48.535001 -0.273509 0.807518 0.019699 -0.006291 -108839.000000 0 0 1
34.979312 -9.925427 34.098997 49.847848 -0.276484 0.817480 0.007673 -0.003783 -259261.000000 0 0 1
34.847612 -10.212827 -33.312415 49.278544 -0.285088 2.313120 0.016279 -0.007210 -178480.000000 0 0 1
34.698012 -9.019327 -32.474815 48.372657 -0.254310 2.306820 0.012890 -0.004839 1144590.000000 0 0 1
-34.954322 -8.216727 -32.335035 48.320531 0.230879 2.303898 0.020484 0.005321 531056.000000 0 0 1
-35.222722 -6.818927 -31.651115 47.842774 0.191229 2.293700 0.009816 -0.002512 54093.600000 0 0 1
35.248412 -6.977127 -30.253245 46.972223 -0.195416 2.270599 0.014045 -0.002527 853253.000000 0 0 1
34.397412 -5.902027 -29.764125 45.868497 -0.169929 2.276936 0.024455 -0.003957 415451.000000 0 0 1
34.581912 -5.649027 -28.253635 45.012088 -0.161922 2.249379 0.030220 -0.004136 1328450.000000 0 0 1
-34.955622 -5.082327 -27.938545 45.036517 0.144382 2.239989 0.016815 0.001593 1086420.000000 0 0 1
-34.865622 -4.548627 -26.618095 44.100165 0.129729 2.218783 0.015758 -0.000290 365392.000000 0 0 1
-33.410222 -4.130427 -26.278355 42.706619 0.123004 2.233592 0.012727 0.014041 -207620.000000 0 0 1
-33.271622 -3.533927 -25.000925 41.767640 0.105818 2.212513 0.022606 0.002609 -123669.000000 0 0 1
-32.015022 -3.578227 -24.373825 40.396147 0.111305 2.218517 0.028893 0.007310 504317.000000 0 0 1
-30.808122 -2.768127 -24.979625 39.759082 0.089610 2.250130 0.027717 0.006125 418354.000000 0 0 1
-30.228522 -3.370227 -26.158075 40.116915 0.111033 2.281076 0.024683 0.013800 -113603.000000 0 0 1
-29.259222 -2.545527 -26.747405 39.724117 0.086781 2.309499 0.025931 0.009417 -84850.300000 0 0 1
-28.612322 -3.245127 -27.955445 40.133561 0.112935 2.341389 0.014759 0.022977 -118830.000000 0 0 1
-29.563922 -3.544827 -28.961215 41.537251 0.119334 2.342329 0.009101 0.028356 187906.000000 0 0 1
-29.046922 -4.552727 -29.844125 41.894186 0.155472 2.363665 0.004089 0.020487 -1411480.000000 0 0 1
-29.950522 -4.846927 -31.047055 43.410207 0.160440 2.367709 -0.009205 0.020337 981212.000000 0 0 1
-31.202822 -5.517127 -30.722015 44.134986 0.175006 2.340736 -0.004487 0.015997 1547580.000000 0 0 1
-32.225022 -4.831927 -30.004665 44.295366 0.148835 2.314988 0.007904 0.012417 -402071.000000 0 0 1
-33.147222 -3.861327 -30.774385 45.395054 0.115968 2.315731 0.028362 0.011086 -374004.000000 0 0 1
-32.504822 -2.756227 -31.436805 45.303785 0.084592 2.337703 0.024841 0.014531 371008.000000 0 0 1
-31.958722 -1.723727 -30.583075 44.267998 0.053884 2.333477 0.015911 0.014816 118193.000000 0 0 1
-31.505822 -0.433427 -31.346055 44.445245 0.013756 2.353605 0.026996 0.013644 71486.200000 0 0 1
-32.539822 0.441373 -31.746495 45.462894 -0.013563 2.343809 0.027009 0.012394 68673.500000 0 0 1
-32.050322 1.406473 -32.641425 45.767499 -0.043855 2.364851 0.018025 0.014960 -162809.000000 0 0 1
-33.121422 2.394673 -33.071345 46.866586 -0.072174 2.354135 0.034867 0.003630 -246327.000000 0 0 1
-33.961522 1.931173 -34.103967 48.168402 -0.056802 2.357480 0.042490 -0.003904 464425.000000 0 0 1
-35.141522 2.750173 -34.103739 49.046458 -0.078101 2.339683 0.045099 -0.004053 609211.000000 0 0 1
34.639612 2.473673 33.666828 48.368141 0.071291 0.800910 0.053163 -0.000986 301207.000000 0 0 1
34.987912 2.687073 32.289837 47.686559 0.076650 0.826946 0.036186 -0.006341 -80803.900000 0 0 1
-35.193022 1.680973 31.601267 47.328792 -0.047728 0.839686 0.031290 -0.006539 -414906.000000 0 0 1
-35.080422 1.950673 30.091977 46.259791 -0.055549 0.862554 0.030839 -0.006571 -151243.000000 0 0 1
-34.319122 3.107373 29.785047 45.547853 -0.090297 0.858031 0.035583 -0.013055 282940.000000 0 0 1
-34.156422 3.334073 28.382057 44.534463 -0.097304 0.879800 0.020552 -0.014592 44094.700000 0 0 1
-33.323122 4.633673 28.165377 43.876985 -0.138167 0.873801 0.020204 -0.010219 -96738.800000 0 0 1
-32.868922 4.726873 26.789877 42.666226 -0.142831 0.891952 0.022422 -0.005931 379096.000000 0 0 1
-32.265622 6.002973 26.570197 42.226549 -0.183945 0.890235 0.031026 0.001871 -317683.000000 0 0 1
-31.422422 6.124673 25.285167 40.794851 -0.192501 0.902292 0.008600 0.001663 207431.000000 0 0 1
-30.228722 5.331073 25.390267 39.835432 -0.174563 0.879704 0.008065 0.003707 458198.000000 0 0 1
-29.527822 5.303473 24.141607 38.507613 -0.177715 0.893189 0.005545 0.005032 93800.200000 0 0 1
-30.205822 4.655073 22.877787 38.176623 -0.152909 0.928218 0.012720 0.005065 -35705.500000 0 0 1
-30.403122 3.256873 23.068287 38.302780 -0.106716 0.924465 0.011299 0.004088 -160869.000000 0 0 1
-31.284522 2.718773 22.110087 38.405325 -0.086687 0.957332 0.017324 0.003435 -767287.000000 0 0 1
-30.985322 1.252673 21.740887 37.872491 -0.040406 0.959347 0.029387 -0.004743 259534.000000 0 0 1
-29.809122 1.080473 20.939387 36.444603 -0.036231 0.958737 0.042509 -0.005250 483208.000000 0 0 1
-29.873622 1.569973 19.603187 35.765669 -0.052506 0.990705 0.038835 -0.005629 -60643.100000 0 0 1
-28.782722 0.906773 18.723987 34.349018 -0.031494 0.994276 0.036187 -0.009961 170688.000000 0 0 1
-29.115622 -0.424727 18.382287 34.435568 0.014587 1.007688 0.055120 -0.010820 130210.000000 0 0 1
-28.011222 -1.160127 17.917087 33.271556 0.041393 1.002128 0.071854 -0.010011 -53264.600000 0 0 1
-27.489022 -0.978527 16.442587 32.046256 0.035582 1.032016 0.048617 0.000032 294286.000000 0 0 1
-26.860422 0.288673 16.176487 31.356727 -0.010747 1.028755 0.054003 -0.004211 414405.000000 0 0 1
-26.844522 0.537373 14.816987 30.666924 -0.020015 1.066538 0.047638 -0.010610 -14712.800000 0 0 1
-26.500322 2.006073 14.463087 30.256773 -0.075556 1.072407 0.055460 -0.019990 -777643.000000 0 0 1
-25.147922 2.275873 14.346287 29.041583 -0.090254 1.054122 0.052679 -0.023057 -738768.000000 0 0 1
-24.859222 3.618773 13.942487 28.730983 -0.144555 1.064116 0.053017 -0.020296 4822.790000 0 0 1
-23.377522 3.835073 13.571787 27.302193 -0.162601 1.050549 0.039713 -0.014657 45647.900000 0 0 1
-22.454922 4.221973 14.570287 27.098743 -0.185850 1.003120 0.038093 -0.013024 758539.000000 0 0 1
-21.196822 4.506973 13.941387 25.767816 -0.209505 0.999125 0.017472 -0.015177 136211.000000 0 0 1
-20.228322 5.202373 14.868387 25.638226 -0.251727 0.952153 0.010156 -0.015132 -826481.000000 0 0 1
-20.767622 6.403473 15.330587 26.595592 -0.299090 0.956439 0.011770 -0.012029 231982.000000 0 0 1
-20.074622 6.924573 16.426687 26.847276 -0.332161 0.912390 0.014213 -0.011664 -459588.000000 0 0 1
-20.359922 8.371773 16.803087 27.693984 -0.390115 0.918842 0.018393 -0.008334 -640655.000000 0 0 1
-19.785422 9.343373 15.964287 27.085420 -0.441190 0.940474 0.019534 -0.004955 445201.000000 0 0 1
-20.341322 10.607173 16.198887 28.083544 -0.480667 0.955977 0.029125 -0.000322 -270821.000000 0 0 1
-19.907822 11.244273 17.565487 28.832298 -0.514148 0.915708 0.038690 -0.002773 -84370.000000 0 0 1
-20.447222 10.702673 18.746887 29.733514 -0.482215 0.888603 0.052536 -0.011922 338417.000000 0 0 1
-19.764722 11.233173 19.874287 30.196286 -0.516818 0.852411 0.049542 -0.009895 40599.300000 0 0 1
-12.007388 -33.111942 -21.478325 41.254048 1.222914 2.118392 0.031128 -0.003811 -232653.000000 0 0 1
-12.818888 -33.954042 -20.729025 41.795853 1.209804 2.089735 0.057494 -0.008155 -1081530.000000 0 0 1
-13.954788 -33.328542 -20.294025 41.441226 1.174271 2.082549 0.053726 -0.017890 -436147.000000 0 0 1
-14.882688 -34.123942 -19.310825 41.938595 1.159531 2.049304 0.056548 -0.021644 -348317.000000 0 0 1
-15.556988 33.919873 -19.930725 42.306163 -1.140781 2.061342 0.048396 -0.028299 -244519.000000 0 0 1
-16.287588 33.053873 -19.141225 41.523855 -1.112958 2.049884 0.048724 -0.020674 -297352.000000 0 0 1
-17.636888 33.588973 -18.649625 42.273957 -1.087287 2.027688 0.061599 -0.020612 -1005840.000000 0 0 1
-17.621288 -34.555242 -17.604425 42.596834 1.099224 1.996850 0.063863 -0.018981 370604.000000 0 0 1
-18.958988 -34.294442 -17.183625 42.788186 1.065783 1.984057 0.051797 -0.015964 431661.000000 0 0 1
-19.393288 34.363873 -15.756825 42.488268 -1.057002 1.950722 0.052820 -0.017098 -179958.000000 0 0 1
-19.519988 32.929273 -15.595325 41.334986 -1.035699 1.957666 0.064036 -0.019094 -3167.020000 0 0 1
-19.728688 32.556773 -14.276825 40.657008 -1.025993 1.929598 0.058756 -0.011469 7687.060000 0 0 1
-19.800188 31.026273 -14.051525 39.396984 -1.002779 1.935492 0.054671 -0.013147 36956.200000 0 0 1
-18.530288 30.434673 -13.954125 38.266937 -1.023892 1.944056 0.058467 -0.022429 -193671.000000 0 0 1
-18.577288 29.019473 -14.162325 37.253414 -1.001365 1.960768 0.050597 -0.016204 308360.000000 0 0 1
-17.391188 28.250873 -13.485025 35.810768 -1.018986 1.956880 0.059448 -0.013526 -131370.000000 0 0 1
-16.197488 28.579373 -14.094025 35.746058 -1.055181 1.976083 0.075459 -0.019844 8277.770000 0 0 1
-15.103088 27.632273 -13.865225 34.407706 -1.070587 1.985554 0.081844 -0.025568 935405.000000 0 0 1
-13.816688 27.984573 -14.606925 34.458663 -1.112181 2.008540 0.077022 -0.022757 -492682.000000 0 0 1
-13.937488 28.149573 -16.013225 35.257274 -1.111058 2.042250 0.068690 -0.019822 -433371.000000 0 0 1
-12.842988 28.778073 -16.606725 35.621666 -1.151043 2.055784 0.071501 -0.017048 -326090.000000 0 0 1
-13.032688 28.893173 -18.108925 36.504788 -1.147057 2.089863 0.084218 -0.023974 -72242.700000 0 0 1
-12.977888 27.634973 -18.729425 35.817714 -1.131748 2.121057 0.048953 -0.024965 94224.900000 0 0 1
-13.546788 27.464573 -19.990125 36.570799 -1.112567 2.149112 0.041914 -0.029606 111071.000000 0 0 1
-12.847588 26.209373 -20.693925 35.780305 -1.115027 2.187514 0.019193 -0.021680 936369.000000 0 0 1
-11.495988 26.515973 -21.085825 35.775223 -1.161706 2.201109 0.015450 -0.023137 753989.000000 0 0 1
-10.826888 25.411373 -21.650925 35.095896 -1.168024 2.235604 0.004695 -0.024424 244809.000000 0 0 1
-9.589388 25.733873 -22.502025 35.503939 -1.214099 2.257239 0.024746 -0.031644 306910.000000 0 0 1
-9.983188 26.398773 -23.704025 36.857021 -1.209251 2.269381 0.014998 -0.028305 -312952.000000 0 0 1
-8.829288 26.656373 -24.434325 37.223041 -1.250943 2.286873 0.013868 -0.026416 -543402.000000 0 0 1
-9.006688 27.197673 -25.871115 38.602440 -1.251006 2.305266 0.017130 -0.015755 -491407.000000 0 0 1
-9.824988 26.363473 -26.626495 38.736718 -1.214066 2.328659 0.005060 -0.006230 -394101.000000 0 0 1
-9.937288 26.786573 -27.903495 39.935889 -1.215555 2.344385 0.009291 -0.004084 961968.000000 0 0 1
-11.433488 26.650673 -28.403315 40.592257 -1.165531 2.345805 -0.006717 0.002521 1003720.000000 0 0 1
-11.728488 27.123473 -29.714275 41.906781 -1.162665 2.358956 0.005241 0.004560 219948.000000 0 0 1
-12.936588 26.462773 -30.102005 42.116082 -1.116100 2.367047 -0.000079 0.004846 363876.000000 0 0 1
-13.392688 26.912373 -31.564785 43.588709 -1.109038 2.380598 0.001875 0.007731 107599.000000 0 0 1
-12.567288 26.442473 -32.637995 43.844952 -1.127129 2.410426 0.011206 0.005364 279984.000000 0 0 1
-12.499788 25.037973 -32.729775 43.062547 -1.107762 2.434189 0.006570 0.004932 324988.000000 0 0 1
-11.589088 24.444473 -33.864385 43.343232 -1.128084 2.467554 0.011526 0.005912 562760.000000 0 0 1
-12.244688 24.614173 33.793520 43.563653 -1.109179 0.682929 0.018649 0.005917 420785.000000 0 0 1
-11.586988 23.815373 32.816697 42.170675 -1.117979 0.679022 0.016161 0.005456 -251826.000000 0 0 1
-12.244388 23.890473 31.433187 41.336727 -1.097182 0.706840 0.029826 0.013520 785676.000000 0 0 1
-13.576288 23.358273 31.294667 41.343448 -1.044300 0.712173 0.027420 0.007954 850880.000000 0 0 1
-13.957488 23.208073 29.942807 40.373231 -1.029343 0.735270 0.040134 0.014782 696126.000000 0 0 1
-15.211788 22.271473 29.776447 40.175288 -0.971560 0.735995 0.035441 0.009668 737543.000000 0 0 1
-14.868988 20.943973 30.086697 39.559400 -0.953430 0.706645 0.029597 0.008392 -117456.000000 0 0 1
-15.986488 20.101073 30.092177 39.562104 -0.898925 0.706511 0.022793 0.007834 -264019.000000 0 0 1
-15.602088 18.613373 30.182047 38.740660 -0.873181 0.677600 0.014878 0.003136 -189746.000000 0 0 1
-15.158288 18.161173 28.941117 37.379007 -0.875279 0.685249 0.019694 -0.005027 73887.400000 0 0 1
-14.990088 16.752673 28.947127 36.650934 -0.840868 0.660304 0.010611 -0.011628 -15457.100000 0 0 1
-14.524188 16.132873 27.588177 35.104546 -0.837824 0.666668 0.006992 -0.012678 -682972.000000 0 0 1
-13.239788 16.482073 27.243257 34.483993 -0.894056 0.659945 -0.005618 -0.007153 -1181610.000000 0 0 1
-12.601588 15.759273 26.251237 33.110152 -0.896281 0.655332 -0.024278 -0.004939 239647.000000 0 0 1
-11.455288 16.589273 25.573847 32.564540 -0.966459 0.667570 -0.013737 -0.000793 123576.000000 0 0 1
-11.811688 17.551273 24.546037 32.404800 -0.978434 0.711350 -0.012838 -0.000955 435643.000000 0 0 1
-12.481788 18.799573 24.970097 33.655976 -0.984684 0.734864 -0.009795 -0.002624 407787.000000 0 0 1
-11.529888 19.707873 25.754167 34.418246 -1.041450 0.725345 -0.003859 0.000965 101767.000000 0 0 1
-11.115788 19.276373 27.053277 35.028832 -1.047720 0.688320 0.006047 -0.003728 758951.000000 0 0 1
-12.015188 19.729873 28.115867 36.388660 -1.023797 0.687784 0.020147 0.001212 677922.000000 0 0 1
-11.479588 19.284273 29.508187 37.072864 -1.033853 0.650219 0.016781 0.006810 788266.000000 0 0 1
-10.336688 20.027773 29.977037 37.504420 -1.094338 0.644678 0.004671 -0.002314 518485.000000 0 0 1
-10.331888 19.998573 31.361897 38.603878 -1.093932 0.622535 0.001879 -0.002408 -205107.000000 0 0 1
-9.245988 20.807973 32.064207 39.326497 -1.152652 0.617492 -0.001606 0.001354 273747.000000 0 0 1
-7.927588 20.270673 32.051897 38.743657 -1.197997 0.596546 -0.005102 -0.006895 725692.000000 0 0 1
-7.070888 21.122573 32.840437 39.681921 -1.247767 0.595992 -0.007983 -0.000631 462508.000000 0 0 1
-5.848988 20.429373 33.500316 39.671666 -1.291953 0.565279 -0.002557 0.004301 -71617.500000 0 0 1
-6.183888 19.463773 -34.379120 39.987533 -1.263170 2.605568 -0.011886 0.000367 75577.700000 0 0 1
-5.086588 18.931273 -33.667935 38.958905 -1.308309 2.614337 -0.011612 0.002659 456652.000000 0 0 1
-4.128688 17.911273 -34.386476 38.990890 -1.344246 2.650696 -0.011402 0.005165 125075.000000 0 0 1
-4.744388 16.645373 34.302698 38.422035 -1.293132 0.467302 -0.007494 0.001881 198942.000000 0 0 1
-4.571088 16.106473 33.023591 37.025273 -1.294263 0.469222 -0.010733 0.004805 -198657.000000 0 0 1
-5.357888 14.783673 32.796287 36.371148 -1.223101 0.447084 0.006064 0.000570 111084.000000 0 0 1
-4.878788 13.815073 33.735161 36.779341 -1.231318 0.409723 0.008998 0.003173 537519.000000 0 0 1
-5.505788 12.558673 33.410072 36.114635 -1.157626 0.389467 0.023608 -0.001235 -261725.000000 0 0 1
-4.633088 11.425173 33.818450 35.995661 -1.185544 0.349586 0.033547 -0.000466 -388466.000000 0 0 1
-4.485688 11.214373 -33.709615 35.808123 -1.190295 2.797541 0.037482 -0.001595 -83164.700000 0 0 1
-3.548288 10.190873 -33.423335 35.122123 -1.235741 2.829301 0.051773 -0.006210 176971.000000 0 0 1
-3.495888 9.815073 -31.923745 33.580982 -1.228631 2.826119 0.048194 -0.006137 -561841.000000 0 0 1
-4.620388 9.207273 -31.397805 33.044576 -1.105694 2.824562 0.044999 -0.005569 -620723.000000 0 0 1
-4.416988 8.752073 -30.068615 31.626415 -1.103412 2.826423 0.043775 -0.001429 446443.000000 0 0 1
-5.653088 7.955873 -29.518015 31.089653 -0.953021 2.822270 0.036599 -0.002085 469462.000000 0 0 1
-5.575488 7.235373 -28.286385 29.724674 -0.914249 2.829239 0.036426 -0.008909 78442.800000 0 0 1
-6.793088 6.535073 -28.106355 29.644905 -0.766042 2.818005 0.046746 -0.020053 -260751.000000 0 0 1
-6.811388 5.736773 -26.758905 28.201854 -0.699967 2.820322 0.035947 -0.021980 -238434.000000 0 0 1
-6.999488 6.468473 -25.570145 27.288574 -0.745991 2.784816 0.018869 -0.008403 240456.000000 0 0 1
-5.872488 7.242273 -25.169935 26.841428 -0.889467 2.786825 0.026138 -0.009081 -492.853000 0 0 1
-6.159988 7.933573 -23.824525 25.855270 -0.910584 2.742611 0.007241 -0.009822 98819.900000 0 0 1
-6.353188 7.056773 -22.761025 24.662224 -0.837817 2.746369 0.005244 -0.008304 482344.000000 0 1 0
-7.614988 7.374673 -22.151125 24.556998 -0.769367 2.695243 0.009402 -0.003055 529406.000000 0 1 0
-7.682888 7.794973 -20.730425 23.442246 -0.792640 2.655830 0.011960 -0.000644 -64288.400000 0 1 0
-6.968788 8.982173 -20.370725 23.328306 -0.910958 2.632566 -0.007502 0.002477 121293.000000 0 1 0
-6.773388 9.182973 -18.970425 22.137814 -0.935277 2.600068 -0.009471 -0.000188 -402047.000000 0 1 0
-8.017988 9.266773 -18.080525 21.841854 -0.857521 2.545958 -0.010684 -0.000342 -687568.000000 0 1 0
-7.707488 9.324173 -16.667425 20.594869 -0.880037 2.513756 -0.016868 -0.004055 366281.000000 0 1 0
-8.737088 9.853873 -15.819325 20.583648 -0.845397 2.447350 -0.006142 -0.009854 392441.000000 0 1 0
-9.356688 11.253773 -15.983425 21.671753 -0.877184 2.400192 -0.006113 -0.009202 -913753.000000 0 1 0
-8.366988 12.199373 -15.900925 21.717978 -0.969628 2.392277 -0.025992 -0.003904 -543451.000000 0 1 0
-8.819488 13.478773 -16.257725 22.886116 -0.991387 2.360827 -0.015667 -0.005021 261877.000000 0 1 0
-7.703988 14.516573 -15.876525 22.850522 -1.082889 2.338937 -0.013868 -0.003719 80715.000000 0 1 0
-7.282688 14.564773 -14.544725 21.833899 -1.107132 2.299835 -0.007439 -0.004862 320069.000000 0 1 0
-8.155488 15.198273 -13.592125 21.960085 -1.078294 2.238197 -0.003242 -0.018275 -234729.000000 0 1 0
-7.398788 16.031473 -12.510125 21.639164 -1.138407 2.187224 0.004895 -0.012806 246958.000000 0 1 0
-6.906288 17.309773 -12.834925 22.628750 -1.191168 2.173893 0.013376 -0.014477 466319.000000 0 1 0
-5.773888 17.344573 -13.712425 22.851752 -1.249442 2.214373 0.006308 -0.009295 99673.000000 0 1 0
-5.679588 18.760173 -14.331925 24.281801 -1.276821 2.202144 0.021058 -0.002092 -57783.800000 0 1 0
-5.234688 19.749273 -13.473125 24.473676 -1.311697 2.153777 0.029075 -0.004644 -169923.000000 0 1 0
-5.321688 21.072273 -13.985825 25.845006 -1.323424 2.142591 0.031872 -0.003785 124107.000000 0 0 1
-4.560088 22.039573 -13.026725 26.004475 -1.366771 2.095483 0.026342 -0.008893 -631658.000000 0 0 1
-4.566888 23.457973 -13.274625 27.337678 -1.378518 2.077823 0.016398 -0.006492 121404.000000 0 0 1
-5.791588 24.183373 -13.225025 28.165214 -1.335737 2.059579 0.016778 -0.008653 550238.000000 0 0 1
-6.613288 24.122673 -11.877725 27.689696 -1.303218 2.014136 0.022674 -0.016483 -8446.310000 0 0 1
-7.034388 22.794973 -11.499725 26.482769 -1.271474 2.019984 0.025029 -0.016566 95463.300000 0 0 1
-7.851088 22.697973 -10.321025 26.141176 -1.237784 1.976667 0.030097 -0.016567 516676.000000 0 0 1
-7.223388 23.212173 -8.931125 25.898789 -1.269106 1.922872 0.022912 -0.014790 -54178.700000 0 0 1
-7.068988 24.626373 -8.913825 27.127202 -1.291263 1.905610 0.016550 -0.018133 -256492.000000 0 0 1
-7.054988 25.228073 -7.633125 27.285401 -1.298114 1.854331 0.013075 -0.013236 -195779.000000 0 0 1
-7.166388 26.762573 -7.689425 28.752733 -1.309158 1.841524 0.016633 -0.021842 377095.000000 0 0 1
-6.067688 27.490973 -8.234925 29.332310 -1.353564 1.855367 0.003985 -0.023271 89557.900000 0 0 1
-5.812688 27.485873 -9.619425 29.695014 -1.362388 1.900688 0.009107 -0.017847 188270.000000 0 0 1
-5.087488 28.842373 -10.070525 30.970639 -1.396203 1.901981 0.005870 -0.019855 511547.000000 0 0 1
-5.861288 30.059573 -9.996825 32.215976 -1.378224 1.886312 0.000711 -0.016810 -49005.400000 0 0 1
-6.856488 30.097873 -10.995625 32.768844 -1.346812 1.912987 0.006137 -0.015010 -283669.000000 0 0 1
-7.975888 31.131073 -10.745025 33.885307 -1.319988 1.893466 0.016757 -0.013997 -939713.000000 0 0 1
-9.015488 30.622873 -10.012925 33.455912 -1.284482 1.874742 0.021802 -0.014082 -1207050.000000 0 0 1
-10.112888 31.489173 -10.113825 34.585083 -1.260047 1.867567 0.017374 -0.023326 -137907.000000 0 0 1
-11.326488 31.011873 -9.288925 34.297372 -1.220618 1.845057 0.020331 -0.016452 -962.715000 0 0 1
-11.971288 29.891373 -9.828125 33.665976 -1.189865 1.867041 0.023324 -0.016365 -697279.000000 0 0 1
-13.224588 29.779573 -9.215825 33.862134 -1.152874 1.846431 0.028198 -0.008333 -32908.600000 0 0 1
-14.121288 28.632373 -9.738025 33.377427 -1.112609 1.866857 0.041864 -0.004289 158364.000000 0 0 1
-13.804688 27.411873 -9.149325 32.026400 -1.104271 1.860513 0.032259 -0.007247 -130733.000000 0 0 1
-14.834388 26.519373 -9.482525 31.831658 -1.060781 1.873284 0.048955 -0.007165 -175566.000000 0 0 1
-14.827588 25.153573 -8.722425 30.473600 -1.038146 1.861085 0.039218 -0.007252 -400393.000000 0 0 1
-13.840488 24.277973 -9.214325 29.425887 -1.052664 1.889290 0.034211 -0.010861 -108865.000000 0 0 1
-14.102688 22.922573 -8.851125 28.331476 -1.019252 1.888529 0.045845 -0.012735 -162847.000000 0 0 1
-13.044388 21.880173 -9.257825 27.103604 -1.033195 1.919385 0.052569 -0.011117 -200005.000000 0 0 1
-13.101288 21.588273 -10.626525 27.397450 -1.025340 1.969111 0.060462 -0.006997 175913.000000 0 0 1
-12.462088 20.355873 -10.945925 26.257922 -1.021447 2.000786 0.061310 -0.006945 -188199.000000 0 0 1
-12.410988 20.083473 -12.462025 26.696078 -1.017268 2.056478 0.057131 -0.003391 1094800.000000 0 0 1
-13.733788 19.963673 -13.038325 27.516596 -0.968211 2.064437 0.056079 0.009570 848543.000000 0 0 1
-13.591788 19.733073 -14.402625 27.956510 -0.967639 2.112014 0.051559 0.009904 304839.000000 0 0 1
-14.938388 19.341973 -15.050525 28.701666 -0.913156 2.122781 0.042402 0.012887 731563.000000 0 0 1
-15.906288 20.392273 -15.017325 29.906100 -0.908360 2.096879 0.028397 0.007232 56662.400000 0 0 1
-17.232488 19.965173 -15.192725 30.436584 -0.858730 2.093425 0.018713 0.012301 378140.000000 0 0 1
-18.242088 20.990973 -15.807825 31.988780 -0.855349 2.087674 0.010728 0.005325 296568.000000 0 0 1
-18.609988 22.100273 -15.005025 32.556174 -0.870924 2.049801 0.020936 -0.003190 214100.000000 0 0 1
-18.898388 23.191173 -15.833825 33.848036 -0.887038 2.057587 0.023982 -0.009164 -158900.000000 0 0 1
-19.495288 24.404673 -15.103125 34.695226 -0.896767 2.021177 0.022946 0.002987 -731255.000000 0 0 1
-20.786588 24.247973 -14.627725 35.128574 -0.862108 2.000284 0.030054 0.005860 -545788.000000 0 0 1
-21.162988 25.368973 -13.848925 35.822473 -0.875542 1.967737 0.026492 -0.003488 -326770.000000 0 0 1
-25.546858 -0.622427 3.478275 25.790071 0.024359 1.435515 0.043999 -0.020860 -121614.000000 0 0 1
-25.900128 0.071173 4.656875 26.315550 -0.002748 1.392897 0.048539 -0.018765 780370.000000 0 0 1
-26.934298 -0.595827 5.407375 27.478193 0.022118 1.372716 0.028448 -0.016539 -156479.000000 0 0 1
-27.377238 0.137773 6.683775 28.181643 -0.005032 1.331347 0.027849 -0.013677 -538398.000000 0 0 1
-28.096758 1.357073 6.457475 28.861192 -0.048262 1.345144 0.059836 -0.008365 597712.000000 0 0 1
-28.615998 2.095173 7.587675 29.678913 -0.073086 1.312267 0.072296 -0.002412 189139.000000 0 0 1
-27.554338 2.774373 8.492475 28.966546 -0.100349 1.273243 0.086173 -0.008999 -101191.000000 0 0 1
-26.864278 1.991873 9.425375 28.539353 -0.074010 1.234218 0.066473 -0.017755 777468.000000 0 0 1
-25.673768 2.659373 9.859075 27.629983 -0.103215 1.205929 0.062754 -0.021796 1012960.000000 0 0 1
-24.505588 1.743973 10.402775 26.679262 -0.071047 1.170252 0.048436 -0.018895 868080.000000 0 0 1
-23.724588 0.938073 9.487775 25.568612 -0.039520 1.190634 0.038886 -0.021054 504430.000000 0 0 1
-24.394488 -0.262527 9.093375 26.035542 0.010761 1.214007 0.032907 -0.019350 -383744.000000 0 0 1
-23.618388 -1.274727 8.207975 25.036454 0.053919 1.236779 0.053244 -0.020895 -750839.000000 0 0 1
-22.604388 -1.810427 8.981275 24.390557 0.079921 1.193694 0.036886 -0.030714 -829357.000000 0 1 0
-21.562888 -2.252227 8.164275 23.166485 0.104072 1.210643 0.040773 -0.024367 410775.000000 0 1 0
-20.285888 -2.718327 8.987175 22.353431 0.133207 1.157043 0.031581 -0.013773 498197.000000 0 1 0
-19.571288 -1.686327 9.604375 21.866024 0.085951 1.116047 0.022100 -0.011791 389861.000000 0 1 0
-20.209788 -1.184427 10.768075 22.930108 0.058540 1.081954 0.026038 -0.011496 -1069830.000000 0 1 0
-19.866488 0.239673 11.157975 22.786733 -0.012064 1.059085 0.023427 -0.013098 -320319.000000 0 1 0
-20.381588 1.232873 10.274075 22.857946 -0.060416 1.104619 0.027411 -0.005367 405499.000000 0 1 0
-20.358888 2.559573 10.819675 23.197006 -0.125066 1.085551 0.020346 -0.002899 -424347.000000 0 1 0
-21.164988 3.609173 10.055875 23.708721 -0.168901 1.132782 0.013134 -0.010005 -478332.000000 0 1 0
-21.326288 4.856873 10.685275 24.342861 -0.223922 1.116368 0.012113 -0.008359 485993.000000 0 1 0
-22.202488 5.661873 9.935975 24.974604 -0.249689 1.161632 0.023191 -0.013010 -258024.000000 0 1 0
-22.443488 7.038573 10.661975 25.824976 -0.303899 1.145210 0.029018 -0.011193 42350.700000 0 0 1
-23.420088 6.848373 11.676875 27.050880 -0.284483 1.124460 0.038470 -0.013865 419889.000000 0 0 1
-23.342188 7.893873 12.661475 27.703500 -0.326107 1.096137 0.027447 -0.010248 -447558.000000 0 0 1
-24.135388 7.616973 13.929475 28.888847 -0.305701 1.067661 0.033912 -0.008735 -57544.400000 0 0 1
-25.522958 7.542073 13.658175 29.914043 -0.287325 1.096648 0.032539 -0.005583 53480.200000 0 0 1
-26.175988 7.050273 14.824375 30.897423 -0.263098 1.070377 0.031156 -0.005909 495399.000000 0 0 1
-27.618128 6.511273 14.567375 31.896176 -0.231533 1.096500 0.031617 -0.002662 408188.000000 0 0 1
-27.598988 5.252873 13.936275 31.361068 -0.188079 1.110313 0.040995 -0.009426 23627.100000 0 0 1
-28.222148 5.359573 12.690275 31.404741 -0.187672 1.154815 0.065320 -0.001880 -483547.000000 0 0 1
-28.490468 4.070573 11.953575 31.163509 -0.141914 1.177131 0.068364 -0.006775 -789878.000000 0 0 1
-29.504278 3.371573 12.579675 32.250863 -0.113780 1.170103 0.049476 -0.001972 -392997.000000 0 0 1
-29.935788 2.385973 11.670075 32.218549 -0.079535 1.200152 0.044467 -0.000707 -86622.900000 0 0 1
-31.012888 1.399573 12.205075 33.357486 -0.045098 1.196210 0.020150 0.002498 130405.000000 0 0 1
-30.631278 0.509773 13.244075 33.375748 -0.016641 1.162749 0.020914 0.001183 -270051.000000 0 0 1
-31.827978 -0.100727 13.624875 34.621778 0.003165 1.166323 0.015402 0.006878 -145715.000000 0 0 1
-31.780978 -1.129227 14.778575 35.067249 0.035517 1.135769 0.016782 0.001300 -163745.000000 0 0 1
-31.341548 -2.404227 14.432275 34.588488 0.076561 1.140372 0.022487 0.000652 59545.200000 0 0 1
-31.607508 -3.347227 15.449075 35.339955 0.105507 1.118362 0.026294 0.002393 -54908.800000 0 0 1
-31.339908 -4.792927 14.997875 35.072756 0.151758 1.128936 0.028072 -0.001496 418091.000000 0 0 1
-32.282988 -5.254527 13.989475 35.573962 0.161350 1.166632 0.017012 -0.002488 682594.000000 0 0 1
-32.091218 -6.634027 13.645875 35.497415 0.203853 1.176218 0.028461 -0.007527 -381168.000000 0 0 1
-33.165238 -7.093527 12.601875 36.180912 0.210710 1.215038 0.031046 -0.008262 1707410.000000 0 0 1
-34.551769 -7.160427 13.020975 37.611730 0.204345 1.217285 0.035664 -0.001742 1348520.000000 0 0 1
-35.148918 -5.858727 13.155175 37.984599 0.165165 1.217141 0.038404 0.000172 -13172.000000 0 0 1
34.165267 -5.805527 12.864775 36.965823 -0.168317 1.215340 0.058262 -0.005071 1239450.000000 0 0 1
33.254067 -6.581827 13.656375 36.546545 -0.195400 1.187833 0.058663 -0.002452 9094.820000 0 0 1
31.918297 -6.386227 13.294575 35.161162 -0.197473 1.183049 0.055174 0.000128 -342849.000000 0 0 1
30.916767 -7.429927 13.757175 34.645492 -0.235848 1.162459 0.040733 -0.001571 -416098.000000 0 0 1
30.445047 -7.321427 15.059775 34.746237 -0.235999 1.122510 0.042288 0.003202 -609023.000000 0 0 1
29.451607 -8.265427 15.220975 34.167126 -0.273606 1.109079 0.039954 0.001533 -632734.000000 0 0 1
28.672597 -8.111227 16.509275 34.065613 -0.275688 1.064854 0.024347 0.005487 -245596.000000 0 0 1
29.447547 -8.602327 17.613475 35.375027 -0.284215 1.049613 0.030096 0.007231 -134939.000000 0 0 1
28.775567 -8.633927 18.826075 35.454182 -0.291497 1.011019 0.025215 0.006049 -652283.000000 0 0 1
29.579877 -9.259027 19.999875 36.887582 -0.303357 0.997762 0.018718 0.002934 942567.000000 0 0 1
30.786727 -8.632027 20.447475 37.953046 -0.273362 1.001835 0.020821 -0.000996 1184670.000000 0 0 1
31.935117 -8.828727 19.601375 38.496909 -0.269721 1.036579 0.024135 0.000119 -318110.000000 0 0 1
33.229187 -8.187627 20.017575 39.647439 -0.241586 1.041542 0.019885 0.006588 -290861.000000 0 0 1
33.717227 -8.564827 21.326875 40.804941 -0.248758 1.020835 0.029367 -0.005339 -79476.900000 0 0 1
35.055287 -8.219027 21.601575 41.988732 -0.230299 1.030417 0.031599 -0.006025 181427.000000 0 0 1
-35.247961 -8.671127 23.004375 42.974509 0.241214 1.005930 0.038455 -0.012925 -74264.100000 0 0 1
35.126807 -7.923727 24.107075 43.333925 -0.221862 0.980858 0.037455 -0.013522 87103.100000 0 0 1
34.931222 -8.906427 25.148475 43.954073 -0.249651 0.961667 0.034789 -0.008846 -213898.000000 0 0 1
34.560797 -8.287427 26.528775 44.349814 -0.235349 0.929579 0.039027 -0.008215 164863.000000 0 0 1
-35.199123 -7.717627 27.216175 45.158169 0.215841 0.923934 0.022622 -0.010765 -503814.000000 0 0 1
35.177193 -7.167727 28.410175 45.781538 -0.201009 0.901340 0.022053 -0.008079 79937.800000 0 0 1
-34.633964 -6.515427 29.351275 45.863489 0.185949 0.876337 0.035693 -0.010148 106304.000000 0 0 1
-34.248465 -7.278327 30.494775 46.431269 0.209400 0.854266 0.032356 -0.011184 377153.000000 0 0 1
-32.892628 -7.091527 30.895575 45.680973 0.212346 0.828023 0.020943 -0.008383 690271.000000 0 0 1
-32.460318 -7.874727 32.199675 46.395071 0.237998 0.803722 -0.000954 0.002615 32820.100000 0 0 1
-32.488778 -9.346927 32.082575 46.606624 0.280132 0.811558 0.000469 0.003188 251309.000000 0 0 1
-31.997048 -9.919027 33.298075 47.233039 0.300604 0.788410 -0.012216 0.005942 -61332.600000 0 0 1
-32.086648 -11.439827 33.378475 47.692192 0.342480 0.795577 0.006108 -0.002352 -344033.000000 0 0 1
-33.423358 -11.869627 33.283575 48.639544 0.341237 0.817166 -0.001073 -0.004795 -72243.000000 0 0 1
-33.475538 -13.287827 33.485875 49.178062 0.377867 0.821791 0.011058 -0.005680 77887.400000 0 0 1
-34.960758 -13.691227 33.481675 50.306330 0.373259 0.842558 0.011457 -0.005626 12289.500000 0 0 1
-35.148883 -15.037527 33.775375 51.013206 0.404260 0.847191 0.007651 -0.004339 -208102.000000 0 0 1
34.325567 -15.232527 33.999675 50.658191 -0.417658 0.835026 0.002978 0.001630 -137170.000000 0 0 1
33.871607 -16.693627 34.320175 51.027810 -0.457911 0.833110 0.001382 0.010546 -95061.800000 0 0 1
34.295747 -17.113627 -33.300637 50.774077 -0.462848 2.286116 0.006682 -0.000181 223519.000000 0 0 1
34.182827 -18.528327 -33.156237 51.098929 -0.496708 2.276886 0.005732 -0.004471 -188022.000000 0 0 1
34.511907 -19.050027 -31.747137 50.614780 -0.504365 2.248789 0.007531 -0.014294 23191.000000 0 0 1
33.486427 -18.926827 -30.769537 49.257791 -0.514445 2.245497 0.014669 -0.007675 -88992.800000 0 0 1
33.885997 -19.593627 -29.624737 49.089673 -0.524252 2.218657 0.011385 -0.001495 -414105.000000 0 0 1
32.723557 -19.762727 -28.607537 47.747122 -0.543304 2.213231 0.002643 0.002869 362810.000000 0 0 1
31.669237 -20.583727 -29.056837 47.654277 -0.576347 2.226532 0.013009 0.004028 266250.000000 0 0 1
30.679207 -19.892427 -29.809337 47.175406 -0.575250 2.254777 0.003931 0.003986 -717109.000000 0 0 1
29.411567 -20.682727 -30.139337 46.916895 -0.612882 2.268420 0.000296 0.012381 406482.000000 0 0 1
28.426777 -19.953827 -30.908837 46.492935 -0.612025 2.298032 -0.002660 0.011146 310866.000000 0 0 1
27.289747 -20.755927 -31.088937 46.282402 -0.650235 2.307328 0.006371 0.012942 -245856.000000 0 0 1
26.301037 -20.202927 -32.103637 46.157841 -0.655011 2.339938 0.010886 0.012379 128259.000000 0 0 1
26.912447 -20.251827 -33.409137 47.440349 -0.645104 2.352141 -0.000765 0.013341 235743.000000 0 0 1
26.020977 -19.807327 -34.414537 47.474012 -0.650635 2.381705 0.029391 0.003354 113266.000000 0 0 1
26.533247 -20.040627 33.026475 46.865638 -0.646886 0.788788 0.028876 0.000652 -365876.000000 0 0 1
27.458007 -19.081427 32.612675 46.707918 -0.607316 0.797880 0.005201 0.005220 -361048.000000 0 0 1
27.492057 -18.842327 31.246475 45.685760 -0.600842 0.817642 0.004604 0.001888 -395249.000000 0 0 1
26.343407 -18.133327 30.506175 44.197504 -0.602860 0.808998 0.006885 0.002416 -465097.000000 0 0 1
26.273197 -16.734127 30.774775 43.788111 -0.567131 0.791455 0.010612 -0.001183 624157.000000 0 0 1
25.176547 -16.188727 30.047175 42.411863 -0.571444 0.783480 0.012561 -0.000321 214686.000000 0 0 1
25.086847 -14.763227 30.497075 42.158918 -0.531909 0.762106 0.020776 0.002071 447088.000000 0 0 1
26.250847 -13.990527 30.191475 42.383570 -0.489663 0.777971 0.027147 -0.004418 674441.000000 0 0 1
26.065787 -12.743827 30.852175 42.351943 -0.454736 0.754708 0.047443 -0.003732 88818.200000 0 0 1
27.420327 -12.043827 31.032875 43.127340 -0.413861 0.767622 0.044835 0.000285 53897.200000 0 0 1
27.992417 -11.471827 29.867175 42.511485 -0.388942 0.791798 0.038469 -0.004469 -314902.000000 0 0 1
29.308257 -11.016727 29.985775 43.353073 -0.359552 0.807005 0.039854 -0.002101 -308960.000000 0 0 1
29.792897 -10.383127 28.690775 42.644890 -0.335347 0.832832 0.039261 -0.008805 -225097.000000 0 0 1
29.641037 -8.975827 28.612575 42.164392 -0.294040 0.824947 0.035613 -0.009649 85347.300000 0 0 1
30.210707 -8.559827 27.374275 41.657033 -0.276101 0.853785 0.026868 -0.002837 133045.000000 0 0 1
30.168407 -7.015527 27.125275 41.171968 -0.228485 0.851536 0.029607 0.001700 -409099.000000 0 0 1
28.884707 -6.496527 26.960875 40.042726 -0.221231 0.832130 0.037747 -0.000740 -716793.000000 0 0 1
28.947167 -5.117727 26.662275 39.686352 -0.174987 0.834127 0.037816 -0.000350 -470122.000000 0 0 1
27.566667 -4.497427 26.629875 38.591427 -0.161722 0.809243 0.038857 0.001369 -431862.000000 0 0 1
26.804067 -4.770627 25.470275 37.282057 -0.176137 0.818691 0.039711 -0.001797 -100438.000000 0 0 1
25.519647 -4.211727 25.566975 36.368410 -0.163564 0.791190 0.051446 -0.003298 -360954.000000 0 0 1
24.582347 -4.461827 24.342575 34.882096 -0.179551 0.798401 0.036900 0.005743 -281404.000000 0 0 1
24.960747 -3.802027 23.137875 34.246979 -0.151158 0.828994 0.044693 0.013371 120210.000000 0 0 1
24.299647 -4.197727 21.959775 33.020077 -0.171060 0.843245 0.029140 0.008538 -91090.300000 0 0 1
24.760447 -3.262427 20.806175 32.505693 -0.131005 0.876197 0.040016 0.001937 560321.000000 0 0 1
23.927747 -2.103427 20.671175 31.690045 -0.087682 0.860191 0.045316 0.004375 680656.000000 0 0 1
24.590647 -1.193627 19.839775 31.618686 -0.048502 0.892497 0.053536 -0.005729 -65179.500000 0 0 1
23.497347 -0.335327 19.194575 30.342536 -0.014270 0.885895 0.035831 -0.008948 56493.100000 0 0 1
22.757147 -1.108327 18.251275 29.192896 -0.048664 0.895414 0.036538 -0.011802 422863.000000 0 0 1
21.653947 -0.331627 17.753975 28.003697 -0.015314 0.884099 0.038910 -0.012438 168549.000000 0 0 1
20.590047 -1.200227 17.104175 26.794465 -0.058226 0.878447 0.019751 -0.012228 -670349.000000 0 0 1
21.052047 -1.957227 15.978775 26.501711 -0.092704 0.923623 0.033631 -0.025591 230618.000000 0 0 1
19.979147 -2.683327 15.416975 25.378134 -0.133507 0.917899 0.037460 -0.022393 -15620.600000 0 0 1
20.391847 -3.420327 14.165975 25.063936 -0.166183 0.970128 0.042593 -0.034466 396066.000000 0 0 1
19.243747 -4.120827 13.649375 23.950124 -0.210953 0.964402 0.046018 -0.030233 1097100.000000 0 1 0
19.408647 -4.667527 12.353075 23.475090 -0.236005 1.016646 0.036785 -0.026079 -1077650.000000 0 1 0
18.302647 -5.597327 11.997575 22.588908 -0.296788 1.010866 0.025516 -0.020339 -979551.000000 0 1 0
18.490147 -6.948827 12.549475 23.402159 -0.359483 1.004805 0.041993 -0.025170 804524.000000 0 1 0
17.367847 -7.728127 12.173175 22.573264 -0.418661 1.001222 0.034532 -0.017521 -192269.000000 0 1 0
17.475847 -9.193327 12.582575 23.414604 -0.484277 1.003467 0.042408 -0.029180 -386689.000000 0 1 0
18.384247 -9.716927 11.642075 23.831431 -0.486223 1.060406 0.040846 -0.039790 343109.000000 0 1 0
18.495347 -11.102127 11.712075 24.546034 -0.540615 1.073390 0.075351 -0.035554 -553477.000000 0 1 0
19.070347 -11.629327 10.397875 24.638084 -0.547603 1.135119 0.087676 -0.037695 -458285.000000 0 1 0
18.278147 -11.375027 9.295275 23.449606 -0.556677 1.163211 0.053081 -0.026543 239730.000000 0 1 0
18.881747 -11.915127 8.091975 23.748067 -0.562931 1.223090 0.052761 -0.033695 60933.300000 0 1 0
18.427747 -11.236427 6.742575 22.611976 -0.547562 1.268005 0.040668 -0.023669 -201076.000000 0 1 0
18.877647 -9.916227 6.606975 22.323737 -0.483674 1.270334 0.035742 -0.020053 570443.000000 0 1 0
19.201347 -9.658827 5.240075 22.123360 -0.466068 1.331667 0.006707 -0.017457 -351728.000000 0 1 0
19.739647 -8.223827 5.037175 21.969482 -0.394747 1.339458 0.025366 -0.017451 -631736.000000 0 1 0
20.326947 -7.959327 3.818375 22.161129 -0.373214 1.397632 0.033841 -0.020149 277147.000000 0 1 0
20.752747 -6.629927 3.715475 22.100615 -0.309224 1.401878 0.048185 -0.018752 -429577.000000 0 1 0
21.382847 -6.302227 2.336275 22.414334 -0.286618 1.466375 0.051640 -0.019083 -49303.900000 0 1 0
20.444747 -6.439627 1.302075 21.474447 -0.305140 1.510125 0.020008 -0.021981 325945.000000 0 1 0
20.858747 -5.622827 0.248575 21.604752 -0.263308 1.559290 0.017820 -0.020324 -133266.000000 0 1 0
-25.714938 -16.153027 0.086375 30.367512 0.560867 1.567952 0.024301 -0.003850 -574232.000000 0 0 1
-24.781688 -15.307427 -0.606225 29.134462 0.553326 1.591606 0.019976 0.001074 390139.000000 0 0 1
-23.465788 -15.853027 -0.500925 28.323358 0.594148 1.588483 0.010726 -0.001139 380032.000000 0 0 1
-22.658288 -15.085027 0.532575 27.225717 0.587376 1.551234 0.010755 -0.007830 -723776.000000 0 0 1
-23.055588 -15.499227 1.826675 27.841029 0.591861 1.505138 0.014442 -0.001567 -358063.000000 0 0 1
-22.109588 -15.185927 2.783975 26.966586 0.601845 1.467374 0.016433 0.006370 -415858.000000 0 0 1
-22.432388 -15.737527 4.221375 27.725472 0.611768 1.417946 0.025087 0.010390 -529776.000000 0 0 1
-22.393888 -17.128627 4.153375 28.497835 0.652956 1.424532 0.031227 0.004797 175838.000000 0 0 1
-22.582288 -17.755627 5.411675 29.231973 0.666309 1.384594 0.029981 -0.007515 -511862.000000 0 0 1
-22.777488 -19.302627 5.181575 30.302708 0.703008 1.398958 0.025236 -0.008805 46292.800000 0 0 1
-23.092588 -19.962827 6.415775 31.192054 0.712834 1.363631 0.019753 -0.007090 -26280.000000 0 0 1
-23.408188 -21.330227 6.193175 32.268828 0.738985 1.377674 0.027823 -0.011257 122667.000000 0 0 1
-23.971788 -22.160727 7.396075 33.473069 0.746161 1.348002 0.029693 -0.009065 357495.000000 0 0 1
-23.033288 -22.477327 8.409575 33.263847 0.773183 1.315208 0.030494 -0.004448 -199621.000000 0 0 1
-23.678988 -23.396727 9.216475 34.540479 0.779402 1.300693 0.032382 -0.003527 251746.000000 0 0 1
-22.869288 -23.728427 10.496175 34.586302 0.803833 1.262456 0.034460 -0.011709 236483.000000 0 0 1
-22.737488 -22.654927 11.431275 34.072175 0.783579 1.228659 0.045877 -0.015305 362749.000000 0 0 1
-21.808788 -22.991527 12.465475 34.053217 0.811792 1.196026 0.054264 -0.017474 104128.000000 0 0 1
-22.087888 -22.152627 13.726475 34.161818 0.786862 1.157306 0.040051 -0.010676 -465520.000000 0 0 1
-23.245788 -22.556727 14.405475 35.449828 0.770355 1.152327 0.038038 -0.010772 -308306.000000 0 0 1
-23.563888 -21.659027 15.433675 35.532641 0.743301 1.121478 0.032381 0.000622 -537623.000000 0 0 1
-24.925388 -22.030527 16.038275 36.930277 0.723825 1.121552 0.020162 0.000897 -268143.000000 0 0 1
-26.075398 -21.674827 15.291775 37.196275 0.693500 1.147125 0.018528 0.001900 231659.000000 0 0 1
-26.448938 -22.668827 14.326675 37.665311 0.708589 1.180602 0.009359 0.003357 -491472.000000 0 0 1
-27.553698 -23.635127 14.792775 39.200149 0.708996 1.183847 0.001679 -0.002164 -341164.000000 0 0 1
-27.165738 -24.475327 15.827975 39.843993 0.733347 1.162279 0.017631 -0.003371 175474.000000 0 0 1
-28.274418 -25.280787 16.234775 41.256864 0.729558 1.166355 0.002413 -0.002865 385367.000000 0 0 1
-28.286788 -26.791207 15.860075 42.064868 0.758251 1.184200 0.008830 0.002317 -216720.000000 0 0 1
-28.785618 -27.131187 14.574675 42.156070 0.755819 1.217778 -0.005855 0.002789 58426.500000 0 0 1
-29.972778 -27.887557 14.772075 43.523528 0.749375 1.224513 -0.003598 0.001677 313980.000000 0 0 1
-30.687568 -28.265277 13.439475 43.832319 0.744333 1.259166 0.000625 -0.003178 -113876.000000 0 0 1
-29.812928 -28.940207 12.588975 43.414612 0.770545 1.276600 0.006301 -0.011761 -133435.000000 0 0 1
-30.486758 -29.439777 11.452375 43.901022 0.767929 1.306875 0.010975 -0.008241 -103850.000000 0 0 1
-29.767678 -30.559957 10.614575 43.962425 0.798530 1.326940 0.010769 -0.013012 93901.900000 0 0 1
-29.830448 -31.812947 11.268875 45.043388 0.817548 1.317932 0.012174 -0.008917 107854.000000 0 0 1
-29.398448 -32.790227 10.332175 45.235181 0.839884 1.340352 0.021349 -0.010586 -312525.000000 0 0 1
-29.457478 -34.268544 10.885475 46.481929 0.860751 1.334414 0.024298 -0.008407 3409.510000 0 0 1
-30.777248 34.353897 10.957075 47.407665 -0.840258 1.337563 0.020169 -0.001081 -210034.000000 0 0 1
-30.843498 33.060757 11.550075 46.666254 -0.820081 1.320693 0.022268 -0.003759 -369109.000000 0 0 1
-32.208878 32.719997 12.170275 47.498691 -0.793270 1.311683 0.027385 -0.004616 730365.000000 0 0 1
-33.375628 32.494367 11.365375 47.947765 -0.772020 1.331482 0.012699 -0.002421 785378.000000 0 0 1
-33.917918 33.644650 10.749375 48.968732 -0.781354 1.349479 0.024373 0.002440 157637.000000 0 0 1
-35.318671 33.346127 10.093875 49.611077 -0.756679 1.365906 0.027056 0.001181 725212.000000 0 0 1
-35.258299 32.608397 8.927075 48.848212 -0.746372 1.387012 0.008858 0.005602 549143.000000 0 0 1
34.247227 32.408547 8.483775 47.907838 0.757820 1.392772 0.005156 0.008197 462072.000000 0 0 1
34.031277 31.937307 7.045875 47.199192 0.753667 1.420957 -0.000446 0.006834 -188645.000000 0 0 1
34.314027 30.569787 6.867775 46.466446 0.727755 1.422452 0.007848 0.002939 59021.000000 0 0 1
34.021087 30.216307 5.537275 45.837986 0.726237 1.449700 0.011679 -0.002434 -160474.000000 0 0 1
33.969947 28.723887 5.178475 44.786556 0.701915 1.454911 0.008516 -0.001048 -71244.700000 0 0 1
33.107877 27.897917 5.909075 43.696023 0.700204 1.435149 0.012554 0.004082 -195984.000000 0 0 1
33.670157 27.520187 7.141075 44.068527 0.685229 1.408034 0.004739 -0.004204 -189975.000000 0 0 1
32.881237 26.407477 7.816675 42.890920 0.676639 1.387527 -0.004475 -0.002879 -136453.000000 0 0 1
33.085217 25.161887 7.185575 42.182753 0.650198 1.399618 -0.003166 -0.003147 -16242.900000 0 0 1
31.972827 24.322427 7.437075 40.855259 0.650328 1.387741 -0.007590 0.001200 -232553.000000 0 0 1
32.114927 22.973487 6.755375 40.059764 0.620955 1.401354 -0.005308 0.003196 395234.000000 0 0 1
33.188437 22.149987 7.208575 40.546983 0.588511 1.392063 -0.008261 0.000247 -34684.300000 0 0 1
34.440607 22.441587 6.627275 41.637735 0.577501 1.410951 -0.002798 -0.002991 -207955.000000 0 0 1
35.340100 21.172187 6.679675 41.734904 0.539756 1.410055 -0.000438 -0.005079 -470934.000000 0 0 1
34.954281 20.187287 5.745775 40.771831 0.523737 1.429401 0.013218 -0.008941 -6646.800000 0 0 1
-35.311234 18.955187 6.067575 40.533909 -0.492655 1.420540 0.017080 -0.006560 -226939.000000 0 0 1
35.105369 17.749287 5.209575 39.680773 0.468118 1.439129 0.026025 -0.010285 -516717.000000 0 0 1
-35.058324 17.663187 3.985875 39.458351 -0.466701 1.469609 0.023723 -0.008735 -44185.700000 0 0 1
35.381005 16.514187 3.226575 39.178370 0.436698 1.488347 0.019379 -0.007341 -816576.000000 0 0 1
-34.608450 16.046387 1.964575 38.198048 -0.434151 1.519342 0.020490 0.007034 755386.000000 0 0 1
-33.396078 15.362487 2.299775 36.831956 -0.431146 1.508316 0.033371 -0.007830 221144.000000 0 0 1
-32.363128 16.254487 2.632475 36.311297 -0.465449 1.498235 0.033961 -0.009961 -708698.000000 0 0 1
-31.077668 15.449187 2.995075 34.834886 -0.461337 1.484711 0.017928 -0.014429 -32485.400000 0 0 1
-31.162038 14.747087 4.270075 34.738778 -0.442010 1.447565 0.037413 -0.024537 -290692.000000 0 0 1
-29.931988 14.153887 4.551575 33.421150 -0.441708 1.434183 0.025420 -0.023476 -490580.000000 0 0 1
-29.918668 13.277387 5.851875 33.251468 -0.417672 1.393887 0.040178 -0.016891 -143414.000000 0 0 1
-30.322118 11.926187 5.603175 33.061463 -0.374731 1.400497 0.047512 -0.013636 385849.000000 0 0 1
-30.009588 11.127087 6.757575 32.711653 -0.355070 1.362718 0.042613 -0.002183 -105557.000000 0 0 1
-30.264258 9.642787 6.587875 32.439309 -0.308450 1.366291 0.041635 -0.009480 922297.000000 0 0 1
-31.662388 9.324387 6.470775 33.635129 -0.286398 1.377208 0.029646 0.011737 710614.000000 0 0 1
-31.834328 8.020487 5.986375 33.370486 -0.246808 1.390429 0.033554 0.000090 822527.000000 0 0 1
-33.310108 7.489387 6.164675 34.693766 -0.221161 1.392159 0.028858 0.007522 826987.000000 0 0 1
-33.682708 7.379287 7.532075 35.294629 -0.215675 1.355737 0.024090 0.015906 -197560.000000 0 0 1
-34.894004 6.665787 7.577975 36.324233 -0.188755 1.360632 0.001344 0.009850 -203798.000000 0 0 1
-35.268978 6.156887 9.001175 36.916517 -0.172828 1.324488 0.004811 0.009730 -172920.000000 0 0 1
34.994763 7.039987 9.929075 37.051064 0.198523 1.299497 0.021431 0.006498 12074.500000 0 0 1
-34.932026 7.746787 10.745175 37.359308 -0.218236 1.279058 0.027614 0.005425 -159110.000000 0 0 1
35.241038 8.761887 11.690875 38.149416 0.243686 1.259335 0.022824 -0.001288 -454072.000000 0 0 1
34.587187 8.238487 12.844075 37.803656 0.233837 1.224137 0.018722 -0.006004 651202.000000 0 0 1
33.969057 9.270087 13.634775 37.758952 0.266411 1.201349 0.035268 -0.019536 -117530.000000 0 0 1
33.380217 8.692587 14.976275 37.604371 0.254753 1.161178 0.034013 -0.017278 -269246.000000 0 0 1
32.156777 8.023987 14.777275 36.287884 0.244534 1.151384 0.044585 -0.023728 144690.000000 0 0 1
31.626207 7.504187 16.002675 36.230034 0.232969 1.113308 0.034390 -0.019796 -1190910.000000 0 0 1
30.165717 7.220387 15.987475 34.895613 0.234937 1.094882 0.040101 -0.018555 -1828290.000000 0 0 1
29.329447 8.336387 15.950475 34.411182 0.276929 1.088826 0.030038 -0.019467 1648090.000000 0 0 1
27.896147 8.070287 15.855175 33.086419 0.281609 1.071048 0.041396 -0.015686 1886820.000000 0 0 1
27.126157 7.502887 17.086775 32.925364 0.269846 1.025169 0.056370 -0.007383 -446269.000000 0 0 1
27.116157 8.396787 18.186375 33.712553 0.300295 1.001008 0.054821 -0.004554 348928.000000 0 0 1
26.474117 7.939687 19.408875 33.773095 0.291368 0.958578 0.058927 -0.008180 248338.000000 0 0 1
27.228527 6.909087 20.347375 34.686364 0.248500 0.943929 0.065059 -0.010197 29572.900000 0 0 1
26.618497 6.794887 21.609775 34.952786 0.249932 0.904274 0.055461 -0.002840 -10895.400000 0 0 1
27.077767 5.677287 22.366475 35.576625 0.206672 0.890936 0.059457 -0.004421 -265359.000000 0 0 1
26.436537 5.551887 23.787575 35.993925 0.207000 0.848809 0.064641 -0.003714 -217446.000000 0 0 1
25.062847 5.304387 23.767775 34.945528 0.208566 0.822846 0.054226 -0.011688 -740454.000000 0 0 1
24.296947 6.468787 23.984575 34.748333 0.260203 0.808980 0.054696 -0.005933 -198794.000000 0 0 1
22.788747 6.137187 24.068775 33.709019 0.263067 0.775579 0.042052 -0.011633 -43810.600000 0 0 1
22.293447 5.582687 22.920075 32.457572 0.245372 0.786743 0.040134 0.010313 -643669.000000 0 0 1
20.899047 5.531487 22.933775 31.517068 0.258743 0.755889 0.032004 0.000413 -1343430.000000 0 0 1
20.305847 5.030287 21.560175 30.041178 0.242837 0.770321 0.029047 0.002857 729370.000000 0 0 1
18.911247 5.050487 21.204775 28.858017 0.260972 0.745429 0.025910 -0.001991 1572770.000000 0 0 1
18.126547 4.236887 22.124075 28.913623 0.229617 0.699478 0.024404 -0.003519 -316727.000000 0 0 1
16.727947 3.893087 21.577775 27.578628 0.228659 0.672271 0.041466 -0.002339 -727273.000000 0 0 1
16.716447 3.055187 20.492675 26.621861 0.180770 0.692318 0.026290 0.000100 218905.000000 0 0 1
15.462547 2.727087 19.919275 25.363456 0.174572 0.667530 0.040883 -0.011746 782560.000000 0 0 1
14.363347 1.983387 20.782575 25.340777 0.137219 0.609169 0.046535 -0.007463 13479.700000 0 0 1
14.664647 0.604687 20.918575 25.553949 0.041211 0.611819 0.014725 -0.005404 104866.000000 0 0 1
13.769047 -0.055013 21.772075 25.760686 -0.003995 0.563919 0.032576 -0.004989 -288073.000000 0 0 1
14.140647 -1.551313 21.988075 26.188545 -0.109269 0.574238 0.011180 -0.004569 7789.510000 0 0 1
13.752047 -2.290913 20.820475 25.057120 -0.165071 0.590036 0.025790 -0.004140 187792.000000 0 0 1
14.044947 -3.650813 20.883375 25.430382 -0.254310 0.607289 0.017531 0.004980 -138079.000000 0 0 1
13.898847 -4.425613 19.558275 24.398568 -0.308265 0.640803 0.021818 -0.001035 -1159900.000000 0 1 0
12.589147 -4.582413 19.184375 23.399260 -0.349090 0.609611 0.037359 -0.006689 -991547.000000 0 1 0
12.503247 -5.090413 17.859575 22.387673 -0.386635 0.647256 0.045330 -0.009173 763752.000000 0 1 0
10.980847 -5.144313 17.491075 21.283342 -0.438116 0.606198 0.039490 -0.009615 672721.000000 0 1 0
10.293347 -6.153113 18.213075 21.806648 -0.538782 0.582286 0.036727 -0.006760 24685.100000 0 1 0
8.926447 -6.071413 17.813975 20.829816 -0.597286 0.544830 0.033845 -0.026109 118090.000000 0 1 0
7.972947 -6.845413 18.709175 21.458350 -0.709454 0.511762 0.034202 -0.028982 -605493.000000 0 1 0
8.044947 -8.240113 18.571875 21.852578 -0.797382 0.555056 0.035348 -0.026965 -242698.000000 0 1 0
8.878547 -8.868613 19.483575 23.175215 -0.784838 0.572208 0.027707 -0.018688 -234506.000000 0 1 0
9.020147 -10.314013 19.057075 23.471558 -0.852220 0.623359 0.040525 -0.020940 229159.000000 0 1 0
9.461547 -10.369213 17.656375 22.556352 -0.831137 0.671696 0.046137 -0.014686 291727.000000 0 1 0
9.762947 -11.706413 17.284275 23.045637 -0.875675 0.722731 0.032709 -0.015123 86011.800000 0 1 0
9.924247 -11.748313 15.755775 22.017220 -0.869365 0.773297 0.039504 -0.019625 179023.000000 0 1 0
10.378747 -12.960613 15.249675 22.544367 -0.895573 0.827892 0.022334 -0.013940 -147714.000000 0 1 0
9.944247 -13.197613 13.919175 21.605751 -0.925066 0.870774 0.012768 -0.003876 -319377.000000 0 1 0
10.570947 -14.458813 13.254075 22.281667 -0.939496 0.933727 0.018891 -0.007800 -554492.000000 0 1 0
11.839347 -14.386613 12.704975 22.551301 -0.882222 0.972324 0.000272 -0.003706 -854028.000000 0 1 0
11.978447 -13.578313 11.540975 21.472025 -0.847917 1.003340 -0.023858 -0.003114 658076.000000 0 1 0
13.454247 -13.178313 11.077975 21.849627 -0.775038 1.039084 0.001598 -0.013144 1306790.000000 0 1 0
14.164747 -14.228613 10.485675 22.650449 -0.787647 1.089493 0.013240 -0.008349 -374384.000000 0 1 0
15.436447 -13.783113 10.074375 23.016323 -0.728875 1.117751 0.014415 -0.020707 -4538.710000 0 1 0
16.162147 -14.930213 9.276075 23.878271 -0.745797 1.171822 0.015861 -0.019136 -98804.400000 0 1 0
16.582347 -16.012413 10.114475 25.172886 -0.767915 1.157314 0.017473 -0.012582 572515.000000 0 0 1
15.637547 -17.099213 10.242475 25.334250 -0.830018 1.154590 0.034269 -0.013244 144094.000000 0 0 1
15.791447 -18.005513 11.486375 26.561346 -0.850815 1.123591 0.016683 -0.007552 623826.000000 0 0 1
17.040447 -18.720713 11.615375 27.852448 -0.832349 1.140618 0.039356 -0.009998 822763.000000 0 0 1
17.118047 -19.392113 12.878175 28.895137 -0.847604 1.108855 0.015793 -0.012294 -854395.000000 0 0 1
18.521947 -19.967413 13.022375 30.188447 -0.822935 1.124786 0.000535 -0.015013 -108302.000000 0 0 1
19.515847 -18.973313 13.251775 30.273163 -0.771303 1.117713 0.008006 -0.012826 -291639.000000 0 0 1
20.812947 -19.457213 13.027675 31.328616 -0.751745 1.141931 0.001534 -0.016570 305465.000000 0 0 1
21.631847 -18.821313 11.823175 31.015578 -0.716033 1.179701 0.027119 -0.002030 -10056.100000 0 0 1
21.118847 -18.950413 10.529075 30.265248 -0.731334 1.215473 0.030544 0.001957 666380.000000 0 0 1
19.983947 -18.130413 10.096875 28.810014 -0.736806 1.212730 0.023190 0.002534 1048510.000000 0 0 1
20.154447 -16.583513 10.015475 27.955757 -0.688502 1.204391 0.046785 -0.026727 -205778.000000 0 0 1
21.037547 -16.151413 9.009875 28.011147 -0.654760 1.243321 0.039241 -0.012518 -27779.700000 0 0 1
21.239547 -14.772813 9.210375 27.462435 -0.607722 1.228787 0.051706 -0.024375 -51147.500000 0 0 1
-33.967308 25.342973 7.651075 43.064872 -0.641000 1.392184 0.026976 -0.006516 433578.000000 0 0 1
-33.105068 24.490373 8.474775 42.042189 -0.636926 1.367828 0.033336 -0.007817 840183.000000 0 0 1
-32.227528 25.372673 9.199075 42.035807 -0.666948 1.350172 0.038009 -0.004939 -275866.000000 0 0 1
-31.208008 24.579573 10.007475 40.966385 -0.667137 1.324014 0.045823 -0.013935 -618352.000000 0 0 1
-30.448818 23.746973 9.197075 39.694274 -0.662363 1.336974 0.053497 -0.017035 -391402.000000 0 0 1
-29.775048 22.773673 9.947875 38.783422 -0.652942 1.311399 0.054599 -0.018080 -137105.000000 0 0 1
-28.954558 21.907673 8.956775 37.397010 -0.647726 1.328940 0.053836 -0.022148 248755.000000 0 0 1
-29.752388 20.982673 8.196875 37.318439 -0.614236 1.349344 0.054862 -0.027055 527338.000000 0 0 1
-28.916508 20.350473 7.237175 36.092698 -0.613249 1.368911 0.043661 -0.025261 139942.000000 0 0 1
-29.704818 19.404673 6.336375 36.042574 -0.578657 1.394075 0.039834 -0.016179 238917.000000 0 0 1
-30.457458 18.357873 7.015575 36.247573 -0.542430 1.376021 0.037438 -0.016782 688191.000000 0 0 1
-31.369478 17.760773 6.127975 36.565575 -0.515181 1.402413 0.019854 -0.011308 -74330.200000 0 0 1
-32.082628 16.481073 6.638075 36.674034 -0.474553 1.388791 0.031760 -0.006248 -115554.000000 0 0 1
-33.064808 16.771673 7.632275 37.852637 -0.469420 1.367773 0.030355 -0.008411 253478.000000 0 0 1
-33.769078 15.579473 7.942975 38.028429 -0.432255 1.360378 0.038796 -0.007777 -238771.000000 0 0 1
-34.788253 15.875673 9.047875 39.295338 -0.428123 1.338459 0.036803 -0.013009 -340277.000000 0 0 1
35.074962 16.810373 8.696175 39.855552 0.446926 1.350835 0.031548 -0.011272 -113461.000000 0 0 1
34.723867 17.667973 9.789975 40.171480 0.470674 1.324613 0.030387 -0.006456 -194684.000000 0 0 1
33.801577 18.819573 9.452475 39.825522 0.508023 1.331162 0.015277 -0.006193 -1209450.000000 0 0 1
32.484687 18.482773 9.218675 38.494827 0.517290 1.328968 -0.001788 0.003481 -926047.000000 0 0 1
31.834357 19.693473 8.834975 38.461876 0.554001 1.339019 -0.010306 -0.001384 310947.000000 0 0 1
30.332767 19.628873 8.445575 37.103869 0.574346 1.341164 -0.022192 -0.000397 3364.620000 0 0 1
29.797217 20.933673 8.237975 37.335734 0.612427 1.348320 -0.028580 -0.002530 1016690.000000 0 0 1
28.486407 20.929773 7.606875 36.157922 0.633655 1.358833 -0.022517 -0.006479 1136690.000000 0 0 1
28.463227 20.579573 6.084375 35.646791 0.626011 1.399271 -0.039332 0.013316 -915760.000000 0 0 1
28.636317 19.163573 5.842275 34.948724 0.589758 1.402841 -0.033038 0.004961 72745.100000 0 0 1
28.415447 18.877373 4.472375 34.406321 0.586387 1.440440 -0.030999 0.008310 -25703.600000 0 0 1
26.967247 19.100673 3.962375 33.283157 0.616269 1.451463 -0.010838 0.016490 -1385380.000000 0 0 1
26.018717 18.297073 4.659675 32.147614 0.612889 1.425338 -0.009614 0.010134 256740.000000 0 0 1
24.697147 18.485373 4.192775 31.132578 0.642529 1.435711 0.014385 0.005570 -73446.000000 0 0 1
24.060347 19.788773 4.724975 31.509065 0.688289 1.420273 0.019382 0.005360 -1319800.000000 0 0 1
24.549247 20.851473 3.985275 32.455074 0.704130 1.447692 0.006487 0.001608 109228.000000 0 0 1
23.977947 22.042673 4.536675 32.884689 0.743371 1.432398 0.006213 0.013654 -45587.600000 0 0 1
24.762347 23.387173 4.322775 34.333949 0.756845 1.444557 -0.014803 0.014633 -156454.000000 0 0 1
26.026267 23.284873 4.930175 35.268378 0.729862 1.430547 -0.011232 0.013806 -40366.500000 0 0 1
26.760467 24.495273 4.836675 36.599650 0.741233 1.438258 -0.012004 0.014884 -650751.000000 0 0 1
28.109367 24.457973 5.568775 37.674131 0.716048 1.422438 -0.016814 0.014897 -201548.000000 0 0 1
29.121917 23.551673 5.193075 37.811841 0.680040 1.433021 -0.026376 0.011183 220964.000000 0 0 1
29.552057 23.534173 3.830575 37.971761 0.672519 1.469745 -0.019451 0.009008 -985786.000000 0 0 1
30.515127 24.582673 3.331775 39.326600 0.678140 1.485974 -0.002393 -0.000858 -835385.000000 0 0 1
29.930277 25.905173 3.400075 39.729837 0.713434 1.485112 -0.009829 0.002631 -198465.000000 0 0 1
30.755317 26.902273 2.929275 40.965869 0.718671 1.499230 0.009090 0.002007 -538115.000000 0 0 1
30.084517 28.276973 3.188075 41.410496 0.754437 1.493733 0.008628 0.004663 732933.000000 0 0 1
29.010687 28.678873 2.345575 40.860732 0.779647 1.513361 0.020350 -0.003904 306012.000000 0 0 1
27.719627 28.292573 2.769075 39.705354 0.795627 1.500999 0.007518 0.014083 24355.000000 0 0 1
26.569147 28.948473 1.979675 39.342760 0.828229 1.520456 -0.017920 0.021692 83232.500000 0 0 1
26.288827 30.326573 2.325775 40.202147 0.856596 1.512912 -0.023452 0.018482 380996.000000 0 0 1
24.967847 30.728973 1.971375 39.642773 0.888469 1.521047 -0.026220 0.024347 529733.000000 0 0 1
24.468147 32.067673 2.574375 40.418477 0.919017 1.507060 -0.006769 0.007909 -243816.000000 0 0 1
24.376047 32.210473 3.992875 40.591246 0.922974 1.472269 -0.015655 -0.001331 -98783.400000 0 0 1
25.606147 32.087373 4.657375 41.315438 0.897268 1.457829 -0.009959 0.000079 -286601.000000 0 0 1
25.447747 31.951473 6.226375 41.318908 0.898224 1.419529 0.007510 -0.009338 190016.000000 0 0 1
24.920847 30.728273 6.690775 40.125326 0.889380 1.403267 0.001885 -0.005599 364176.000000 0 0 1
25.979827 29.788573 6.756475 40.099382 0.853588 1.401495 0.008574 -0.003435 155568.000000 0 0 1
25.605847 28.420873 7.366775 38.957346 0.837455 1.380552 0.012017 0.002859 444161.000000 0 0 1
24.528247 27.873273 6.589775 37.709142 0.849146 1.395142 0.002520 -0.005506 526875.000000 0 0 1
24.061347 26.561273 6.956575 36.508130 0.834742 1.379075 0.012833 -0.006555 709252.000000 0 0 1
22.737247 26.156273 6.168575 35.202050 0.855213 1.394653 0.036188 0.004974 630837.000000 0 0 1
22.694747 25.997073 4.766075 34.836974 0.853115 1.433555 0.014330 -0.000511 131456.000000 0 0 1
23.038147 27.190173 4.019675 35.863902 0.867874 1.458479 0.003632 -0.002232 -305908.000000 0 0 1
23.035447 26.929873 2.512975 35.526960 0.863183 1.500003 0.001108 0.006400 -396593.000000 0 0 1
24.057447 26.103473 2.031075 35.556677 0.826165 1.513643 -0.020698 0.025424 -133776.000000 0 0 1
24.056647 26.087273 0.636175 35.491869 0.825872 1.552871 -0.011985 0.022029 -234398.000000 0 0 1
25.304947 25.438473 0.036575 35.881159 0.788030 1.569777 -0.000492 0.018674 -1592000.000000 0 0 1
26.493637 26.196773 0.016375 37.258341 0.779764 1.570357 0.007836 0.019797 49969.600000 0 0 1
27.366907 25.708573 -0.986025 37.561290 0.754164 1.597050 -0.004562 0.021864 -42178.400000 0 0 1
28.126327 24.409673 -0.630525 37.246744 0.714771 1.587725 -0.000635 0.012017 -1565690.000000 0 0 1
27.304907 23.319973 -0.510625 35.911555 0.706845 1.585016 -0.002088 0.008380 -470606.000000 0 0 1
27.924397 22.324473 0.252575 35.752172 0.674412 1.563732 0.000085 0.002096 32883.000000 0 0 1
26.865537 21.382473 0.869175 34.347091 0.672240 1.545488 -0.000844 0.005155 -112054.000000 0 0 1
26.389777 20.469873 -0.053925 33.398187 0.659731 1.572411 0.016793 -0.012642 328497.000000 0 0 1
25.327147 19.787373 0.597275 32.145936 0.663216 1.552215 0.020223 0.000712 -491035.000000 0 0 1
24.764347 18.574673 -0.198725 30.956919 0.643538 1.577216 0.029759 -0.008692 -882051.000000 0 0 1
23.559947 18.184573 0.373075 29.763887 0.657335 1.558262 0.037507 -0.007870 -569369.000000 0 0 1
23.018347 17.153873 -0.424425 28.710273 0.640439 1.585580 0.044147 -0.020320 -222382.000000 0 0 1
21.571347 16.830573 0.000775 27.360394 0.662568 1.570768 0.047358 -0.009086 -356188.000000 0 0 1
20.967647 15.810273 -0.804025 26.272674 0.646076 1.601404 0.042493 -0.013634 2281580.000000 0 0 1
19.611247 15.409573 -0.346425 24.943455 0.665992 1.584685 0.054867 -0.014779 1586700.000000 0 1 0
18.455847 16.263373 -0.828125 24.613032 0.722333 1.604448 0.059131 -0.022154 -1178580.000000 0 1 0
18.371047 17.578873 -0.286425 25.428216 0.763366 1.582061 0.049678 -0.010620 375208.000000 0 0 1
17.279547 18.352073 -0.805225 25.219629 0.815489 1.602730 0.040927 -0.011900 580966.000000 0 0 1
17.557747 19.864273 -0.596125 26.518280 0.846956 1.593278 0.048861 -0.003968 127340.000000 0 0 1
17.366747 20.248473 0.765075 26.686886 0.861859 1.542124 0.061447 -0.006577 -139607.000000 0 0 1
17.418647 21.576773 1.212075 27.756720 0.891628 1.527115 0.071799 -0.010369 194682.000000 0 0 1
16.418747 22.662173 0.707675 27.993751 0.943816 1.545514 0.077455 -0.019300 458183.000000 0 0 1
15.095847 22.567773 1.203475 27.177883 0.981241 1.526500 0.071731 -0.016715 161885.000000 0 0 1
14.273747 23.645973 0.766575 27.630771 1.027702 1.543049 0.060632 -0.016225 832542.000000 0 0 1
12.792747 23.406473 1.240375 26.703106 1.070608 1.524329 0.048144 -0.022392 565278.000000 0 0 1
12.602247 23.630273 2.625275 26.909078 1.080858 1.473080 0.045765 -0.010359 953581.000000 0 0 1
11.251147 23.280673 2.999975 26.030326 1.120612 1.455290 0.030711 -0.014016 1022220.000000 0 0 1
10.944447 23.523973 4.466275 26.326903 1.135336 1.400325 0.027921 -0.007129 85145.300000 0 0 1
11.494647 22.594373 5.384575 25.915753 1.100182 1.361499 0.031065 -0.022234 210339.000000 0 0 1
10.724347 22.668973 6.560875 25.921787 1.128912 1.314910 0.012245 -0.006226 -692790.000000 0 0 1
11.158047 21.651973 7.582775 25.510947 1.094955 1.269000 0.017987 -0.010569 957292.000000 0 0 1
12.461247 21.810573 8.173075 26.415581 1.051717 1.256231 0.014068 -0.005557 1289110.000000 0 0 1
13.615447 21.589673 7.396975 26.574604 1.008147 1.288723 0.041967 -0.010181 -113368.000000 0 0 1
15.025247 21.595473 8.015875 27.502304 0.962922 1.275042 0.020526 -0.004093 133737.000000 0 0 1
15.247047 20.598973 9.014775 27.167191 0.933607 1.232558 0.026453 -0.006148 1430650.000000 0 0 1
16.595447 20.631873 9.578375 28.157207 0.893403 1.223693 0.035416 -0.011869 1400480.000000 0 0 1
16.706647 21.592173 10.798575 29.358869 0.912276 1.194140 0.027869 -0.004403 -231421.000000 0 0 1
16.046147 21.160773 11.992975 29.139125 0.922006 1.146613 0.020166 -0.010170 40756.800000 0 0 1
16.247447 22.024073 13.073675 30.330847 0.935205 1.125156 0.004578 0.003025 -218808.000000 0 0 1
17.332147 21.572273 14.062475 31.040610 0.893958 1.100630 0.018343 0.007889 -172030.000000 0 0 1
18.649447 21.898173 13.702975 31.860687 0.865349 1.126203 0.026799 0.001006 -535531.000000 0 0 1
19.553247 21.266973 14.596775 32.367877 0.827356 1.102950 0.018020 -0.001859 911418.000000 0 0 1
21.026447 21.782473 14.395975 33.523599 0.803057 1.126937 0.029144 -0.003910 544150.000000 0 0 1
21.610147 21.363873 13.214075 33.136465 0.779667 1.160613 0.032945 -0.002891 210716.000000 0 0 1
22.982047 21.771473 13.167675 34.286428 0.758355 1.176619 0.034776 0.001400 856750.000000 0 0 1
23.785847 21.102873 11.970775 33.976421 0.725700 1.210741 0.032938 0.008919 178794.000000 0 0 1
23.487047 21.672173 10.737675 33.713827 0.745231 1.246655 0.039524 0.005354 128025.000000 0 0 1
24.528847 21.409273 9.834575 34.010883 0.717594 1.277447 0.044449 -0.004339 -399236.000000 0 0 1
24.312847 22.267573 8.532075 34.055185 0.741518 1.317562 0.025048 0.000018 192196.000000 0 0 1
24.636247 23.657373 8.622475 35.227305 0.765132 1.323517 0.021113 0.006409 336132.000000 0 0 1
26.020637 23.869373 8.834175 36.398669 0.742305 1.325642 0.007478 0.003500 -310321.000000 0 0 1
26.371417 25.212773 9.491975 37.699246 0.762941 1.316276 0.008345 0.008320 688008.000000 0 0 1
27.729237 25.573373 9.161975 38.818163 0.744974 1.332525 0.000665 0.012603 1074830.000000 0 0 1
28.190307 26.588573 10.088875 40.042864 0.756167 1.316100 0.001070 0.013378 -396438.000000 0 0 1
29.351287 27.335973 9.497175 41.218318 0.749862 1.338296 0.005500 0.005677 -452194.000000 0 0 1
28.958997 28.121973 8.350575 41.221365 0.770735 1.366806 0.010700 0.002004 -185068.000000 0 0 1
30.107817 28.656273 7.776975 42.286451 0.760702 1.385832 0.008853 0.000889 -698185.000000 0 0 1
29.917177 29.609373 6.559975 42.600302 0.780227 1.416192 0.023860 0.003919 -144783.000000 0 0 1
29.665137 30.931973 6.862275 43.403895 0.806301 1.412027 0.031194 0.000391 107169.000000 0 0 1
29.858817 31.707073 5.754675 43.931807 0.815410 1.439428 0.023427 0.002440 -17002.200000 0 0 1
29.858947 33.203573 6.082475 45.066955 0.838385 1.435418 0.016170 -0.002909 -10130.100000 0 0 1
28.630567 33.658473 6.593175 44.677423 0.865942 1.422683 0.020108 -0.008811 -139502.000000 0 0 1
28.658037 -34.046942 6.800075 45.019088 -0.871128 1.419167 0.021936 -0.005346 607944.000000 0 0 1
27.246477 -33.512742 7.177275 43.783417 -0.888168 1.406126 0.041949 -0.014743 758948.000000 0 0 1
26.197467 -33.571842 6.242775 43.038913 -0.908158 1.425233 0.030887 -0.017258 -439143.000000 0 0 1
25.028047 -32.915842 6.642775 41.880571 -0.920695 1.411511 0.016557 -0.015628 -334639.000000 0 0 1
23.899047 -33.168342 5.649075 41.270030 -0.946419 1.433484 0.012552 -0.004258 -465882.000000 0 0 1
24.159847 -32.478942 4.468375 40.725253 -0.931235 1.460855 -0.000368 0.002454 38302.000000 0 0 1
23.264547 -32.789442 3.400575 40.347869 -0.953714 1.486415 -0.004150 -0.001794 8569.820000 0 0 1
23.670547 -32.162642 2.015775 39.984918 -0.936339 1.520362 -0.000951 0.006109 -73647.400000 0 0 1
23.698447 -30.747042 2.057875 38.874565 -0.914144 1.517835 0.008229 0.008764 41571.500000 0 0 1
24.387447 -30.201442 0.940875 38.829884 -0.891503 1.546563 0.006678 0.004599 -382128.000000 0 0 1
24.674647 -28.691342 1.053775 37.856858 -0.860523 1.542957 0.014543 0.003218 -206213.000000 0 0 1
23.607647 -27.786742 0.996975 36.474895 -0.866534 1.543460 0.014562 0.005920 -560849.000000 0 0 1
22.930747 -27.727642 -0.209025 35.981731 -0.879808 1.576606 0.018667 0.002894 351388.000000 0 0 1
21.831847 -26.588342 -0.320625 34.404538 -0.883318 1.580116 0.018780 0.003846 452941.000000 0 0 1
22.416047 -25.275542 -0.296825 33.784912 -0.845285 1.579582 0.011465 0.000625 203857.000000 0 0 1
22.547247 -24.559442 0.976475 33.354130 -0.828088 1.541516 0.009122 0.004089 787321.000000 0 0 1
21.198747 -24.427442 1.789975 32.392758 -0.856044 1.515510 0.013681 0.000438 897335.000000 0 0 1
21.335147 -23.683142 3.011675 32.017962 -0.837507 1.476595 0.006643 0.001926 -202048.000000 0 0 1
20.072747 -23.635542 3.636275 31.221411 -0.866731 1.454064 0.007535 0.011793 -48315.500000 0 0 1
20.160347 -23.030442 5.063575 31.023872 -0.851752 1.406847 0.000764 0.013559 -178651.000000 0 0 1
20.354347 -21.624142 5.073875 30.127183 -0.815638 1.401575 0.021677 0.014873 304164.000000 0 0 1
19.242147 -20.870942 4.594775 28.757058 -0.825981 1.410330 0.011203 0.004797 -379635.000000 0 0 1
19.305147 -19.358442 4.904975 27.775830 -0.786777 1.393274 0.016306 0.003074 -149187.000000 0 0 1
19.078547 -18.966942 6.245375 27.617757 -0.782465 1.342687 0.028169 -0.001917 591324.000000 0 0 1
17.695047 -18.923342 6.606975 26.736859 -0.818929 1.321099 0.008430 0.003997 672547.000000 0 0 1
18.274812 -26.256187 -12.397325 34.308159 -0.962747 1.940514 0.037218 -0.006822 66294.800000 0 0 1
18.422812 -24.887227 -12.660625 33.452437 -0.933563 1.958935 0.049427 -0.014219 -800792.000000 0 0 1
17.258812 -24.366027 -13.196425 32.645298 -0.954512 1.986940 0.036539 -0.011219 -455768.000000 0 0 1
17.373912 -22.824627 -13.479925 31.694239 -0.920171 2.010102 0.027476 -0.019541 -129.575000 0 0 1
17.366812 -21.938027 -12.301325 30.564780 -0.901180 1.985007 0.033518 -0.016905 -462845.000000 0 0 1
18.532112 -21.896227 -11.507925 30.908191 -0.868419 1.952310 0.041930 -0.024187 -808522.000000 0 0 1
18.552912 -22.574927 -10.130025 30.926611 -0.882881 1.904506 0.043445 -0.014546 -257261.000000 0 0 1
17.753212 -22.135427 -9.031225 29.777789 -0.894821 1.878937 0.044843 -0.010220 848932.000000 0 0 1
16.353012 -22.386427 -9.247225 29.224721 -0.939900 1.892747 0.046485 0.005543 981608.000000 0 0 1
15.373312 -21.815627 -8.161525 27.908257 -0.956928 1.867575 0.033652 -0.005534 -610272.000000 0 0 1
15.368612 -20.404227 -8.266325 26.848815 -0.925246 1.883765 0.027568 -0.014968 -284751.000000 0 0 1
14.434612 -19.667727 -7.542625 25.535636 -0.937664 1.870646 0.016590 -0.017850 691812.000000 0 0 1
12.936312 -19.783727 -8.015425 24.959789 -0.991694 1.897722 0.011463 -0.000621 796908.000000 0 1 0
12.444512 -21.120727 -7.998925 25.786310 -1.038350 1.886200 0.007220 0.002453 -395634.000000 0 0 1
11.057512 -21.201427 -8.294225 25.309351 -1.090061 1.904679 -0.000616 0.006677 627520.000000 0 0 1
10.436212 -22.660527 -8.026225 26.207524 -1.139207 1.882054 -0.004170 0.012158 157226.000000 0 0 1
10.414812 -22.987227 -6.615325 26.089144 -1.145393 1.827161 0.003475 0.007173 224306.000000 0 0 1
9.648412 -24.130527 -6.352425 26.753084 -1.190426 1.810533 0.004385 0.007082 141399.000000 0 0 1
10.249712 -24.730027 -5.029425 27.238318 -1.177883 1.756507 0.012843 0.002058 509584.000000 0 0 1
9.499812 -25.749867 -4.349125 27.788792 -1.217361 1.727949 0.019300 0.000321 -4951.440000 0 0 1
10.261112 -26.207337 -3.245425 28.331038 -1.197608 1.685602 0.016367 -0.005743 -94630.700000 0 0 1
9.447212 -27.122997 -2.359325 28.817932 -1.235628 1.652758 0.032025 -0.005268 168361.000000 0 0 1
8.613412 -26.415827 -1.441025 27.821994 -1.255597 1.622614 0.026950 0.000396 -420299.000000 0 0 1
7.855612 -27.247497 -0.660625 28.364999 -1.290102 1.594089 0.034498 -0.004440 -141923.000000 0 0 1
6.955312 -26.679637 0.448575 27.575000 -1.315775 1.554528 0.034730 -0.004726 -73413.600000 0 0 1
5.725412 -26.134847 0.035875 26.754661 -1.355131 1.569455 0.037340 -0.011161 -325668.000000 0 0 1
5.130312 -25.501247 1.176375 26.038771 -1.372267 1.525603 0.040383 -0.008764 -45437.200000 0 0 1
3.666412 -25.050917 1.015375 25.338153 -1.425470 1.530713 0.028789 -0.010187 -134622.000000 0 0 1
2.720412 -26.041877 0.857875 26.197633 -1.466711 1.538044 0.020639 -0.011329 -763344.000000 0 0 1
1.415412 -25.535177 0.789375 25.586555 -1.515423 1.539940 0.017190 -0.008056 152333.000000 0 0 1
0.352812 -26.548127 0.258075 26.551726 -1.557508 1.561076 0.015182 -0.005252 358035.000000 0 0 1
0.029512 -27.537407 1.211775 27.564072 -1.569725 1.526820 0.013100 -0.000689 65454.700000 0 0 1
0.645112 -28.784477 0.811775 28.803147 -1.548388 1.542609 0.010137 -0.007257 121669.000000 0 0 1
0.211312 -29.955437 1.681075 30.003315 -1.563742 1.514737 0.014925 -0.003400 823.457000 0 0 1
0.630712 -29.913247 2.998175 30.069739 -1.549715 1.470923 0.004896 -0.003130 69582.900000 0 0 1
-0.001688 -30.940347 3.779375 31.170319 1.570742 1.449248 0.005451 -0.003157 -131705.000000 0 0 1
0.318912 -30.926037 5.328075 31.383274 -1.560485 1.400196 -0.001279 0.001353 -183233.000000 0 0 1
1.634712 -31.320057 5.676675 31.872291 -1.518650 1.391734 0.000442 -0.000039 92391.500000 0 0 1
1.762812 -31.169157 7.088875 32.013685 -1.514300 1.347513 0.003104 -0.001587 -208843.000000 0 0 1
3.146012 -31.639767 7.545375 32.678815 -1.471690 1.337799 -0.002251 -0.000430 -78966.300000 0 0 1
3.309712 -33.007307 7.222375 33.949952 -1.470858 1.356422 -0.004603 -0.005890 -453606.000000 0 0 1
4.581212 -33.517197 7.526675 34.656036 -1.434956 1.351869 -0.007680 -0.003740 -240025.000000 0 0 1
4.819512 34.106906 7.193875 35.188927 1.430420 1.364909 -0.007368 -0.002612 -263029.000000 0 0 1
4.980312 33.840026 5.844175 34.700220 1.424673 1.401571 -0.006975 -0.006075 84483.300000 0 0 1
4.709512 32.445697 5.661275 33.270900 1.426652 1.399807 -0.005233 -0.005846 -616919.000000 0 0 1
4.961912 32.130427 4.161775 32.776597 1.417576 1.443479 0.003363 -0.003723 104665.000000 0 0 1
6.332912 32.012417 3.845275 32.858587 1.375491 1.453503 0.011749 -0.001566 -384463.000000 0 0 1
6.964612 30.853247 4.227475 31.910817 1.348784 1.437928 0.004899 -0.000992 -203167.000000 0 0 1
8.447212 30.809647 3.756775 32.166801 1.303198 1.453739 0.004934 0.000881 468194.000000 0 0 1
9.317812 31.723517 4.396775 33.354682 1.285111 1.438593 0.005347 -0.002342 857844.000000 0 0 1
10.564912 31.891667 3.659075 33.794743 1.250899 1.462310 0.017891 -0.007500 1193250.000000 0 0 1
11.733512 32.383897 4.539675 34.741916 1.223184 1.439753 0.024948 -0.015198 -121696.000000 0 0 1
12.195212 31.336997 5.372875 34.052876 1.199667 1.412354 0.037928 -0.009692 -661911.000000 0 0 1
13.262112 31.781777 6.133075 34.979703 1.175477 1.394553 0.045368 -0.014352 -381125.000000 0 0 1
13.989312 30.645057 6.944075 34.395357 1.142554 1.367509 0.049293 -0.017285 138357.000000 0 0 1
13.485612 30.444127 8.246075 34.303125 1.153810 1.328030 0.032248 -0.002353 339321.000000 0 0 1
14.215312 29.377447 8.826475 33.808522 1.120123 1.306663 0.031340 -0.002513 284940.000000 0 0 1
13.870612 29.303967 10.314475 34.022122 1.128707 1.262779 0.009861 0.020576 166814.000000 0 0 1
14.497312 30.335137 11.095775 35.404927 1.124980 1.252029 0.020158 0.020583 158847.000000 0 0 1
13.886412 30.581537 12.335775 35.780361 1.144556 1.218809 0.015975 0.022405 -233193.000000 0 0 1
14.575612 31.713827 13.189475 37.311896 1.139989 1.209494 0.012223 0.018127 196408.000000 0 0 1
15.754312 31.222017 13.793075 37.593372 1.103484 1.195120 0.002422 0.023369 44400.700000 0 0 1
16.248212 32.136477 14.760675 38.918313 1.102679 1.181786 0.008523 0.016414 91550.600000 0 0 1
17.354512 31.543357 15.668575 39.264064 1.067815 1.160309 0.001019 0.015186 529482.000000 0 0 1
18.651112 31.355547 15.115375 39.490618 1.034190 1.178016 0.006973 0.014508 661692.000000 0 0 1
19.073112 29.966907 15.101275 38.598545 1.003990 1.168818 -0.002129 0.015944 -214654.000000 0 0 1
20.506512 29.520947 14.851375 38.891731 0.963675 1.178983 0.008652 0.001855 -14685.300000 0 0 1
21.532312 29.890797 15.777875 40.075448 0.946532 1.166138 0.009887 0.005223 947179.000000 0 0 1
22.818312 29.573167 15.203775 40.328679 0.913621 1.184245 0.012459 -0.002903 392584.000000 0 0 1
23.849212 29.549417 16.327075 41.334324 0.891744 1.164728 0.030898 -0.016328 -557114.000000 0 0 1
23.791212 28.413787 17.149675 40.834745 0.873714 1.137376 0.016816 -0.006293 152518.000000 0 0 1
24.821812 28.460137 18.120875 41.886369 0.853577 1.123400 0.019418 -0.007716 335221.000000 0 0 1
25.842812 27.288687 18.125175 41.725836 0.812605 1.121438 0.013089 0.002549 140006.000000 0 0 1
25.184312 26.088337 18.493675 40.704630 0.803028 1.099167 0.008048 0.011706 183458.000000 0 0 1
25.065912 25.852357 19.861375 41.123212 0.800842 1.066750 0.020230 0.007356 -293231.000000 0 0 1
24.577912 24.467807 20.310875 40.190534 0.783153 1.040992 0.030659 0.007523 -1303130.000000 0 0 1
25.449712 23.455087 20.414175 40.181681 0.744635 1.037881 0.026117 0.004280 -1519300.000000 0 0 1
24.886812 22.147687 20.416575 39.073137 0.727227 1.020990 0.029193 0.000189 -265118.000000 0 0 1
25.859012 20.931487 20.511875 39.083919 0.680475 1.018297 0.010427 0.000465 -222650.000000 0 0 1
25.245812 19.699687 20.727975 38.145480 0.662622 0.996323 0.004069 0.005475 97643.600000 0 0 1
26.197012 18.663087 20.973275 38.398861 0.619008 0.992981 0.012296 0.000313 224962.000000 0 0 1
26.647612 18.329587 22.439375 39.364890 0.602526 0.964248 0.029675 -0.000210 -189678.000000 0 0 1
25.613012 17.863987 23.255975 38.935701 0.609018 0.930676 0.013210 0.006838 95784.000000 0 0 1
26.156412 17.430587 24.499275 39.852199 0.587817 0.908723 0.035133 0.002765 -334077.000000 0 0 1
25.053912 16.878687 25.416275 39.478800 0.592852 0.871348 0.029877 0.004953 -72424.700000 0 0 1
24.803912 15.518887 25.051175 38.517935 0.559076 0.862716 0.021684 0.006283 323454.000000 0 0 1
23.651112 14.909187 25.602275 37.909570 0.562459 0.829355 0.014337 0.005914 -2523.210000 0 0 1
23.159012 13.680987 24.760575 36.559477 0.533584 0.826753 0.015894 -0.001916 -354489.000000 0 0 1
21.984312 13.207187 25.339575 36.053209 0.540975 0.791417 0.010963 0.001052 -413611.000000 0 0 1
21.350712 12.190387 24.630475 34.801132 0.518792 0.784489 0.018208 -0.001127 459853.000000 0 0 1
20.003512 11.695587 25.262475 34.280022 0.529076 0.742257 0.023977 -0.003844 200134.000000 0 0 1
18.971212 12.648887 25.281975 34.045257 0.588054 0.733854 0.030079 -0.006936 -729954.000000 0 0 1
17.796012 11.887587 25.368675 33.190096 0.588919 0.700772 0.024708 -0.008076 -486450.000000 0 0 1
16.549312 12.790387 25.521575 32.997341 0.657975 0.686541 0.026178 -0.014770 -258989.000000 0 0 1
16.588412 13.617487 26.684575 34.244385 0.687358 0.677345 0.031554 -0.011362 -751949.000000 0 0 1
15.519112 14.468187 26.834375 34.208990 0.750367 0.669028 0.040877 -0.015843 -921968.000000 0 0 1
15.131612 14.784787 28.296775 35.330767 0.773806 0.641982 0.035619 -0.004008 -13229.700000 0 0 1
14.454412 13.711087 28.997475 35.182062 0.759013 0.601987 0.023863 -0.000070 193255.000000 0 0 1
14.720512 13.650687 30.382875 36.416395 0.747708 0.583901 0.018139 0.002251 -578835.000000 0 0 1
16.178412 13.329887 30.758775 37.222697 0.689163 0.598211 0.025518 0.007586 2999.670000 0 0 1
17.051612 14.457887 30.674475 37.956704 0.703268 0.629803 0.035403 0.000196 496038.000000 0 0 1
18.402112 14.044587 30.499475 38.289766 0.651899 0.649240 0.028260 0.008078 -58722.800000 0 0 1
19.367112 15.195087 30.172375 38.940312 0.665269 0.684340 0.031214 0.007949 -368799.000000 0 0 1
19.216512 15.957987 28.970275 38.251909 0.693023 0.711543 0.026266 0.006856 203173.000000 0 0 1
19.250612 15.076487 27.816875 37.035997 0.664394 0.721105 0.037335 0.003681 -403180.000000 0 0 1
19.155312 15.783987 26.413075 36.245148 0.689205 0.754325 0.022116 0.000942 -843276.000000 0 0 1
20.277712 16.513387 26.063975 36.921652 0.683437 0.787066 0.019967 0.015979 -410790.000000 0 0 1
20.265212 16.971987 24.731975 36.199417 0.697189 0.818640 0.014366 0.005794 454396.000000 0 0 1
21.552012 17.815887 24.410675 37.118407 0.690779 0.853110 0.020423 0.010818 215446.000000 0 0 1
21.489812 18.381787 23.074475 36.498405 0.707605 0.886400 0.022663 0.000799 -371678.000000 0 0 1
22.634312 19.025887 22.605575 37.219733 0.698998 0.918070 0.024739 0.001111 -622832.000000 0 0 1
22.946012 20.426087 23.126375 38.452227 0.727363 0.925505 0.037357 -0.001909 -132264.000000 0 0 1
22.082512 21.397687 22.542975 38.127209 0.769649 0.938180 0.025385 0.003543 403204.000000 0 0 1
22.001812 22.549087 23.340375 39.208598 0.797682 0.933173 0.034484 0.002832 -11741.400000 0 0 1
21.027612 23.624287 22.773675 38.973166 0.843486 0.946727 0.027698 -0.003561 324711.000000 0 0 1
21.608812 24.474797 21.791675 39.253453 0.847509 0.982249 0.028865 -0.001212 482127.000000 0 0 1
20.730312 25.595947 21.641675 39.411425 0.890044 0.989483 0.035099 -0.000482 83839.800000 0 0 1
21.071012 26.512897 20.402975 39.537358 0.899267 1.028572 0.035063 -0.005297 -126338.000000 0 0 1
20.980512 25.932617 19.135075 38.455606 0.890568 1.049980 0.031025 -0.002531 9881.920000 0 0 1
21.120012 26.847837 18.124575 38.669904 0.904245 1.082978 0.023365 -0.012598 -422518.000000 0 0 1
21.012112 26.309097 16.687875 37.578752 0.896871 1.110652 0.005938 0.004176 68344.500000 0 0 1
19.719712 25.963797 16.212375 36.411906 0.921238 1.109344 0.012511 0.011397 -47401.400000 0 0 1
19.835612 25.516407 14.866375 35.574537 0.910009 1.139671 0.017466 0.016461 -844961.000000 0 0 1
18.537312 25.123707 14.163175 34.284517 0.935122 1.144933 0.007190 0.019055 -263782.000000 0 0 1
17.765212 26.308517 13.874375 34.644467 0.976865 1.158757 -0.008420 0.027161 2516.800000 0 0 1
16.765112 26.643777 14.796075 34.783382 1.009160 1.131417 -0.002353 0.025224 -1136930.000000 0 0 1
15.379912 26.095657 14.533475 33.596829 1.038232 1.123439 -0.006914 0.015720 -1186330.000000 0 0 1
15.070212 24.707267 14.729575 32.473385 1.023092 1.100008 -0.009446 0.024856 -291034.000000 0 0 1
14.998912 24.212227 16.097675 32.715966 1.016179 1.056361 -0.014350 0.032423 -564572.000000 0 0 1
13.972612 24.737567 17.097675 33.158884 1.056636 1.029055 0.014673 0.021731 -299204.000000 0 0 1
14.222512 26.117577 17.402875 34.456752 1.072142 1.041340 0.005844 0.018180 -70871.300000 0 0 1
13.314112 26.603507 18.360475 34.958822 1.106777 1.017843 0.007295 0.006997 90855.200000 0 0 1
13.780712 27.992437 19.015275 36.538545 1.113327 1.023457 0.020752 -0.003173 -81264.900000 0 0 1
13.590012 29.066377 18.143375 36.860884 1.133443 1.056167 0.019003 -0.001764 309130.000000 0 0 1
14.307112 30.203117 18.661175 38.277424 1.128412 1.061544 0.019591 0.000295 -103049.000000 0 0 1
14.150812 31.473317 17.830175 38.842378 1.148264 1.093883 0.008431 -0.004325 606644.000000 0 0 1
12.828312 32.042287 17.790475 38.830076 1.189983 1.094870 0.001272 0.002041 687150.000000 0 0 1
12.750512 33.278441 17.054175 39.507912 1.204903 1.124459 -0.004321 0.001586 -903773.000000 0 0 1
11.415912 33.982403 17.087175 39.712697 1.246705 1.126005 0.002243 -0.007588 -1078460.000000 0 0 1
11.262912 -33.876307 16.513075 39.333688 -1.249821 1.137549 -0.004591 -0.004501 161664.000000 0 0 1
12.084712 -32.801157 17.063275 38.898735 -1.217804 1.116691 -0.008255 -0.008491 223458.000000 0 0 1
12.000112 -32.537037 18.602675 39.353793 -1.217460 1.078440 0.005589 -0.015315 -558020.000000 0 0 1
12.870612 -33.345427 19.367275 40.652940 -1.202436 1.074235 0.020550 -0.010740 100600.000000 0 0 1
12.625712 -33.279407 20.755175 41.203214 -1.208187 1.042889 0.016210 -0.008275 -88420.700000 0 0 1
13.787112 -33.812637 21.642875 42.447532 -1.183627 1.035758 0.033826 -0.014442 197065.000000 0 0 1
14.983112 -33.069217 21.512575 42.200209 -1.145381 1.035874 0.041836 -0.011452 -94979.700000 0 0 1
15.945412 -33.479967 22.463975 43.356598 -1.126315 1.026143 0.052367 -0.009929 -527876.000000 0 0 1
17.231712 -32.708087 22.283975 43.166265 -1.085913 1.028346 0.060112 -0.013309 -846824.000000 0 0 1
17.117212 -31.317537 22.599875 42.243833 -1.070591 1.006305 0.065253 -0.008937 86766.900000 0 0 1
18.296412 -30.614247 22.275575 42.049876 -1.032111 1.012500 0.063121 -0.003579 -343155.000000 0 0 1
-4.416388 13.301573 18.110087 22.900034 -1.250228 0.658629 -0.006605 0.010698 -447229.000000 0 1 0
-4.171388 14.637673 17.773887 23.400278 -1.293179 0.708162 -0.008580 0.010147 -205210.000000 0 1 0
-5.391988 15.329973 17.809687 24.109470 -1.232583 0.739655 0.002041 0.005538 -140312.000000 0 1 0
-5.145188 16.873773 17.572487 24.899588 -1.274830 0.787338 0.010200 0.007089 52188.800000 0 1 0
-4.593588 17.493973 18.703887 26.018753 -1.314012 0.768633 0.006460 0.008992 152111.000000 0 0 1
-4.236788 18.832873 18.530487 26.758296 -1.349513 0.805829 0.005000 0.003737 -531016.000000 0 0 1
-3.669988 19.502073 19.808087 28.038544 -1.384787 0.786314 0.002638 0.002210 -554828.000000 0 0 1
-4.593488 19.657873 20.839287 29.013927 -1.341244 0.769511 0.002472 0.001857 -313836.000000 0 0 1
-4.107388 20.353973 21.982887 30.239083 -1.371673 0.756898 0.006037 0.003153 265516.000000 0 0 1
-5.212788 20.704773 23.056887 31.424207 -1.324155 0.747001 0.001375 0.004004 551103.000000 0 0 1
-5.657788 19.555273 23.757287 31.286226 -1.289164 0.708478 0.003761 -0.002475 110764.000000 0 0 1
-6.513188 19.847473 24.849167 32.462669 -1.253707 0.699026 -0.007654 -0.003930 732281.000000 0 0 1
-5.602688 20.343673 26.036787 33.513720 -1.302056 0.681070 -0.017864 -0.004999 347642.000000 0 0 1
-5.067288 21.674873 25.752987 34.039592 -1.341135 0.712760 -0.009790 -0.003636 151242.000000 0 0 1
-4.098888 22.072573 26.705107 34.887850 -1.387187 0.699047 -0.014264 0.005669 318152.000000 0 0 1
-2.638988 21.672173 26.354937 34.223238 -1.449624 0.691816 0.001774 0.012484 -152195.000000 0 0 1
-2.383488 20.294373 26.544917 33.498884 -1.453886 0.656043 0.006218 0.017748 -705291.000000 0 0 1
-1.012688 20.068173 26.492877 33.251009 -1.520377 0.648892 0.013200 0.022129 -503706.000000 0 0 1
-0.511288 18.730973 27.048917 32.905238 -1.543507 0.605839 0.010017 0.025254 -210316.000000 0 0 1
-0.738488 17.690573 26.138067 31.570560 -1.529076 0.595398 0.007204 0.018268 -271764.000000 0 0 1
-0.210588 16.496073 26.651197 31.344075 -1.558031 0.554282 0.001358 0.020259 -253835.000000 0 0 1
1.236312 16.172173 26.238957 30.847212 1.494498 0.553651 -0.005322 0.022022 -407936.000000 0 0 1
1.359412 15.951673 24.870717 29.577972 1.485781 0.571940 -0.002296 0.023612 -179860.000000 0 0 1
0.917712 14.692073 24.420327 28.514059 1.508414 0.542480 0.002892 0.020206 -216899.000000 0 0 1
0.979412 14.440073 22.944287 27.127758 1.503074 0.562759 -0.003024 0.011810 613926.000000 0 0 1
2.343312 14.294373 22.546987 26.799008 1.408309 0.571045 0.002919 0.007498 298532.000000 0 0 1
2.466112 13.691773 21.266187 25.412538 1.392591 0.579314 0.001487 0.001285 -533589.000000 0 0 1
3.899912 13.501973 20.795487 25.099101 1.289609 0.594310 -0.001094 -0.003340 -398671.000000 0 0 1
4.287812 14.714273 20.184087 25.343491 1.287243 0.649443 -0.001811 0.002599 -727207.000000 0 0 1
5.674412 14.809473 20.051787 25.565477 1.204890 0.669180 0.010727 0.003512 -521772.000000 0 0 1
6.255412 15.871873 19.079187 25.594177 1.195370 0.729586 0.022473 -0.006752 -93551.400000 0 0 1
6.211612 15.626173 17.667587 24.390675 1.192435 0.760693 0.019000 -0.014603 58586.200000 0 1 0
6.552012 16.692673 16.777287 24.557108 1.196765 0.818668 0.018737 -0.006917 -170062.000000 0 1 0
6.567812 16.229673 15.286787 23.242726 1.186263 0.853032 0.012704 -0.008560 720483.000000 0 1 0
7.714612 15.491973 14.805387 22.775336 1.108770 0.863130 0.019316 -0.010513 662699.000000 0 1 0
7.843012 14.246773 15.410287 22.404471 1.067560 0.812312 0.026063 -0.013749 -261715.000000 0 1 0
8.868012 13.293573 14.699987 21.712907 0.982501 0.827096 0.028139 -0.020904 -428282.000000 0 1 0
10.131012 13.816873 14.977187 22.756527 0.938112 0.852439 0.026643 -0.023128 -969822.000000 0 1 0
11.061412 13.216673 14.091087 22.261941 0.873940 0.885416 0.032724 -0.020203 431109.000000 0 1 0
12.496212 13.787573 14.292587 23.463387 0.834490 0.915815 0.033186 -0.007256 -457156.000000 0 1 0
13.102112 13.518673 15.533187 24.406961 0.801045 0.880942 0.020559 -0.012630 719772.000000 0 1 0
14.475812 13.905773 15.649887 25.452674 0.765316 0.908585 0.029490 -0.016877 899487.000000 0 0 1
15.505712 13.120273 14.795187 25.128992 0.702259 0.941261 0.036916 -0.020120 -540680.000000 0 0 1
16.798012 13.696573 14.885687 26.293592 0.684042 0.968988 0.033820 -0.020476 798153.000000 0 0 1
17.737612 13.229473 13.880387 26.121007 0.640835 1.010558 0.029443 -0.015200 1539670.000000 0 0 1
19.167112 13.880773 14.078387 27.536431 0.626782 1.034141 0.024139 -0.008335 983836.000000 0 0 1
19.814812 13.455673 15.243087 28.390731 0.596541 1.004034 0.016177 -0.006971 37310.800000 0 0 1
21.158712 13.900873 15.318487 29.590225 0.581267 1.026651 0.006713 0.001515 296755.000000 0 0 1
21.910612 13.352173 16.554687 30.535440 0.547297 0.997807 0.009713 0.003161 -260525.000000 0 0 1
22.256212 12.019373 16.419787 30.156487 0.495169 0.995020 0.027876 -0.000165 221793.000000 0 0 1
22.908412 11.587073 17.601287 31.126531 0.468277 0.969787 0.021454 0.003905 -124160.000000 0 0 1
22.958312 10.070973 17.650487 30.660207 0.413387 0.957360 0.031966 0.001377 35785.900000 0 0 1
21.726112 9.507973 18.055287 29.806357 0.412519 0.920085 0.027665 -0.001140 473254.000000 0 0 1
21.835712 8.098473 18.082387 29.484849 0.355155 0.910593 0.028066 0.000338 267426.000000 0 0 1
20.413212 7.482373 18.196287 28.351190 0.351338 0.873930 0.030114 0.001271 140377.000000 0 0 1
20.269512 6.024273 18.257587 27.937152 0.288894 0.858566 0.037226 -0.013327 -273975.000000 0 0 1
18.910112 5.707073 18.286887 26.917899 0.293107 0.823909 0.035464 -0.008942 -831192.000000 0 0 1
18.613912 4.186473 18.026087 26.247745 0.221230 0.813764 0.018867 -0.004430 -524160.000000 0 0 1
18.674312 3.964573 16.623787 25.313990 0.209195 0.854357 0.028882 -0.012844 378998.000000 0 0 1
18.842612 2.650873 16.110687 24.932417 0.139768 0.868235 0.033109 -0.021362 88354.900000 0 1 0
17.802412 1.571173 16.565687 24.368349 0.088028 0.823302 0.028711 -0.014629 242274.000000 0 1 0
18.231312 0.791073 17.681387 25.409408 0.043364 0.801180 0.028414 -0.022503 73159.000000 0 0 1
17.158712 0.030473 18.171987 24.992868 0.001776 0.756727 0.029554 -0.017440 -384217.000000 0 1 0
17.584812 -0.539527 19.558487 26.306865 -0.030672 0.732545 0.018923 -0.007331 388895.000000 0 0 1
18.415112 -1.708327 19.478487 26.859751 -0.092503 0.759483 0.017273 0.002569 344980.000000 0 0 1
17.696712 -2.875927 19.834687 26.736855 -0.161104 0.734974 0.011359 -0.003199 -33941.000000 0 0 1
17.840512 -3.996127 18.749687 26.187854 -0.220355 0.772785 0.002653 0.001660 -173255.000000 0 0 1
17.192112 -3.765627 17.508087 24.825023 -0.215627 0.788007 -0.003158 -0.006015 345903.000000 0 1 0
17.176412 -4.960627 16.783687 24.522013 -0.281154 0.816970 0.006086 -0.007827 -321180.000000 0 1 0
16.670112 -4.957427 15.320887 23.177539 -0.289055 0.848615 0.006522 -0.021115 -216986.000000 0 1 0
15.320812 -4.646227 15.042987 21.968299 -0.294447 0.816524 0.002717 -0.024651 131443.000000 0 1 0
15.206712 -4.363627 13.662187 20.903126 -0.279445 0.858471 0.013459 -0.027486 8136.770000 0 1 0
15.737812 -2.994327 13.193887 20.753876 -0.188016 0.881841 0.021472 -0.019401 299763.000000 0 1 0
14.912512 -1.899527 13.635087 20.295488 -0.126696 0.834122 0.017106 -0.008067 621864.000000 0 1 0
15.399412 -0.762527 13.003987 20.169954 -0.049476 0.870138 0.016694 -0.011756 -41591.600000 0 1 0
14.414612 0.383273 13.239787 19.576003 0.026583 0.828031 0.018479 -0.001103 -514224.000000 0 1 0
14.770512 1.669173 12.768087 19.595362 0.112530 0.861121 0.018138 -0.002153 2549.590000 0 1 0
15.698712 2.389773 13.540887 20.869025 0.151068 0.864723 0.024941 -0.008440 -90307.600000 0 1 0
15.988912 3.827673 13.068187 21.001760 0.234973 0.899192 0.019490 -0.004574 209524.000000 0 1 0
14.849312 4.665373 13.296287 20.470931 0.304416 0.863843 0.008963 0.001322 1003350.000000 0 1 0
15.079812 5.898873 12.607787 20.522030 0.372877 0.909230 0.014111 -0.001322 374012.000000 0 1 0
13.955612 6.944573 12.897187 20.231748 0.461741 0.879583 0.013142 0.001538 108307.000000 0 1 0
14.056012 8.122873 12.113087 20.255355 0.524006 0.929769 0.002220 -0.009960 283898.000000 0 1 0
13.149512 9.161373 12.495387 20.321789 0.608513 0.908567 -0.001529 0.003106 -457838.000000 0 1 0
13.423612 9.951673 13.796087 21.669360 0.637946 0.880633 0.016686 -0.005075 -207726.000000 0 1 0
13.122712 9.228473 14.954887 21.932144 0.612900 0.820479 0.020904 -0.005459 384952.000000 0 1 0
13.538212 9.912873 16.117787 23.266527 0.632021 0.805507 0.028654 -0.010519 -366086.000000 0 1 0
12.979012 9.334973 17.416287 23.641564 0.623520 0.742647 0.026637 -0.019173 -297044.000000 0 1 0
11.681812 9.798873 17.679087 23.345937 0.697964 0.711679 0.021037 -0.016474 118740.000000 0 1 0
10.890912 9.242273 18.760087 23.579068 0.703694 0.650758 0.024616 -0.002516 740368.000000 0 1 0
11.539312 9.413873 20.179587 25.079722 0.684306 0.635765 0.046573 -0.010893 -254580.000000 0 0 1
12.831612 8.885373 20.363687 25.656965 0.605647 0.653945 0.044366 -0.019584 -318859.000000 0 0 1
13.351212 9.184173 21.631587 27.028308 0.602552 0.642950 0.037465 -0.010422 424050.000000 0 0 1
14.853312 8.731873 21.582487 27.616485 0.531455 0.673718 0.033162 -0.010643 840325.000000 0 0 1
15.602612 9.636973 20.735487 27.681640 0.553297 0.724139 0.031716 -0.009732 -167188.000000 0 0 1
16.755212 9.025873 20.225587 27.771890 0.494119 0.754994 0.029385 -0.010349 -9429.640000 0 0 1
17.612712 9.922573 19.245887 27.911812 0.513054 0.809964 0.029687 -0.012290 322091.000000 0 0 1
18.344612 10.880473 20.011687 29.246831 0.535342 0.817243 0.031990 -0.009713 -94423.700000 0 0 1
19.158212 11.660273 19.208787 29.529249 0.546741 0.862553 0.028108 -0.008344 -58550.000000 0 0 1
20.121812 12.549473 20.036187 31.045537 0.557646 0.869275 0.025760 -0.004493 -245182.000000 0 0 1
19.367912 13.584173 20.615287 31.378908 0.611648 0.853992 0.019824 -0.001099 281643.000000 0 0 1
20.079812 14.307673 21.592187 32.773936 0.619093 0.851545 0.020510 0.001241 18556.400000 0 0 1
21.398112 15.077773 21.289787 33.741273 0.613827 0.887991 0.008202 0.003276 1003090.000000 0 0 1
22.582012 14.280673 21.135587 34.067550 0.563897 0.901541 -0.003497 0.007569 563824.000000 0 0 1
23.759512 15.053973 21.218987 35.233250 0.564758 0.924488 -0.004259 0.008107 -324158.000000 0 0 1
25.044312 14.236973 21.231287 35.786541 0.516914 0.935674 -0.004122 0.006343 -519005.000000 0 0 1
25.390012 13.712373 19.946187 35.078943 0.495187 0.965983 -0.003874 0.003821 -453972.000000 0 0 1
26.477612 12.879973 20.148587 35.678049 0.452747 0.970686 -0.004131 -0.000003 -565063.000000 0 0 1
26.843412 12.138973 18.866587 34.983876 0.424694 1.001198 0.005362 -0.003076 9513.900000 0 0 1
27.426512 12.920873 17.808287 35.161024 0.440269 1.039701 0.002017 -0.003494 394901.000000 0 0 1
27.874612 12.226573 16.656587 34.697622 0.413356 1.070085 0.017952 -0.013322 -287134.000000 0 0 1
26.790412 11.787173 15.673087 33.201044 0.414488 1.079163 0.019159 -0.014540 -53244.200000 0 0 1
26.168512 12.789173 14.877987 32.706398 0.454586 1.098542 0.018195 -0.011249 122361.000000 0 0 1
25.104312 12.245073 14.136487 31.305089 0.453814 1.102270 0.031480 -0.010712 155425.000000 0 0 1
24.563312 13.121473 12.928087 30.702847 0.490624 1.136170 0.015597 -0.007522 207077.000000 0 0 1
23.930112 14.301873 13.435187 30.946698 0.538691 1.121713 0.004568 0.002830 231174.000000 0 0 1
23.703312 15.110673 12.297287 30.682287 0.567532 1.158413 -0.006922 0.006495 195553.000000 0 0 1
23.063612 16.515873 12.761587 31.105665 0.621450 1.148051 0.001999 0.007282 618051.000000 0 0 1
21.650112 16.381973 12.923387 30.068427 0.647756 1.126526 0.023273 -0.004756 453512.000000 0 0 1
21.075412 17.578873 13.374087 30.529592 0.695187 1.117346 0.033550 -0.004939 -338382.000000 0 0 1
20.365312 18.438073 12.258187 30.082746 0.735772 1.151101 0.032431 -0.002428 208765.000000 0 0 1
19.219612 17.887773 11.642387 28.721265 0.749522 1.153426 0.038888 -0.003579 520408.000000 0 0 1
18.006012 17.966473 12.392587 28.294643 0.784299 1.117442 0.037652 -0.005779 180343.000000 0 0 1
16.810512 17.309173 11.664587 26.800436 0.800012 1.120493 0.045125 -0.005181 -52330.100000 0 0 1
16.867512 15.921073 11.481287 25.880755 0.756541 1.111160 0.045508 -0.009812 1090120.000000 0 0 1
15.567312 15.467073 11.031587 24.561504 0.782168 1.104992 0.045751 -0.017462 961345.000000 0 1 0
15.675212 14.068473 10.263887 23.430356 0.731431 1.117358 0.046889 -0.023253 -229546.000000 0 1 0
15.779312 12.942273 11.151587 23.256118 0.686940 1.070698 0.043811 -0.019168 325369.000000 0 1 0
16.044812 11.862273 10.281387 22.446747 0.636632 1.095013 0.028812 -0.013789 -109679.000000 0 1 0
16.476212 10.548173 11.039287 22.463201 0.569459 1.057055 0.025363 -0.013631 -469833.000000 0 1 0
17.093712 9.533773 10.229387 22.084569 0.508763 1.089203 0.018251 -0.009752 499875.000000 0 1 0
17.527812 8.432573 11.033587 22.362302 0.448411 1.054801 0.015723 -0.006997 809554.000000 0 1 0
18.826312 8.609173 11.901887 23.878920 0.428904 1.049013 0.017616 -0.011727 57786.400000 0 1 0
18.521412 9.417873 12.985287 24.502178 0.470413 1.012237 0.017256 -0.012198 804096.000000 0 1 0
19.546112 9.409473 14.018987 25.828679 0.448656 0.997067 0.020985 -0.013163 -141382.000000 0 0 1
18.926612 9.797673 15.411187 26.300489 0.477681 0.944725 0.021575 -0.005285 557032.000000 0 0 1
18.103712 8.834773 16.063387 25.764899 0.454009 0.897636 0.019137 -0.013100 915083.000000 0 0 1
16.879312 8.501473 15.403687 24.381546 0.466573 0.886953 0.016256 -0.011474 -309717.000000 0 1 0
16.328912 7.081473 15.783387 23.788567 0.409197 0.845328 0.014621 -0.011431 -242234.000000 0 1 0
15.791812 7.006073 17.071787 24.288110 0.417563 0.791349 0.030287 -0.011916 -222443.000000 0 1 0
15.328212 5.741173 17.243687 23.775195 0.358376 0.759354 0.030868 0.000729 456459.000000 0 1 0
13.887012 5.567273 17.914487 23.340362 0.381280 0.695813 0.018185 -0.002516 1517240.000000 0 1 0
13.321412 4.233673 17.891587 22.704469 0.307715 0.663209 0.011078 0.003546 322922.000000 0 1 0
13.074212 3.631073 16.623087 21.458023 0.270900 0.684588 0.020960 0.002151 -380280.000000 0 1 0
12.758212 2.079473 16.736287 21.147092 0.161570 0.657663 0.010645 0.002160 23474.100000 0 1 0
13.935112 1.339673 17.025587 22.042066 0.095842 0.688164 0.013030 0.003957 327558.000000 0 1 0
13.820812 -0.084327 16.848687 21.792205 -0.006101 0.687000 0.014762 0.009730 -416383.000000 0 1 0
13.141412 -0.881027 18.034487 22.331942 -0.066942 0.630785 0.014985 0.006452 -101411.000000 0 1 0
11.750112 -0.688727 17.980387 21.490319 -0.058548 0.579615 0.015211 0.016022 -638486.000000 0 1 0
11.140212 -1.432727 18.944987 22.024295 -0.127906 0.535162 0.017478 -0.001609 -575563.000000 0 1 0
-25.041888 13.949373 29.048337 40.810379 -0.508233 0.778756 0.017857 -0.001005 -330730.000000 0 0 1
-24.160588 14.077473 30.138707 41.112661 -0.527574 0.747963 0.016809 0.002226 260898.000000 0 0 1
-23.466188 12.858473 30.384627 40.487379 -0.501274 0.722021 0.012979 -0.001499 -353832.000000 0 0 1
-22.293788 13.047873 31.351337 40.622239 -0.529518 0.689164 0.011927 -0.006064 -702372.000000 0 0 1
-22.624988 13.347673 32.680317 41.929149 -0.532999 0.677061 0.008670 -0.004556 435340.000000 0 0 1
-21.495588 13.380673 33.564813 42.044017 -0.556788 0.646287 -0.003662 0.001918 468847.000000 0 0 1
-22.069388 13.467173 -33.898075 42.632172 -0.547900 2.490017 0.001282 -0.002583 296015.000000 0 0 1
-22.882888 12.382973 -33.497665 42.415305 -0.496020 2.481204 -0.015423 -0.001572 138692.000000 0 0 1
-23.675488 12.660173 -32.376965 42.060392 -0.491050 2.449282 -0.008982 0.001168 -43561.000000 0 0 1
-24.499088 11.494173 -31.789165 41.747722 -0.438679 2.436357 -0.015397 -0.009245 -204533.000000 0 0 1
-23.761988 10.634573 -30.967215 40.456082 -0.420811 2.442541 -0.007768 -0.012280 403211.000000 0 0 1
-23.029488 9.618473 -31.720275 40.361469 -0.395636 2.474954 -0.014633 -0.009936 322973.000000 0 0 1
-22.302588 8.682873 -30.695165 38.922883 -0.371267 2.479349 -0.007141 -0.000680 -459796.000000 0 0 1
-23.112388 7.808773 -29.985685 38.656186 -0.325820 2.458623 -0.010133 0.000673 62701.300000 0 0 1
-22.356388 7.135673 -28.988295 37.296744 -0.308957 2.461054 -0.011848 0.011465 -60774.000000 0 0 1
-23.171888 6.244173 -28.027205 36.897836 -0.263220 2.433478 -0.013548 0.009136 -354787.000000 0 0 1
-23.629088 5.056473 -28.515335 37.376811 -0.210814 2.438607 -0.001255 0.001081 133555.000000 0 0 1
-23.973588 4.078173 -27.518345 36.723612 -0.168498 2.417856 0.013665 0.009170 -238625.000000 0 0 1
-24.633888 2.768173 -28.082215 37.458003 -0.111903 2.418403 0.014871 0.010060 793284.000000 0 0 1
-25.975478 2.829773 -28.573345 38.719105 -0.108512 2.400846 0.017360 0.008067 722998.000000 0 0 1
-26.084628 3.571973 -29.782525 39.751297 -0.136091 2.417682 -0.002722 0.007748 -264572.000000 0 0 1
-27.545628 3.665073 -30.307815 41.118828 -0.132278 2.399534 0.022599 -0.000757 -181832.000000 0 0 1
-28.494608 4.245173 -29.465965 41.209310 -0.147894 2.367466 0.011910 -0.000878 286831.000000 0 0 1
-29.777788 4.228173 -30.102705 42.553107 -0.141048 2.356630 0.020291 -0.004798 779367.000000 0 0 1
-30.172308 5.622673 -30.727205 43.429756 -0.184239 2.356772 0.029013 -0.026789 -120144.000000 0 0 1
-29.264998 5.892273 -31.800005 43.616502 -0.198686 2.387776 0.028562 -0.024018 207315.000000 0 0 1
-29.503028 7.147273 -32.436835 44.425898 -0.237677 2.389314 0.027965 -0.022099 -535021.000000 0 0 1
-28.931368 8.405573 -31.727445 43.752811 -0.282751 2.382052 0.024656 -0.025607 332348.000000 0 0 1
-27.516348 8.441173 -31.522835 42.685968 -0.297656 2.401613 -0.003212 -0.031266 932897.000000 0 0 1
-26.957628 7.920073 -30.296845 41.319972 -0.285756 2.393849 0.004512 -0.033558 -417242.000000 0 0 1
-27.086178 8.715173 -28.974725 40.609727 -0.311296 2.365266 0.001992 -0.023082 601010.000000 0 0 1
-28.427368 8.852773 -28.476255 41.199319 -0.301898 2.333921 0.013433 -0.029597 881520.000000 0 0 1
-28.979758 7.709673 -27.847765 40.923873 -0.260014 2.319210 0.012554 -0.011059 -876882.000000 0 0 1
-30.397408 7.898773 -27.314805 41.623210 -0.254228 2.286621 0.010018 -0.008202 -444660.000000 0 0 1
-30.572848 8.764173 -26.193275 41.201910 -0.279179 2.259750 -0.007810 -0.006017 -43101.500000 0 0 1
-30.642128 8.052673 -24.925125 40.311876 -0.256987 2.237383 -0.004781 -0.004553 -284756.000000 0 0 1
-30.010198 8.867973 -23.788725 39.308477 -0.287322 2.220789 0.002094 0.004259 -56883.200000 0 0 1
-30.709458 10.054273 -23.336425 39.859101 -0.316401 2.196260 0.000267 -0.002411 437113.000000 0 0 1
-29.977038 10.852473 -22.380725 38.952481 -0.347348 2.182869 -0.000757 -0.007483 185339.000000 0 0 1
-30.880648 11.858273 -21.595325 39.504317 -0.366641 2.149163 -0.016069 -0.000239 89065.700000 0 0 1
-31.543348 11.251573 -20.502825 39.267627 -0.342633 2.120143 -0.017425 -0.003266 205013.000000 0 0 1
-32.175018 12.241273 -19.675925 39.651262 -0.363548 2.090041 -0.019342 0.003685 347979.000000 0 0 1
-31.160148 13.041873 -18.769225 38.643616 -0.396389 2.077961 -0.016461 0.004409 424011.000000 0 0 1
-30.574098 12.403473 -17.635525 37.411674 -0.385398 2.061664 0.002616 0.001990 601481.000000 0 0 1
-31.499818 12.084773 -16.576525 37.590709 -0.366329 2.027480 0.001465 0.006645 206520.000000 0 0 1
-31.904108 13.322873 -15.687925 37.966854 -0.395579 1.996762 -0.005913 0.006352 -441812.000000 0 0 1
-32.610248 14.361873 -16.377425 39.216217 -0.414850 2.001619 -0.010491 0.005287 379251.000000 0 0 1
-33.067828 15.429073 -15.524525 39.655370 -0.436563 1.973042 -0.019357 0.008362 352404.000000 0 0 1
-33.751758 16.637273 -16.318125 41.015378 -0.457976 1.979973 -0.020299 -0.000867 685174.000000 0 0 1
-34.816417 16.187273 -17.152125 42.052420 -0.435202 1.990922 -0.017274 -0.003628 773742.000000 0 0 1
35.318558 17.252373 -17.820925 43.158200 0.454388 1.996455 -0.015009 -0.001647 -404342.000000 0 0 1
34.669417 16.878373 -19.167725 43.060999 0.453062 2.032115 -0.010488 0.000085 6272.720000 0 0 1
33.625817 15.944573 -19.041025 41.802937 0.442776 2.043724 0.015558 -0.001456 234104.000000 0 0 1
32.359847 16.538873 -18.794925 40.913851 0.472482 2.048091 0.041753 -0.011575 -937624.000000 0 0 1
31.227117 15.551773 -18.997425 39.722696 0.462063 2.069459 0.053404 -0.015645 -731753.000000 0 0 1
31.096167 15.212873 -20.358925 40.160788 0.454987 2.102422 0.046758 -0.013431 505623.000000 0 0 1
30.198317 14.135373 -20.657125 39.223257 0.437791 2.125457 0.016531 -0.009245 249006.000000 0 0 1
30.751757 12.687873 -20.371325 39.008250 0.391313 2.120261 0.018540 0.014148 48830.900000 0 0 1
30.781737 12.388973 -18.971325 38.221893 0.382641 2.090182 0.038074 0.007860 31994.000000 0 0 1
31.224287 11.105973 -18.680725 38.042978 0.341729 2.084083 0.028261 0.013051 -18368.800000 0 0 1
31.445267 10.775573 -17.177525 37.416375 0.330136 2.047768 0.025232 0.013138 -497019.000000 0 0 1
30.213087 10.505973 -16.591225 36.034356 0.334650 2.049274 0.038025 0.006453 -489509.000000 0 0 1
30.305857 9.947673 -15.284625 35.369774 0.317162 2.017659 0.027793 0.006468 -79333.600000 0 0 1
29.966607 10.886473 -14.106525 34.864120 0.348462 1.987353 0.032846 0.000203 493818.000000 0 0 1
28.553307 11.091173 -13.975325 33.669202 0.370499 1.998824 0.031227 -0.002452 783306.000000 0 0 1
28.300707 12.257173 -13.242325 33.563782 0.408715 1.976366 0.038574 -0.005013 -65207.200000 0 0 1
26.810117 12.661573 -13.125125 32.424785 0.441217 1.987542 0.040727 -0.005404 -138621.000000 0 0 1
26.077737 11.566973 -12.605225 31.188698 0.417483 1.986857 0.034376 -0.011579 654011.000000 0 0 1
24.709447 11.496573 -13.043325 30.213511 0.435480 2.017178 0.030841 -0.010145 556852.000000 0 0 1
24.494947 10.877673 -14.466125 30.456443 0.417918 2.065735 0.030110 -0.013047 -769238.000000 0 0 1
24.677947 9.478773 -14.637525 30.217633 0.366724 2.076477 0.028353 -0.009277 -35805.800000 0 0 1
26.013577 9.065073 -14.689325 31.219513 0.335315 2.060673 0.034356 -0.014272 -726015.000000 0 0 1
26.359347 7.853173 -13.867325 30.802438 0.289554 2.037788 0.032312 -0.010282 -184097.000000 0 0 1
25.670447 6.674073 -14.281625 30.124407 0.254359 2.064724 0.050704 -0.015080 600814.000000 0 0 1
25.594747 5.854573 -13.137725 29.359273 0.224872 2.034743 0.036529 -0.013365 69705.100000 0 0 1
24.863547 4.488073 -13.421425 28.608974 0.178585 2.059106 0.032836 -0.005717 43794.400000 0 0 1
24.750647 3.724773 -12.227625 27.856476 0.149371 2.025227 0.019258 -0.005164 212876.000000 0 0 1
24.052147 2.512573 -12.423825 27.187685 0.104086 2.045377 0.007806 -0.006841 -54514.700000 0 0 1
23.320147 1.895373 -11.161425 25.922945 0.081098 2.015911 -0.000969 -0.007397 217112.000000 0 0 1
24.139247 1.585173 -10.024825 26.186124 0.065574 1.963654 0.004933 -0.000587 495089.000000 0 0 1
23.356447 1.663073 -8.860025 25.035763 0.071084 1.932528 0.000780 0.014439 -372811.000000 0 0 1
24.096947 1.295773 -7.518725 25.275939 0.053722 1.872833 0.014572 0.013272 -54323.800000 0 0 1
24.401847 -0.057427 -7.204325 25.443186 -0.002353 1.857877 0.003279 0.003480 463049.000000 0 0 1
25.145047 -0.855427 -8.085625 26.426927 -0.034007 1.881745 0.012057 0.001011 -638379.000000 0 0 1
25.226147 -2.284827 -7.637125 26.455710 -0.090327 1.863640 0.022482 -0.009298 -733633.000000 0 0 1
26.280287 -2.663427 -6.801625 27.276536 -0.101002 1.822814 0.029902 -0.008014 204477.000000 0 0 1
26.186847 -3.993927 -6.292425 27.226770 -0.151350 1.804016 0.036321 -0.011925 410817.000000 0 0 1
27.500357 -4.378327 -5.500825 28.384828 -0.157885 1.765825 0.040520 -0.018442 1914120.000000 0 0 1
28.640027 -4.677227 -6.360925 29.708399 -0.161882 1.786579 0.029775 -0.011111 1020870.000000 0 0 1
29.884247 -4.829627 -5.735625 30.810565 -0.160226 1.758046 0.036134 -0.007696 -521581.000000 0 0 1
31.036267 -4.927227 -6.707025 32.132719 -0.157443 1.781071 0.033433 -0.010113 -654152.000000 0 0 1
31.075317 -6.178427 -7.302525 32.514230 -0.196262 1.797323 0.031332 -0.007768 -18005.600000 0 0 1
31.852757 -6.118727 -8.473525 33.523686 -0.189782 1.826331 0.032578 -0.015897 -826600.000000 0 0 1
31.256907 -7.002027 -9.595925 33.438068 -0.220377 1.861865 0.032095 -0.015468 983819.000000 0 0 1
29.958867 -6.665527 -10.098025 32.309953 -0.218923 1.888658 0.039356 -0.016495 1645820.000000 0 0 1
28.825457 -6.957727 -9.233025 31.057458 -0.236844 1.872648 0.032036 -0.015191 141000.000000 0 0 1
27.696077 -5.933527 -9.259825 29.799728 -0.211047 1.886763 0.027827 -0.009055 -1332500.000000 0 0 1
26.881837 -5.914827 -10.380525 29.417233 -0.216580 1.931435 0.016451 -0.006779 69661.000000 0 0 1
25.746247 -5.099327 -10.134025 28.134868 -0.195530 1.939273 0.024268 -0.006708 483768.000000 0 0 1
24.495347 -5.911727 -9.683125 26.995063 -0.236812 1.937671 0.033312 -0.001860 -1231470.000000 0 0 1
24.747147 -6.707927 -8.535825 27.023654 -0.264698 1.892164 0.028583 -0.006879 723786.000000 0 0 1
23.609847 -7.469427 -8.069525 26.044854 -0.306406 1.885812 0.034750 -0.007500 259962.000000 0 0 1
22.544747 -6.642527 -7.322225 24.617143 -0.286530 1.872811 0.046340 -0.011062 -248324.000000 0 1 0
21.800847 -5.749727 -8.169525 23.980772 -0.257867 1.918426 0.030422 -0.010836 442639.000000 0 1 0
21.708147 -4.441927 -7.667125 23.446943 -0.201834 1.903922 0.040064 -0.011030 -112360.000000 0 1 0
21.314047 -3.340327 -8.679525 23.254688 -0.155455 1.953293 0.022183 -0.008407 72821.400000 0 1 0
22.360147 -3.172627 -9.633425 24.552894 -0.140947 1.973986 0.005601 -0.001779 670409.000000 0 1 0
22.107847 -2.333827 -10.708125 24.675242 -0.105176 2.019682 -0.003160 0.002362 -597506.000000 0 1 0
23.288247 -2.159827 -11.690125 26.147013 -0.092479 2.034308 0.002251 -0.006464 395032.000000 0 0 1
24.384447 -1.447027 -11.080625 26.823038 -0.059273 1.996653 0.000387 -0.001554 830725.000000 0 0 1
25.480647 -1.403427 -11.966825 28.185774 -0.055023 2.009283 0.001450 0.000936 -449679.000000 0 0 1
26.533607 -0.371727 -11.512125 28.925758 -0.014009 1.980120 0.017233 0.000026 -1004420.000000 0 0 1
27.687567 -0.552527 -12.253625 30.282965 -0.019953 1.987379 0.023513 -0.004774 -797135.000000 0 0 1
28.713347 0.377973 -12.014625 31.127967 0.013163 1.967061 0.034250 -0.008020 -41216.800000 0 0 1
28.705317 1.705573 -12.821825 31.484971 0.059347 1.990222 0.038733 -0.010793 -335245.000000 0 0 1
29.020187 1.458073 -14.147125 32.317771 0.050201 2.023892 0.032716 -0.013847 252628.000000 0 0 1
29.105367 2.625573 -14.966925 32.833289 0.089966 2.044119 0.032222 -0.009502 -200987.000000 0 0 1
29.414527 2.358973 -16.467125 33.792682 0.080026 2.079790 0.024269 -0.007920 150182.000000 0 0 1
28.359557 1.787073 -17.232925 33.232992 0.062932 2.115949 0.028186 -0.001044 97240.700000 0 0 1
28.819017 1.530673 -18.545125 34.304524 0.053063 2.141950 0.010496 -0.002013 -286748.000000 0 0 1
27.799757 0.930573 -19.558025 34.003070 0.033462 2.183625 0.012025 0.002540 -228619.000000 0 0 1
27.536767 -0.462627 -19.318525 33.640644 -0.016799 2.182498 0.009523 0.007041 102010.000000 0 0 1
26.845557 -0.977927 -20.426125 33.747101 -0.036412 2.220902 -0.004587 0.005188 -330338.000000 0 0 1
26.481917 -2.434227 -20.276125 33.441570 -0.091663 2.222215 0.007067 -0.005471 414698.000000 0 0 1
25.344847 -2.762327 -19.451925 32.068194 -0.108561 2.222548 0.013862 -0.006407 546230.000000 0 0 1
25.045747 -4.140427 -19.388925 31.943121 -0.163833 2.223055 0.018757 -0.008538 -343806.000000 0 0 1
25.872767 -5.077827 -18.493125 32.205280 -0.193798 2.182455 0.011766 -0.003994 174621.000000 0 0 1
27.261717 -5.103227 -18.791225 33.501556 -0.185052 2.166276 0.018994 -0.007608 -85051.500000 0 0 1
27.955817 -5.547427 -17.679925 33.539251 -0.195891 2.126029 0.015207 -0.009128 -898643.000000 0 0 1
29.460487 -5.450527 -17.874125 34.887145 -0.182943 2.108705 0.032526 -0.006508 -726560.000000 0 0 1
30.047327 -6.203127 -18.899525 36.034881 -0.203585 2.122899 0.018054 -0.014192 235391.000000 0 0 1
31.404157 -5.810127 -19.053725 37.189018 -0.182943 2.108713 0.040503 -0.016180 237791.000000 0 0 1
32.271317 -6.799927 -19.851125 38.493429 -0.207673 2.112623 0.033787 -0.013247 -251281.000000 0 0 1
32.535927 -7.905327 -19.045825 38.520438 -0.238353 2.087980 0.031910 -0.009893 -195303.000000 0 0 1
33.307187 -8.901527 -19.644925 39.680334 -0.261152 2.088723 0.022655 -0.002006 -648151.000000 0 0 1
34.025347 -9.736727 -18.596425 39.979433 -0.278713 2.054600 0.026073 -0.002344 -1039620.000000 0 0 1
33.181647 -10.498927 -17.685425 39.038742 -0.306441 2.040949 0.024553 -0.009287 97107.000000 0 0 1
33.793797 -11.499327 -16.910225 39.499505 -0.327989 2.013199 0.023072 -0.003182 -478047.000000 0 0 1
34.668947 -10.957327 -15.766425 39.630532 -0.306121 1.979953 0.035997 -0.005253 160710.000000 0 0 1
35.315593 -11.752127 -14.699225 40.017131 -0.321247 1.946926 0.027198 -0.010828 1007580.000000 0 0 1
-34.681177 -12.847027 -15.060925 39.933214 0.354760 1.957516 0.026392 -0.012238 61526.100000 0 0 1
-33.322748 -12.535327 -15.708525 38.913978 0.359804 1.986324 0.040875 -0.015680 -663140.000000 0 0 1
-33.352838 -12.131627 -17.094625 39.393075 0.348859 2.019669 0.028027 -0.010831 -119173.000000 0 0 1
-32.086288 -12.303127 -17.680325 38.645707 0.366148 2.045975 0.042005 -0.010116 26667.500000 0 0 1
-31.835658 -11.271027 -18.838625 38.670906 0.340267 2.079622 0.044175 -0.009003 173356.000000 0 0 1
-31.993608 -9.903727 -18.471125 38.247316 0.300198 2.074804 0.040969 -0.004050 530083.000000 0 0 1
-33.346568 -9.447827 -18.426225 39.252781 0.276087 2.059435 0.028369 -0.007399 -180256.000000 0 0 1
-33.469958 -7.947027 -18.142725 38.891539 0.233121 2.056121 0.045995 -0.010076 1108880.000000 0 0 1
-34.863187 -7.586427 -17.960425 39.944618 0.214265 2.037151 0.038065 -0.013008 950776.000000 0 0 1
-34.991742 -6.206327 -17.669325 39.688103 0.175540 2.032199 0.045244 -0.011604 -271354.000000 0 0 1
24.041912 27.912373 -27.360585 45.888078 0.859758 2.209613 0.023204 0.009574 -375268.000000 0 0 1
24.521212 26.942573 -26.442695 45.015644 0.832413 2.198653 0.016006 -0.000460 105155.000000 0 0 1
25.633712 26.217873 -26.944675 45.502523 0.796664 2.204530 0.016111 -0.002194 9410.570000 0 0 1
26.224412 25.226373 -25.923065 44.677679 0.766003 2.189800 0.002501 -0.006137 -258203.000000 0 0 1
26.823412 25.840473 -24.765225 44.727417 0.766736 2.157588 0.008225 -0.001647 425340.000000 0 0 1
26.808212 24.947473 -23.680425 43.609852 0.749461 2.144809 -0.001816 -0.001076 -147883.000000 0 0 1
27.508312 25.547673 -22.408125 43.720875 0.748461 2.108921 0.002920 0.002882 -126245.000000 0 0 1
26.786212 26.517373 -21.669425 43.476847 0.780355 2.092564 0.000056 0.000991 -202522.000000 0 0 1
27.542212 27.256173 -20.769725 43.964234 0.780178 2.062834 -0.006428 -0.000382 -256501.000000 0 0 1
26.648812 28.351173 -20.164625 43.824198 0.816340 2.048933 0.004583 0.003747 266745.000000 0 0 1
25.739812 27.864173 -19.182925 42.508054 0.825008 2.038993 0.013862 -0.000136 -26354.200000 0 0 1
24.986312 28.889373 -18.594225 42.481253 0.857717 2.023840 0.011512 0.003845 -273925.000000 0 0 1
24.067912 28.305773 -17.500325 41.069971 0.866138 2.010985 0.011334 -0.000013 -451589.000000 0 0 1
22.944112 27.696773 -18.062625 40.246763 0.878974 2.036215 0.018063 -0.001216 -578614.000000 0 0 1
21.877712 27.672573 -17.136925 39.218360 0.901818 2.023014 0.023105 0.000354 -185321.000000 0 0 1
20.870912 26.605173 -17.593125 38.117558 0.905598 2.050537 0.015804 -0.000291 -469510.000000 0 0 1
20.421812 26.784773 -18.930425 38.637229 0.919380 2.082832 0.018767 -0.003796 -370199.000000 0 0 1
19.584212 25.761673 -19.336225 37.697410 0.920794 2.109394 0.015926 0.000186 -560428.000000 0 0 1
18.897812 26.005473 -20.668625 38.217849 0.942384 2.142197 0.017688 -0.000141 1464070.000000 0 0 1
17.783412 26.978373 -20.557225 38.297282 0.988000 2.137413 0.013692 0.006213 1096210.000000 0 0 1
16.870412 26.940473 -21.628125 38.447050 1.011327 2.168255 0.015492 0.004393 95773.000000 0 0 1
15.754812 28.007673 -21.613225 38.726933 1.058393 2.162882 0.012278 0.007442 -34588.000000 0 0 1
14.982412 27.841773 -20.456025 37.657482 1.077114 2.145055 0.020595 0.007683 -400802.000000 0 0 1
14.037512 28.863073 -20.245225 37.947304 1.118129 2.133540 0.016638 0.007894 194051.000000 0 0 1
13.601212 28.813973 -18.742525 36.966475 1.129770 2.102513 0.019001 0.004338 476564.000000 0 0 1
12.770012 27.698973 -18.332525 35.586343 1.138809 2.111986 0.020174 0.008841 264373.000000 0 0 1
12.355412 27.716273 -16.977625 34.771939 1.151456 2.080887 0.034216 0.011006 92278.600000 0 0 1
11.313512 26.665873 -16.575125 33.373629 1.169545 2.090535 0.049045 0.008257 -243571.000000 0 0 1
11.940012 25.421773 -16.592225 32.621042 1.131700 2.104396 0.024755 0.007829 -286094.000000 0 0 1
11.119112 24.380073 -16.143725 31.283262 1.142903 2.113029 0.036065 0.005567 -186588.000000 0 0 1
11.747812 23.026373 -16.382025 30.603851 1.099030 2.135651 0.015273 0.005442 -23588.700000 0 0 1
12.048512 22.778373 -17.767325 31.300140 1.084262 2.174437 0.016766 0.002174 109686.000000 0 0 1
13.106212 21.855373 -17.969625 31.182327 1.030613 2.184961 0.022458 0.002070 364359.000000 0 0 1
12.531612 20.426473 -18.125925 30.047150 1.020510 2.218365 0.024979 -0.000717 377683.000000 0 0 1
11.881912 19.893273 -16.971925 28.722263 1.032377 2.202968 0.019936 -0.001321 49253.600000 0 0 1
11.442412 18.549273 -17.208025 27.769055 1.018068 2.239136 0.022713 -0.005496 -212592.000000 0 0 1
12.581712 17.526073 -17.316925 27.664754 0.948167 2.247153 0.017500 -0.005649 -173385.000000 0 0 1
13.113912 17.182873 -16.089925 26.946456 0.918903 2.210686 0.013201 -0.003205 464287.000000 0 0 1
14.317412 16.389773 -16.222425 27.143692 0.852784 2.211363 0.017143 -0.000910 200573.000000 0 0 1
14.712112 15.629373 -14.917925 26.139396 0.815620 2.178162 0.032021 0.003518 -452027.000000 0 0 1
15.486612 16.296973 -13.904325 26.434007 0.810889 2.124688 0.028450 0.006862 2289070.000000 0 0 1
16.877212 16.659873 -14.209025 27.645760 0.778918 2.110600 0.025650 0.002958 1226250.000000 0 0 1
17.857612 15.541373 -14.613725 27.820667 0.716158 2.123844 0.026259 -0.001564 -875931.000000 0 0 1
18.125712 14.456773 -13.688625 26.924305 0.673266 2.104135 0.031528 -0.011364 287948.000000 0 0 1
18.810012 14.956773 -12.575725 27.123246 0.671776 2.052908 0.028045 -0.001863 -632917.000000 0 0 1
19.559712 13.900273 -11.717625 26.703982 0.617843 2.025056 0.034018 -0.011632 -268242.000000 0 0 1
18.675412 13.078873 -10.980525 25.306123 0.610945 2.019622 0.047046 -0.017005 535656.000000 0 0 1
19.311712 11.981873 -10.308025 24.955218 0.555318 1.996609 0.046054 -0.010344 35022.400000 0 1 0
19.662712 10.758673 -11.238725 25.073497 0.500661 2.035582 0.033358 -0.012636 -1066400.000000 0 0 1
20.670112 11.056273 -12.173525 26.413811 0.491170 2.049780 0.028927 -0.008230 282149.000000 0 0 1
20.986512 9.954473 -12.999825 26.618052 0.442899 2.081033 0.021877 -0.005880 38773.600000 0 0 1
21.991812 8.944673 -12.349725 26.761216 0.386292 2.050457 0.018375 0.004471 -756519.000000 0 0 1
21.387312 8.312873 -11.251125 25.555993 0.370712 2.026678 0.018607 0.000421 178925.000000 0 0 1
22.027212 7.224973 -10.653125 25.512495 0.316945 2.001560 0.011158 0.014799 -1098720.000000 0 0 1
21.900812 5.900673 -11.484725 25.423659 0.263178 2.039504 0.000625 0.011183 -421005.000000 0 0 1
20.641412 5.284773 -11.529225 24.226427 0.250644 2.066777 -0.012594 0.004215 142832.000000 0 1 0
19.720412 5.858773 -12.441525 24.041868 0.288787 2.114716 -0.043696 -0.007889 -612958.000000 0 1 0
18.801312 4.724473 -12.892625 23.281533 0.246187 2.157682 -0.041802 -0.010437 -724487.000000 0 1 0
19.430012 3.800073 -13.698225 24.075035 0.193140 2.176062 -0.034162 -0.001643 250436.000000 0 1 0
18.682112 2.605673 -13.895325 23.428421 0.138580 2.205696 -0.017509 0.005008 -218070.000000 0 1 0
19.542612 1.539673 -14.679425 24.490198 0.078623 2.213548 0.004614 0.003169 425560.000000 0 1 0
20.518912 0.886773 -13.876025 24.786210 0.043190 2.164975 0.006459 0.000796 352133.000000 0 1 0
21.708612 0.571973 -14.565925 26.148751 0.026342 2.161615 0.000756 -0.006073 -132614.000000 0 0 1
21.810512 -0.874927 -15.138325 26.563750 -0.040093 2.177164 0.003971 -0.004705 -354453.000000 0 0 1
20.972412 -1.150227 -16.248725 26.555341 -0.054790 2.229234 -0.002479 -0.003467 23703.100000 0 0 1
21.424912 -2.305927 -16.890425 27.379383 -0.107216 2.235598 -0.001370 -0.006174 -212088.000000 0 0 1
20.430812 -3.030627 -17.827925 27.284386 -0.147262 2.282878 -0.006258 -0.006890 -228379.000000 0 0 1
19.534812 -3.857727 -17.132225 26.267929 -0.194971 2.281293 -0.008106 -0.005456 274847.000000 0 0 1
18.677912 -4.579827 -18.029725 26.361149 -0.240456 2.323961 -0.009704 -0.006366 52048.300000 0 0 1
17.883112 -5.709127 -17.333125 25.550676 -0.309020 2.316355 -0.005912 -0.006452 -351240.000000 0 0 1
18.727712 -6.697227 -16.783425 26.024285 -0.343439 2.271707 -0.007965 0.001699 -83063.400000 0 0 1
18.047512 -7.720727 -16.088725 25.380492 -0.404240 2.257383 -0.003117 0.004377 -465618.000000 0 0 1
18.826212 -8.907627 -15.458425 25.937135 -0.441938 2.209302 -0.005241 0.008323 -178241.000000 0 0 1
19.312712 -9.781227 -16.440725 27.183648 -0.468807 2.220314 -0.000700 0.010876 71768.700000 0 0 1
20.070912 -10.806727 -15.872825 27.777211 -0.493915 2.179048 0.008115 0.001945 -413121.000000 0 0 1
20.732612 -11.748027 -16.878125 29.201515 -0.515532 2.187057 0.007635 0.007656 -385298.000000 0 0 1
21.808612 -11.184427 -17.597025 30.172210 -0.473870 2.193483 0.002944 0.009254 188766.000000 0 0 1
22.324812 -12.079727 -18.589825 31.462655 -0.495977 2.202913 0.007127 0.014032 -853203.000000 0 0 1
21.569312 -12.050527 -19.926125 31.741155 -0.509489 2.249481 0.009580 0.017797 467688.000000 0 0 1
20.226312 -12.521127 -19.903225 31.016458 -0.554310 2.267508 -0.000142 0.016216 312573.000000 0 0 1
20.130812 -13.980127 -19.911125 31.577626 -0.607001 2.253052 -0.008135 0.025202 161495.000000 0 0 1
18.652912 -14.487027 -19.927225 30.901446 -0.660348 2.271641 -0.001169 0.020093 607595.000000 0 0 1
18.141312 -14.234927 -21.224525 31.340402 -0.665323 2.314782 -0.001989 0.023864 281885.000000 0 0 1
16.719912 -14.376427 -21.280425 30.644634 -0.710178 2.338418 0.008530 0.019546 471542.000000 0 0 1
16.115812 -13.646227 -22.479825 30.842851 -0.702610 2.387438 0.003720 0.025350 -449996.000000 0 0 1
16.383412 -14.161027 -23.752025 32.142022 -0.712767 2.402338 0.007526 0.026664 -34274.100000 0 0 1
15.686312 -13.589227 -24.784425 32.326386 -0.713888 2.444471 0.007666 0.020665 -562411.000000 0 0 1
15.655212 -14.526727 -25.998285 33.645539 -0.748026 2.453898 0.000304 0.013024 -81423.400000 0 0 1
14.734712 -15.622227 -25.932485 33.669860 -0.814626 2.449949 0.006105 0.012953 464798.000000 0 0 1
14.428712 -16.325527 -27.174055 34.830157 -0.846997 2.465762 0.009375 0.015488 -288261.000000 0 0 1
15.561212 -17.261927 -27.543795 36.038675 -0.837166 2.440727 0.009789 0.003272 -269161.000000 0 0 1
16.875112 -16.732227 -27.637895 36.449830 -0.781147 2.431413 0.014691 -0.001516 -175975.000000 0 0 1
17.717912 -17.865327 -27.681665 37.408139 -0.789541 2.403852 0.012396 -0.000374 650390.000000 0 0 1
19.222612 -17.393027 -27.664185 37.912179 -0.735472 2.388667 0.005363 -0.000837 618377.000000 0 0 1
19.566412 -16.943527 -26.365485 36.946805 -0.713681 2.365429 0.008710 0.000918 -189496.000000 0 0 1
20.968212 -16.822527 -26.277135 37.591903 -0.676134 2.344809 0.015650 0.002768 -64563.400000 0 0 1
21.532112 -16.250727 -24.961525 36.753173 -0.646515 2.317423 0.014778 0.011553 -3471.840000 0 0 1
21.401512 -14.818727 -24.707825 35.890055 -0.605617 2.330120 0.017217 0.010705 -81528.100000 0 0 1
20.054412 -14.375427 -24.554725 34.810442 -0.621926 2.353761 0.014516 0.020297 485332.000000 0 0 1
19.866312 -13.069927 -23.724725 33.591010 -0.581905 2.355029 0.007827 0.032841 -94168.800000 0 0 1
20.261612 -12.019627 -24.551725 34.026336 -0.535421 2.376836 0.008402 0.017521 62534.100000 0 0 1
20.001712 -10.841227 -23.867225 32.973400 -0.496692 2.380137 0.005502 0.018034 46549.300000 0 0 1
20.041412 -9.620627 -24.800325 33.305717 -0.447550 2.410772 0.003207 0.014368 -116724.000000 0 0 1
19.755412 -8.459927 -24.040725 32.245979 -0.404606 2.412144 0.008830 0.014832 104956.000000 0 0 1
19.545012 -7.342227 -24.906725 32.500165 -0.359347 2.443947 -0.000459 0.013862 -244171.000000 0 0 1
19.039712 -6.133827 -24.146825 31.356078 -0.311661 2.449770 -0.001978 0.002096 -573471.000000 0 0 1
17.729912 -6.271227 -23.680325 30.239641 -0.339975 2.470413 -0.008621 0.008061 -348651.000000 0 0 1
17.284212 -5.314227 -22.676625 29.003695 -0.298288 2.468429 -0.020177 -0.000098 52522.000000 0 0 1
17.999212 -5.460527 -21.289025 28.407949 -0.294551 2.417957 -0.011913 -0.003736 -355963.000000 0 0 1
17.697912 -6.590727 -20.422525 27.816062 -0.356490 2.395282 -0.007251 0.004924 287911.000000 0 0 1
18.135612 -7.893327 -20.835725 28.728600 -0.410511 2.382209 -0.007772 0.011466 -254474.000000 0 0 1
18.063212 -8.968627 -19.726825 28.211053 -0.460854 2.345156 -0.009239 0.013572 882306.000000 0 0 1
16.654312 -9.105827 -19.470425 27.191536 -0.500348 2.368920 -0.012164 0.012349 411534.000000 0 0 1
16.449312 -10.226127 -18.629125 26.873739 -0.556205 2.336729 -0.006843 0.015999 -330468.000000 0 0 1
14.962012 -10.550327 -18.283525 25.873896 -0.614168 2.355534 0.013560 0.001900 473793.000000 0 0 1
14.232312 -9.644827 -17.486525 24.522642 -0.595582 2.364673 0.021177 -0.000438 115505.000000 0 1 0
14.188412 -8.369127 -18.013325 24.409695 -0.532928 2.400835 0.016741 -0.012146 -1468830.000000 0 1 0
13.096512 -7.500727 -17.347925 22.994131 -0.520124 2.425612 0.036724 -0.006254 327579.000000 0 1 0
11.804412 -7.698927 -17.916225 22.794928 -0.577926 2.475067 0.025748 -0.015657 190986.000000 0 1 0
10.990312 -6.638827 -17.441025 21.657570 -0.543401 2.506992 0.021832 -0.019898 -48711.200000 0 1 0
9.493512 -6.589227 -17.798225 21.220780 -0.606740 2.565719 0.026616 -0.016911 168996.000000 0 1 0
9.317712 -6.411527 -19.178625 22.265379 -0.602695 2.608748 0.026611 -0.020293 161098.000000 0 1 0
7.963812 -6.034027 -19.378325 21.802552 -0.648399 2.665538 0.027856 -0.026032 314656.000000 0 1 0
7.582312 -5.741327 -20.813625 22.883646 -0.648093 2.712976 0.030201 -0.026059 -19975.300000 0 1 0
7.631912 -6.885427 -21.681525 23.994660 -0.734023 2.698892 0.037240 -0.019087 123044.000000 0 1 0
6.967012 -6.458727 -22.863925 24.759109 -0.747557 2.747786 0.040426 -0.018604 151583.000000 0 1 0
6.991512 -7.531527 -24.012125 26.118715 -0.822564 2.737210 0.040142 -0.007923 -198514.000000 0 0 1
6.114612 -8.574527 -23.701425 25.935854 -0.951323 2.723458 0.035392 -0.010866 -68580.700000 0 0 1
6.015912 -9.548527 -24.766825 27.216928 -1.008584 2.714029 0.037184 0.002570 -321436.000000 0 0 1
5.076512 -10.672327 -24.327325 27.046040 -1.126801 2.689370 0.029669 -0.001723 -86462.500000 0 0 1
5.665412 -11.656527 -23.517625 26.852378 -1.118388 2.637911 0.027411 -0.010760 300758.000000 0 0 1
4.719812 -12.726727 -23.473025 27.115108 -1.215662 2.617305 0.031497 -0.018878 -210966.000000 0 0 1
5.212412 -14.046027 -22.741525 27.233014 -1.215453 2.559060 0.031077 -0.014776 58181.500000 0 0 1
6.200412 -14.757727 -23.513425 28.444978 -1.173044 2.543886 0.033769 -0.007757 888906.000000 0 0 1
7.524512 -14.224227 -23.450925 28.441041 -1.084224 2.540194 0.031012 -0.007360 607756.000000 0 0 1
8.376512 -14.144727 -22.121625 27.560942 -1.036132 2.502511 0.032280 -0.000884 -142363.000000 0 0 1
8.553812 -15.422527 -21.471225 27.785528 -1.064405 2.453956 0.030021 0.004972 -180181.000000 0 0 1
7.701312 -15.589627 -20.385125 26.793656 -1.111958 2.435371 0.027160 -0.005890 -306369.000000 0 0 1
8.411312 -15.465327 -19.030925 25.924942 -1.072662 2.395104 0.027023 -0.013993 30454.800000 0 0 1
9.403012 -16.444727 -18.855325 26.727682 -1.051374 2.353869 0.038096 -0.014024 -558342.000000 0 0 1
9.854212 -16.692127 -17.520225 26.128354 -1.037502 2.305739 0.037462 -0.017456 258904.000000 0 0 1
8.863712 -17.558327 -16.638825 25.762584 -1.103304 2.272935 0.020443 -0.013837 -126055.000000 0 0 1
8.783412 -18.932127 -16.960725 26.893121 -1.136409 2.253215 0.021054 -0.016926 218590.000000 0 0 1
8.114012 -19.386627 -18.171125 27.782518 -1.174413 2.283721 0.026320 -0.015274 1083810.000000 0 0 1
6.553112 -19.153627 -18.157725 27.193891 -1.241146 2.301929 0.019386 -0.010584 525004.000000 0 0 1
6.104112 -17.838427 -18.133525 26.159021 -1.241097 2.336721 0.019712 -0.009555 441881.000000 0 0 1
4.716612 -17.831927 -17.740625 25.592066 -1.312214 2.336727 0.009459 -0.005393 976492.000000 0 0 1
4.215612 -16.412427 -17.387725 24.279047 -1.319376 2.369084 -0.004651 -0.000006 -6346.860000 0 1 0
4.754712 -15.845027 -16.213925 23.163841 -1.279270 2.346148 -0.009535 -0.005617 105149.000000 0 1 0
4.358912 -14.484327 -16.129225 22.112163 -1.278477 2.388281 -0.013742 0.002622 12923.800000 0 1 0
10.145212 30.304573 -18.414125 36.883227 1.247749 2.093535 0.044854 -0.010733 -347873.000000 0 0 1
9.298712 29.783273 -19.404825 36.743117 1.268173 2.127183 0.061269 -0.016237 -6969.670000 0 0 1
8.348812 28.915273 -18.777925 35.474020 1.289707 2.128622 0.052570 -0.012765 -308855.000000 0 0 1
7.263512 28.507673 -19.731625 35.422917 1.321313 2.161602 0.050857 -0.010001 -681220.000000 0 0 1
6.518012 29.551773 -20.304325 36.442521 1.353710 2.161758 0.053955 -0.017364 -507452.000000 0 0 1
5.417412 29.022673 -20.970825 36.213801 1.386259 2.188401 0.058375 -0.026362 -311544.000000 0 0 1
4.474412 30.086273 -21.577725 37.293463 1.423159 2.187798 0.033710 -0.025144 -509838.000000 0 0 1
3.435112 30.401373 -20.721425 36.951602 1.458282 2.166114 0.030924 -0.025396 -96268.400000 0 0 1
2.437312 31.222273 -21.382525 37.920749 1.492891 2.169866 0.015888 -0.029406 -36793.800000 0 0 1
0.998012 30.926373 -20.933625 37.358442 1.538537 2.165599 -0.005747 -0.014146 -410199.000000 0 0 1
0.635912 29.535573 -21.040525 36.269245 1.549269 2.189673 -0.003682 -0.028609 125247.000000 0 0 1
0.373712 29.147873 -22.372825 36.746176 1.557976 2.225404 0.011678 -0.033733 -497863.000000 0 0 1
-0.134588 27.652173 -22.550025 35.681429 -1.565929 2.254904 0.019318 -0.031572 432491.000000 0 0 1
-1.307688 27.307473 -21.835225 34.988357 -1.522945 2.244739 0.017423 -0.030039 316518.000000 0 0 1
-1.946988 26.090973 -22.279825 34.364520 -1.496311 2.276196 0.040766 -0.041632 -152188.000000 0 0 1
-3.096988 25.716573 -21.341425 33.561732 -1.450946 2.259952 0.029687 -0.034801 -669171.000000 0 0 1
-4.235788 26.466773 -21.663925 34.463859 -1.412100 2.250546 0.024638 -0.030382 -327384.000000 0 0 1
-5.351388 26.076373 -20.902125 33.845434 -1.368387 2.236453 0.024366 -0.029046 -41425.600000 0 0 1
-6.151188 27.223873 -20.223025 34.466608 -1.348579 2.197827 0.038879 -0.033583 36970.800000 0 0 1
-7.306988 26.677673 -19.635225 33.920972 -1.303454 2.188117 0.039327 -0.025744 -305946.000000 0 0 1
-8.063588 27.638473 -18.884625 34.431609 -1.286923 2.151327 0.040459 -0.024763 1473230.000000 0 0 1
-9.401588 27.003873 -18.321025 33.959666 -1.235764 2.140632 0.052161 -0.015468 1052150.000000 0 0 1
-9.062888 26.162173 -17.249325 32.621073 -1.237322 2.127957 0.051286 -0.022704 -1105990.000000 0 0 1
-10.183388 25.594973 -16.705925 32.216330 -1.192130 2.115956 0.036195 -0.021903 -896092.000000 0 0 1
-10.046088 25.020973 -15.291825 30.996982 -1.188992 2.086713 0.040675 -0.011396 -111169.000000 0 0 1
-9.389988 23.777973 -15.219225 29.752120 -1.194692 2.107766 0.035084 -0.008441 -215346.000000 0 0 1
-9.610788 23.088673 -14.013325 28.667531 -1.176356 2.081535 0.035478 -0.012686 -517103.000000 0 0 1
-9.094288 21.667173 -13.979425 27.342216 -1.173401 2.107465 0.044583 -0.007522 -198980.000000 0 0 1
-9.846388 20.612373 -14.579225 27.099355 -1.125153 2.138849 0.023965 -0.004093 -424532.000000 0 0 1
-9.981288 20.583373 -16.017925 27.926247 -1.119285 2.181665 0.026865 -0.006136 344266.000000 0 0 1
-8.737388 20.543573 -16.987725 28.052863 -1.168663 2.221267 0.005628 -0.005795 465476.000000 0 0 1
-8.196788 19.226773 -17.042425 26.968507 -1.167807 2.254848 0.000931 -0.004670 -185663.000000 0 0 1
-7.200388 19.004173 -18.004925 27.151086 -1.208624 2.295800 0.003627 -0.004217 -79820.100000 0 0 1
-6.678088 17.508173 -17.929625 25.934618 -1.206403 2.334138 -0.008322 0.001328 51011.900000 0 0 1
-7.635988 16.546073 -18.346525 25.858767 -1.138421 2.359570 -0.018811 -0.001809 -133101.000000 0 0 1
-7.424988 15.923473 -19.613325 26.331919 -1.134477 2.411106 -0.008359 -0.006097 104802.000000 0 0 1
-6.182488 15.006773 -19.727625 25.546146 -1.180005 2.453148 -0.006654 0.004494 -245531.000000 0 0 1
-6.495788 13.688973 -19.234925 24.486028 -1.127734 2.474376 -0.018016 0.001580 400491.000000 0 1 0
-5.357388 12.900973 -18.886425 23.491142 -1.177196 2.504756 -0.009762 0.003165 522488.000000 0 1 0
-4.721488 13.333773 -17.505825 22.506351 -1.230474 2.461981 0.012354 0.007185 -437019.000000 0 1 0
-4.059588 14.553173 -17.620525 23.211161 -1.298763 2.432788 0.007089 0.001435 -726797.000000 0 1 0
-3.825588 15.155973 -16.402725 22.658067 -1.323546 2.380270 0.018804 0.010266 268133.000000 0 1 0
-2.851688 16.362473 -16.463125 23.385832 -1.398247 2.351780 0.024949 0.004897 124158.000000 0 1 0
-3.530788 17.482673 -16.947125 24.603157 -1.371518 2.330655 0.017571 0.004682 -465492.000000 0 1 0
-2.724488 18.606973 -16.970925 25.330901 -1.425407 2.304964 0.026867 -0.003826 -404202.000000 0 0 1
-3.377488 19.884873 -17.564325 26.745487 -1.402550 2.287259 0.039026 -0.010294 47645.600000 0 0 1
-3.607388 19.753073 -18.993225 27.639459 -1.390163 2.328394 0.043743 -0.015495 33047.800000 0 0 1
-4.103888 20.947873 -19.620025 28.993114 -1.377337 2.314086 0.053065 -0.017353 168728.000000 0 0 1
-3.129888 22.200273 -19.695725 29.842418 -1.430735 2.291603 0.046567 -0.020652 -153217.000000 0 0 1
-2.126688 22.014573 -20.701225 30.293645 -1.474492 2.323140 0.061979 -0.024224 -260915.000000 0 0 1
-1.088388 22.918873 -20.558825 30.807866 -1.523343 2.301406 0.047585 -0.025887 -418035.000000 0 0 1
0.007012 22.540273 -19.537425 29.829095 1.570485 2.284951 0.046641 -0.021548 -673200.000000 0 0 1
-0.404688 22.582773 -18.192925 29.002205 -1.552878 2.248871 0.039943 -0.017054 -1028070.000000 0 0 1
0.645412 22.096973 -17.469925 28.176072 1.541596 2.239573 0.041945 -0.010762 -626311.000000 0 0 1
0.422712 22.312073 -15.949725 27.429929 1.551853 2.191333 0.044726 -0.008354 -541354.000000 0 0 1
-0.450788 21.329173 -15.458825 26.346007 -1.549665 2.197850 0.040907 -0.001217 -137293.000000 0 0 1
-0.239088 21.239473 -14.020025 25.450608 -1.559540 2.154205 0.046495 -0.004884 204800.000000 0 0 1
-1.096288 20.191273 -13.270525 24.186694 -1.516554 2.151569 0.033027 0.000135 124039.000000 0 1 0
-0.744688 18.833973 -13.557625 23.218146 -1.531277 2.194350 0.027977 0.005981 201138.000000 0 1 0
-1.638188 17.932773 -12.919825 22.162804 -1.479698 2.193152 0.014165 0.008620 214318.000000 0 1 0
-1.241288 16.424473 -13.014325 20.992302 -1.495364 2.239484 0.003868 0.011930 142291.000000 0 1 0
-0.184988 15.989773 -12.133725 20.073224 -1.559228 2.219901 0.008711 0.007603 595815.000000 0 1 0
0.074612 14.580273 -12.198125 19.010107 1.565679 2.267464 0.007513 0.008019 366703.000000 0 1 0
0.652212 13.850373 -13.505725 19.356209 1.523741 2.343043 0.004694 0.001261 -345293.000000 0 1 0
-0.240188 13.686773 -14.553425 19.979680 -1.553249 2.386797 0.006725 -0.003431 -236473.000000 0 1 0
0.305812 12.795573 -15.541825 20.133766 1.546901 2.452665 0.008704 -0.003683 -98330.100000 0 1 0
-0.466588 12.756473 -16.842525 21.133290 -1.534236 2.493053 0.011097 -0.003640 -232490.000000 0 1 0
-0.384388 13.973573 -17.567725 22.450689 -1.543295 2.469471 0.018669 -0.004278 172393.000000 0 1 0
-0.931588 13.912473 -18.899625 23.486604 -1.503936 2.505963 0.025770 -0.006802 215506.000000 0 1 0
-1.483888 15.282073 -19.458725 24.786804 -1.474000 2.473563 0.028594 -0.003462 599389.000000 0 1 0
-0.428788 16.262173 -19.654125 25.513266 -1.544435 2.450185 0.035592 -0.009813 684079.000000 0 0 1
-0.905988 17.576073 -19.792925 26.485827 -1.519295 2.414790 0.049097 -0.011212 -548895.000000 0 0 1
0.191912 18.593873 -20.071325 27.361049 1.560475 2.394361 0.062912 -0.014248 -157504.000000 0 0 1
0.661612 18.440073 -21.400225 28.256745 1.534933 2.430041 0.059939 -0.021851 -821021.000000 0 0 1
1.676812 19.315473 -21.646225 29.059564 1.484202 2.411169 0.067251 -0.025760 -615812.000000 0 0 1
2.177112 19.287573 -23.142225 30.204517 1.458396 2.443678 0.071047 -0.029702 264629.000000 0 0 1
3.003212 18.197973 -23.546825 29.910507 1.407240 2.477121 0.049773 -0.024251 87945.000000 0 0 1
3.239612 18.185973 -24.953125 31.046467 1.394508 2.504342 0.046425 -0.034832 48490.300000 0 0 1
4.207912 17.077773 -25.430365 30.920225 1.329212 2.536503 0.027105 -0.021883 -38278.700000 0 0 1
5.451912 17.029973 -24.734425 30.521060 1.260970 2.515640 0.016152 -0.020085 805846.000000 0 0 1
6.377412 15.999473 -25.150345 30.482690 1.191496 2.541122 0.021476 -0.028920 693934.000000 0 0 1
7.001512 16.182673 -26.553805 31.874827 1.162460 2.555422 0.016002 -0.027162 -1057970.000000 0 0 1
8.139012 17.019873 -26.643845 32.646808 1.124735 2.525468 0.001524 -0.019331 84922.300000 0 0 1
8.561012 17.347973 -27.954105 33.995221 1.112372 2.536229 0.018448 -0.021075 226736.000000 0 0 1
9.252812 16.190573 -28.794515 34.305587 1.051601 2.566889 0.015854 -0.026570 254939.000000 0 0 1
10.466712 15.746173 -28.172515 33.929112 0.984146 2.550504 0.032518 -0.023340 194532.000000 0 0 1
10.842212 14.447273 -28.566595 33.798337 0.926996 2.577749 0.029469 -0.018041 -184124.000000 0 0 1
10.272912 13.450373 -27.529905 32.316264 0.918544 2.590380 0.021555 -0.016304 93789.000000 0 0 1
8.882612 13.229273 -27.653335 31.915849 0.979499 2.618834 0.023508 -0.011741 -32169.600000 0 0 1
8.381212 12.377873 -26.602155 30.514441 0.975597 2.629639 0.027002 -0.014190 586442.000000 0 0 1
6.868412 12.051973 -26.752885 30.135394 1.052804 2.663244 0.025371 -0.019370 160247.000000 0 0 1
5.979712 13.097573 -26.589645 30.237602 1.142508 2.645306 0.029617 -0.016974 -1126260.000000 0 0 1
4.715812 12.600773 -26.301055 29.542577 1.212685 2.668748 0.033382 -0.016509 242756.000000 0 0 1
3.486112 13.497373 -26.724035 30.141435 1.318039 2.660784 0.041660 -0.015250 333152.000000 0 0 1
3.310212 13.568073 -28.139565 31.414729 1.331500 2.680899 0.051876 -0.021697 154611.000000 0 0 1
3.905412 14.657673 -28.790785 32.542417 1.310404 2.656680 0.061944 -0.025181 -155941.000000 0 0 1
3.878812 14.472873 -30.290595 33.793925 1.308944 2.682224 0.072509 -0.024510 -120400.000000 0 0 1
4.801512 13.522073 -30.780875 33.961202 1.229597 2.705370 0.068345 -0.023870 -328922.000000 0 0 1
4.616212 13.310373 -32.176365 35.125402 1.236963 2.728896 0.066587 -0.020767 -422215.000000 0 0 1
5.681412 12.310073 -32.726245 35.423487 1.138399 2.748835 0.059717 -0.017319 930300.000000 0 0 1
7.066712 12.631173 -32.611695 35.679232 1.060715 2.723893 0.054953 -0.012894 712235.000000 0 0 1
7.616012 12.720973 -31.276715 34.612999 1.031335 2.698924 0.050442 -0.013277 -846939.000000 0 0 1
7.774712 11.434773 -30.405535 33.402047 0.973675 2.714779 0.058828 -0.009380 267596.000000 0 0 1
8.665112 10.419773 -30.916395 33.756174 0.877080 2.728475 0.039914 -0.003438 295171.000000 0 0 1
8.613412 9.325073 -30.021685 32.595236 0.825050 2.741552 0.039023 -0.006900 146777.000000 0 0 1
9.630312 8.181773 -30.350595 32.876176 0.704253 2.747067 0.020830 -0.005368 -85724.900000 0 0 1
10.879812 8.481773 -29.792545 32.831487 0.662170 2.707943 0.026477 -0.003701 -671364.000000 0 0 1
11.662312 7.332473 -29.795405 32.825917 0.561279 2.708517 0.002464 -0.000268 -2001210.000000 0 0 1
12.860412 7.372273 -28.910135 32.489021 0.520521 2.667798 0.003053 0.007069 -560889.000000 0 0 1
13.580712 6.156473 -28.658275 32.305334 0.425615 2.661835 0.008335 -0.000083 -78607.900000 0 0 1
14.235012 5.660873 -29.773755 33.483691 0.378498 2.666394 0.005093 0.005630 -1225900.000000 0 0 1
15.194412 4.544573 -29.302405 33.318977 0.290626 2.645504 0.007019 -0.004428 -3781.300000 0 0 1
16.104612 4.956573 -28.298985 32.935675 0.298573 2.604539 0.002892 -0.008795 182721.000000 0 0 1
17.042712 3.918473 -28.053195 33.057378 0.225993 2.584170 0.002813 -0.008564 -16142.500000 0 0 1
17.739112 4.166273 -26.694225 32.320513 0.230683 2.542632 0.014424 -0.006893 104690.000000 0 0 1
18.678912 5.237473 -26.607985 32.928980 0.273375 2.511617 0.037059 -0.014172 270891.000000 0 0 1
19.084312 5.481173 -25.306045 32.165978 0.279680 2.476295 0.044354 -0.010869 -88912.700000 0 0 1
20.228012 6.503973 -25.266345 33.013063 0.311093 2.442372 0.043756 -0.012047 -305368.000000 0 0 1
19.717912 7.807973 -25.556405 33.209793 0.377039 2.448923 0.052512 -0.016799 233336.000000 0 0 1
20.611112 8.677173 -26.204165 34.449521 0.398473 2.435116 0.055966 -0.020164 -919834.000000 0 0 1
20.774812 8.604973 -27.787915 35.746421 0.392689 2.461258 0.047796 -0.015506 427391.000000 0 0 1
19.669012 8.812173 -28.713155 35.902224 0.421209 2.497691 0.049544 -0.014878 449004.000000 0 0 1
18.702512 7.802973 -28.548155 35.009534 0.395258 2.524284 0.045125 -0.012666 -374032.000000 0 0 1
17.312412 8.211673 -29.110165 34.850436 0.442896 2.559453 0.028913 -0.004426 34212.400000 0 0 1
17.115712 8.274173 -30.555575 35.986841 0.450300 2.585031 0.020503 -0.002135 279367.000000 0 0 1
16.083412 9.178873 -30.898705 36.023018 0.518600 2.601671 0.003999 0.001477 -84130.600000 0 0 1
15.480612 9.069473 -32.321245 36.967115 0.529958 2.634838 -0.010369 0.009016 -86467.000000 0 0 1
14.813912 7.862473 -32.458745 36.535470 0.487943 2.664682 -0.009753 0.010676 32734.500000 0 0 1
13.505612 7.962473 -32.998575 36.533662 0.532713 2.698051 -0.014954 0.011975 398629.000000 0 0 1
12.923712 6.668273 -33.606555 36.618148 0.476343 2.733191 -0.012814 0.011520 28950.400000 0 0 1
12.613012 5.724173 -32.632265 35.450232 0.426035 2.740178 -0.003424 0.006370 56833.400000 0 0 1
11.983612 4.581773 -33.203375 35.595838 0.365187 2.772869 0.004585 -0.002964 51930.300000 0 0 1
11.721012 3.541073 -32.090985 34.347527 0.293394 2.777094 0.016066 -0.000699 1265780.000000 0 0 1
12.917012 2.794573 -31.640715 34.289848 0.213064 2.745934 0.012493 -0.006933 1353290.000000 0 0 1
12.676712 1.722873 -30.749185 33.304349 0.135081 2.747326 0.021619 -0.004817 152516.000000 0 0 1
11.845012 0.419273 -31.158965 33.337084 0.035382 2.778108 0.034449 -0.002891 193619.000000 0 0 1
12.409112 -0.554427 -31.997695 34.324130 -0.044649 2.771300 0.030450 -0.004805 -45395.200000 0 0 1
13.404812 -1.258127 -31.259375 34.035575 -0.093582 2.734896 0.026162 -0.005758 203644.000000 0 0 1
13.903812 -2.566527 -31.930315 34.920597 -0.182537 2.724743 0.033060 -0.010838 -653365.000000 0 0 1
13.019112 -3.608027 -31.951255 34.690025 -0.270348 2.741565 0.040549 -0.011913 -455475.000000 0 0 1
13.331812 -4.637827 -32.927595 35.825594 -0.334782 2.736607 0.046778 -0.016579 -92262.900000 0 0 1
12.469912 -5.914227 -32.756635 35.545378 -0.442861 2.742835 0.037275 -0.008986 -245777.000000 0 0 1
12.763112 -6.662427 -31.636735 34.758711 -0.481097 2.714518 0.031804 -0.006187 -11766.000000 0 0 1
12.266112 -7.946627 -31.736115 34.939768 -0.574864 2.710021 0.034271 -0.009659 -102831.000000 0 0 1
12.752112 -8.757127 -30.505175 34.203353 -0.601757 2.672274 0.017059 -0.004711 -311904.000000 0 0 1
14.143412 -8.890427 -30.382505 34.672358 -0.561178 2.638871 0.032411 -0.001623 -102481.000000 0 0 1
14.541412 -9.453827 -29.099565 33.876425 -0.576468 2.604093 0.033199 0.003495 96363.200000 0 0 1
14.185712 -10.969227 -28.783715 33.912544 -0.658221 2.584438 0.016348 0.003093 -327432.000000 0 0 1
12.836212 -11.268627 -28.532615 33.254480 -0.720458 2.602175 0.013416 -0.000163 -127363.000000 0 0 1
12.687612 -12.652727 -28.432105 33.607315 -0.784022 2.579252 0.010249 -0.011092 65183.500000 0 0 1
-9.697088 -3.156927 -17.461325 20.221216 0.314733 2.612995 0.002656 -0.010460 -384829.000000 0 1 0
-10.366688 -2.722527 -18.568625 21.440014 0.256823 2.618090 0.002268 -0.014781 83458.900000 0 1 0
-11.470988 -3.596527 -18.852925 22.359592 0.303825 2.573948 0.008858 -0.018750 614178.000000 0 1 0
-12.228588 -3.149727 -20.191825 23.815309 0.252091 2.582715 0.012234 -0.024784 583489.000000 0 1 0
-13.173388 -2.083927 -19.967625 24.012225 0.156892 2.552708 0.011058 -0.017447 611346.000000 0 1 0
-13.932188 -1.779827 -21.146025 25.385587 0.127061 2.555292 0.004162 -0.009079 456366.000000 0 0 1
-14.777588 -0.485527 -20.978625 25.665454 0.032844 2.527658 0.019963 -0.007220 513579.000000 0 0 1
-13.968888 0.699773 -21.068825 25.288632 -0.050053 2.555547 0.021226 -0.013013 -159473.000000 0 0 1
-14.843788 1.745573 -21.111625 25.866692 -0.117059 2.525548 0.022276 -0.011475 -628400.000000 0 0 1
-14.367688 3.035973 -21.693625 26.196583 -0.208242 2.546522 0.040043 -0.015422 -442629.000000 0 0 1
-13.450488 3.764773 -20.932325 25.164486 -0.272915 2.553175 0.045461 -0.012652 -53909.300000 0 0 1
-13.187788 5.035173 -21.448025 25.676613 -0.364724 2.559499 0.046068 -0.017226 338290.000000 0 0 1
-11.914588 5.738073 -20.869125 24.706340 -0.448820 2.576776 0.031494 -0.013469 419488.000000 0 1 0
-12.222088 6.320473 -19.610225 23.955975 -0.477262 2.529756 0.049229 -0.023043 242699.000000 0 1 0
-11.074588 6.527473 -18.835325 22.804032 -0.532596 2.542708 0.025292 -0.016985 -344258.000000 0 1 0
-11.440388 7.167573 -17.493625 22.097137 -0.559688 2.484333 0.046694 -0.018341 53119.300000 0 1 0
-11.803388 8.542073 -17.579425 22.832502 -0.626453 2.449528 0.033888 -0.015091 737496.000000 0 1 0
-13.152088 8.712873 -17.127425 23.286053 -0.585092 2.397234 0.050829 -0.002608 299724.000000 0 1 0
-13.527988 10.176773 -17.096825 24.059812 -0.644956 2.361142 0.042659 0.004134 320716.000000 0 1 0
-12.713588 10.976873 -16.161225 23.309059 -0.712220 2.336917 0.013019 0.009228 845954.000000 0 1 0
-13.086388 12.357273 -16.221825 24.230215 -0.756750 2.304315 0.010261 -0.000549 -113817.000000 0 1 0
-12.319688 13.389073 -15.309425 23.778572 -0.826970 2.270293 0.017194 0.007612 -460904.000000 0 1 0
-12.623588 13.417973 -13.957925 23.113213 -0.815893 2.219174 0.042337 0.006684 939.193000 0 1 0
-12.142888 14.598673 -13.336825 23.204350 -0.876975 2.183102 0.034207 0.007153 -860848.000000 0 1 0
-12.661188 14.758973 -11.839225 22.766207 -0.861755 2.117688 0.035482 0.000855 851085.000000 0 1 0
-13.986788 15.239273 -11.588825 23.710051 -0.828227 2.081479 0.032618 0.007460 1372910.000000 0 1 0
-15.015588 14.391473 -12.177525 24.101338 -0.764178 2.100484 0.031391 0.017292 -496730.000000 0 1 0
-16.372188 14.518973 -11.487925 24.714804 -0.725478 2.054227 0.011976 0.025079 9891.410000 0 1 0
-17.404188 13.708173 -12.035425 25.212521 -0.667157 2.068443 0.010087 0.016805 745043.000000 0 0 1
-18.661788 13.979073 -11.411225 25.959446 -0.642909 2.025926 0.037772 0.010928 213324.000000 0 0 1
-19.921688 13.486273 -12.114125 26.935204 -0.595098 2.037282 0.036811 0.001482 -346370.000000 0 0 1
-19.958588 12.090573 -12.302425 26.379477 -0.544661 2.055972 0.032667 0.007846 -165242.000000 0 0 1
-21.205788 11.738173 -12.819125 27.418973 -0.505554 2.057288 0.064525 0.000560 -369693.000000 0 0 1
-21.868988 10.490073 -12.172925 27.138061 -0.447258 2.035945 0.059121 -0.003676 -394234.000000 0 0 1
-21.187688 9.309273 -12.316425 26.215930 -0.413980 2.059868 0.059225 -0.005634 106085.000000 0 0 1
-21.677288 8.356173 -11.356525 25.859255 -0.367927 2.025467 0.055991 0.001413 549076.000000 0 0 1
-20.641788 7.186573 -11.305025 24.607597 -0.335032 2.048129 0.055011 -0.005329 407554.000000 0 1 0
-20.716488 6.397973 -12.489725 25.021993 -0.299542 2.093414 0.073028 -0.008136 1109510.000000 0 0 1
-19.533188 5.555273 -12.485125 23.838725 -0.277086 2.122023 0.069289 -0.015029 980793.000000 0 1 0
-19.499488 4.573473 -13.711825 24.272635 -0.230379 2.171119 0.067203 -0.024167 222410.000000 0 1 0
-20.389788 3.456273 -13.560025 24.729811 -0.167914 2.151159 0.064213 -0.022061 700226.000000 0 1 0
-20.086488 2.472473 -14.527925 24.912662 -0.122475 2.193402 0.056743 -0.024922 -106066.000000 0 1 0
-20.777588 1.133873 -14.151225 25.164479 -0.054518 2.168020 0.049336 -0.021227 537671.000000 0 0 1
-22.200688 1.060473 -14.222825 26.387192 -0.047731 2.140052 0.039785 -0.015884 587083.000000 0 0 1
-22.586688 -0.263127 -14.337325 26.754188 0.011649 2.136359 0.032810 -0.025826 750802.000000 0 0 1
-24.004488 -0.258027 -15.054125 28.335643 0.010749 2.130906 0.038115 -0.016818 1091110.000000 0 0 1
-25.043688 0.263873 -14.247025 28.813775 -0.010536 2.088000 0.050411 -0.021464 183917.000000 0 0 1
-26.291928 0.288373 -14.912825 30.228149 -0.010968 2.086724 0.038315 -0.010279 717469.000000 0 0 1
-27.497738 0.623573 -13.960025 30.844719 -0.022673 2.040465 0.039512 0.000481 225252.000000 0 0 1
-27.865248 -0.418727 -13.066525 30.779562 0.015026 2.009227 0.040833 -0.009729 611843.000000 0 0 1
-29.141978 -0.092327 -12.495625 31.708107 0.003168 1.975866 0.051775 -0.012249 740173.000000 0 0 1
-29.405828 -1.002527 -11.284425 31.512633 0.034080 1.937020 0.050098 -0.020423 -338672.000000 0 0 1
-29.692128 -2.396727 -11.508625 31.934545 0.080545 1.939473 0.059748 -0.015822 502337.000000 0 0 1
-28.646858 -3.290827 -11.907125 31.196981 0.114374 1.962405 0.054217 -0.017234 -22814.100000 0 0 1
-28.711278 -4.707527 -11.324625 31.220913 0.162515 1.941987 0.059213 -0.017700 -66260.000000 0 0 1
-29.803678 -5.460527 -11.846125 32.533171 0.181207 1.943489 0.069203 -0.014582 379322.000000 0 0 1
-29.984478 -6.751027 -11.319625 32.753308 0.221458 1.923677 0.071642 -0.013055 207151.000000 0 0 1
-29.001388 -7.819327 -11.899025 32.308036 0.263357 1.947975 0.078200 -0.017524 836628.000000 0 0 1
-27.612498 -7.658627 -11.636125 30.927399 0.270560 1.956531 0.048926 -0.016162 208514.000000 0 0 1
-26.862148 -8.678427 -12.234025 30.766239 0.312488 1.979745 0.062939 -0.020365 -326268.000000 0 0 1
-25.393338 -8.686027 -11.786025 29.311756 0.329583 1.984597 0.060166 -0.025718 -612037.000000 0 0 1
-24.636588 -7.579327 -12.270325 28.547654 0.298456 2.015089 0.040757 -0.018042 173867.000000 0 0 1
-23.340188 -7.492527 -11.729525 27.175064 0.310622 2.017093 0.023725 -0.022598 -514991.000000 0 0 1
-23.169788 -7.232927 -10.207425 26.331461 0.302585 1.968879 0.011006 -0.018970 -732930.000000 0 0 1
-23.722988 -5.999927 -9.781825 26.352673 0.247721 1.951086 0.016286 -0.012672 581526.000000 0 0 1
-25.135428 -6.040127 -9.643025 27.590955 0.235832 1.927833 0.030369 -0.019059 -281632.000000 0 0 1
-25.697968 -4.732327 -9.063325 27.657265 0.182112 1.904666 0.040122 -0.014538 -448725.000000 0 0 1
-25.397678 -4.692527 -7.700725 26.951123 0.182702 1.860564 0.029200 -0.012614 731484.000000 0 0 1
-25.713908 -3.289527 -7.316625 26.936203 0.127237 1.845880 0.038846 -0.009288 65709.700000 0 0 1
-25.820298 -2.977827 -5.752325 26.620377 0.114822 1.788602 0.036716 -0.005623 -65957.100000 0 0 1
-24.506388 -3.018527 -5.215025 25.236304 0.122556 1.778944 0.031915 0.001600 392954.000000 0 0 1
-24.423188 -2.759927 -3.833125 24.875734 0.112527 1.725504 0.020329 0.005639 15653.700000 0 1 0
-23.065988 -3.159927 -3.215825 23.502478 0.136148 1.708056 0.010348 0.008109 61495.700000 0 1 0
-22.791388 -4.555227 -3.137425 23.452950 0.197267 1.704974 0.013094 0.007489 896944.000000 0 1 0
-21.453188 -4.886727 -2.751625 22.174102 0.223964 1.695209 0.011028 0.009749 454460.000000 0 1 0
-21.146488 -6.399527 -2.636725 22.250398 0.293866 1.689578 0.011363 0.009062 -132557.000000 0 1 0
-21.827388 -7.058927 -1.583725 22.995032 0.312782 1.639723 0.016542 0.007249 499534.000000 0 1 0
-22.010188 -8.441427 -1.936925 23.652859 0.366222 1.652778 0.000010 0.007311 240983.000000 0 1 0
-22.733688 -9.241227 -0.803325 24.553333 0.386097 1.603520 0.009082 0.001179 -47870.400000 0 1 0
-21.817888 -9.603827 0.200575 23.838917 0.414659 1.562382 0.008145 0.000779 264740.000000 0 1 0
-22.320788 -10.433227 1.246075 24.670276 0.437247 1.520266 0.007769 0.000304 524982.000000 0 1 0
-21.134388 -11.141427 1.998275 23.974713 0.485147 1.487350 0.011522 -0.001827 661462.000000 0 1 0
-20.424688 -12.102027 1.269375 23.774740 0.534901 1.517379 0.017731 0.001545 353204.000000 0 1 0
-19.197588 -12.442627 1.893375 22.955418 0.575063 1.488222 0.002174 -0.001081 -5993.850000 0 1 0
-18.513388 -13.574427 1.175675 22.986796 0.632677 1.519628 0.012603 0.002598 -384188.000000 0 1 0
-19.311488 -14.751227 1.246375 24.332811 0.652311 1.519552 0.014440 -0.000140 400098.000000 0 1 0
-18.721288 -15.870427 0.610975 24.550568 0.703169 1.545907 0.010478 -0.003134 -67748.600000 0 1 0
-17.508988 -16.575127 1.279875 24.144100 0.758006 1.517762 0.010361 -0.003767 268515.000000 0 1 0
-16.320488 -15.776527 1.161275 22.728961 0.768452 1.519682 0.019663 -0.005949 118011.000000 0 1 0
-15.186288 -16.401327 1.687975 22.415979 0.823845 1.495423 0.024597 -0.009813 -47240.500000 0 1 0
-14.943788 -16.494927 3.221675 22.489522 0.834697 1.427050 0.015739 -0.002287 -320961.000000 0 1 0
-14.891088 -15.219127 3.806275 21.629934 0.796292 1.393903 0.022395 -0.008832 366481.000000 0 1 0
-14.164088 -15.279027 5.058475 21.439641 0.823248 1.332610 0.017715 -0.002396 145114.000000 0 1 0
-14.903588 -15.944927 6.245675 22.701676 0.819142 1.292082 0.011814 0.000247 -565546.000000 0 1 0
-15.734588 -15.065327 6.967175 22.871005 0.763672 1.261247 0.013843 0.002605 95569.000000 0 1 0
-15.831788 -15.358127 8.371375 23.592319 0.770213 1.208059 0.010810 0.003057 -49011.100000 0 1 0
-16.761588 -16.550927 8.759875 25.132040 0.779074 1.214768 0.003908 0.006996 -435283.000000 0 0 1
-16.287688 -17.768627 8.342775 25.507152 0.828856 1.237589 0.007599 0.008426 -11270.700000 0 0 1
-16.878188 -18.879027 9.034075 26.886900 0.841296 1.228127 0.011904 0.005202 -177480.000000 0 0 1
-16.413988 -19.119927 10.497075 27.297971 0.861402 1.176090 0.010216 0.002786 687060.000000 0 0 1
-15.009088 -19.303227 10.707475 26.693395 0.909900 1.158048 0.012712 -0.004033 591708.000000 0 0 1
-14.760588 -19.766627 11.991275 27.429641 0.929383 1.118352 0.013344 -0.009387 -458903.000000 0 0 1
-13.371888 -20.338927 12.198375 27.226452 0.989200 1.106231 0.012082 -0.003404 -92620.700000 0 0 1
-12.257988 -19.455927 12.232775 26.046730 1.008582 1.081905 0.008832 -0.004981 -764249.000000 0 0 1
-11.076188 -20.160527 12.242275 26.057669 1.068414 1.081715 0.003803 -0.001994 -799243.000000 0 0 1
-9.850088 -19.393627 12.702575 25.189133 1.100846 1.042239 0.004052 -0.002845 -277200.000000 0 0 1
-9.339688 -18.440927 11.837675 23.820750 1.101990 1.050718 -0.003614 -0.010561 348726.000000 0 1 0
-7.945188 -18.295727 12.153875 23.357575 1.161105 1.023548 -0.005050 0.006893 1110670.000000 0 1 0
-7.136388 -17.438927 11.067175 21.852382 1.182366 1.039732 -0.002025 -0.004311 339632.000000 0 1 0
-6.649488 -18.230527 10.030675 21.844502 1.221047 1.093718 -0.001805 -0.005808 -380736.000000 0 1 0
-6.019088 -17.391127 9.103475 20.531780 1.237599 1.111425 0.004499 -0.005398 251189.000000 0 1 0
-4.925788 -18.131027 8.246575 20.518371 1.305522 1.157193 0.001892 -0.011152 723620.000000 0 1 0
-3.725688 -18.384627 8.966675 20.791261 1.370852 1.124895 0.021711 -0.002402 137551.000000 0 1 0
-2.661088 -18.732127 8.081575 20.573912 1.429680 1.167114 0.019143 -0.018251 295366.000000 0 1 0
-1.359188 -18.893927 8.880675 20.921144 1.498982 1.132405 0.019923 -0.022838 534953.000000 0 1 0
-0.259688 -19.507527 8.186275 21.157177 1.557485 1.173500 0.035611 -0.010848 504652.000000 0 1 0
0.876012 -19.789727 8.979275 21.749209 -1.526559 1.145210 0.034419 -0.004789 316699.000000 0 1 0
2.081812 -20.262927 8.124875 21.930202 -1.468416 1.191262 0.042842 -0.020842 59415.700000 0 1 0
2.021612 -21.623327 7.670275 23.032332 -1.477575 1.231290 0.025715 -0.008912 -184863.000000 0 1 0
2.094812 -22.613927 8.732175 24.331642 -1.478426 1.203727 0.023444 -0.009952 -148210.000000 0 1 0
1.651212 -24.031427 8.286175 25.473451 -1.502194 1.239481 0.003846 0.002572 147222.000000 0 0 1
1.621512 -25.040557 9.249075 26.743302 -1.506131 1.217656 0.006249 0.006323 478.300000 0 0 1
1.160012 -26.281607 8.694875 27.706847 -1.526687 1.251586 0.003167 0.003135 -432808.000000 0 0 1
1.494312 -27.469597 9.652475 29.154451 -1.516451 1.233348 0.016437 0.000301 291573.000000 0 0 1
0.790412 -27.530087 10.893075 29.617386 -1.542093 1.194161 0.014162 -0.000766 1567240.000000 0 0 1
-0.662288 -27.671817 10.811975 29.716442 1.546867 1.198411 0.015801 0.002722 1389950.000000 0 0 1
-1.309288 -27.807557 12.172875 30.383439 1.523747 1.158579 0.023723 0.000294 -296089.000000 0 0 1
-0.908688 -28.991607 12.784575 31.698334 1.539463 1.155654 0.020858 -0.006272 -230032.000000 0 0 1
-1.299388 -29.052727 14.117075 32.327097 1.526101 1.118875 0.022099 -0.012626 -557004.000000 0 0 1
-0.658688 -30.154587 14.963975 33.669772 1.548956 1.110255 0.024363 -0.010854 -11774.900000 0 0 1
-0.727288 -29.764677 16.300975 33.943876 1.546367 1.069876 0.027431 -0.013486 73232.400000 0 0 1
-0.295188 -30.802257 17.193875 35.277408 1.561213 1.061698 0.025838 -0.008707 -68362.800000 0 0 1
-0.796988 -30.466497 18.604075 35.706502 1.544643 1.022742 0.023116 -0.010163 -271262.000000 0 0 1
-2.191688 -30.559257 18.689175 35.888117 1.499200 1.023053 0.025108 -0.012203 -378429.000000 0 0 1
-2.681488 -30.471707 19.998175 36.546441 1.483023 0.991782 0.018545 -0.013016 190583.000000 0 0 1
-4.212888 -30.633357 20.178375 36.923134 1.434127 0.992621 0.011200 -0.010099 12067.500000 0 0 1
-4.994888 -29.553337 19.673275 35.852286 1.403366 0.989950 0.018247 -0.018889 -389943.000000 0 0 1
-6.206188 -29.465847 20.350875 36.344340 1.363207 0.976475 0.020413 -0.017487 -421319.000000 0 0 1
-6.120188 -28.471517 21.588775 36.251334 1.359060 0.932870 0.015997 -0.017875 289290.000000 0 0 1
-5.085088 -28.761207 22.562775 36.907235 1.395801 0.913047 0.019336 -0.012555 729413.000000 0 0 1
-5.119588 -27.803887 23.611575 36.834397 1.388704 0.874970 0.016199 -0.011526 -169386.000000 0 0 1
-4.047488 -27.989757 24.714275 37.558009 1.427186 0.852598 0.023640 -0.007653 105752.000000 0 0 1
-4.308888 -29.047297 25.629175 38.976488 1.423530 0.853228 0.024426 -0.002634 447447.000000 0 0 1
-3.518488 -30.232187 25.320675 39.591685 1.454935 0.876890 0.020288 -0.002158 295510.000000 0 0 1
-3.790988 -31.491367 26.165475 41.118243 1.450991 0.881043 0.025938 0.005944 -177372.000000 0 0 1
-3.341088 -31.401887 27.509475 41.880934 1.464797 0.854163 0.036574 -0.002525 156860.000000 0 0 1
-3.736888 -32.495767 28.291775 43.247702 1.456303 0.857699 0.037543 -0.006657 -133435.000000 0 0 1
-3.264088 -32.343717 29.755475 44.069929 1.470218 0.829577 0.050352 -0.014752 502779.000000 0 0 1
-1.846088 -32.260377 29.891775 44.018839 1.513634 0.824304 0.053046 -0.013464 704296.000000 0 0 1
-1.479788 -32.126757 31.272475 44.858511 1.524768 0.799402 0.055027 -0.017017 -100268.000000 0 0 1
-27.637518 3.405473 -10.271325 29.680461 -0.122601 1.924168 0.047456 -0.006530 -112348.000000 0 0 1
-28.539458 3.274073 -11.346525 30.886305 -0.114222 1.946970 0.044706 -0.021507 -60736.200000 0 0 1
-29.554208 4.236973 -11.401725 31.959388 -0.142393 1.935590 0.027238 -0.011646 -580652.000000 0 0 1
-30.494948 4.091173 -12.555225 33.231208 -0.133363 1.958231 0.032924 -0.013581 -279690.000000 0 0 1
-31.340468 2.932473 -12.472025 33.858171 -0.093297 1.948042 0.045165 -0.018201 667659.000000 0 0 1
-32.158678 2.749473 -13.635825 35.038206 -0.085290 1.970527 0.039529 -0.010228 -5.648720 0 0 1
-33.216698 1.657473 -13.469625 35.882127 -0.049857 1.955609 0.039844 -0.015457 -18609.200000 0 0 1
-32.709788 0.367573 -13.353625 35.332487 -0.011237 1.958369 0.055950 -0.013605 -123222.000000 0 0 1
-33.757038 -0.397027 -12.837525 36.117825 0.011761 1.934175 0.057858 -0.014332 120166.000000 0 0 1
-33.335028 -1.866927 -12.573925 35.676506 0.055947 1.930976 0.053322 -0.014310 123944.000000 0 0 1
-33.369228 -2.706527 -13.704225 36.175080 0.080931 1.959329 0.047696 -0.010247 -66160.500000 0 0 1
-32.789138 -3.890327 -13.291625 35.593953 0.118095 1.953493 0.057332 -0.012526 -119125.000000 0 0 1
-33.094368 -5.116327 -14.187125 36.368785 0.153384 1.971526 0.058094 -0.013976 114497.000000 0 0 1
-32.733078 -6.348727 -13.566625 35.997417 0.191576 1.957219 0.056624 -0.014450 15715.800000 0 0 1
-33.211498 -7.471327 -14.270425 36.911642 0.221278 1.967750 0.056021 -0.011653 -360330.000000 0 0 1
-33.035198 -8.844227 -13.562625 36.789801 0.261587 1.948355 0.055603 -0.016947 -99770.900000 0 0 1
-31.739478 -9.368027 -13.374825 35.693701 0.287005 1.954881 0.064308 -0.016539 103080.000000 0 0 1
-31.142518 -9.882727 -14.555225 35.768412 0.307287 1.989887 0.061342 -0.018013 -362453.000000 0 0 1
-29.968118 -10.844027 -14.323825 34.940706 0.347194 1.993192 0.065695 -0.022822 -260634.000000 0 0 1
-30.353138 -11.964427 -13.520225 35.316525 0.375474 1.963654 0.062021 -0.018917 661033.000000 0 0 1
-29.388178 -13.048127 -13.473925 34.863523 0.417847 1.967604 0.065720 -0.015953 203861.000000 0 0 1
-29.796368 -14.310427 -14.247525 35.994497 0.447743 1.977762 0.070207 -0.014096 -231374.000000 0 0 1
-29.730288 -14.198527 -15.629025 36.465800 0.445550 2.013732 0.059106 -0.018198 16200.200000 0 0 1
-29.939268 -15.338727 -16.395625 37.422624 0.473461 2.024303 0.061306 -0.021830 -288086.000000 0 0 1
-28.989698 -16.601727 -16.340125 37.188971 0.520087 2.025706 0.045680 -0.008838 1440680.000000 0 0 1
-27.671328 -16.238027 -16.849825 36.239378 0.530670 2.054385 0.038298 -0.011829 771969.000000 0 0 1
-26.714258 -17.254427 -16.588225 35.868315 0.573479 2.051582 0.032967 -0.011310 116504.000000 0 0 1
-25.367008 -16.741127 -17.137525 34.891907 0.583343 2.084218 0.034504 -0.016513 -185494.000000 0 0 1
-25.394498 -16.362527 -18.451725 35.398855 0.572381 2.119114 0.044037 -0.020321 -25404.900000 0 0 1
-24.085288 -16.033427 -18.881725 34.549839 0.587329 2.148984 0.034716 -0.008683 167873.000000 0 0 1
-23.900588 -15.718127 -20.412425 35.142065 0.581732 2.190574 0.035270 -0.006332 -37937.700000 0 0 1
-24.289788 -16.686527 -21.371025 36.402674 0.601932 2.198235 0.032448 -0.017354 916436.000000 0 0 1
-25.652678 -16.515727 -21.801325 37.498358 0.572019 2.191237 0.040683 -0.022546 553519.000000 0 0 1
-26.185898 -17.819527 -22.402525 38.795746 0.597519 2.186396 0.043041 -0.021948 -224250.000000 0 0 1
-25.577038 -18.126327 -23.651625 39.270192 0.616538 2.217150 0.039818 -0.013071 179689.000000 0 0 1
-26.215478 -19.248427 -24.232525 40.558211 0.633338 2.211145 0.028147 -0.023084 -6351.430000 0 0 1
-25.442918 -19.725927 -25.481855 41.058241 0.659498 2.240338 0.029396 -0.028792 978825.000000 0 0 1
-24.042688 -20.009027 -25.411485 40.300813 0.694086 2.253052 0.025542 -0.020422 471766.000000 0 0 1
-23.775688 -21.306627 -24.974825 40.533906 0.730685 2.234637 0.027814 -0.014236 -240135.000000 0 0 1
-22.307588 -21.717827 -25.187335 40.046152 0.772003 2.251008 0.027965 0.002479 16040.900000 0 0 1
-21.942688 -21.521127 -26.520465 40.595265 0.775699 2.282718 0.029793 -0.009328 993871.000000 0 0 1
-20.533188 -21.849727 -26.664215 40.124839 0.816451 2.297663 0.025695 -0.003882 1298910.000000 0 0 1
-20.128488 -21.668927 -28.159775 40.837132 0.822236 2.331682 0.031505 -0.002178 -262637.000000 0 0 1
-20.531688 -22.722527 -28.965805 42.153070 0.836005 2.328366 0.068615 -0.008763 -207651.000000 0 0 1
-20.778388 -22.254927 -30.252745 42.921460 0.819696 2.352993 0.061193 -0.017581 -47058.800000 0 0 1
-19.585988 -22.518727 -31.230665 43.197898 0.854939 2.378884 0.062580 -0.023887 317961.000000 0 0 1
-19.411788 -23.801027 -31.794605 44.206372 0.886624 2.373492 0.070562 -0.029057 -88515.800000 0 0 1
-18.801988 -23.776527 -33.055585 44.849857 0.901703 2.399458 0.075112 -0.028303 41997.800000 0 0 1
-18.290388 -25.160017 -33.589745 45.780298 0.942203 2.394572 0.072980 -0.022873 -51341.100000 0 0 1
-17.717488 -25.117647 34.017947 45.847860 0.956469 0.734785 0.062266 -0.030266 -127209.000000 0 0 1
-18.545088 -24.768127 32.928962 45.185141 0.928097 0.754292 0.048393 -0.028353 -638177.000000 0 0 1
-17.697488 -24.774027 31.665157 43.927618 0.950500 0.765771 0.043438 -0.021659 -60499.600000 0 0 1
-16.838888 -23.650827 31.689887 42.978584 0.952076 0.741670 0.037383 -0.017439 -150329.000000 0 0 1
-16.147488 -23.465027 30.468957 41.709785 0.968067 0.751744 0.040634 -0.015082 113398.000000 0 0 1
-15.389088 -22.111227 30.372977 40.598622 0.962770 0.725560 0.024426 -0.008433 -224686.000000 0 0 1
-16.289788 -21.029727 30.208497 40.251210 0.911731 0.721979 0.030946 -0.008163 407911.000000 0 0 1
-15.698288 -19.699627 30.007787 39.178806 0.897959 0.698327 0.029048 -0.005658 322440.000000 0 0 1
-14.906188 -19.053627 31.210267 39.488174 0.906924 0.659384 0.024168 -0.009965 445739.000000 0 0 1
-14.377688 -17.752327 30.906397 38.432648 0.890045 0.636518 0.021579 -0.002186 69922.700000 0 0 1
-13.894188 -17.161627 32.100967 38.962058 0.890224 0.602532 0.022501 -0.008660 -32738.700000 0 0 1
-13.398188 -15.732527 31.914477 38.020490 0.865361 0.574614 0.024904 -0.017240 -487783.000000 0 0 1
-12.209388 -15.596027 31.185537 36.943781 0.906599 0.565847 0.025847 -0.013912 -287545.000000 0 0 1
-11.971688 -14.230527 30.948787 36.106185 0.871394 0.541066 0.022988 -0.015694 -126355.000000 0 0 1
-10.480188 -14.050627 30.614547 35.277542 0.929932 0.519999 0.035810 -0.015235 -58999.900000 0 0 1
-10.184488 -12.714127 30.447007 34.531045 0.895423 0.491283 0.034433 -0.015418 -1219000.000000 0 0 1
-8.843388 -12.429227 30.543137 34.140510 0.952394 0.463193 0.029542 -0.016934 -985802.000000 0 0 1
-8.611788 -10.872527 30.604537 33.600780 0.900910 0.425510 0.031564 -0.012079 -342261.000000 0 0 1
-9.292988 -10.339127 31.703647 34.617603 0.838635 0.413240 0.030359 -0.006052 62580.300000 0 0 1
-8.986588 -9.012827 31.868327 34.315887 0.786856 0.379970 0.025239 -0.008497 125048.000000 0 0 1
-10.051188 -8.251727 32.689067 35.180854 0.687398 0.378630 0.022759 -0.006985 -178083.000000 0 0 1
-11.329388 -7.951027 32.200977 35.049633 0.611937 0.405957 0.021114 -0.010914 -96745.600000 0 0 1
-12.235188 -7.417227 33.137466 36.094414 0.544981 0.407594 0.021395 -0.012193 -7155.640000 0 0 1
-11.965988 -6.001127 33.673838 36.237077 0.464859 0.378379 0.021650 -0.010887 -597178.000000 0 0 1
-12.042988 -5.024027 32.647637 35.158820 0.395224 0.380239 0.008106 -0.010466 300576.000000 0 0 1
-12.315188 -3.677627 33.016765 35.430150 0.290195 0.371226 0.009653 -0.008462 -553531.000000 0 0 1
-11.797988 -2.585927 32.100417 34.297468 0.215772 0.359874 -0.004609 -0.007791 -378360.000000 0 0 1
-10.404688 -2.483527 32.216007 33.945494 0.234309 0.320586 0.009673 -0.013417 -272120.000000 0 0 1
-9.875988 -1.599627 31.239257 32.802212 0.160577 0.309939 0.001170 -0.008672 -42881.800000 0 0 1
-8.350888 -1.371627 31.321157 32.444315 0.162796 0.263892 0.020667 -0.009697 28063.100000 0 0 1
-7.994388 -0.842627 32.581917 33.558927 0.105015 0.241891 0.022841 -0.017348 -100085.000000 0 0 1
-6.661088 -0.385027 32.576907 33.253168 0.057738 0.202020 0.035644 -0.022884 -139031.000000 0 0 1
-6.294688 0.298973 33.950252 34.530162 -0.047460 0.183529 0.042918 -0.033417 -50341.600000 0 0 1
-6.931488 1.564373 34.293650 35.022096 -0.221972 0.204314 0.043834 -0.021560 242374.000000 0 0 1
-6.499688 2.672973 33.516168 34.245062 -0.390164 0.206691 0.044194 -0.016960 -203102.000000 0 0 1
-7.426388 3.879373 33.652360 34.679707 -0.481388 0.244014 0.042082 -0.009169 -68193.000000 0 0 1
-8.731588 3.750973 33.131181 34.467167 -0.405749 0.279335 0.016639 -0.002121 46815.600000 0 0 1
-9.278388 5.046273 32.947677 34.599173 -0.498128 0.310216 0.005705 0.009473 -1037030.000000 0 0 1
-10.739088 5.016973 32.567977 34.657916 -0.437040 0.349050 -0.006614 0.014798 -1039540.000000 0 0 1
-11.296288 6.315073 32.725727 35.191753 -0.509757 0.376585 0.002082 0.014024 -88241.700000 0 0 1
-12.427888 6.412373 31.883737 34.815853 -0.476339 0.413345 -0.014549 0.021037 -242915.000000 0 0 1
-13.151588 7.767073 32.041387 35.495664 -0.533465 0.444828 -0.017155 0.014071 -22563.800000 0 0 1
-13.882788 7.755973 33.267773 36.873183 -0.509479 0.445904 -0.013968 0.013223 302580.000000 0 0 1
-14.614388 8.963273 33.466546 37.602264 -0.550155 0.473420 -0.012716 0.013495 128354.000000 0 0 1
-15.377888 9.079473 -34.120527 38.511383 -0.533349 2.659411 -0.005652 0.010301 -5520.360000 0 0 1
-14.520688 9.240073 -33.011125 37.228533 -0.566711 2.660988 -0.007793 0.002049 -500221.000000 0 0 1
-15.265688 9.481273 -31.874855 36.591558 -0.555778 2.628231 -0.000815 0.006363 -1540530.000000 0 0 1
-14.533688 9.949573 -30.566565 35.277995 -0.600307 2.618841 0.009567 0.000827 514616.000000 0 0 1
-13.769088 11.162773 -30.676675 35.429559 -0.681239 2.617643 0.010502 0.000302 205770.000000 0 0 1
-12.527188 11.127073 -31.336325 35.534595 -0.726276 2.650576 0.011531 -0.008248 -239749.000000 0 0 1
-11.810688 12.510673 -31.569335 35.953194 -0.814171 2.642605 0.011932 -0.002080 -228316.000000 0 0 1
-12.345188 13.320273 -32.639925 37.352350 -0.823372 2.633838 0.004889 -0.003139 493824.000000 0 0 1
-11.482788 14.425073 -32.934805 37.744384 -0.898481 2.631245 0.011858 -0.013423 110450.000000 0 0 1
-11.504588 15.545273 -31.818535 37.234798 -0.933681 2.595456 0.018854 -0.017412 416957.000000 0 0 1
-12.755088 16.227373 -31.763555 37.880646 -0.904636 2.565352 0.016468 -0.012696 306673.000000 0 0 1
-12.839988 17.215973 -30.763835 37.518909 -0.929977 2.532130 0.005011 -0.006594 -236779.000000 0 0 1
-14.273188 17.760973 -30.591555 38.144715 -0.893848 2.501410 0.004615 -0.015407 -228589.000000 0 0 1
-14.694988 18.508673 -31.727925 39.562291 -0.899754 2.501389 0.013556 -0.013733 -507664.000000 0 0 1
-15.991488 18.991373 -31.511265 40.116826 -0.870942 2.474280 0.006004 -0.013160 -178978.000000 0 0 1
-16.207188 20.265773 -30.708365 40.204206 -0.896219 2.439992 -0.015695 -0.009626 -480126.000000 0 0 1
-15.526588 21.397673 -31.283755 40.958621 -0.943082 2.439960 -0.008240 -0.003069 167314.000000 0 0 1
-16.006488 22.702773 -30.984235 41.613055 -0.956692 2.410701 -0.020584 -0.003838 258413.000000 0 0 1
-17.409388 23.070573 -31.529195 42.771816 -0.924349 2.399638 -0.020201 -0.003799 322735.000000 0 0 1
-18.528588 22.353973 -31.051645 42.511332 -0.878697 2.389751 -0.009975 -0.009122 256954.000000 0 0 1
-19.649588 22.574873 -31.914055 43.752007 -0.854567 2.388286 0.022418 -0.012855 -402152.000000 0 0 1
-20.896088 21.839573 -31.409715 43.591095 -0.807472 2.375397 0.039685 -0.019211 -1290900.000000 0 0 1
-21.595388 22.599473 -30.383265 43.591739 -0.808114 2.341996 0.076359 -0.019030 982716.000000 0 0 1
-22.592188 23.533273 -30.859255 44.905629 -0.805798 2.328427 0.077958 -0.013889 93003.200000 0 0 1
-23.820588 22.924373 -31.545665 45.695473 -0.766228 2.332763 0.067286 -0.025158 -1151090.000000 0 0 1
-23.524388 22.309073 -32.751455 46.084155 -0.758888 2.361272 0.056836 -0.015931 -376054.000000 0 0 1
-24.685088 21.863273 -33.411725 46.943579 -0.724851 2.362772 0.065316 -0.016955 -210184.000000 0 0 1
-24.463488 20.947673 34.304198 47.053642 -0.708130 0.753871 0.048458 -0.006915 -120646.000000 0 0 1
-24.115988 19.625873 -34.257295 46.263571 -0.683106 2.404582 0.047883 -0.012005 136909.000000 0 0 1
-24.141388 18.959773 33.477651 45.420620 -0.665753 0.742089 0.020196 -0.020253 -305705.000000 0 0 1
-23.767888 17.449873 33.468020 44.604023 -0.633298 0.722226 0.021134 -0.000848 -460493.000000 0 0 1
-24.800288 16.645573 33.938047 45.209738 -0.591124 0.721706 0.023421 -0.002813 -37134.700000 0 0 1
-24.728588 15.458073 33.169586 44.166464 -0.558678 0.721201 0.021108 -0.005991 -642393.000000 0 0 1
-25.591548 14.349473 33.743149 44.715040 -0.511030 0.715712 0.009914 -0.002491 279582.000000 0 0 1
-26.999308 14.631673 33.775422 45.648960 -0.496625 0.737883 0.011575 -0.000184 811669.000000 0 0 1
-27.917208 13.546573 33.690898 45.803458 -0.451771 0.744313 0.023258 0.006622 291641.000000 0 0 1
-27.933698 12.379773 -34.206309 45.865257 -0.417171 2.412531 0.021019 -0.000817 -642918.000000 0 0 1
-26.787538 11.576573 -34.130853 44.905504 -0.407922 2.434201 0.012342 -0.017735 -239759.000000 0 0 1
-27.206008 10.251173 -34.321291 44.980044 -0.360346 2.438790 0.020249 -0.013585 -95770.700000 0 0 1
-26.013268 9.237473 -34.324909 44.047933 -0.341217 2.464285 0.010589 -0.020366 686118.000000 0 0 1
-25.119558 9.122473 33.467008 42.828172 -0.348352 0.673850 -0.015180 -0.013224 617218.000000 0 0 1
-24.248388 10.242573 33.282875 42.434000 -0.399668 0.669158 -0.020955 -0.011822 -717096.000000 0 0 1
-22.975288 9.764073 32.573757 41.039622 -0.401855 0.653904 -0.007004 -0.008003 -564630.000000 0 0 1
-23.115388 9.504273 31.167687 39.950933 -0.390095 0.675892 -0.001968 -0.005330 367072.000000 0 0 1
-21.872588 9.165873 30.564827 38.686328 -0.396827 0.659877 -0.005774 -0.000760 169638.000000 0 0 1
-21.955888 9.124073 29.019797 37.516108 -0.393851 0.686406 0.003308 0.001926 -127780.000000 0 0 1
-22.289388 10.371373 28.453427 37.602921 -0.435509 0.712574 0.004204 -0.003172 293002.000000 0 0 1
-22.179088 10.386073 27.032357 36.476441 -0.437953 0.736103 0.002055 -0.008551 -900355.000000 0 0 1
-22.582188 11.795873 26.430737 36.710784 -0.481370 0.767034 0.009925 -0.000957 68810.000000 0 0 1
-23.949188 12.086273 26.596057 37.775545 -0.467371 0.789705 0.015586 0.000846 -479451.000000 0 0 1
-24.782588 11.433973 25.694127 37.484671 -0.432270 0.815565 0.015308 0.007676 -949613.000000 0 0 1
-26.204558 12.005473 25.877987 38.736035 -0.429606 0.839198 0.013833 0.010026 -337620.000000 0 0 1
-26.339758 13.312373 25.339937 38.898773 -0.467966 0.861325 0.019140 0.005346 885337.000000 0 0 1
-27.627378 13.896073 25.657487 40.183075 -0.466030 0.878229 0.020113 0.004248 1022960.000000 0 0 1
-27.842058 15.189073 24.888167 40.315121 -0.499416 0.905438 0.025331 -0.004545 40504.900000 0 0 1
-27.013548 16.248973 25.352787 40.453982 -0.541531 0.893476 0.027960 -0.004735 -57617.200000 0 0 1
-27.222388 17.460973 24.643707 40.660254 -0.570320 0.919663 0.022031 -0.001208 -188193.000000 0 0 1
-22.351288 -9.678927 31.778007 40.038774 0.408658 0.653960 0.017859 -0.016599 684381.000000 0 0 1
-21.242788 -9.037427 31.111477 38.740871 0.402239 0.638374 0.012966 -0.014114 620863.000000 0 0 1
-21.519388 -9.160127 29.705537 37.807551 0.402437 0.666963 0.005583 -0.010524 -420688.000000 0 0 1
-20.481888 -8.687727 28.714017 36.324635 0.401164 0.659199 0.003175 -0.011329 -1213380.000000 0 0 1
-20.101288 -7.337227 28.701257 35.800263 0.349986 0.640654 0.001779 -0.011404 -192024.000000 0 0 1
-18.922588 -6.996427 29.367377 35.629442 0.354151 0.601929 0.001438 -0.005744 -719411.000000 0 0 1
-17.564988 -7.379327 28.756357 34.495091 0.397726 0.585137 -0.000887 0.001027 -950634.000000 0 0 1
-17.194488 -8.750927 28.693357 34.576551 0.470772 0.591957 -0.000299 0.001232 55091.500000 0 0 1
-16.882088 -9.314127 29.932527 35.604972 0.504160 0.572251 0.002558 -0.003060 273611.000000 0 0 1
-15.454988 -9.108927 30.596817 35.468217 0.532577 0.530302 0.009846 -0.010733 668517.000000 0 0 1
-14.490688 -9.913427 29.969687 34.733819 0.599991 0.529937 0.014049 -0.014300 -995724.000000 0 0 1
-13.224788 -9.366227 30.186657 34.261574 0.616230 0.492688 0.021978 -0.016692 172570.000000 0 0 1
-12.077788 -10.145727 29.439447 33.398949 0.698679 0.491876 0.021595 -0.006837 170380.000000 0 0 1
-11.839788 -9.733827 28.155657 32.057277 0.688089 0.498518 0.028064 -0.005695 -438162.000000 0 0 1
-10.717988 -10.310427 27.566537 31.322422 0.766019 0.494746 0.026617 -0.003861 -337617.000000 0 0 1
-10.335588 -9.885927 26.096557 29.758801 0.763165 0.501347 0.021279 -0.000378 -494112.000000 0 0 1
-11.234188 -10.371127 25.180617 29.458967 0.745473 0.545690 0.015804 -0.006042 -795944.000000 0 0 1
-10.860588 -10.103127 23.845387 28.082522 0.749282 0.556482 0.021276 -0.009956 -72431.600000 0 0 1
-11.735988 -10.662127 22.681687 27.674416 0.737491 0.610100 0.018497 -0.009516 -479204.000000 0 0 1
-11.760888 -12.097527 22.619787 28.219203 0.799507 0.640873 0.023636 -0.006579 -21841.900000 0 0 1
-12.872188 -12.710027 22.011687 28.491268 0.779059 0.687907 0.015179 -0.004760 -700202.000000 0 0 1
-14.073388 -12.753127 22.915387 29.762686 0.736223 0.692054 0.015436 -0.001839 -855422.000000 0 0 1
-15.253988 -13.379327 22.414587 30.234157 0.720020 0.735692 0.018183 -0.001619 17463.400000 0 0 1
-16.266288 -13.176727 23.352387 31.361636 0.680847 0.730836 0.020407 0.001108 -31977.100000 0 0 1
-17.592488 -13.906127 22.960887 32.094833 0.668896 0.773589 0.025878 -0.001667 -166810.000000 0 0 1
-17.474688 -15.311527 22.943787 32.653100 0.719516 0.791678 0.032188 -0.004085 -530556.000000 0 0 1
-18.695788 -15.967027 22.949587 33.632752 0.706837 0.819812 0.033692 -0.002656 -547858.000000 0 0 1
-19.519488 -15.963227 24.290527 35.012351 0.685507 0.804085 0.028532 0.001221 -245295.000000 0 0 1
-19.009088 -16.752827 25.386017 35.867151 0.722391 0.784447 0.042642 0.002098 132790.000000 0 0 1
-19.811688 -16.563527 26.519077 37.015062 0.696338 0.772110 0.035439 0.004374 -373337.000000 0 0 1
-19.437288 -17.436927 27.691397 38.061372 0.731203 0.756058 0.043386 0.003345 -223171.000000 0 0 1
-19.530488 -18.844927 27.444127 38.597297 0.767535 0.779824 0.051630 0.000791 275797.000000 0 0 1
-19.213088 -19.636327 28.597507 39.655334 0.796292 0.765333 0.042496 -0.003747 -323631.000000 0 0 1
-19.127688 -21.164527 28.266977 40.160025 0.835907 0.789981 0.047129 -0.000686 237784.000000 0 0 1
-20.394888 -21.791027 28.142177 41.021731 0.818481 0.814777 0.044735 -0.002436 250980.000000 0 0 1
-20.181888 -23.186527 28.041087 41.608006 0.854569 0.831274 0.055685 0.001174 401651.000000 0 0 1
-21.376688 -23.961727 27.429367 42.231473 0.842353 0.863869 0.050003 0.000437 644805.000000 0 0 1
-22.399188 -24.391027 28.326477 43.577920 0.827942 0.863187 0.039520 -0.000437 -606132.000000 0 0 1
-23.547588 -24.758327 27.667677 43.965487 0.810457 0.890138 0.024924 -0.003115 -484850.000000 0 0 1
-24.381988 -25.679847 28.644117 45.545816 0.811317 0.890649 0.013664 -0.005247 -65007.800000 0 0 1
-24.947288 -25.017917 29.774917 46.203994 0.786812 0.870528 0.006435 0.000624 104707.000000 0 0 1
-25.587068 -25.998567 30.573917 47.596092 0.793375 0.873220 0.006610 -0.000200 -129538.000000 0 0 1
-26.717458 -25.376487 31.434967 48.434965 0.759662 0.864509 0.006300 0.001476 96075.500000 0 0 1
-27.826928 -25.022747 30.622727 48.355219 0.732388 0.885003 -0.004134 0.001643 19556.900000 0 0 1
-28.770438 -24.362027 31.458607 49.100819 0.702618 0.875394 -0.003037 0.000481 -560362.000000 0 0 1
-29.971528 -23.830627 30.666477 49.057355 0.671751 0.895518 0.001774 -0.001580 -349047.000000 0 0 1
-30.818648 -24.963127 30.436337 49.993173 0.680809 0.916237 0.004137 -0.005638 247404.000000 0 0 1
-32.054818 -24.610727 29.794227 50.208517 0.654777 0.935508 -0.001517 -0.007610 426913.000000 0 0 1
-33.130058 -25.512057 30.440047 51.721004 0.656215 0.941541 0.002093 -0.010509 -333695.000000 0 0 1
-32.978258 -26.928967 30.209797 52.205044 0.684762 0.953692 0.010532 -0.008668 549326.000000 0 0 1
-34.027198 -27.577447 30.957917 53.635421 0.681082 0.955511 0.019843 -0.014110 653683.000000 0 0 1
-33.679758 -29.029437 31.272347 54.359856 0.711377 0.957845 0.024164 -0.019816 -222190.000000 0 0 1
-32.736858 -29.205797 32.279967 54.467208 0.728454 0.936452 0.025436 -0.010641 -509044.000000 0 0 1
-32.480498 -30.555967 32.482557 55.170340 0.754877 0.941262 0.029172 -0.012108 113213.000000 0 0 1
-31.484578 -30.739897 33.657720 55.399116 0.773431 0.917824 0.028879 -0.014158 134870.000000 0 0 1
-32.086108 -30.417817 -34.053545 55.806862 0.758714 2.227114 0.019371 -0.007839 200327.000000 0 0 1
-31.058508 -30.426227 -33.055595 54.617383 0.775115 2.220840 0.009571 -0.011620 431096.000000 0 0 1
-31.556788 -30.086157 -31.645995 53.874639 0.761545 2.198639 -0.004046 -0.012406 -89743.900000 0 0 1
-31.818598 -28.733087 -31.406815 53.145098 0.734486 2.203049 0.001130 -0.010006 506353.000000 0 0 1
-30.607108 -27.990047 -31.149795 51.870488 0.740766 2.214960 0.003361 -0.003563 404804.000000 0 0 1
-30.835188 -26.458257 -31.094555 51.163654 0.709151 2.224017 -0.009725 0.003301 -276020.000000 0 0 1
-31.470158 -26.058067 -29.891205 50.624874 0.691597 2.202406 -0.013229 -0.000577 -72349.200000 0 0 1
-31.469508 -24.649527 -29.725555 49.815035 0.664464 2.210202 -0.000071 -0.001096 102782.000000 0 0 1
-30.104368 -24.023427 -29.339625 48.417059 0.673523 2.221790 0.012577 -0.008218 -235713.000000 0 0 1
-30.181678 -22.670027 -28.932455 47.559970 0.644217 2.224759 0.011956 -0.000274 -305226.000000 0 0 1
-29.132118 -22.251427 -28.107355 46.193394 0.652282 2.224929 0.026295 -0.006178 -547817.000000 0 0 1
-28.844578 -20.740927 -28.261015 45.396924 0.623402 2.242770 0.035329 -0.010630 -181909.000000 0 0 1
-28.337038 -20.466827 -29.520015 45.752705 0.625513 2.272092 0.050258 -0.010490 59649.100000 0 0 1
-28.083368 -19.101227 -29.643635 45.080789 0.597287 2.288381 0.046653 -0.016276 13115.800000 0 0 1
-27.542108 -18.667027 -31.047655 45.508048 0.595646 2.321626 0.064328 -0.012633 409847.000000 0 0 1
-28.505028 -18.702727 -32.098545 46.825689 0.580666 2.326073 0.053631 -0.009635 614076.000000 0 0 1
-29.220328 -17.457127 -32.234865 46.879264 0.538528 2.328995 0.045405 -0.010415 -346837.000000 0 0 1
-29.615898 -16.991327 -33.642915 47.933833 0.520874 2.348804 0.050002 -0.016282 -15465.300000 0 0 1
-30.671998 -17.749727 -34.209949 49.255912 0.524607 2.338570 0.043976 -0.013275 861497.000000 0 0 1
-31.951468 -17.153827 -33.914195 49.652016 0.492708 2.322710 0.035665 -0.008241 728997.000000 0 0 1
-33.026128 -17.714927 33.984645 50.591500 0.492335 0.834233 0.036436 -0.010306 147858.000000 0 0 1
-33.425518 -19.059627 33.996518 51.344891 0.518228 0.847151 0.024387 -0.006708 -404457.000000 0 0 1
-34.188802 -19.390427 32.927035 51.274287 0.515920 0.873465 0.024536 -0.007512 -751639.000000 0 0 1
-34.732565 -20.866727 32.976214 52.241765 0.540995 0.887667 0.015853 -0.008814 99390.500000 0 0 1
-33.771628 -21.912027 32.973728 52.037741 0.575552 0.884534 0.021487 -0.010786 -287820.000000 0 0 1
-34.188102 -22.934227 33.850234 53.297687 0.590876 0.882637 0.018244 -0.002844 -1016950.000000 0 0 1
-33.111028 -24.006727 34.172802 53.295811 0.627333 0.874747 0.012463 -0.004034 17188.000000 0 0 1
-32.063378 -23.648827 -33.900485 52.312237 0.635495 2.275806 0.001863 -0.004945 -725318.000000 0 0 1
-31.212458 -22.643927 -34.366042 51.652587 0.627621 2.298733 0.008448 -0.000024 -2288990.000000 0 0 1
-29.902778 -22.643227 -33.620475 50.370906 0.648111 2.301586 0.002941 0.001721 -950201.000000 0 0 1
-29.093008 -23.757227 -33.969505 50.643225 0.684779 2.306031 -0.003479 0.002067 140722.000000 0 0 1
-27.749118 -23.735927 -33.535695 49.578731 0.707607 2.313678 0.006936 -0.000165 -28460.200000 0 0 1
-27.439058 -24.141527 -32.042115 48.604654 0.721555 2.290603 0.016922 0.001965 -885176.000000 0 0 1
-27.541368 -25.518077 -31.762015 49.178499 0.747284 2.272935 0.009189 0.002541 65965.300000 0 0 1
-27.143638 -25.769287 -30.445585 48.246936 0.759430 2.253685 0.016583 -0.000237 -401288.000000 0 0 1
-26.565538 -27.174677 -30.266785 48.582601 0.796733 2.243364 0.015326 0.007476 -27509.100000 0 0 1
-27.590618 -28.152077 -30.315465 49.727347 0.795470 2.226395 0.004935 0.010739 299862.000000 0 0 1
-27.104198 -29.387997 -29.759955 49.839210 0.825803 2.210701 0.005665 0.005155 375620.000000 0 0 1
-27.934178 -30.642547 -30.186645 51.288571 0.831602 2.200079 0.007437 0.012793 173520.000000 0 0 1
-27.640018 -30.925437 -31.554425 52.115592 0.841438 2.221153 0.010716 -0.007426 311307.000000 0 0 1
-28.013628 -32.244117 -31.800375 53.251388 0.855490 2.210770 0.026559 -0.001163 -369856.000000 0 0 1
-27.486308 -32.654227 -33.158525 54.048899 0.871118 2.231270 0.021694 -0.008939 210467.000000 0 0 1
-26.065118 -32.733017 -33.250725 53.445781 0.898319 2.242269 0.019262 -0.008710 87044.700000 0 0 1
-25.751738 -33.261137 34.379887 54.327082 0.911968 0.885592 0.042521 -0.016573 -104816.000000 0 0 1
-24.278688 -33.562077 34.040682 53.615630 0.944540 0.882914 0.045699 -0.018891 -55958.800000 0 0 1
-24.061488 -34.281890 32.844567 53.225640 0.958815 0.905768 0.043996 -0.014216 142579.000000 0 0 1
-23.006788 33.883287 32.951908 52.566317 -0.974303 0.893275 0.037824 -0.001459 -171864.000000 0 0 1
-22.877288 32.969337 31.725657 51.155301 -0.964179 0.901820 0.035925 -0.007964 -576725.000000 0 0 1
-24.083088 32.324057 31.499127 51.156962 -0.930470 0.907478 0.028901 -0.023879 -373811.000000 0 0 1
-23.946888 31.492837 30.345397 49.860760 -0.920678 0.916498 0.019034 -0.013140 814045.000000 0 0 1
-25.386498 31.006197 29.948107 50.027469 -0.884723 0.929003 0.026314 -0.009385 875259.000000 0 0 1
-26.060548 30.235017 30.919237 50.490669 -0.859415 0.911735 0.034767 -0.017501 787017.000000 0 0 1
-27.327738 29.668367 30.544137 50.596063 -0.826442 0.922680 0.027756 -0.014554 855385.000000 0 0 1
-27.671978 28.633527 31.641587 50.860665 -0.802474 0.899345 0.028234 -0.024731 -374396.000000 0 0 1
-26.854818 27.508127 31.487587 49.692519 -0.797415 0.884536 0.021505 -0.027014 -113530.000000 0 0 1
-27.453538 26.339277 31.936667 49.672980 -0.764687 0.872468 0.015287 -0.016622 71376.100000 0 0 1
-28.526728 25.747827 30.975087 49.357682 -0.734242 0.892376 0.015432 -0.013252 -220455.000000 0 0 1
-28.047418 25.241617 29.750597 48.050961 -0.732794 0.903141 0.014847 -0.005942 -437735.000000 0 0 1
-28.879338 24.313627 29.043987 47.631101 -0.699775 0.915027 0.027419 -0.002150 -437784.000000 0 0 1
-28.349588 23.834887 27.661697 46.227378 -0.699099 0.929314 0.029190 -0.007521 499420.000000 0 0 1
-27.135968 23.106987 27.866307 45.241846 -0.705379 0.907216 0.013157 -0.006297 443973.000000 0 0 1
-26.269008 23.061587 26.744167 44.013044 -0.720471 0.917708 0.006568 -0.007875 -93368.300000 0 0 1
-24.888388 22.445087 26.942487 43.001295 -0.733825 0.893677 0.002681 0.000504 -437252.000000 0 0 1
-25.021488 21.066087 27.240867 42.566650 -0.699784 0.876353 0.022473 -0.005223 1515010.000000 0 0 1
-23.759488 20.496887 27.690247 41.849557 -0.711811 0.847764 0.012030 0.003246 1118680.000000 0 0 1
-24.058388 19.193787 28.486087 41.936436 -0.673398 0.824031 0.024910 0.001340 -246374.000000 0 0 1
-22.860188 18.559687 28.831847 41.210746 -0.681942 0.795931 0.014995 0.002358 332319.000000 0 0 1
-23.232388 17.311587 29.357717 41.246945 -0.640389 0.778803 0.013343 0.001767 198800.000000 0 0 1
-22.009488 16.382587 29.581717 40.347053 -0.639870 0.747807 0.013630 -0.006386 -113355.000000 0 0 1
-21.098488 16.873587 30.547047 40.779728 -0.674591 0.724133 0.019434 -0.001147 -529594.000000 0 0 1
-19.958888 16.088287 30.404367 39.769532 -0.678432 0.700509 0.016144 -0.008907 -524122.000000 0 0 1
-18.756388 16.585087 31.239517 40.034668 -0.724038 0.675632 0.015874 -0.005317 -59982.300000 0 0 1
-18.958688 16.308387 32.630847 41.111647 -0.710390 0.653907 0.008873 0.001226 515945.000000 0 0 1
-17.937388 16.959987 33.374727 41.512208 -0.757398 0.636849 0.014021 -0.009443 -472195.000000 0 0 1
-18.078088 16.679887 -34.006365 41.969855 -0.745193 2.515387 0.004042 -0.011356 -136951.000000 0 0 1
-19.044688 17.419887 -33.317995 42.145479 -0.740869 2.482499 0.011613 -0.012452 63831.000000 0 0 1
-20.368588 16.925087 -33.524295 42.722550 -0.693325 2.473005 0.029389 -0.011319 -377241.000000 0 0 1
-21.336688 17.807787 -32.725025 42.933655 -0.695491 2.437537 0.043338 -0.017987 -428289.000000 0 0 1
-21.442988 17.330587 -31.378095 41.770035 -0.679731 2.420691 0.044887 -0.025699 62984.900000 0 0 1
-22.184788 18.230087 -30.587135 41.953232 -0.687856 2.387769 0.038771 -0.023487 -395804.000000 0 0 1
-22.054588 17.882287 -29.058565 40.627346 -0.681303 2.367773 0.050010 -0.029210 244795.000000 0 0 1
-22.735488 16.736187 -28.510155 40.122703 -0.634563 2.361110 0.038838 -0.028579 584618.000000 0 0 1
-24.164088 16.797187 -28.615095 41.047196 -0.607450 2.342178 0.042008 -0.019591 686393.000000 0 0 1
-24.921388 15.545187 -28.108995 40.655184 -0.557714 2.334221 0.037495 -0.023953 -31386.100000 0 0 1
-24.643088 14.338787 -28.798325 40.524389 -0.526973 2.361206 0.021048 -0.019893 342186.000000 0 0 1
-25.420638 13.290987 -28.194075 40.221450 -0.481754 2.347555 0.001221 -0.009465 499725.000000 0 0 1
-24.647188 11.935987 -28.315585 39.391928 -0.450988 2.372895 0.009315 -0.010294 431356.000000 0 0 1
-23.860488 11.663187 -27.167725 37.992606 -0.454654 2.367534 0.014186 -0.009398 650303.000000 0 0 1
-22.822488 10.687687 -27.440125 37.256584 -0.437965 2.398704 0.002850 -0.001621 1029060.000000 0 0 1
-21.928188 10.218787 -26.234305 35.686241 -0.436089 2.396666 0.020316 -0.002161 240392.000000 0 0 1
-22.468888 9.206787 -25.340785 35.096598 -0.388889 2.377528 0.019293 0.007000 -375351.000000 0 0 1
-21.525088 8.551587 -24.536725 33.741812 -0.378163 2.385016 0.035805 0.017901 -710223.000000 0 0 1
-22.080188 7.403287 -23.684025 33.215604 -0.323511 2.364620 0.037406 0.015385 12738.600000 0 0 1
-22.646488 6.414087 -24.527425 33.994095 -0.275998 2.376792 0.037843 -0.003473 400828.000000 0 0 1
-23.200388 5.308587 -23.764025 33.632841 -0.224942 2.355439 0.042340 0.001707 -77045.700000 0 0 1
33.882147 25.431773 -10.363725 43.614008 0.643882 1.810715 0.009493 0.000803 678170.000000 0 0 1
34.890556 24.744673 -9.570825 43.832070 0.616879 1.790922 0.018944 -0.000843 396366.000000 0 0 1
-35.411344 23.721673 -10.311225 43.852051 -0.590230 1.808155 0.029182 -0.006885 1244730.000000 0 0 1
-34.166698 22.967073 -9.583125 42.269208 -0.591828 1.799501 0.030501 -0.014653 1622880.000000 0 0 1
-34.586849 22.099573 -8.548125 41.925072 -0.568574 1.776127 0.006691 -0.012531 490438.000000 0 0 1
-33.412688 21.593673 -7.921125 40.564006 -0.573750 1.767334 -0.002855 -0.000568 481003.000000 0 0 1
-33.857238 20.669773 -6.717225 40.232737 -0.548103 1.738541 -0.005148 0.013093 41702.700000 0 0 1
-34.546249 19.509373 -7.069225 40.299291 -0.514083 1.747127 -0.001846 0.002401 132623.000000 0 0 1
-34.759528 18.670173 -5.957125 39.903477 -0.492904 1.720645 0.007235 -0.012232 666582.000000 0 0 1
35.187719 17.400573 -6.397925 39.772967 0.459244 1.732359 0.012589 -0.002887 1736450.000000 0 0 1
33.798577 17.604973 -6.749125 38.701803 0.480211 1.746080 0.014371 -0.004116 1009270.000000 0 0 1
33.347797 16.431173 -7.367925 37.899146 0.457808 1.766451 0.026627 0.001250 243420.000000 0 0 1
32.426407 16.731373 -8.598425 37.487913 0.476350 1.802222 0.008703 -0.002721 180258.000000 0 0 1
32.051147 15.635973 -9.428025 36.886953 0.453876 1.829257 0.017339 -0.011579 188102.000000 0 0 1
31.362577 16.117273 -10.600625 36.820523 0.474707 1.862829 0.031321 -0.003317 -219015.000000 0 0 1
30.525507 14.967573 -11.283025 35.820964 0.455882 1.891236 0.022639 0.004315 191819.000000 0 0 1
29.253407 14.732373 -10.704925 34.458671 0.466533 1.886683 0.011637 0.005880 146643.000000 0 0 1
29.287227 14.139573 -9.437425 33.863463 0.449785 1.853227 0.014753 0.000118 -881992.000000 0 0 1
28.169307 13.107873 -9.218225 32.408361 0.435525 1.859218 0.013368 0.005658 30540.300000 0 0 1
28.468137 11.917373 -9.958825 32.428950 0.396456 1.882937 0.015885 -0.000828 294150.000000 0 0 1
27.495037 10.929273 -9.727425 31.145607 0.378349 1.888432 0.021410 -0.000645 -393901.000000 0 0 1
27.909447 9.524773 -10.317725 31.242822 0.328880 1.907357 0.040918 -0.005482 -758678.000000 0 0 1
29.029237 8.964473 -9.728925 31.901573 0.299518 1.880700 0.039645 -0.005433 -190087.000000 0 0 1
29.056647 7.576473 -9.864925 31.607094 0.255069 1.888211 0.043209 0.001078 -660704.000000 0 0 1
29.989887 6.896273 -8.847825 32.019305 0.226024 1.850767 0.064014 -0.003206 1051850.000000 0 0 1
31.370527 7.227073 -9.147825 33.466748 0.226427 1.847661 0.064345 -0.005667 783731.000000 0 0 1
32.245237 6.825273 -8.142825 33.950629 0.208589 1.813001 0.059320 -0.008692 410186.000000 0 0 1
33.759197 7.005973 -8.476825 35.505261 0.204623 1.811873 0.049688 -0.014424 547133.000000 0 0 1
34.203327 6.209473 -9.539425 36.047548 0.179590 1.838621 0.052657 -0.011858 900208.000000 0 0 1
-35.235753 6.328573 -9.810225 37.119397 -0.177712 1.838262 0.036659 -0.011977 58803.500000 0 0 1
-34.855934 5.530973 -11.098625 36.996044 -0.157369 1.875484 0.040532 -0.014929 -201404.000000 0 0 1
-33.477968 5.593273 -11.398425 35.804792 -0.165544 1.894784 0.034262 -0.011469 380651.000000 0 0 1
-33.008478 6.783873 -12.034425 35.782788 -0.202697 1.913802 0.018108 -0.007706 -543905.000000 0 0 1
-32.258478 7.808573 -11.185425 35.024233 -0.237494 1.895853 0.020427 -0.000701 -1049700.000000 0 0 1
-33.072898 8.541373 -10.328125 35.685316 -0.252737 1.864420 0.019709 -0.000224 -213300.000000 0 0 1
-33.482418 9.732673 -10.934225 36.542502 -0.282885 1.874671 0.025104 -0.000248 151714.000000 0 0 1
-34.433271 10.539973 -9.992425 37.370974 -0.297042 1.841474 0.018131 0.005375 615634.000000 0 0 1
-33.725348 11.205373 -8.936125 36.644424 -0.320779 1.817141 0.022046 0.000984 -94413.600000 0 0 1
-34.582053 12.018973 -8.187425 37.515437 -0.334490 1.790808 0.024297 -0.001991 -145616.000000 0 0 1
-33.866808 13.062973 -7.245025 37.014758 -0.368132 1.767802 0.017379 0.001313 129512.000000 0 0 1
-33.076068 13.933873 -8.012925 36.774802 -0.398705 1.790450 0.015777 -0.002722 -344074.000000 0 0 1
-32.513328 14.930773 -7.187625 36.492553 -0.430495 1.769054 0.014044 -0.006078 96963.200000 0 0 1
-31.501038 15.880773 -7.878325 36.146678 -0.466950 1.790514 0.008691 -0.005319 85187.400000 0 0 1
-32.052278 16.888773 -8.678825 37.254545 -0.484946 1.805917 0.008647 -0.004328 -313526.000000 0 0 1
-31.089818 17.878773 -8.815225 36.931497 -0.521886 1.811814 0.010713 -0.005448 -73873.500000 0 0 1
-31.624528 18.934473 -9.743125 38.125497 -0.539483 1.829217 -0.002667 -0.013382 77643.000000 0 0 1
-31.328578 18.702673 -11.139425 38.149135 -0.538199 1.867110 -0.001160 -0.010123 -70300.000000 0 0 1
-32.355388 19.112773 -12.029325 39.457241 -0.533563 1.880598 -0.004561 -0.015101 -160810.000000 0 0 1
-31.918488 19.268573 -13.507225 39.654922 -0.543121 1.918372 -0.002649 -0.003712 293082.000000 0 0 1
-31.117448 20.454273 -13.785125 39.707713 -0.581507 1.925343 -0.005011 -0.011994 519399.000000 0 0 1
-30.979578 20.837373 -15.117625 40.279932 -0.592110 1.955532 -0.012428 -0.007431 -178784.000000 0 0 1
-30.146058 22.139173 -15.361625 40.433987 -0.633440 1.960505 0.001837 -0.025221 -599802.000000 0 0 1
-28.811738 21.999773 -14.934725 39.206533 -0.652129 1.961592 0.003551 -0.020569 306023.000000 0 0 1
-28.029878 23.184873 -15.063025 39.371399 -0.691077 1.963392 0.022103 -0.017957 -26510.500000 0 0 1
-27.568748 23.540073 -16.472925 39.818691 -0.706735 1.997309 -0.019016 -0.012374 -562797.000000 0 0 1
-28.558378 24.181173 -17.314825 41.232429 -0.702591 2.004167 0.003648 -0.006111 746402.000000 0 0 1
-27.976138 24.805973 -18.458425 41.697890 -0.725409 2.029371 -0.009304 -0.003982 -112369.000000 0 0 1
-27.274628 26.201373 -18.237325 41.988299 -0.765331 2.020105 -0.006807 -0.001742 240665.000000 0 0 1
-28.036468 27.290773 -17.782625 42.977338 -0.771921 1.997385 -0.004514 0.003102 307531.000000 0 0 1
-27.205348 28.465573 -17.825725 43.222404 -0.808031 1.995904 -0.002453 0.007391 767734.000000 0 0 1
-28.031208 29.732573 -17.430425 44.425153 -0.814843 1.973987 -0.000821 0.012679 161198.000000 0 0 1
-28.508588 29.807473 -16.082625 44.270485 -0.807668 1.942583 -0.007861 0.005817 63657.900000 0 0 1
-27.497458 29.792573 -15.095125 43.261650 -0.825438 1.927221 -0.005397 0.008489 -407031.000000 0 0 1
-27.702898 30.656273 -13.796325 43.561407 -0.835962 1.893055 -0.001342 -0.001905 -465015.000000 0 0 1
-27.488668 32.068073 -13.884625 44.460892 -0.862139 1.888397 0.008879 0.000189 75684.700000 0 0 1
-27.834718 32.728673 -12.699625 44.801987 -0.866030 1.858198 0.003341 -0.007868 110848.000000 0 0 1
-26.993868 34.019673 -12.554325 45.206394 -0.900045 1.852207 -0.004285 -0.007411 -8226.090000 0 0 1
-27.369668 -34.171042 -13.592425 45.842260 0.895470 1.871827 -0.011072 -0.013913 206415.000000 0 0 1
-26.521908 -33.026842 -13.670725 44.509241 0.894204 1.882986 0.009993 -0.013913 132003.000000 0 0 1
-26.720948 -32.238942 -14.974425 44.470123 0.878715 1.914238 0.010948 -0.014736 -15099.300000 0 0 1
-26.405108 -32.966942 -16.163425 45.225051 0.895472 1.936279 0.006858 -0.018408 18196.400000 0 0 1
-26.694258 -32.199842 -17.379125 45.292904 0.878610 1.964602 0.014727 -0.009859 154367.000000 0 0 1
-25.885488 -32.706642 -18.620725 45.678379 0.901294 1.990674 0.005137 -0.004086 80425.900000 0 0 1
-26.347998 -33.951642 -19.141025 47.045826 0.910834 1.989809 0.006346 -0.000290 91823.800000 0 0 1
-25.562448 34.024173 -18.755325 46.506400 -0.926462 1.985900 -0.004394 -0.004023 -179460.000000 0 0 1
-25.765568 32.745973 -19.688625 46.084761 -0.904137 2.012219 0.001109 0.001125 916088.000000 0 0 1
-27.042608 32.087273 -19.701525 46.357802 -0.870507 2.009745 0.013441 0.004479 1598750.000000 0 0 1
-28.103608 32.783373 -20.447425 47.777186 -0.862107 2.013047 0.011643 0.000302 1748990.000000 0 0 1
-29.549888 32.229073 -20.149925 48.144870 -0.828738 2.002619 0.009890 0.002060 796592.000000 0 0 1
-29.804668 30.994373 -20.778625 47.756891 -0.804963 2.020936 0.006899 0.004807 801854.000000 0 0 1
-31.164938 30.587573 -20.588625 48.277784 -0.776049 2.011374 0.011544 0.005554 467422.000000 0 0 1
-31.515718 29.229173 -21.170125 47.914081 -0.747774 2.028440 0.011938 0.002541 975103.000000 0 0 1
-32.919658 28.895873 -21.350725 48.729137 -0.720396 2.024337 0.016828 0.000197 1399140.000000 0 0 1
-33.036028 27.696173 -22.050725 48.422015 -0.697699 2.043602 0.008056 0.003892 382345.000000 0 0 1
-34.501902 27.228273 -22.334225 49.300889 -0.668110 2.040945 0.001044 0.005014 699166.000000 0 0 1
-35.106630 27.882273 -23.444125 50.591735 -0.671205 2.052623 -0.001187 0.006471 -464748.000000 0 0 1
34.628307 27.141873 -23.880025 50.060528 0.664788 2.068061 0.007616 0.006840 -145807.000000 0 0 1
33.915097 27.814473 -25.087535 50.529824 0.686890 2.090346 0.012000 0.000782 303314.000000 0 0 1
34.648417 27.704973 -26.346125 51.596478 0.674499 2.106700 0.009822 -0.001828 217865.000000 0 0 1
33.882767 28.176673 -27.461075 51.923765 0.693710 2.128068 0.022418 0.002586 -22070.300000 0 0 1
34.692257 28.362973 -28.738775 53.234651 0.685356 2.141056 0.016767 0.002862 -222676.000000 0 0 1
35.050552 27.124073 -29.345515 53.154640 0.658595 2.155651 0.014307 0.002775 -429252.000000 0 0 1
-35.053015 27.474873 -30.461085 53.957949 -0.664790 2.170665 -0.012548 0.010853 -1248260.000000 0 0 1
-34.616230 26.213073 -31.258625 53.502431 -0.648124 2.194748 -0.016454 0.011227 325265.000000 0 0 1
-33.683758 25.373273 -30.616035 52.112763 -0.645596 2.198757 -0.008896 0.007322 -97559.500000 0 0 1
-32.375748 25.921273 -30.515485 51.490739 -0.675130 2.205129 -0.021682 0.013382 -551293.000000 0 0 1
-31.653308 25.211973 -29.364875 49.998713 -0.672605 2.198531 -0.031996 0.010054 -623413.000000 0 0 1
-31.357478 23.879373 -29.656715 49.325821 -0.650834 2.215850 -0.019172 0.009402 145053.000000 0 0 1
-31.922448 23.111273 -28.615345 48.703301 -0.626641 2.198817 -0.024179 0.003123 53051.700000 0 0 1
-31.681148 21.626373 -29.012055 48.094640 -0.598970 2.218339 -0.024683 -0.004744 88099.900000 0 0 1
-30.328988 21.253773 -29.215845 47.171347 -0.611245 2.238718 0.038564 -0.003096 170350.000000 0 0 1
-30.269938 20.027773 -29.942865 47.052693 -0.584514 2.260578 0.022343 -0.007743 179459.000000 0 0 1
-28.909428 19.263973 -29.965555 45.877992 -0.587788 2.282543 0.036671 -0.014939 -75412.100000 0 0 1
-27.926638 19.985173 -30.679145 46.049041 -0.621140 2.299935 0.048872 -0.010947 13393.200000 0 0 1
-26.676588 19.353373 -30.861405 45.151076 -0.627624 2.323363 0.051096 -0.023874 210485.000000 0 0 1
-26.540238 18.032573 -31.658905 45.075982 -0.596796 2.349483 0.042318 -0.018462 -502224.000000 0 0 1
-27.044278 16.899773 -30.946275 44.437228 -0.558522 2.341171 0.017176 -0.012964 127812.000000 0 0 1
-26.861508 15.721273 -31.706525 44.429751 -0.529519 2.365467 0.000178 -0.002913 -39209.700000 0 0 1
-27.280278 14.376773 -31.028355 43.745445 -0.485015 2.359292 0.005945 -0.001437 398874.000000 0 0 1
-28.695438 14.323873 -30.817855 44.478553 -0.462983 2.336258 0.010494 -0.004606 663452.000000 0 0 1
-29.180428 12.981873 -30.754905 44.338364 -0.418590 2.337328 0.006913 -0.001595 -105138.000000 0 0 1
-28.955828 12.169873 -29.426825 43.040490 -0.397875 2.323618 -0.003079 -0.019432 -288425.000000 0 0 1
-29.476838 12.710573 -28.203635 42.730406 -0.407115 2.291664 -0.004160 -0.014967 192240.000000 0 0 1
-29.486088 11.725473 -27.175085 41.778000 -0.378489 2.278991 -0.001034 -0.012700 -5607.380000 0 0 1
-29.291718 12.295073 -25.800885 40.925044 -0.397412 2.252919 -0.004882 -0.014374 -152981.000000 0 0 1
-27.972888 12.723173 -25.602795 39.998308 -0.426871 2.265421 0.003309 -0.021473 -248166.000000 0 0 1
-28.072968 13.561473 -24.460225 39.627108 -0.450020 2.236051 0.007355 -0.019793 -458056.000000 0 0 1
-26.705368 13.917073 -23.920125 38.458210 -0.480411 2.242061 0.013800 -0.013771 -1432070.000000 0 0 1
-25.911268 14.693173 -24.768925 38.739937 -0.515845 2.264467 0.022676 -0.017856 41742.200000 0 0 1
-24.546288 14.788073 -24.417525 37.648677 -0.542224 2.276491 0.032314 -0.023888 179783.000000 0 0 1
-24.196388 15.466673 -23.065125 36.833180 -0.568755 2.247473 0.037673 -0.018566 -1163760.000000 0 0 1
-24.422188 16.844073 -23.086025 37.591629 -0.603782 2.232075 0.049546 -0.015946 103123.000000 0 0 1
-24.528588 17.465373 -21.781825 37.163675 -0.618762 2.197040 0.048962 -0.012295 1347870.000000 0 0 1
-26.011648 17.596673 -21.199925 37.890441 -0.594774 2.164586 0.035066 -0.006604 1479620.000000 0 0 1
-26.686108 16.379773 -20.988325 37.695558 -0.550500 2.161307 0.036048 -0.007065 1492350.000000 0 0 1
-28.029078 16.485073 -20.446525 38.411550 -0.531655 2.132113 0.030374 0.001227 1376710.000000 0 0 1
-29.060528 15.308273 -20.654225 38.800187 -0.484835 2.132138 -0.010940 -0.007700 490396.000000 0 0 1
-29.527218 15.212173 -22.009725 39.845888 -0.475727 2.156003 -0.007626 0.000013 752658.000000 0 0 1
-30.646598 16.052073 -22.330225 41.176716 -0.482490 2.143971 -0.023105 0.001144 59476.500000 0 0 1
-31.062388 16.134873 -23.773625 42.313016 -0.479074 2.167418 -0.021320 0.004738 -1156420.000000 0 0 1
-31.901658 15.163173 -24.203225 42.818614 -0.443701 2.171533 -0.011584 0.004177 -720450.000000 0 0 1
-32.259128 15.503673 -25.517745 43.956461 -0.448006 2.190167 -0.002580 -0.007040 -801228.000000 0 0 1
-33.584048 14.894273 -25.932265 44.968989 -0.417429 2.185443 -0.007230 -0.004949 -721430.000000 0 0 1
-33.611768 13.438473 -26.062095 44.604666 -0.380346 2.194802 -0.000775 -0.009370 -56137.700000 0 0 1
-33.471598 12.649473 -24.887025 43.585789 -0.361325 2.178507 -0.007953 -0.008787 -333318.000000 0 0 1
-33.552528 11.149473 -25.240335 43.441424 -0.320819 2.190778 -0.004479 -0.011192 -43917.000000 0 0 1
-34.844850 10.720573 -25.581425 44.536541 -0.298475 2.182657 -0.001741 -0.006448 -178976.000000 0 0 1
-34.680751 9.657773 -26.508015 44.706844 -0.271595 2.205489 0.002034 0.002036 923071.000000 0 0 1
34.787548 8.992173 -26.899485 44.884462 0.252952 2.213429 0.006288 0.010284 994191.000000 0 0 1
34.147487 8.287973 -25.836535 43.614996 0.238107 2.204803 -0.010096 0.017233 -164373.000000 0 0 1
33.096747 7.492073 -26.333525 42.953234 0.222617 2.230742 -0.010313 0.019249 -295610.000000 0 0 1
32.445377 6.682573 -25.211065 41.628801 0.203123 2.221336 -0.017500 0.020081 -230094.000000 0 0 1
33.229127 5.724573 -24.540325 41.703395 0.170601 2.199936 -0.021680 0.014554 -527562.000000 0 0 1
32.443377 4.946573 -23.686925 40.473592 0.151303 2.195977 -0.015602 0.019718 -261727.000000 0 0 1
33.163707 3.846373 -22.912825 40.492266 0.115465 2.172268 -0.023591 0.019582 -43409.100000 0 0 1
33.668837 2.777373 -23.734825 41.287362 0.082305 2.183240 -0.026487 0.014257 -324963.000000 0 0 1
34.822161 2.244773 -23.163525 41.882822 0.064375 2.156824 -0.003654 0.012614 -328150.000000 0 0 1
35.417630 1.025073 -23.857225 42.715646 0.028934 2.163388 0.016018 0.009074 -197572.000000 0 0 1
34.802560 -0.218627 -23.585025 42.041876 -0.006282 2.166376 -0.004920 0.010633 -56264.500000 0 0 1
-35.181354 -1.341227 -23.789425 42.490743 0.038105 2.165029 0.010807 -0.002511 221769.000000 0 0 1
-22.308188 29.427873 27.692847 46.157867 -0.922155 0.927346 0.014211 -0.004215 -286572.000000 0 0 1
-23.370488 29.949373 26.864437 46.527869 -0.908163 0.955276 0.005558 -0.008410 1091900.000000 0 0 1
-23.698088 29.178773 25.711707 45.542200 -0.888679 0.970886 -0.006280 0.007980 -125872.000000 0 0 1
-24.237288 27.722173 25.934347 45.039486 -0.852367 0.957197 -0.008831 0.003348 -542641.000000 0 0 1
-25.502058 27.569173 26.536897 45.985010 -0.824328 0.955651 -0.005532 0.010263 107500.000000 0 0 1
-25.696568 27.626373 27.952277 46.955935 -0.821573 0.933173 -0.000588 0.006944 -610206.000000 0 0 1
-25.142418 26.360973 28.735277 46.397825 -0.809053 0.902915 0.006717 0.008901 -224077.000000 0 0 1
-23.786188 26.424173 29.071607 45.925788 -0.837889 0.885358 0.018563 0.007238 -574471.000000 0 0 1
-23.591388 26.904873 30.348787 46.919875 -0.850923 0.867387 0.019420 -0.003229 710334.000000 0 0 1
-22.174988 26.669673 30.995837 46.516056 -0.877160 0.841497 0.028827 -0.001299 335823.000000 0 0 1
-21.081788 27.232173 30.314767 45.880476 -0.912017 0.849001 0.026070 -0.001774 306883.000000 0 0 1
-19.842888 26.804073 30.882887 45.452736 -0.933536 0.823783 0.038148 0.004517 650523.000000 0 0 1
-19.223688 25.430273 30.466167 44.095763 -0.923506 0.808050 0.034030 0.006557 -424339.000000 0 0 1
-18.880588 25.524073 29.114027 43.076461 -0.933909 0.828654 0.027401 0.002260 -129231.000000 0 0 1
-19.734088 24.823673 28.223287 42.452360 -0.899130 0.843540 0.026047 -0.005227 -55491.600000 0 0 1
-19.493288 23.360673 28.004977 41.352002 -0.875400 0.826800 0.036603 0.013006 86491.000000 0 0 1
-20.024788 22.549973 29.064707 41.883775 -0.844641 0.803854 0.016670 0.006524 227447.000000 0 0 1
-19.865588 21.123373 28.855307 40.908033 -0.816074 0.787851 0.012951 0.010806 149115.000000 0 0 1
-20.303388 20.310173 30.108847 41.608573 -0.785565 0.761762 0.005331 0.002413 709279.000000 0 0 1
-19.325488 20.508573 31.162817 42.014250 -0.815090 0.735165 0.011782 0.001539 763236.000000 0 0 1
-19.791088 20.007973 32.426587 42.935879 -0.790848 0.714787 0.007738 -0.003666 145346.000000 0 0 1
-19.058288 20.655973 33.656351 43.847891 -0.825606 0.695754 0.019106 -0.007204 -394267.000000 0 0 1
-19.148488 22.047073 33.875537 44.724602 -0.855644 0.711436 0.011589 -0.009060 136473.000000 0 0 1
-18.285888 22.874673 33.077810 44.178794 -0.896425 0.724658 0.023708 -0.004858 -141128.000000 0 0 1
-16.809088 22.910573 33.499835 43.928109 -0.937820 0.703464 0.024755 0.005958 -335981.000000 0 0 1
-16.133188 21.684373 33.552982 43.084735 -0.931146 0.678098 0.030112 -0.004995 -949006.000000 0 0 1
-14.837188 21.874373 34.036955 43.094601 -0.974789 0.660282 0.026775 -0.001447 -961852.000000 0 0 1
-14.023988 20.580073 33.756785 41.949162 -0.972639 0.635615 0.025517 -0.001958 877229.000000 0 0 1
-12.660588 20.529773 34.228325 41.872906 -1.018192 0.613855 0.010069 -0.003268 1054680.000000 0 0 1
-12.576988 20.444373 -33.251815 41.010196 -1.019289 2.516345 0.015708 -0.005831 -404077.000000 0 0 1
-11.141488 20.185173 -32.733675 40.038324 -1.066447 2.527955 0.010761 -0.005716 234757.000000 0 0 1
-10.326088 21.294873 -32.973455 40.587540 -1.119294 2.519058 0.006771 -0.001939 -1027170.000000 0 0 1
-8.997588 21.126973 -32.604955 39.879677 -1.168179 2.527998 -0.002385 -0.001473 -238485.000000 0 0 1
-8.079288 22.387873 -32.770055 40.501460 -1.224464 2.513429 -0.001498 -0.005227 257837.000000 0 0 1
-8.188288 23.424173 -31.815285 40.347891 -1.234508 2.479202 0.004781 -0.000526 71664.000000 0 0 1
-7.691288 23.120973 -30.502855 39.040485 -1.249657 2.467564 0.006633 -0.005146 -24817.000000 0 0 1
-7.446088 24.387773 -29.617845 39.082278 -1.274465 2.430782 0.007549 -0.005973 152768.000000 0 0 1
-6.283188 25.111473 -29.979705 39.608676 -1.325618 2.429349 0.004658 -0.002705 226412.000000 0 0 1
-6.096588 26.280873 -29.209145 39.762128 -1.342850 2.395869 0.013106 0.002062 -220739.000000 0 0 1
-4.859188 27.093773 -29.665855 40.469089 -1.393336 2.393591 0.016199 -0.003856 674904.000000 0 0 1
-3.671088 26.404473 -29.152825 39.503927 -1.432649 2.400858 0.020097 -0.002931 604584.000000 0 0 1
-2.449188 26.671473 -29.765965 40.042211 -1.479225 2.408883 0.025445 -0.002816 -96365.100000 0 0 1
-1.854588 28.048773 -29.383895 40.664314 -1.504772 2.378348 0.029507 -0.015632 -798138.000000 0 0 1
-1.380988 28.156073 -28.066095 39.779106 -1.521788 2.353993 0.037608 -0.026719 171184.000000 0 0 1
-0.712288 29.350773 -27.763125 40.407503 -1.546533 2.328257 0.038510 -0.019971 -885251.000000 0 0 1
-0.210188 29.377573 -26.322855 39.445895 -1.563642 2.301395 0.036287 -0.028121 790640.000000 0 0 1
0.972812 28.618173 -25.999905 38.677399 1.536817 2.308006 0.056848 -0.032078 2161440.000000 0 0 1
2.214512 29.082873 -26.643305 39.504218 1.494798 2.311005 0.053784 -0.030560 756997.000000 0 0 1
3.419912 29.091473 -25.690005 38.961339 1.453776 2.290779 0.054115 -0.033037 -210794.000000 0 0 1
3.811512 27.780573 -25.348865 37.800169 1.434447 2.305816 0.062454 -0.029634 233572.000000 0 0 1
4.839012 27.734773 -24.371225 37.236948 1.398061 2.284305 0.050524 -0.021320 207889.000000 0 0 1
5.514812 26.359373 -24.056625 36.110260 1.364555 2.299897 0.052120 -0.019953 -24843.100000 0 0 1
6.444512 26.608973 -23.016925 35.767974 1.333179 2.269867 0.047185 -0.020082 -245068.000000 0 0 1
7.307512 25.514773 -22.891425 35.048833 1.291860 2.282506 0.037956 -0.007260 534232.000000 0 0 1
8.786412 25.755473 -22.457725 35.283067 1.242030 2.260750 0.034294 0.003995 -10230.900000 0 0 1
8.945512 26.063573 -21.073925 34.690666 1.240175 2.223682 0.041995 0.001390 500197.000000 0 0 1
10.302412 26.417573 -20.804525 35.168965 1.198955 2.203788 0.050119 0.002412 512157.000000 0 0 1
11.305612 25.286773 -20.555925 34.493243 1.150360 2.209233 0.034457 0.008689 -558355.000000 0 0 1
11.505912 24.440573 -21.635425 34.609525 1.130804 2.246093 0.031160 0.007398 -98228.600000 0 0 1
11.941712 23.190973 -21.165225 33.591553 1.095277 2.252447 0.027039 0.005901 -371642.000000 0 0 1
12.040312 22.154173 -22.336325 33.685129 1.072974 2.295738 0.027601 0.004086 -28886.800000 0 0 1
10.804512 21.586373 -22.725925 33.153833 1.106729 2.326044 0.022061 0.004824 254826.000000 0 0 1
10.985812 20.847273 -23.864125 33.537938 1.085809 2.362507 0.024254 -0.003522 1125420.000000 0 0 1
9.860012 21.171473 -24.960825 34.183240 1.134946 2.389421 0.042954 0.001054 947855.000000 0 0 1
8.501312 20.903573 -24.722925 33.473193 1.184534 2.401771 0.026296 -0.000132 -7187.820000 0 0 1
7.779912 20.801273 -25.968915 34.170229 1.212893 2.434089 0.026753 0.000223 -217510.000000 0 0 1
6.327312 20.331673 -25.694315 33.370790 1.269092 2.449581 0.014134 -0.008458 -414847.000000 0 0 1
5.507512 21.389773 -25.324165 33.603101 1.318787 2.424357 0.034940 -0.004799 -344837.000000 0 0 1
5.645712 21.906773 -24.026025 33.000464 1.318569 2.386271 0.033615 -0.003962 -876305.000000 0 0 1
4.302012 22.448673 -23.500425 32.782925 1.381454 2.370070 0.046693 -0.014072 63834.900000 0 0 1
3.870912 23.667873 -24.079525 33.984933 1.408680 2.358217 0.042250 -0.018188 1365340.000000 0 0 1
2.431512 23.805773 -23.890825 33.814177 1.469010 2.355383 0.055620 -0.022634 1286990.000000 0 0 1
1.939512 24.935273 -24.832525 35.244628 1.493171 2.352622 0.043126 -0.014574 -546563.000000 0 0 1
0.538412 24.866473 -24.865225 35.169742 1.549148 2.356052 0.053488 -0.037767 -170892.000000 0 0 1
-0.014388 25.623473 -25.982365 36.491723 -1.570235 2.363149 0.045594 -0.025239 -457175.000000 0 0 1
-1.486688 25.357173 -26.201445 36.492632 -1.512233 2.371711 0.058419 -0.026560 -784011.000000 0 0 1
-1.578588 24.025673 -26.581935 35.865361 -1.505186 2.405591 0.074594 -0.037672 -512957.000000 0 0 1
-2.858688 23.739873 -27.081365 36.126915 -1.450956 2.418280 0.070459 -0.025171 -235508.000000 0 0 1
-3.178288 22.252873 -27.275215 35.344437 -1.428930 2.452302 0.055185 -0.020500 -251345.000000 0 0 1
-2.562688 21.694473 -28.458905 35.876549 -1.453215 2.486917 0.061542 -0.016913 144551.000000 0 0 1
-3.219988 20.528773 -28.925565 35.615827 -1.415212 2.518632 0.042818 -0.021230 -140802.000000 0 0 1
-4.416588 20.767173 -29.896795 36.668789 -1.361247 2.524078 0.021060 -0.014220 -166234.000000 0 0 1
-4.214688 21.265973 -31.200105 37.992785 -1.375142 2.534327 0.017695 -0.008441 -102092.000000 0 0 1
-3.696088 22.587373 -31.322565 38.793731 -1.408599 2.510550 0.024555 -0.011825 -39807.600000 0 0 1
-3.315988 22.941373 -32.793385 40.158541 -1.427249 2.526289 0.011619 -0.001619 259573.000000 0 0 1
-2.336688 22.026873 -33.295515 39.990431 -1.465108 2.554558 0.016344 -0.001941 312368.000000 0 0 1
-2.209188 22.138173 34.217808 40.814674 -1.471335 0.576510 0.014335 0.011023 86224.500000 0 0 1
-1.113488 21.210573 33.612463 39.760859 -1.518348 0.563547 0.023630 0.017225 189602.000000 0 0 1
-1.459488 19.881973 33.336947 38.842953 -1.497520 0.538947 0.008534 0.027419 589456.000000 0 0 1
-0.291488 19.146773 32.945923 38.106662 -1.555574 0.526500 0.016302 0.026540 649313.000000 0 0 1
-0.688788 17.690573 32.546287 37.049853 -1.531881 0.498196 0.003123 0.032338 128405.000000 0 0 1
-1.409888 17.820473 31.341837 36.081405 -1.491845 0.518341 -0.004228 0.027093 73933.400000 0 0 1
-1.765588 16.599873 30.698297 34.943648 -1.464833 0.498065 -0.008981 0.017232 -84373.000000 0 0 1
-2.748588 16.665273 29.495437 33.989217 -1.407339 0.520063 0.006309 0.021236 636449.000000 0 0 1
-4.064388 17.111473 29.838717 34.636264 -1.337594 0.532604 -0.006917 0.012154 585691.000000 0 0 1
-4.366088 18.490473 29.625287 35.194004 -1.338917 0.570241 -0.005661 0.012609 -1124830.000000 0 0 1
-5.854788 18.755173 29.623837 35.547247 -1.268213 0.585628 -0.015925 -0.000710 -892571.000000 0 0 1
-6.388688 18.062673 28.547797 34.380986 -1.230833 0.591085 -0.022080 0.001556 -1110490.000000 0 0 1
-7.772788 18.036673 28.638757 34.726304 -1.163902 0.601126 0.001196 0.008492 -897049.000000 0 0 1
-8.607988 17.097873 27.715357 33.683464 -1.104390 0.604445 -0.000229 -0.000347 9191.890000 0 0 1
-9.011588 15.842173 28.229767 33.602126 -1.053607 0.573295 -0.003701 -0.013207 239202.000000 0 0 1
-9.923488 15.866373 29.331317 34.792866 -1.011880 0.567910 0.001239 -0.011340 -320802.000000 0 0 1
-10.598088 14.451373 29.590147 34.593908 -0.938029 0.544556 0.007220 -0.015030 364263.000000 0 0 1
-9.711888 13.304173 29.746037 34.002184 -0.940226 0.505717 0.013904 -0.009436 769470.000000 0 0 1
-8.760888 13.327573 30.816437 34.699137 -0.989271 0.477593 0.008007 -0.006161 38862.100000 0 0 1
-9.299288 13.188373 32.270427 36.080332 -0.956647 0.463697 0.026114 -0.012501 -536334.000000 0 0 1
-9.523888 11.826873 32.445927 35.823422 -0.892847 0.437725 0.014988 -0.005802 238689.000000 0 0 1
-9.970888 11.650173 33.792049 37.108593 -0.862911 0.426000 0.014331 0.003505 -357133.000000 0 0 1
-10.316688 10.195473 34.183512 37.133465 -0.779489 0.401289 0.013277 0.002451 -936156.000000 0 0 1
-9.190988 9.394173 34.257371 36.691855 -0.796330 0.366323 0.018383 -0.000835 -515942.000000 0 0 1
-9.214688 8.517673 -33.505155 35.777879 -0.746111 2.783243 0.033642 -0.000010 -245892.000000 0 0 1
-8.656388 9.256973 -32.235265 34.637218 -0.818913 2.766992 0.021430 0.000680 -587100.000000 0 0 1
-9.417488 10.244673 -31.590605 34.519686 -0.827443 2.726670 0.015102 0.003696 -206849.000000 0 0 1
-8.677988 11.063573 -30.666405 33.736308 -0.905656 2.711682 0.015252 0.002874 -83200.800000 0 0 1
-7.632688 12.018773 -31.266335 34.355386 -1.004993 2.714286 0.014703 0.003137 -34365.700000 0 0 1
-8.237288 13.104673 -31.887485 35.445691 -1.009629 2.689684 0.016311 -0.001907 596278.000000 0 0 1
-7.237988 13.863973 -32.602965 36.160082 -1.089648 2.694317 0.008444 -0.000722 554355.000000 0 0 1
-7.639488 15.329873 -32.935755 37.123183 -1.108478 2.662041 0.008263 -0.001115 -95602.900000 0 0 1
-8.533388 15.507273 -34.010065 38.340302 -1.067736 2.661729 0.021066 -0.006426 -29258.200000 0 0 1
-8.640588 16.883973 -34.412570 39.293171 -1.097783 2.637867 0.020594 -0.007310 -1234100.000000 0 0 1
-8.910788 17.048673 32.984223 38.184006 -1.089180 0.527987 0.025462 -0.015629 296067.000000 0 0 1
-10.125488 16.507273 32.517327 37.846956 -1.020585 0.537132 0.010472 -0.016186 70846.400000 0 0 1
-11.328088 16.981373 33.084279 38.874955 -0.982501 0.552827 0.008567 -0.010648 -564802.000000 0 0 1
-12.559388 16.294573 32.397497 38.377717 -0.914134 0.565773 0.017786 -0.018652 94953.500000 0 0 1
-12.731288 14.908373 32.475827 37.934478 -0.864003 0.543115 0.004519 -0.021379 589902.000000 0 0 1
-14.028488 14.522373 32.921570 38.620300 -0.802695 0.550158 -0.000324 -0.012696 195958.000000 0 0 1
-14.047488 12.966873 33.090880 38.216201 -0.745418 0.523877 -0.009067 -0.003688 -400097.000000 0 0 1
-14.010688 12.297073 31.825427 36.883264 -0.720353 0.529877 -0.021853 -0.010230 -286333.000000 0 0 1
-12.724088 11.804373 31.618697 36.069206 -0.747920 0.502021 -0.018699 -0.005314 -1089920.000000 0 0 1
-12.643788 11.224273 30.146847 34.564173 -0.725995 0.511116 -0.004829 -0.005928 67848.800000 0 0 1
-13.615088 10.209673 29.965677 34.460845 -0.643424 0.516491 -0.013820 -0.000912 284791.000000 0 0 1
-13.518588 9.771873 28.624257 33.129893 -0.625896 0.527634 -0.029677 0.002373 -185918.000000 0 0 1
-14.347888 8.540473 28.303497 32.861672 -0.536914 0.532989 -0.018098 0.011214 -126337.000000 0 0 1
-13.920088 7.363373 28.970307 32.973729 -0.486558 0.497900 -0.032623 0.015788 300841.000000 0 0 1
-14.736788 6.226673 28.636577 32.802407 -0.399773 0.509472 -0.014782 0.022839 293988.000000 0 0 1
-13.947188 4.895573 28.503327 32.108104 -0.337572 0.478406 -0.013752 0.022459 466362.000000 0 0 1
-13.065788 4.857173 27.347237 30.694923 -0.355916 0.471392 -0.012748 0.010659 266232.000000 0 0 1
-13.696088 4.702273 26.084487 29.834454 -0.330720 0.506789 -0.008994 0.011240 -206373.000000 0 0 1
-12.734088 4.493373 24.871257 28.300650 -0.339222 0.497407 -0.011677 0.020376 143231.000000 0 0 1
-12.013988 3.222173 25.003217 27.926317 -0.262035 0.461629 -0.012488 0.014066 362926.000000 0 0 1
-11.325388 2.861773 23.834287 26.542935 -0.247506 0.455702 -0.012283 0.011046 -485894.000000 0 0 1
-10.495688 1.562673 23.999677 26.240920 -0.147801 0.416304 -0.008625 0.003131 61351.000000 0 0 1
-9.151788 1.785273 24.358137 26.081819 -0.192654 0.365591 -0.000949 0.000348 372562.000000 0 0 1
-8.352388 0.646573 24.722677 26.103471 -0.077258 0.326711 -0.000140 0.000263 1164860.000000 0 0 1
-6.818488 0.895373 24.513467 25.459842 -0.130568 0.273510 0.013162 -0.002089 376870.000000 0 0 1
-6.362388 0.938573 23.122387 24.000118 -0.146463 0.271282 0.016321 -0.002027 1377530.000000 0 1 0
-5.000088 1.412573 22.935487 23.516650 -0.275334 0.222779 0.006262 -0.002952 1299500.000000 0 1 0
-4.537688 2.805173 23.417687 24.017653 -0.553690 0.223986 0.022656 -0.002175 -627742.000000 0 1 0
-4.432388 2.820673 24.843847 25.393286 -0.566739 0.208402 0.023363 -0.003762 -29136.300000 0 0 1
-4.580188 4.083473 25.485057 26.213374 -0.728128 0.236279 0.024364 -0.003551 -16999.300000 0 0 1
3.908212 -23.824727 12.721575 27.289746 -1.408204 1.085843 0.038783 0.003959 50988.200000 0 0 1
3.684812 -25.116927 13.235775 28.629069 -1.425129 1.090187 0.029813 -0.007243 816216.000000 0 0 1
2.367112 -25.658887 12.980475 28.852633 -1.478804 1.104156 0.020050 -0.007886 1099790.000000 0 0 1
2.350712 -26.995157 13.744375 30.383749 -1.483936 1.101387 0.018882 -0.003331 -77967.100000 0 0 1
2.178712 -26.841617 15.162475 30.905013 -1.489805 1.058000 0.026150 -0.012881 66330.900000 0 0 1
2.553412 -28.040577 15.755575 32.265028 -1.479985 1.060636 0.021052 -0.018390 -309411.000000 0 0 1
2.440912 -27.950377 17.243275 32.931933 -1.483687 1.019721 0.028304 -0.017925 -140379.000000 0 0 1
3.465012 -27.350477 17.995575 32.922570 -1.444778 0.992494 0.027227 -0.017934 -10245.300000 0 0 1
3.249612 -27.578007 19.370775 33.857546 -1.453504 0.961701 0.015757 -0.012182 -105066.000000 0 0 1
3.775112 -26.555757 20.370075 33.680850 -1.429585 0.921285 0.016686 -0.009635 -357131.000000 0 0 1
3.006512 -25.390257 20.529175 32.789500 -1.452933 0.894268 0.019549 -0.007459 -136247.000000 0 0 1
3.420512 -24.556327 21.605775 32.886511 -1.432394 0.853991 0.024448 -0.002714 209886.000000 0 0 1
2.381112 -23.455527 22.035275 32.270494 -1.469627 0.819166 0.025493 0.003590 209423.000000 0 0 1
2.075612 -22.347627 21.135475 30.829092 -1.478184 0.815411 0.022295 -0.002769 651251.000000 0 0 1
3.192612 -21.552527 20.691775 30.047525 -1.423734 0.811192 0.024183 0.001927 621992.000000 0 0 1
2.619912 -20.408327 19.814175 28.565106 -1.443120 0.804253 0.012293 -0.001974 407176.000000 0 0 1
2.070312 -19.330727 20.543475 28.284228 -1.464103 0.757840 0.005476 -0.003172 4186.610000 0 0 1
1.453912 -18.359627 19.707175 26.973367 -1.491771 0.751573 0.000907 -0.014187 230846.000000 0 0 1
0.928312 -17.211627 20.531075 26.807218 -1.516913 0.698390 0.003629 -0.007952 -654336.000000 0 0 1
1.993812 -16.385927 20.849175 26.592518 -1.449713 0.669674 -0.002216 0.008603 -540532.000000 0 0 1
1.631812 -15.107827 21.372775 26.224126 -1.463202 0.618060 0.001031 0.013155 680789.000000 0 0 1
2.779312 -14.044727 21.127275 25.521377 -1.375430 0.595574 -0.011380 0.017371 309161.000000 0 0 1
3.121812 -13.703327 19.775575 24.261085 -1.346805 0.617869 -0.012720 0.018732 -161127.000000 0 1 0
2.077712 -13.324127 18.897975 23.216001 -1.416106 0.619780 -0.007916 0.022854 64966.600000 0 1 0
1.284712 -12.022227 19.260775 22.741194 -1.464339 0.560564 -0.005817 0.016720 -44155.100000 0 1 0
1.987612 -10.809227 19.017375 21.964757 -1.388947 0.524023 -0.002761 0.011624 -253895.000000 0 1 0
1.731812 -9.695827 19.901475 22.205336 -1.394046 0.459561 0.003029 -0.001414 423938.000000 0 1 0
0.260812 -9.148927 19.974575 21.971676 -1.542297 0.429664 0.015334 -0.002125 754115.000000 0 1 0
0.022612 -8.376527 21.118375 22.718990 -1.568097 0.377613 0.023083 -0.002623 63684.200000 0 1 0
-1.284588 -7.812627 21.081075 22.518860 1.407830 0.359275 0.024984 -0.003832 417539.000000 0 1 0
-1.638688 -7.136027 22.433575 23.598167 1.345074 0.315475 0.027822 0.001428 -127757.000000 0 1 0
-1.894788 -7.999027 23.518075 24.913340 1.338206 0.336260 0.027849 0.007491 88673.400000 0 1 0
-1.811888 -7.258527 24.698075 25.806280 1.326174 0.294123 0.030863 0.011511 -267120.000000 0 0 1
-1.859888 -8.171127 26.003775 27.320740 1.346992 0.311757 0.033379 0.010006 359279.000000 0 0 1
-0.799788 -9.103527 26.172375 27.721960 1.483167 0.335935 0.028745 0.012203 296262.000000 0 0 1
-1.068688 -9.868227 27.346475 29.092159 1.462921 0.348182 0.034321 0.001786 -424267.000000 0 0 1
-0.057088 -11.009727 27.511575 29.632822 1.565611 0.380671 0.023999 0.005284 9323.790000 0 0 1
1.013312 -10.395127 28.253875 30.122532 -1.473624 0.354083 0.009208 0.008947 5670.100000 0 0 1
2.027412 -11.345227 28.492075 30.734719 -1.393961 0.384377 0.008422 0.006161 -76600.700000 0 0 1
3.029712 -10.916027 29.565175 31.661307 -1.300064 0.365920 0.003477 0.003476 -97550.100000 0 0 1
2.390412 -10.867527 30.796175 32.744795 -1.354285 0.346725 0.001728 -0.005663 -2383.180000 0 0 1
3.160912 -10.127227 31.678575 33.407847 -1.268257 0.323157 -0.000295 0.001330 -533326.000000 0 0 1
2.575912 -10.156327 33.106275 34.724800 -1.322408 0.306518 -0.002325 0.001210 -211832.000000 0 0 1
2.806012 -11.363427 33.804175 35.773222 -1.328706 0.333332 -0.005688 -0.009380 165887.000000 0 0 1
2.354112 -11.491127 -33.758337 35.738119 -1.368729 2.807179 -0.001437 -0.010477 -703422.000000 0 0 1
3.093912 -10.711927 -32.689037 34.538251 -1.289620 2.812881 0.001516 0.000333 -318995.000000 0 0 1
2.785812 -9.342127 -32.853337 34.269196 -1.280993 2.853136 0.004036 -0.007072 310446.000000 0 0 1
3.302712 -8.597927 -31.791637 33.098949 -1.204046 2.859600 0.010365 -0.002894 -388783.000000 0 0 1
2.541812 -7.318427 -31.722737 32.655049 -1.236514 2.902063 -0.005996 -0.003316 -391663.000000 0 0 1
2.976012 -6.366827 -32.640037 33.388099 -1.133547 2.929511 0.014466 -0.004065 105775.000000 0 0 1
3.111912 -5.142027 -31.913437 32.474480 -1.026568 2.955440 0.015476 0.002910 -10346.100000 0 0 1
3.316712 -4.004527 -32.907937 33.316199 -0.879071 2.984881 0.017224 -0.002032 274714.000000 0 0 1
2.129912 -3.614627 -33.616537 33.877332 -1.038320 3.017431 0.017999 -0.003656 385452.000000 0 0 1
2.314012 -2.551727 34.435675 34.607538 -0.834214 0.099701 0.028079 -0.001392 -118986.000000 0 0 1
1.951012 -2.873927 32.959875 33.142409 -0.974395 0.105001 0.024117 -0.010439 393300.000000 0 0 1
0.570312 -3.153427 32.777675 32.933954 -1.391876 0.097458 0.022208 -0.013084 28831.900000 0 0 1
0.221012 -3.377027 31.418475 31.600217 -1.505444 0.107302 0.024004 -0.001049 2013350.000000 0 0 1
-1.315588 -3.686027 31.059075 31.304692 1.227977 0.125350 0.030058 -0.009451 2363440.000000 0 0 1
-2.214388 -2.550727 31.026375 31.209705 0.855865 0.108442 0.039248 -0.011667 360681.000000 0 0 1
-3.533888 -3.026327 30.836375 31.185398 0.708183 0.149752 0.024328 -0.007724 509622.000000 0 0 1
-4.538388 -1.990227 30.204975 30.608798 0.413276 0.162617 0.031701 -0.012703 17256.200000 0 0 1
-4.329988 -1.670827 28.863675 29.234435 0.368269 0.159432 0.026958 -0.008226 274633.000000 0 0 1
-5.344288 -0.885827 28.196375 28.712048 0.164259 0.189811 0.016664 -0.009490 520457.000000 0 0 1
-5.507188 0.579073 28.694375 29.223819 -0.104764 0.190640 0.023050 -0.007916 -1612120.000000 0 0 1
-6.777688 0.701173 29.126475 29.912878 -0.103086 0.229808 0.019377 -0.007105 -1939040.000000 0 0 1
-6.944088 2.083673 29.403675 30.284289 -0.291516 0.241745 0.024198 -0.003705 -242229.000000 0 0 1
-8.386188 2.334673 29.860875 31.103870 -0.271520 0.283661 0.005543 0.000663 -211060.000000 0 0 1
-9.332788 1.980873 28.879675 30.414806 -0.209145 0.319072 -0.012353 0.006854 -384685.000000 0 0 1
-10.650588 2.334073 29.201275 31.170457 -0.215739 0.357355 -0.030407 0.013655 -206935.000000 0 0 1
-11.660788 1.607673 28.267175 30.620120 -0.137006 0.394583 -0.026932 0.016634 -7713.680000 0 0 1
-11.631688 0.220173 28.695675 30.964276 -0.018926 0.385169 -0.022939 0.014941 2469.190000 0 0 1
-12.163888 -0.681327 27.748075 30.304786 0.055954 0.413716 -0.020680 0.014963 -1246520.000000 0 0 1
-11.747188 -2.100727 28.168175 30.591757 0.176958 0.400730 -0.019153 0.012848 309137.000000 0 0 1
-10.365288 -2.374927 28.359875 30.287984 0.225235 0.358738 -0.011938 0.002673 608825.000000 0 0 1
-9.421688 -2.035827 27.356975 29.005463 0.212807 0.338764 0.003487 -0.000593 -705473.000000 0 0 1
-9.548688 -2.800927 26.002375 27.841447 0.285327 0.365501 -0.002077 0.001649 -316296.000000 0 0 1
-10.437588 -2.163527 25.061475 27.234200 0.204388 0.402152 -0.013056 0.005315 605429.000000 0 0 1
-10.400488 -2.790827 23.813575 26.135134 0.262160 0.424679 0.001020 0.004011 -33815.100000 0 0 1
-9.240488 -2.356027 22.874975 24.783098 0.249649 0.394973 0.004404 -0.001416 1213010.000000 0 1 0
-7.908988 -2.738327 23.287375 24.745754 0.333312 0.345030 0.005798 -0.000129 789809.000000 0 1 0
-7.002988 -2.232927 22.317975 23.497230 0.308663 0.318159 0.013038 -0.003284 316960.000000 0 1 0
-5.508288 -2.425327 22.696975 23.481400 0.414762 0.259206 0.014983 -0.000265 332070.000000 0 1 0
-4.866888 -3.702927 22.699075 23.508430 0.650403 0.263164 0.017893 -0.001405 -22139.200000 0 1 0
-5.271988 -4.633227 23.664975 24.683835 0.721000 0.288318 0.021215 0.000166 -248772.000000 0 1 0
-5.338688 -6.111427 23.089575 24.474060 0.852783 0.337968 0.028726 0.001233 77839.300000 0 1 0
-6.469088 -6.277527 22.253575 24.009957 0.770371 0.384869 0.043965 -0.007251 -12596.800000 0 1 0
-6.241488 -5.984627 20.897175 22.615567 0.764392 0.392339 0.042765 -0.006348 -27919.900000 0 1 0
-7.420688 -6.229527 19.884975 22.119807 0.698356 0.453391 0.041691 -0.009250 660266.000000 0 1 0
-8.445288 -5.287527 20.195575 22.519815 0.559384 0.458333 0.043696 -0.006270 83498.900000 0 1 0
-9.411188 -5.095727 19.174075 21.958644 0.496258 0.509086 0.035788 -0.003883 344159.000000 0 1 0
-10.019788 -3.704627 19.214175 21.984197 0.354143 0.507424 0.016122 -0.009134 -300117.000000 0 1 0
-9.068988 -2.754127 18.893075 21.137172 0.294835 0.464977 0.013844 -0.010057 -179211.000000 0 1 0
-9.616788 -1.487627 19.016775 21.361961 0.153474 0.472976 0.005912 -0.008164 -536185.000000 0 1 0
-8.689588 -0.476927 18.395775 20.350453 0.054830 0.441880 0.019389 -0.008447 235373.000000 0 1 0
-7.423388 -0.240527 19.018975 20.417785 0.032390 0.372307 0.017326 -0.005604 775644.000000 0 1 0
-7.566388 0.580473 20.183775 21.563208 -0.076567 0.359626 0.021379 -0.005098 -391087.000000 0 1 0
-7.600588 2.096373 19.981375 21.480667 -0.269126 0.375832 0.015312 -0.010234 -456894.000000 0 1 0
-8.539288 2.518673 19.047875 21.025810 -0.286818 0.437230 0.007244 -0.021252 -260886.000000 0 1 0
-8.371788 3.872273 18.779175 20.922207 -0.433232 0.456567 0.003634 -0.017769 123664.000000 0 1 0
-9.268788 4.475773 17.655875 20.437047 -0.449863 0.527804 0.004279 -0.012568 287021.000000 0 1 0
-10.619788 4.650173 18.077175 21.475294 -0.412728 0.570250 0.002747 -0.004506 327794.000000 0 1 0
-11.437588 5.152273 17.040175 21.159676 -0.423243 0.634592 -0.000676 0.000329 -97516.200000 0 1 0
-11.584088 6.690873 17.000375 21.632652 -0.523780 0.666700 0.004662 0.000998 -1444860.000000 0 1 0
-10.429688 7.308673 16.574475 20.902352 -0.611234 0.655164 0.002492 -0.003166 -627406.000000 0 1 0
-10.496188 8.705573 16.703775 21.563234 -0.692414 0.684648 -0.001360 -0.005178 -181309.000000 0 1 0
-9.125188 9.383773 16.666575 21.191955 -0.799368 0.665744 -0.006469 -0.001394 -462383.000000 0 1 0
-8.295188 9.286773 17.790975 21.715734 -0.841736 0.610665 -0.006779 0.001948 202034.000000 0 1 0
-7.331388 10.380073 17.897575 21.950361 -0.955858 0.617435 -0.002216 -0.001311 241330.000000 0 1 0
-7.765588 11.813473 18.020775 22.904385 -0.989271 0.665217 -0.006177 0.006424 -668093.000000 0 1 0
-7.925688 12.346573 16.733775 22.254744 -1.000112 0.719827 -0.005844 0.001052 -305433.000000 0 1 0
-8.496388 13.614673 16.694675 23.157290 -1.012872 0.765660 0.001652 0.000334 -243701.000000 0 1 0
-8.515988 14.160973 15.217975 22.464237 -1.029370 0.826532 0.010648 -0.000382 306921.000000 0 1 0
-7.262188 14.575073 14.729575 21.957516 -1.108541 0.835480 0.012622 -0.002959 -209533.000000 0 1 0
-7.495888 15.330173 13.580875 21.809234 -1.116017 0.898592 0.009723 -0.003392 222829.000000 0 1 0
-6.612088 16.595873 13.617875 22.463063 -1.191655 0.919480 -0.002267 0.009017 273295.000000 0 1 0
-5.218688 16.396973 13.650175 21.964123 -1.262662 0.900171 -0.008584 0.002996 -730170.000000 0 1 0
-4.539288 17.614573 13.834575 22.853310 -1.318583 0.920573 -0.006830 0.001523 2079590.000000 0 1 0
-2.929188 17.504573 13.744875 22.447980 -1.404994 0.911831 -0.001486 0.002355 1959770.000000 0 1 0
-2.289588 16.716473 14.710075 22.384570 -1.434677 0.853762 -0.003311 -0.006069 -258201.000000 0 1 0
-2.587988 15.334173 14.784375 21.457220 -1.403599 0.810665 -0.009553 -0.004071 -880079.000000 0 1 0
-1.671988 14.709273 15.828475 21.672537 -1.457613 0.751966 -0.023402 -0.000477 801166.000000 0 1 0
-0.349988 14.508473 15.272575 21.068218 -1.546678 0.759892 -0.012978 -0.010280 488179.000000 0 1 0
0.611812 13.973173 16.142275 21.358767 1.527039 0.713970 -0.013892 -0.004034 147942.000000 0 1 0
1.599212 14.971473 16.793175 22.554672 1.464383 0.730930 -0.013956 -0.003717 4794.770000 0 1 0
0.993012 15.840573 17.761575 23.819810 1.508190 0.729266 -0.019227 0.000378 140488.000000 0 1 0
1.937712 16.780373 18.276975 24.887416 1.455831 0.746034 -0.013535 0.000078 81181.000000 0 1 0
1.218712 18.011573 18.894875 26.132706 1.503237 0.762610 -0.005727 -0.001422 328207.000000 0 0 1
0.623112 18.886973 17.983875 26.086889 1.537817 0.810158 -0.006585 0.000462 -692066.000000 0 0 1
-0.614088 18.551973 17.452475 25.478259 -1.537707 0.816200 -0.005053 0.001429 -1184050.000000 0 0 1
-1.272988 19.698173 16.647975 25.822347 -1.506261 0.870150 -0.001052 -0.001884 -333448.000000 0 0 1
-1.872188 20.683073 17.474075 27.141074 -1.480524 0.871311 -0.000305 -0.002904 289562.000000 0 0 1
-2.599488 21.656573 16.703775 27.473270 -1.451336 0.917256 0.010192 -0.010667 -387433.000000 0 0 1
-3.194788 22.780273 17.614875 28.972941 -1.431461 0.917287 0.009778 -0.001042 -592921.000000 0 0 1
-4.286388 22.383973 18.388675 29.284104 -1.381593 0.891892 0.016959 -0.005860 -273472.000000 0 0 1
-4.783388 23.435073 19.170875 30.652992 -1.369450 0.895132 0.020669 0.002805 16628.400000 0 0 1
-5.945088 22.973873 20.071775 31.080847 -1.317575 0.868736 0.018457 -0.001166 1766840.000000 0 0 1
-7.285488 22.855273 19.497575 30.912736 -1.262213 0.888303 0.018588 -0.001306 828104.000000 0 0 1
-8.198088 22.185673 20.252075 31.137747 -1.216837 0.862682 0.001288 0.000293 -457892.000000 0 0 1
-9.672688 22.507273 19.951575 31.594360 -1.164902 0.887321 0.016143 0.002237 -185414.000000 0 0 1
-10.025288 23.808673 20.271475 32.837357 -1.172253 0.905452 0.029054 0.000891 -220225.000000 0 0 1
-10.943288 24.240573 19.287075 32.853496 -1.146741 0.943370 0.017062 0.002346 -262598.000000 0 0 1
-11.426488 25.641473 19.607875 34.242058 -1.151586 0.961092 0.025690 0.001661 -44355.900000 0 0 1
-12.356788 25.730173 20.674275 35.244257 -1.123077 0.943942 0.024196 0.003536 154377.000000 0 0 1
-12.778788 27.101673 20.693575 36.414587 -1.130197 0.966386 0.032769 -0.000980 26470.300000 0 0 1
-13.736688 27.399673 21.885975 37.662110 -1.106073 0.950700 0.040722 -0.005157 1225450.000000 0 0 1
-15.130788 27.052973 21.731675 37.855908 -1.060839 0.959337 0.020189 -0.002890 1478470.000000 0 0 1
-15.915788 27.288573 22.915175 39.026706 -1.042792 0.943242 0.012703 -0.003520 844568.000000 0 0 1
-17.326488 26.626673 22.860275 39.137949 -0.993916 0.947032 0.028485 0.004830 291234.000000 0 0 1
-17.351188 25.248473 23.093175 38.364617 -0.968701 0.924869 0.040270 0.003124 226304.000000 0 0 1
-18.674088 24.785373 23.330575 38.824631 -0.925102 0.926142 0.041169 0.010129 86296.200000 0 0 1
27.468012 23.770373 24.173767 43.633626 0.713358 0.983615 0.040410 -0.002576 -160790.000000 0 0 1
26.834512 23.346473 25.355957 43.681499 0.716001 0.951486 0.037424 -0.020504 81352.900000 0 0 1
26.310812 22.054973 25.228107 42.604437 0.697631 0.937075 0.039722 -0.011959 -6057.280000 0 0 1
25.532412 21.643373 26.492767 42.687309 0.703147 0.901258 0.048313 -0.021542 504564.000000 0 0 1
24.313412 22.294373 26.857047 42.538007 0.742105 0.887483 0.058464 -0.013442 815339.000000 0 0 1
23.848312 21.819273 28.145397 42.860075 0.740997 0.854387 0.051961 -0.017640 340273.000000 0 0 1
22.574612 22.580873 28.634527 42.888752 0.785537 0.839753 0.059800 -0.011500 -179183.000000 0 0 1
22.610812 23.962973 29.051607 43.925719 0.814423 0.848139 0.068874 -0.031574 -416449.000000 0 0 1
21.563012 24.219673 29.958847 44.148483 0.843361 0.824951 0.091562 -0.024919 -82893.700000 0 0 1
21.372012 25.698573 30.293047 45.109292 0.877057 0.834501 0.072339 -0.019485 -710040.000000 0 0 1
20.684612 26.462473 29.349847 44.604139 0.907340 0.852627 0.057313 -0.041768 -15865.700000 0 0 1
19.965912 27.595773 29.798377 45.256023 0.944463 0.852052 0.033789 -0.044123 713818.000000 0 0 1
18.661112 27.315473 30.616987 45.075182 0.971455 0.824066 0.041993 -0.037146 648149.000000 0 0 1
17.456812 26.945673 29.927107 43.891244 0.995932 0.820512 0.058310 -0.028097 1403090.000000 0 0 1
16.244412 27.038673 30.696017 44.013818 1.029800 0.799008 0.049071 -0.023172 996192.000000 0 0 1
15.846512 25.703173 31.444637 43.595071 1.018318 0.765135 0.022910 -0.011160 -214333.000000 0 0 1
16.456112 25.561073 32.708347 44.654317 0.998795 0.748840 0.029529 -0.012782 807434.000000 0 0 1
15.557912 24.833273 33.579487 44.568173 1.011123 0.717517 0.003343 -0.000209 425947.000000 0 0 1
16.285312 24.455673 -34.063815 44.984829 0.983317 2.429856 0.021362 -0.002943 -292755.000000 0 0 1
16.910412 25.595073 -33.507135 45.429042 0.986943 2.400262 0.027155 -0.001956 49276.100000 0 0 1
16.930312 25.390373 -32.094355 44.287178 0.982701 2.381377 0.017868 0.007638 -244454.000000 0 0 1
17.309312 26.728373 -31.392115 44.715580 0.996110 2.349054 0.025348 -0.004041 279977.000000 0 0 1
16.423612 27.861873 -31.608055 45.222651 1.038159 2.344715 0.028811 -0.001736 511422.000000 0 0 1
16.726012 29.033873 -30.761075 45.485921 1.048146 2.313493 0.034226 -0.007698 116075.000000 0 0 1
16.010912 29.128973 -29.376165 44.359953 1.068217 2.294577 0.037961 -0.011183 -144178.000000 0 0 1
16.567212 28.233773 -28.436305 43.361756 1.040149 2.286028 0.033414 -0.004903 37557.800000 0 0 1
16.116812 28.470073 -27.140165 42.507473 1.055679 2.263318 0.020183 0.002581 -569878.000000 0 0 1
16.871012 27.698673 -26.078405 41.616472 1.023719 2.248026 0.017319 0.005664 -675085.000000 0 0 1
18.215312 28.085373 -26.076525 42.433135 0.995427 2.232589 0.031461 0.004735 -838868.000000 0 0 1
18.849912 27.611773 -24.908325 41.691172 0.971792 2.211112 0.033965 0.003188 -673884.000000 0 0 1
20.363412 27.616573 -24.968525 42.435491 0.935433 2.199860 0.025203 0.002142 -461648.000000 0 0 1
21.001412 26.930973 -23.887425 41.676680 0.908480 2.181154 0.018221 0.003581 -668298.000000 0 0 1
22.371912 26.758173 -24.048725 42.365593 0.874441 2.174442 0.016338 0.005945 -635402.000000 0 0 1
23.064012 26.523573 -22.666825 41.823839 0.855052 2.143563 0.022033 0.002179 128489.000000 0 0 1
22.695712 25.358173 -21.906925 40.472777 0.840747 2.142750 0.018001 0.000920 177267.000000 0 0 1
23.406112 25.450273 -20.698925 40.298982 0.827214 2.110211 0.019978 0.000309 -82666.700000 0 0 1
22.906412 24.390673 -19.673025 38.815416 0.816770 2.102306 0.016959 -0.001756 -1042180.000000 0 0 1
23.154112 23.054873 -19.997525 38.308499 0.783251 2.120005 0.011190 0.006971 90611.800000 0 0 1
22.999512 22.272873 -18.855225 37.156129 0.769349 2.103030 0.019978 0.001176 -839399.000000 0 0 1
23.267812 20.721973 -19.093725 36.542599 0.727589 2.120584 0.033800 0.001771 316991.000000 0 0 1
22.457512 20.030873 -20.047325 36.158968 0.728347 2.158465 0.014535 0.001847 -363170.000000 0 0 1
21.075912 20.180273 -19.945425 35.344836 0.763692 2.170393 0.013075 -0.000689 -639635.000000 0 0 1
20.336912 20.060273 -21.346525 35.660604 0.778550 2.212552 0.020054 0.001170 168462.000000 0 0 1
20.552312 21.079073 -22.332125 36.951978 0.798050 2.219753 0.004691 0.006738 -120670.000000 0 0 1
20.422012 22.430173 -21.908325 37.418524 0.832226 2.196286 0.002892 0.008189 -330620.000000 0 0 1
19.939912 23.384273 -22.998125 38.384086 0.864733 2.213245 0.016381 0.001274 -415977.000000 0 0 1
18.632012 23.127773 -23.405225 37.813361 0.892643 2.238223 0.038954 0.004333 -708962.000000 0 0 1
18.289712 23.718973 -24.642325 38.785918 0.913927 2.259248 0.030208 0.000586 1184960.000000 0 0 1
16.734312 23.749873 -24.927925 38.281785 0.956986 2.279921 0.034562 0.003663 1197320.000000 0 0 1
15.967012 24.740373 -24.225425 38.130077 0.997674 2.259240 0.036504 -0.006307 -109652.000000 0 0 1
14.635212 24.605673 -24.663325 37.787672 1.034216 2.281915 0.043301 0.004419 -196244.000000 0 0 1
13.691712 25.626073 -24.008625 37.690485 1.080096 2.261389 0.034291 0.007608 -118697.000000 0 0 1
13.712312 26.863373 -24.612825 38.928903 1.098827 2.255251 0.024374 0.011460 383083.000000 0 0 1
12.655012 27.686873 -24.119325 38.838822 1.142073 2.240828 0.026820 0.011288 471663.000000 0 0 1
12.788712 29.088173 -24.735725 40.268214 1.156580 2.232262 0.022995 0.004973 -140842.000000 0 0 1
12.598512 29.105873 -26.107795 41.079086 1.162294 2.259516 0.025692 -0.003202 -187703.000000 0 0 1
12.055712 30.350173 -26.587385 42.111307 1.192688 2.254102 0.042461 -0.006676 -207627.000000 0 0 1
12.900812 31.652573 -26.626985 43.327966 1.183776 2.232605 0.051976 -0.008958 336269.000000 0 0 1
13.969112 31.632673 -27.574505 44.227993 1.154946 2.243960 0.032629 0.009120 324535.000000 0 0 1
14.801312 32.786973 -27.477735 45.266879 1.146747 2.223097 0.028425 -0.005452 -617456.000000 0 0 1
16.152912 32.700973 -28.133985 46.062906 1.111994 2.227833 0.019037 0.015777 -736001.000000 0 0 1
16.980412 31.853973 -27.373875 45.302748 1.081044 2.219612 -0.005034 0.016839 2211710.000000 0 0 1
18.398912 31.791973 -27.863955 46.104766 1.046165 2.219761 0.023130 0.016608 2324600.000000 0 0 1
19.189312 30.887873 -26.884585 45.222464 1.014893 2.207435 0.010520 0.022566 -960620.000000 0 0 1
19.479912 31.417473 -25.571725 44.949279 1.015776 2.175966 0.013826 0.023364 367915.000000 0 0 1
20.365812 32.542073 -25.475895 46.073572 1.011600 2.156684 0.022023 0.017404 28968.400000 0 0 1
21.853912 32.364773 -25.815835 46.813773 0.976883 2.154907 0.008044 0.019384 -434431.000000 0 0 1
21.935512 32.033373 -27.197725 47.402742 0.970365 2.181884 0.009446 0.024042 -1409450.000000 0 0 1
23.160812 32.345173 -27.725035 48.490318 0.949379 2.179451 0.012009 0.029351 -1275300.000000 0 0 1
23.414912 31.755173 -29.098485 49.024187 0.935436 2.206264 0.006776 0.017928 235441.000000 0 0 1
22.482012 32.220973 -30.083345 49.483731 0.961586 2.224265 0.015072 0.012556 133900.000000 0 0 1
21.461812 31.271073 -30.293065 48.540284 0.969314 2.244751 0.006482 0.012282 475940.000000 0 0 1
20.265612 31.834173 -31.187715 48.956952 1.003899 2.261453 -0.007630 0.008705 455082.000000 0 0 1
19.476712 32.746173 -30.447395 48.771898 1.034225 2.245008 -0.003367 0.009286 -342504.000000 0 0 1
19.142312 33.833073 -31.301745 49.908959 1.055913 2.248720 -0.006709 0.007434 236152.000000 0 0 1
17.606912 34.110173 -31.449865 49.624603 1.094290 2.257195 -0.011555 0.001502 1216890.000000 0 0 1
16.732712 33.059673 -31.975055 48.942106 1.102251 2.282763 0.007167 0.001256 671692.000000 0 0 1
17.184812 32.379273 -33.122325 49.404691 1.082864 2.305583 0.013022 -0.010860 -1003980.000000 0 0 1
16.824612 33.015473 34.415522 50.571901 1.099500 0.822315 0.012885 -0.019435 -394210.000000 0 0 1
17.490612 34.250273 34.323827 51.547336 1.098649 0.842137 0.000680 -0.008666 -9037.250000 0 0 1
17.336712 -34.156242 33.119318 50.636940 -1.101110 0.857864 0.005559 -0.015582 -899587.000000 0 0 1
15.974912 -33.773642 32.551607 49.552637 -1.128982 0.854084 0.002115 -0.016909 -980334.000000 0 0 1
15.226212 34.243473 32.037847 49.303921 1.152404 0.863471 0.017186 -0.025303 -229818.000000 0 0 1
13.867012 -34.494742 31.975667 49.036971 -1.188564 0.860481 0.022991 -0.024644 84548.600000 0 0 1
13.393112 -33.661442 30.681207 47.474252 -1.192121 0.868109 0.002728 -0.019979 -732442.000000 0 0 1
13.991212 -32.402342 30.495537 46.643794 -1.163183 0.858206 -0.000076 -0.018489 66670.100000 0 0 1
13.189012 -31.580042 29.638397 45.273432 -1.175178 0.857073 0.004227 -0.020906 111464.000000 0 0 1
13.507612 -30.065742 29.446247 44.198256 -1.148550 0.841653 0.012452 -0.018840 -396328.000000 0 0 1
13.172212 -29.319942 30.602297 44.380928 -1.148560 0.809947 0.005857 -0.007338 99485.000000 0 0 1
13.377512 -27.919642 30.506397 43.463830 -1.123973 0.792763 0.033747 -0.013607 -853141.000000 0 0 1
12.841012 -27.051142 31.655157 43.574130 -1.127598 0.757630 0.027793 -0.009356 48831.600000 0 0 1
11.436512 -26.912242 31.767947 43.177135 -1.168963 0.744010 0.017506 -0.005405 18917.500000 0 0 1
10.749712 -26.179642 30.798847 41.827012 -1.181174 0.743153 0.000572 -0.009544 -700560.000000 0 0 1
10.894712 -24.670542 30.828227 40.959858 -1.154943 0.718726 -0.002945 -0.001603 -431949.000000 0 0 1
10.250612 -24.171642 31.982357 41.378913 -1.169709 0.687375 0.019623 -0.003242 -40078.900000 0 0 1
10.701412 -22.943542 32.460427 41.165588 -1.134369 0.662376 0.013524 0.001257 -244859.000000 0 0 1
9.935212 -22.486242 33.703534 41.716516 -1.154753 0.630185 0.009005 -0.000060 -450388.000000 0 0 1
10.036812 -23.187542 -33.989725 42.352108 -1.162292 2.502355 0.012633 0.000384 784585.000000 0 0 1
11.353012 -23.299742 -33.419365 42.292113 -1.117393 2.481937 0.011061 0.000834 1126590.000000 0 0 1
12.040612 -21.992042 -32.845085 41.321010 -1.069876 2.489600 0.015366 -0.010526 -43577.700000 0 0 1
12.346212 -20.955142 -33.743015 41.594927 -1.038376 2.517047 0.005386 -0.008708 647521.000000 0 0 1
13.274012 -20.018342 -33.129845 40.920900 -0.985272 2.514279 0.004191 -0.013985 309598.000000 0 0 1
13.538212 -18.922242 -34.136943 41.311806 -0.949766 2.543346 -0.000646 -0.007051 -664669.000000 0 0 1
14.348912 -19.340242 33.696098 41.416944 -0.932486 0.620509 0.008151 -0.000827 207035.000000 0 0 1
14.130612 -18.589042 32.502777 40.020709 -0.920826 0.622970 -0.001457 0.002354 -78432.800000 0 0 1
14.748512 -17.151342 32.404207 39.518600 -0.860580 0.609432 0.013040 -0.000764 -824250.000000 0 0 1
14.304012 -16.181242 33.348321 39.730943 -0.846899 0.574703 0.003365 0.000899 19264.500000 0 0 1
15.001412 -14.966842 33.348975 39.512060 -0.784245 0.566061 0.022310 -0.007322 -419204.000000 0 0 1
16.413312 -15.058942 33.970702 40.622372 -0.742391 0.580377 0.020839 0.001207 -206184.000000 0 0 1
17.299012 -15.721142 33.085111 40.509686 -0.737649 0.615091 0.027813 -0.002489 -584877.000000 0 0 1
18.627612 -15.562642 33.510253 41.377782 -0.695993 0.626881 0.046300 -0.001230 -78269.900000 0 0 1
19.636912 -16.293942 32.569437 41.374740 -0.692626 0.664571 0.059432 -0.009372 -104649.000000 0 0 1
19.831712 -15.661042 31.369357 40.281529 -0.668427 0.678121 0.039726 -0.001691 -112296.000000 0 0 1
20.700512 -16.371342 30.541367 40.364677 -0.669147 0.712644 0.036455 -0.001061 -395240.000000 0 0 1
21.010012 -15.644342 29.191367 39.221193 -0.640045 0.731347 0.030636 0.007484 -271187.000000 0 0 1
21.747612 -14.458242 29.415447 39.335327 -0.586723 0.726035 0.024546 0.001931 368800.000000 0 0 1
22.033312 -13.722842 28.230137 38.350018 -0.557032 0.743479 0.016316 -0.003146 43439.100000 0 0 1
22.749012 -12.373642 28.280617 38.346028 -0.498163 0.741419 0.013804 0.000885 323596.000000 0 0 1
21.888612 -11.380942 28.821717 37.938484 -0.479478 0.707951 0.018632 -0.005573 658969.000000 0 0 1
22.586012 -10.119242 28.798617 37.972192 -0.421216 0.709921 0.021404 -0.008854 490385.000000 0 0 1
21.662112 -8.873542 28.827717 37.135214 -0.388784 0.682036 0.031606 -0.006216 609895.000000 0 0 1
20.714112 -8.867042 29.914307 37.450830 -0.404466 0.645561 0.039342 -0.011588 -402632.000000 0 0 1
19.610312 -8.086342 29.628817 36.439265 -0.391109 0.621336 0.037814 -0.016182 -284471.000000 0 0 1
18.471612 -8.158142 30.688117 36.735763 -0.415895 0.581983 0.040055 -0.014204 26519.000000 0 0 1
18.817012 -7.653042 31.952507 37.863065 -0.386276 0.566291 0.040522 -0.018969 36386.900000 0 0 1
19.206712 -8.673642 32.829137 39.011307 -0.424179 0.570689 0.040741 -0.022876 -450912.000000 0 0 1
19.327512 -8.268142 34.316960 40.243865 -0.404233 0.549616 0.044483 -0.026416 752403.000000 0 0 1
18.040412 -7.984842 -34.008135 39.316249 -0.416690 2.615925 0.039052 -0.029289 608855.000000 0 0 1
18.150512 -7.378742 -32.732165 38.148152 -0.386124 2.602213 0.032765 -0.030247 -174254.000000 0 0 1
16.877812 -7.057642 -31.939335 36.807499 -0.396064 2.621433 0.028029 -0.025655 -23708.100000 0 0 1
17.242412 -6.204642 -30.849715 35.881796 -0.345421 2.605595 0.019206 -0.018809 518350.000000 0 0 1
16.081612 -5.743942 -30.192165 34.686855 -0.343052 2.626853 0.011854 -0.006797 166798.000000 0 0 1
16.472912 -4.592642 -29.249045 33.881497 -0.271895 2.612519 0.003897 0.003366 146963.000000 0 0 1
17.297612 -4.919242 -28.118555 33.377529 -0.277073 2.572592 0.001990 0.012127 364904.000000 0 0 1
16.821212 -5.911042 -27.171995 32.499398 -0.337925 2.560889 -0.006746 0.008452 247750.000000 0 0 1
15.444412 -5.702942 -26.457015 31.161307 -0.353725 2.584951 -0.004816 0.008427 367449.000000 0 0 1
15.349412 -4.685542 -25.468735 30.103409 -0.296274 2.579312 -0.018545 0.012065 -297361.000000 0 0 1
14.096012 -4.676242 -24.820525 28.924440 -0.320318 2.602385 -0.007112 0.006835 -47066.900000 0 0 1
13.719012 -3.476942 -23.824625 27.711246 -0.248213 2.605568 -0.008843 0.005643 50674.400000 0 0 1
13.699912 -2.229942 -24.450825 28.115886 -0.161355 2.625278 -0.008330 -0.001222 199471.000000 0 0 1
13.257112 -1.172942 -23.582225 27.078555 -0.088247 2.627790 -0.006202 -0.005741 22513.100000 0 0 1
13.732112 0.261058 -24.035725 27.683120 0.019009 2.622450 -0.005948 -0.007884 -477399.000000 0 0 1
13.074612 0.839058 -25.132985 28.342837 0.064087 2.661061 0.003893 -0.010082 -42687.900000 0 0 1
13.705412 2.064058 -25.515275 29.036665 0.149478 2.643983 0.004940 0.005393 -102229.000000 0 0 1
13.047112 2.698058 -26.775975 29.907516 0.203919 2.679884 0.000225 0.003668 -62767.600000 0 0 1
11.807412 3.276058 -26.475445 29.173562 0.270650 2.708126 0.005540 -0.010655 -68878.300000 0 0 1
11.108412 3.743058 -27.620015 30.004542 0.325008 2.740226 0.014326 -0.011446 401302.000000 0 0 1
9.847112 4.616058 -27.447195 29.523247 0.438355 2.764342 0.022741 -0.012348 237490.000000 0 0 1
10.161312 5.916058 -27.004875 29.453612 0.527239 2.730942 0.016607 -0.022100 822532.000000 0 0 1
8.956712 6.710058 -26.944305 29.176071 0.642967 2.747921 0.019619 -0.023776 722246.000000 0 0 1
7.741912 5.166973 -31.120495 32.482611 0.588512 2.850972 0.029995 -0.008016 -107986.000000 0 0 1
7.450912 4.066173 -30.278725 31.446002 0.499558 2.868272 0.034179 -0.005262 463264.000000 0 0 1
7.608312 2.798573 -30.954115 31.998057 0.352471 2.885452 0.023856 0.000427 -96695.100000 0 0 1
7.486612 1.609673 -29.967245 30.930182 0.211783 2.891411 0.030609 -0.000100 -800665.000000 0 0 1
8.550112 1.538773 -29.100025 30.369124 0.178065 2.851477 0.030807 -0.006005 -621078.000000 0 0 1
8.356512 0.548873 -28.119035 29.339609 0.065588 2.852134 0.037178 -0.008823 222857.000000 0 0 1
9.604112 0.043273 -27.324755 28.963478 0.004506 2.803597 0.024156 -0.012666 548562.000000 0 0 1
10.596012 -0.579727 -28.131995 30.066937 -0.054657 2.780880 0.018728 0.000386 390470.000000 0 0 1
11.684412 -1.007927 -27.323035 29.733645 -0.086050 2.736147 0.015133 -0.001523 121977.000000 0 0 1
12.398412 -2.303527 -27.745685 30.477039 -0.183698 2.714998 0.007752 0.002979 515324.000000 0 0 1
11.601812 -3.554427 -27.730085 30.268690 -0.297289 2.729116 0.024615 0.002198 564331.000000 0 0 1
12.315412 -4.697027 -28.185395 31.115076 -0.364365 2.704163 0.018306 0.003078 -92536.400000 0 0 1
11.647212 -6.009227 -27.703605 30.647318 -0.476316 2.699711 0.015172 0.001999 -4122.500000 0 0 1
11.759112 -6.100427 -26.319535 29.465401 -0.478561 2.675287 0.014146 0.005253 -112766.000000 0 0 1
11.216112 -7.230227 -25.699595 28.957668 -0.572590 2.662662 0.022786 0.005142 -203583.000000 0 0 1
10.864712 -7.003727 -24.177125 27.415826 -0.572591 2.650605 0.034186 -0.001711 -688017.000000 0 0 1
11.864412 -6.991627 -23.224625 27.000562 -0.532510 2.606367 0.007639 0.006266 -362004.000000 0 0 1
11.346012 -6.558227 -21.954225 25.568151 -0.524101 2.603436 0.017829 -0.006868 309280.000000 0 0 1
12.539612 -6.438927 -20.989625 25.283710 -0.474379 2.550198 0.007356 -0.011968 219109.000000 0 0 1
13.227812 -5.221627 -20.994925 25.357983 -0.375969 2.546223 -0.006681 -0.011457 -1390560.000000 0 0 1
14.390412 -5.365027 -20.309025 25.462207 -0.356858 2.494126 -0.012180 -0.003626 -1265130.000000 0 0 1
14.878012 -4.014827 -19.664825 24.983583 -0.263572 2.476906 -0.010819 -0.009429 -204909.000000 0 1 0
15.346212 -3.033027 -20.563625 25.837340 -0.195125 2.491269 -0.016240 -0.002745 171824.000000 0 0 1
15.810812 -1.899027 -19.844025 25.443534 -0.119537 2.465341 -0.008702 -0.004688 -39272.100000 0 0 1
16.896212 -1.104827 -20.623725 26.684090 -0.065296 2.454171 -0.014754 -0.000182 382046.000000 0 0 1
18.139812 -1.781127 -20.688725 27.572605 -0.097875 2.419367 -0.004369 -0.005855 -132796.000000 0 0 1
19.003012 -1.078927 -21.541125 28.745410 -0.056716 2.417916 -0.001694 -0.002119 -568639.000000 0 0 1
20.282512 -1.838927 -21.876725 29.889012 -0.090418 2.391949 -0.004130 -0.005370 -1945880.000000 0 0 1
21.217312 -1.808127 -20.847525 29.800385 -0.085014 2.345595 -0.001372 -0.010089 -676520.000000 0 0 1
22.393112 -2.470127 -21.180925 30.922234 -0.109863 2.325364 -0.002775 -0.008560 -118031.000000 0 0 1
23.346212 -1.773727 -22.243125 32.294711 -0.075829 2.330566 0.017629 -0.011165 -1245370.000000 0 0 1
22.932212 -1.854027 -23.588125 32.950317 -0.080673 2.368665 0.014667 -0.008007 69471.300000 0 0 1
23.789412 -1.120227 -24.410325 34.103592 -0.047055 2.368522 0.019047 -0.000740 -474179.000000 0 0 1
25.113812 -1.693227 -24.890025 35.398925 -0.067320 2.350585 0.029288 -0.008214 -817666.000000 0 0 1
26.110612 -1.737727 -23.895225 35.436782 -0.066455 2.310820 0.023434 -0.005482 9282.750000 0 0 1
27.244012 -2.509127 -24.258225 36.564920 -0.091839 2.296188 0.014843 -0.003449 1557420.000000 0 0 1
28.401912 -1.729327 -25.089975 37.936342 -0.060813 2.293441 0.017877 -0.003606 535744.000000 0 0 1
28.074012 -1.596427 -26.450875 38.605019 -0.056804 2.325629 0.037459 0.000276 22992.600000 0 0 1
28.713112 -0.557827 -27.132985 39.508896 -0.019425 2.327814 0.026452 0.000517 -740281.000000 0 0 1
28.089912 -0.241627 -28.507205 40.022022 -0.008602 2.363549 0.036673 -0.002290 186807.000000 0 0 1
26.716712 0.099773 -28.487775 39.055678 0.003734 2.388262 0.044750 0.000013 107675.000000 0 0 1
26.435212 1.434973 -28.135785 38.632913 0.054229 2.386613 0.039321 -0.001160 -282051.000000 0 0 1
24.934012 1.804373 -28.224945 37.704220 0.072240 2.416727 0.031384 -0.003125 -38970.000000 0 0 1
24.217712 1.501573 -27.053975 36.341022 0.061924 2.410503 0.032137 -0.005884 -367199.000000 0 0 1
22.856512 1.655373 -27.368565 35.695921 0.072298 2.444503 0.029621 -0.004387 -370671.000000 0 0 1
21.879712 1.297073 -26.230055 34.182159 0.059213 2.445512 0.027626 -0.002283 -206174.000000 0 0 1
21.902712 2.166573 -25.103055 33.385419 0.098597 2.421761 0.028668 -0.001593 446126.000000 0 0 1
20.974912 1.865773 -24.039725 31.958355 0.088719 2.422222 0.018293 -0.006645 185857.000000 0 0 1
21.219012 2.659873 -22.734525 31.211857 0.124703 2.386771 0.013745 -0.004968 -352172.000000 0 0 1
20.919012 4.050273 -22.719225 31.147600 0.191250 2.388249 0.022738 -0.006822 316152.000000 0 0 1
20.906712 4.440373 -21.383525 30.233469 0.209280 2.356439 0.013683 -0.005450 -243810.000000 0 0 1
20.276212 5.799673 -21.072125 29.812672 0.278595 2.355786 0.015568 0.000578 -126222.000000 0 0 1
21.076212 6.833673 -21.630525 30.964260 0.313541 2.344185 0.022309 0.003072 696794.000000 0 0 1
20.748212 8.080973 -21.020925 30.621393 0.371403 2.327431 0.025785 0.002397 -92523.100000 0 0 1
21.365212 8.322773 -19.582125 30.152951 0.371464 2.277626 0.010623 -0.003569 -584826.000000 0 0 1
22.756912 8.508073 -19.493625 31.149089 0.357778 2.246975 -0.001519 -0.002082 86110.600000 0 0 1
23.212512 8.840773 -18.166525 30.773408 0.363900 2.202266 0.005101 -0.009322 -28523.200000 0 0 1
22.932612 10.208273 -17.626725 30.672707 0.418807 2.182999 0.008019 -0.016314 470440.000000 0 0 1
21.567212 10.490373 -17.260225 29.548400 0.452712 2.194609 0.009731 -0.025737 711890.000000 0 0 1
21.359812 11.910673 -16.913825 29.735218 0.508675 2.175860 0.006091 -0.019800 -697763.000000 0 0 1
19.865412 12.237073 -16.879125 28.797316 0.552100 2.197077 0.013736 -0.024790 -384598.000000 0 0 1
19.201012 12.054173 -18.094525 29.006789 0.560602 2.244396 0.020066 -0.029414 135220.000000 0 0 1
18.681412 10.735273 -18.296225 28.266466 0.521571 2.274803 0.019877 -0.025395 -442004.000000 0 0 1
17.848612 10.652773 -19.607025 28.574288 0.538093 2.327017 0.034338 -0.021920 430923.000000 0 0 1
18.681412 10.594973 -20.796425 29.895483 0.515907 2.340104 0.049115 -0.023968 626441.000000 0 0 1
17.929412 10.529173 -22.020825 30.286037 0.530997 2.384877 0.039990 -0.022135 -375609.000000 0 0 1
18.734612 10.606873 -23.306025 31.727941 0.515169 2.395812 0.058490 -0.024146 -546091.000000 0 0 1
19.211012 11.899973 -23.482825 32.590112 0.554587 2.375392 0.050083 -0.022263 4914.520000 0 0 1
19.804712 12.078373 -24.736725 33.911934 0.547648 2.388299 0.052918 -0.017343 -99469.100000 0 0 1
20.142012 13.565473 -24.995225 34.849447 0.592713 2.370622 0.042370 -0.015908 -40700.400000 0 0 1
20.775312 13.789273 -26.250325 36.205486 0.585969 2.381885 0.037606 -0.019830 232307.000000 0 0 1
20.822112 15.169473 -26.458405 36.928586 0.629616 2.369532 0.035169 -0.013804 250041.000000 0 0 1
19.535612 15.763673 -27.113125 36.949358 0.678946 2.394682 0.042859 -0.014251 -85308.500000 0 0 1
18.416512 15.738873 -26.296145 35.754262 0.707162 2.397155 0.043381 -0.009400 -722883.000000 0 0 1
17.267912 16.040873 -27.057255 35.882941 0.748576 2.424991 0.038038 -0.015285 -93622.200000 0 0 1
15.922012 15.556473 -26.523515 34.626741 0.773786 2.443366 0.030204 -0.019118 -345396.000000 0 0 1
15.797512 14.113273 -26.391515 33.841659 0.729149 2.465227 0.033823 -0.014587 -167285.000000 0 0 1
14.433912 13.821773 -26.211645 32.961031 0.763737 2.490185 0.032290 -0.016673 -120035.000000 0 0 1
14.040012 12.310373 -26.020665 32.027211 0.719852 2.519147 0.030435 -0.020756 -401258.000000 0 0 1
12.696612 11.951773 -25.890805 31.215102 0.755189 2.548886 0.028588 -0.023971 -539594.000000 0 0 1
12.637912 10.551773 -25.672345 30.497968 0.695680 2.571354 0.039463 -0.025224 -68320.800000 0 0 1
11.234012 9.918973 -25.642515 29.700633 0.723310 2.612699 0.020668 -0.026431 191538.000000 0 0 1
10.472312 10.279373 -24.467825 28.530848 0.776101 2.601366 0.024111 -0.029492 478780.000000 0 0 1
9.251512 9.549473 -24.394125 27.782301 0.801245 2.642559 0.021284 -0.026048 672314.000000 0 0 1
8.236812 10.189173 -23.377125 26.798401 0.890961 2.630750 0.012694 -0.023932 168663.000000 0 0 1
7.912012 11.564573 -23.745925 27.571874 0.970781 2.608496 0.017098 -0.022711 -12179.400000 0 0 1
7.184012 12.237173 -22.718425 26.785915 1.039942 2.583276 0.019546 -0.015476 531619.000000 0 0 1
8.059212 13.072673 -21.713925 26.595868 1.018338 2.526015 0.017147 -0.017518 301977.000000 0 0 1
8.679812 12.343273 -20.691925 25.609593 0.957925 2.511504 0.016651 -0.021919 -601377.000000 0 0 1
9.605812 13.085573 -19.958225 25.726146 0.937564 2.458771 0.012631 -0.017068 -573225.000000 0 0 1
10.701112 12.316773 -19.202325 25.198134 0.855475 2.437275 0.022879 -0.017119 -286323.000000 0 0 1
11.697512 11.680973 -19.970925 25.925176 0.784691 2.450154 0.042455 -0.023182 313904.000000 0 0 1
11.183412 10.644473 -20.791125 25.896803 0.760713 2.502849 0.043485 -0.028457 -1072650.000000 0 0 1
12.311412 10.071073 -21.611425 26.833767 0.685637 2.507115 0.038788 -0.030627 -563581.000000 0 0 1
13.294712 9.377773 -20.926225 26.506582 0.614325 2.480746 0.048039 -0.027996 -931903.000000 0 0 1
14.287812 8.927973 -21.765725 27.524481 0.558503 2.482874 0.051685 -0.029756 -440224.000000 0 0 1
15.083012 7.746773 -21.131025 27.092987 0.474476 2.465373 0.064065 -0.023055 -42125.500000 0 0 1
15.843112 8.042073 -19.996025 26.749208 0.469715 2.415143 0.037834 -0.021975 193582.000000 0 0 1
16.512012 6.817273 -19.589925 26.512014 0.391550 2.402244 0.017771 -0.012111 145454.000000 0 0 1
17.241012 6.848373 -18.257025 26.028286 0.378102 2.348198 0.022561 -0.010740 317255.000000 0 0 1
18.579612 7.424573 -18.300425 27.115159 0.380169 2.311646 0.021517 -0.013760 1242490.000000 0 0 1
19.123312 7.344773 -16.984025 26.610221 0.366702 2.263022 0.003356 -0.016235 -117045.000000 0 0 1
19.591612 5.937673 -16.461825 26.269353 0.294273 2.248050 -0.009142 -0.015194 -678295.000000 0 0 1
20.757612 5.530973 -17.157225 27.492553 0.260405 2.244735 -0.011046 -0.014236 245530.000000 0 0 1
21.210912 4.423773 -16.464325 27.212985 0.205614 2.220584 -0.003956 -0.016834 -472825.000000 0 0 1
22.536712 3.879573 -17.024125 28.509215 0.170474 2.210733 0.002082 -0.000490 -350383.000000 0 0 1
23.205012 3.016673 -16.119025 28.414712 0.129276 2.173992 -0.006827 0.001840 333727.000000 0 0 1
24.381212 2.536073 -16.750125 29.689087 0.103645 2.170242 0.005895 -0.003112 443865.000000 0 0 1
25.390012 1.792073 -15.831525 29.975013 0.070465 2.127225 0.018391 -0.012640 266390.000000 0 0 1
24.872212 0.458173 -15.726825 29.430764 0.018419 2.134555 0.009628 -0.007803 -167674.000000 0 0 1
25.869412 -0.480527 -15.927425 30.383223 -0.018573 2.122593 0.011022 -0.003059 -816387.000000 0 0 1
25.410212 -1.937427 -16.116125 30.152313 -0.076099 2.134701 0.003524 -0.009846 -252667.000000 0 0 1
24.858212 -2.523627 -14.907525 29.095252 -0.101174 2.108738 0.001721 -0.011337 538721.000000 0 0 1
24.765212 -3.919627 -15.083825 29.260912 -0.156969 2.112380 0.003279 -0.003999 -945516.000000 0 0 1
24.171812 -4.838127 -13.950125 28.324724 -0.197545 2.085764 0.000851 -0.003107 613099.000000 0 0 1
22.771312 -4.682027 -13.691425 26.979792 -0.202785 2.103042 0.008376 0.002268 698192.000000 0 0 1
21.987212 -5.441527 -14.580625 26.937749 -0.242611 2.142744 0.006320 0.010659 -1523590.000000 0 0 1
20.561512 -5.555027 -14.132325 25.560843 -0.263867 2.156624 0.015706 0.004365 -1237430.000000 0 0 1
20.249012 -6.489527 -13.070325 24.959364 -0.310144 2.121943 0.018546 0.007780 450003.000000 0 1 0
20.325212 -6.039627 -11.725525 24.229719 -0.288840 2.075938 0.025434 0.005402 -438468.000000 0 1 0
20.271312 -7.151027 -10.684825 24.004766 -0.339137 2.032096 0.035602 0.002538 443540.000000 0 1 0
18.966312 -7.727927 -10.526925 23.027332 -0.386917 2.045583 0.041822 -0.006968 1157020.000000 0 1 0
18.697612 -8.780027 -11.480825 23.632582 -0.439017 2.078080 0.026666 -0.005978 260969.000000 0 1 0
17.220812 -9.313027 -11.458525 22.684502 -0.495753 2.100324 0.043679 -0.018454 630861.000000 0 1 0
16.329112 -8.311927 -11.912625 21.854946 -0.470842 2.147277 0.040432 -0.010658 -341107.000000 0 1 0
15.013712 -8.812227 -11.941825 21.110994 -0.530765 2.172040 0.026407 -0.017696 -196851.000000 0 1 0
13.982612 -7.748027 -12.319725 20.182195 -0.506000 2.227394 0.021108 -0.014723 -538614.000000 0 1 0
14.228012 -7.219027 -13.647925 20.995631 -0.469535 2.278429 0.025819 -0.010291 677300.000000 0 1 0
15.270812 -6.236427 -13.692525 21.437723 -0.387717 2.263619 0.023549 -0.006788 201856.000000 0 1 0
14.979712 -5.146927 -14.727925 21.628555 -0.330956 2.319853 -0.000892 -0.004974 -226921.000000 0 1 0
13.888412 -4.357827 -14.317225 20.417188 -0.304045 2.347923 0.008632 -0.008096 -346911.000000 0 1 0
13.489812 -3.377127 -15.280225 20.660719 -0.245305 2.403240 -0.005037 -0.014450 -585864.000000 0 1 0
14.386512 -2.140827 -15.349725 21.146369 -0.147724 2.383109 -0.001330 -0.019335 -70843.900000 0 1 0
15.501712 -2.396527 -16.197725 22.548009 -0.153383 2.372247 -0.013287 -0.011257 421466.000000 0 1 0
16.546212 -1.432827 -16.067225 23.108134 -0.086380 2.339642 -0.010872 -0.005303 544306.000000 0 1 0
17.770212 -1.885027 -15.257125 23.497098 -0.105683 2.277486 0.006799 -0.003496 -603869.000000 0 1 0
17.488812 -1.842927 -13.861625 22.391953 -0.104990 2.238322 0.010490 -0.000588 220719.000000 0 1 0
18.579012 -2.284527 -13.082725 22.837610 -0.122349 2.180786 0.014667 0.005513 -169524.000000 0 1 0
18.266412 -2.494927 -11.608725 21.786440 -0.135746 2.132752 0.024988 0.007835 -241836.000000 0 1 0
17.931112 -1.336427 -10.860525 21.006233 -0.074394 2.114156 0.014723 0.003544 686332.000000 0 1 0
17.549212 -1.692127 -9.552325 20.052059 -0.096125 2.067325 0.024850 -0.001042 -1245530.000000 0 1 0
17.486212 -0.541527 -8.565625 19.478984 -0.030959 2.026102 0.015116 -0.000801 324829.000000 0 1 0
18.753912 -0.020727 -8.141825 20.445023 -0.001105 1.980383 0.013630 0.000018 1154900.000000 0 1 0
19.650612 0.467773 -9.117025 21.667614 0.023800 2.005087 0.002580 0.011023 -804340.000000 0 1 0
19.362112 1.842373 -9.704225 21.736092 0.094868 2.033598 -0.002125 0.014027 -738998.000000 0 1 0
19.320612 2.913173 -8.766825 21.415645 0.149653 1.992555 -0.001036 0.016978 515088.000000 0 1 0
18.608412 3.988473 -9.304425 21.183797 0.211142 2.025531 -0.013017 0.006305 -587723.000000 0 1 0
18.692112 5.244473 -8.542625 21.210280 0.273539 1.985325 0.017313 0.001488 -370721.000000 0 1 0
18.108412 6.327973 -9.265525 21.302765 0.336184 2.020773 0.025035 -0.006074 340229.000000 0 1 0
18.605412 7.589373 -8.955225 21.999000 0.387308 1.990045 0.052422 -0.006741 -395946.000000 0 1 0
-25.653558 -29.627127 5.901675 39.632076 0.857155 1.421329 0.023132 -0.004797 22914.300000 0 0 1
-25.825678 -28.547937 6.854475 39.101588 0.835422 1.394587 0.005838 -0.007417 -380550.000000 0 0 1
-24.978888 -27.477517 6.546675 37.706999 0.832995 1.396292 0.024201 -0.011129 -771944.000000 0 0 1
-25.238968 -26.225717 7.399475 37.142240 0.804569 1.370234 0.010508 -0.007200 -232226.000000 0 0 1
-26.449378 -25.563397 7.072975 37.457761 0.768366 1.380830 -0.008068 -0.005982 398367.000000 0 0 1
-27.623038 -26.160887 7.633975 38.803374 0.758219 1.372770 0.005740 -0.004805 -40393.900000 0 0 1
-27.899768 -26.281607 9.172575 39.411370 0.755541 1.335903 -0.014793 -0.000228 -636211.000000 0 0 1
-26.949828 -27.050667 9.866775 39.438370 0.787266 1.317928 -0.010120 0.000190 -148647.000000 0 0 1
-27.359028 -27.237377 11.201775 40.197896 0.783170 1.288392 -0.000546 0.001432 -77924.400000 0 0 1
-26.325858 -27.990517 12.111675 40.289112 0.816036 1.265455 0.000686 -0.000711 211789.000000 0 0 1
-25.159338 -27.265627 12.372175 39.108534 0.825554 1.248912 0.004720 -0.000107 -466590.000000 0 0 1
-25.334718 -26.375307 13.504075 38.985443 0.805519 1.217079 0.014567 0.000664 -738963.000000 0 0 1
-24.042588 -25.783777 14.061175 37.954787 0.820329 1.191279 0.033122 -0.007000 -210619.000000 0 0 1
-23.321588 -26.696347 14.893175 38.449942 0.852767 1.173052 0.045664 -0.011958 -169494.000000 0 0 1
-22.259788 -26.108417 15.597675 37.688660 0.864800 1.144111 0.042065 -0.014442 472137.000000 0 0 1
-21.272588 -27.246567 16.132375 38.146454 0.907908 1.134146 0.035446 -0.016859 243587.000000 0 0 1
-21.809288 -28.005567 17.199475 39.443362 0.909149 1.119586 0.041930 -0.013433 165153.000000 0 0 1
-21.177188 -29.247647 17.323675 40.050067 0.944101 1.123477 0.042846 -0.013853 -223674.000000 0 0 1
-21.983588 -30.135677 18.294975 41.546881 0.940553 1.114813 0.041394 -0.013930 -317538.000000 0 0 1
-23.136188 -30.648717 17.701075 42.284218 0.924178 1.138870 0.021924 -0.010925 -184983.000000 0 0 1
-23.645588 -31.696107 18.501175 43.658338 0.929854 1.133191 0.027875 -0.008280 -226913.000000 0 0 1
-24.778788 -32.547137 17.903975 44.652624 0.920090 1.158230 0.021723 -0.011517 -89440.300000 0 0 1
-24.336788 -33.218397 16.759075 44.459057 0.938505 1.184289 0.024207 -0.011548 321532.000000 0 0 1
-25.269348 -34.221853 16.404475 45.593662 0.934762 1.202746 0.018070 -0.009434 -681820.000000 0 0 1
-24.856488 34.009913 15.208775 44.786449 -0.939658 1.224321 0.009655 -0.016069 536859.000000 0 0 1
-23.692788 33.169816 15.366775 43.562859 -0.950546 1.210288 0.001036 -0.021772 846682.000000 0 0 1
-22.524288 33.911980 15.084375 43.415485 -0.984504 1.215954 0.003640 -0.021493 -511245.000000 0 0 1
-21.168888 33.190181 15.231575 42.210316 -1.003041 1.201618 0.013435 -0.025597 217794.000000 0 0 1
-21.048388 32.199077 14.226775 41.014831 -0.991828 1.216566 0.009076 -0.019461 933601.000000 0 0 1
-19.722188 31.627617 14.280775 39.915052 -1.013222 1.204908 0.014468 -0.021743 793896.000000 0 0 1
-19.560288 30.523527 13.244775 38.596822 -1.000897 1.220520 0.005176 -0.024940 -55832.100000 0 0 1
-19.349988 31.058947 12.047475 38.525600 -1.013630 1.252748 -0.001125 -0.017464 -128274.000000 0 0 1
-19.568288 30.192337 10.907575 37.596147 -0.995743 1.276439 0.007098 -0.019447 25858.700000 0 0 1
-19.229588 30.960327 9.623375 37.695202 -1.015003 1.312644 -0.002482 -0.010540 -351009.000000 0 0 1
-17.835588 30.988417 9.416475 36.973777 -1.048544 1.313280 0.001717 -0.021281 -369659.000000 0 0 1
-17.534188 31.698877 8.226275 37.147519 -1.065539 1.347496 0.006544 -0.019830 -101693.000000 0 0 1
-16.726988 30.859327 7.258775 35.843828 -1.074085 1.366875 0.010934 -0.012751 -289221.000000 0 0 1
-17.495288 29.811377 6.657975 35.201306 -1.040090 1.380510 0.005220 -0.008477 230088.000000 0 0 1
-17.409388 28.638897 7.384375 34.319123 -1.024593 1.353933 -0.000607 -0.013904 -474655.000000 0 0 1
-18.401788 27.683607 6.750575 33.920173 -0.984144 1.370445 -0.001120 -0.004792 -76192.600000 0 0 1
-17.926688 26.993237 5.574575 32.879733 -0.984560 1.400429 0.010533 -0.005361 618029.000000 0 0 1
-19.038388 26.332437 4.984775 32.874085 -0.944799 1.418577 -0.000986 -0.004487 -122762.000000 0 0 1
-18.673288 25.520017 3.741775 31.842799 -0.939103 1.453016 0.015585 -0.012881 -1400260.000000 0 0 1
-18.400788 26.308197 2.616075 32.211086 -0.960452 1.489490 0.023964 -0.002198 1027410.000000 0 0 1
-17.103488 26.917977 2.400375 31.982317 -1.004758 1.495672 0.019790 -0.006231 1448290.000000 0 0 1
-15.842188 25.947617 2.504475 30.504527 -1.022659 1.488602 0.021734 -0.014594 27899.700000 0 0 1
-15.919488 24.774187 1.681075 29.496041 -0.999652 1.513772 0.032919 -0.020612 20238.400000 0 0 1
-15.857388 25.117397 0.257775 29.705333 -1.007657 1.562118 0.026284 -0.010748 -360485.000000 0 0 1
-15.522088 23.841787 -0.536125 28.454410 -0.993686 1.589639 0.034290 -0.018624 596304.000000 0 0 1
-16.604688 22.879887 -0.703225 28.278957 -0.943008 1.595666 0.041303 -0.029869 874200.000000 0 0 1
-16.295088 21.741787 -1.489725 27.211293 -0.927627 1.625570 0.046007 -0.026937 203931.000000 0 0 1
-15.155488 20.822387 -0.958825 25.771689 -0.941625 1.608009 0.044742 -0.028233 347270.000000 0 0 1
-15.708288 19.741987 -0.203825 25.229703 -0.898696 1.578875 0.058287 -0.035775 403370.000000 0 0 1
-14.690188 18.833687 0.210475 23.886266 -0.908373 1.561985 0.066082 -0.043087 -19820.200000 0 1 0
-15.125088 17.635087 1.096075 23.258675 -0.861866 1.523653 0.044378 -0.043259 -187866.000000 0 1 0
-15.761888 16.657487 0.336875 22.935180 -0.813017 1.556108 0.048572 -0.036533 265456.000000 0 1 0
-16.517188 15.830087 1.198875 22.909527 -0.764160 1.518442 0.054918 -0.046298 557083.000000 0 1 0
-17.463788 14.718087 0.559575 22.845549 -0.700286 1.546300 0.074619 -0.040435 -57412.100000 0 1 0
-18.487588 15.121287 -0.289125 23.885724 -0.685570 1.582901 0.085426 -0.038308 -368777.000000 0 1 0
-19.319188 14.036587 -0.540925 23.886176 -0.628331 1.593444 0.074886 -0.027203 -22399.700000 0 1 0
-20.435188 14.432087 -1.613925 25.069639 -0.614900 1.635219 0.076129 -0.016247 128513.000000 0 0 1
-21.248088 13.395887 -2.145425 25.209797 -0.562510 1.656002 0.047756 -0.015358 1274940.000000 0 0 1
-22.287288 12.849287 -1.292225 25.758440 -0.522983 1.620984 0.049627 -0.018532 212762.000000 0 0 1
-23.541988 13.721187 -1.061125 27.269436 -0.527705 1.609719 0.035530 -0.013864 -806375.000000 0 0 1
-23.328988 14.993787 -0.497625 27.736311 -0.571234 1.588739 0.037921 -0.021878 209333.000000 0 0 1
-24.529688 15.616887 -0.075025 29.079174 -0.566935 1.573376 0.036742 -0.012975 -347685.000000 0 0 1
-24.293288 16.770887 0.841075 29.531913 -0.604220 1.542312 0.036655 -0.017543 -38988.500000 0 0 1
-23.726388 16.425087 2.089875 28.932552 -0.605520 1.498501 0.046329 -0.019838 365512.000000 0 0 1
-23.134088 17.496987 2.814175 29.141897 -0.647540 1.474078 0.036039 -0.026100 -144150.000000 0 0 1
-24.133988 18.434787 3.512075 30.571644 -0.652307 1.455662 0.032488 -0.022964 -1141620.000000 0 0 1
-24.937788 17.733287 4.499975 30.929153 -0.618138 1.424785 0.031958 -0.020182 715744.000000 0 0 1
-26.238818 18.298287 4.573575 32.314400 -0.608962 1.428786 0.024963 -0.021505 345041.000000 0 0 1
-27.146888 18.202887 3.324175 32.853444 -0.590675 1.469441 0.018966 -0.016563 -1724860.000000 0 0 1
-28.338178 18.937587 3.392175 34.251881 -0.589113 1.471598 0.011005 -0.011626 -146637.000000 0 0 1
-28.890968 19.001187 2.091375 34.642560 -0.581759 1.510389 0.012870 -0.007467 131752.000000 0 0 1
-30.197058 19.847587 1.921975 36.186779 -0.581468 1.517659 0.011243 -0.016509 648617.000000 0 0 1
-31.298898 19.259187 2.623575 36.843187 -0.551616 1.499527 0.027860 -0.008304 -124400.000000 0 0 1
-32.481178 19.976187 2.446875 38.210760 -0.551382 1.506716 0.015806 -0.010731 -552798.000000 0 0 1
-32.888258 20.603587 3.784275 38.993154 -0.559657 1.473594 0.017257 -0.014349 -765732.000000 0 0 1
-31.922368 21.460687 4.328175 38.708290 -0.591877 1.458747 0.027544 -0.016554 27236.300000 0 0 1
-32.340518 22.144787 5.485075 39.577604 -0.600410 1.431758 0.028900 -0.018196 -715455.000000 0 0 1
-31.361408 23.224687 5.972375 39.479023 -0.637426 1.418934 0.037030 -0.020399 -320253.000000 0 0 1
-31.351548 24.402527 5.227675 40.071579 -0.661401 1.439965 0.032026 -0.016985 78396.200000 0 0 1
-30.414638 25.285107 5.756075 39.968978 -0.693565 1.426280 0.031248 -0.015432 -427081.000000 0 0 1
-30.683628 26.743297 5.350575 41.052620 -0.716891 1.440090 0.022264 -0.009475 -486229.000000 0 0 1
-31.740798 27.174897 6.151275 42.234955 -0.708054 1.424632 0.031816 -0.005820 -262284.000000 0 0 1
-31.962688 28.593037 5.961875 43.298027 -0.729810 1.432664 0.023033 -0.006040 -14482.900000 0 0 1
-33.038918 29.091297 6.937775 44.564631 -0.721946 1.414482 0.020504 -0.001714 -296738.000000 0 0 1
-32.448898 28.992647 8.200375 44.280365 -0.729205 1.384529 0.024577 -0.000926 491415.000000 0 0 1
-33.189188 29.607397 9.264175 45.430662 -0.728422 1.365437 0.023503 -0.002952 1508680.000000 0 0 1
-34.603511 28.982717 9.676475 46.163135 -0.697231 1.359615 0.017450 0.004022 1400440.000000 0 0 1
-34.301783 27.769417 10.381575 45.337952 -0.680544 1.339765 0.027197 -0.007019 945577.000000 0 0 1
35.390886 27.262167 11.071875 46.025286 0.656377 1.327853 0.021233 -0.004326 648699.000000 0 0 1
-35.036923 26.083747 11.924375 45.278456 -0.639949 1.304296 0.036772 -0.004382 15731.000000 0 0 1
-34.023608 26.357397 12.883975 44.925662 -0.659110 1.279928 0.049631 -0.011107 -639.973000 0 0 1
-33.715748 25.259887 13.690775 44.297301 -0.642990 1.256586 0.055844 -0.012368 -69867.000000 0 0 1
-32.411018 25.608287 14.439175 43.757836 -0.668682 1.234515 0.054084 -0.014222 -160301.000000 0 0 1
-32.609568 26.657547 15.339875 44.825445 -0.685307 1.221525 0.049212 -0.012883 -1636640.000000 0 0 1
-31.520038 26.966667 16.065775 44.483964 -0.707702 1.201286 0.059776 -0.010512 -1342420.000000 0 0 1
-31.788678 28.104427 17.066175 45.734376 -0.723962 1.188385 0.053245 -0.012861 -166695.000000 0 0 1
-31.788198 29.356957 16.435475 46.286556 -0.745657 1.207796 0.065143 -0.018742 -11830.300000 0 0 1
-32.179858 30.410067 17.270975 47.524752 -0.757130 1.198871 0.050994 -0.012361 -14921.200000 0 0 1
-31.901858 31.789967 16.595275 47.997226 -0.783641 1.217753 0.042522 -0.011737 564833.000000 0 0 1
-30.505668 32.023417 16.426675 47.179770 -0.809666 1.215176 0.032421 -0.006858 338040.000000 0 0 1
-30.337298 33.191548 15.720675 47.635807 -0.830296 1.234474 0.023419 -0.001658 614031.000000 0 0 1
-28.825888 33.369764 15.296075 46.673792 -0.858326 1.236904 0.032872 -0.005398 921586.000000 0 0 1
-28.366338 32.519637 14.230875 45.438901 -0.853507 1.252249 0.022741 -0.003879 435099.000000 0 0 1
-27.970708 31.156927 14.563375 44.330650 -0.839233 1.236063 0.029766 -0.008485 36475.200000 0 0 1
-29.016778 30.057907 14.210475 44.129228 -0.803020 1.242934 0.043426 -0.005906 297897.000000 0 0 1
-28.973168 29.863407 12.846775 43.546609 -0.800528 1.271328 0.051475 -0.008920 -691305.000000 0 0 1
-29.908268 28.954947 12.454475 43.451207 -0.769204 1.280088 0.044605 -0.008912 -643596.000000 0 0 1
-30.006448 28.761527 10.933475 42.978520 -0.764218 1.313575 0.054568 -0.008259 28338.100000 0 0 1
-28.953038 27.972127 10.409875 41.582253 -0.768168 1.317761 0.056887 -0.003129 -32925.000000 0 0 1
-29.001698 27.881697 9.032075 41.231855 -0.765711 1.349950 0.051362 -0.009545 33941.600000 0 0 1
-27.850688 27.041717 8.443775 39.726724 -0.770662 1.356616 0.048897 -0.002020 216235.000000 0 0 1
-27.616138 27.387127 7.106375 39.537405 -0.781235 1.390076 0.030251 -0.003829 -344232.000000 0 0 1
-26.486708 26.678197 6.646975 38.176618 -0.789000 1.395793 0.030264 -0.008031 -344503.000000 0 0 1
-26.176998 27.028997 5.189775 37.983360 -0.801410 1.433735 0.038511 -0.009683 -392227.000000 0 0 1
-25.617988 28.286467 4.983075 38.486836 -0.834862 1.440957 0.033082 -0.002016 44374.800000 0 0 1
-25.445098 28.481257 3.603975 38.361747 -0.841641 1.476710 0.025759 0.002259 169535.000000 0 0 1
-24.384188 29.599457 3.312975 38.492756 -0.881708 1.484622 0.021434 0.004675 11740.500000 0 0 1
-23.102388 29.270297 3.762575 37.478362 -0.902628 1.470234 0.019372 0.001276 -427544.000000 0 0 1
-22.130188 30.193147 3.334875 37.583144 -0.938294 1.481946 0.015271 0.005355 -2096.070000 0 0 1
-20.683788 29.887787 3.753575 36.540227 -0.965427 1.467890 0.000432 0.001204 -798917.000000 0 0 1
-19.795688 30.748657 3.200775 36.709592 -0.998799 1.483494 -0.001782 0.003010 -1200980.000000 0 0 1
-18.509788 30.421117 3.687175 35.800166 -1.024185 1.467620 0.003486 -0.005233 144202.000000 0 0 1
-17.349388 31.294777 3.165675 35.921941 -1.064592 1.482555 0.005098 -0.006845 -185198.000000 0 0 1
-17.346488 32.646907 3.701975 37.154082 -1.082395 1.470992 0.000741 -0.006172 -445573.000000 0 0 1
-16.336888 33.403583 3.126975 37.315831 -1.115926 1.486900 0.018370 0.001679 -477847.000000 0 0 1
-16.062188 -34.482186 3.981175 38.247416 1.134872 1.466517 0.021491 -0.001634 92681.300000 0 0 1
-16.963288 -33.376307 3.904275 37.642720 1.100576 1.466890 0.017637 -0.000779 30026.300000 0 0 1
-16.647288 -32.419627 4.893175 36.771016 1.096412 1.437329 0.011578 -0.007053 72967.600000 0 0 1
-17.697088 -31.311737 5.216375 36.343120 1.056366 1.426768 0.017909 0.001209 25539.700000 0 0 1
-17.875988 -30.258057 4.301875 35.406314 1.037181 1.448995 0.024559 0.011298 48622.500000 0 0 1
-18.905588 -29.335877 4.581375 35.199488 0.998331 1.440271 0.030297 0.006605 35092.300000 0 0 1
-19.528588 -28.660687 3.306775 34.838707 0.972682 1.475737 0.021602 -0.002934 -85547.700000 0 0 1
-18.825988 -27.497797 2.943375 33.454598 0.970456 1.482701 0.027565 0.000472 49237.400000 0 0 1
-19.273688 -26.879207 1.733475 33.120564 0.948720 1.518434 0.028897 0.001915 -131345.000000 0 0 1
-18.406088 -25.679467 1.342975 31.623135 0.948909 1.528315 0.019747 0.002600 173657.000000 0 0 1
-17.127688 -26.085267 0.881075 31.218186 0.989793 1.542569 0.007757 0.008899 46022.600000 0 0 1
-16.185388 -25.029977 1.088675 29.827031 0.996787 1.534289 0.012250 0.014370 363376.000000 0 0 1
-14.848888 -25.242127 0.341875 29.287733 1.039055 1.559123 0.029347 0.004496 -179784.000000 0 0 1
-14.846788 -25.210037 -1.101425 29.277743 1.038561 1.608425 0.023575 0.005811 54075.000000 0 0 1
-14.960088 -23.912527 -1.660825 28.255469 1.011753 1.629609 0.032828 0.003849 -213458.000000 0 0 1
-14.992588 -23.769027 -3.187225 28.282552 1.008065 1.683728 0.010503 0.008883 117019.000000 0 0 1
-13.823788 -24.185127 -3.878325 28.125769 1.051534 1.709129 0.023091 0.004390 -2358.270000 0 0 1
-14.043788 -24.091327 -5.290325 28.383227 1.043016 1.758282 0.016268 0.006229 788588.000000 0 0 1
-12.906488 -24.682927 -6.231625 28.542205 1.089004 1.790899 0.021524 -0.000492 713514.000000 0 0 1
-12.943988 -26.090317 -6.297825 29.797887 1.110256 1.783754 -0.006552 0.004029 129606.000000 0 0 1
-11.702388 -26.612457 -6.774125 29.850587 1.156513 1.799725 0.004993 0.003568 689006.000000 0 0 1
22.891212 13.252773 28.545077 38.916128 0.524795 0.747335 0.017919 -0.001135 -236275.000000 0 0 1
23.690812 12.136373 28.793217 39.212185 0.473425 0.746172 0.017248 -0.009431 13781.800000 0 0 1
23.028412 11.127973 29.560067 39.088836 0.450140 0.713268 0.021705 -0.012737 -325932.000000 0 0 1
22.818212 11.279673 31.094377 40.184103 0.459099 0.685981 0.021870 -0.012706 -223239.000000 0 0 1
21.879312 12.201273 31.527367 40.268477 0.508707 0.671436 0.018122 -0.003136 -51058.400000 0 0 1
22.277712 12.534673 32.846988 41.621378 0.512507 0.661315 0.019524 -0.007040 -64468.600000 0 0 1
21.461812 13.672673 33.533190 42.095442 0.567232 0.649148 0.014600 0.007709 -480604.000000 0 0 1
20.225512 13.251973 33.998491 41.720301 0.580030 0.618214 0.018099 0.003950 106426.000000 0 0 1
19.316212 14.308673 34.418210 41.981750 0.637561 0.609669 0.009243 0.012711 766850.000000 0 0 1
18.068812 13.756473 -33.743795 40.673901 0.650718 2.549219 0.013274 0.014912 -76702.700000 0 0 1
17.052912 13.273673 34.308360 40.546958 0.661419 0.562098 0.003035 0.010415 -2194.710000 0 0 1
16.084312 12.623673 -33.777275 39.483750 0.665431 2.597260 -0.002521 0.009159 124650.000000 0 0 1
14.774712 12.341673 34.362640 39.387816 0.695912 0.510668 0.000397 0.008841 16447.500000 0 0 1
14.903812 11.277973 33.391725 38.266481 0.647786 0.510275 -0.009344 0.015081 -595735.000000 0 0 1
13.675012 10.889373 32.857519 37.218288 0.672479 0.488937 -0.000195 0.012986 -425288.000000 0 0 1
13.753912 9.811573 31.813687 36.021490 0.619640 0.488183 -0.001958 0.017793 -89034.700000 0 0 1
14.004212 8.532773 32.364407 36.281965 0.547230 0.468991 -0.015720 0.015968 116559.000000 0 0 1
14.814212 7.763573 31.477707 35.645196 0.482712 0.488401 -0.019056 0.005460 355709.000000 0 0 1
15.194012 6.328773 31.947107 35.937849 0.394675 0.475739 -0.004746 -0.003427 -226623.000000 0 0 1
14.179212 5.390073 31.790447 35.224075 0.363269 0.445210 -0.009764 -0.002537 6502.400000 0 0 1
14.655912 4.177673 32.390407 35.796469 0.277686 0.439771 -0.003896 -0.006206 1115650.000000 0 0 1
13.424912 3.201873 32.397117 35.214393 0.234128 0.402725 -0.002611 -0.004372 474273.000000 0 0 1
13.805212 1.894673 32.851348 35.684517 0.136391 0.401169 0.007044 -0.009818 -375998.000000 0 0 1
12.771112 1.043173 33.246002 35.629849 0.081501 0.367874 0.021486 -0.010984 -1038840.000000 0 0 1
13.308912 -0.309627 33.715928 36.248956 -0.023260 0.376053 0.006884 -0.012363 20494.400000 0 0 1
13.787412 -1.167027 32.687437 35.495397 -0.084443 0.400433 0.013816 -0.011216 31006.900000 0 0 1
14.205312 -2.389627 33.237981 36.225193 -0.166660 0.408953 0.043791 -0.018285 -352273.000000 0 0 1
14.361512 -3.590527 32.196247 35.436468 -0.244988 0.430966 0.045485 -0.022112 -710390.000000 0 0 1
14.785212 -4.877927 32.600557 36.127455 -0.318675 0.445544 0.054376 -0.025680 945310.000000 0 0 1
16.099312 -4.949727 33.181700 37.211730 -0.298277 0.469709 0.050832 -0.026694 1277560.000000 0 0 1
17.358312 -4.636627 32.291227 36.953114 -0.261019 0.507745 0.053244 -0.026230 -159503.000000 0 0 1
17.519712 -3.268527 32.132567 36.744053 -0.184442 0.506398 0.049321 -0.023510 -6963.160000 0 0 1
18.674312 -2.943227 31.401677 36.653211 -0.156322 0.541913 0.048912 -0.025116 -150264.000000 0 0 1
18.685412 -1.399427 31.270127 36.454408 -0.074755 0.539847 0.051341 -0.023271 -584588.000000 0 0 1
18.900512 -0.761827 32.547817 37.645320 -0.040285 0.526460 0.044150 -0.021183 140931.000000 0 0 1
18.600012 0.608273 32.573987 37.515265 0.032691 0.519059 0.036479 -0.013319 126949.000000 0 0 1
19.708912 1.595073 32.060757 37.667992 0.080756 0.552642 0.040613 -0.008456 -15654.900000 0 0 1
19.727512 1.568373 30.645837 36.480157 0.079335 0.573387 0.043849 -0.014655 10853.200000 0 0 1
20.421612 2.582773 29.987087 36.372220 0.125805 0.601566 0.025480 -0.008031 -135437.000000 0 0 1
19.757912 3.991873 30.161467 36.277048 0.199356 0.589138 0.016373 -0.003203 -234870.000000 0 0 1
19.972112 4.653273 31.409157 37.510977 0.228905 0.578411 0.018610 -0.001112 676677.000000 0 0 1
19.227512 5.879173 31.460227 37.336414 0.296741 0.568675 0.015188 -0.001676 -48271.300000 0 0 1
19.102612 6.465973 32.880995 38.573027 0.326381 0.550171 0.017933 -0.003008 -421014.000000 0 0 1
18.053612 5.824673 33.549852 38.541566 0.312089 0.514610 0.013636 -0.004138 -144087.000000 0 0 1
17.890112 6.304073 -34.052775 38.979340 0.338791 2.633370 0.008354 -0.000585 116472.000000 0 0 1
16.750512 5.445273 -33.433565 37.789336 0.314305 2.656722 0.017687 0.002722 60807.200000 0 0 1
17.026012 4.036873 -33.329065 37.643167 0.232801 2.658139 0.017091 -0.004404 -46112.500000 0 0 1
15.920612 3.330373 -32.810245 36.620615 0.206213 2.681362 0.009973 -0.001912 -65424.500000 0 0 1
16.017412 1.827473 -33.195165 36.902793 0.113602 2.689489 0.009487 -0.013482 -580153.000000 0 0 1
16.963512 1.113973 -32.504435 36.681603 0.065575 2.659709 0.011519 -0.007672 -589009.000000 0 0 1
17.030912 -0.204327 -33.018295 37.152409 -0.011997 2.665354 0.015689 -0.008199 -326752.000000 0 0 1
18.204312 -1.013027 -32.424435 37.199021 -0.055590 2.629350 0.022091 -0.007443 -180532.000000 0 0 1
18.110312 -1.409227 -31.077445 35.996901 -0.077657 2.612641 0.020637 -0.003208 307488.000000 0 0 1
18.256712 -0.340827 -30.147885 35.246541 -0.018666 2.597009 0.017879 0.002466 -415679.000000 0 0 1
17.951812 -0.678027 -28.662985 33.827415 -0.037751 2.581734 0.008248 0.005827 711494.000000 0 0 1
16.534912 -0.577427 -28.392905 32.861737 -0.034908 2.613979 0.009041 0.002049 1078290.000000 0 0 1
16.118112 -0.579527 -27.012115 31.460829 -0.035940 2.603319 -0.003224 0.001776 -215320.000000 0 0 1
16.688612 -1.535727 -25.939935 30.882818 -0.091764 2.567982 -0.000612 0.007980 -501773.000000 0 0 1
17.992812 -1.129127 -25.551115 31.271004 -0.062672 2.527135 0.013231 -0.001726 77027.400000 0 0 1
18.789612 -2.248527 -25.216095 31.527081 -0.119102 2.497797 0.009037 -0.000628 335541.000000 0 0 1
19.589012 -2.986927 -26.331605 32.954583 -0.151314 2.496472 0.018224 -0.000568 118973.000000 0 0 1
20.621912 -2.165527 -26.882035 33.949913 -0.104628 2.484571 0.033314 0.001996 157230.000000 0 0 1
21.080512 -2.573727 -28.151125 35.263266 -0.121489 2.495285 0.033117 -0.007897 57537.400000 0 0 1
22.472912 -2.020127 -28.544455 36.385417 -0.089651 2.472690 0.023333 -0.012413 261752.000000 0 0 1
23.564512 -2.805827 -28.119425 36.794850 -0.118512 2.440630 0.018476 -0.013212 -554487.000000 0 0 1
24.753312 -2.459427 -28.766215 38.029862 -0.099032 2.428605 0.014214 -0.010403 -240521.000000 0 0 1
25.922812 -3.439927 -28.639655 38.782150 -0.131928 2.401602 0.017213 -0.009856 6473.890000 0 0 1
25.563712 -4.685927 -29.193235 39.085883 -0.181291 2.414184 0.015091 -0.015323 307402.000000 0 0 1
26.663912 -5.563527 -29.074955 39.840558 -0.205703 2.388801 0.014817 -0.016990 65694.000000 0 0 1
26.551812 -6.663527 -27.982515 39.146168 -0.245885 2.367165 0.014981 -0.013140 -165267.000000 0 0 1
26.800312 -6.144527 -26.707935 38.331785 -0.225376 2.341663 0.020713 0.000510 266200.000000 0 0 1
26.482912 -7.079427 -25.676735 37.560054 -0.261213 2.323505 0.005432 0.001817 -211264.000000 0 0 1
26.514112 -6.550127 -24.268525 36.535785 -0.242194 2.297273 0.001972 0.002743 -383945.000000 0 0 1
27.827512 -6.326027 -23.832125 37.180092 -0.223531 2.266586 0.004639 0.001516 -85481.300000 0 0 1
27.896112 -5.746727 -22.558325 36.333125 -0.203162 2.240655 0.013917 -0.006254 7947.200000 0 0 1
29.343612 -5.458127 -22.093525 37.134385 -0.183906 2.208014 0.009957 -0.000938 -127912.000000 0 0 1
29.886112 -4.307227 -22.658525 37.751035 -0.143136 2.214559 0.016155 -0.005447 -715603.000000 0 0 1
31.166012 -4.048027 -22.208525 38.482794 -0.129163 2.185973 0.011151 0.000218 -742533.000000 0 0 1
31.842812 -2.801927 -22.750425 39.235154 -0.087766 2.189338 0.013151 -0.000973 81145.400000 0 0 1
31.140712 -1.630627 -22.286925 38.328970 -0.052315 2.191324 0.007620 0.002399 187438.000000 0 0 1
31.679712 -0.483927 -22.830725 39.052277 -0.015274 2.195207 -0.002862 0.002351 67283.000000 0 0 1
30.806312 0.844973 -22.624625 38.231093 0.027422 2.204069 0.002695 0.012499 418586.000000 0 0 1
29.658412 0.762073 -23.449125 37.816182 0.025689 2.239643 0.001811 0.006458 71755.400000 0 0 1
28.735312 1.785473 -23.136425 36.935081 0.062055 2.247733 -0.008853 0.010232 238250.000000 0 0 1
27.419912 1.800073 -23.957825 36.456402 0.065554 2.287846 -0.005048 0.010203 -168997.000000 0 0 1
26.592812 2.860873 -23.592325 35.664549 0.107169 2.293622 0.000204 0.007682 -513841.000000 0 0 1
25.582212 2.963873 -24.576425 35.598241 0.115343 2.332815 0.022696 0.002356 -129816.000000 0 0 1
24.491212 3.962073 -24.138525 34.614822 0.160386 2.342485 0.021685 0.000874 -230293.000000 0 0 1
24.970812 5.285773 -24.156425 35.142762 0.208599 2.328672 0.005517 0.007080 950869.000000 0 0 1
23.876512 6.206573 -23.922525 34.364176 0.254316 2.340813 0.016705 0.002571 611835.000000 0 0 1
24.376912 7.434773 -23.263825 34.506742 0.296031 2.310653 0.016902 0.001141 109186.000000 0 0 1
25.144912 8.317173 -24.086925 35.799748 0.319441 2.308816 0.009549 0.004774 282983.000000 0 0 1
25.150812 9.563073 -23.404425 35.662064 0.363347 2.286679 0.013857 -0.000602 -352130.000000 0 0 1
26.076512 10.564073 -24.089125 37.038764 0.384911 2.278876 0.033111 -0.004147 -501015.000000 0 0 1
25.751312 10.955973 -25.459095 37.832908 0.402254 2.308966 0.034081 -0.007647 36917.400000 0 0 1
24.561412 11.676073 -25.658945 37.389505 0.443761 2.327132 0.042243 -0.014407 -126733.000000 0 0 1
24.154712 11.910873 -27.126345 38.225091 0.458119 2.359794 0.033501 -0.019437 -116880.000000 0 0 1
23.737512 10.793973 -27.895645 38.185682 0.426774 2.389889 0.030637 -0.012669 608768.000000 0 0 1
24.789912 9.896973 -28.279775 38.887472 0.379846 2.385060 0.025413 -0.014562 475596.000000 0 0 1
25.590712 10.285473 -29.577595 40.441434 0.382162 2.391123 0.016441 -0.008695 -758928.000000 0 0 1
26.455012 11.369873 -29.277555 41.064789 0.405914 2.364507 0.009128 -0.002118 498734.000000 0 0 1
27.109612 11.900973 -30.459895 42.477870 0.413664 2.370396 0.004906 -0.002129 667835.000000 0 0 1
28.091012 10.987073 -31.269965 43.446881 0.372831 2.374208 0.005095 -0.008660 -311068.000000 0 0 1
27.379412 10.033373 -32.023895 43.310860 0.351260 2.402970 0.013264 -0.010009 -17834.800000 0 0 1
28.266512 9.099073 -32.517015 44.035725 0.311428 2.401526 0.008467 -0.008264 -283430.000000 0 0 1
27.471012 8.047273 -33.325995 43.932187 0.284964 2.431924 0.022997 -0.014155 -333053.000000 0 0 1
26.538312 7.343273 -32.610415 42.680731 0.269950 2.440371 0.025600 -0.008704 -686100.000000 0 0 1
25.922112 6.352873 -33.421905 42.770768 0.240338 2.467733 0.040204 -0.012010 -427772.000000 0 0 1
24.832212 5.629673 -32.620865 41.381793 0.222940 2.478822 0.041585 -0.005459 978777.000000 0 0 1
23.514412 6.237973 -32.607175 40.682524 0.259310 2.500601 0.035172 -0.008008 875570.000000 0 0 1
23.360512 7.184473 -31.609595 39.956184 0.298367 2.483412 0.034534 -0.009127 -1054020.000000 0 0 1
21.941912 7.669573 -31.406145 39.071931 0.336265 2.504457 0.037847 -0.008779 -663226.000000 0 0 1
21.497912 8.456973 -32.501515 39.875169 0.374791 2.523666 0.031107 -0.007048 350927.000000 0 0 1
20.115312 8.760973 -32.310205 39.055470 0.410762 2.545063 0.029099 -0.006181 515048.000000 0 0 1
19.463512 9.765573 -33.305935 39.792964 0.465037 2.562538 0.025638 -0.003252 -123409.000000 0 0 1
19.342712 9.284373 34.285956 40.445851 0.447515 0.559162 0.024197 -0.000381 9444.790000 0 0 1
19.182512 10.366173 33.442339 39.922630 0.495441 0.577777 0.014663 0.000676 -185403.000000 0 0 1
18.122812 10.226673 32.334697 38.451967 0.513755 0.571831 0.005850 0.003185 -142214.000000 0 0 1
18.352012 9.204073 31.376367 37.496503 0.464870 0.579419 0.006551 0.001894 -3033.350000 0 0 1
19.451412 9.312673 30.496207 37.351064 0.446516 0.615517 0.019226 -0.000551 -536401.000000 0 0 1
19.146512 10.217973 29.288267 36.452688 0.490222 0.637713 0.027259 -0.008752 -46207.300000 0 0 1
18.176512 9.684473 28.381737 35.067044 0.489543 0.627741 0.009774 -0.001844 1110150.000000 0 0 1
16.888612 10.256273 28.678867 34.826624 0.545762 0.603287 0.003055 -0.001423 1499600.000000 0 0 1
15.621312 9.631673 27.928327 33.418348 0.552516 0.581357 0.009146 0.001269 684792.000000 0 0 1
15.514112 10.045273 26.551317 32.350697 0.574611 0.608102 0.016833 -0.003194 -137287.000000 0 0 1
14.375812 9.594273 25.839057 31.086507 0.588503 0.589536 0.026999 -0.006459 -77631.100000 0 0 1
14.355012 8.101873 25.389177 30.270729 0.513827 0.575837 0.022926 0.001989 -201568.000000 0 0 1
14.185612 7.169973 26.418237 30.831207 0.467990 0.541635 0.007926 0.003339 -85457.000000 0 0 1
13.988212 5.887373 25.919187 30.035571 0.398377 0.529718 0.015838 -0.000933 -102200.000000 0 0 1
13.957212 4.841373 27.017227 30.792422 0.333886 0.500384 0.015562 0.007359 -730836.000000 0 0 1
15.246512 4.628073 27.485137 31.769607 0.294710 0.525368 0.006999 0.005627 -603455.000000 0 0 1
15.270612 4.088573 28.755747 32.814646 0.261605 0.502651 -0.011544 0.005751 -113815.000000 0 0 1
16.452812 3.136173 29.042627 33.526181 0.188357 0.523115 0.012543 -0.002515 -521821.000000 0 0 1
16.261512 1.738373 28.986587 33.281841 0.106497 0.513678 0.016073 -0.001346 52565.400000 0 0 1
15.672712 1.188273 30.164367 34.013746 0.075673 0.480360 0.015397 -0.004339 -69653.000000 0 0 1
15.439212 -0.395427 30.147517 33.873270 -0.025606 0.473431 0.023114 -0.008993 -243983.000000 0 0 1
14.463912 -0.903527 29.251327 32.644467 -0.062387 0.459988 0.016347 -0.004127 408394.000000 0 0 1
14.868312 -0.803827 27.878097 31.605397 -0.054011 0.490563 0.022867 -0.000787 -231118.000000 0 0 1
15.944912 -1.875827 27.399407 31.756676 -0.117106 0.530030 0.027020 -0.005977 1982080.000000 0 0 1
17.336512 -1.740627 27.770137 32.783608 -0.100067 0.560341 0.038871 -0.012270 1282250.000000 0 0 1
17.924812 -0.513727 27.313807 32.674254 -0.028652 0.580948 0.036009 -0.007854 -1189260.000000 0 0 1
19.399312 -0.388127 27.729207 33.843654 -0.020005 0.610550 0.045297 -0.003326 432975.000000 0 0 1
20.258312 -1.175927 26.885087 33.683674 -0.057982 0.646555 0.036426 -0.005930 -39736.400000 0 0 1
21.631912 -1.129527 27.149747 34.732179 -0.052168 0.673428 0.034877 -0.009142 164847.000000 0 0 1
22.506112 -1.644827 25.934317 34.377599 -0.072954 0.716063 0.044638 -0.001264 -247178.000000 0 0 1
22.525012 -0.997127 24.713857 33.453627 -0.044239 0.739583 0.048010 0.004943 259995.000000 0 0 1
21.532112 -1.463227 23.812987 32.137692 -0.067851 0.736286 0.043943 0.015139 -213976.000000 0 0 1
21.377712 -0.628927 22.471587 31.022159 -0.029411 0.760673 0.033678 -0.001948 -278093.000000 0 0 1
20.628712 0.531073 22.699587 30.677305 0.025739 0.737804 0.016885 0.001578 144106.000000 0 0 1
20.400312 1.231573 21.478287 29.648041 0.060297 0.760572 0.029008 -0.011610 9633.320000 0 0 1
-29.595848 -27.655142 -10.596625 41.868956 0.751513 1.826670 0.013951 0.015477 -32903.500000 0 0 1
-29.776418 -26.422742 -9.980525 41.041530 0.725794 1.816440 0.015449 0.018167 -67619.800000 0 0 1
-30.326378 -26.641342 -8.672125 41.287480 0.720802 1.782415 0.026104 0.010803 -178416.000000 0 0 1
-30.653488 -25.470642 -7.754225 40.601944 0.693313 1.762958 0.025918 0.002422 461917.000000 0 0 1
-29.517988 -24.691542 -7.336125 39.176556 0.696599 1.759166 0.017262 -0.002188 579380.000000 0 0 1
-28.756518 -25.351842 -6.269425 38.845320 0.722558 1.732900 0.029978 -0.002975 1599250.000000 0 0 1
-27.451088 -24.591742 -5.764325 37.303397 0.730511 1.725943 0.027321 -0.007857 663711.000000 0 0 1
-27.701948 -23.580942 -4.829825 36.698582 0.705212 1.702787 0.028227 -0.011988 -91218.300000 0 0 1
-28.344588 -22.399342 -5.358125 36.521989 0.668768 1.718037 0.026223 -0.009952 179510.000000 0 0 1
-28.428078 -21.373142 -4.272025 35.822018 0.644673 1.690338 0.023996 -0.016319 -495230.000000 0 0 1
-27.283958 -20.591542 -4.229325 34.442897 0.646510 1.693899 0.024031 -0.021074 -453853.000000 0 0 1
-27.383088 -19.617342 -3.173525 33.834078 0.621650 1.664731 0.032770 -0.013329 -178020.000000 0 0 1
-26.301748 -18.546742 -3.343725 32.356515 0.614176 1.674321 0.033119 -0.015207 -103247.000000 0 0 1
-26.477728 -17.652642 -4.479625 32.136472 0.588024 1.710646 0.036221 -0.019880 -69127.600000 0 0 1
-25.552838 -16.589842 -4.397425 30.781613 0.575838 1.714146 0.039172 -0.020144 -21296.300000 0 0 1
-25.809098 -15.467542 -5.440325 30.576977 0.539909 1.749671 0.031544 -0.025348 56017.200000 0 0 1
-27.039708 -14.819442 -5.207425 31.271056 0.501354 1.738101 0.029465 -0.015934 -65625.800000 0 0 1
-27.277328 -13.766642 -6.134225 31.164110 0.467394 1.768926 0.047904 -0.024935 -301656.000000 0 0 1
-28.634408 -13.051942 -5.966925 32.029466 0.427678 1.758186 0.048364 -0.017549 -31153.200000 0 0 1
-29.542858 -13.816742 -6.756625 33.306678 0.437463 1.775075 0.057112 -0.016925 484703.000000 0 0 1
-30.892258 -13.363942 -6.584825 34.297032 0.408289 1.763990 0.052860 -0.020759 713800.000000 0 0 1
-31.909068 -14.241142 -7.377925 35.713198 0.419776 1.778883 0.030995 -0.020233 -233077.000000 0 0 1
-32.183778 -15.504242 -6.871325 36.378457 0.448934 1.760822 0.034289 -0.017412 280440.000000 0 0 1
-32.852868 -16.313442 -7.835425 37.507775 0.460892 1.781248 0.042782 -0.007796 -716048.000000 0 0 1
-33.798498 -17.381742 -7.333625 38.707176 0.475003 1.761413 0.031358 -0.009009 -456675.000000 0 0 1
-35.097696 -17.092342 -6.905725 39.644488 0.453188 1.745881 0.013831 -0.016592 -414921.000000 0 0 1
-35.215859 -16.297242 -5.710925 39.222079 0.433432 1.716921 0.020733 -0.010576 -1036470.000000 0 0 1
34.241457 -16.055442 -5.133025 38.165462 -0.438450 1.705699 0.040087 -0.012726 -570855.000000 0 0 1
33.451337 -15.183842 -5.925025 37.210844 -0.426099 1.730705 0.039033 -0.028525 1132900.000000 0 0 1
32.044847 -15.031242 -5.678325 35.847647 -0.438598 1.729868 0.051505 -0.030067 995238.000000 0 0 1
31.565647 -14.395442 -4.388325 34.969647 -0.427872 1.696618 0.054025 -0.024003 -576380.000000 0 0 1
31.830877 -15.247542 -3.295325 35.447869 -0.446721 1.663893 0.042802 -0.014124 338763.000000 0 0 1
31.293047 -14.596642 -2.140425 34.596216 -0.436449 1.632705 0.058262 -0.028706 -627248.000000 0 0 1
31.243007 -15.524042 -0.863825 34.897959 -0.461149 1.595552 0.052493 -0.023743 391302.000000 0 0 1
32.493587 -15.947942 -0.307225 36.197575 -0.456263 1.579284 0.055308 -0.023487 926137.000000 0 0 1
33.308827 -16.795042 -1.186225 37.322359 -0.467019 1.602585 0.045032 -0.026215 -473879.000000 0 0 1
32.821287 -18.220742 -1.549425 37.571705 -0.506789 1.612047 0.040799 -0.026538 -1029660.000000 0 0 1
32.960657 -19.217242 -0.603725 38.158508 -0.527852 1.586618 0.041683 -0.026609 87246.900000 0 0 1
32.822687 -20.513542 -1.189125 38.724000 -0.558585 1.601509 0.033752 -0.017359 233088.000000 0 0 1
33.794977 -21.005042 -2.331225 39.859087 -0.556110 1.629316 0.032174 -0.018101 28583.300000 0 0 1
33.652287 -20.260642 -3.491625 39.435535 -0.541932 1.659452 0.027636 -0.024521 -259659.000000 0 0 1
34.586757 -20.635142 -4.467825 40.521775 -0.537930 1.681278 0.030874 -0.020181 -170114.000000 0 0 1
34.471807 -19.757242 -5.728925 40.143177 -0.520437 1.713998 0.038289 -0.021190 764197.000000 0 0 1
33.208117 -19.939742 -6.402925 39.260282 -0.540749 1.734617 0.030177 -0.024743 903789.000000 0 0 1
33.182447 -19.158842 -7.591825 39.061129 -0.523620 1.766399 0.037304 -0.022264 -344192.000000 0 0 1
32.171097 -19.542442 -8.659725 38.624828 -0.545882 1.796919 0.041262 -0.031114 -263224.000000 0 0 1
32.425517 -20.767242 -9.330825 39.620156 -0.569639 1.808537 0.048561 -0.035501 157650.000000 0 0 1
31.491817 -20.831242 -10.385225 39.160286 -0.584404 1.839205 0.041692 -0.040231 -126837.000000 0 0 1
31.459587 -22.206042 -11.050925 40.061663 -0.614648 1.850268 0.042342 -0.038476 -66368.500000 0 0 1
31.030207 -23.220142 -10.154925 40.064588 -0.642417 1.827056 0.038761 -0.037625 68024.200000 0 0 1
30.826247 -24.504342 -10.721625 40.812663 -0.671635 1.836619 0.027972 -0.027873 -451631.000000 0 0 1
30.097917 -25.578242 -9.856625 40.709754 -0.704398 1.815346 0.015106 -0.027512 255704.000000 0 0 1
28.789717 -25.093942 -9.596525 39.378255 -0.716917 1.816977 0.027068 -0.035626 -707505.000000 0 0 1
27.991217 -26.020742 -8.995025 39.261911 -0.748932 1.801952 0.017387 -0.026668 -620884.000000 0 0 1
26.587827 -25.458542 -8.752125 37.837145 -0.763704 1.804221 0.019417 -0.029690 -220708.000000 0 0 1
25.926317 -25.100842 -9.953225 37.433846 -0.769222 1.839922 0.010891 -0.026703 -23357.000000 0 0 1
24.664447 -24.492342 -9.740825 36.098385 -0.781897 1.844024 0.023316 -0.038965 104669.000000 0 0 1
23.958247 -24.067742 -11.059525 35.715079 -0.787678 1.885632 0.049563 -0.041478 -360917.000000 0 0 1
23.596347 -25.193242 -11.827425 36.488011 -0.818117 1.900905 0.042339 -0.036526 -446311.000000 0 0 1
22.667247 -24.803042 -12.764925 35.943542 -0.830360 1.933858 0.041970 -0.015855 -735925.000000 0 0 1
21.980747 -26.092242 -13.345925 36.634301 -0.870717 1.943679 0.044512 -0.024515 -297535.000000 0 0 1
22.707947 -26.938142 -14.199225 37.985949 -0.870400 1.953901 0.028035 -0.018067 -151475.000000 0 0 1
22.124947 -28.224942 -14.207325 38.574715 -0.905963 1.947983 0.030359 0.000613 -55772.100000 0 0 1
23.092447 -29.340642 -14.683425 40.121532 -0.904004 1.945475 0.017239 -0.003747 -136049.000000 0 0 1
23.256047 -29.160242 -16.066425 40.611493 -0.897566 1.977531 0.019493 -0.000535 172957.000000 0 0 1
23.784947 -30.344142 -16.552225 41.957917 -0.905987 1.976315 0.015813 0.003991 -611868.000000 0 0 1
23.765847 -30.345142 -18.039625 42.556682 -0.906393 2.008539 0.013402 0.003472 -396019.000000 0 0 1
22.482347 -30.328842 -18.603725 42.087921 -0.932896 2.028646 0.019444 0.001599 -184276.000000 0 0 1
22.509047 -30.335142 -20.015725 42.749354 -0.932427 2.058062 0.015794 0.005200 -684199.000000 0 0 1
21.080647 -30.309542 -20.556925 42.256942 -0.963089 2.078846 0.007596 0.004032 -363297.000000 0 0 1
20.928047 -30.097142 -21.918125 42.710950 -0.963198 2.109674 0.011181 0.010126 -232112.000000 0 0 1
19.564747 -30.119542 -22.268925 42.259568 -0.994724 2.125811 0.013916 -0.001279 -338211.000000 0 0 1
19.394047 -30.295442 -23.784525 43.123618 -1.001367 2.155009 0.012838 0.005729 -491981.000000 0 0 1
19.683847 -29.140542 -24.515025 42.867370 -0.976717 2.179593 0.013316 0.000775 315633.000000 0 0 1
19.632147 -29.432942 -25.920345 43.858677 -0.982554 2.203091 0.016384 -0.002381 -591868.000000 0 0 1
20.008747 -28.216842 -26.706815 43.701190 -0.953985 2.228275 0.020448 -0.009912 60087.200000 0 0 1
19.037847 -27.194442 -26.849085 42.694855 -0.960027 2.250882 0.015039 -0.018000 147933.000000 0 0 1
18.111547 -27.407342 -27.906285 43.103958 -0.986847 2.274988 0.043366 -0.022145 -3644.160000 0 0 1
17.329347 -26.147142 -28.344205 42.277337 -0.985501 2.305591 0.036975 -0.023405 -382909.000000 0 0 1
16.620147 -25.650342 -27.235205 40.938071 -0.995863 2.298663 0.019066 -0.003909 -155656.000000 0 0 1
16.327947 -24.294242 -27.357245 40.065332 -0.979048 2.322406 -0.004505 0.009005 -189006.000000 0 0 1
15.257447 -23.844542 -26.338325 38.665995 -1.001574 2.320163 -0.001459 0.001722 -246371.000000 0 0 1
13.956247 -24.356842 -26.618645 38.685718 -1.050473 2.329628 0.023139 -0.003934 -326079.000000 0 0 1
12.986247 -23.913242 -25.721935 37.444675 -1.073299 2.328055 0.015332 0.000937 -240077.000000 0 0 1
13.057247 -24.518942 -24.305925 36.911356 -1.081459 2.289613 0.027080 0.000113 -417250.000000 0 0 1
14.139447 -23.995142 -23.540925 36.467327 -1.038309 2.272520 -0.015065 -0.004746 102664.000000 0 0 1
14.118147 -24.551942 -22.242525 36.011801 -1.048938 2.236542 -0.000238 -0.007885 430159.000000 0 0 1
15.289147 -24.104942 -21.324625 35.630687 -1.005556 2.212412 -0.003932 -0.013625 355802.000000 0 0 1
15.076847 -22.753642 -20.885025 34.368936 -0.985606 2.223922 -0.015495 -0.020705 -455652.000000 0 0 1
16.261747 -22.220942 -20.404125 34.271606 -0.939032 2.208517 -0.000426 -0.009074 -1335300.000000 0 0 1
16.256347 -20.746642 -19.881525 33.014648 -0.906157 2.217054 0.004849 0.009798 20921.000000 0 0 1
15.531947 -20.452742 -18.677725 31.755526 -0.921302 2.199594 0.003548 -0.010485 2248010.000000 0 0 1
14.079447 -20.294242 -18.863725 31.079369 -0.964267 2.223018 0.004623 -0.012451 1635840.000000 0 0 1
13.254447 -20.181842 -17.578525 29.866229 -0.989690 2.200092 0.016805 -0.013334 -201930.000000 0 0 1
13.414347 -19.044842 -16.797325 28.719346 -0.957153 2.195526 0.025001 -0.009645 71717.400000 0 0 1
12.520647 -19.058642 -15.693125 27.681629 -0.989548 2.173552 0.034207 -0.008565 38438.400000 0 0 1
12.628347 -17.823142 -14.794125 26.381919 -0.954364 2.166109 0.024261 -0.008793 -162885.000000 0 0 1
12.112547 -16.651342 -15.457725 25.747276 -0.941903 2.214752 0.037477 -0.019784 275780.000000 0 0 1
12.420947 -15.518042 -14.728025 24.738720 -0.895800 2.208489 0.038339 -0.017593 -214552.000000 0 1 0
11.116447 -14.863742 -14.248825 23.399470 -0.928647 2.225517 0.033271 -0.015644 183282.000000 0 1 0
10.311547 -14.302142 -15.295325 23.341513 -0.946129 2.285355 0.032501 -0.009214 -881777.000000 0 1 0
9.175947 -13.736542 -14.783125 22.168251 -0.981874 2.300784 0.031497 -0.015805 -980647.000000 0 1 0
8.276047 -13.170542 -15.878425 22.227921 -1.009773 2.366485 0.026623 -0.010619 -156757.000000 0 1 0
8.761747 -11.966942 -16.522825 22.203145 -0.938809 2.410082 0.027903 -0.010769 922701.000000 0 1 0
9.942247 -12.133642 -17.358525 23.396408 -0.884340 2.406742 0.040775 -0.005339 836835.000000 0 1 0
10.208947 -10.920542 -18.255825 23.595677 -0.819063 2.455447 0.042128 -0.007104 -331981.000000 0 1 0
9.393247 -10.867942 -19.365525 24.111590 -0.858054 2.503381 0.039853 -0.009956 -221786.000000 0 1 0
9.601347 -9.660442 -20.051725 24.240084 -0.788466 2.544927 0.041686 -0.011973 108671.000000 0 1 0
9.056447 -9.763642 -21.505025 25.294545 -0.822957 2.587132 0.036307 -0.008822 177775.000000 0 0 1
9.897147 -10.570342 -22.303625 26.592054 -0.818277 2.565748 0.019996 0.005293 -108127.000000 0 0 1
9.353647 -10.766642 -23.597225 27.572455 -0.855510 2.597942 0.030460 0.009241 16636.400000 0 0 1
10.371847 -11.483142 -24.501825 28.978909 -0.836203 2.578307 0.026432 0.011276 108248.000000 0 0 1
10.603447 -12.830342 -24.102225 29.291091 -0.880143 2.537208 0.021922 0.011816 -129902.000000 0 0 1
11.676947 -13.378842 -24.833225 30.529224 -0.853218 2.520812 0.009109 0.012740 -60673.000000 0 0 1
11.688447 -14.942242 -24.583025 31.051819 -0.906978 2.484346 0.003151 0.004681 596665.000000 0 0 1
10.671047 -15.642742 -25.340675 31.634102 -0.972136 2.499853 0.011645 0.000199 356357.000000 0 0 1
10.390647 -16.863242 -24.652825 31.624298 -1.018571 2.464749 0.012906 -0.000026 -128275.000000 0 0 1
9.153847 -17.635542 -25.101305 32.013759 -1.092020 2.472007 0.018220 -0.011110 -262287.000000 0 0 1
9.341047 -18.333742 -26.318815 33.407503 -1.099577 2.478044 0.012191 -0.019219 324556.000000 0 0 1
8.294847 -19.258542 -26.665265 33.922445 -1.164099 2.475214 0.021780 -0.022569 328757.000000 0 0 1
8.725447 -20.078742 -27.918535 35.478640 -1.160855 2.476583 0.015751 -0.015677 38643.800000 0 0 1
9.387347 -21.299042 -27.646765 36.140214 -1.155669 2.441816 0.010660 -0.013560 68025.700000 0 0 1
9.661847 -22.061142 -28.796895 37.540730 -1.158002 2.445080 0.021073 -0.006451 -155449.000000 0 0 1
10.080147 -23.512942 -28.431525 38.246822 -1.165791 2.408890 0.017878 0.000794 39275.500000 0 0 1
9.922047 -24.382842 -29.582885 39.599458 -1.184332 2.414414 0.024046 -0.001702 -12813.900000 0 0 1
10.281647 -25.742542 -29.472595 40.460160 -1.190805 2.386831 0.039734 0.000846 147041.000000 0 0 1
9.665147 -26.548142 -28.283335 39.977067 -1.221650 2.356735 0.046270 0.000778 437470.000000 0 0 1
10.293247 -26.295442 -27.010115 39.076175 -1.197686 2.333968 0.038597 -0.001241 -43125.400000 0 0 1
9.416747 -26.552042 -25.913625 38.277957 -1.229983 2.314456 0.035912 -0.002216 373090.000000 0 0 1
8.737547 -25.241542 -25.427135 36.878440 -1.237549 2.331574 0.031419 -0.001721 -96369.500000 0 0 1
9.610647 -24.251542 -24.911725 36.070706 -1.193492 2.333164 0.017350 0.001867 -343307.000000 0 0 1
8.995547 -22.990842 -24.836025 35.018949 -1.197841 2.359183 0.016280 -0.004195 -724957.000000 0 0 1
9.980247 -21.874342 -24.606325 34.402956 -1.142754 2.367762 0.027238 -0.012033 -543390.000000 0 0 1
10.326347 -21.652642 -23.300725 33.442400 -1.125791 2.341642 0.031900 -0.010725 -322423.000000 0 0 1
11.361647 -20.729742 -23.155125 33.090316 -1.069425 2.345851 0.020037 -0.009466 -581019.000000 0 0 1
11.856447 -20.553842 -21.666225 32.131932 -1.047574 2.310799 0.005664 -0.006120 150767.000000 0 0 1
10.968347 -19.969142 -20.679325 30.768583 -1.068518 2.307827 0.011168 -0.002238 439428.000000 0 0 1
10.502747 -18.630842 -20.947625 29.936916 -1.057474 2.345810 0.024051 0.003936 445007.000000 0 0 1
11.620647 -17.508242 -20.921225 29.652582 -0.984833 2.353988 0.012844 -0.001473 201445.000000 0 0 1
12.490347 -17.595442 -21.974525 30.797533 -0.953482 2.365300 0.004694 0.008296 -1156850.000000 0 0 1
13.762247 -17.143342 -21.597325 30.817820 -0.894366 2.347324 0.012708 0.007275 -172549.000000 0 0 1
14.754547 -17.309242 -22.783825 32.193309 -0.864906 2.357061 0.001466 0.021597 -876753.000000 0 0 1
16.051147 -17.572242 -22.392325 32.677809 -0.830607 2.325737 0.004232 0.022886 -913370.000000 0 0 1
16.971547 -17.445242 -23.434525 33.786784 -0.799161 2.337271 -0.004390 0.022159 -1107860.000000 0 0 1
18.381347 -17.673442 -22.960425 34.313344 -0.765767 2.303847 -0.006252 0.021197 -1220940.000000 0 0 1
18.595947 -18.980542 -22.591525 34.877603 -0.795633 2.275407 -0.004507 0.015800 -296067.000000 0 0 1
19.863247 -19.151742 -22.023625 35.304077 -0.767163 2.244426 -0.016903 0.012605 -204174.000000 0 0 1
20.215147 -20.602642 -21.753425 36.143222 -0.794891 2.216634 -0.002571 0.009069 -47178.200000 0 0 1
19.491647 -21.099242 -20.613025 35.355326 -0.824982 2.193243 -0.012362 0.006594 394403.000000 0 0 1
19.800147 -22.427442 -20.310325 36.159995 -0.847536 2.167211 -0.005559 0.008473 -766291.000000 0 0 1
-15.676288 12.811273 28.180247 34.698718 -0.685164 0.622984 0.008683 -0.024599 241182.000000 0 0 1
-16.839288 13.634073 28.265447 35.614394 -0.680603 0.654007 0.024083 -0.019565 69508.400000 0 0 1
-17.410088 13.614273 26.989947 34.884335 -0.663654 0.686139 0.014940 -0.015085 112955.000000 0 0 1
-18.765688 14.329473 26.750617 35.680251 -0.652148 0.723140 0.032653 -0.010080 242375.000000 0 0 1
-18.596288 15.755273 26.952097 36.338218 -0.702882 0.735193 0.032196 -0.007504 -181991.000000 0 0 1
-19.570288 16.456473 26.252537 36.647065 -0.699182 0.772223 0.036738 -0.005517 -702639.000000 0 0 1
-19.534288 17.986073 26.497687 37.512860 -0.744158 0.786450 0.038954 -0.000257 -255574.000000 0 0 1
-18.502588 18.770973 25.969947 37.001802 -0.792598 0.792796 0.015620 0.001270 254615.000000 0 0 1
-17.380488 18.860073 26.869107 37.144752 -0.826202 0.762137 0.026404 0.005281 559169.000000 0 0 1
-16.227588 19.755373 26.277057 36.661875 -0.883126 0.771679 0.032716 0.009124 184455.000000 0 0 1
-16.485588 21.201873 26.309367 37.596234 -0.909893 0.795697 0.033129 0.010717 522934.000000 0 0 1
-15.496388 22.002473 25.625647 37.160740 -0.957189 0.809875 0.035200 0.003913 510297.000000 0 0 1
-15.771388 23.515373 25.756557 38.276751 -0.980018 0.832670 0.041782 0.005217 5162.300000 0 0 1
-15.485588 24.076673 27.038217 39.377084 -0.999232 0.813927 0.040733 0.007865 178155.000000 0 0 1
-15.715288 25.475873 26.971487 40.292077 -1.018065 0.837396 0.041868 0.009229 -135562.000000 0 0 1
-15.047388 26.174173 28.173147 41.294520 -1.049041 0.819962 0.031619 0.010511 308234.000000 0 0 1
-13.632688 26.220873 28.068337 40.758016 -1.091342 0.811160 0.031958 0.009054 155470.000000 0 0 1
-13.020188 27.135073 28.956897 41.765289 -1.123416 0.804704 0.032676 0.010166 604485.000000 0 0 1
-11.463988 27.010873 28.965867 41.231441 -1.169416 0.791866 0.040603 0.007462 635795.000000 0 0 1
-10.883288 27.618773 27.849017 40.703935 -1.195426 0.817311 0.032349 0.012480 -1025200.000000 0 0 1
-9.503188 27.483573 27.870477 40.279285 -1.237889 0.806636 0.017163 0.006544 -846124.000000 0 0 1
-8.788788 27.940373 26.568687 39.544941 -1.266040 0.834078 0.026074 0.004700 -293335.000000 0 0 1
-7.406388 28.116773 26.759077 39.515259 -1.313232 0.826868 0.009287 -0.006492 32119.000000 0 0 1
-6.856388 28.836673 25.660897 39.205170 -1.337365 0.857238 0.023384 -0.010309 66378.600000 0 0 1
-5.321888 28.606673 25.593787 38.751854 -1.386862 0.849374 0.006175 -0.016893 238310.000000 0 0 1
-4.547388 29.321873 26.631387 39.870813 -1.416937 0.839356 0.013845 -0.020113 497569.000000 0 0 1
-3.202188 28.892873 26.572337 39.384530 -1.460417 0.830252 0.014488 -0.014476 -207573.000000 0 0 1
-2.309488 29.808973 25.755307 39.461936 -1.493475 0.859704 0.010035 -0.007519 -1035680.000000 0 0 1
-2.544288 29.762273 24.346247 38.535776 -1.485517 0.886945 0.002515 -0.001842 -119610.000000 0 0 1
-2.076988 30.908973 23.623387 38.958220 -1.503700 0.919299 0.002909 0.000914 -441777.000000 0 0 1
-2.462488 30.843573 22.126187 38.038901 -1.491127 0.950013 -0.002103 0.008506 972355.000000 0 0 1
-3.845288 30.596473 21.817787 37.774942 -1.445774 0.955044 0.005257 0.003581 544162.000000 0 0 1
-4.175588 29.225573 21.927187 36.774599 -1.428882 0.931963 0.000402 0.001273 837513.000000 0 0 1
-5.710388 28.922873 21.636687 36.568939 -1.375868 0.937670 0.023168 0.003281 1012290.000000 0 0 1
-6.091788 29.028073 20.293087 35.938117 -1.363940 0.970766 0.017364 0.005968 -145415.000000 0 0 1
-7.003288 28.025673 19.948587 35.105989 -1.325923 0.966432 0.016110 0.002799 -1193830.000000 0 0 1
-6.374788 26.721573 19.451987 33.660959 -1.336610 0.954668 0.004987 0.003792 -418422.000000 0 0 1
-5.598088 26.868973 18.313487 32.994910 -1.365387 0.982386 0.007384 0.004889 -432511.000000 0 0 1
-4.263188 27.186173 18.622287 33.227283 -1.415249 0.975865 0.014273 0.008070 -1269780.000000 0 0 1
-3.399388 27.271473 17.365687 32.509324 -1.446786 1.007264 0.016800 0.009229 -412621.000000 0 0 1
-3.183188 26.017873 16.771587 31.118299 -1.449055 1.001592 0.018301 0.009242 285071.000000 0 0 1
-2.547888 26.153673 15.477987 30.497121 -1.473683 1.038489 0.019509 -0.001137 140251.000000 0 0 1
-1.995088 24.866873 14.791787 29.002391 -1.490737 1.035589 0.013375 -0.004251 226359.000000 0 0 1
-0.877688 24.349373 15.492387 28.873454 -1.534766 1.004439 0.010934 -0.005874 52111.200000 0 0 1
-0.188488 23.396673 14.700887 27.632515 -1.562740 1.009819 0.009591 -0.017156 -685668.000000 0 0 1
1.106512 22.917273 15.363787 27.612890 1.522551 0.980751 0.004269 -0.013925 -131457.000000 0 0 1
2.103812 23.943873 15.209787 28.444203 1.483157 1.006616 0.012636 -0.015476 46613.900000 0 0 1
3.221312 23.557173 15.980287 28.647632 1.434895 0.979037 0.014945 -0.014974 747048.000000 0 0 1
4.539612 24.356273 15.665787 29.313017 1.386527 1.006962 0.028289 -0.015295 989300.000000 0 0 1
5.807012 23.755073 15.817587 29.124233 1.331045 0.996663 0.025496 -0.012500 175540.000000 0 0 1
6.832912 24.726873 15.660087 30.055703 1.301189 1.022733 0.031968 -0.012727 68555.600000 0 0 1
8.248212 24.101173 15.729087 29.938332 1.241058 1.017631 0.037724 -0.007946 -40727.400000 0 0 1
8.704312 23.537273 14.553287 29.009764 1.216584 1.045270 0.030352 -0.004319 20477.100000 0 0 1
9.457512 24.394273 13.700687 29.533606 1.200943 1.088402 0.027314 -0.004358 -236410.000000 0 0 1
9.935912 23.637373 12.412487 28.487148 1.172873 1.119956 0.022278 0.002349 376895.000000 0 0 1
11.061512 22.772973 12.606387 28.282262 1.118630 1.108801 0.019875 0.001471 534557.000000 0 0 1
11.604212 22.311773 11.356087 27.594087 1.091203 1.146653 0.039349 0.001845 318033.000000 0 0 1
12.762212 21.311773 11.552087 27.395555 1.031235 1.135502 0.012409 -0.001318 -275889.000000 0 0 1
12.256912 20.211773 12.240187 26.618975 1.025666 1.092993 0.015258 0.003854 19901.800000 0 0 1
13.179912 19.165873 12.515987 26.413835 0.968389 1.077148 0.023519 -0.004568 9964.260000 0 0 1
13.817612 19.246673 13.946387 27.492954 0.948143 1.038781 0.022101 -0.006059 -106350.000000 0 0 1
14.752912 18.247673 14.235487 27.445857 0.890905 1.025496 0.027993 -0.008053 -175922.000000 0 0 1
15.274512 18.365173 15.511187 28.481349 0.877016 0.994874 0.019782 -0.011790 206692.000000 0 0 1
16.332112 17.256773 15.771987 28.518234 0.812920 0.984777 0.013444 -0.009898 27007.600000 0 0 1
17.014312 17.251573 16.967887 29.580615 0.792322 0.959884 0.024882 -0.015502 -23726.900000 0 0 1
18.114512 16.359773 16.909687 29.693690 0.734542 0.964935 0.026196 -0.011835 143902.000000 0 0 1
18.565012 15.922173 18.293387 30.542156 0.708915 0.928600 0.026626 -0.010393 26844.400000 0 0 1
19.157412 16.884873 19.190087 31.943150 0.722429 0.926348 0.025693 -0.002052 475717.000000 0 0 1
18.188712 17.727773 19.781587 32.193390 0.772565 0.909094 0.024235 -0.002072 196.331000 0 0 1
18.771312 18.730473 20.827287 33.718966 0.784309 0.905016 0.014994 -0.000277 218107.000000 0 0 1
17.805312 19.629973 21.372287 34.046140 0.834101 0.892144 0.028168 -0.004574 546749.000000 0 0 1
18.446812 20.685973 22.077387 35.434522 0.842555 0.898164 0.020568 0.004451 -109890.000000 0 0 1
17.382512 21.702673 22.432687 35.726505 0.895483 0.891944 0.033235 -0.002494 -128393.000000 0 0 1
16.612812 21.349773 23.553087 35.868457 0.909536 0.854426 0.040700 -0.005186 -136321.000000 0 0 1
15.622012 22.316173 23.848347 36.205006 0.960050 0.851703 0.042526 -0.005128 320709.000000 0 0 1
14.891812 21.867973 25.169307 36.516686 0.972945 0.810336 0.050996 -0.006516 697879.000000 0 0 1
13.915612 20.811073 25.022957 35.396234 0.981412 0.785636 0.050269 -0.010955 488016.000000 0 0 1
13.239112 20.505473 26.202577 35.809546 0.997494 0.749954 0.047174 -0.003219 21666.600000 0 0 1
12.416212 19.171073 26.212097 34.767318 0.996072 0.716774 0.055266 -0.009190 329601.000000 0 0 1
13.171512 17.952973 26.278017 34.443173 0.937830 0.702950 0.045013 -0.017958 423409.000000 0 0 1
13.883412 17.518073 25.105237 33.614059 0.900633 0.727458 0.052679 -0.018335 565934.000000 0 0 1
12.965712 17.075073 23.846437 32.067435 0.921347 0.732307 0.063919 -0.022827 385150.000000 0 0 1
12.478712 18.180673 23.081287 31.921794 0.969275 0.762578 0.053142 -0.015865 549211.000000 0 0 1
13.492612 18.808273 22.272287 32.122523 0.948503 0.804663 0.047751 -0.014118 717450.000000 0 0 1
14.102412 17.976673 21.088387 31.092746 0.905588 0.825430 0.048969 -0.010858 -289454.000000 0 0 1
13.253912 17.892173 20.018287 29.942075 0.933231 0.838516 0.043981 -0.012182 -212076.000000 0 0 1
13.857912 16.955973 19.150287 29.090896 0.885602 0.852250 0.033555 -0.013962 293907.000000 0 0 1
12.797812 16.249873 18.280387 27.604618 0.903685 0.847016 0.039930 -0.012951 44394.000000 0 0 1
12.170412 17.126773 17.352487 27.249846 0.952987 0.880466 0.038383 -0.008997 322426.000000 0 0 1
11.194312 16.437073 16.570987 25.886050 0.972909 0.876101 0.039759 -0.014671 368811.000000 0 0 1
10.657212 17.115673 15.285587 25.301613 1.013883 0.922117 0.030891 -0.008707 276365.000000 0 0 1
10.010512 18.385973 15.500287 26.048287 1.072213 0.933456 0.030027 -0.008859 283091.000000 0 0 1
9.677512 18.967573 14.259187 25.627085 1.099011 0.980736 0.019090 -0.005278 -769553.000000 0 0 1
8.743112 20.134673 14.284787 26.189735 1.161132 0.993889 0.022444 -0.003848 19341.000000 0 0 1
7.425412 19.782473 14.677287 25.727529 1.211716 0.963694 0.017839 -0.004389 48374.700000 0 0 1
6.496212 20.822473 14.773487 26.344488 1.268385 0.975468 0.023999 -0.008313 407679.000000 0 0 1
5.174312 20.435673 15.477987 26.152597 1.322808 0.937465 0.020397 -0.008637 647522.000000 0 0 1
4.244712 19.595973 14.778387 24.908241 1.357480 0.935628 0.022034 -0.017889 -145494.000000 0 1 0
3.093412 19.367273 15.543687 25.025320 1.412410 0.900627 0.007032 -0.011929 546467.000000 0 0 1
1.863612 18.903073 14.682487 24.007804 1.472526 0.912751 -0.000392 -0.014037 303828.000000 0 1 0
1.291212 19.802273 13.779587 24.159351 1.505683 0.963849 0.004274 -0.021325 -563282.000000 0 1 0
0.389712 19.101073 12.991787 23.103883 1.550397 0.973607 -0.001634 -0.026751 -926239.000000 0 1 0
-0.530288 19.994473 12.177987 23.417163 -1.544281 1.023892 0.006109 -0.027215 -615977.000000 0 1 0
-1.429688 20.612773 13.079387 24.454054 -1.501548 1.006460 0.006334 -0.021907 -239243.000000 0 1 0
-2.534588 20.974973 12.256487 24.425296 -1.450541 1.045124 0.009397 -0.019295 203479.000000 0 1 0
-3.663388 21.738173 12.991287 25.587929 -1.403842 1.038270 0.008822 -0.011413 349260.000000 0 0 1
-4.467988 20.895473 13.829387 25.452616 -1.360143 0.996388 0.009107 -0.014278 242489.000000 0 0 1
-5.454588 21.703673 14.458487 26.643006 -1.324575 0.997178 0.014174 -0.005010 -284026.000000 0 0 1
-6.129988 21.122473 15.702287 27.024016 -1.288344 0.950779 0.011252 -0.001838 -723353.000000 0 0 1
-7.189888 20.288673 15.268187 26.390193 -1.230225 0.953840 0.017312 0.001272 32503.100000 0 0 1
-7.878488 19.678073 16.344887 26.766629 -1.189972 0.913923 0.013530 0.017077 270648.000000 0 0 1
-9.074988 20.512573 16.948787 28.113741 -1.154271 0.923709 0.010478 0.017177 10034.200000 0 0 1
-10.184388 20.526673 16.105687 28.008199 -1.110230 0.958150 0.008263 0.005352 -228036.000000 0 0 1
-11.229588 19.640373 16.507287 28.006042 -1.051400 0.940457 -0.001421 0.006212 -598400.000000 0 0 1
-12.374988 19.625973 15.546387 27.928646 -1.008222 0.980453 0.003882 0.003772 -929879.000000 0 0 1
-13.125588 20.819273 15.436487 29.051821 -1.008285 1.010611 -0.006714 0.008471 -522312.000000 0 0 1
-13.806288 20.802173 14.274887 28.759631 -0.984854 1.051405 -0.000343 -0.002458 -1057380.000000 0 0 1
-14.862688 21.896273 14.171487 30.019615 -0.974456 1.079154 -0.003442 -0.006660 313226.000000 0 0 1
-15.982588 21.599273 15.033887 30.789437 -0.933752 1.060678 -0.006734 -0.009358 664959.000000 0 0 1
-16.970588 22.618773 14.992587 32.006052 -0.927111 1.083284 0.007884 -0.019138 -130938.000000 0 0 1
-18.231288 22.366273 15.808687 32.902045 -0.886901 1.069597 0.034997 -0.022241 -1036260.000000 0 0 1
-19.110088 21.474673 15.131687 32.485766 -0.843595 1.086264 0.030007 -0.016513 676362.000000 0 0 1
-20.271988 21.058473 15.875087 33.263060 -0.804425 1.073264 0.037886 -0.017163 896742.000000 0 0 1
-21.299388 22.158273 16.213187 34.749394 -0.805159 1.085382 0.034797 -0.009146 -1308840.000000 0 0 1
-22.228688 22.473573 15.223487 35.084620 -0.790876 1.121971 0.032591 -0.009003 -226530.000000 0 0 1
-22.871788 23.731173 15.330887 36.350011 -0.803837 1.135414 0.044036 -0.021338 -365884.000000 0 0 1
-22.362688 24.991573 14.604787 36.578249 -0.840857 1.160070 0.029453 -0.014430 151006.000000 0 0 1
-21.069588 25.432173 15.022087 36.282035 -0.878940 1.143912 0.017870 -0.024518 400260.000000 0 0 1
-20.721188 26.621473 14.343187 36.657843 -0.909388 1.168783 0.007743 -0.011800 -14544.800000 0 0 1
-19.235688 27.008073 14.499187 36.189420 -0.951916 1.158573 0.009704 -0.015114 -12632.900000 0 0 1
-18.362688 26.309773 13.658587 34.870467 -0.961453 1.168323 0.009998 -0.012700 269274.000000 0 0 1
-16.986588 26.655173 13.808587 34.492310 -1.003421 1.158911 -0.001818 -0.008629 169038.000000 0 0 1
-16.093088 25.971273 12.757387 33.109597 -1.016054 1.175255 0.008865 -0.010518 438024.000000 0 0 1
-14.768888 26.480473 12.923787 32.959972 -1.062040 1.167877 0.013011 -0.004276 495055.000000 0 0 1
-13.775288 26.013473 12.038487 31.802272 -1.083794 1.182576 0.013029 -0.002447 -467761.000000 0 0 1
-12.412488 26.660773 12.147187 31.818561 -1.135069 1.179092 0.012826 0.002839 -799285.000000 0 0 1
-11.428188 25.827773 11.532687 30.507051 -1.154216 1.183125 0.008346 0.002266 51453.800000 0 0 1
-10.105188 26.245073 11.713287 30.465058 -1.203260 1.176149 0.022391 0.003771 -115370.000000 0 0 1
-9.483988 27.485073 10.981487 31.080031 -1.238530 1.209669 0.015216 0.001537 -275690.000000 0 0 1
-8.369188 28.045573 11.653487 31.502400 -1.280795 1.191869 0.024684 -0.001000 261560.000000 0 0 1
-7.990288 29.281573 11.120687 32.325298 -1.304404 1.219597 0.024326 -0.007220 -574295.000000 0 0 1
-6.734988 29.912373 11.715387 32.823169 -1.349332 1.205823 0.018223 -0.002434 180507.000000 0 0 1
-5.548088 29.211673 11.367987 31.832911 -1.383105 1.205620 0.027964 -0.000609 496617.000000 0 0 1
-4.367688 29.659873 12.034987 32.305196 -1.424588 1.189051 0.024526 -0.002316 532021.000000 0 0 1
-3.107088 29.351273 11.195087 31.567090 -1.465330 1.208263 0.036734 -0.007676 -166233.000000 0 0 1
-2.925088 30.199173 10.072187 31.968658 -1.474238 1.250272 0.046907 -0.017253 413258.000000 0 0 1
-1.728288 29.969073 9.332587 31.436117 -1.513191 1.269378 0.041876 -0.018118 433702.000000 0 0 1
-1.669188 30.746373 8.018287 31.818525 -1.516561 1.316049 0.039474 -0.026291 151929.000000 0 0 1
-2.776588 30.353273 7.218587 31.323132 -1.479574 1.338251 0.039112 -0.017706 344580.000000 0 0 1
-2.774888 31.188673 6.086287 31.897903 -1.482059 1.378814 0.030952 -0.014827 116501.000000 0 0 1
11.105412 -33.872742 -27.123035 44.792319 -1.253983 2.221226 0.065653 -0.009872 93139.700000 0 0 1
11.206712 -33.541942 -25.765975 43.755431 -1.248347 2.200448 0.062106 -0.007656 1181910.000000 0 0 1
12.563412 -33.125942 -25.469705 43.633395 -1.208294 2.194100 0.065731 -0.005737 1030140.000000 0 0 1
12.899112 -33.269842 -23.972125 42.987582 -1.200928 2.162351 0.061543 -0.006726 -534677.000000 0 0 1
12.518312 -32.189942 -23.069725 41.534476 -1.199905 2.159683 0.063407 -0.008753 330391.000000 0 0 1
13.169812 -32.163542 -21.810525 41.032138 -1.182158 2.131223 0.043521 -0.002139 -593782.000000 0 0 1
14.667612 -31.921042 -21.786225 41.336804 -1.140073 2.125912 0.027969 -0.000989 -446235.000000 0 0 1
15.511712 -33.036142 -22.153225 42.693855 -1.131814 2.116343 0.030587 0.008367 759810.000000 0 0 1
16.873712 -32.736342 -21.857825 42.827033 -1.094871 2.106417 0.018234 0.006944 129988.000000 0 0 1
17.786012 -33.957542 -21.923925 44.160110 -1.088312 2.090317 0.011573 0.015587 -68795.300000 0 0 1
19.173812 -33.668242 -21.913525 44.512786 -1.053111 2.085523 0.016334 0.019010 346056.000000 0 0 1
19.919012 34.239773 -21.927025 45.276081 1.043904 2.076355 0.017571 0.025151 574115.000000 0 0 1
21.445112 34.477273 -21.690025 46.032949 1.014352 2.061430 0.024574 0.032057 670423.000000 0 0 1
22.182812 -34.199542 -22.819925 46.716536 -0.995386 2.081139 0.017313 0.036349 17925.400000 0 0 1
23.575112 -34.308542 -22.648125 47.389867 -0.968747 2.069071 0.013771 0.036365 114575.000000 0 0 1
24.364412 -33.582942 -23.795225 47.829398 -0.943161 2.091513 0.019831 0.024025 75694.300000 0 0 1
24.424412 -32.148542 -23.790625 46.862293 -0.921093 2.103276 0.019280 0.020345 216568.000000 0 0 1
23.237412 -31.500542 -24.243025 46.043302 -0.935225 2.125306 0.022577 0.020201 173224.000000 0 0 1
23.128112 -29.996942 -24.030925 44.857680 -0.913980 2.136150 0.015224 -0.001294 -930223.000000 0 0 1
23.962112 -29.234142 -24.822525 45.221406 -0.884181 2.151857 0.020082 -0.002395 -301819.000000 0 0 1
23.690212 -27.812742 -24.643525 44.069015 -0.865272 2.164220 0.016641 -0.000096 228205.000000 0 0 1
24.255112 -26.937642 -25.771355 44.475946 -0.837751 2.188844 0.016682 0.000394 274063.000000 0 0 1
23.422712 -26.925242 -26.916895 44.700238 -0.854853 2.217006 0.014014 -0.003340 -60874.600000 0 0 1
24.024012 -26.114742 -27.905145 45.142330 -0.827073 2.237195 0.012899 -0.000031 -489658.000000 0 0 1
22.999312 -25.692442 -28.978685 45.042581 -0.840652 2.269678 0.011627 -0.003600 158727.000000 0 0 1
22.237012 -24.568742 -28.592115 43.767760 -0.835174 2.282690 0.024847 -0.005863 -1225800.000000 0 0 1
21.100012 -24.837842 -27.885685 42.892194 -0.866586 2.278557 0.012893 -0.007900 -1569930.000000 0 0 1
20.255012 -23.561742 -27.683715 41.615012 -0.860723 2.298603 0.016732 -0.010965 -234675.000000 0 0 1
19.790912 -22.994742 -28.893035 41.895654 -0.860140 2.331792 0.025447 -0.016896 86177.000000 0 0 1
19.300312 -21.691042 -28.664565 40.800253 -0.843655 2.349783 0.013357 -0.005670 -723823.000000 0 0 1
18.415812 -21.198642 -29.788355 40.937399 -0.855531 2.385695 0.015077 -0.012046 -23223.100000 0 0 1
17.191612 -21.909042 -29.692475 40.708730 -0.905466 2.388224 0.011749 -0.012877 300533.000000 0 0 1
16.110512 -21.454442 -30.475635 40.603029 -0.926708 2.419729 0.011525 -0.013152 578904.000000 0 0 1
14.880112 -22.421342 -30.426795 40.619258 -0.984879 2.417458 0.007695 -0.012770 128200.000000 0 0 1
15.141812 -23.612942 -31.106585 41.886336 -1.000596 2.407804 0.008691 -0.005462 104447.000000 0 0 1
14.419012 -24.683042 -30.543725 41.833952 -1.042100 2.389291 0.019198 -0.012794 -79596.800000 0 0 1
14.696612 -26.054342 -31.227855 43.243474 -1.057211 2.377688 0.041456 -0.010264 -2934.390000 0 0 1
14.013512 -27.114242 -30.584365 43.208379 -1.093774 2.357224 0.046186 -0.001768 -158716.000000 0 0 1
14.336512 -28.404142 -31.036205 44.447462 -1.103369 2.343770 0.068337 -0.013215 98652.400000 0 0 1
13.576012 -29.552242 -30.268285 44.427606 -1.140161 2.320326 0.077552 -0.022420 40698.000000 0 0 1
13.745812 -29.627142 -28.882395 43.599399 -1.136394 2.294880 0.089615 -0.017512 -33755.700000 0 0 1
13.230312 -28.661242 -27.983025 42.184803 -1.138330 2.296075 0.075067 -0.006325 -583134.000000 0 0 1
14.254312 -28.307942 -26.940645 41.597155 -1.104317 2.275300 0.056828 -0.000721 -379825.000000 0 0 1
14.454012 -29.300742 -25.931695 41.712165 -1.112524 2.241684 0.060667 -0.010692 239935.000000 0 0 1
15.501312 -28.992942 -25.011525 41.309293 -1.079808 2.221152 0.067003 -0.016280 -117527.000000 0 0 1
15.112012 -28.041942 -23.800225 39.763980 -1.076509 2.212470 0.057082 -0.017069 464081.000000 0 0 1
14.115412 -28.346042 -22.830825 39.038308 -1.108776 2.195468 0.048293 -0.013996 399310.000000 0 0 1
12.797812 -28.339942 -23.351225 38.887221 -1.146627 2.214905 0.057305 -0.006980 -219663.000000 0 0 1
11.613812 -28.258342 -22.386225 37.875554 -1.180854 2.203152 0.044701 0.000503 -50309.900000 0 0 1
11.408612 -26.869442 -22.075125 36.598285 -1.169269 2.218271 0.030533 -0.003309 390277.000000 0 0 1
10.166912 -26.622242 -21.428025 35.654875 -1.205994 2.215529 0.028727 -0.002974 183784.000000 0 0 1
9.835912 -25.160242 -21.260825 34.377399 -1.198133 2.237570 0.031944 -0.008371 18150.300000 0 0 1
10.563312 -24.513442 -20.225825 33.489944 -1.163923 2.219228 0.020596 -0.009022 276287.000000 0 0 1
10.097612 -23.192142 -20.017325 32.257255 -1.160159 2.240244 0.017000 -0.010006 -213142.000000 0 0 1
10.549112 -22.549942 -18.693025 31.132183 -1.133230 2.214848 0.016826 -0.013984 -226625.000000 0 0 1
9.741212 -22.946942 -17.604925 30.518629 -1.169341 2.185674 0.023880 -0.014354 159092.000000 0 0 1
10.009712 -22.335742 -16.355525 29.437780 -1.149484 2.159876 0.015957 -0.013050 -85109.000000 0 0 1
9.052912 -22.853342 -15.220325 28.911740 -1.193630 2.125205 0.014183 -0.010116 289161.000000 0 0 1
9.332112 -24.182342 -14.885525 29.890681 -1.202499 2.092086 0.016918 -0.013844 -65497.800000 0 0 1
8.653412 -24.543142 -13.716925 29.417705 -1.231825 2.055879 0.009842 -0.009710 -324178.000000 0 0 1
8.680212 -26.079242 -13.549925 30.644304 -1.249490 2.028810 0.020534 -0.013271 33984.200000 0 0 1
9.965612 -26.509942 -13.160225 31.229504 -1.211219 2.005789 0.032224 -0.012753 -118596.000000 0 0 1
10.190812 -27.881442 -13.319825 32.536828 -1.220376 1.992567 0.035085 -0.013595 -771439.000000 0 0 1
11.535512 -28.400442 -12.767925 33.206521 -1.184979 1.965463 0.042967 -0.009940 -288840.000000 0 0 1
12.746512 -28.010142 -13.329425 33.536773 -1.143736 1.979540 0.034136 -0.004282 -456245.000000 0 0 1
12.919912 -28.123742 -14.699425 34.262838 -1.140157 2.014203 0.034669 -0.009887 186487.000000 0 0 1
14.382712 -27.748242 -15.216825 34.761747 -1.092593 2.023887 0.012107 -0.003775 1235420.000000 0 0 1
15.418212 -28.648642 -14.883525 35.776881 -1.077071 1.999849 0.030982 -0.002078 -674358.000000 0 0 1
16.575712 -28.118242 -15.453625 36.113768 -1.038133 2.012981 0.045993 -0.007695 -281674.000000 0 0 1
17.799712 -29.059942 -15.333325 37.368714 -1.021224 1.993607 0.031143 -0.003146 325581.000000 0 0 1
17.762512 -30.148042 -16.179825 38.551238 -1.038373 2.003907 0.015346 0.001683 -265636.000000 0 0 1
19.097312 -30.513742 -16.424525 39.567168 -1.011579 1.998854 0.018184 0.005971 182523.000000 0 0 1
19.181112 -31.618942 -17.538725 40.930177 -1.025513 2.013632 0.021936 0.002465 69090.500000 0 0 1
19.032212 -32.956842 -17.095025 41.720719 -1.047094 1.992975 0.009782 0.010196 100673.000000 0 0 1
19.585012 -33.935842 -18.001725 43.119324 -1.047371 2.001474 0.019508 0.009814 232574.000000 0 0 1
19.595912 33.739573 -17.495625 42.760442 1.044615 1.992324 0.006354 0.014734 -254804.000000 0 0 1
20.477412 33.447373 -16.458325 42.531490 1.021434 1.968137 0.016133 0.009952 -227026.000000 0 0 1
20.276712 32.142773 -15.938225 41.210799 1.008014 1.967900 0.015738 0.007176 -530629.000000 0 0 1
21.313812 31.821373 -14.836325 41.073043 0.980631 1.940370 0.000940 -0.001166 116083.000000 0 0 1
22.634812 31.478273 -15.267425 41.669061 0.947392 1.945930 0.009674 0.007461 213857.000000 0 0 1
23.395612 31.001273 -14.215525 41.358370 0.924316 1.921667 0.020759 0.004403 -451627.000000 0 0 1
22.969512 29.721773 -13.495825 39.913902 0.912851 1.915718 0.020414 0.005223 -1116390.000000 0 0 1
23.204712 28.549973 -14.312725 39.476749 0.888314 1.941811 0.021410 0.005831 111516.000000 0 0 1
22.930512 27.268773 -13.703825 38.173147 0.871605 1.937983 0.005599 0.007500 -1030740.000000 0 0 1
21.531612 27.010373 -13.185825 36.973457 0.897789 1.935454 0.009138 0.002574 -1591660.000000 0 0 1
20.667412 26.716073 -14.243425 36.657409 0.912365 1.969859 0.014859 -0.010594 -1168370.000000 0 0 1
19.385612 27.153173 -13.971425 36.170395 0.950779 1.967377 0.017092 -0.010947 -1043710.000000 0 0 1
19.108212 28.639373 -14.389825 37.314937 0.982424 1.966689 0.013853 -0.015464 -611984.000000 0 0 1
19.054712 28.958773 -15.799725 38.096245 0.988822 1.998444 0.015065 -0.014257 238059.000000 0 0 1
17.887412 28.462473 -16.448925 37.425112 1.009716 2.025856 0.014476 0.000184 -121984.000000 0 0 1
17.714012 29.119773 -17.855825 38.478278 1.024285 2.053358 0.009260 -0.000385 -174618.000000 0 0 1
17.085812 30.375273 -17.728725 39.101021 1.058414 2.041382 0.008634 -0.002140 -159494.000000 0 0 1
17.295212 31.089273 -18.905025 40.287308 1.063123 2.059243 0.007373 0.010347 -639306.000000 0 0 1
16.229512 32.058173 -19.365925 40.818654 1.102160 2.065122 0.006163 0.005279 -531879.000000 0 0 1
16.149412 33.186173 -18.493525 41.281183 1.117901 2.035311 0.003925 0.002524 133075.000000 0 0 1
15.254412 34.133073 -19.060425 41.965028 1.150515 2.042268 0.006911 0.003642 34310.100000 0 0 1
15.190012 -33.692742 -18.172225 41.184549 -1.147245 2.027775 0.008410 0.000195 -157979.000000 0 0 1
14.238412 -32.728242 -18.546425 40.222382 -1.160444 2.050028 0.000496 0.002603 -97689.000000 0 0 1
14.164012 -31.712642 -17.578425 38.927007 -1.150743 2.039325 0.012711 -0.007147 -96548.000000 0 0 1
13.079312 -30.646842 -17.807125 37.780828 -1.167423 2.061591 0.029829 -0.012538 -432640.000000 0 0 1
11.793112 -31.174942 -17.725025 37.750907 -1.209146 2.059550 0.029297 -0.009829 -612950.000000 0 0 1
10.776912 -30.193042 -17.900325 36.717615 -1.227958 2.080036 0.028061 -0.010628 264059.000000 0 0 1
9.428812 -30.891942 -18.172925 37.060353 -1.274558 2.083299 0.044904 -0.020050 -1087760.000000 0 0 1
8.961012 -31.731542 -17.106425 37.145932 -1.295563 2.049377 0.044580 -0.017425 554054.000000 0 0 1
7.924112 -32.690042 -17.406325 37.873612 -1.332982 2.048330 0.066153 -0.013918 712780.000000 0 0 1
6.544012 -32.105942 -17.880725 37.327415 -1.369725 2.070339 0.048410 -0.008946 -251181.000000 0 0 1
6.448912 -31.472542 -19.121525 37.386389 -1.368688 2.107676 0.043651 -0.006678 -200782.000000 0 0 1
6.312812 -32.480342 -20.096525 38.712976 -1.378832 2.116613 0.033404 -0.007694 -943972.000000 0 0 1
6.447812 -31.853342 -21.525625 38.981562 -1.371073 2.155797 0.025006 0.010652 355050.000000 0 0 1
7.757712 -31.460842 -21.951325 39.138566 -1.329036 2.166223 0.040385 0.005525 1613430.000000 0 0 1
8.874412 -32.397142 -22.063825 40.188834 -1.303429 2.151968 0.039408 -0.003763 1056160.000000 0 0 1
8.625212 -33.528442 -23.099725 41.619082 -1.319005 2.159192 0.038350 -0.004458 -322325.000000 0 0 1
7.635412 -34.455042 -22.688825 41.955121 -1.352716 2.142170 0.038870 -0.009793 -82309.700000 0 0 1
7.455412 33.691773 -23.683725 41.852569 1.353023 2.172302 0.035395 -0.017432 -299161.000000 0 0 1
6.243912 32.783873 -23.436225 40.780208 1.382594 2.183029 0.040899 -0.024025 646994.000000 0 0 1
4.899312 33.259273 -23.464125 40.996922 1.424541 2.180151 0.037597 -0.019071 745589.000000 0 0 1
4.514912 34.045473 -22.316525 40.957367 1.438951 2.147033 0.018771 -0.019859 -1106330.000000 0 0 1
3.266812 -34.260842 -22.669725 41.211573 -1.475733 2.153258 -0.003487 -0.010283 -718156.000000 0 0 1
2.161112 33.981273 -22.734025 40.941827 1.507285 2.159491 -0.008263 -0.020081 -922674.000000 0 0 1
1.064712 -34.395542 -23.146125 41.472039 -1.539851 2.162907 -0.009730 -0.009998 -1482760.000000 0 0 1
-0.263188 34.166373 -22.702025 41.021851 -1.563093 2.157253 -0.014891 -0.013757 -870028.000000 0 0 1
-0.528188 34.262573 -21.309325 40.352078 -1.555382 2.127140 -0.021281 -0.006585 737286.000000 0 0 1
-1.804688 33.685473 -20.942425 39.705832 -1.517273 2.126380 -0.010062 -0.003837 924891.000000 0 0 1
-1.989988 33.803973 -19.437425 39.044617 -1.511996 2.091887 -0.009080 -0.000496 352289.000000 0 0 1
-1.075988 32.953373 -18.717925 37.913629 -1.538156 2.087135 -0.012889 -0.006990 69168.700000 0 0 1
-1.232588 32.934873 -17.346725 37.244248 -1.533389 2.055285 -0.025559 -0.002571 -688260.000000 0 0 1
-0.277988 32.066173 -16.564925 36.093122 -1.562127 2.047609 -0.044726 0.001370 -52555.700000 0 0 1
0.852512 32.753973 -16.051725 36.485715 1.544774 2.026334 -0.021321 -0.000455 -138647.000000 0 0 1
1.569412 31.897073 -15.197625 35.367416 1.521634 2.014965 -0.009059 0.015485 183927.000000 0 0 1
2.465412 32.586173 -14.107525 35.594370 1.495282 1.978325 0.014297 0.006227 65539.200000 0 0 1
3.545912 33.229973 -14.708425 36.512222 1.464490 1.985409 0.020293 -0.000267 -433221.000000 0 0 1
4.511812 33.825073 -13.849225 36.827884 1.438192 1.956329 0.031578 -0.006061 91860.500000 0 0 1
5.828512 33.983773 -14.614625 37.449374 1.400940 1.971700 0.049198 -0.022395 -257198.000000 0 0 1
6.596212 32.805373 -14.663725 36.533920 1.372371 1.983812 0.045906 -0.013628 -743905.000000 0 0 1
7.760912 32.954273 -15.427525 37.205166 1.339505 1.998366 0.053778 -0.004081 -114333.000000 0 0 1
8.550612 31.652473 -15.395225 36.221609 1.306954 2.009790 0.046709 -0.011333 -163618.000000 0 0 1
9.196212 31.341673 -14.191125 35.612621 1.285389 1.980662 0.047611 -0.014855 -86671.100000 0 0 1
10.105712 30.250173 -14.345225 34.971186 1.248382 1.993471 0.047822 -0.009297 590631.000000 0 0 1
9.475012 28.823273 -14.065625 33.442469 1.253196 2.004894 0.034933 0.002122 155975.000000 0 0 1
8.514612 28.418873 -15.031625 33.257792 1.279696 2.039772 0.041294 -0.000869 339167.000000 0 0 1
8.107312 27.049273 -14.795025 31.879216 1.279593 2.053410 0.032162 0.000113 13539.200000 0 0 1
7.252512 26.322273 -15.886425 31.588597 1.301940 2.097766 0.030987 0.008182 324125.000000 0 0 1
7.994712 25.905973 -17.038325 32.020921 1.271464 2.131875 0.037813 0.004701 276362.000000 0 0 1
7.276812 24.971773 -17.861225 31.552572 1.287247 2.172537 0.026428 0.009024 -207414.000000 0 0 1
8.225412 24.118473 -18.633525 31.568440 1.242124 2.202175 0.026880 0.010860 -557650.000000 0 0 1
7.528912 23.068573 -19.261925 30.981693 1.255325 2.241733 0.032478 0.003667 289925.000000 0 0 1
8.432112 22.184373 -19.981925 31.024575 1.207569 2.270600 0.021074 0.003956 660974.000000 0 0 1
7.650112 21.290473 -21.003325 30.869858 1.225842 2.319081 0.021845 -0.008346 334589.000000 0 0 1
6.867712 20.266273 -20.407425 29.569414 1.244068 2.332497 0.013427 -0.009759 -184866.000000 0 0 1
6.252912 19.429373 -21.303625 29.503286 1.259436 2.377595 0.010299 -0.011471 -356707.000000 0 0 1
24.408312 -12.248427 -9.430225 28.891501 -0.465098 1.903290 0.020295 -0.005564 -69075.200000 0 0 1
24.908412 -11.657727 -8.251425 28.712673 -0.437741 1.862286 0.021348 -0.008653 238091.000000 0 0 1
24.160812 -12.112527 -7.153325 27.957615 -0.464711 1.829537 0.015876 -0.003336 -709662.000000 0 0 1
24.752812 -11.840027 -5.725325 28.029757 -0.446162 1.776503 0.012449 -0.001223 -509118.000000 0 0 1
24.853612 -10.451527 -5.442025 27.505492 -0.398073 1.769963 0.018320 -0.004234 484403.000000 0 0 1
25.905312 -9.815327 -6.159325 28.378921 -0.362179 1.789576 0.021887 -0.014977 -1331010.000000 0 0 1
26.069612 -8.323327 -5.730725 27.959679 -0.309043 1.777223 0.038301 -0.016358 -387404.000000 0 0 1
26.659812 -8.064127 -4.467725 28.208798 -0.293733 1.729847 0.047911 -0.023013 -46603.000000 0 0 1
28.031812 -8.364327 -4.527525 29.601401 -0.289976 1.724349 0.049536 -0.019340 -1090320.000000 0 0 1
28.641712 -8.159227 -3.130325 29.945277 -0.277521 1.675522 0.055507 -0.015729 -503508.000000 0 0 1
28.929212 -6.798727 -2.937425 29.862191 -0.230824 1.669322 0.066701 -0.014424 443368.000000 0 0 1
29.771912 -6.667827 -1.790325 30.561936 -0.220328 1.629410 0.056114 -0.009508 22313.200000 0 0 1
29.958712 -5.203927 -1.401725 30.439615 -0.171987 1.616862 0.059542 -0.018402 154019.000000 0 0 1
28.813412 -4.573327 -0.812625 29.185414 -0.157409 1.598643 0.084471 -0.016546 249531.000000 0 0 1
28.990512 -3.257527 -0.255225 29.174071 -0.111896 1.579545 0.079794 -0.020437 -300145.000000 0 0 1
29.695012 -3.144927 1.093775 29.881109 -0.105514 1.534184 0.070536 -0.023313 -353536.000000 0 0 1
28.891612 -3.629827 2.116575 29.195561 -0.124981 1.498236 0.079516 -0.032584 335272.000000 0 0 1
29.632212 -3.499027 3.304575 30.020517 -0.117538 1.460496 0.061910 -0.028121 21841.200000 0 0 1
28.974912 -4.136327 4.570175 29.623323 -0.141797 1.415901 0.069696 -0.031291 -200312.000000 0 0 1
29.067312 -5.552227 4.583375 29.945671 -0.188739 1.417136 0.067078 -0.034840 245966.000000 0 0 1
29.093112 -6.032027 5.906375 30.293230 -0.204439 1.374566 0.061622 -0.033199 -422302.000000 0 0 1
29.894012 -7.335327 5.967175 31.353886 -0.240624 1.379311 0.047416 -0.034347 -127401.000000 0 0 1
31.292512 -7.115727 5.835075 32.617526 -0.223592 1.390934 0.052559 -0.034802 94015.400000 0 0 1
31.972412 -8.355627 5.878475 33.564984 -0.255622 1.394751 0.046964 -0.036092 -153135.000000 0 0 1
33.497212 -8.241427 5.769175 34.975245 -0.241242 1.405089 0.041556 -0.029932 -326291.000000 0 0 1
34.017612 -7.735027 4.579275 35.185201 -0.223581 1.440278 0.037995 -0.025997 101485.000000 0 0 1
-35.411522 -7.822327 4.703575 36.568953 0.217406 1.441817 0.035315 -0.017518 563845.000000 0 0 1
-34.662722 -7.438327 3.401975 35.614694 0.211386 1.475129 0.035196 -0.012521 -122292.000000 0 0 1
-34.667022 -8.511827 2.497675 35.783963 0.240768 1.500941 0.037384 -0.015342 369943.000000 0 0 1
-33.624322 -8.304427 1.553375 34.669461 0.242131 1.525976 0.048072 -0.017922 390.319000 0 0 1
-33.399922 -9.582427 0.725775 34.754920 0.279395 1.549912 0.053791 -0.015059 -382641.000000 0 0 1
-32.763422 -10.563327 1.486775 34.456294 0.311890 1.527633 0.042751 -0.013900 221033.000000 0 0 1
-32.777322 -11.771127 0.777875 34.835576 0.344780 1.548465 0.038714 -0.012573 -925465.000000 0 0 1
-32.626222 -13.095327 1.628875 35.193909 0.381691 1.524497 0.030652 -0.019151 301900.000000 0 0 1
-31.401222 -13.412727 2.262075 34.220681 0.403682 1.504646 0.022500 -0.018078 -224576.000000 0 0 1
-30.355022 -13.741827 1.420475 33.350906 0.425100 1.528192 0.016255 -0.004695 -481080.000000 0 0 1
-29.020022 -14.181427 2.064875 32.365696 0.454549 1.506955 0.017940 -0.004906 275605.000000 0 0 1
-28.153522 -13.158627 2.526675 31.179390 0.437220 1.489671 0.019381 -0.007169 275224.000000 0 0 1
-27.017722 -13.747327 3.150775 30.477429 0.470684 1.467231 0.027081 -0.005639 261881.000000 0 0 1
-26.064022 -12.612527 3.616575 29.180279 0.450689 1.446538 0.026552 -0.000649 -324106.000000 0 0 1
-24.917822 -12.961027 4.341275 28.420640 0.479638 1.417445 0.022604 -0.004030 -147506.000000 0 0 1
-24.431122 -11.814027 4.983175 27.591357 0.450413 1.389193 0.026273 0.004480 446745.000000 0 0 1
-22.965722 -11.974427 5.500175 26.477599 0.480624 1.361543 0.024341 0.010567 465980.000000 0 0 1
-22.913722 -12.827627 6.652975 27.089643 0.510354 1.322667 0.026558 0.010448 398141.000000 0 0 1
-21.600922 -13.225927 7.061575 26.294312 0.549404 1.298900 0.012210 0.016502 322303.000000 0 0 1
-21.075622 -12.721327 8.438575 26.023519 0.543065 1.240559 0.009726 0.013504 -366294.000000 0 0 1
-20.759522 -11.336227 8.562775 25.155296 0.499824 1.223458 0.006731 0.014491 528455.000000 0 0 1
-21.853622 -10.482927 8.864175 25.807870 0.447267 1.220189 0.025306 0.008893 -583158.000000 0 0 1
-22.123222 -10.353827 10.392375 26.545059 0.437727 1.168536 0.040301 0.011080 -280642.000000 0 0 1
-22.618522 -11.520027 11.076475 27.694708 0.471074 1.159335 0.033753 -0.000316 189354.000000 0 0 1
-23.927822 -11.882927 10.733975 28.791715 0.460936 1.188756 0.032529 -0.000140 -772475.000000 0 0 1
-25.039422 -11.466627 11.701975 29.923108 0.429440 1.169004 0.034377 -0.004291 -364762.000000 0 0 1
-25.051122 -12.236027 12.915375 30.725982 0.454359 1.136976 0.030299 -0.002251 346159.000000 0 0 1
-26.210122 -11.960527 13.687175 31.896136 0.428107 1.127281 0.017002 -0.004601 45771.800000 0 0 1
-26.346522 -12.810327 14.970175 32.899086 0.452567 1.098387 0.016972 -0.005360 -361231.000000 0 0 1
-26.594622 -14.145627 14.652075 33.497104 0.488839 1.118076 0.008361 -0.002522 262369.000000 0 0 1
-26.321322 -14.941127 15.831675 34.156862 0.516288 1.088856 0.002318 0.004991 -571415.000000 0 0 1
-26.335222 -16.438927 15.477175 34.688978 0.558037 1.108315 0.008705 -0.004729 24437.600000 0 0 1
-27.490722 -17.207327 15.794675 36.073587 0.559269 1.117595 -0.011579 0.002616 116514.000000 0 0 1
-27.104322 -18.560427 15.807175 36.455459 0.600436 1.122310 -0.005582 0.006437 55898.600000 0 0 1
-28.139822 -19.511927 16.450875 37.989422 0.606277 1.122936 -0.014594 0.010895 -119606.000000 0 0 1
-28.286422 -19.436027 17.862475 38.690423 0.602026 1.090912 0.004073 0.011701 -76850.100000 0 0 1
-28.754122 -20.693827 18.416275 39.927349 0.623814 1.091399 0.009444 0.007746 101015.000000 0 0 1
-27.681122 -21.760327 18.770875 39.901154 0.666212 1.081013 0.002880 0.002106 236106.000000 0 0 1
-26.713722 -21.441727 19.759775 39.545156 0.676354 1.047571 0.014812 0.005820 909231.000000 0 0 1
-25.678322 -22.421127 19.875175 39.460179 0.717783 1.042947 0.027476 -0.000875 607959.000000 0 0 1
-24.274222 -22.088027 20.401975 38.644009 0.738278 1.014615 0.038034 0.002560 540981.000000 0 0 1
-23.315722 -21.520027 19.514275 37.249717 0.745369 1.019400 0.044328 -0.001819 555334.000000 0 0 1
-21.998122 -21.675727 20.003275 36.795184 0.778016 0.996030 0.058508 0.000393 1122210.000000 0 0 1
-20.792122 -21.282127 19.044375 35.326046 0.797044 1.001425 0.056546 -0.009122 767458.000000 0 0 1
-20.622322 -22.249227 17.983175 35.266172 0.823328 1.035696 0.051221 -0.016614 354429.000000 0 0 1
-19.350422 -22.175727 17.363375 34.171458 0.853330 1.037790 0.048814 -0.007310 149716.000000 0 0 1
-19.170222 -23.094227 16.152975 34.084591 0.877977 1.077072 0.041159 -0.002122 -755110.000000 0 0 1
-19.171422 -24.537827 16.471775 35.227372 0.907562 1.084240 0.041481 -0.008865 270099.000000 0 0 1
-18.096222 -25.147977 17.183875 35.428514 0.947044 1.064399 0.042425 -0.013226 2839.770000 0 0 1
-16.730222 -25.185647 16.480775 34.435928 0.984451 1.071745 0.040223 -0.014280 -441198.000000 0 0 1
-16.119522 -23.931227 16.432175 33.204804 0.978025 1.053107 0.033579 -0.013282 319059.000000 0 0 1
-14.926422 -24.082427 15.617775 32.352377 1.015941 1.067016 0.033406 -0.007694 670992.000000 0 0 1
-14.124022 -22.762827 15.420575 30.910006 1.015449 1.048483 0.032777 -0.005401 -230111.000000 0 0 1
-14.760422 -21.742227 14.693275 30.107920 0.974384 1.060976 0.027930 -0.005602 751581.000000 0 0 1
-15.812722 -20.989327 15.394375 30.456212 0.925142 1.040882 0.028347 -0.008786 724746.000000 0 0 1
-15.368122 -19.865927 16.412275 30.003283 0.912367 0.992001 0.029004 -0.007048 -507004.000000 0 0 1
-14.839722 -18.751627 15.750475 28.634216 0.901332 0.988363 0.022281 -0.006564 28254.500000 0 0 1
-14.831022 -17.659127 16.603775 28.416357 0.872224 0.946775 0.014259 -0.009195 -609581.000000 0 0 1
-14.297122 -16.295827 16.001575 26.944612 0.850638 0.934937 0.019635 -0.007576 -61715.300000 0 0 1
-15.051922 -15.663827 15.006875 26.403071 0.805317 0.966265 0.001945 -0.004480 -141536.000000 0 0 1
-14.878322 -16.174627 13.724875 25.910524 0.827119 1.012546 0.004790 -0.010121 102631.000000 0 0 1
-15.866722 -15.481627 12.732475 25.564616 0.773114 1.049447 0.000844 -0.006430 -111301.000000 0 0 1
-17.212622 -15.710527 13.053375 26.711152 0.739806 1.060213 -0.000659 -0.008072 -127676.000000 0 0 1
-18.058322 -14.719827 12.470775 26.425301 0.683897 1.079323 0.003454 -0.003372 293933.000000 0 0 1
-19.572522 -15.096027 12.588475 27.738842 0.656986 1.099747 0.005254 -0.003155 370469.000000 0 0 1
-20.044822 -16.181327 11.831275 28.348004 0.679150 1.140260 0.019149 -0.008564 41697.300000 0 0 1
-20.145122 -15.979327 10.462775 27.760305 0.670587 1.184352 0.013505 0.003222 -464424.000000 0 0 1
-20.882722 -17.018027 9.571375 28.588679 0.683781 1.229408 0.010932 0.006824 117657.000000 0 0 1
-20.244822 -18.288127 9.547075 28.904240 0.734662 1.234175 0.015575 0.012945 -128070.000000 0 0 1
-21.061822 -19.308927 9.033875 29.967414 0.742005 1.264576 0.013767 -0.001175 -119357.000000 0 0 1
-20.522322 -20.727327 9.261475 30.603312 0.790368 1.263346 0.024497 0.003392 1046140.000000 0 0 1
-19.259122 -20.997827 8.593775 29.760301 0.828562 1.277858 0.041594 0.006583 811567.000000 0 0 1
-18.857422 -22.377127 8.673275 30.521532 0.870550 1.282657 0.048292 -0.003580 -430078.000000 0 0 1
-17.579122 -22.735127 7.934175 29.813800 0.912603 1.301426 0.043830 0.002136 -395569.000000 0 0 1
-16.475422 -22.038927 8.461575 28.788055 0.928859 1.272464 0.022141 -0.006012 -23161.000000 0 0 1
-15.273322 -22.335227 7.768775 28.151210 0.971011 1.291202 0.027226 0.005559 924951.000000 0 0 1
-13.948022 -21.872527 8.500675 27.298649 1.003119 1.254135 -0.037838 0.010477 560284.000000 0 0 1
-12.837122 -22.376227 7.814875 26.954768 1.049944 1.276647 -0.010599 0.018962 -697714.000000 0 0 1
-11.616822 -21.874527 8.309475 26.124565 1.082606 1.247102 0.000351 0.005471 -392682.000000 0 0 1
-10.453522 -22.528627 7.603375 25.973573 1.136352 1.273710 0.005213 0.012989 -668603.000000 0 0 1
-10.525522 -23.951127 7.743375 27.283749 1.156743 1.283032 0.005861 0.018433 -771525.000000 0 0 1
-9.321522 -24.508627 7.339175 27.229159 1.207355 1.297888 0.004932 0.019582 -409547.000000 0 0 1
-9.401622 -26.061807 7.272475 28.644322 1.224583 1.314098 0.003692 0.010265 -260681.000000 0 0 1
-10.025322 -26.610297 6.112275 29.085648 1.210496 1.359071 0.003410 0.008738 -99266.400000 0 0 1
-10.122422 -28.026337 6.228875 30.442370 1.224201 1.364729 0.022086 0.009816 824759.000000 0 0 1
-8.850822 -28.689197 5.556575 30.533303 1.271553 1.387792 0.011595 0.001909 1114740.000000 0 0 1
-7.654222 -28.346397 6.255475 30.020598 1.307062 1.360885 0.013332 0.001504 -164777.000000 0 0 1
-6.501322 -29.107517 5.979075 30.418154 1.351048 1.372945 0.025915 0.006185 295105.000000 0 0 1
-6.445222 -30.574147 6.455375 31.905975 1.363032 1.367065 0.033617 -0.007034 -531717.000000 0 0 1
-6.327022 -30.622437 7.882275 32.247405 1.367049 1.323863 0.034850 -0.005657 114093.000000 0 0 1
-6.367022 -31.966217 8.392975 33.657392 1.374190 1.318772 0.063022 -0.009907 -182554.000000 0 0 1
-6.616922 -32.190017 9.911675 34.325241 1.368062 1.277867 0.062947 -0.008228 -322876.000000 0 0 1
-5.560822 -31.826297 10.756575 34.052017 1.397818 1.249405 0.043683 0.003925 86908.500000 0 0 1
-6.095222 -31.777997 12.057575 34.530826 1.381292 1.214097 0.033914 -0.001575 1030.430000 0 0 1
-5.284822 -30.875067 13.035875 33.928353 1.401271 1.176436 0.033583 -0.007070 124630.000000 0 0 1
-5.536822 -29.482597 12.924175 32.663653 1.385159 1.163994 0.024748 0.005949 279707.000000 0 0 1
-4.780822 -28.717087 13.892675 32.257306 1.405829 1.125547 0.015996 -0.000871 -492883.000000 0 0 1
-5.556822 -28.284777 15.137375 32.558363 1.376807 1.087240 0.022268 0.005698 -477658.000000 0 0 1
-6.137322 -29.409287 15.803875 33.946066 1.365062 1.086531 0.014437 -0.009277 -239230.000000 0 0 1
-5.362822 -30.212097 16.660975 34.915881 1.395120 1.073359 -0.005178 -0.012413 -567398.000000 0 0 1
-6.077522 -31.454697 17.132175 36.329680 1.379933 1.079720 -0.006004 -0.008097 -807734.000000 0 0 1
-6.245122 -32.371637 16.088375 36.684605 1.380218 1.116801 0.005923 -0.002437 142473.000000 0 0 1
-6.498322 -33.655467 16.630175 38.098312 1.380060 1.119084 0.007906 -0.003865 -58845.900000 0 0 1
-5.609822 34.398002 15.932275 38.321405 -1.409134 1.142025 0.006022 -0.006863 205491.000000 0 0 1
-5.984522 34.266048 14.523975 37.695124 -1.397892 1.175262 0.019738 -0.008798 507564.000000 0 0 1
-5.236822 33.239050 13.846875 36.386738 -1.414531 1.180408 0.023877 -0.007232 465375.000000 0 0 1
-3.997822 33.683782 13.029875 36.336723 -1.452662 1.204043 0.032840 -0.012654 171241.000000 0 0 1
-4.334822 33.837612 11.634775 36.043622 -1.443384 1.242113 0.028412 -0.011447 -107491.000000 0 0 1
-3.328822 34.534360 10.979375 36.390243 -1.474702 1.264308 0.036460 -0.018034 -753990.000000 0 0 1
-3.706822 -34.221468 9.540275 35.719270 1.462898 1.300424 0.028172 -0.018824 -953488.000000 0 0 1
-3.933822 33.847081 8.560675 35.133816 -1.455092 1.324659 0.028931 -0.030526 484353.000000 0 0 1
-4.808822 32.729847 8.807575 34.233624 -1.424915 1.310591 0.038301 -0.025828 727850.000000 0 0 1
-6.272322 33.077027 9.246975 34.913297 -1.383394 1.302742 0.057319 -0.022927 -42820.500000 0 0 1
-7.008322 33.724049 8.257575 35.420554 -1.365899 1.335502 0.072133 -0.022873 -636638.000000 0 0 1
-8.331822 33.955209 8.690175 36.026305 -1.330174 1.327176 0.063483 -0.017888 -301180.000000 0 0 1
-9.267322 34.245016 7.532975 36.267756 -1.306508 1.361569 0.070862 -0.021026 -409262.000000 0 0 1
-9.185422 -33.559637 7.118775 35.514760 1.303635 1.368984 0.083050 -0.026512 96687.700000 0 0 1
-9.891722 -33.496497 5.903475 35.421921 1.283651 1.403353 0.064587 -0.018254 -563938.000000 0 0 1
-9.969422 -32.084317 5.282475 34.010253 1.269529 1.414845 0.039270 -0.017023 500949.000000 0 0 1
-10.975522 -31.201667 5.813975 33.582859 1.232554 1.396796 0.053033 -0.016408 448535.000000 0 0 1
-12.271522 -31.469707 5.295375 34.190258 1.198986 1.415291 0.057120 -0.014799 -195957.000000 0 0 1
-13.391222 -30.664997 5.955675 33.987306 1.159063 1.394655 0.045427 -0.014104 -401990.000000 0 0 1
-13.810322 -31.194577 7.170875 34.860409 1.154017 1.363615 0.061806 -0.014760 855276.000000 0 0 1
-14.881022 -30.403297 7.793075 34.735246 1.115621 1.344514 0.053796 -0.015292 806725.000000 0 0 1
31.843217 -12.960127 -12.638625 36.629089 -0.386525 1.923081 0.021434 -0.001438 254261.000000 0 0 1
30.786977 -12.931427 -11.669825 35.372935 -0.397653 1.907003 0.026474 -0.005430 435434.000000 0 0 1
30.635087 -14.188927 -11.040725 35.520864 -0.433743 1.886856 0.020212 0.003653 -374480.000000 0 0 1
31.673387 -14.680627 -10.007825 36.316398 -0.434024 1.849982 0.025976 -0.001512 -87310.600000 0 0 1
32.864127 -15.081627 -10.633725 37.690614 -0.430237 1.856812 0.030293 -0.008101 -430712.000000 0 0 1
33.941157 -15.289727 -9.753925 38.482683 -0.423251 1.827055 0.033506 -0.009306 580859.000000 0 0 1
35.309031 -15.648327 -10.403625 39.997915 -0.417170 1.833926 0.018720 -0.021085 368016.000000 0 0 1
-34.813454 -14.555627 -10.898125 39.276099 0.396015 1.851961 0.025835 -0.020000 -901660.000000 0 0 1
-33.491738 -14.848627 -11.156925 38.296935 0.417312 1.866410 0.044510 -0.020524 -378716.000000 0 0 1
-32.562188 -13.639427 -11.507425 37.131535 0.396670 1.885894 0.053340 -0.019703 90627.600000 0 0 1
-32.466978 -12.827927 -10.368725 36.416628 0.376281 1.859516 0.066887 -0.018596 161314.000000 0 0 1
-31.960308 -11.549227 -10.733125 35.637703 0.346760 1.876719 0.067039 -0.017907 -92280.700000 0 0 1
-32.501048 -10.394027 -9.864825 35.519976 0.309527 1.852223 0.073064 -0.023123 -288034.000000 0 0 1
-31.805248 -10.199227 -8.663525 34.505864 0.310317 1.824586 0.068690 -0.017767 -90870.800000 0 0 1
-32.381788 -9.267827 -7.739925 34.559792 0.278753 1.796670 0.070246 -0.023316 -461468.000000 0 0 1
-31.773868 -9.170727 -6.299225 33.665429 0.280988 1.759018 0.060891 -0.015381 202636.000000 0 0 1
-30.443108 -8.626127 -6.362625 32.275004 0.276115 1.769234 0.060299 -0.021406 554699.000000 0 0 1
-29.854528 -8.443927 -5.110625 31.443779 0.275636 1.734053 0.057957 -0.017219 -382313.000000 0 0 1
-29.121198 -9.713127 -4.548725 31.033529 0.321938 1.717901 0.061457 -0.011918 -429820.000000 0 0 1
-29.962618 -10.784627 -4.143425 32.112842 0.345499 1.700184 0.071622 -0.010364 -15522.600000 0 0 1
-30.400488 -10.652127 -2.806125 32.334684 0.337025 1.657689 0.044831 -0.010899 -148227.000000 0 0 1
-31.107648 -11.895627 -2.268325 33.381686 0.365244 1.638800 0.043805 -0.007001 579864.000000 0 0 1
-32.288028 -12.312427 -3.004725 34.686323 0.364310 1.657531 0.049351 -0.020572 870682.000000 0 0 1
-32.612768 -13.566827 -2.547925 35.413886 0.394221 1.642806 0.049109 -0.023804 94739.500000 0 0 1
-34.152738 -13.695927 -2.390225 36.874125 0.381385 1.635663 0.032592 -0.017058 237703.000000 0 0 1
-34.709383 -12.836327 -1.397925 37.033319 0.354224 1.608553 0.034026 -0.019391 227541.000000 0 0 1
34.756397 -13.101827 -1.233625 37.164322 -0.360489 1.603996 0.052648 -0.021292 -150701.000000 0 0 1
34.137437 -12.234327 -0.117325 36.263716 -0.344125 1.574032 0.050330 -0.028137 -288663.000000 0 0 1
34.610517 -12.332527 1.219975 36.762310 -0.342297 1.537605 0.051785 -0.023204 93760.300000 0 0 1
34.374327 -11.118127 1.899675 36.177560 -0.312823 1.518262 0.040277 -0.026608 -310418.000000 0 0 1
34.676437 -11.189027 3.405475 36.595722 -0.312123 1.477605 0.042722 -0.030242 -34363.200000 0 0 1
33.641017 -11.825527 4.112275 35.895291 -0.338029 1.455981 0.042479 -0.034764 92483.900000 0 0 1
34.129397 -12.472227 5.289675 36.719924 -0.350363 1.426239 0.034967 -0.030846 -414740.000000 0 0 1
32.980077 -12.764627 6.241375 35.910666 -0.369285 1.396106 0.048173 -0.017880 -304794.000000 0 0 1
32.517197 -11.581427 6.812075 35.183830 -0.342155 1.375952 0.044855 -0.025533 -219665.000000 0 0 1
32.181927 -11.683827 8.147375 35.193294 -0.348258 1.337173 0.040292 -0.014577 -497049.000000 0 0 1
31.662977 -10.466327 8.847475 34.501680 -0.319247 1.311463 0.038867 -0.028864 -63243.400000 0 0 1
30.329837 -10.213527 8.438275 33.097124 -0.324821 1.312995 0.036107 -0.027920 -50404.600000 0 0 1
29.729277 -9.250327 9.233975 32.475602 -0.301656 1.282483 0.043509 -0.022048 586908.000000 0 0 1
28.164327 -9.161527 9.117875 30.988684 -0.314493 1.272144 0.030324 -0.023443 826140.000000 0 0 1
27.758927 -8.491027 7.935975 30.093774 -0.296847 1.303932 0.038012 -0.029369 142858.000000 0 0 1
26.984917 -9.363127 7.111375 29.435107 -0.333979 1.326787 0.045804 -0.034638 19833.900000 0 0 1
26.104807 -8.694527 5.968175 28.154482 -0.321507 1.357196 0.059321 -0.037287 858432.000000 0 0 1
24.996747 -8.089227 6.694075 27.112425 -0.312975 1.321316 0.064710 -0.033424 1109640.000000 0 0 1
23.868347 -7.614027 5.975875 25.756212 -0.308797 1.336646 0.063696 -0.034483 233428.000000 0 0 1
24.120247 -6.366427 5.081875 25.458656 -0.258060 1.369834 0.061008 -0.032625 -574514.000000 0 0 1
24.826547 -6.699227 3.858575 26.002417 -0.263564 1.421853 0.057199 -0.035210 519092.000000 0 0 1
25.347947 -5.550427 3.250475 26.151314 -0.215567 1.446179 0.075684 -0.034496 -94060.200000 0 0 1
26.058057 -5.724927 1.892675 26.746576 -0.216263 1.499974 0.083597 -0.034068 368541.000000 0 0 1
25.178847 -5.902027 0.806975 25.873915 -0.230247 1.539603 0.069951 -0.028995 164006.000000 0 0 1
25.982747 -5.717027 -0.328725 26.606307 -0.216581 1.583152 0.069819 -0.025262 -186849.000000 0 0 1
25.239847 -5.872427 -1.656825 25.966908 -0.228598 1.634645 0.065431 -0.021791 739090.000000 0 0 1
24.051247 -5.063827 -1.714125 24.638243 -0.207512 1.640424 0.063745 -0.025398 694435.000000 0 1 0
23.332247 -5.140127 -2.912925 24.068647 -0.216838 1.692119 0.042174 -0.024729 -529067.000000 0 1 0
22.188347 -4.130227 -2.938025 22.759910 -0.184038 1.700245 0.025745 -0.021796 -472091.000000 0 1 0
22.701247 -2.789027 -2.966625 23.063524 -0.122245 1.699782 0.026145 -0.019659 552255.000000 0 1 0
23.203647 -2.358627 -4.219725 23.701865 -0.101301 1.749784 0.026818 -0.018547 -337518.000000 0 1 0
22.197447 -1.693727 -5.185025 22.857818 -0.076155 1.799626 0.017577 -0.005760 -332282.000000 0 1 0
21.685247 -0.562427 -4.566825 22.168043 -0.025930 1.778291 -0.002825 -0.001976 162046.000000 0 1 0
20.996047 0.340173 -5.393625 21.680426 0.016200 1.822215 0.011728 0.002865 -402114.000000 0 1 0
20.813147 1.669673 -4.641225 21.389620 0.080051 1.789521 0.017051 0.010737 -611369.000000 0 1 0
21.928147 2.529273 -4.610125 22.549813 0.114836 1.776690 0.023345 0.012873 -36783.600000 0 1 0
22.600547 2.374973 -3.396525 22.977415 0.104700 1.719160 0.036705 0.008960 -167259.000000 0 1 0
23.733547 3.432673 -3.266925 24.202010 0.143638 1.706195 0.024661 0.005114 -65968.100000 0 1 0
23.294447 4.772773 -3.241725 23.998320 0.202092 1.706292 0.010554 0.013189 870923.000000 0 1 0
24.424147 5.608073 -2.983925 25.236744 0.225700 1.689311 0.013475 0.006618 338303.000000 0 0 1
24.026947 7.070673 -3.062825 25.232310 0.286202 1.692481 0.009565 -0.001432 21560.000000 0 0 1
23.096447 7.455673 -2.054825 24.356831 0.312246 1.655260 0.026275 -0.006519 747242.000000 0 1 0
22.374047 8.616073 -2.441925 24.099744 0.367589 1.672296 0.013982 -0.002447 -277918.000000 0 1 0
21.287347 9.083473 -1.458425 23.190248 0.403316 1.633727 0.007196 -0.001765 -97245.400000 0 1 0
21.894847 9.702273 -0.327225 23.950480 0.417127 1.584459 0.012618 -0.001408 1195860.000000 0 1 0
20.852747 9.900773 0.633175 23.092494 0.443281 1.543374 0.009037 -0.007160 274558.000000 0 1 0
21.319447 10.323573 2.087175 23.779219 0.450954 1.482910 0.027772 -0.011159 -376311.000000 0 1 0
22.142347 11.501673 2.085375 25.038386 0.479080 1.487413 0.037635 -0.021246 550088.000000 0 0 1
21.564847 12.793973 1.897075 25.146118 0.535463 1.495283 0.034893 -0.013901 -844512.000000 0 0 1
20.606147 13.313373 2.949975 24.709543 0.573620 1.451125 0.030078 -0.005020 677490.000000 0 1 0
19.233047 12.855473 2.720975 23.293282 0.589205 1.453715 0.048749 -0.009295 1446850.000000 0 1 0
18.290847 13.612673 3.442475 23.058850 0.639801 1.420945 0.046331 -0.007283 -332647.000000 0 1 0
18.191247 13.584773 4.984875 23.244709 0.641434 1.354666 0.028142 -0.003832 -635873.000000 0 1 0
17.812347 12.353573 5.475975 22.357924 0.606377 1.323356 0.020364 -0.001701 547861.000000 0 1 0
18.249247 12.345073 6.880175 23.081868 0.594759 1.268119 0.032935 -0.009293 90420.300000 0 1 0
18.268047 10.922173 7.440075 22.547064 0.538862 1.234514 0.011317 -0.011810 -251365.000000 0 1 0
19.153047 10.078073 6.753275 22.671865 0.484377 1.268335 -0.009158 -0.014224 252128.000000 0 1 0
19.351047 8.862673 7.352975 22.518353 0.429482 1.238164 0.010149 -0.007484 -8440.360000 0 1 0
20.210247 7.855373 6.529575 22.645006 0.370712 1.278298 0.016193 -0.010018 193653.000000 0 1 0
19.713547 7.489573 5.233875 21.728117 0.363077 1.327524 -0.000457 -0.010998 862503.000000 0 1 0
20.687447 6.663173 4.603975 22.216321 0.311596 1.362050 0.013579 -0.020117 101638.000000 0 1 0
20.442847 6.515773 3.092175 21.677796 0.308552 1.427666 0.011050 -0.012382 -431442.000000 0 1 0
21.400747 5.746373 2.427075 22.291331 0.262325 1.461700 0.018868 -0.011616 127776.000000 0 1 0
21.243447 5.858573 1.077275 22.062806 0.269094 1.521949 0.025417 -0.000266 -278639.000000 0 1 0
22.209247 4.993873 0.279675 22.765492 0.221177 1.558511 0.026789 -0.005302 -354185.000000 0 1 0
22.070747 3.587373 0.501675 22.366018 0.161131 1.548364 0.029104 -0.000004 755936.000000 0 1 0
23.287147 2.855773 0.362575 23.464401 0.122024 1.555344 0.041407 -0.002606 339681.000000 0 1 0
23.108447 1.327773 0.620175 23.154868 0.057395 1.544009 0.058005 -0.011289 -10071.200000 0 1 0
22.212547 0.829073 -0.373025 22.231143 0.037307 1.587576 0.044238 -0.018636 902276.000000 0 1 0
22.490547 -0.498027 -0.842625 22.511836 -0.022140 1.608235 0.054466 -0.020150 -1137010.000000 0 1 0
22.447447 -1.734827 0.124275 22.514727 -0.077131 1.565277 0.075677 -0.020146 -236357.000000 0 1 0
23.333247 -1.718027 1.213075 23.427837 -0.073497 1.518994 0.085589 -0.022435 236073.000000 0 1 0
24.658147 -2.057327 0.864475 24.758920 -0.083241 1.535874 0.090267 -0.024643 -599542.000000 0 1 0
25.614847 -1.764727 2.037475 25.756280 -0.068786 1.491608 0.094586 -0.027454 -451413.000000 0 0 1
25.716847 -0.389427 2.300075 25.822436 -0.015142 1.481605 0.085044 -0.024880 495616.000000 0 0 1
26.264527 -0.098927 3.571975 26.506493 -0.003767 1.435627 0.083088 -0.022025 -207265.000000 0 0 1
25.748947 1.285673 4.006575 26.090494 0.049890 1.416622 0.069216 -0.016547 -331134.000000 0 0 1
26.152267 2.396873 3.191475 26.455086 0.091395 1.449864 0.075260 -0.011080 270165.000000 0 0 1
27.520217 2.622573 2.937575 27.800532 0.095009 1.464933 0.089522 -0.016908 -265254.000000 0 0 1
27.563557 3.618673 1.761675 27.855842 0.130538 1.507512 0.080060 -0.017041 -225377.000000 0 0 1
27.121397 3.093673 0.528475 27.302386 0.113577 1.551439 0.079345 -0.005831 194946.000000 0 0 1
27.317537 3.910473 -0.612725 27.602809 0.142183 1.592996 0.063597 -0.005720 503969.000000 0 0 1
28.730347 3.753373 -1.288325 29.003110 0.129906 1.615231 0.064848 -0.012038 1237450.000000 0 0 1
29.824207 4.138173 -0.422125 30.112887 0.137872 1.584815 0.081799 -0.022614 388990.000000 0 0 1
31.072027 3.905873 -1.026725 31.333382 0.125048 1.603570 0.071571 -0.022576 -649677.000000 0 0 1
32.272517 4.138073 -0.150525 32.537081 0.127527 1.575423 0.043134 -0.021798 -687663.000000 0 0 1
32.456167 3.162473 0.858475 32.621174 0.097132 1.544477 0.033497 -0.018516 4518.880000 0 0 1
31.805457 3.564073 2.024975 32.068524 0.111593 1.507609 0.041873 -0.011650 -186185.000000 0 0 1
31.840687 2.612873 3.256775 32.113284 0.081877 1.469206 0.038675 -0.005361 -388059.000000 0 0 1
30.914767 1.563073 3.147375 31.113855 0.050518 1.469466 0.061048 -0.011150 -46201.100000 0 0 1
31.021457 0.489773 4.074575 31.291737 0.015787 1.440213 0.056243 -0.012559 272203.000000 0 0 1
32.308687 -0.413627 3.986775 32.556362 -0.012802 1.448031 0.048976 -0.014148 121799.000000 0 0 1
33.477997 0.254573 4.395375 33.766261 0.007604 1.440255 0.034064 -0.009117 -474296.000000 0 0 1
34.514937 -0.702427 4.225975 34.779780 -0.020349 1.448989 0.019238 -0.012329 -1571250.000000 0 0 1
-35.031595 -0.007427 4.582575 35.330054 0.000212 1.440722 0.010128 -0.019810 -924044.000000 0 0 1
-34.606125 1.043273 3.733475 34.822566 -0.030138 1.463376 0.004179 -0.018385 224082.000000 0 0 1
-34.283600 0.691773 2.389475 34.373731 -0.020175 1.501226 0.013261 -0.017123 -816164.000000 0 0 1
-34.355092 1.877373 1.352775 34.432933 -0.054592 1.531499 0.023590 -0.023408 -31877.500000 0 0 1
-33.452768 2.927673 1.530375 33.615487 -0.087294 1.525255 0.015846 -0.028684 345787.000000 0 0 1
-32.152358 2.766773 0.973175 32.285852 -0.085840 1.540649 0.034047 -0.019064 -118828.000000 0 0 1
-31.176558 3.890573 1.378375 31.448597 -0.124150 1.526953 0.043212 -0.013957 -363382.000000 0 0 1
-30.672598 3.546573 2.616175 30.987591 -0.115116 1.486269 0.035867 -0.016614 216985.000000 0 0 1
-29.938948 4.597473 3.267075 30.465573 -0.152371 1.463351 0.041406 -0.017292 -184414.000000 0 0 1
-29.930148 4.391273 4.822975 30.632631 -0.145678 1.412693 0.038578 -0.015507 633842.000000 0 0 1
-31.168758 4.718073 5.464175 31.993888 -0.150231 1.399167 0.037129 -0.003668 1106790.000000 0 0 1
-32.202218 3.721673 5.483075 32.877010 -0.115061 1.403238 0.029938 -0.000695 61055.600000 0 0 1
-32.352588 2.821573 6.729875 33.165380 -0.086993 1.366459 0.014319 -0.004858 -540764.000000 0 0 1
-32.937138 3.553573 7.834375 34.042038 -0.107474 1.338577 0.020178 0.001528 562808.000000 0 0 1
-32.955718 2.779273 9.074575 34.295067 -0.084134 1.303004 0.016826 0.000847 -212806.000000 0 0 1
-33.858418 1.501273 9.133275 35.100755 -0.044311 1.307565 0.008554 0.003064 -649474.000000 0 0 1
-33.599578 0.431873 8.334475 34.620537 -0.012853 1.327670 0.008561 0.000873 -2943.890000 0 0 1
-34.513742 -0.632227 8.516875 35.554680 0.018316 1.328901 0.019423 0.002801 -118737.000000 0 0 1
-34.315923 -1.437427 9.811375 35.719908 0.041864 1.292544 0.026686 0.003547 -240530.000000 0 0 1
-33.110338 -2.183427 9.781075 34.593804 0.065849 1.284146 0.017314 -0.010418 218977.000000 0 0 1
-33.039448 -2.903727 10.986875 34.939207 0.087661 1.250912 0.022623 0.006065 467780.000000 0 0 1
-31.661608 -3.625427 11.164475 33.767538 0.114009 1.233828 0.028005 0.001476 183806.000000 0 0 1
-31.556188 -4.746227 10.272675 33.523835 0.149287 1.259357 0.024071 -0.003695 198414.000000 0 0 1
-30.382008 -5.540427 10.332175 32.565573 0.180377 1.247944 0.008937 -0.011897 102097.000000 0 0 1
-30.229268 -6.554027 9.171475 32.262670 0.213506 1.282546 0.018314 -0.010282 -476138.000000 0 0 1
-31.276748 -7.444527 9.205075 33.442329 0.233673 1.291944 0.020281 -0.016806 -566234.000000 0 0 1
-31.247348 -8.312827 8.052475 33.321798 0.260011 1.326722 0.035296 -0.014582 243271.000000 0 0 1
-32.435578 -9.304227 8.044075 34.689227 0.279352 1.336776 0.037180 -0.019677 145266.000000 0 0 1
-33.724378 -8.762527 7.928975 35.734915 0.254207 1.347051 0.034276 -0.022447 -327842.000000 0 0 1
-34.673474 -9.712827 8.333575 36.959941 0.273122 1.343365 0.044499 -0.026393 -171805.000000 0 0 1
7.054012 -24.380627 10.916375 27.628632 -1.289158 1.164608 0.061279 -0.007588 -52198.300000 0 0 1
6.683712 -24.989067 9.724875 27.635099 -1.309448 1.211193 0.053722 -0.008884 -997377.000000 0 0 1
5.449812 -25.601227 9.856275 27.969080 -1.361054 1.210663 0.049691 -0.007425 -454519.000000 0 0 1
5.161312 -26.519247 8.688175 28.379465 -1.378574 1.259657 0.037141 -0.004472 -274484.000000 0 0 1
4.725712 -25.912767 7.479175 27.381416 -1.390409 1.294133 0.047621 0.000014 -178956.000000 0 0 1
4.694812 -26.852757 6.446475 28.011942 -1.397710 1.338582 0.029819 -0.001212 -624543.000000 0 0 1
3.972512 -26.348397 5.181075 27.145210 -1.421155 1.378753 0.029465 0.000732 -527160.000000 0 0 1
2.599312 -26.203957 5.331675 26.866905 -1.471924 1.371022 0.008496 0.001873 -876306.000000 0 0 1
1.860412 -27.347157 4.937675 27.851549 -1.502872 1.392569 0.000231 -0.001084 -495977.000000 0 0 1
0.342812 -27.151117 4.880475 27.588398 -1.558171 1.392957 -0.000709 0.004946 -416915.000000 0 0 1
-0.194088 -26.830047 6.146775 27.525841 1.563562 1.345588 0.004457 0.004924 -369311.000000 0 0 1
-1.594688 -27.009727 6.247175 27.768608 1.511824 1.343881 -0.007256 0.011965 429006.000000 0 0 1
-2.109888 -28.495167 6.502875 29.303815 1.496887 1.347021 -0.008971 0.014375 -371883.000000 0 0 1
-1.805688 -29.005467 7.737875 30.074114 1.508623 1.310576 -0.008278 0.012464 54846.900000 0 0 1
-2.299288 -30.330027 7.784375 31.397353 1.495132 1.320252 0.003174 0.012933 -42622.600000 0 0 1
-2.118788 -31.058327 9.121475 32.439332 1.502682 1.285767 0.007773 0.006791 612741.000000 0 0 1
-0.799088 -31.545947 9.374675 32.919141 1.545471 1.282021 0.015545 0.003637 289009.000000 0 0 1
-0.571888 -31.793587 10.752575 33.567501 1.552811 1.244722 0.021078 0.003228 444400.000000 0 0 1
0.935812 -31.982067 11.092775 33.864111 -1.541544 1.237069 0.014454 -0.007367 371645.000000 0 0 1
1.467112 -33.268117 10.760875 34.995949 -1.526725 1.258243 0.024556 -0.008818 1089900.000000 0 0 1
2.885712 -33.268007 11.070075 35.180026 -1.484272 1.250688 0.018880 -0.004375 1264140.000000 0 0 1
3.337112 -33.865567 12.397575 36.217576 -1.472573 1.221424 0.026262 -0.003862 -561695.000000 0 0 1
3.139912 -33.048477 13.479975 35.829745 -1.476071 1.185080 0.033915 -0.003066 562303.000000 0 0 1
3.969512 -33.336437 14.627475 36.620187 -1.452280 1.159893 0.030254 -0.000527 -174100.000000 0 0 1
3.693912 -32.326477 15.753775 36.150070 -1.457021 1.119882 0.024196 -0.003933 -20059.300000 0 0 1
4.113912 -31.009937 15.595875 34.953852 -1.438902 1.108299 0.015101 -0.011691 -506350.000000 0 0 1
5.498212 -30.829317 15.643575 35.005694 -1.394308 1.107514 0.013144 -0.005093 -855202.000000 0 0 1
5.954912 -29.537237 14.846275 33.590493 -1.371856 1.112993 0.015347 -0.014937 -335837.000000 0 0 1
5.892912 -29.531087 13.406575 32.962824 -1.373834 1.151938 0.012282 -0.006814 -321708.000000 0 0 1
4.612612 -29.572877 12.814975 32.558484 -1.416069 1.166253 0.004411 0.003402 -578768.000000 0 0 1
4.614212 -29.600927 11.257275 32.003626 -1.416160 1.211356 0.001156 -0.005956 501354.000000 0 0 1
5.160712 -30.868317 10.703675 33.076497 -1.405144 1.241261 0.005409 -0.009312 1042190.000000 0 0 1
6.548812 -31.182197 10.896775 33.674264 -1.363787 1.241271 0.005119 -0.005933 448465.000000 0 0 1
7.017512 -32.518017 10.349375 34.839295 -1.358252 1.269184 -0.006962 -0.002967 -393245.000000 0 0 1
6.681512 -33.558907 11.179575 35.997580 -1.374268 1.255009 -0.014852 0.003631 140396.000000 0 0 1
6.857112 34.294708 10.634475 36.554604 1.373452 1.275608 -0.006238 0.003463 -187616.000000 0 0 1
6.583312 33.111837 11.634175 35.708371 1.374535 1.238927 -0.004451 0.006114 725141.000000 0 0 1
5.212612 32.797207 11.907175 35.279016 1.413180 1.226521 0.003085 0.003971 485489.000000 0 0 1
5.153512 31.565697 12.646275 34.393025 1.408961 1.194263 0.016479 0.006570 476104.000000 0 0 1
3.903212 31.474257 13.577575 34.499485 1.447413 1.166297 0.021578 0.003586 226859.000000 0 0 1
4.059912 32.027897 14.857275 35.538820 1.444707 1.139490 0.034255 0.003941 -480860.000000 0 0 1
2.982712 31.973607 15.719775 35.753594 1.477779 1.115565 0.035250 0.003309 -571507.000000 0 0 1
3.487612 32.233477 17.159775 36.682671 1.463017 1.084008 0.027010 0.003838 117999.000000 0 0 1
3.941312 33.546940 17.405275 37.998352 1.453846 1.094992 0.026119 0.003781 191154.000000 0 0 1
4.324912 33.577772 18.795775 38.722769 1.442699 1.063983 0.017719 0.003066 -3243.150000 0 0 1
4.576212 -34.075493 19.368375 39.461562 -1.437299 1.057770 0.008889 -0.003396 1025410.000000 0 0 1
3.398512 -33.226847 19.403175 38.627147 -1.468869 1.044517 0.015023 -0.003244 887041.000000 0 0 1
3.666812 -32.210987 20.329375 38.265869 -1.457447 1.010702 0.014901 0.000971 649803.000000 0 0 1
2.354812 -31.448967 20.723175 37.736357 -1.496059 0.989441 0.014044 0.004701 582938.000000 0 0 1
1.379412 -32.290097 21.300075 38.707187 -1.528103 0.988088 0.020543 0.001141 144470.000000 0 0 1
0.509212 -31.627617 22.222975 38.657808 -1.554697 0.958359 0.017310 -0.005446 712979.000000 0 0 1
-0.417488 -32.706247 22.963675 39.965026 1.558032 0.958688 0.009874 0.003167 -288601.000000 0 0 1
-1.188988 -33.395667 22.014275 40.016404 1.535208 0.988275 0.015358 -0.001040 461865.000000 0 0 1
-2.051288 -34.423757 22.573375 41.216018 1.511277 0.991202 0.009341 -0.000737 455307.000000 0 0 1
-3.350188 -33.984504 23.276075 41.327303 1.472534 0.972527 0.015465 0.002821 -228583.000000 0 0 1
-4.323088 -33.416247 22.393075 40.457193 1.442140 0.984235 0.014165 -0.005262 243858.000000 0 0 1
-5.496288 -33.195147 23.179175 40.858306 1.406710 0.967565 0.017459 -0.006281 377883.000000 0 0 1
-6.735488 -32.734517 22.362375 40.211830 1.367868 0.981093 0.001629 -0.011046 231766.000000 0 0 1
-7.267788 -33.790327 21.556075 40.734154 1.358939 1.013152 0.000761 -0.006411 242746.000000 0 0 1
-8.283688 -33.228047 20.705675 40.018091 1.326478 1.026977 0.017808 -0.018249 479046.000000 0 0 1
-9.405488 -34.294641 20.500875 41.047186 1.303123 1.047837 0.021308 -0.019062 104947.000000 0 0 1
-10.015088 34.476367 21.714575 41.957653 -1.288086 1.026828 0.039188 -0.022874 -396112.000000 0 0 1
-11.379988 34.174871 21.512175 41.954733 -1.249352 1.032415 0.044649 -0.025812 19322.800000 0 0 1
-12.142588 33.918810 22.831975 42.652400 -1.227021 1.005929 0.038365 -0.014852 -326180.000000 0 0 1
-12.330588 -34.071606 23.721375 43.308445 1.223558 0.991147 0.022317 -0.012943 335395.000000 0 0 1
-11.097088 -33.566557 24.233475 42.861643 1.251508 0.969892 0.009737 -0.009122 406272.000000 0 0 1
-11.176188 -32.188627 24.956375 42.235477 1.236610 0.938639 0.000790 -0.006559 -35267.400000 0 0 1
-11.800888 -32.242047 26.236475 43.210684 1.219931 0.918295 0.014878 -0.004126 -150111.000000 0 0 1
-11.978188 -30.916477 26.643175 42.534272 1.201167 0.893879 0.028503 -0.009666 312666.000000 0 0 1
-12.922688 -30.720767 27.861275 43.439752 1.172616 0.874504 0.003619 -0.006835 171011.000000 0 0 1
-12.188488 -30.445517 29.036775 43.802090 1.189999 0.846100 -0.001978 -0.003900 413998.000000 0 0 1
-13.125388 -30.307267 30.099475 44.685396 1.162104 0.831746 0.003208 -0.010849 36995.800000 0 0 1
-12.556988 -29.803707 31.413575 45.086047 1.172044 0.799944 0.002743 -0.012582 -322597.000000 0 0 1
-13.537888 -29.683247 32.426975 45.998677 1.142899 0.788437 0.013998 -0.014127 329513.000000 0 0 1
-13.069888 -29.041857 33.592375 46.289298 1.147912 0.758738 0.005791 -0.009109 -641146.000000 0 0 1
-12.290788 -29.814077 -34.295337 47.075607 1.179776 2.386950 0.008285 -0.005246 -255206.000000 0 0 1
-11.033088 -30.272367 34.150075 46.950749 1.221297 0.756330 -0.001816 -0.005012 -223038.000000 0 0 1
-10.672888 -31.328547 -33.876437 47.360335 1.242452 2.367837 -0.002898 0.006122 129773.000000 0 0 1
-9.203588 -31.757187 -34.107837 47.503363 1.288713 2.371734 -0.008419 0.000949 788745.000000 0 0 1
-8.227888 -30.956907 -33.385337 46.266715 1.311017 2.376884 0.011442 -0.004990 571876.000000 0 0 1
-7.012388 -31.682357 -33.191637 46.417993 1.352974 2.367506 0.015125 -0.008184 -319340.000000 0 0 1
-6.106788 -30.899237 -32.314337 45.125071 1.375675 2.369004 0.019239 -0.000145 -997020.000000 0 0 1
-6.549188 -30.827297 -30.956637 44.176096 1.361461 2.347252 0.022985 -0.010003 23937.900000 0 0 1
-5.757988 -30.003997 -30.099337 42.887811 1.381194 2.348739 0.014479 -0.004951 18634.400000 0 0 1
-6.252488 -29.991517 -28.646537 41.942923 1.365265 2.322643 0.020700 -0.006106 -297815.000000 0 0 1
-5.888088 -31.171797 -27.957837 42.284644 1.384104 2.293189 0.019347 -0.002533 -114659.000000 0 0 1
-6.773788 -31.442327 -26.888737 41.922647 1.358604 2.267104 0.034448 -0.005541 162277.000000 0 0 1
-6.370988 -32.690877 -26.104337 42.316892 1.378323 2.235565 0.032233 -0.010291 802701.000000 0 0 1
-5.320988 -32.473627 -25.140137 41.411059 1.408384 2.223187 0.011612 -0.007839 333933.000000 0 0 1
-5.127088 -33.675427 -24.409637 41.906465 1.419707 2.192572 0.019681 -0.011844 253518.000000 0 0 1
-4.246388 -33.578337 -23.114937 40.985813 1.445002 2.169987 0.014370 -0.016200 91638.000000 0 0 1
-4.828988 -32.874637 -22.035737 39.870222 1.424948 2.156381 0.022480 -0.005968 -164019.000000 0 0 1
-4.828088 -31.437427 -22.237837 38.809066 1.418409 2.180966 0.003283 0.001666 -144744.000000 0 0 1
-5.681788 -30.672277 -21.201437 37.717002 1.387631 2.167742 0.018948 -0.002748 -246923.000000 0 0 1
-7.065788 -30.820537 -21.447637 38.207748 1.345435 2.166804 0.029555 0.004409 -295716.000000 0 0 1
-7.778588 -29.758777 -20.851137 37.159940 1.315129 2.166533 0.033526 -0.003786 -46179.300000 0 0 1
-7.971088 -28.484157 -21.708437 36.689803 1.297933 2.203931 0.041206 -0.028141 -1133870.000000 0 0 1
-6.824488 -27.696967 -21.903037 35.964408 1.329210 2.225621 0.038572 -0.015365 -510472.000000 0 0 1
-6.781188 -27.056697 -23.142637 36.244048 1.325226 2.263373 0.062179 -0.035946 -314733.000000 0 0 1
-5.806088 -27.706257 -24.236437 37.265966 1.364227 2.278860 0.049778 -0.027429 2275450.000000 0 0 1
-4.365088 -27.521777 -24.161537 36.882002 1.413502 2.285116 0.057019 -0.022455 1473070.000000 0 0 1
-3.776988 -27.731537 -22.884137 36.152282 1.435431 2.256209 0.033746 -0.020945 -419080.000000 0 0 1
-2.271388 -27.322497 -22.735737 35.617296 1.487855 2.263129 0.028724 -0.019869 636976.000000 0 0 1
-1.816088 -25.977157 -22.886037 34.668163 1.500999 2.291809 0.035170 -0.024058 -274523.000000 0 0 1
-2.381188 -25.025057 -22.074937 33.454841 1.475930 2.291406 0.046650 -0.019432 -670779.000000 0 0 1
-2.250388 -23.574427 -22.766637 32.850230 1.475626 2.336499 0.041724 -0.016251 -29645.000000 0 0 1
-3.026788 -23.297427 -23.922937 33.529665 1.441601 2.365257 0.031165 -0.021969 -59246.800000 0 0 1
-4.412488 -23.144827 -23.661637 33.392007 1.382410 2.358311 0.030435 -0.020587 81904.000000 0 0 1
-5.179488 -23.390027 -24.998737 34.624519 1.352873 2.377478 0.023518 -0.023796 -25802.700000 0 0 1
-5.033088 -22.282827 -25.780137 34.445200 1.348651 2.416502 0.031623 -0.023005 3051.650000 0 0 1
-5.471688 -22.564827 -27.099237 35.685843 1.332901 2.433161 0.036583 -0.016582 130459.000000 0 0 1
-5.405888 -21.344127 -28.028137 35.642276 1.322740 2.475712 0.039973 -0.008834 -55066.200000 0 0 1
-5.610788 -21.702327 -29.406737 36.976048 1.317802 2.490285 0.037276 -0.004380 266847.000000 0 0 1
-4.463488 -22.168027 -30.114837 37.659627 1.372105 2.497522 0.034897 0.000875 -205604.000000 0 0 1
-4.845388 -22.482827 -31.567437 39.057117 1.358528 2.511950 0.048625 -0.012607 10828.700000 0 0 1
-4.968088 -21.294627 -32.326737 39.027695 1.341594 2.546867 0.081198 -0.018067 133914.000000 0 0 1
-6.310988 -21.052727 -32.728437 39.423298 1.279550 2.550227 0.062947 -0.015009 193259.000000 0 0 1
-6.336588 -20.139127 -33.964437 39.991496 1.265962 2.585438 0.052585 -0.012946 -17954.300000 0 0 1
-5.497188 -20.629027 33.929175 40.086965 1.310370 0.561628 0.051360 -0.011930 -353948.000000 0 0 1
-5.278788 -19.673727 32.904775 38.699423 1.308654 0.554307 0.053656 0.000655 -263216.000000 0 0 1
-4.157888 -20.107927 31.969875 37.995917 1.366892 0.570922 0.025805 0.002485 -1875910.000000 0 0 1
-4.274788 -21.373427 31.370475 38.199528 1.373396 0.607239 0.035685 -0.005218 31524.900000 0 0 1
-3.246688 -21.784227 30.462175 37.590393 1.422847 0.626011 0.025153 -0.008845 751160.000000 0 0 1
-1.827588 -21.882527 31.122875 38.089611 1.487472 0.614440 0.010795 -0.009125 -216800.000000 0 0 1
-1.201588 -20.577627 31.118775 37.326408 1.512470 0.585034 0.000447 -0.006086 -147425.000000 0 0 1
-0.218888 -20.346927 32.103675 38.009095 1.560039 0.564920 -0.003315 -0.001979 -153796.000000 0 0 1
-0.728388 -20.126527 33.564975 39.143521 1.534622 0.540435 -0.003236 -0.007190 -106830.000000 0 0 1
-1.449888 -18.896027 33.623575 38.596720 1.494217 0.513255 0.002515 -0.003251 -109749.000000 0 0 1
-1.723488 -18.675827 -33.970737 38.804225 1.478773 2.637140 0.009479 -0.005516 -21330.700000 0 0 1
-2.630888 -17.425927 -33.750737 38.074883 1.420953 2.660372 0.001613 -0.013837 121117.000000 0 0 1
-2.092588 -16.147327 -34.070537 37.761310 1.441921 2.695780 0.016095 -0.015747 -281948.000000 0 0 1
-3.094688 -15.165627 -34.160737 37.503723 1.369501 2.716166 0.022579 -0.009721 -192856.000000 0 0 1
-2.600488 -13.821627 34.305675 37.076667 1.384824 0.389068 0.016116 -0.012983 -478437.000000 0 0 1
-1.674488 -13.264327 -33.663737 36.221450 1.445221 2.763544 0.029018 -0.012395 -100053.000000 0 0 1
-1.589388 -11.841227 -33.628737 35.687992 1.437369 2.800227 0.015458 -0.010140 -224969.000000 0 0 1
-1.199488 -11.104227 34.007275 35.794377 1.463193 0.317326 0.011865 -0.009048 -760812.000000 0 0 1
-2.125188 -11.222527 32.945775 34.869552 1.383644 0.333723 0.013785 -0.012097 -121908.000000 0 0 1
-1.714088 -10.802827 31.661675 33.497774 1.413438 0.332628 0.006417 -0.010699 -605587.000000 0 0 1
-0.809988 -11.863027 31.026375 33.226848 1.502624 0.365978 0.002402 -0.015883 -491932.000000 0 0 1
-1.438188 -13.035427 30.602675 33.294361 1.460912 0.404867 0.012715 -0.015722 -229503.000000 0 0 1
-0.507888 -14.023327 30.236375 33.333917 1.534595 0.434513 0.018891 -0.014826 -469110.000000 0 0 1
-0.801688 -15.446327 30.685875 34.363566 1.518941 0.466880 0.005384 -0.016993 -75943.400000 0 0 1
-1.838088 -16.005927 29.900875 33.965138 1.456459 0.494217 0.015203 -0.017653 124186.000000 0 0 1
-2.308788 -17.175327 30.448775 35.034986 1.437173 0.517424 0.012291 -0.011740 -274856.000000 0 0 1
-2.624588 -18.174327 29.339475 34.612128 1.427376 0.559229 0.013004 -0.010309 278578.000000 0 0 1
-3.834188 -17.848427 28.642275 33.965384 1.359193 0.567442 0.018687 -0.010712 361066.000000 0 0 1
-4.411288 -18.881527 27.857275 33.941115 1.341283 0.608068 0.021544 -0.001739 -560106.000000 0 0 1
-3.703088 -19.318127 26.608975 33.089885 1.381404 0.636565 0.014989 -0.005762 -1130360.000000 0 0 1
-4.270588 -20.260427 25.786375 33.070530 1.363053 0.676548 0.020028 -0.000076 -389864.000000 0 0 1
-4.287188 -21.581427 26.231675 34.237973 1.374698 0.697956 0.019305 -0.007043 -453481.000000 0 0 1
-28.434828 -34.458242 -0.768625 44.682218 0.880879 1.587999 0.021129 -0.005382 -123604.000000 0 0 1
-27.935528 -33.151942 -0.468825 43.355100 0.870584 1.581610 0.029869 -0.005318 -208247.000000 0 0 1
-28.316248 -32.579842 0.768975 43.172298 0.855298 1.552984 0.021538 -0.001748 -200942.000000 0 0 1
-27.511898 -31.346442 1.160575 41.723505 0.850455 1.542977 0.026522 -0.007844 -316921.000000 0 0 1
-26.156078 -31.477542 1.502775 40.954052 0.877470 1.534094 0.032022 -0.006998 -592531.000000 0 0 1
-25.637838 -30.179742 1.752075 39.638180 0.866590 1.526580 0.029746 -0.007898 -582476.000000 0 0 1
-24.148288 -30.258542 2.016675 38.765785 0.897236 1.518751 0.020773 0.002558 -907933.000000 0 0 1
-23.787388 -30.948342 3.182075 39.163315 0.915487 1.489455 0.016067 0.002228 -528082.000000 0 0 1
-22.398088 -30.836342 3.337475 38.258241 0.942601 1.483450 0.015526 0.005130 -468305.000000 0 0 1
-21.998988 -31.410542 4.715575 38.636954 0.959822 1.448443 0.024750 -0.004300 -197935.000000 0 0 1
-22.345688 -30.528442 5.827775 38.278956 0.938939 1.417957 0.019967 -0.005561 22887.800000 0 0 1
-21.861588 -31.041842 7.041475 38.614859 0.957216 1.387419 0.009906 -0.001255 -186793.000000 0 0 1
-22.447888 -30.408442 8.332875 38.704235 0.934882 1.353801 0.011905 -0.000757 -265042.000000 0 0 1
-22.063188 -29.077742 8.614975 37.503561 0.921709 1.339016 0.027853 -0.009531 -84711.600000 0 0 1
-22.830388 -28.639242 9.726975 37.895208 0.897782 1.311210 0.017092 0.002509 -248098.000000 0 0 1
-22.272188 -27.581142 10.634375 37.011615 0.891490 1.279363 0.035941 -0.010189 141813.000000 0 0 1
-21.022188 -27.996842 11.176975 36.751602 0.926734 1.261780 0.039714 -0.016255 -47689.900000 0 0 1
-20.537788 -26.985642 12.036875 35.984885 0.920252 1.229724 0.051885 -0.020423 -503009.000000 0 0 1
-19.156388 -27.186142 12.624975 35.573072 0.956964 1.207986 0.041477 -0.020053 -702994.000000 0 0 1
-19.018288 -28.238442 13.583675 36.655437 0.978085 1.191166 0.035577 -0.015535 -176376.000000 0 0 1
-17.795788 -28.175142 14.285175 36.257343 1.007456 1.165823 0.035120 -0.019601 70447.400000 0 0 1
-17.800888 -29.388742 15.256875 37.594441 1.026193 1.152912 0.052302 -0.024874 -32172.200000 0 0 1
-17.777088 -30.669842 14.691775 38.373328 1.045491 1.177902 0.056895 -0.025198 77235.200000 0 0 1
-17.895988 -31.627942 15.754075 39.607877 1.055882 1.161732 0.053809 -0.022921 197327.000000 0 0 1
-17.456388 -33.048242 15.225775 40.357601 1.084837 1.183948 0.049870 -0.024236 180853.000000 0 0 1
-17.715688 -34.146442 16.121975 41.710228 1.092210 1.173937 0.044850 -0.017991 361535.000000 0 0 1
-16.969588 33.802073 15.752575 40.971828 -1.105528 1.176159 0.042668 -0.021686 -49073.200000 0 0 1
-16.926988 32.657673 16.821475 40.447602 -1.092604 1.141883 0.050019 -0.022205 -686757.000000 0 0 1
-18.109888 31.932773 16.914175 40.419789 -1.054900 1.139044 0.042899 -0.020858 -422491.000000 0 0 1
-18.003888 30.873873 17.765075 39.911576 -1.042864 1.109498 0.026315 -0.018228 -67121.900000 0 0 1
-18.703888 31.026973 19.137375 40.972522 -1.028301 1.084813 0.030645 -0.015440 153719.000000 0 0 1
-18.054988 31.947973 20.030675 41.807697 -1.056406 1.071151 0.034746 -0.014541 164675.000000 0 0 1
-18.929988 32.186873 21.087975 42.884052 -1.039152 1.056705 0.027888 -0.011669 -107096.000000 0 0 1
-18.397088 33.165973 22.153075 43.922583 -1.064354 1.042148 0.025708 -0.001215 100314.000000 0 0 1
-17.318588 32.701373 22.937775 43.536821 -1.083751 1.015895 0.012021 -0.008739 -81952.000000 0 0 1
-17.042988 33.485373 24.060175 44.616428 -1.100000 1.001230 0.011128 -0.012461 -199654.000000 0 0 1
-17.800788 32.999973 25.320675 45.243815 -1.076114 0.976834 0.006546 -0.007349 -3538.040000 0 0 1
-19.124088 33.504873 25.314475 46.142495 -1.052135 0.990089 0.008758 -0.014008 -137163.000000 0 0 1
-19.915588 32.728573 26.196775 46.411864 -1.024145 0.971040 0.009274 -0.010475 -270176.000000 0 0 1
-21.413188 32.870073 25.902575 47.009677 -0.993403 0.987228 0.022164 -0.009649 -428742.000000 0 0 1
-21.730388 32.469273 24.567775 46.152346 -0.981000 1.009459 0.023326 -0.005020 286030.000000 0 0 1
-23.098788 32.710473 24.290275 46.835312 -0.955949 1.025547 0.008314 -0.006789 99583.300000 0 0 1
-23.457988 32.151273 22.869375 45.901959 -0.940471 1.049249 -0.001120 -0.005054 -284627.000000 0 0 1
-22.970288 32.967673 21.835275 45.730524 -0.962254 1.073015 -0.001326 -0.005618 103991.000000 0 0 1
-23.193088 32.414573 20.538575 44.838119 -0.949734 1.094984 -0.010811 0.003071 -157550.000000 0 0 1
-22.876088 33.511573 19.529375 45.030405 -0.971822 1.122209 0.003860 -0.004947 18546.300000 0 0 1
-21.530188 33.913773 19.701375 44.741895 -1.005145 1.114826 0.026671 -0.004562 -50076.100000 0 0 1
-21.157088 -34.412242 18.577075 44.462709 1.019556 1.139760 0.035336 -0.007011 -130317.000000 0 0 1
-19.714588 -33.885942 18.690375 43.431004 1.043872 1.125920 0.044407 -0.008496 -152775.000000 0 0 1
-19.658388 -32.945142 19.758775 43.153722 1.032806 1.095199 0.036014 -0.013995 -48012.100000 0 0 1
-18.415088 -32.307642 19.789075 42.124894 1.052734 1.081764 0.045712 -0.018124 -437278.000000 0 0 1
-18.348988 -31.324742 20.922875 41.900972 1.040908 1.047958 0.045778 -0.015826 -166771.000000 0 0 1
-18.890388 -30.106542 20.446775 41.003917 1.010436 1.048751 0.062365 -0.017940 154904.000000 0 0 1
-19.445488 -29.422042 21.533075 41.321385 0.986786 1.022643 0.055505 -0.015890 12877.500000 0 0 1
-20.248388 -28.130742 21.114875 40.585389 0.946908 1.023643 0.047962 -0.017297 94013.000000 0 0 1
-19.400188 -27.099542 20.593775 39.177238 0.949488 1.017310 0.046015 -0.010803 393462.000000 0 0 1
-19.956488 -25.786942 20.522475 38.527909 0.912174 1.009050 0.054373 -0.001140 -521144.000000 0 0 1
-21.117688 -25.551442 19.533975 38.476085 0.880118 1.038293 0.060524 -0.006330 244314.000000 0 0 1
-22.377588 -25.925942 20.098375 39.709641 0.858726 1.040101 0.053821 -0.004803 12113.200000 0 0 1
-23.360088 -25.917942 19.128575 39.791152 0.837258 1.069316 0.045185 -0.002091 473780.000000 0 0 1
-24.835088 -26.154142 19.714775 41.103443 0.811262 1.070554 0.041595 -0.009068 1419860.000000 0 0 1
-25.322188 -27.451542 19.901275 42.318567 0.825725 1.081196 0.033537 -0.004125 20406.200000 0 0 1
-25.660848 -28.008442 18.627975 42.307840 0.829112 1.114868 0.033935 -0.012618 -600486.000000 0 0 1
-26.727118 -29.119442 18.597575 43.682382 0.828209 1.131011 0.023983 -0.017028 -411726.000000 0 0 1
-27.968428 -28.646742 19.050075 44.337051 0.797379 1.126675 0.004289 -0.015183 -594929.000000 0 0 1
-28.927468 -29.490842 18.442475 45.239728 0.795042 1.150905 0.006868 -0.004928 430227.000000 0 0 1
-30.418808 -29.068542 18.639775 46.018748 0.762704 1.153766 0.007748 -0.005295 581774.000000 0 0 1
-30.750868 -27.832442 17.985275 45.207641 0.735623 1.161638 0.007764 0.000286 333835.000000 0 0 1
-32.036408 -27.311442 18.305175 45.905617 0.705951 1.160636 -0.008058 0.005962 239516.000000 0 0 1
-32.402878 -26.030642 17.474975 45.087865 0.676776 1.172796 -0.014173 0.003091 -233277.000000 0 0 1
-32.797938 -26.170742 16.110675 44.946260 0.673483 1.204197 0.005804 -0.002510 409809.000000 0 0 1
-33.448968 -25.029142 15.586075 44.589428 0.642398 1.213709 0.006935 -0.007416 -71179.500000 0 0 1
-32.513248 -23.904442 15.036775 43.065511 0.633976 1.214121 -0.015663 0.003586 -313633.000000 0 0 1
-31.588288 -23.501542 15.984475 42.492891 0.639647 1.185139 -0.021543 0.003684 -213719.000000 0 0 1
-31.065248 -22.206742 15.694175 41.285544 0.620618 1.180852 -0.012772 0.004247 -100124.000000 0 0 1
-31.974148 -21.029042 16.136575 41.532587 0.581761 1.171763 -0.013341 0.000986 -49234.700000 0 0 1
-32.138868 -20.798042 17.505475 42.094026 0.574355 1.141901 -0.008941 -0.001562 289691.000000 0 0 1
-32.990288 -19.666042 17.679875 42.281086 0.537559 1.139388 0.000139 -0.004750 145378.000000 0 0 1
-33.264318 -19.234042 19.132875 42.924703 0.524250 1.108806 0.001349 -0.005919 -683830.000000 0 0 1
-34.382730 -19.877742 19.624875 44.299350 0.524185 1.111848 0.008393 -0.008597 -326233.000000 0 0 1
-34.686038 -19.451542 20.968575 44.957367 0.511089 1.085568 0.012547 -0.001563 1044110.000000 0 0 1
34.703577 -19.911842 21.450175 45.397463 -0.520909 1.078674 0.024914 0.004354 1196500.000000 0 0 1
34.445317 -21.270942 21.772075 45.966902 -0.553208 1.077369 0.022991 0.000747 151065.000000 0 0 1
35.085633 -21.771342 22.949175 47.240423 -0.555371 1.063524 0.013758 0.006125 -166061.000000 0 0 1
34.573727 -23.167342 23.400575 47.745735 -0.590366 1.058582 0.016907 0.004511 280301.000000 0 0 1
33.238047 -23.261542 23.860375 47.065747 -0.610623 1.039144 0.041357 -0.004255 209745.000000 0 0 1
33.030397 -24.478442 24.548075 47.883287 -0.637773 1.032511 0.042723 -0.018905 -76640.200000 0 0 1
32.058267 -24.492242 25.744875 47.858134 -0.652396 1.002803 0.050334 -0.023984 1101770.000000 0 0 1
30.653857 -24.436042 25.441775 46.733960 -0.673007 0.995128 0.052532 -0.023133 475505.000000 0 0 1
29.861667 -24.573942 26.554475 46.912023 -0.688565 0.969092 0.046808 -0.024089 -376481.000000 0 0 1
28.444867 -25.057242 26.195675 46.078077 -0.722165 0.966107 0.034852 -0.022494 453117.000000 0 0 1
27.551077 -24.066442 25.642175 44.674115 -0.717992 0.959435 0.036990 -0.011912 672335.000000 0 0 1
26.250147 -24.585342 25.362975 44.008973 -0.752661 0.956586 0.026592 -0.005307 861398.000000 0 0 1
25.256047 -23.423542 24.970775 42.544915 -0.747772 0.943538 0.014304 0.001716 -37965.300000 0 0 1
25.338647 -22.818242 23.654175 41.499869 -0.733108 0.964312 0.032000 -0.003696 166782.000000 0 0 1
26.523447 -22.097642 23.311975 41.656298 -0.694622 0.976861 0.025251 0.006949 172048.000000 0 0 1
26.402317 -21.458142 21.939775 40.483180 -0.682459 0.998043 0.023606 0.001086 299730.000000 0 0 1
25.429447 -20.426242 21.853675 39.261574 -0.676720 0.980488 0.002800 -0.000630 135308.000000 0 0 1
25.515647 -19.797342 20.605075 38.308642 -0.659866 1.002888 -0.011088 0.003427 173583.000000 0 0 1
24.615447 -18.529342 20.438075 36.972579 -0.645260 0.985088 -0.004597 0.010116 80005.500000 0 0 1
24.957747 -17.378242 21.218775 37.082729 -0.608243 0.961609 0.004560 -0.012000 13569.700000 0 0 1
24.910447 -17.537542 22.638675 37.955307 -0.613421 0.931718 0.006078 -0.003854 -222242.000000 0 0 1
25.000347 -16.315742 23.476375 37.978427 -0.578215 0.904409 0.015618 0.002689 -177043.000000 0 0 1
23.869647 -15.482242 23.397075 36.835892 -0.575402 0.882567 -0.014914 0.004454 -200046.000000 0 0 1
23.988947 -14.378642 24.285075 37.040245 -0.539968 0.855766 -0.012119 0.001788 221784.000000 0 0 1
22.774247 -13.443042 24.060475 35.753156 -0.533237 0.832592 -0.009587 0.000204 681771.000000 0 0 1
21.566747 -13.969442 24.578775 35.558206 -0.574778 0.807611 0.002808 0.006707 31794.800000 0 0 1
20.402547 -13.222942 24.276175 34.357572 -0.575040 0.786151 0.018769 0.002260 505273.000000 0 0 1
19.138547 -14.046542 24.654975 34.226555 -0.633143 0.766495 0.019500 0.008005 -27173.800000 0 0 1
18.922347 -15.137142 23.848375 33.999018 -0.674717 0.793376 0.022637 0.007967 844675.000000 0 0 1
17.586847 -15.668042 23.974375 33.608858 -0.727762 0.776551 0.030356 0.012319 834913.000000 0 0 1
17.324647 -16.796042 22.966275 33.312163 -0.769907 0.810100 0.026057 0.002441 147979.000000 0 0 1
18.099047 -17.954042 23.296575 34.534816 -0.781376 0.830398 0.014552 0.010041 358385.000000 0 0 1
17.799347 -18.961442 22.347575 34.289461 -0.817000 0.860929 0.026799 0.004492 80476.400000 0 0 1
17.983547 -20.384942 22.856775 35.515996 -0.847904 0.871652 0.009369 0.005842 -218863.000000 0 0 1
16.986447 -20.787042 23.773275 35.858180 -0.885676 0.846003 0.017762 0.004646 64753.200000 0 0 1
16.997947 -22.186542 24.128575 36.923718 -0.917047 0.858636 0.028293 0.003283 -163270.000000 0 0 1
16.583347 -23.285742 23.084975 36.744377 -0.951951 0.891483 0.021341 0.012255 396810.000000 0 0 1
17.533547 -23.422142 22.008975 36.611705 -0.928199 0.925862 0.021707 0.012516 250892.000000 0 0 1
18.616947 -24.269242 22.296075 37.851047 -0.916440 0.940916 0.016737 0.009379 -217489.000000 0 0 1
19.567147 -24.512942 21.102375 37.803013 -0.897131 0.978558 0.019378 0.008655 -309048.000000 0 0 1
19.059347 -25.358842 20.116175 37.563147 -0.926281 1.005662 0.035831 -0.016680 400637.000000 0 0 1
20.012947 -25.683342 19.083975 37.740564 -0.908856 1.040647 0.026952 -0.004745 407488.000000 0 0 1
19.370147 -26.344742 17.837675 37.248230 -0.936798 1.071410 0.027444 -0.010568 69087.700000 0 0 1
18.892147 -27.651242 18.041775 38.039585 -0.971415 1.076640 0.039797 -0.025784 288810.000000 0 0 1
17.984247 -28.204542 17.067975 37.553230 -1.003162 1.098985 0.043956 -0.024169 257268.000000 0 0 1
17.189747 -29.386342 17.654875 38.350216 -1.041511 1.092397 0.054291 -0.018698 420806.000000 0 0 1
16.145747 -28.962742 18.542675 37.991530 -1.062239 1.060915 0.047735 -0.012064 213601.000000 0 0 1
15.384147 -30.076442 18.996175 38.757180 -1.097990 1.058554 0.054172 -0.013868 -470235.000000 0 0 1
14.263247 -29.599842 19.889675 38.408202 -1.121758 1.026461 0.038873 -0.005790 -394141.000000 0 0 1
13.409447 -28.760742 19.125375 37.050958 -1.134518 1.028399 0.044369 -0.007193 -248226.000000 0 0 1
12.129347 -28.555142 19.694475 36.747646 -1.169121 1.005177 0.022676 0.001989 57156.100000 0 0 1
11.166447 -28.017942 18.641475 35.457005 -1.191544 1.017201 0.009413 -0.001159 -660253.000000 0 0 1
10.912547 -29.034442 17.727075 35.725784 -1.211282 1.051582 -0.011831 -0.008716 -93103.200000 0 0 1
10.001047 -28.503242 16.781175 34.555225 -1.233343 1.063709 0.000703 -0.010530 -80186.200000 0 0 1
9.956447 -29.402142 15.519175 34.705353 -1.244286 1.107198 -0.001749 -0.009757 -34009.700000 0 0 1
9.084647 -30.511142 15.604275 35.453547 -1.281406 1.115050 -0.014565 -0.008572 93519.700000 0 0 1
9.441647 -31.393142 14.590575 35.882571 -1.278647 1.152045 -0.015258 -0.000381 97225.600000 0 0 1
8.313847 -32.425542 14.320075 36.408795 -1.319805 1.166563 -0.017529 0.000459 -163391.000000 0 0 1
8.282247 -33.430142 15.347975 37.705839 -1.327938 1.151580 -0.017380 -0.001521 -113220.000000 0 0 1
7.503247 -34.548542 14.983875 38.398137 -1.356938 1.169921 -0.014652 -0.000453 -76090.900000 0 0 1
7.345347 33.504673 16.094175 37.888517 1.354977 1.132081 0.008247 0.003892 377196.000000 0 0 1
8.529347 32.737573 16.200775 37.509513 1.315925 1.124186 -0.007123 0.000692 136511.000000 0 0 1
8.244747 31.684673 17.067775 36.921583 1.316229 1.090242 0.010143 -0.004171 -316252.000000 0 0 1
9.416447 30.745473 17.238775 36.484640 1.273596 1.078678 0.006819 -0.006236 -451441.000000 0 0 1
9.817747 29.996673 16.073475 35.419559 1.254491 1.099769 0.014730 -0.000629 116383.000000 0 0 1
11.054747 29.342373 16.309675 35.343851 1.210492 1.091159 0.019996 -0.000587 64257.600000 0 0 1
11.723147 28.746973 15.029775 34.492242 1.183580 1.119932 0.017342 0.005203 705603.000000 0 0 1
10.936547 27.797073 14.254075 33.097794 1.195956 1.125566 0.020519 0.001804 1142380.000000 0 0 1
11.900047 27.240073 13.350675 32.586396 1.158925 1.148670 0.022602 0.005055 612109.000000 0 0 1
-8.852288 -9.538327 19.225787 23.215804 0.822685 0.595027 -0.002772 -0.005603 -67996.300000 0 1 0
-9.512988 -9.577827 17.976187 22.480547 0.788795 0.644113 0.005759 -0.011359 154163.000000 0 1 0
-9.403088 -10.943527 17.496387 22.678236 0.860964 0.689592 0.008714 -0.011103 -52320.600000 0 1 0
-9.722788 -11.155827 16.017387 21.806920 0.853927 0.745853 0.012426 -0.017754 349166.000000 0 1 0
-11.081088 -10.822027 15.712987 22.063652 0.773571 0.778217 0.003280 -0.019769 554296.000000 0 1 0
-11.509888 -11.217527 14.452987 21.614793 0.772535 0.838389 0.010210 -0.022799 552.745000 0 1 0
-11.653488 -12.752827 14.122287 22.313166 0.830411 0.885487 0.010908 -0.024655 -471903.000000 0 1 0
-10.441688 -13.439027 13.888687 21.966609 0.910258 0.886325 0.020316 -0.018241 26480.000000 0 1 0
-10.579088 -14.835227 13.919687 22.929430 0.951329 0.918433 0.035667 -0.017820 256474.000000 0 1 0
-9.985688 -15.510827 15.256887 23.938929 0.998800 0.879774 0.028753 -0.019419 578035.000000 0 1 0
-10.771788 -15.048627 16.359687 24.700849 0.949546 0.846895 0.013030 -0.011219 82344.500000 0 1 0
-10.219088 -15.299527 17.645187 25.492311 0.981916 0.806295 0.019736 -0.007969 -580455.000000 0 0 1
-11.215188 -14.925527 18.729687 26.445283 0.926394 0.783790 0.012402 -0.006368 -590461.000000 0 0 1
-11.558088 -13.573327 18.897287 25.979455 0.865415 0.756280 0.010478 -0.006487 274068.000000 0 0 1
-12.560688 -13.122327 17.982487 25.560442 0.807263 0.790447 0.007383 -0.011080 -188663.000000 0 0 1
-14.001188 -13.262127 18.518687 26.736848 0.758297 0.805670 0.007079 -0.009972 -375928.000000 0 0 1
-14.377188 -14.587327 18.803687 27.804178 0.792653 0.828082 0.016299 -0.010206 -707684.000000 0 0 1
-15.495188 -14.577427 19.626287 28.944660 0.754889 0.825673 0.021424 -0.003711 -623144.000000 0 0 1
-15.784988 -16.052127 20.088487 30.172569 0.793789 0.842249 0.030695 -0.002136 -89160.600000 0 0 1
-16.646988 -16.790027 19.240687 30.483295 0.789676 0.887713 0.037684 -0.004370 -73800.600000 0 0 1
-16.935588 -18.013827 19.899387 31.737954 0.816240 0.893113 0.023345 -0.006726 1514080.000000 0 0 1
-18.424988 -18.532027 19.565287 32.645316 0.788294 0.928134 0.032862 -0.005000 1635500.000000 0 0 1
-18.732088 -18.908927 18.220387 32.255560 0.790096 0.970514 0.034878 -0.011561 66950.900000 0 0 1
-18.885088 -17.790527 17.354087 31.213999 0.755563 0.981265 0.035482 -0.017212 -695524.000000 0 0 1
-18.440288 -18.010327 15.924987 30.298866 0.773603 1.017380 0.032599 -0.027374 -372752.000000 0 0 1
-19.373488 -18.784827 15.201487 30.972358 0.769973 1.057779 0.035005 -0.020978 229325.000000 0 0 1
-18.988488 -18.744527 13.834987 30.055396 0.778933 1.092445 0.032151 -0.020886 176277.000000 0 0 1
-19.241788 -20.022027 13.026187 30.672618 0.805267 1.132183 0.034630 -0.015306 172616.000000 0 0 1
-18.198788 -20.980727 13.233587 30.765478 0.856284 1.126144 0.041278 -0.013993 370651.000000 0 0 1
-18.124188 -22.024627 12.317687 31.069210 0.882244 1.163139 0.039813 -0.013839 -593815.000000 0 0 1
-17.419488 -23.264327 12.829587 31.768944 0.928087 1.155085 0.035281 -0.014521 -386874.000000 0 0 1
-17.465288 -24.509927 12.107687 32.440236 0.951677 1.188308 0.048076 -0.024552 -226081.000000 0 0 1
-16.547388 -24.571427 11.063987 31.622506 0.978119 1.213357 0.033995 -0.018655 -470725.000000 0 0 1
-16.717188 -25.838717 10.189187 32.417946 0.996546 1.251070 0.032191 -0.018294 -82817.700000 0 0 1
-17.947488 -25.669377 9.523787 32.737315 0.960622 1.275613 0.042975 -0.015214 -273802.000000 0 0 1
-18.154288 -26.733877 8.644887 33.451643 0.974253 1.309400 0.046252 -0.010099 1046520.000000 0 0 1
-19.351088 -26.581027 7.604087 33.746670 0.941522 1.343516 0.040032 -0.011624 974910.000000 0 0 1
-19.136588 -25.569937 6.629187 32.618657 0.928319 1.366138 0.043488 -0.015481 95157.500000 0 0 1
-20.180288 -25.562597 5.674387 33.058873 0.902524 1.398297 0.039818 -0.009439 211516.000000 0 0 1
-20.074288 -24.242327 4.893187 31.852955 0.879174 1.416568 0.036753 -0.008645 141336.000000 0 0 1
-21.050888 -24.184627 3.879087 32.296801 0.854564 1.450398 0.028880 -0.006398 -71875.100000 0 0 1
-21.049088 -22.920227 3.295987 31.293201 0.827928 1.465275 0.025038 0.001173 123924.000000 0 0 1
-21.673788 -22.783227 1.897987 31.502871 0.810348 1.510512 -0.000707 -0.000374 -127924.000000 0 0 1
-20.972488 -23.476527 0.898487 31.492854 0.841674 1.542263 -0.010916 0.000291 -161041.000000 0 0 1
-21.608988 -23.417827 -0.349413 31.866363 0.825549 1.581761 -0.007384 0.002943 -369884.000000 0 0 1
-20.987688 -24.345727 -1.412613 32.174414 0.859337 1.614715 0.006994 -0.000367 -232386.000000 0 0 1
-19.660788 -23.910227 -1.711113 31.002797 0.882620 1.626017 -0.003441 0.003265 277965.000000 0 0 1
-19.102788 -24.567027 -2.835013 31.248882 0.909877 1.661645 -0.002049 0.009550 210123.000000 0 0 1
-18.789788 -26.086787 -2.671813 32.260117 0.946589 1.653712 0.023072 -0.000021 263556.000000 0 0 1
-19.906288 -26.871027 -3.126813 33.587041 0.933204 1.664027 0.031943 0.001589 504153.000000 0 0 1
-19.364788 -28.067627 -3.639513 34.293334 0.966859 1.677125 0.037597 0.005222 389399.000000 0 0 1
-20.374788 -28.840297 -4.524613 35.600096 0.955742 1.698237 0.032233 0.005276 152679.000000 0 0 1
-20.798188 -28.124157 -5.633813 35.429828 0.934041 1.730487 0.024135 0.005407 -497222.000000 0 0 1
-21.804588 -28.799737 -6.309513 36.669809 0.922760 1.743720 0.029483 0.001521 -346776.000000 0 0 1
-22.262388 -28.199417 -7.624913 36.728195 0.902514 1.779921 0.022629 0.005284 -16041.400000 0 0 1
-21.240088 -28.284457 -8.605013 36.403270 0.926690 1.809435 0.031962 0.006275 268529.000000 0 0 1
-21.663588 -28.105467 -9.991113 36.865304 0.914118 1.845245 0.025807 0.004019 -139699.000000 0 0 1
-22.263788 -26.739207 -10.390113 36.312751 0.876475 1.860980 0.013824 0.008237 31235.600000 0 0 1
-21.376388 -25.595827 -10.500713 34.962284 0.874986 1.875850 0.011060 0.010823 289831.000000 0 0 1
-21.174488 -24.895227 -9.279813 33.974199 0.865986 1.847455 0.007733 0.010010 132634.000000 0 0 1
-20.805888 -23.439627 -9.599013 32.778684 0.844854 1.867995 -0.009632 0.007698 -239659.000000 0 0 1
-21.933988 -22.829027 -10.134813 33.241220 0.805391 1.880616 0.003030 0.009157 -125235.000000 0 0 1
-21.694188 -21.469927 -10.318413 32.219019 0.780203 1.896799 0.014272 0.011899 1450750.000000 0 0 1
-23.082088 -20.762027 -10.678013 32.830847 0.732531 1.902065 0.021743 0.014538 958119.000000 0 0 1
-23.556688 -20.965827 -12.033813 33.753461 0.727272 1.935338 0.015979 0.014036 1273030.000000 0 0 1
-24.903488 -20.433327 -12.154713 34.430243 0.687117 1.931598 0.019795 0.014026 1016710.000000 0 0 1
-25.253408 -18.912727 -12.028313 33.765458 0.642808 1.935028 0.027939 0.007722 -795096.000000 0 0 1
-24.669888 -18.177627 -13.124013 33.335705 0.635022 1.975441 0.028994 0.013680 468140.000000 0 0 1
-24.389588 -16.815027 -12.960813 32.335426 0.603600 1.983212 0.036543 -0.000060 142635.000000 0 0 1
-23.244888 -16.452227 -11.962813 30.888663 0.615927 1.968485 0.022944 0.008297 -125620.000000 0 0 1
-23.616888 -16.711927 -10.590713 30.809237 0.615826 1.921705 0.041816 -0.000038 -216078.000000 0 0 1
-22.519088 -16.756327 -9.762613 29.718554 0.639711 1.905514 0.025941 -0.001161 -873465.000000 0 0 1
-23.056588 -16.851127 -8.285113 29.735666 0.631138 1.853159 0.011917 -0.010874 263547.000000 0 0 1
-23.521288 -18.188227 -8.086313 30.813163 0.658226 1.836336 0.020791 -0.004809 29597.600000 0 0 1
-24.923088 -18.314827 -7.994913 31.945451 0.633737 1.823753 0.031675 -0.017502 -118789.000000 0 0 1
-25.251798 -19.714227 -7.397213 32.878911 0.662865 1.797722 0.028433 -0.004420 -70586.200000 0 0 1
-25.260748 -20.763427 -8.321013 33.741140 0.687991 1.819980 0.020872 -0.010446 25156.700000 0 0 1
-25.416588 -22.086427 -7.739013 34.550044 0.715408 1.796707 0.026185 -0.002945 114794.000000 0 0 1
-25.354788 -23.166927 -8.796713 35.453546 0.740338 1.821535 0.020103 0.003584 3093.720000 0 0 1
-25.752738 -24.395227 -8.303213 36.431771 0.758335 1.800728 0.023050 0.008552 -492582.000000 0 0 1
-25.275848 -25.517347 -9.002413 37.027651 0.790153 1.816384 0.016308 0.014189 -488336.000000 0 0 1
-25.991898 -26.748487 -8.542513 38.262708 0.799743 1.795953 0.021329 0.010387 -287196.000000 0 0 1
-25.652758 -27.181917 -7.262713 38.074501 0.814332 1.762722 0.022556 -0.000234 204605.000000 0 0 1
-26.419248 -28.357967 -6.920513 39.370604 0.820776 1.747493 0.031318 0.000961 363518.000000 0 0 1
-26.006888 -29.007847 -5.591713 39.358362 0.839892 1.713350 0.030305 -0.000756 71423.200000 0 0 1
-26.430158 -28.243407 -4.469113 38.938622 0.818551 1.685823 0.016162 -0.006893 319181.000000 0 0 1
-25.608998 -28.472557 -3.302013 38.437099 0.838298 1.656809 0.013331 -0.003643 323359.000000 0 0 1
-25.864228 -29.784777 -2.542113 39.529148 0.855733 1.635151 0.016806 0.000742 -149793.000000 0 0 1
-25.337968 -30.908367 -3.225113 40.096647 0.884112 1.651317 0.039828 -0.005592 -81134.500000 0 0 1
-25.609848 -32.170957 -2.558013 41.199250 0.898466 1.632925 0.039256 -0.006053 226931.000000 0 0 1
-24.682788 -32.472857 -1.320313 40.810167 0.920859 1.603155 0.037418 -0.007947 1601740.000000 0 0 1
-23.345688 -32.935287 -1.691913 40.405654 0.954165 1.612682 0.046946 -0.007055 1260270.000000 0 0 1
-22.425788 -33.012197 -0.620113 39.913728 0.974086 1.586333 0.047690 0.000335 231472.000000 0 0 1
-21.327488 -31.943957 -0.588813 38.413863 0.982111 1.586125 0.044525 -0.007896 -183949.000000 0 0 1
-21.735288 -30.683347 -0.074013 37.601809 0.954472 1.572765 0.038969 -0.003689 -110576.000000 0 0 1
-21.823588 -29.750557 -1.147713 36.914521 0.937905 1.601892 0.041940 -0.008092 -86566.600000 0 0 1
-22.204788 -28.278957 -0.801213 35.963787 0.905142 1.593076 0.029099 -0.006830 1722490.000000 0 0 1
-23.626288 -28.216717 -0.424013 36.804407 0.873713 1.582317 0.013484 -0.010576 1704700.000000 0 0 1
-24.138488 -26.905367 -0.279313 36.147523 0.839551 1.578523 0.016881 -0.021520 54026.900000 0 0 1
-23.747188 -26.180707 0.982287 35.359910 0.834100 1.543013 0.019741 -0.012950 -305141.000000 0 0 1
-24.264188 -26.707907 2.179687 36.149885 0.833304 1.510464 0.008316 -0.019227 -137495.000000 0 0 1
-23.748988 -25.957977 3.250687 35.332676 0.829809 1.478664 0.018951 -0.017299 -62636.000000 0 0 1
-24.703488 -24.937427 3.901087 35.317928 0.790111 1.460114 0.020071 -0.015467 -179830.000000 0 0 1
-24.825288 -23.904627 2.922687 34.587110 0.766507 1.486193 0.015288 -0.012864 -450195.000000 0 0 1
-25.704448 -22.884527 3.263787 34.569821 0.727427 1.476244 0.003698 -0.013258 -542733.000000 0 0 1
-25.717268 -21.709127 2.224187 33.728491 0.701086 1.504805 0.005480 -0.012489 290633.000000 0 0 1
-24.539388 -20.937127 2.350387 32.342993 0.706352 1.498062 -0.004466 -0.007567 67732.500000 0 0 1
-24.651688 -19.844827 1.487387 31.681780 0.677788 1.523831 -0.010244 -0.009113 328222.000000 0 0 1
-23.522988 -18.805027 1.784387 30.168594 0.674394 1.511615 -0.000821 -0.006687 852816.000000 0 0 1
-22.271788 -19.316327 1.297887 29.509957 0.714452 1.526801 0.000573 -0.001716 429772.000000 0 0 1
-21.165088 -18.495227 1.651487 28.156026 0.718181 1.512108 0.003555 0.001679 476306.000000 0 0 1
-19.856488 -19.355827 1.552987 27.773007 0.772631 1.514850 -0.000809 0.001751 111773.000000 0 0 1
-19.522788 -19.602627 0.189587 27.666553 0.787439 1.563944 -0.008282 0.001840 16314.500000 0 0 1
-18.532888 -20.598527 0.073487 27.708711 0.838136 1.568144 -0.001456 0.008090 25929.300000 0 0 1
-18.284588 -21.127227 -1.350813 27.973390 0.857400 1.619104 0.004252 0.008680 6636.900000 0 0 1
-17.863888 -20.054327 -2.197513 26.946680 0.843102 1.652437 0.010073 0.003859 54827.300000 0 0 1
-17.700388 -20.608427 -3.501213 27.391048 0.861163 1.698970 0.012994 0.002313 55614.200000 0 0 1
-17.139988 -19.597327 -4.529813 26.426381 0.852188 1.743060 0.018941 -0.002323 113272.000000 0 0 1
-15.795088 -19.265727 -4.274313 25.276922 0.884066 1.740712 0.050954 -0.010923 10831.200000 0 0 1
-15.212388 -18.396527 -5.241413 24.440159 0.879857 1.786934 0.060648 -0.012324 759813.000000 0 1 0
-13.658988 -18.183027 -5.220813 23.333395 0.926531 1.796455 0.071653 -0.019798 958269.000000 0 1 0
-12.919688 -19.389027 -5.508413 23.941498 0.983020 1.802954 0.056533 -0.017711 131416.000000 0 1 0
-11.596188 -19.038127 -5.880313 23.054282 1.023710 1.828710 0.055653 -0.024909 400205.000000 0 1 0
-10.667288 -20.289927 -5.867113 23.662104 1.086767 1.821364 0.049079 -0.026327 162684.000000 0 1 0
-10.873388 -21.150527 -7.012213 24.794082 1.095936 1.857527 0.040096 -0.019460 -755518.000000 0 1 0
-9.923088 -22.135127 -7.164513 25.293512 1.149360 1.857983 0.037978 -0.008665 -613573.000000 0 0 1
-10.392288 -23.169627 -8.138413 26.665803 1.149165 1.880945 0.022535 0.008205 -418845.000000 0 0 1
-10.537188 -22.711427 -9.474213 26.769422 1.136394 1.932555 0.033305 -0.004122 -118633.000000 0 0 1
-10.701188 -23.805227 -10.350213 28.077236 1.148332 1.948335 0.033412 0.000698 256386.000000 0 0 1
-11.383188 -23.382127 -11.718013 28.523896 1.117738 1.994143 0.047477 -0.005649 937899.000000 0 0 1
-10.454188 -22.645627 -12.524313 27.910086 1.138303 2.036149 0.043038 -0.002995 997007.000000 0 0 1
-11.278888 -22.136027 -13.575613 28.311027 1.099557 2.070900 0.040716 -0.004334 528614.000000 0 0 1
-10.662688 -20.894427 -14.275113 27.459950 1.098933 2.117474 0.035896 0.001539 35664.300000 0 0 1
-10.415088 -19.876127 -13.330813 26.100672 1.088134 2.106849 0.043259 -0.004034 -55254.100000 0 0 1
-10.284988 -18.654327 -14.034513 25.509458 1.066920 2.153363 0.041096 0.012723 35173.800000 0 0 1
-10.034088 -17.396727 -13.127813 23.993093 1.047625 2.149751 0.048932 0.000274 -289622.000000 0 1 0
-11.141188 -17.107627 -12.318213 23.843979 0.993549 2.113692 0.053993 -0.006699 -70242.200000 0 1 0
-10.906088 -15.965027 -11.495613 22.493865 0.971487 2.107209 0.058065 -0.014238 177447.000000 0 1 0
-10.723688 -14.585927 -12.201713 21.831824 0.936830 2.163850 0.058537 -0.001477 -218668.000000 0 1 0
-11.929888 -14.158527 -12.744613 22.476905 0.870618 2.173667 0.051777 0.009242 -563256.000000 0 1 0
-11.677288 -13.760127 -14.081813 22.890994 0.867097 2.233396 0.050031 0.007659 -377875.000000 0 1 0
-12.841088 -13.062927 -14.785113 23.540033 0.793962 2.249885 0.038694 0.011708 -680506.000000 0 1 0
-12.981288 -11.733727 -14.352913 22.631843 0.734963 2.257758 0.032879 0.004786 36055.600000 0 1 0
-13.830688 -11.071727 -15.292513 23.403675 0.675057 2.282895 0.008954 0.004337 -266810.000000 0 1 0
-14.151088 -9.638827 -14.849513 22.664252 0.597954 2.285238 0.013241 -0.004129 107815.000000 0 1 0
-13.026488 -8.775627 -14.727513 21.531388 0.592839 2.324031 0.018251 -0.009830 232564.000000 0 1 0
-13.033088 -7.735927 -15.674013 21.803225 0.535671 2.372993 0.023483 -0.016810 -948349.000000 0 1 0
-11.868488 -6.796227 -15.628013 20.767390 0.520050 2.422687 0.010829 -0.012782 -1975150.000000 0 1 0
-10.715288 -7.382027 -16.040413 20.654456 0.603254 2.460060 0.018388 -0.008110 -1782570.000000 0 1 0
-9.680688 -6.459027 -15.900413 19.704260 0.588377 2.509771 0.011652 -0.002653 -317183.000000 0 1 0
11.547612 22.235273 15.646787 29.539408 1.091799 1.012559 0.025110 0.005260 -357462.000000 0 0 1
11.768512 22.194973 17.033287 30.352060 1.083256 0.974973 0.035827 0.001123 -342595.000000 0 0 1
12.213712 20.931373 17.310087 29.781475 1.042588 0.950549 0.032762 -0.001406 -314850.000000 0 0 1
13.308412 20.803473 18.398887 30.796386 1.001681 0.930496 0.028227 -0.007856 -219878.000000 0 0 1
14.562612 21.126373 17.852787 31.258844 0.967281 0.962917 0.013604 0.001761 -658814.000000 0 0 1
15.598112 20.886573 18.773187 32.124486 0.929346 0.946670 0.026174 -0.003611 198000.000000 0 0 1
16.971912 21.388873 18.265187 32.850369 0.900036 0.981217 0.026855 -0.002495 -921586.000000 0 0 1
17.101612 22.794973 18.145087 33.783430 0.927144 1.003801 0.031770 0.001097 224512.000000 0 0 1
18.303512 23.284873 17.537287 34.420347 0.904608 1.036189 0.026508 0.000726 1058440.000000 0 0 1
19.649712 23.040173 18.306987 35.385117 0.864653 1.027028 0.012078 -0.005642 58922.800000 0 0 1
19.981812 21.638473 18.297387 34.674064 0.825181 1.014910 0.024532 -0.000836 -288103.000000 0 0 1
21.291612 21.462173 18.793887 35.597301 0.789388 1.014602 0.032647 -0.004083 -197709.000000 0 0 1
21.736912 20.010873 18.679287 34.954887 0.744077 1.007019 0.027303 -0.003672 -315747.000000 0 0 1
22.005212 19.688373 17.360087 34.252504 0.729887 1.039297 0.018198 -0.004926 -72946.800000 0 0 1
21.713912 18.316173 17.060787 33.136787 0.700721 1.029953 0.011814 0.001979 339971.000000 0 0 1
22.672712 17.195773 17.641387 33.480816 0.648878 1.015835 0.005314 0.002341 -127687.000000 0 0 1
23.886212 17.045273 16.984187 33.905089 0.619797 1.046120 0.004939 -0.001685 -556726.000000 0 0 1
24.734212 16.173473 17.721187 34.458714 0.579106 1.030637 -0.008112 -0.005967 -779454.000000 0 0 1
26.071212 16.049573 17.024187 35.030270 0.551815 1.063306 0.013939 -0.003526 -2070620.000000 0 0 1
26.869112 17.259273 17.147987 36.247554 0.570976 1.078013 0.009474 -0.008183 971454.000000 0 0 1
28.214212 17.097973 17.578287 37.381528 0.544824 1.081234 0.013268 -0.010086 467435.000000 0 0 1
29.066412 15.985373 16.917887 37.237124 0.502813 1.099178 0.005819 -0.016349 -1711990.000000 0 0 1
29.199012 16.188873 15.524187 36.819320 0.506240 1.135552 0.028833 -0.014381 -70954.200000 0 0 1
29.481812 15.002773 14.830687 36.252031 0.470728 1.149329 0.043591 -0.018596 106705.000000 0 0 1
28.839912 14.926473 13.393987 35.127468 0.477599 1.179598 0.020488 0.000178 142171.000000 0 0 1
29.306112 16.002173 12.572287 35.678847 0.499794 1.210690 0.016585 0.003656 -98958.500000 0 0 1
28.703412 16.147473 11.279887 34.811817 0.512437 1.240816 -0.000709 0.006432 513783.000000 0 0 1
27.524112 17.195873 11.338387 34.377810 0.558424 1.234687 -0.009100 0.007378 339383.000000 0 0 1
27.869812 18.535673 11.662687 35.444546 0.586904 1.235509 -0.015394 0.009021 -142501.000000 0 0 1
28.203412 18.818873 13.006687 36.314685 0.588410 1.204493 0.007496 0.011580 -915995.000000 0 0 1
27.177012 18.660173 14.116287 35.861701 0.601687 1.166218 -0.003821 0.013050 -1127930.000000 0 0 1
26.105012 19.526273 13.970687 35.467268 0.642213 1.165922 0.007240 0.014479 -404936.000000 0 0 1
25.154412 19.376973 15.005987 35.119669 0.656380 1.129312 0.006378 0.007352 -157448.000000 0 0 1
25.467612 20.125773 16.355187 36.347464 0.668767 1.104067 0.024409 -0.003670 -306044.000000 0 0 1
25.484612 21.515873 16.232087 37.092842 0.701158 1.117861 0.016221 -0.000862 -47809.400000 0 0 1
24.235812 22.051573 16.575387 36.720429 0.738244 1.102469 0.023063 -0.001245 -679723.000000 0 0 1
24.217612 23.591673 16.513987 37.626740 0.772306 1.116434 0.024294 0.000232 -59658.000000 0 0 1
24.214312 24.128773 15.183487 37.404129 0.783629 1.152799 0.037605 -0.003531 143655.000000 0 0 1
24.231912 25.561373 15.149987 38.341772 0.812091 1.164587 0.035484 -0.003241 -348866.000000 0 0 1
24.007412 26.143973 13.723087 38.055043 0.827975 1.201873 0.025219 0.003596 -121365.000000 0 0 1
22.674212 25.970073 13.309987 36.955654 0.853049 1.202356 0.031269 0.001858 -244216.000000 0 0 1
22.510012 26.226573 11.971887 36.576767 0.861509 1.237343 0.022886 -0.001865 -32212.400000 0 0 1
21.901712 25.036973 11.180287 35.093216 0.852094 1.246557 0.037105 -0.004540 1480090.000000 0 0 1
20.503212 24.666873 11.459687 34.061133 0.877316 1.227657 0.041442 -0.003129 1700780.000000 0 0 1
20.132512 23.439973 10.879187 32.758313 0.861160 1.232262 0.046760 0.002155 58049.700000 0 0 1
20.220712 23.305473 9.327687 32.233957 0.856151 1.277223 0.046699 0.004265 -146764.000000 0 0 1
19.195112 24.059173 8.688687 31.981079 0.897380 1.295656 0.054875 0.006896 402068.000000 0 0 1
19.524612 24.353573 7.359187 32.069684 0.895011 1.339258 0.055540 -0.004521 172586.000000 0 0 1
18.240212 24.603173 6.520087 31.313463 0.932837 1.361042 0.044879 0.000659 19269.200000 0 0 1
17.553412 23.384473 6.176587 29.884880 0.926883 1.362617 0.062545 0.004289 127627.000000 0 0 1
16.911112 23.434173 4.925587 29.315654 0.945692 1.401977 0.075886 -0.008609 -977925.000000 0 0 1
15.517212 24.003073 4.859387 28.992154 0.996908 1.402391 0.064605 -0.009896 -1142870.000000 0 0 1
15.465212 25.438773 4.942587 30.178355 1.024560 1.406276 0.087739 -0.018179 -176852.000000 0 0 1
14.192312 25.888773 5.299587 29.995598 1.069334 1.393185 0.077270 -0.017477 -616093.000000 0 0 1
14.065212 27.346173 4.857287 31.132565 1.095743 1.414137 0.073627 -0.018814 -460448.000000 0 0 1
13.682512 27.487673 3.569987 30.911618 1.108935 1.455048 0.071889 -0.019590 247479.000000 0 0 1
13.713312 28.882973 3.227987 32.135665 1.127520 1.470178 0.062028 -0.017511 -295475.000000 0 0 1
13.430612 29.106173 1.783987 32.105035 1.138474 1.515200 0.069092 -0.016830 -302559.000000 0 0 1
14.349112 28.645473 0.809287 32.048636 1.106412 1.545542 0.082513 -0.018430 -28949.900000 0 0 1
14.438212 27.233773 0.531587 30.828930 1.083314 1.553552 0.077353 -0.013316 549441.000000 0 0 1
15.485212 26.887473 -0.597813 31.033617 1.048266 1.590061 0.081796 -0.015857 805731.000000 0 0 1
14.915012 27.116373 -1.880213 31.004685 1.067925 1.631476 0.072807 -0.016373 729917.000000 0 0 1
15.943512 26.939673 -2.871413 31.435435 1.036411 1.662267 0.063223 -0.010306 508837.000000 0 0 1
15.479612 27.507873 -4.216013 31.844564 1.058229 1.703580 0.062152 -0.011596 -217026.000000 0 0 1
14.338812 26.899473 -4.795213 30.857369 1.081058 1.726828 0.064722 -0.018588 -100288.000000 0 0 1
14.153412 27.324073 -6.130413 31.376839 1.092866 1.767441 0.049414 -0.010133 -63597.300000 0 0 1
12.878612 26.729873 -6.736413 30.425713 1.121810 1.794052 0.039158 -0.014537 -101590.000000 0 0 1
12.974112 25.480973 -7.372413 29.528969 1.099841 1.823133 0.039999 -0.012285 250905.000000 0 0 1
11.661412 25.101473 -7.783713 28.751672 1.135892 1.844939 0.035329 -0.002498 526294.000000 0 0 1
11.490312 23.706273 -8.443813 27.664284 1.119468 1.880970 0.030339 -0.005325 -72093.200000 0 0 1
12.149412 23.587373 -9.661013 28.236635 1.095157 1.919995 0.025814 -0.000821 -50290.300000 0 0 1
11.821312 22.328073 -10.198413 27.245071 1.083877 1.954461 0.023656 0.006077 276939.000000 0 0 1
12.371912 22.097273 -11.626613 27.866320 1.060396 2.001189 0.023395 0.008830 464071.000000 0 0 1
11.497912 21.135073 -12.275013 27.010539 1.072556 2.042554 0.018595 0.014551 395352.000000 0 0 1
11.805012 20.720773 -13.620713 27.463295 1.052940 2.089737 0.021067 0.011973 64279.800000 0 0 1
13.165212 20.011373 -13.864113 27.676551 0.988897 2.095473 0.013132 0.007633 1143110.000000 0 0 1
14.335312 20.781873 -13.544813 28.650469 0.966950 2.063217 0.013556 0.011464 346529.000000 0 0 1
15.535112 20.202673 -14.028613 29.091058 0.915269 2.073996 0.024401 0.011776 497343.000000 0 0 1
16.750912 21.155573 -13.927813 30.366681 0.901077 2.047277 0.027042 0.017212 -105077.000000 0 0 1
16.749412 22.316073 -14.759213 31.565555 0.926941 2.057340 0.029007 0.009311 -81722.100000 0 0 1
15.859812 23.355073 -14.369413 31.677644 0.974253 2.041612 0.024849 0.008232 154613.000000 0 0 1
16.305112 24.784173 -14.889613 33.193561 0.988899 2.035960 0.018514 0.009125 108557.000000 0 0 1
16.440312 24.983973 -16.271713 34.047781 0.988794 2.069068 0.019809 0.002345 270876.000000 0 0 1
15.172712 24.961773 -16.931013 33.763301 1.024634 2.096084 0.023818 0.001739 371744.000000 0 0 1
15.151712 25.044073 -18.493313 34.623440 1.026707 2.134271 0.030904 0.005449 41576.900000 0 0 1
15.617112 23.862873 -19.068813 34.306712 0.991298 2.160161 0.032592 0.005156 -200401.000000 0 0 1
15.533512 23.967873 -20.429813 35.115896 0.995760 2.191715 0.033148 0.006383 -161922.000000 0 0 1
16.018412 22.730873 -21.246313 34.995541 0.956924 2.223221 0.034996 0.010703 -283120.000000 0 0 1
15.149012 21.648173 -21.130113 33.832198 0.960216 2.245360 0.046730 0.006974 -195559.000000 0 0 1
15.611012 20.497273 -21.828113 33.768453 0.919904 2.273660 0.038477 0.008920 -37332.100000 0 0 1
14.549112 19.379973 -21.910613 32.670093 0.926829 2.305898 0.039917 0.002899 -1027540.000000 0 0 1
14.398012 18.656473 -20.741913 31.394166 0.913524 2.292538 0.036752 -0.003390 67874.600000 0 0 1
13.609812 17.499273 -21.020113 30.549905 0.909779 2.329606 0.034544 -0.009583 130475.000000 0 0 1
12.116312 17.659573 -21.371813 30.255907 0.969457 2.355151 0.025479 -0.009645 -662390.000000 0 0 1
11.272612 17.648773 -20.209713 29.102980 1.002392 2.338411 0.004088 -0.008258 293029.000000 0 0 1
9.928712 17.928573 -20.528713 29.007604 1.065046 2.357035 0.010844 -0.008900 59521.400000 0 0 1
8.814812 17.546773 -19.550013 27.709081 1.105262 2.353989 0.003778 -0.010283 -384434.000000 0 0 1
8.666112 16.140073 -19.469713 26.733372 1.078042 2.386623 -0.005134 -0.010521 57477.700000 0 0 1
7.349212 15.836073 -19.047413 25.837880 1.136295 2.399698 0.007125 -0.002355 -80700.600000 0 0 1
7.084712 15.762973 -17.540213 24.623638 1.148398 2.363612 0.003585 -0.005046 -271954.000000 0 1 0
7.148812 17.026273 -16.887813 25.023943 1.173279 2.311580 0.003936 -0.012380 -118782.000000 0 0 1
6.712012 16.934973 -15.534813 23.941070 1.193449 2.276904 0.004568 -0.019458 -266958.000000 0 1 0
6.152812 18.237473 -14.974813 24.386626 1.245415 2.231989 0.001736 -0.015508 -260417.000000 0 1 0
7.125512 19.249873 -14.753213 25.278208 1.216277 2.193993 0.001089 -0.015436 -17534.400000 0 0 1
7.472012 19.856073 -15.983113 26.562276 1.210879 2.216452 0.013460 -0.008151 235053.000000 0 0 1
8.563512 20.982673 -15.802913 27.628579 1.183307 2.179710 0.014309 0.004808 380583.000000 0 0 1
8.166112 22.123373 -15.044113 27.972385 1.217193 2.138646 0.010925 0.004597 -30398.000000 0 0 1
8.319912 21.933973 -13.645513 27.138904 1.208247 2.097634 -0.002887 0.000628 -330138.000000 0 0 1
8.031912 23.225073 -12.916613 27.762466 1.237842 2.054718 0.016939 0.004546 -439376.000000 0 0 1
6.730112 23.743973 -12.993613 27.890942 1.294596 2.055416 0.014384 0.003752 -380185.000000 0 0 1
6.460912 24.854473 -12.118913 28.396413 1.316475 2.011721 0.013981 0.009220 -181714.000000 0 0 1
6.049112 24.492473 -10.698813 27.403240 1.328664 1.971886 0.008202 0.003384 -174923.000000 0 0 1
7.057112 24.031973 -9.800913 26.896030 1.285171 1.943785 0.010182 0.001937 48410.800000 0 0 1
6.449612 23.551873 -8.607213 25.891549 1.303502 1.909679 -0.001998 -0.005081 185813.000000 0 0 1
7.334312 23.445773 -7.325613 25.635152 1.267620 1.860600 -0.005308 -0.007074 39991.700000 0 0 1
7.358212 24.672373 -6.590113 26.576284 1.280958 1.821380 -0.007353 -0.010907 38045.700000 0 0 1
8.289912 24.631773 -5.542513 26.573790 1.246150 1.780910 0.006596 -0.010837 -117654.000000 0 0 1
8.464912 26.015773 -4.910813 27.795526 1.256224 1.748405 0.010268 -0.009137 201465.000000 0 0 1
8.993212 26.923673 -5.884713 28.989513 1.248422 1.775211 0.025908 -0.005603 368219.000000 0 0 1
9.504612 28.175773 -5.290713 30.202706 1.245451 1.746878 0.027162 -0.010076 423342.000000 0 0 1
9.709312 29.330473 -6.321913 31.535915 1.251119 1.772631 0.029209 -0.006393 -532905.000000 0 0 1
10.858912 29.260873 -7.076013 32.002884 1.215443 1.793744 0.028692 -0.005438 -934863.000000 0 0 1
10.866112 30.290673 -8.032013 33.167913 1.226367 1.815390 0.028574 -0.000830 22827.600000 0 0 1
12.197112 30.332573 -8.805513 33.858109 1.188470 1.833892 0.034178 -0.006389 731474.000000 0 0 1
13.301112 30.651173 -7.947613 34.344993 1.161368 1.804318 0.032670 -0.004813 783807.000000 0 0 1
14.494212 31.043673 -8.664713 35.339342 1.133980 1.818508 0.032367 -0.009359 727736.000000 0 0 1
15.684712 31.355473 -7.770413 35.910377 1.106971 1.788905 0.031813 -0.006202 -463500.000000 0 0 1
16.167112 30.257773 -7.082513 35.029564 1.080077 1.774387 0.036453 -0.008411 59016.000000 0 0 1
17.385012 30.640973 -6.429413 35.811244 1.054709 1.751311 0.026958 -0.001285 908780.000000 0 0 1
18.401412 29.482073 -6.175413 35.297880 1.012804 1.746653 0.033219 -0.000053 -53808.000000 0 0 1
18.174912 28.729873 -5.039313 34.367538 1.006741 1.717957 0.056145 -0.013792 682460.000000 0 0 1
19.158712 27.649073 -4.784213 33.976700 0.964835 1.712074 0.048796 -0.010172 656843.000000 0 0 1
19.248512 26.528173 -5.818513 33.288200 0.943103 1.746491 0.047544 0.005244 -91814.600000 0 0 1
19.645212 26.889673 -7.159513 34.062406 0.939837 1.782564 0.026695 0.008367 251307.000000 0 0 1
19.639112 25.822973 -8.081913 33.434084 0.920591 1.814941 0.021963 0.004466 -652467.000000 0 0 1
20.228912 26.104373 -9.530813 34.372715 0.911534 1.851757 0.020158 0.000328 -164945.000000 0 0 1
21.617912 26.198073 -9.590313 35.293728 0.880894 1.845985 0.011800 0.001230 -366597.000000 0 0 1
22.322312 24.948073 -9.534013 34.807892 0.840889 1.848246 0.018291 0.001812 -577590.000000 0 0 1
23.839612 25.135073 -9.592513 35.946005 0.811844 1.840929 0.000144 0.006687 -260556.000000 0 0 1
24.367812 25.465173 -10.868313 36.883404 0.807415 1.869903 -0.004899 0.010237 -212224.000000 0 0 1
25.772612 25.441873 -10.786813 37.787191 0.778940 1.860285 -0.011185 0.015373 -101301.000000 0 0 1
26.557212 25.638973 -12.093413 38.844473 0.767808 1.887388 -0.010659 0.011435 -124612.000000 0 0 1
26.453112 26.924673 -12.641213 39.805847 0.794232 1.893964 -0.017835 0.013123 -264886.000000 0 0 1
27.305512 27.034673 -13.746813 40.809795 0.780414 1.914367 -0.014206 0.007339 -190526.000000 0 0 1
27.054412 28.169273 -14.773013 41.757527 0.805584 1.932407 -0.005126 0.005286 -252051.000000 0 0 1
27.350412 29.487673 -14.381613 42.712980 0.822983 1.914210 -0.008002 0.009763 -21160.400000 0 0 1
27.122812 30.388773 -15.425313 43.555307 0.842125 1.932806 0.001367 0.011853 -157206.000000 0 0 1
27.526612 31.873273 -15.167213 44.762308 0.858444 1.916479 -0.002941 0.006627 -331892.000000 0 0 1
28.883212 32.101573 -14.934413 45.692315 0.838122 1.903762 -0.003531 0.003512 -440421.000000 0 0 1
29.209912 33.468173 -14.766013 46.812100 0.853233 1.891708 0.002250 0.000041 48235.400000 0 0 1
14.787112 -32.808842 -28.844615 46.120392 -1.147356 2.246466 0.051529 -0.009828 219392.000000 0 0 1
15.881112 -33.270942 -28.055265 46.327780 -1.125451 2.221293 0.034074 -0.006157 416181.000000 0 0 1
16.041712 -32.295642 -27.033825 45.068533 -1.109781 2.214095 0.048787 -0.003942 258631.000000 0 0 1
17.317312 -32.552542 -26.139345 45.197595 -1.081893 2.187482 0.018877 0.002468 1352200.000000 0 0 1
18.561712 -32.190442 -26.753885 45.787903 -1.047744 2.194814 0.015255 -0.003691 528460.000000 0 0 1
19.255612 -33.188142 -27.466405 47.187231 -1.045066 2.192072 0.016173 -0.003576 -589459.000000 0 0 1
20.732612 -32.808642 -27.603215 47.625473 -1.007232 2.189021 0.038922 0.004313 -351719.000000 0 0 1
20.975412 -31.652342 -28.357005 47.391543 -0.985558 2.212244 0.039385 -0.011259 -383720.000000 0 0 1
22.275412 -31.176642 -28.135585 47.537229 -0.950411 2.204166 0.024416 0.003754 -125184.000000 0 0 1
22.753112 -29.893442 -28.918555 47.408910 -0.920203 2.226833 0.011060 0.008724 208192.000000 0 0 1
23.070512 -30.203842 -30.281005 48.594854 -0.918504 2.243537 0.010564 0.005518 -368644.000000 0 0 1
23.771612 -29.187242 -30.879235 48.687902 -0.887305 2.257806 0.009759 -0.010328 -121210.000000 0 0 1
24.012012 -29.456042 -32.384045 49.929565 -0.886867 2.276533 0.019225 -0.001897 -57616.100000 0 0 1
25.042012 -30.348042 -32.685035 51.150929 -0.880901 2.263983 0.028525 -0.017839 -510122.000000 0 0 1
24.929612 -30.804942 -33.962715 52.190957 -0.890427 2.279354 0.028537 -0.020683 -276104.000000 0 0 1
26.205012 -31.486642 34.425282 53.508983 -0.876693 0.871923 0.019635 -0.021148 -58837.300000 0 0 1
27.268012 -30.565842 34.363495 53.466484 -0.842359 0.872765 0.027114 -0.029634 308425.000000 0 0 1
28.549112 -31.177442 34.138662 54.337215 -0.829376 0.891464 0.028413 -0.022724 1419850.000000 0 0 1
29.745912 -30.172342 34.249941 54.481629 -0.792515 0.890979 0.033977 -0.034600 432687.000000 0 0 1
29.922912 -29.422542 33.032892 53.406353 -0.776967 0.903939 0.037296 -0.030699 213122.000000 0 0 1
30.990412 -28.479942 33.044305 53.511109 -0.743209 0.905208 0.040891 -0.034750 221340.000000 0 0 1
31.342512 -27.846442 31.702147 52.562377 -0.726400 0.923372 0.042761 -0.036073 -850430.000000 0 0 1
32.404412 -26.958442 31.702567 52.743305 -0.693914 0.925954 0.032980 -0.036592 -349049.000000 0 0 1
32.664312 -26.297742 30.435287 51.815395 -0.677837 0.942980 0.048403 -0.034198 -171922.000000 0 0 1
33.378912 -26.993542 29.275757 51.960302 -0.680024 0.972270 0.040531 -0.031363 -293810.000000 0 0 1
32.628612 -28.041242 28.688157 51.710230 -0.709930 0.982690 0.045888 -0.035696 240853.000000 0 0 1
31.586312 -27.651142 27.835387 50.369530 -0.719065 0.985288 0.044875 -0.036657 -496745.000000 0 0 1
30.755012 -28.838242 27.304387 50.229916 -0.753245 0.996090 0.029299 -0.022512 -190381.000000 0 0 1
29.528912 -28.353842 26.789847 48.924359 -0.765100 0.991331 0.026642 -0.013660 -24630.900000 0 0 1
28.912012 -29.331942 26.006867 48.709592 -0.792608 1.007570 0.003995 -0.002283 414778.000000 0 0 1
27.513512 -28.854542 25.482587 47.317440 -0.809184 1.002087 0.010021 0.008145 969288.000000 0 0 1
26.548212 -28.542642 26.500137 47.135414 -0.821585 0.973737 0.020095 0.001285 325025.000000 0 0 1
25.282512 -28.361242 25.908087 45.986894 -0.842727 0.972325 0.017318 0.019214 714673.000000 0 0 1
24.077412 -28.147842 26.900027 45.778098 -0.863181 0.942685 0.019717 0.016806 623320.000000 0 0 1
24.092312 -26.862642 27.498077 45.367227 -0.839713 0.919620 0.018709 0.005771 414401.000000 0 0 1
22.893512 -26.637142 28.233307 45.064064 -0.860837 0.893723 0.020920 -0.004533 110005.000000 0 0 1
22.696412 -25.188742 28.680997 44.409452 -0.837399 0.868685 0.013120 0.009808 65925.400000 0 0 1
21.627612 -25.145842 29.657387 44.493006 -0.860475 0.841208 0.018020 0.013460 706388.000000 0 0 1
21.430912 -24.024842 30.494737 44.344177 -0.842401 0.812504 0.018871 0.015339 -396009.000000 0 0 1
20.958712 -22.746142 29.794957 42.946409 -0.826273 0.804085 0.026091 0.013800 -514405.000000 0 0 1
21.935112 -22.258942 28.890467 42.559003 -0.792725 0.824624 0.022602 0.010729 192420.000000 0 0 1
21.959312 -20.832842 28.831337 41.802687 -0.759080 0.809721 0.038219 0.012433 184467.000000 0 0 1
22.916712 -20.018742 29.738627 42.547757 -0.718004 0.796872 0.034850 0.004358 -54868.400000 0 0 1
22.376012 -20.057342 31.039177 43.202007 -0.730810 0.769202 0.046912 0.003505 671475.000000 0 0 1
23.088212 -19.140942 31.839447 43.740045 -0.692196 0.755506 0.037541 -0.009871 -294483.000000 0 0 1
22.272512 -19.015042 33.136203 44.222670 -0.706664 0.723787 0.046665 -0.005485 63743.200000 0 0 1
22.493412 -20.088042 34.081694 45.508734 -0.728969 0.724389 0.033749 -0.006162 190633.000000 0 0 1
21.851612 -19.701942 -33.625305 44.680203 -0.733712 2.422764 0.036147 -0.008206 4352.750000 0 0 1
21.740712 -20.861842 -32.596755 44.389452 -0.764772 2.395484 0.023594 -0.006597 123779.000000 0 0 1
23.008712 -21.255642 -32.106435 44.855616 -0.745814 2.368527 0.021363 -0.003385 16191.300000 0 0 1
22.844012 -22.266142 -31.146265 44.583851 -0.772589 2.344235 0.016912 -0.004452 151680.000000 0 0 1
24.144712 -22.802742 -30.491165 45.084845 -0.756821 2.313533 0.021798 0.001830 8828.290000 0 0 1
25.043212 -23.429742 -31.375485 46.481570 -0.752124 2.311773 0.016596 0.006678 -213388.000000 0 0 1
25.978812 -24.174242 -30.612185 46.865750 -0.749432 2.282585 0.017537 -0.007594 -217280.000000 0 0 1
27.012112 -25.046142 -31.335745 48.362096 -0.747651 2.275673 0.007444 -0.010585 -885088.000000 0 0 1
28.016512 -24.368042 -31.979905 49.004497 -0.715863 2.281796 0.006044 -0.006530 -686906.000000 0 0 1
27.803712 -24.003942 -33.360585 49.620200 -0.712185 2.308133 0.010698 0.001304 -233880.000000 0 0 1
27.893312 -25.186342 -34.323299 50.896734 -0.734444 2.310909 0.018581 0.000210 -646.253000 0 0 1
26.873812 -26.152942 -34.176144 50.736446 -0.771805 2.309867 0.030026 -0.012258 -149019.000000 0 0 1
27.159712 -27.375342 33.993544 51.406423 -0.789352 0.848285 0.037432 -0.015758 121100.000000 0 0 1
26.725912 -27.467742 32.504917 50.252571 -0.799086 0.867375 0.036984 -0.027815 26303.100000 0 0 1
27.625812 -26.760042 31.665917 49.819832 -0.769480 0.882000 0.027857 -0.038302 -14739.000000 0 0 1
27.384412 -26.813742 30.277517 48.842715 -0.774869 0.902183 0.021183 -0.026742 851475.000000 0 0 1
28.660712 -26.161942 29.559537 48.781655 -0.739851 0.919829 0.030530 -0.027100 996990.000000 0 0 1
28.860612 -24.715842 29.724677 48.242763 -0.708190 0.906954 0.031769 -0.032897 68518.800000 0 0 1
28.981112 -24.200442 31.044517 48.880756 -0.695746 0.882649 0.021319 -0.028775 -1215300.000000 0 0 1
29.353912 -22.692842 30.990527 48.342838 -0.658108 0.874921 0.008053 -0.011555 456450.000000 0 0 1
30.664412 -22.407642 30.528177 48.727591 -0.631059 0.893733 0.026907 -0.015212 731448.000000 0 0 1
31.709612 -22.760642 31.466137 50.136455 -0.622562 0.892317 0.020603 -0.013244 358463.000000 0 0 1
33.107912 -22.286342 30.945107 50.501629 -0.592472 0.911255 0.013573 -0.010857 66788.500000 0 0 1
33.670512 -23.052142 29.928147 50.604334 -0.600342 0.937984 0.024564 -0.017917 160980.000000 0 0 1
34.884912 -22.353842 29.651967 50.949882 -0.569872 0.949631 0.002631 -0.014032 397663.000000 0 0 1
-35.344022 -22.651442 28.237077 50.592689 0.569941 0.978671 0.015634 -0.012683 125949.000000 0 0 1
-34.951322 -24.015942 28.030097 50.833519 0.602033 0.986743 0.011273 -0.013658 157234.000000 0 0 1
-34.497422 -24.196642 26.740727 49.906073 0.611668 1.005316 0.003021 0.000881 -270021.000000 0 0 1
-34.379622 -25.663842 26.367257 50.356960 0.641247 1.019717 0.003571 -0.007136 417738.000000 0 0 1
35.220312 -26.353442 26.216817 51.208356 -0.642377 1.033327 0.017789 -0.015379 581584.000000 0 0 1
35.394212 -27.722942 25.834907 51.853198 -0.664451 1.049238 0.025604 -0.010109 104188.000000 0 0 1
-34.928522 -28.730842 26.907067 52.625594 0.688347 1.034108 0.026224 -0.016983 -570203.000000 0 0 1
-34.735522 -30.042742 26.358787 52.951945 0.713081 1.049751 0.036346 -0.012880 562888.000000 0 0 1
-33.690022 -30.772842 27.011697 53.024684 0.740175 1.036289 0.041018 -0.016657 845083.000000 0 0 1
-32.231322 -30.317142 26.753337 51.708106 0.754805 1.026996 0.046179 -0.017251 -512030.000000 0 0 1
-31.756022 -30.237742 25.442647 50.696097 0.760912 1.045042 0.042001 -0.011916 -985558.000000 0 0 1
-30.516822 -29.644342 25.388397 49.544264 0.770897 1.032774 0.029118 -0.010278 -1057260.000000 0 0 1
-30.021622 -29.614142 23.932757 48.487854 0.778565 1.054592 0.020489 -0.011237 -664585.000000 0 0 1
-29.879022 -30.905142 23.344787 48.916897 0.802278 1.073292 0.028599 -0.012749 375134.000000 0 0 1
-29.358222 -30.845542 22.055687 47.956292 0.810098 1.092900 0.022275 -0.010411 -640164.000000 0 0 1
-29.247722 -32.206742 21.236387 48.411647 0.833511 1.116686 0.026632 -0.008558 455945.000000 0 0 1
-28.306622 -33.197142 21.698187 48.725008 0.864747 1.109265 0.021108 -0.018978 -55101.400000 0 0 1
-26.963922 -32.874942 21.488987 47.640229 0.883861 1.102835 0.026992 -0.013045 -588872.000000 0 0 1
-26.082722 -34.148442 21.521987 48.058510 0.918519 1.106461 0.023625 -0.003197 -499252.000000 0 0 1
-26.110522 34.274273 20.259887 47.612479 -0.919779 1.131264 0.012014 -0.009668 669178.000000 0 0 1
-27.329022 33.551073 20.006687 47.674075 -0.887246 1.137731 0.015681 -0.008656 589083.000000 0 0 1
-27.668322 32.324073 20.885587 47.398201 -0.862849 1.114484 0.015583 -0.004404 330528.000000 0 0 1
-26.660822 31.291173 20.791287 46.067500 -0.865129 1.102550 0.002473 -0.005212 502491.000000 0 0 1
-26.853922 30.222573 21.708087 45.888758 -0.844350 1.078037 0.007738 -0.003751 -256453.000000 0 0 1
-25.879522 29.061573 21.568987 44.492088 -0.843251 1.064682 -0.001661 0.007120 376155.000000 0 0 1
-24.518022 29.319473 21.921887 44.060572 -0.874347 1.050036 -0.001471 0.005552 412265.000000 0 0 1
-23.718722 28.287573 21.391187 42.665530 -0.873025 1.045616 -0.003092 0.000911 496574.000000 0 0 1
-22.185022 28.583473 21.464487 42.070350 -0.910769 1.035374 -0.009350 0.005081 471304.000000 0 0 1
-21.715422 28.703473 22.788987 42.600315 -0.923121 1.006349 -0.006722 0.011587 627344.000000 0 0 1
-20.375422 29.178073 22.877587 42.307230 -0.961204 0.999469 0.024933 0.007920 137954.000000 0 0 1
-19.808122 29.277373 24.248187 42.866080 -0.975971 0.969547 0.023039 0.008570 -544177.000000 0 0 1
-19.517422 28.017473 24.895187 42.257294 -0.962345 0.940810 0.023213 -0.002458 328545.000000 0 0 1
-19.367322 28.041473 26.266567 43.027316 -0.966362 0.914152 0.029041 -0.005657 1196070.000000 0 0 1
-17.899722 28.430973 26.793207 42.972040 -1.008907 0.897581 0.035890 -0.002714 937296.000000 0 0 1
-17.495122 29.761573 26.502137 43.522337 -1.039364 0.916083 0.021571 -0.001206 268176.000000 0 0 1
-16.194722 30.088973 26.965457 43.528740 -1.077036 0.902708 0.015233 0.001535 95401.000000 0 0 1
-15.961222 30.259573 28.489697 44.520391 -1.085410 0.876396 0.005184 0.008386 -517842.000000 0 0 1
-16.014222 29.015373 29.158307 44.142429 -1.066479 0.849244 0.016863 0.007790 114407.000000 0 0 1
-16.220022 29.368373 30.505677 45.345196 -1.066192 0.832886 0.010258 0.008372 -228798.000000 0 0 1
-16.146322 28.263673 31.522047 45.312011 -1.051766 0.801449 0.007448 0.010142 -493954.000000 0 0 1
-14.835322 27.797073 31.658257 44.665527 -1.080553 0.783022 0.012975 0.014035 -188037.000000 0 0 1
-14.765822 26.544373 32.338517 44.366800 -1.063153 0.754097 0.023255 0.013317 -194743.000000 0 0 1
-15.092222 26.525373 33.844988 45.572512 -1.053503 0.733759 0.019173 0.010640 964139.000000 0 0 1
-16.501722 26.360373 34.137782 46.179695 -1.011475 0.738858 0.015248 0.006196 855074.000000 0 0 1
-16.723622 27.096473 -33.588565 46.282719 -1.017834 2.382885 0.009314 0.004264 582017.000000 0 0 1
-18.124322 26.776673 -32.972925 46.181111 -0.975763 2.365979 -0.003309 0.003172 578477.000000 0 0 1
-19.262422 27.072873 -33.738885 47.352864 -0.952392 2.363850 -0.000223 0.004145 868311.000000 0 0 1
-20.438922 26.541673 -33.062385 47.067305 -0.914574 2.349629 0.026534 -0.002251 549970.000000 0 0 1
-21.760422 26.334173 -33.775485 48.039442 -0.880212 2.350513 0.045162 -0.009815 -1027080.000000 0 0 1
-21.694722 25.563673 33.905108 47.683527 -0.867084 0.779814 0.041312 -0.012480 48844.400000 0 0 1
-21.719322 24.154173 34.039081 47.051164 -0.838426 0.762012 0.030297 -0.010824 -340644.000000 0 0 1
-21.949522 23.408073 32.727767 45.834770 -0.817544 0.775547 0.016468 -0.007332 -997711.000000 0 0 1
-23.259622 23.531273 32.299187 46.238169 -0.791204 0.797442 0.021924 -0.015724 -880315.000000 0 0 1
-23.498722 22.881573 31.021257 45.145041 -0.772093 0.813242 0.015837 -0.006173 -323713.000000 0 0 1
-24.968122 22.547573 30.811507 45.619613 -0.734500 0.829289 0.007030 -0.000048 -348374.000000 0 0 1
-25.349422 21.249073 31.262107 45.513027 -0.697631 0.813605 0.014435 -0.007037 -245116.000000 0 0 1
-26.506922 20.837473 30.580587 45.519111 -0.666217 0.834135 0.019005 -0.006312 -716538.000000 0 0 1
-26.874822 19.415273 30.965337 45.365857 -0.625624 0.819524 0.040094 -0.011806 -643514.000000 0 0 1
-27.478822 19.348673 32.230957 46.564916 -0.613493 0.806301 0.046096 -0.012459 -100485.000000 0 0 1
-27.589722 18.043173 32.725877 46.451393 -0.579169 0.789052 0.044581 -0.004612 -457883.000000 0 0 1
-28.523122 16.971473 32.106367 46.178114 -0.536740 0.801998 0.026508 -0.005947 -267973.000000 0 0 1
-29.870622 17.368073 32.149297 47.196200 -0.526663 0.821418 0.015645 -0.007146 223858.000000 0 0 1
-30.736322 16.288973 31.738367 47.089023 -0.487326 0.831176 0.030128 0.000130 506157.000000 0 0 1
-32.264022 16.492673 31.692537 48.139301 -0.472550 0.852171 0.032700 -0.002237 109355.000000 0 0 1
-32.809222 16.586573 33.005141 49.405453 -0.468075 0.839216 0.033939 -0.003366 333053.000000 0 0 1
-34.211622 16.765073 33.007173 50.408097 -0.455648 0.856880 0.043140 -0.008571 -1671.210000 0 0 1
-34.727622 17.461573 34.280466 51.827257 -0.465897 0.848063 0.038569 0.003847 1119970.000000 0 0 1
34.688312 17.637973 34.427832 51.958182 0.470401 0.846503 0.028422 -0.005367 1087150.000000 0 0 1
34.315712 18.152673 -33.219585 51.094309 0.486570 2.278594 0.008915 -0.005620 124739.000000 0 0 1
32.792012 18.267573 -33.002635 49.981939 0.508258 2.292003 0.021978 -0.010187 331740.000000 0 0 1
32.215012 16.924173 -32.965025 49.101197 0.483722 2.306851 0.024841 -0.001996 338417.000000 0 0 1
30.887712 16.967673 -32.476225 47.923458 0.502332 2.315384 0.014530 -0.001636 63845.700000 0 0 1
29.998112 15.727673 -32.661795 47.053579 0.482889 2.338022 0.005949 0.002303 -147695.000000 0 0 1
29.520912 15.533873 -33.964935 47.606746 0.484386 2.365203 0.016409 -0.008812 -41053.300000 0 0 1
28.999512 14.222473 -34.264665 47.088403 0.455969 2.385711 0.012071 -0.010772 -452856.000000 0 0 1
30.015312 13.107873 -34.428618 47.519102 0.411744 2.381136 0.014124 -0.010186 -620178.000000 0 0 1
30.480012 12.586873 -33.213555 46.803854 0.391624 2.359773 0.016839 -0.002509 381103.000000 0 0 1
31.409812 11.561473 -33.633865 47.449772 0.352694 2.358636 0.026747 -0.001932 174590.000000 0 0 1
17.535412 -21.502727 9.388275 29.291597 -0.886677 1.244528 -0.002573 -0.001930 -42215.300000 0 0 1
17.136012 -22.577727 10.161375 30.110633 -0.921574 1.226571 -0.014349 -0.010184 542580.000000 0 0 1
18.297812 -23.283327 10.617075 31.458632 -0.904727 1.226544 -0.002190 -0.011737 478998.000000 0 0 1
17.965612 -24.482927 11.545075 32.487932 -0.937743 1.207492 0.005283 -0.013654 -234193.000000 0 0 1
17.259112 -25.522987 10.935175 32.693698 -0.976210 1.229750 0.005010 -0.011564 246633.000000 0 0 1
15.903712 -25.600397 11.374675 32.213221 -1.014913 1.209908 0.009951 -0.010704 276487.000000 0 0 1
15.122012 -26.718487 10.681875 32.506234 -1.055771 1.235965 0.040656 0.001125 -122076.000000 0 0 1
14.894212 -26.407657 9.316975 31.717628 -1.057260 1.272651 0.040655 -0.010145 -124081.000000 0 0 1
13.992912 -27.309207 8.735075 31.904481 -1.097287 1.293467 0.047436 0.001646 -198541.000000 0 0 1
13.768112 -26.762447 7.262975 30.960302 -1.095651 1.334000 0.050037 -0.006045 -54398.700000 0 0 1
12.990812 -25.562877 7.287975 29.586086 -1.100618 1.321903 0.048418 -0.014964 241152.000000 0 0 1
12.821312 -24.968127 6.007675 28.703407 -1.096401 1.359935 0.054813 0.000998 137123.000000 0 0 1
12.202812 -23.526427 6.105575 27.197049 -1.092312 1.344373 0.071098 0.002769 75016.100000 0 0 1
11.710812 -22.888027 4.959075 26.183914 -1.097867 1.380251 0.060275 0.003326 -2335.540000 0 0 1
10.991712 -21.711927 5.294675 24.905002 -1.102159 1.356567 0.063127 0.001200 282337.000000 0 1 0
10.178412 -21.111227 4.073275 23.788139 -1.121544 1.398717 0.044938 -0.001001 449810.000000 0 1 0
10.934312 -20.443327 3.037175 23.381900 -1.079651 1.440534 0.030371 0.002908 23567.900000 0 1 0
10.123012 -19.896127 1.987575 22.411642 -1.100139 1.481995 0.024880 0.009561 98464.500000 0 1 0
10.874712 -19.312027 0.779075 22.177031 -1.057947 1.535659 0.018193 0.008414 -266656.000000 0 1 0
11.488812 -18.086027 1.082375 21.453874 -1.004873 1.520324 0.008531 0.005892 -131337.000000 0 1 0
12.179312 -17.662327 -0.083325 21.454612 -0.967109 1.574680 0.009149 -0.003981 -908305.000000 0 1 0
13.405512 -16.813427 0.115175 21.503775 -0.897698 1.565440 0.008586 0.001486 -1293130.000000 0 1 0
14.468012 -17.533427 0.611375 22.740234 -0.880897 1.543908 0.014308 -0.002043 -723232.000000 0 1 0
15.706512 -16.888527 0.441275 23.067544 -0.821646 1.551665 0.023720 -0.007907 329629.000000 0 1 0
16.924712 -17.610527 1.081375 24.448843 -0.805254 1.526552 0.024570 -0.003828 -664.205000 0 1 0
17.350112 -18.726727 0.468275 25.533037 -0.823538 1.552455 0.026868 -0.011898 80791.000000 0 0 1
18.403512 -19.348027 1.203475 26.729829 -0.810412 1.525757 0.028732 -0.004408 331034.000000 0 0 1
18.679712 -20.692727 0.515775 27.881654 -0.836481 1.552297 0.013239 -0.004135 137839.000000 0 0 1
17.805512 -21.756927 0.882275 28.127896 -0.884946 1.539425 0.020486 -0.004392 157381.000000 0 0 1
17.982412 -22.787027 -0.031225 29.027861 -0.902706 1.571872 0.030342 -0.009449 -246163.000000 0 0 1
16.995512 -23.978027 0.085375 29.390483 -0.954192 1.567891 0.022451 0.004407 -155662.000000 0 0 1
17.043212 -24.653027 1.345575 30.000890 -0.965917 1.525930 0.013601 0.008015 -364106.000000 0 0 1
16.035812 -25.591377 1.543175 30.239829 -1.011040 1.519743 0.016010 0.006807 -685311.000000 0 0 1
16.118712 -26.134517 2.983075 30.850034 -1.018145 1.473949 0.022285 0.003698 -117151.000000 0 0 1
17.022812 -27.181487 3.096575 32.221083 -1.011288 1.474544 0.010132 0.006764 -39315.100000 0 0 1
18.333112 -26.712027 3.436875 32.579864 -0.969308 1.465109 0.015143 0.007488 -280320.000000 0 0 1
19.309212 -27.877287 3.442475 34.085766 -0.965020 1.469629 0.021231 0.011161 -457662.000000 0 0 1
19.751312 -28.356577 2.223375 34.628792 -0.962401 1.506546 0.025730 0.004169 -431958.000000 0 0 1
20.456012 -29.595797 2.219675 36.045618 -0.966015 1.509178 0.034389 0.001291 68771.800000 0 0 1
19.884712 -30.915487 2.834375 36.867368 -0.999219 1.493840 0.027200 0.003270 -128574.000000 0 0 1
19.920412 -30.961017 4.216675 37.056548 -0.999073 1.456759 0.034762 0.010465 -144512.000000 0 0 1
18.972512 -31.916837 4.661375 37.421506 -1.034478 1.445908 0.028978 0.000094 -89681.700000 0 0 1
18.834512 -32.272027 6.171175 37.872233 -1.042510 1.407119 0.039727 -0.003278 109590.000000 0 0 1
19.880012 -33.088627 6.673375 39.174049 -1.029781 1.399610 0.037587 -0.009328 416376.000000 0 0 1
19.415612 -33.663407 7.918575 39.659738 -1.047642 1.369783 0.035883 -0.008442 -137311.000000 0 0 1
20.452612 -34.499968 8.647675 41.028520 -1.035666 1.358431 0.024233 -0.007127 30852.200000 0 0 1
21.429112 -33.675937 9.308975 40.986981 -1.004089 1.341677 0.027646 -0.009832 219096.000000 0 0 1
22.374412 -34.493595 9.931475 42.297241 -0.995368 1.333782 0.024682 -0.013799 -85926.700000 0 0 1
23.428812 -33.842617 10.881675 42.575143 -0.965265 1.312341 0.027393 -0.014606 83414.200000 0 0 1
24.250912 -32.981597 10.099575 42.165079 -0.936779 1.328920 0.019960 -0.009876 143170.000000 0 0 1
25.121712 -32.092387 10.757275 42.151402 -0.906636 1.312736 0.018161 -0.008547 -124798.000000 0 0 1
25.869912 -31.200277 9.789075 41.695751 -0.878528 1.333810 0.021694 -0.010059 -543015.000000 0 0 1
25.101012 -30.177727 9.166775 40.308632 -0.876980 1.341374 0.021424 -0.015920 -70590.700000 0 0 1
25.784412 -29.386527 8.219275 39.949473 -0.850596 1.363575 0.041397 -0.016089 -184153.000000 0 0 1
25.334512 -27.927977 8.308975 38.611507 -0.834052 1.353906 0.028081 -0.006592 -45222.200000 0 0 1
26.083712 -27.156797 9.194775 38.760748 -0.805551 1.331294 0.019871 -0.019195 -54160.900000 0 0 1
25.413212 -25.928407 9.386175 37.499519 -0.795432 1.317805 0.023312 -0.011805 87518.600000 0 0 1
26.244212 -25.004157 10.300975 37.683904 -0.761206 1.293920 0.039762 -0.020094 204518.000000 0 0 1
27.487712 -24.676727 9.721275 38.197099 -0.731563 1.313463 0.053117 -0.020064 -602576.000000 0 0 1
28.274112 -23.898227 10.574475 38.501561 -0.701720 1.292570 0.038251 -0.020228 -137355.000000 0 0 1
29.656812 -23.634927 9.951575 39.206762 -0.672877 1.314166 0.053084 -0.020442 130939.000000 0 0 1
29.558712 -22.776127 8.851275 38.351200 -0.656517 1.337901 0.057676 -0.015209 193860.000000 0 0 1
30.889412 -22.552127 8.407275 39.159118 -0.630638 1.354417 0.060081 -0.019977 503660.000000 0 0 1
30.801812 -21.749427 7.101875 38.369595 -0.614814 1.384632 0.060564 -0.008332 37119.300000 0 0 1
30.385112 -20.419227 7.403375 37.349831 -0.591696 1.371258 0.051765 -0.000939 -15985.800000 0 0 1
30.780912 -19.516127 6.390075 37.002390 -0.565069 1.397233 0.040964 0.002191 -104839.000000 0 0 1
30.351012 -18.078327 6.514475 35.922810 -0.537209 1.388441 0.042953 0.006032 -230994.000000 0 0 1
31.109712 -17.359827 7.459675 36.398139 -0.508979 1.364387 0.052532 0.005489 54952.000000 0 0 1
30.864912 -15.963527 7.397675 35.527491 -0.477318 1.361038 0.051667 0.009101 -38989.700000 0 0 1
31.323012 -15.337227 8.734175 35.953407 -0.455331 1.325411 0.051264 -0.006684 638281.000000 0 0 1
32.718012 -15.042227 8.796875 37.069151 -0.430935 1.331201 0.049129 -0.008935 236547.000000 0 0 1
33.209112 -14.740327 10.047675 37.697190 -0.417739 1.300999 0.050752 -0.017784 -129056.000000 0 0 1
34.737412 -14.671127 10.160675 39.053414 -0.399619 1.307594 0.041339 -0.015618 -88664.500000 0 0 1
35.365612 -13.593227 9.477675 39.055457 -0.366954 1.325677 0.042796 -0.008088 -359817.000000 0 0 1
-34.165122 -13.951527 9.178275 38.028166 0.387689 1.327035 0.032706 -0.003479 -556895.000000 0 0 1
-33.347122 -13.011627 8.350575 36.756837 0.372019 1.341611 0.025338 -0.007663 -144788.000000 0 0 1
-34.000122 -12.650727 7.118075 36.969125 0.356207 1.377045 0.035997 -0.015650 225613.000000 0 0 1
-33.078522 -12.275127 6.117875 35.809158 0.355339 1.399107 0.026271 -0.009755 -193150.000000 0 0 1
-32.419922 -13.371027 5.260875 35.461423 0.391178 1.421892 0.019812 -0.013745 -352852.000000 0 0 1
-31.550722 -14.155727 5.993475 35.096359 0.421744 1.399183 0.010616 -0.008817 -330651.000000 0 0 1
-30.859322 -15.118427 5.221675 34.758172 0.455547 1.419997 0.003574 -0.003610 87443.600000 0 0 1
-29.900722 -15.898127 6.153275 34.418984 0.488683 1.391054 0.003756 -0.003043 238467.000000 0 0 1
-30.608022 -16.617927 7.199275 35.564534 0.497397 1.366959 -0.007588 -0.011580 485061.000000 0 0 1
-29.864522 -16.585727 8.418675 35.183094 0.506953 1.329170 -0.006103 -0.006255 382309.000000 0 0 1
-30.690222 -17.209327 9.580375 36.466893 0.511054 1.304962 -0.027295 0.005061 -410161.000000 0 0 1
-31.907322 -16.546927 9.806275 37.256423 0.478411 1.304448 -0.008997 -0.002576 -46139.700000 0 0 1
-32.814922 -17.193927 10.670775 38.552765 0.482637 1.290351 0.007613 -0.002812 -153749.000000 0 0 1
-33.576622 -18.455127 10.230375 39.656549 0.502568 1.309871 0.026999 -0.009602 -1061630.000000 0 0 1
-32.924422 -19.656627 9.934375 39.611771 0.538227 1.317296 0.019114 -0.009585 -760571.000000 0 0 1
-32.208922 -20.270227 10.979775 39.608739 0.561711 1.289912 -0.004463 -0.008679 -898361.000000 0 0 1
-32.922622 -20.826827 12.273375 40.844724 0.564045 1.265591 0.052384 -0.007430 -44781.400000 0 0 1
-33.361222 -22.164127 12.332075 41.908230 0.586410 1.272111 0.022187 -0.008705 -378289.000000 0 0 1
-34.708322 -22.236427 11.943775 42.915965 0.569785 1.288766 0.035856 -0.017977 -383491.000000 0 0 1
-35.234222 -23.686727 11.779775 44.059897 0.591868 1.300146 0.028057 -0.013664 -59217.600000 0 0 1
35.359712 -24.460227 12.936175 44.899405 -0.605170 1.278539 0.044429 -0.012846 386596.000000 0 0 1
34.668712 -25.695687 12.618175 44.960052 -0.637831 1.286322 0.030027 0.002137 -157012.000000 0 0 1
33.968312 -26.288277 13.823075 45.122025 -0.658626 1.259441 0.041795 -0.019686 280656.000000 0 0 1
32.818912 -25.463787 14.071475 43.857632 -0.659864 1.244175 0.036413 -0.013477 285949.000000 0 0 1
32.202912 -25.514727 15.335975 43.854544 -0.670035 1.213544 0.032456 -0.002359 -159283.000000 0 0 1
31.839412 -24.084827 15.793775 42.933325 -0.647614 1.194082 0.027170 -0.005224 20868.300000 0 0 1
32.898512 -23.286727 16.308675 43.480532 -0.615965 1.186313 0.035836 -0.006927 51939.100000 0 0 1
33.642112 -22.645727 15.258075 43.329315 -0.592468 1.210938 0.042813 -0.008858 786198.000000 0 0 1
34.824912 -21.834827 15.956275 44.092368 -0.560028 1.200509 0.036729 -0.009914 508895.000000 0 0 1
34.515312 -20.542527 16.462475 43.408701 -0.536862 1.181818 0.038901 -0.007795 316247.000000 0 0 1
33.417712 -20.372727 17.365375 42.817610 -0.547477 1.153198 0.043456 -0.009854 411878.000000 0 0 1
33.374912 -18.973227 18.035275 42.416262 -0.516926 1.131617 0.042226 -0.007548 -107033.000000 0 0 1
33.205812 -17.911027 17.104475 41.424557 -0.494664 1.145153 0.039403 -0.012655 74670.100000 0 0 1
33.170712 -16.559427 17.582775 41.032484 -0.463022 1.127955 0.028637 -0.006383 265626.000000 0 0 1
34.514512 -15.891027 18.023975 42.055202 -0.431482 1.127877 0.025288 -0.011351 191661.000000 0 0 1
34.933112 -16.410127 19.294475 43.149639 -0.439163 1.107217 0.019490 0.001914 -957441.000000 0 0 1
-34.899322 -15.647327 19.751175 43.045446 0.421486 1.094102 0.014364 -0.010483 -1339740.000000 0 0 1
-34.609922 -15.667427 21.264875 43.537454 0.425085 1.060510 0.008538 -0.007258 -238178.000000 0 0 1
-33.668822 -16.686527 21.601975 43.343686 0.460128 1.049058 0.005447 -0.005496 474759.000000 0 0 1
-33.462422 -16.595827 22.989375 43.859623 0.460406 1.019070 0.007996 -0.000173 510648.000000 0 0 1
-32.522922 -17.735827 23.594475 43.920374 0.499253 1.003670 0.000837 0.006346 -208813.000000 0 0 1
-33.165022 -18.993027 23.674275 44.956925 0.520091 1.016201 -0.005085 0.006089 148956.000000 0 0 1
-32.420022 -20.151727 23.997775 45.089280 0.556138 1.009566 -0.013533 0.008210 -433023.000000 0 0 1
-31.340422 -20.716927 22.998775 44.049481 0.584089 1.021471 -0.018016 0.012870 892352.000000 0 0 1
-30.118522 -19.996227 23.211475 42.962158 0.586097 1.000030 -0.018642 0.013821 -86504.800000 0 0 1
-29.023222 -20.641227 22.622575 42.192281 0.618201 1.004894 -0.006580 0.008002 -693784.000000 0 0 1
-27.830722 -19.714527 22.640475 40.936570 0.616323 0.984761 0.007390 0.011942 -679178.000000 0 0 1
-27.133022 -19.517727 23.850575 41.060839 0.623585 0.951012 0.007478 0.006886 216230.000000 0 0 1
-26.167522 -18.494927 23.769675 39.897356 0.615268 0.932571 0.031450 0.007798 -26632.900000 0 0 1
-25.510822 -18.138327 25.129075 40.140645 0.618074 0.894350 0.022436 -0.000815 -1197630.000000 0 0 1
-24.697722 -17.007227 25.072475 39.087751 0.603044 0.874422 0.028575 -0.000628 -62891.200000 0 0 1
-24.317622 -16.631327 26.397175 39.557030 0.599853 0.840193 0.018271 -0.002182 899447.000000 0 0 1
-23.285322 -17.597827 27.170975 39.876705 0.647169 0.821157 0.018949 0.001082 -314265.000000 0 0 1
-23.811222 -18.858827 27.503275 40.976332 0.669853 0.834971 0.023197 0.001204 -898778.000000 0 0 1
-22.950722 -19.678627 28.194075 41.338721 0.708792 0.820267 0.030378 0.001010 -1105140.000000 0 0 1
-23.584422 -20.930327 28.736075 42.662227 0.725846 0.831766 0.033842 -0.001720 -378276.000000 0 0 1
-24.493422 -20.617227 29.787875 43.730027 0.699682 0.821428 0.018765 -0.008302 297231.000000 0 0 1
-25.084122 -21.775627 30.362975 45.003349 0.714911 0.830262 0.018753 -0.007485 -781022.000000 0 0 1
-26.217822 -21.484327 31.329975 46.157533 0.686492 0.824721 0.018997 -0.006129 -1415120.000000 0 0 1
-25.912422 -20.737027 32.546575 46.483949 0.674908 0.795163 0.028325 -0.015235 -430308.000000 0 0 1
-26.805022 -20.732327 33.612175 47.729623 0.658341 0.789472 0.035444 -0.010553 526379.000000 0 0 1
-28.143122 -19.909427 33.326075 47.948388 0.615698 0.802320 0.020577 -0.013883 909725.000000 0 0 1
-28.891122 -20.525927 32.288675 47.943395 0.617710 0.831897 0.025015 -0.012199 216154.000000 0 0 1
-30.147322 -19.877027 32.063575 48.291097 0.582906 0.844688 0.028122 -0.017059 570357.000000 0 0 1
-30.878022 -20.420627 30.801375 48.157855 0.584300 0.876829 0.020794 -0.009171 -159871.000000 0 0 1
-31.493522 -19.404727 30.044175 47.655407 0.552210 0.888668 0.018756 -0.012756 203343.000000 0 0 1
-32.205222 -20.052027 29.015675 47.761591 0.556895 0.917873 0.013204 -0.009677 -180739.000000 0 0 1
-32.602722 -19.075427 27.917475 46.970148 0.529382 0.934319 0.014324 -0.000791 -507774.000000 0 0 1
-33.635722 -19.675527 27.198975 47.521284 0.529287 0.961423 -0.003636 0.001718 112640.000000 0 0 1
-34.458322 -18.655727 26.597275 47.358496 0.496216 0.974459 0.012246 0.001623 191052.000000 0 0 1
35.199612 -19.268427 25.803475 47.708535 -0.500848 0.999341 0.007830 0.000404 207403.000000 0 0 1
34.244512 -19.899427 26.645375 47.735206 -0.526405 0.978592 0.013325 0.005034 639964.000000 0 0 1
33.097612 -20.347027 25.910075 46.698881 -0.551200 0.982634 0.040919 -0.001769 89446.500000 0 0 1
31.954612 -20.959027 26.696275 46.616190 -0.580512 0.961022 0.041463 -0.012029 -170307.000000 0 0 1
31.205112 -19.935527 27.387875 46.057355 -0.568500 0.933970 0.033355 -0.007264 592827.000000 0 0 1
30.018912 -20.529327 27.892875 45.832312 -0.599825 0.916520 0.026818 -0.004412 -16331.600000 0 0 1
-29.251528 -5.869127 34.328108 45.480958 0.198014 0.715478 -0.017601 0.013168 105216.000000 0 0 1
-30.008518 -5.764927 33.146606 45.082624 0.189797 0.744774 -0.007275 0.013263 86644.000000 0 0 1
-29.441678 -4.794627 32.381197 44.026614 0.161435 0.744405 0.000092 0.011382 -372040.000000 0 0 1
-30.047748 -4.568227 30.993747 43.409080 0.150877 0.775613 0.004697 0.003422 -47610.500000 0 0 1
-29.702728 -5.577727 30.065057 42.629458 0.185623 0.788000 0.008048 -0.005356 857418.000000 0 0 1
-28.403318 -5.430327 29.445757 41.270928 0.188907 0.776352 0.008104 -0.012410 801096.000000 0 0 1
-28.026658 -6.463927 28.374397 40.402751 0.226671 0.792189 0.011941 -0.014613 -166325.000000 0 0 1
-28.613668 -6.187827 27.131087 39.913996 0.212975 0.823390 0.033966 -0.015618 81084.900000 0 0 1
-28.030148 -6.995227 26.116117 38.944498 0.244565 0.835781 0.060797 -0.015943 323719.000000 0 0 1
-28.842548 -6.784927 24.818387 38.650746 0.231040 0.873537 0.042853 -0.017887 258453.000000 0 0 1
-28.507658 -5.485127 24.409857 37.929069 0.190086 0.871648 0.046382 -0.016599 154959.000000 0 0 1
-29.358278 -5.098427 23.346187 37.854285 0.171947 0.906204 0.054504 -0.016983 84453.000000 0 0 1
-28.963098 -3.727927 22.840787 37.073711 0.128009 0.907026 0.056584 -0.018445 285564.000000 0 0 1
-27.668418 -3.716227 22.267187 35.709653 0.133514 0.897505 0.059209 -0.011928 -49113.500000 0 0 1
-27.470228 -2.469827 21.639387 35.056762 0.089668 0.905532 0.062698 -0.012895 336177.000000 0 0 1
-26.091688 -2.358327 20.938687 33.537539 0.090141 0.896515 0.059156 -0.010554 89204.900000 0 0 1
-26.031878 -3.163627 19.752987 32.830591 0.120936 0.925213 0.062216 -0.005921 -729990.000000 0 0 1
-24.931488 -2.897627 18.965287 31.458821 0.115704 0.923715 0.055614 -0.015406 -1206100.000000 0 0 1
-24.666088 -3.858927 17.718287 30.614456 0.155189 0.953594 0.050018 -0.011286 -549807.000000 0 0 1
-25.718088 -3.847027 16.818187 30.968873 0.148484 0.996710 0.047022 -0.001428 -239786.000000 0 0 1
-25.358418 -4.586927 15.678587 30.164670 0.178949 1.024219 0.049648 -0.002449 -145998.000000 0 0 1
-26.516548 -4.750427 14.685687 30.681644 0.177269 1.071683 0.046517 -0.005440 -60709.100000 0 0 1
-26.839168 -3.513727 13.997387 30.473169 0.130178 1.093550 0.046904 -0.007646 545279.000000 0 0 1
-28.147128 -3.606627 13.421387 31.391116 0.127440 1.129011 0.032286 -0.008364 455733.000000 0 0 1
-28.457478 -2.302527 12.689387 31.243403 0.080735 1.152564 0.033600 -0.011819 -92924.500000 0 0 1
-27.531718 -2.027527 11.628287 29.955357 0.073511 1.172133 0.034902 -0.014937 479822.000000 0 0 1
-27.822978 -0.819527 10.902387 29.894009 0.029447 1.197484 0.031804 -0.014940 583792.000000 0 0 1
-29.213688 -0.917427 10.161587 30.944128 0.031394 1.236203 0.021184 -0.011834 643595.000000 0 0 1
-29.120818 -1.437327 8.851587 30.470289 0.049317 1.276048 0.013932 -0.008968 229697.000000 0 0 1
-30.417538 -1.587227 8.294187 31.568013 0.052134 1.304935 0.013364 -0.010996 7905.220000 0 0 1
-30.431668 -2.368327 6.930587 31.300614 0.077668 1.347526 0.011466 -0.012259 -438238.000000 0 0 1
-29.875448 -1.744927 5.771687 30.477853 0.058340 1.380273 0.011590 -0.009646 579859.000000 0 0 1
-30.623598 -0.590727 5.290187 31.082789 0.019288 1.399767 0.009301 -0.005048 -167840.000000 0 0 1
-30.121218 0.054073 3.940087 30.377870 -0.001795 1.440727 0.009882 -0.014938 -372451.000000 0 0 1
-30.517918 -0.660927 2.818987 30.654964 0.021654 1.478708 0.009626 -0.019605 339028.000000 0 0 1
-30.000948 -0.160927 1.591887 30.043583 0.005364 1.517786 0.011321 -0.017410 -197116.000000 0 0 1
-30.539028 -0.958227 0.385287 30.556486 0.031367 1.558187 0.008062 -0.016015 477812.000000 0 0 1
-31.891478 -0.599927 0.085887 31.897236 0.018809 1.568104 0.016258 -0.017727 595466.000000 0 0 1
-32.343598 -0.967127 -1.180213 32.379570 0.029893 1.607254 0.030738 -0.015570 227833.000000 0 0 1
-33.892718 -0.846727 -1.187613 33.924087 0.024977 1.605811 0.042212 -0.022963 -66495.600000 0 0 1
-34.649479 -1.816427 -0.518013 34.700924 0.052375 1.585725 0.030256 -0.015315 599325.000000 0 0 1
34.882519 -1.332827 -0.251013 34.908875 -0.038190 1.577987 0.042320 -0.016778 526876.000000 0 0 1
33.815087 -2.354327 0.210087 33.897597 -0.069511 1.564599 0.042331 -0.014860 -131320.000000 0 0 1
34.148887 -2.910527 1.461987 34.303863 -0.085025 1.528165 0.039071 -0.021831 -14653.400000 0 0 1
33.268067 -3.929527 1.797287 33.547514 -0.117572 1.517196 0.042104 -0.018475 -506845.000000 0 0 1
33.643647 -4.520127 3.218887 34.098207 -0.133553 1.476255 0.043466 -0.022998 91004.100000 0 0 1
33.201787 -3.657527 4.255387 33.672607 -0.109718 1.444082 0.048105 -0.024148 235048.000000 0 0 1
33.004607 -4.358927 5.518987 33.745570 -0.131310 1.406511 0.046118 -0.025998 83205.100000 0 0 1
32.420907 -3.337527 6.584087 33.250631 -0.102582 1.371465 0.051010 -0.022692 -411702.000000 0 0 1
31.075367 -2.976127 6.575687 31.902592 -0.095480 1.363191 0.071651 -0.024651 -573974.000000 0 0 1
30.773287 -1.868327 7.406887 31.707220 -0.060638 1.335015 0.063953 -0.016530 597928.000000 0 0 1
29.263417 -1.834227 7.816587 30.344867 -0.062598 1.310267 0.067205 -0.016052 253113.000000 0 0 1
28.365267 -1.409927 6.746987 29.190719 -0.049665 1.337553 0.082670 -0.019190 659682.000000 0 0 1
27.050297 -1.296927 7.243087 28.033246 -0.047908 1.309457 0.072940 -0.014976 -506180.000000 0 0 1
26.205607 -2.529827 7.172487 27.286964 -0.096239 1.304817 0.081662 -0.024322 -1196430.000000 0 0 1
26.664767 -3.618827 7.997687 28.072561 -0.134892 1.281901 0.062001 -0.023812 233297.000000 0 0 1
25.880147 -4.766027 7.820887 27.452928 -0.182117 1.281911 0.066489 -0.035427 -645653.000000 0 0 1
26.086667 -5.883627 8.812787 28.156642 -0.221830 1.252455 0.051939 -0.022686 -365986.000000 0 0 1
25.537747 -5.560527 10.096087 28.018332 -0.214391 1.202165 0.046128 -0.020227 719759.000000 0 0 1
25.988767 -6.459627 11.092287 28.985886 -0.243618 1.178102 0.039881 -0.017102 -230180.000000 0 0 1
25.022047 -6.331627 12.291987 28.588202 -0.247840 1.126340 0.020809 -0.015827 -620050.000000 0 0 1
23.881247 -7.047827 11.991787 27.636729 -0.286973 1.121971 0.019933 -0.023320 -1207670.000000 0 0 1
22.905947 -6.806827 12.957987 27.183170 -0.288853 1.073909 0.030620 -0.022302 -391055.000000 0 0 1
21.828047 -7.896027 13.014287 26.611699 -0.347093 1.059803 0.033270 -0.025453 -157837.000000 0 0 1
22.236247 -9.166027 13.513687 27.587795 -0.390989 1.058887 0.024130 -0.023938 -444453.000000 0 0 1
21.169947 -10.055727 13.572887 27.083345 -0.443448 1.045866 0.049285 -0.038042 -1040980.000000 0 0 1
21.436647 -11.249827 14.495187 28.216996 -0.483286 1.031300 0.029204 -0.030794 -392437.000000 0 0 1
21.376547 -10.873427 15.835887 28.739580 -0.470553 0.987218 0.022779 -0.028038 220926.000000 0 0 1
21.728347 -11.993427 16.663387 29.893675 -0.504356 0.979519 0.013992 -0.019325 -398432.000000 0 0 1
21.565847 -11.787327 18.196687 30.580161 -0.500209 0.933470 0.025964 -0.017066 761236.000000 0 0 1
20.201947 -11.664727 18.637087 29.858425 -0.523641 0.896712 0.022549 -0.019848 599146.000000 0 0 1
19.929247 -11.960727 20.028987 30.682148 -0.540537 0.859535 0.033657 -0.014653 161951.000000 0 0 1
20.350547 -10.983227 21.169987 31.351944 -0.494902 0.829511 0.020762 -0.007650 -128341.000000 0 0 1
19.571247 -9.826527 21.384187 30.608459 -0.465318 0.797306 0.028050 -0.009677 -184446.000000 0 0 1
19.724647 -8.741727 20.431287 29.713919 -0.417175 0.812618 0.016540 0.001003 -999049.000000 0 0 1
20.607147 -7.567727 20.938387 30.337123 -0.351948 0.809044 0.009622 0.016344 1211950.000000 0 0 1
21.976947 -7.929827 21.199387 31.548096 -0.346286 0.833930 0.015523 0.006692 1036640.000000 0 0 1
22.768847 -8.074727 20.014387 31.371919 -0.340802 0.878935 0.009447 -0.000199 -318928.000000 0 0 1
24.072047 -8.908727 20.227087 32.679717 -0.354456 0.903392 0.006427 0.002937 351327.000000 0 0 1
23.923147 -10.184127 20.760087 33.271829 -0.402465 0.897004 0.003413 -0.005361 -117075.000000 0 0 1
25.121947 -10.884327 20.507687 34.207397 -0.408846 0.927907 0.000748 -0.006695 3720.760000 0 0 1
25.060847 -12.378027 20.815187 34.850159 -0.458771 0.930695 -0.011510 -0.010346 62625.300000 0 0 1
24.423147 -13.144327 19.761587 34.055598 -0.493732 0.951731 0.003995 -0.017083 327329.000000 0 0 1
24.411947 -14.513627 19.997387 34.734479 -0.536388 0.957310 0.004532 -0.012494 -382178.000000 0 0 1
23.494247 -15.184327 18.964887 33.796603 -0.573770 0.975025 0.022562 -0.012609 -387484.000000 0 0 1
23.996147 -15.371827 17.624287 33.507068 -0.569736 1.016921 0.016238 -0.016961 843417.000000 0 0 1
23.014947 -15.834527 16.642487 32.517571 -0.602634 1.033518 -0.005961 -0.011798 115924.000000 0 0 1
22.706347 -17.387127 16.689887 33.112576 -0.653498 1.042532 -0.002941 -0.015920 -611602.000000 0 0 1
23.730547 -18.236027 16.227587 34.044473 -0.655213 1.073947 0.011407 -0.009241 -180103.000000 0 0 1
23.397347 -19.596527 16.508187 34.698414 -0.697224 1.074966 0.012992 -0.006414 116139.000000 0 0 1
24.529947 -20.602027 16.162587 35.880232 -0.698585 1.103517 0.009358 0.002614 130590.000000 0 0 1
24.887447 -20.634427 14.802687 35.556773 -0.692241 1.141412 0.021950 -0.007029 257184.000000 0 0 1
25.753047 -21.726627 14.476287 36.671905 -0.700798 1.164999 0.028516 -0.009602 145284.000000 0 0 1
26.205517 -21.633427 13.002387 36.384012 -0.690115 1.205351 0.033793 -0.024235 6733.120000 0 0 1
25.120347 -21.784827 12.084587 35.378634 -0.714406 1.222200 0.016592 -0.013888 484820.000000 0 0 1
25.417647 -21.277227 10.782987 34.857567 -0.696960 1.256293 0.032643 -0.012942 1057820.000000 0 0 1
24.072947 -21.257427 9.936087 33.617121 -0.723367 1.270748 0.009178 -0.007786 1210450.000000 0 0 1
23.679447 -22.522327 9.474787 34.025623 -0.760358 1.288606 0.007154 -0.010074 47642.700000 0 0 1
22.299547 -22.468527 9.145187 32.950553 -0.789173 1.289561 -0.005766 -0.003815 351281.000000 0 0 1
21.889047 -23.556127 8.150287 33.173011 -0.822065 1.322565 -0.008593 0.000787 -319733.000000 0 0 1
21.832047 -24.839827 8.772087 34.214102 -0.849754 1.311513 -0.003305 0.007899 -7476.450000 0 0 1
21.710447 -25.892377 7.881887 34.697015 -0.873024 1.341633 0.003081 0.010793 60326.500000 0 0 1
20.247047 -26.362057 7.695987 34.119337 -0.915851 1.343278 -0.000045 0.020506 56954.000000 0 0 1
19.394547 -25.365007 7.155987 32.722167 -0.918005 1.350325 -0.002324 0.012934 -854397.000000 0 0 1
18.103447 -25.904407 7.248187 32.423900 -0.960839 1.345347 0.008330 -0.008424 -798478.000000 0 0 1
17.056647 -24.811927 7.268287 30.974004 -0.968551 1.333930 0.009821 -0.007303 -650455.000000 0 0 1
16.891347 -24.282427 5.984087 30.178853 -0.963016 1.371186 0.020381 -0.009656 -191384.000000 0 0 1
16.095847 -23.149027 6.063687 28.839592 -0.963222 1.358960 0.024615 -0.005082 -460218.000000 0 0 1
15.883447 -22.375027 4.761687 27.849585 -0.953474 1.398973 0.039770 0.000543 -267104.000000 0 0 1
15.054347 -21.280227 5.028287 26.547412 -0.955099 1.380237 0.045284 0.003075 -51518.700000 0 0 1
14.705847 -20.537027 3.843087 25.549965 -0.949370 1.419809 0.038615 0.004024 180277.000000 0 0 1
13.952647 -19.214727 4.082187 24.094529 -0.942739 1.400551 0.026900 0.010741 -74190.100000 0 1 0
14.762847 -18.161027 4.551687 23.842869 -0.888247 1.378714 0.019419 0.007853 -187874.000000 0 1 0
14.210647 -16.921727 4.357187 22.522709 -0.872261 1.376111 0.008356 0.009200 351179.000000 0 1 0
15.371847 -15.875927 4.393287 22.530861 -0.801528 1.374549 0.014108 0.006477 691640.000000 0 1 0
15.947447 -15.514127 5.683787 22.963332 -0.771626 1.320681 0.030915 -0.010986 387936.000000 0 1 0
16.937147 -14.504927 5.697387 23.015648 -0.708196 1.320652 0.032406 -0.019138 790112.000000 0 1 0
18.410747 -15.042327 5.554387 24.414717 -0.685046 1.341285 0.042540 -0.019956 627113.000000 0 1 0
19.311447 -14.001227 5.233787 24.420460 -0.627323 1.354801 0.049733 -0.022830 635713.000000 0 1 0
20.663447 -14.403027 5.430087 25.766472 -0.608729 1.358462 0.052398 -0.018676 61162.700000 0 0 1
21.732947 -13.327827 5.459687 26.072210 -0.550108 1.359828 0.050749 -0.022355 -286707.000000 0 0 1
21.723647 -12.642427 6.692287 26.010277 -0.527054 1.310575 0.059916 -0.028046 188666.000000 0 0 1
22.819547 -11.760727 6.745487 26.543323 -0.475875 1.313847 0.062118 -0.030274 -2955.680000 0 0 1
22.871447 -10.971227 8.111887 26.632191 -0.447269 1.261289 0.062724 -0.032468 4332.360000 0 0 1
23.308947 -11.852327 9.167087 27.709568 -0.470415 1.233616 0.049817 -0.027069 442138.000000 0 0 1
23.128347 -11.175827 10.433287 27.724953 -0.450125 1.184982 0.056068 -0.027260 104687.000000 0 0 1
23.615547 -12.104527 11.617187 28.968477 -0.473650 1.158157 0.032822 -0.020698 26713.400000 0 0 1
22.680047 -13.162927 11.766087 28.741746 -0.525864 1.149030 0.043567 -0.026401 501683.000000 0 0 1
23.173047 -14.173427 12.581387 29.936056 -0.548930 1.137048 0.038367 -0.024227 -683991.000000 0 0 1
22.118347 -15.209727 12.910887 29.786710 -0.602391 1.122485 0.033735 -0.026378 -290988.000000 0 0 1
21.206647 -14.634927 13.849487 29.252543 -0.604058 1.077598 0.025034 -0.036483 -146490.000000 0 0 1
20.066047 -15.452227 13.939187 28.908796 -0.656222 1.067657 0.014225 -0.028713 1018150.000000 0 0 1
18.751447 -14.740427 14.523087 27.925204 -0.666205 1.023862 0.019444 -0.030288 586817.000000 0 0 1
18.890847 -14.315227 15.930687 28.558302 -0.648466 0.979027 0.012599 -0.022906 218481.000000 0 0 1
18.295247 -13.044327 16.217387 27.710543 -0.619391 0.945617 0.027269 -0.033501 1451010.000000 0 0 1
16.737347 -12.794327 15.959687 26.430006 -0.652665 0.922477 0.041477 -0.034736 663632.000000 0 0 1
16.254947 -12.979627 14.637887 25.435443 -0.673828 0.957591 0.042585 -0.045023 1204890.000000 0 0 1
14.813147 -12.871527 14.522187 24.413100 -0.715379 0.933715 0.052273 -0.038038 1236160.000000 0 1 0
14.439647 -11.403927 14.324987 23.318624 -0.668469 0.909278 0.036043 -0.032066 -714003.000000 0 1 0
14.763147 -10.570327 15.359687 23.782395 -0.621380 0.868670 0.019203 -0.018090 -11596.800000 0 1 0
14.638847 -9.235527 15.035787 22.927400 -0.562825 0.855555 0.019077 -0.022998 -384606.000000 0 1 0
15.422547 -8.288627 16.048187 23.750802 -0.493146 0.828896 0.029255 -0.014585 375869.000000 0 1 0
16.832847 -8.233727 15.931987 24.596081 -0.454927 0.866176 0.021898 -0.023315 -54476.100000 0 1 0
17.364347 -9.011827 16.986587 25.909027 -0.478720 0.855787 0.021827 -0.015835 -670586.000000 0 0 1
18.885347 -8.970327 16.794487 26.817492 -0.443439 0.894061 0.017598 -0.014409 -417916.000000 0 0 1
19.370347 -7.650927 17.181187 26.998893 -0.376173 0.881018 0.010578 -0.014298 -268453.000000 0 0 1
20.590447 -7.362127 16.577887 27.440732 -0.343386 0.922117 0.012824 -0.003658 -741646.000000 0 0 1
21.113947 -5.965127 16.816487 27.643728 -0.275345 0.916843 0.008524 -0.001019 -335823.000000 0 0 1
21.797747 -5.850427 18.049487 28.899018 -0.262216 0.896214 0.011243 0.003143 290118.000000 0 0 1
21.636047 -4.583227 18.612387 28.905803 -0.208747 0.871214 0.017697 -0.000030 -134429.000000 0 0 1
-5.469588 -33.284942 -6.562725 34.363834 1.407926 1.762954 -0.002569 -0.001362 -93903.400000 0 0 1
-5.988088 -31.964742 -6.402325 33.145010 1.385609 1.765179 -0.004608 -0.013306 72917.600000 0 0 1
-5.867588 -31.437242 -5.066925 32.379044 1.386275 1.727930 -0.012391 -0.005359 207891.000000 0 0 1
-6.799088 -30.143942 -4.881325 31.284375 1.348955 1.727467 -0.002054 -0.001708 1269830.000000 0 0 1
-8.215088 -30.242142 -4.745025 31.695269 1.305553 1.721069 0.000405 0.001387 345174.000000 0 0 1
-8.799588 -30.469642 -6.022025 32.281521 1.289648 1.758443 -0.004336 -0.008215 620314.000000 0 0 1
-10.355888 -30.258242 -5.856325 32.513107 1.241042 1.751907 -0.005990 0.002376 1034230.000000 0 0 1
-11.208488 -30.760942 -6.856725 33.449670 1.221374 1.777246 0.000600 -0.001431 -518288.000000 0 0 1
-12.540888 -30.520842 -6.485125 33.628150 1.180932 1.764860 0.009972 -0.000357 432665.000000 0 0 1
-13.609788 -31.125542 -7.478325 34.784350 1.158592 1.787479 0.019542 -0.006430 460223.000000 0 0 1
-13.639288 -30.459642 -8.712825 34.492510 1.149788 1.826163 0.025656 -0.012484 343577.000000 0 0 1
-14.686188 -30.858042 -9.608225 35.499589 1.126592 1.844872 0.038359 -0.013508 337969.000000 0 0 1
-14.831288 -29.867642 -10.836025 35.063693 1.109899 1.884978 0.034845 -0.013903 -661160.000000 0 0 1
-15.171088 -28.531742 -10.544025 33.991155 1.082091 1.886199 0.034758 -0.015988 474441.000000 0 0 1
-14.116288 -27.726342 -9.994025 32.678741 1.099872 1.881603 0.021697 -0.012535 -13297.500000 0 0 1
-14.650788 -26.349142 -9.569325 31.630599 1.063339 1.878146 0.022191 -0.001875 33234.700000 0 0 1
-14.795788 -25.406342 -10.604525 31.254655 1.043444 1.916963 0.025556 -0.005730 192102.000000 0 0 1
-15.219288 -24.167542 -10.057925 30.279674 1.008795 1.909397 0.025099 0.000360 -247740.000000 0 0 1
-15.784988 -23.103442 -11.059725 30.087412 0.971414 1.947209 0.028376 -0.003175 -304449.000000 0 0 1
-16.961888 -23.693042 -11.545125 31.342555 0.949478 1.948033 0.028916 -0.004565 -574187.000000 0 0 1
-17.565588 -23.001342 -12.611525 31.569956 0.918599 1.981744 0.039401 -0.001950 854532.000000 0 0 1
-19.002388 -23.559642 -12.990925 32.937996 0.892065 1.976217 0.027570 -0.000766 821367.000000 0 0 1
-19.088888 -24.921342 -13.479725 34.163751 0.917155 1.976388 0.041958 -0.004413 -203341.000000 0 0 1
-18.896788 -25.825342 -12.442325 34.334360 0.939101 1.941624 0.044254 -0.007117 -863545.000000 0 0 1
-18.854588 -27.295642 -12.898025 35.593631 0.966302 1.941605 0.043834 -0.014330 -168546.000000 0 0 1
-18.098988 -27.744042 -13.998025 35.961784 0.992767 1.970611 0.048580 -0.016297 -173863.000000 0 0 1
-16.701388 -27.702542 -13.807225 35.171105 1.028260 1.974224 0.050745 -0.023530 -69537.900000 0 0 1
-15.940188 -28.980242 -14.292925 36.030982 1.067925 1.978698 0.044513 -0.024331 -299383.000000 0 0 1
-15.918588 -29.267142 -15.691925 36.826668 1.072643 2.010976 0.054963 -0.028603 -426303.000000 0 0 1
-15.160888 -30.347642 -16.095625 37.548648 1.107490 2.013806 0.051018 -0.020617 -134614.000000 0 0 1
-15.851388 -31.741042 -15.807925 38.841353 1.107631 1.989949 0.056251 -0.024653 126639.000000 0 0 1
-15.904488 -31.999942 -14.398125 38.526030 1.109539 1.953818 0.056514 -0.028945 33509.000000 0 0 1
-16.182688 -33.334042 -14.134625 39.658862 1.118840 1.935214 0.049084 -0.023986 -992712.000000 0 0 1
-16.874688 -33.496742 -12.779425 39.624493 1.104136 1.899180 0.051151 -0.026418 188636.000000 0 0 1
-18.221388 -33.122842 -12.541525 39.830032 1.067864 1.891122 0.053358 -0.023496 408425.000000 0 0 1
-18.641388 -31.747642 -12.620825 38.919138 1.039861 1.901050 0.055978 -0.023918 -265291.000000 0 0 1
-18.248888 -30.792342 -11.464625 37.584941 1.035803 1.880769 0.057894 -0.024506 -538859.000000 0 0 1
-18.642588 -31.239842 -10.196825 37.781596 1.032765 1.844074 0.048529 -0.020547 182497.000000 0 0 1
-18.505788 -30.204642 -9.237825 36.607676 1.021105 1.825901 0.052026 -0.012126 -89980.100000 0 0 1
-18.739988 -30.545842 -7.735725 36.661656 1.020507 1.783397 0.045491 -0.003113 13735.100000 0 0 1
-17.636688 -31.239642 -7.204125 36.590537 1.056843 1.768976 0.038394 -0.010896 -79034.100000 0 0 1
-17.786788 -31.520442 -5.854925 36.663172 1.057045 1.731178 0.044187 -0.011963 -55421.700000 0 0 1
-16.798288 -32.581542 -5.319325 37.040985 1.094765 1.714901 0.042836 -0.009787 101404.000000 0 0 1
-15.538488 -32.068642 -4.947425 35.976651 1.119594 1.708751 0.044732 -0.009506 37014.400000 0 0 1
-15.299688 -32.090442 -3.560125 35.728859 1.125907 1.670605 0.032377 -0.004826 684619.000000 0 0 1
-13.965488 -31.385042 -3.098125 34.491362 1.152131 1.660741 0.039732 -0.004036 1465400.000000 0 0 1
-12.766088 -32.152642 -3.266625 34.748183 1.192839 1.664944 -0.006362 -0.004163 660396.000000 0 0 1
-11.622688 -31.453542 -2.776625 33.647018 1.216839 1.653412 -0.000981 0.002893 -166311.000000 0 0 1
-10.382388 -32.249242 -2.556725 33.975644 1.259333 1.646119 0.014483 -0.003905 -1005920.000000 0 0 1
-10.647688 -33.176742 -1.475325 34.874719 1.260242 1.613113 0.008949 0.000562 608941.000000 0 0 1
-9.563688 -34.099142 -1.198025 35.435164 1.297355 1.604612 0.008438 -0.001636 221880.000000 0 0 1
-8.418088 -33.472342 -0.405925 34.517048 1.324412 1.582557 0.005993 -0.006737 -592959.000000 0 0 1
-8.799888 -33.085942 0.927375 34.248760 1.310844 1.543715 0.020414 -0.003146 -441705.000000 0 0 1
-7.716588 -32.670242 1.693075 33.611857 1.338851 1.520404 0.017892 -0.004451 -295665.000000 0 0 1
-6.853188 -33.776042 2.306475 34.541381 1.370613 1.503972 0.023600 -0.004670 -341603.000000 0 0 1
-7.516588 34.554273 3.314075 35.517319 -1.356603 1.477352 0.049449 -0.010826 43707.500000 0 0 1
-6.718088 33.553973 3.897275 34.441117 -1.373192 1.457396 0.043579 -0.003258 -196442.000000 0 0 1
-5.844988 34.038373 5.080775 34.908294 -1.400737 1.424731 0.049226 -0.008847 -591091.000000 0 0 1
-4.776388 -34.341742 4.622575 34.979098 1.432599 1.438256 0.040631 -0.017260 -1136120.000000 0 0 1
-3.990388 -33.818842 5.647175 34.518514 1.453346 1.406459 0.021057 -0.020717 -322243.000000 0 0 1
-2.913988 -32.876742 5.128675 33.401718 1.482394 1.416641 0.028475 -0.016416 -669230.000000 0 0 1
-3.396988 -31.645242 4.620975 32.160756 1.463860 1.426614 0.017873 -0.006257 144629.000000 0 0 1
-3.569888 -31.789642 3.199175 32.149030 1.458968 1.471121 0.013021 -0.003148 -342630.000000 0 0 1
-4.238088 -30.609242 2.518675 31.003722 1.433213 1.489469 0.006414 0.000423 93490.000000 0 0 1
-3.417288 -29.451142 2.575175 29.760362 1.455280 1.484158 0.003445 0.001617 285597.000000 0 0 1
-4.080388 -28.351842 1.965575 28.711321 1.427858 1.502283 0.005244 0.001780 207975.000000 0 0 1
-3.277188 -27.102942 2.293675 27.396539 1.450464 1.486977 0.008129 0.000905 151903.000000 0 0 1
-3.756288 -25.988042 1.572175 26.305128 1.427251 1.510994 0.016733 -0.004638 -345137.000000 0 0 1
-3.267488 -24.747342 2.084875 25.049034 1.439522 1.487468 0.010302 -0.006156 31209.400000 0 0 1
-4.047588 -24.027942 3.223975 24.578831 1.403910 1.439248 -0.000234 -0.005545 -212476.000000 0 1 0
-4.076688 -24.784042 4.416975 25.502505 1.407768 1.396721 0.002231 -0.002268 196103.000000 0 0 1
-4.855488 -24.029342 5.355375 25.093128 1.371416 1.355722 -0.006215 0.005079 -252289.000000 0 0 1
-5.486588 -24.880942 6.398475 26.269838 1.353756 1.324754 -0.003949 0.013838 -194246.000000 0 0 1
-4.594288 -25.372142 7.404675 26.826894 1.391661 1.291149 -0.010373 0.004371 153941.000000 0 0 1
-5.196188 -26.385242 8.233475 28.124215 1.376349 1.273691 -0.010626 0.001794 733623.000000 0 0 1
-4.307788 -26.878642 9.474475 28.823325 1.411880 1.235860 -0.005708 0.010577 506127.000000 0 0 1
-4.088388 -25.921642 10.515175 28.270397 1.414364 1.189687 0.000321 0.006201 -456725.000000 0 0 1
-5.111488 -25.785342 11.461375 28.677069 1.375101 1.159639 0.002146 0.009799 -165562.000000 0 0 1
-4.724888 -24.940842 12.730375 28.397757 1.383571 1.105947 -0.009702 0.007826 -39646.100000 0 0 1
-3.871988 -25.664442 13.583275 29.294389 1.421056 1.088650 -0.012157 0.007992 -696847.000000 0 0 1
-3.140588 -24.684942 14.253775 28.677164 1.444249 1.050609 -0.012358 0.006447 -705056.000000 0 0 1
-2.076688 -25.340642 15.091775 29.567253 1.489028 1.035121 0.019288 -0.004667 -429480.000000 0 0 1
-2.702188 -25.920942 16.203975 30.688204 1.466924 1.014529 0.012950 -0.003738 -45416.900000 0 0 1
-1.769888 -26.632642 16.983375 31.636453 1.504438 1.004122 0.015048 0.002632 -106017.000000 0 0 1
-2.232688 -27.096142 18.338275 32.794483 1.488583 0.977391 0.021150 -0.015284 -339283.000000 0 0 1
-2.303188 -26.025542 19.266375 32.462697 1.482529 0.935405 0.017102 -0.008537 -71955.200000 0 0 1
-2.758788 -26.370242 20.561875 33.552813 1.466558 0.911171 0.034521 -0.010648 52328.500000 0 0 1
-2.819588 -25.127142 21.514275 33.199207 1.459051 0.865794 0.031738 -0.011016 -165968.000000 0 0 1
-2.846488 -25.410342 22.916075 34.335615 1.459241 0.840065 0.030677 -0.011218 -88995.100000 0 0 1
-2.762488 -24.224342 23.748275 34.035726 1.457249 0.798551 0.014496 -0.008593 106372.000000 0 0 1
-1.626888 -23.196442 23.568875 33.109116 1.500776 0.778661 0.006596 -0.006589 -132684.000000 0 0 1
-1.973488 -22.356242 22.511875 31.788059 1.482750 0.783870 0.018890 -0.004553 445418.000000 0 0 1
-1.008088 -21.274142 22.438375 30.936807 1.523446 0.759331 0.019595 -0.003701 350553.000000 0 0 1
-1.459388 -19.996842 21.591775 29.465374 1.497945 0.748391 0.011115 0.008810 98936.500000 0 0 1
-2.311888 -19.113342 22.308675 29.467637 1.450424 0.712000 0.016266 0.000386 571410.000000 0 0 1
-3.680188 -19.433942 22.501175 29.958717 1.383643 0.721111 0.014873 -0.003538 -47314.800000 0 0 1
-4.739788 -19.410242 21.401075 29.278475 1.331293 0.751085 0.013893 -0.003170 -493798.000000 0 0 1
-4.683988 -20.335642 20.372575 29.163674 1.344411 0.797413 0.026427 0.000384 -245040.000000 0 0 1
-4.971688 -21.692442 20.727875 30.412572 1.345498 0.820909 0.021470 0.003085 -6979.280000 0 0 1
-5.046888 -22.489842 19.394775 30.123435 1.350046 0.871286 0.013175 0.002433 -150576.000000 0 0 1
-5.514788 -23.803542 19.515975 31.271309 1.343134 0.896836 0.012298 -0.002543 -160725.000000 0 0 1
-5.557488 -24.389342 18.220875 30.947148 1.346756 0.941255 0.015528 -0.007649 141102.000000 0 0 1
-6.062088 -25.863042 18.222775 32.213590 1.340561 0.969531 0.011504 -0.015777 783213.000000 0 0 1
-7.478388 -25.934342 18.355475 32.641076 1.290054 0.973580 0.016439 -0.014456 86455.700000 0 0 1
-8.104588 -27.146142 17.965275 33.546214 1.280667 1.005652 0.019491 -0.020364 115294.000000 0 0 1
-9.637288 -27.077242 17.982375 33.903099 1.228859 1.011718 0.017904 -0.017138 -997765.000000 0 0 1
-10.249188 -26.205742 17.052975 32.902746 1.197982 1.025953 0.021331 -0.013221 165432.000000 0 0 1
-11.658488 -26.341542 17.218275 33.559889 1.154122 1.032049 0.018276 -0.012968 440761.000000 0 0 1
-12.267388 -25.516442 18.361475 33.744946 1.122656 0.995450 0.023447 -0.011424 -1200330.000000 0 0 1
-12.422188 -24.177042 17.870575 32.529948 1.096169 0.989201 0.027428 -0.013887 88928.800000 0 0 1
-12.739588 -23.146642 18.760875 32.404237 1.067657 0.953339 0.023173 -0.005400 -90235.400000 0 0 1
-11.417988 -22.595842 19.309375 31.840139 1.102907 0.919211 0.008451 -0.003569 -24788.800000 0 0 1
-10.778388 -23.481742 20.184175 32.786686 1.140474 0.907622 0.009085 -0.009087 284382.000000 0 0 1
-9.360288 -23.325842 20.176475 32.230421 1.189184 0.894374 0.008242 -0.009268 631527.000000 0 0 1
-8.542288 -24.307242 21.010375 33.245278 1.232848 0.886690 0.001115 -0.008191 -82442.500000 0 0 1
-8.670488 -24.221242 22.393475 34.107384 1.227039 0.854550 0.000923 0.000354 1186350.000000 0 0 1
-7.460688 -24.682142 23.084375 34.608646 1.277258 0.840606 -0.001842 0.000458 1312040.000000 0 0 1
-7.622188 -24.715142 24.553375 35.662364 1.271650 0.811384 -0.001476 -0.005713 -112446.000000 0 0 1
-6.464688 -24.992642 25.305375 36.149500 1.317680 0.795371 0.010114 -0.006649 -134247.000000 0 0 1
-6.640688 -24.499342 26.628675 36.788623 1.306101 0.761460 0.017973 -0.004639 -301778.000000 0 0 1
-5.589088 -25.020142 27.599475 37.669303 1.351021 0.748548 0.013457 -0.008256 -842193.000000 0 0 1
-4.342888 -24.503542 27.274475 36.921284 1.395383 0.739628 0.013551 -0.004796 -883705.000000 0 0 1
-3.423188 -24.640342 28.344975 37.713423 1.432754 0.720329 0.021682 -0.000003 451079.000000 0 0 1
-1.983788 -24.235342 27.921075 37.025311 1.489123 0.716502 0.014594 -0.000477 -251400.000000 0 0 1
-1.917288 -22.826842 27.680875 35.930092 1.487000 0.691314 0.012984 -0.004279 -142883.000000 0 0 1
-0.759888 -22.389242 26.986575 35.073221 1.536869 0.692840 0.009010 -0.005275 -308011.000000 0 0 1
0.431412 -21.956042 27.842175 35.460409 -1.551150 0.667838 0.001103 0.001853 -426313.000000 0 0 1
0.880712 -23.140942 28.468975 36.698248 -1.532756 0.682880 0.009897 0.005374 301116.000000 0 0 1
1.757512 -22.925742 29.609175 37.488421 -1.494285 0.660278 0.002718 0.003054 452575.000000 0 0 1
2.123612 -24.270342 30.243275 38.835743 -1.483520 0.678128 0.023873 -0.006004 -979841.000000 0 0 1
2.896812 -25.103942 29.413575 38.778316 -1.455912 0.709779 0.014212 -0.003943 611006.000000 0 0 1
3.774112 -25.953742 30.208375 40.004832 -1.426392 0.714962 0.001491 -0.000138 -148473.000000 0 0 1
5.063912 -25.272442 30.700575 40.085718 -1.373042 0.698398 -0.008185 -0.008774 -201298.000000 0 0 1
6.002712 -24.913542 29.654675 39.193327 -1.334361 0.712660 0.001040 -0.005511 352858.000000 0 0 1
6.751012 -25.920342 29.058075 39.519767 -1.316005 0.744717 -0.000588 -0.000211 -281760.000000 0 0 1
7.922312 -25.311342 28.212675 38.721855 -1.267461 0.754523 0.006317 0.000950 432738.000000 0 0 1
7.452312 -24.437042 27.147675 37.278710 -1.274796 0.755053 0.012132 0.006669 318668.000000 0 0 1
8.544712 -23.858242 26.452575 36.632861 -1.226884 0.763964 0.010908 0.013064 47690.400000 0 0 1
8.184512 -22.558342 25.632175 35.112297 -1.222751 0.752466 0.016411 0.015496 -110655.000000 0 0 1
7.555212 -22.884142 24.405975 34.298933 -1.251913 0.779071 0.013973 0.018685 22658.400000 0 0 1
7.324012 -21.683842 23.706075 32.951603 -1.245064 0.767828 0.017572 0.031477 -299711.000000 0 0 1
6.680812 -21.991442 22.380175 32.080040 -1.275865 0.798704 0.016714 0.028301 -251225.000000 0 0 1
7.511712 -22.715742 21.477975 32.151736 -1.251433 0.839253 0.017670 0.025987 207509.000000 0 0 1
6.943112 -22.955742 20.190575 31.350155 -1.277087 0.871036 0.023116 0.013234 -281145.000000 0 0 1
7.738512 -24.019042 19.462875 31.868518 -1.259115 0.913821 0.034823 -0.011946 -958394.000000 0 0 1
8.928412 -23.529342 19.010775 31.539753 -1.208122 0.923846 0.041793 -0.010152 -1005690.000000 0 0 1
9.686712 -24.448042 18.185275 31.972541 -1.193556 0.965777 0.035788 -0.018738 877494.000000 0 0 1
11.049512 -23.986242 17.598775 31.735601 -1.139113 0.982982 0.036365 -0.019935 210648.000000 0 0 1
10.912312 -22.985342 16.624175 30.393547 -1.127551 0.992063 0.049514 -0.018714 -929971.000000 0 0 1
12.128112 -22.539942 16.127175 30.252700 -1.077157 1.008557 0.040915 -0.025209 -592154.000000 0 0 1
-12.142088 22.608073 11.287475 28.035020 -1.077935 1.156418 0.019230 -0.004877 344273.000000 0 0 1
-13.209888 21.836173 10.722275 27.681885 -1.026742 1.173053 0.010650 -0.013381 805353.000000 0 0 1
-12.741188 20.514473 10.489275 26.328812 -1.015019 1.161030 0.026360 -0.019178 41244.200000 0 0 1
-13.699888 19.872573 9.505875 25.941622 -0.967229 1.195623 0.030347 -0.020398 -790072.000000 0 0 1
-13.679888 20.548973 8.230675 26.021983 -0.983449 1.248973 0.031402 -0.022363 329840.000000 0 0 1
-14.611688 20.052373 7.279475 25.857104 -0.941083 1.285411 0.030695 -0.018241 540600.000000 0 0 1
-16.142088 19.993373 7.502875 26.769294 -0.891576 1.286711 0.018115 -0.011238 -213808.000000 0 0 1
-16.483188 19.055973 8.488075 26.587083 -0.857665 1.245852 0.012491 -0.017094 303413.000000 0 0 1
-17.870488 19.161173 8.822075 27.646589 -0.820238 1.246015 0.020190 -0.011386 329276.000000 0 0 1
-18.308788 17.942873 9.606675 27.376022 -0.775305 1.212248 0.013425 -0.009010 -310563.000000 0 0 1
-18.429088 16.680973 8.908275 26.405369 -0.735650 1.226679 0.017666 -0.012766 -22988.800000 0 0 1
-18.894788 15.630373 9.768475 26.395921 -0.691127 1.191706 0.022791 -0.016061 -598788.000000 0 0 1
-18.095388 15.032073 10.955975 25.950716 -0.693190 1.134943 0.025096 -0.009094 440679.000000 0 0 1
-17.015388 14.210673 10.460475 24.513021 -0.695819 1.129921 0.016066 -0.001779 99051.700000 0 1 0
-16.515488 13.267973 11.350675 24.034106 -0.676790 1.078928 0.017504 -0.001936 212326.000000 0 1 0
-17.444988 12.147173 11.966475 24.394219 -0.608247 1.058081 0.027660 -0.007160 317932.000000 0 1 0
-18.010288 11.178473 11.074075 23.915766 -0.555481 1.089369 0.013484 -0.010690 -220417.000000 0 1 0
-18.896188 10.349773 11.772475 24.551474 -0.501089 1.070709 0.024237 -0.011642 -564979.000000 0 1 0
-19.865188 9.660973 10.795675 24.586718 -0.452649 1.116216 0.027577 -0.015232 -557913.000000 0 1 0
-19.290288 8.715373 9.902475 23.369466 -0.424351 1.133231 0.017898 -0.012016 260222.000000 0 1 0
-18.794988 9.342473 8.695275 22.718741 -0.461303 1.178041 0.025195 -0.007475 -1328920.000000 0 1 0
-19.825588 9.800573 7.717775 23.423689 -0.459109 1.235037 0.035949 -0.015329 -621214.000000 0 1 0
-20.431888 8.637173 7.173375 23.313518 -0.399946 1.258030 0.023267 -0.022380 88380.900000 0 1 0
-21.314988 8.810273 6.114275 23.860720 -0.391951 1.311657 0.038225 -0.022013 -314719.000000 0 1 0
-21.658388 7.480673 5.406575 23.543094 -0.332565 1.339082 0.056293 -0.017438 -161764.000000 0 1 0
-22.372588 6.607873 6.276575 24.157650 -0.287191 1.307963 0.050444 -0.011543 441965.000000 0 1 0
-22.277088 5.241173 5.901075 23.633900 -0.231070 1.318439 0.050941 -0.003701 -551966.000000 0 1 0
-23.267788 4.276573 6.559975 24.550199 -0.181769 1.300303 0.076952 0.004357 101764.000000 0 1 0
-24.555488 4.252773 5.960775 25.623991 -0.171489 1.336021 0.089567 -0.003199 555867.000000 0 0 1
-24.893288 3.027973 5.389375 25.649362 -0.121043 1.359101 0.052613 -0.010322 -361022.000000 0 0 1
-25.951508 3.215273 4.274575 26.496995 -0.123267 1.408765 0.050364 -0.008899 -477115.000000 0 0 1
-25.479448 3.417573 2.959075 25.877368 -0.133335 1.456196 0.041951 -0.007885 158117.000000 0 0 1
-26.484678 3.347073 1.964675 26.767536 -0.125711 1.497333 0.032800 -0.006384 -345217.000000 0 0 1
-26.037208 3.387973 0.483375 26.261154 -0.129393 1.552389 0.041780 -0.011322 -355423.000000 0 0 1
-25.661238 4.720373 0.038775 26.091810 -0.181916 1.569310 0.046230 -0.011890 433864.000000 0 0 1
-25.572368 4.809373 -1.413825 26.059067 -0.185898 1.625078 0.066117 -0.005913 -411158.000000 0 0 1
-26.900658 5.063873 -2.151525 27.457554 -0.186066 1.649235 0.057876 -0.018911 246459.000000 0 0 1
-27.811078 3.968673 -1.955525 28.160797 -0.141744 1.640294 0.030613 -0.013482 226044.000000 0 0 1
-29.153888 4.404573 -1.986525 29.551577 -0.149946 1.638069 0.014003 -0.004021 279865.000000 0 0 1
-30.138918 3.195273 -2.223525 30.389278 -0.105624 1.644030 0.009178 -0.002341 137020.000000 0 0 1
-30.082298 2.774173 -3.546325 30.417381 -0.091959 1.687651 0.013645 -0.008288 706463.000000 0 0 1
-31.066488 1.746073 -3.674925 31.331781 -0.056145 1.688358 0.029570 -0.016494 299296.000000 0 0 1
-31.118308 1.192173 -5.108425 31.557350 -0.038292 1.733389 0.031723 -0.021417 -78202.500000 0 0 1
-29.902488 0.543173 -5.444325 30.398922 -0.018163 1.750864 0.035296 -0.012406 415447.000000 0 0 1
-29.943888 -0.303727 -6.613025 30.666933 0.010143 1.788144 0.043101 -0.007207 -229784.000000 0 0 1
-30.137488 0.461473 -7.973425 31.177823 -0.015311 1.829410 0.049626 -0.007098 -739150.000000 0 0 1
-31.500148 0.642173 -8.183725 32.552190 -0.020384 1.824926 0.045664 -0.012202 -418531.000000 0 0 1
-31.853408 1.372373 -9.328425 33.219610 -0.043057 1.855435 0.073767 -0.018306 -341923.000000 0 0 1
-33.354228 1.692773 -9.373925 34.687757 -0.050708 1.844436 0.084899 -0.021705 -159143.000000 0 0 1
-33.689238 2.545873 -8.300625 34.790036 -0.075426 1.811712 0.059913 -0.016250 -10271.300000 0 0 1
-35.076983 2.581273 -8.075925 36.087093 -0.073456 1.796498 0.063430 -0.019057 -177231.000000 0 0 1
35.228278 3.421773 -6.891425 36.058727 0.096828 1.763096 0.072990 -0.016365 -41651.100000 0 0 1
33.823347 3.396673 -6.765725 34.660225 0.100088 1.767259 0.082507 -0.020182 324714.000000 0 0 1
33.320357 4.097473 -5.630425 34.040228 0.122358 1.736965 0.076385 -0.026366 171396.000000 0 0 1
31.902247 3.676573 -5.200525 32.531769 0.114739 1.731345 0.067936 -0.024619 60156.300000 0 0 1
31.890377 2.531573 -4.460025 32.300105 0.079217 1.709320 0.080400 -0.030713 -208425.000000 0 0 1
30.621357 1.937573 -4.366525 30.991744 0.063191 1.712160 0.077762 -0.024034 -333279.000000 0 0 1
30.638697 0.572373 -3.595925 30.854303 0.018679 1.687607 0.082174 -0.020719 -184932.000000 0 0 1
31.480077 -0.404427 -4.196925 31.761186 -0.012846 1.703324 0.067758 -0.027627 324223.000000 0 0 1
31.389737 -1.623827 -3.548025 31.631327 -0.051685 1.683201 0.064561 -0.017287 143688.000000 0 0 1
32.679187 -2.459427 -3.748025 32.985235 -0.075118 1.684670 0.050262 -0.015582 175667.000000 0 0 1
32.541107 -3.800827 -3.291025 32.927204 -0.116274 1.670912 0.036930 -0.012823 -914044.000000 0 0 1
33.767377 -4.387127 -3.055525 34.187993 -0.129198 1.660290 0.051335 -0.010210 -1069850.000000 0 0 1
33.743807 -5.914027 -2.775625 34.370399 -0.173500 1.651641 0.043744 -0.013416 -140442.000000 0 0 1
33.230267 -6.121227 -1.486025 33.822009 -0.182164 1.614747 0.048336 -0.013362 -65287.100000 0 0 1
33.470637 -7.491127 -1.036025 34.314339 -0.220183 1.600993 0.052523 -0.012488 153509.000000 0 0 1
33.105657 -7.541327 0.514075 33.957626 -0.223974 1.555657 0.048631 -0.006275 -458243.000000 0 0 1
31.745407 -7.307627 0.733375 32.583893 -0.226253 1.548287 0.054846 -0.017504 -533696.000000 0 0 1
31.358027 -7.570727 2.073675 32.325561 -0.236895 1.506603 0.048492 -0.029531 -500815.000000 0 0 1
31.215507 -9.087127 2.468675 32.604878 -0.283280 1.495009 0.056128 -0.030278 -15561.000000 0 0 1
30.057917 -9.711727 1.946075 31.647799 -0.312513 1.509266 0.055312 -0.039938 933450.000000 0 0 1
28.767387 -9.333727 2.479675 30.345177 -0.313739 1.488989 0.054461 -0.041222 223169.000000 0 0 1
27.723497 -10.305827 1.863475 29.635703 -0.355906 1.507875 0.054739 -0.035586 -615944.000000 0 0 1
26.454237 -10.354027 2.513075 28.519258 -0.373065 1.482563 0.068757 -0.035328 1079770.000000 0 0 1
25.442047 -9.397327 2.127475 27.205397 -0.353819 1.492516 0.064962 -0.032152 222410.000000 0 0 1
24.867747 -9.647327 0.750775 26.684067 -0.370071 1.542657 0.057049 -0.025645 -991707.000000 0 0 1
25.845897 -9.530827 -0.282625 27.548628 -0.353285 1.581056 0.057540 -0.031178 470758.000000 0 0 1
25.323747 -9.786027 -1.588725 27.195267 -0.368760 1.629249 0.049233 -0.020491 -288175.000000 0 0 1
24.817647 -11.230927 -1.863425 27.304243 -0.424962 1.639096 0.039504 -0.012495 -379991.000000 0 0 1
23.495647 -11.352727 -1.399825 26.132151 -0.450105 1.624389 0.036498 -0.009365 -255586.000000 0 0 1
23.138447 -12.688727 -1.582925 26.436663 -0.501601 1.630708 0.023362 -0.004667 -363000.000000 0 0 1
21.672947 -12.974327 -1.235725 25.289856 -0.539420 1.619678 0.031881 -0.006726 -514472.000000 0 0 1
20.764147 -12.530427 -2.178825 24.349716 -0.542963 1.660397 0.022957 0.001107 -548.601000 0 1 0
19.403847 -12.708627 -1.813325 23.265997 -0.579850 1.648814 0.026218 0.002844 491822.000000 0 1 0
18.458047 -12.095627 -2.893425 22.257035 -0.580095 1.701166 0.030968 0.000609 -39277.200000 0 1 0
18.363947 -12.789227 -4.120725 22.754763 -0.608327 1.752894 0.018365 -0.003892 330396.000000 0 1 0
17.576747 -12.119527 -5.100225 21.950792 -0.603658 1.805287 0.029418 -0.009623 -139197.000000 0 1 0
17.520747 -12.794427 -6.512625 22.651451 -0.630737 1.862427 0.019757 -0.011206 -131457.000000 0 1 0
16.758247 -14.011527 -6.599725 22.819248 -0.696367 1.864206 0.019504 -0.015401 503264.000000 0 1 0
16.753947 -14.301227 -7.981225 23.429037 -0.706582 1.918410 0.017108 -0.020781 -243104.000000 0 1 0
15.704947 -15.394427 -8.368325 23.530036 -0.775414 1.934400 0.017762 -0.020541 -421196.000000 0 1 0
14.389447 -14.905327 -8.264725 22.305395 -0.803006 1.950371 0.018634 -0.017750 225399.000000 0 1 0
13.442347 -15.737327 -8.948925 22.548690 -0.863887 1.978902 0.019021 -0.020203 137045.000000 0 1 0
13.385747 -15.612227 -10.496325 23.088800 -0.862028 2.042727 0.025529 -0.026292 -775019.000000 0 1 0
12.580347 -14.629527 -11.124025 22.271779 -0.860566 2.093780 0.006243 -0.021084 26461.000000 0 1 0
12.857747 -13.294327 -10.806525 21.420592 -0.802091 2.099590 0.002646 -0.012762 -454786.000000 0 1 0
13.175147 -12.372727 -11.995925 21.692650 -0.754000 2.156751 0.026858 -0.012674 -196007.000000 0 1 0
14.369947 -12.507027 -12.727625 22.910991 -0.716196 2.159790 0.022943 -0.013544 -98933.200000 0 1 0
14.195847 -11.884527 -14.001225 23.212030 -0.697006 2.218289 0.032039 -0.014000 -2668.410000 0 1 0
15.455847 -11.814827 -14.935425 24.526318 -0.652669 2.225539 0.020955 -0.013707 567306.000000 0 1 0
15.924947 -13.084227 -15.372225 25.711986 -0.687785 2.211628 0.010926 -0.007539 -456633.000000 0 0 1
16.923847 -13.030027 -16.320725 26.880555 -0.656129 2.223274 0.010312 -0.000156 -320393.000000 0 0 1
18.076747 -14.081727 -16.177425 28.049472 -0.661802 2.185536 0.014250 0.002532 -293941.000000 0 0 1
18.875247 -13.866027 -15.074625 27.852935 -0.633581 2.142686 0.016689 -0.009486 -890801.000000 0 0 1
19.775047 -14.889227 -14.881725 28.882647 -0.645374 2.112093 0.009220 0.002469 -509963.000000 0 0 1
20.708347 -14.578027 -13.690025 28.788388 -0.613385 2.066374 0.013566 -0.001150 -155337.000000 0 0 1
21.444947 -13.378127 -13.851325 28.822200 -0.557762 2.072110 0.003692 -0.005045 -441654.000000 0 0 1
22.221547 -13.090727 -12.760925 28.775084 -0.532367 2.030264 0.011814 0.006974 -189681.000000 0 0 1
23.023547 -11.758627 -12.948325 28.913805 -0.472188 2.035128 0.024156 -0.001293 126104.000000 0 0 1
22.266747 -10.511527 -12.837125 27.768543 -0.441057 2.051373 0.014729 -0.001815 478216.000000 0 0 1
22.992947 -9.302827 -12.929625 27.971296 -0.384461 2.051323 0.023699 -0.004071 266335.000000 0 0 1
24.137347 -8.882927 -11.949025 28.360132 -0.352634 2.005710 0.028675 -0.009100 506191.000000 0 0 1
25.255447 -9.755927 -12.045025 29.632724 -0.368632 1.989391 0.021290 -0.000076 -751313.000000 0 0 1
26.267007 -9.204227 -11.299525 30.039186 -0.337040 1.956444 0.020746 -0.004365 -368248.000000 0 0 1
27.613697 -9.991027 -11.526325 31.546680 -0.347161 1.944830 0.015723 -0.004020 447140.000000 0 0 1
28.153137 -9.704427 -12.775525 32.403534 -0.331947 1.976062 0.012166 -0.003902 -540427.000000 0 0 1
29.418217 -10.259727 -12.970425 33.747969 -0.335565 1.965280 0.011085 -0.002970 -701547.000000 0 0 1
30.083857 -9.758127 -14.257225 34.691900 -0.313657 1.994311 0.014341 -0.000309 -225972.000000 0 0 1
29.408137 -10.049327 -15.494425 34.726138 -0.329279 2.033299 0.005864 0.002720 325327.000000 0 0 1
30.269857 -9.937227 -16.615425 35.931672 -0.317203 2.051516 0.002131 -0.004151 -1659.810000 0 0 1
29.700237 -10.677627 -17.898825 36.283381 -0.345125 2.086683 -0.001271 0.002013 14628.200000 0 0 1
28.508967 -10.269927 -18.510025 35.508500 -0.345764 2.119152 0.007295 0.002408 -183409.000000 0 0 1
28.492977 -8.998327 -19.158325 35.494521 -0.305896 2.140942 0.014612 0.001842 -664426.000000 0 0 1
27.129567 -8.606427 -19.730025 34.631746 -0.307192 2.176948 -0.018455 0.003390 -367388.000000 0 0 1
26.712727 -9.524327 -20.703325 35.112822 -0.342495 2.201388 -0.014510 0.007835 702568.000000 0 0 1
25.402347 -9.119127 -21.125725 34.274392 -0.344659 2.234922 -0.001357 0.010233 891843.000000 0 0 1
24.754247 -9.877027 -22.364225 34.792053 -0.379647 2.268940 0.006375 0.007683 291506.000000 0 0 1
24.454547 -11.261227 -22.183125 34.884540 -0.431548 2.259972 0.002306 0.013424 97408.200000 0 0 1
23.908347 -11.669227 -23.420125 35.444071 -0.454068 2.292631 0.006390 0.008614 -1135980.000000 0 0 1
23.982847 -13.151127 -23.786325 36.248011 -0.501580 2.286582 0.004213 0.014741 438019.000000 0 0 1
25.158447 -13.688527 -24.390025 37.619098 -0.498297 2.276200 0.005486 0.011018 676077.000000 0 0 1
26.391237 -13.419527 -23.696225 37.922186 -0.470412 2.245754 0.000166 0.018000 -285801.000000 0 0 1
27.571427 -14.014827 -24.465925 39.435776 -0.470273 2.240048 -0.000219 0.016017 -164991.000000 0 0 1
28.112337 -13.223527 -25.555435 40.227421 -0.439673 2.259160 0.013272 -0.005668 -261037.000000 0 0 1
29.406417 -13.649627 -25.845935 41.461573 -0.434576 2.243843 0.003766 -0.004149 -357324.000000 0 0 1
30.010627 -13.071827 -27.164165 42.537069 -0.410792 2.263474 0.015270 -0.004246 51348.000000 0 0 1
29.702147 -13.807627 -28.316085 43.297445 -0.435151 2.283643 0.015236 -0.004635 158733.000000 0 0 1
30.456197 -13.335627 -29.409925 44.388766 -0.412715 2.295019 0.019914 -0.004001 58386.300000 0 0 1
30.446807 -14.224627 -30.710875 45.524783 -0.437062 2.311215 0.016346 -0.003035 -177180.000000 0 0 1
31.190697 -15.363927 -30.413285 46.193914 -0.457694 2.289465 0.025038 -0.004575 -381345.000000 0 0 1
31.495917 -16.180827 -31.516745 47.403767 -0.474582 2.298099 -0.003314 0.000891 -278632.000000 0 0 1
30.405797 -16.913027 -32.336145 47.499360 -0.507624 2.319610 -0.003217 0.009785 -174586.000000 0 0 1
29.611247 -16.061827 -33.108665 47.233377 -0.497007 2.347538 -0.001705 0.005941 -655190.000000 0 0 1
28.374817 -16.673727 -33.335135 46.844152 -0.531270 2.362595 0.004037 0.004279 -322230.000000 0 0 1
27.517697 -15.920127 -34.371921 46.819900 -0.524492 2.395182 0.022317 0.001060 -359729.000000 0 0 1
26.872487 -14.720527 -34.042025 45.800479 -0.501146 2.408738 0.029509 -0.004903 146971.000000 0 0 1
27.678197 -13.626227 -33.600045 45.614906 -0.457476 2.398829 0.032360 0.002205 -134343.000000 0 0 1
26.885057 -12.268127 -33.456035 44.638767 -0.428095 2.418078 0.037447 -0.006665 221165.000000 0 0 1
26.271207 -11.771127 34.309894 44.787326 -0.421241 0.698103 0.052385 -0.011529 -97479.400000 0 0 1
25.613847 -10.534927 -34.378059 44.146401 -0.390208 2.463433 0.030294 -0.013956 270214.000000 0 0 1
20.138912 -29.663442 9.540475 37.101431 -0.974363 1.310729 0.009759 0.005540 -17825.400000 0 0 1
20.635812 -29.429042 8.286675 36.885962 -0.959262 1.344206 0.007786 -0.000868 4960.670000 0 0 1
21.769812 -30.207442 7.965175 38.077004 -0.946327 1.360054 0.028679 -0.000272 67892.400000 0 0 1
22.258112 -30.071342 6.500175 37.973167 -0.933612 1.398771 0.027005 -0.001294 -155630.000000 0 0 1
22.740812 -28.773642 6.333975 37.218090 -0.901977 1.399779 0.036170 0.001288 50729.700000 0 0 1
23.326012 -28.585442 5.032975 37.236557 -0.886369 1.435219 0.032940 0.003420 229359.000000 0 0 1
23.416212 -27.090342 4.632875 36.106359 -0.858016 1.442130 0.021784 -0.003559 678424.000000 0 0 1
24.390312 -26.334642 5.392875 36.297159 -0.823710 1.421669 0.021960 -0.002138 516377.000000 0 0 1
24.277112 -24.966842 5.071275 35.191465 -0.799404 1.426188 0.014171 0.001553 169033.000000 0 0 1
25.104312 -23.976342 5.956875 35.221809 -0.762420 1.400855 0.013083 0.006064 -344300.000000 0 0 1
26.473312 -23.999042 5.647075 36.175679 -0.736415 1.414054 0.008118 0.008018 -163017.000000 0 0 1
27.250712 -23.036142 6.402375 36.252663 -0.701783 1.393261 0.022512 -0.002547 34645.300000 0 0 1
26.840912 -21.535442 6.478775 35.016915 -0.676164 1.384706 0.023281 0.002367 -545980.000000 0 0 1
27.094812 -20.760842 5.298775 34.542994 -0.653807 1.416792 0.020774 0.014965 103612.000000 0 0 1
26.576512 -19.421842 5.359275 33.350274 -0.631093 1.409400 0.021611 0.009711 60125.400000 0 0 1
26.905812 -18.517242 4.119175 32.920792 -0.602779 1.445344 0.025335 0.015768 -331643.000000 0 0 1
28.238112 -18.126142 3.958675 33.787854 -0.570662 1.453364 0.031201 0.009564 -385730.000000 0 0 1
28.441912 -17.482242 2.743275 33.497712 -0.551133 1.488810 0.026238 0.013312 352798.000000 0 0 1
29.616012 -16.465442 2.739975 33.995976 -0.507411 1.490112 0.042550 -0.009521 122229.000000 0 0 1
29.224012 -15.253842 3.298475 33.130085 -0.481063 1.471070 0.047858 -0.016535 659238.000000 0 0 1
30.258812 -14.260142 3.555275 33.639075 -0.440403 1.464910 0.046942 -0.022028 593564.000000 0 0 1
29.675412 -13.093842 4.323975 32.722707 -0.415541 1.438269 0.046830 -0.020185 15477.500000 0 0 1
29.164312 -13.558242 5.548075 32.636853 -0.435168 1.399973 0.041210 -0.005185 -54784.400000 0 0 1
28.887812 -12.474342 6.351675 32.100758 -0.407633 1.371615 0.038850 -0.017308 -264840.000000 0 0 1
28.551812 -12.842842 7.829575 32.271455 -0.422694 1.325735 0.036037 -0.009952 -772030.000000 0 0 1
27.167012 -12.920042 7.994475 31.126928 -0.443920 1.311051 0.031215 0.001848 -630042.000000 0 0 1
26.668512 -12.997542 9.319875 31.096715 -0.453496 1.266412 0.024798 0.002763 63144.100000 0 0 1
27.007212 -14.182842 10.267675 32.186452 -0.483565 1.246116 0.030866 0.006249 778327.000000 0 0 1
28.337612 -14.081942 10.827275 33.444749 -0.461192 1.241121 0.025032 0.010757 1009920.000000 0 0 1
28.650012 -15.304042 11.568175 34.479843 -0.490610 1.228655 0.022047 0.004913 45224.000000 0 0 1
29.415212 -15.120242 12.890675 35.497126 -0.474807 1.199153 0.026559 0.001359 -682903.000000 0 0 1
30.776912 -14.923342 12.712775 36.490260 -0.451485 1.214945 0.042446 0.001699 -906527.000000 0 0 1
31.423712 -15.055542 13.945975 37.531443 -0.446800 1.190085 0.047708 0.000479 406379.000000 0 0 1
32.982312 -15.069242 13.876375 38.826135 -0.428568 1.205316 0.046843 -0.008273 406481.000000 0 0 1
33.526112 -13.801742 13.656975 38.742757 -0.390527 1.210551 0.047689 -0.011084 575865.000000 0 0 1
34.847712 -13.715942 14.198875 40.051194 -0.374974 1.208398 0.048457 -0.019172 155925.000000 0 0 1
-35.338322 -12.385142 13.957175 39.962376 0.337096 1.214017 0.049145 -0.024853 -422441.000000 0 0 1
-34.217722 -12.484842 13.099475 38.708139 0.349856 1.225563 0.050410 -0.021722 137955.000000 0 0 1
-33.588922 -11.189942 12.999775 37.715045 0.321580 1.218894 0.046940 -0.021043 -568444.000000 0 0 1
-32.532422 -11.110142 11.915075 36.383551 0.329091 1.237156 0.043067 -0.016817 -406813.000000 0 0 1
-31.379322 -11.879742 12.142975 35.682516 0.361910 1.223554 0.020392 -0.015542 2267.510000 0 0 1
-31.558922 -13.289642 11.952275 36.268954 0.398568 1.234974 0.010713 -0.012245 -1071200.000000 0 0 1
-30.423222 -14.191242 12.442875 35.802080 0.436458 1.215843 -0.004522 -0.003943 1086250.000000 0 0 1
-29.198022 -14.092142 11.661175 34.454259 0.449664 1.225523 0.005334 -0.006914 781743.000000 0 0 1
-28.174522 -14.910542 12.163775 34.118695 0.486750 1.206263 0.009005 -0.003629 -111911.000000 0 0 1
-26.905622 -14.887242 11.269475 32.749710 0.505384 1.219506 0.018275 -0.000594 -50591.600000 0 0 1
-27.017022 -15.271842 9.894475 32.573751 0.514489 1.262164 0.011559 0.003805 -147630.000000 0 0 1
-25.801222 -15.053842 9.203775 31.257490 0.528165 1.271916 0.012802 0.002997 39466.900000 0 0 1
-25.844722 -14.876442 7.684975 30.794756 0.522291 1.318576 0.026578 0.010780 -76535.600000 0 0 1
-26.075922 -16.089642 6.982975 31.425980 0.552848 1.346722 0.028896 0.011502 155523.000000 0 0 1
-25.767822 -15.912242 5.605275 30.799338 0.553205 1.387783 0.026374 0.010172 -428044.000000 0 0 1
-26.153522 -17.138242 4.678275 31.616646 0.580088 1.422282 0.017063 0.006682 -327677.000000 0 0 1
-27.529622 -17.356842 4.506775 32.855001 0.562529 1.433191 0.004196 0.001179 -365250.000000 0 0 1
-27.811222 -18.330442 3.530375 33.495264 0.582747 1.465201 0.003288 -0.004560 235543.000000 0 0 1
-29.250722 -18.884042 3.734675 35.016561 0.573270 1.463939 0.011197 -0.006234 157925.000000 0 0 1
-30.250822 -17.964542 3.373475 35.344269 0.535887 1.475205 0.013655 -0.005251 -239812.000000 0 0 1
-31.514522 -18.593442 3.491375 36.756916 0.533031 1.475667 0.028061 -0.006600 256492.000000 0 0 1
-32.710522 -17.708342 3.022975 37.318923 0.496190 1.489704 0.038047 -0.012841 214549.000000 0 0 1
-32.722622 -17.561942 1.635375 37.173461 0.492568 1.526789 0.037850 -0.013426 -127258.000000 0 0 1
-33.566422 -16.523042 1.203175 37.432115 0.457428 1.538648 0.036873 -0.018607 -712667.000000 0 0 1
-34.176222 -16.942142 -0.088425 38.145224 0.460225 1.573114 0.041792 -0.017019 -500035.000000 0 0 1
-33.300122 -16.871042 -1.218125 37.349886 0.468942 1.603416 0.043070 -0.016221 463680.000000 0 0 1
-33.682222 -17.925542 -2.137625 38.215004 0.489071 1.626762 0.031175 -0.005569 -389757.000000 0 0 1
-32.807122 -18.150142 -3.324825 37.640262 0.505326 1.659243 0.026132 -0.012159 -572496.000000 0 0 1
-33.158922 -19.331442 -4.040625 38.594629 0.527821 1.675682 0.031180 -0.014019 -57253.900000 0 0 1
-32.085822 -19.900042 -4.760425 38.054872 0.555150 1.696219 0.019653 -0.006364 -220638.000000 0 0 1
-32.506222 -21.006042 -5.766225 39.130009 0.573711 1.718696 0.034246 -0.012410 -354835.000000 0 0 1
-32.932722 -22.217042 -5.204925 40.065601 0.593488 1.701075 0.050298 -0.019289 -67719.400000 0 0 1
-33.315222 -23.118842 -6.239225 41.028195 0.606649 1.723460 0.052702 -0.015707 88898.200000 0 0 1
-33.856022 -24.469242 -5.785125 42.171574 0.625828 1.708411 0.050197 -0.013248 307168.000000 0 0 1
-32.858422 -25.306542 -5.139525 41.791287 0.656285 1.694089 0.050723 -0.008828 239002.000000 0 0 1
-33.410722 -26.567542 -4.963825 42.973831 0.671795 1.686563 0.031992 0.009159 -45906.900000 0 0 1
-32.509122 -27.528842 -4.173625 42.803029 0.702635 1.668459 0.022122 0.003846 803564.000000 0 0 1
-31.433522 -28.063642 -5.029125 42.437323 0.728819 1.689583 0.023802 0.004002 1280050.000000 0 0 1
-30.611322 -29.045742 -4.426225 42.429938 0.759161 1.675305 0.033722 0.001989 282223.000000 0 0 1
-29.559422 -28.746642 -3.342325 41.367862 0.771459 1.651680 0.035298 0.001417 -288765.000000 0 0 1
-30.147522 -28.453242 -2.062825 41.505606 0.756494 1.620517 0.028437 -0.003975 -62269.700000 0 0 1
-29.222722 -28.645442 -1.030225 40.933973 0.775423 1.595967 0.023273 -0.012314 -252333.000000 0 0 1
-29.839922 -28.623942 0.402075 41.351090 0.764602 1.561073 0.019877 -0.003736 -451544.000000 0 0 1
-30.641222 -29.698442 0.653875 42.676803 0.769775 1.555474 0.017078 0.000580 -599726.000000 0 0 1
-31.231822 -29.609842 1.926075 43.079916 0.758745 1.526072 0.024944 0.005762 -18040.500000 0 0 1
-32.018122 -30.908342 2.320475 44.563105 0.767764 1.518701 0.013197 0.004717 -567980.000000 0 0 1
-32.889422 -30.697142 3.410575 45.118296 0.750935 1.495132 0.015568 0.008847 81164.900000 0 0 1
-33.470022 -31.794442 4.064075 46.342697 0.759730 1.482987 0.017848 0.009285 565732.000000 0 0 1
-34.464922 -32.630442 3.162675 47.566575 0.758064 1.504258 0.012593 0.016380 -410906.000000 0 0 1
-35.352522 -33.410142 3.885575 48.796886 0.757158 1.491084 0.018504 0.009079 -499460.000000 0 0 1
34.653812 -34.141842 2.999775 48.739621 -0.777956 1.509210 0.016252 0.006951 -342775.000000 0 0 1
33.543612 34.291073 3.863275 48.124593 0.796417 1.490433 0.019773 -0.000333 231129.000000 0 0 1
32.594112 -34.025742 4.581975 47.340487 -0.806884 1.473857 0.022941 0.004908 827742.000000 0 0 1
31.909412 -32.912342 3.957075 46.011860 -0.800869 1.484689 0.025283 0.009159 57075.100000 0 0 1
30.946912 -33.214142 2.783575 45.482292 -0.820720 1.509557 0.025070 0.001881 -367379.000000 0 0 1
31.591612 -33.691042 1.601275 46.213422 -0.817546 1.536140 0.027042 0.002292 -385726.000000 0 0 1
30.692112 -33.579442 0.544375 45.495945 -0.830292 1.558831 0.021009 0.000964 -779905.000000 0 0 1
31.259912 -34.003242 -0.795525 46.195621 -0.827408 1.588018 0.019716 -0.007985 336130.000000 0 0 1
32.255512 -33.332142 -1.568725 46.410243 -0.801812 1.604604 0.016344 -0.009530 737003.000000 0 0 1
33.493612 -33.094942 -0.868425 47.094069 -0.779411 1.589238 0.011855 -0.004123 62980.100000 0 0 1
34.722212 -33.125842 -1.777925 48.022020 -0.761874 1.607828 0.004893 0.002259 -391690.000000 0 0 1
35.008212 -34.398842 -2.346425 49.136147 -0.776619 1.618568 0.001025 0.000106 700261.000000 0 0 1
-34.857522 -34.191642 -3.382525 48.944424 0.775755 1.639961 0.002124 0.002352 -175282.000000 0 0 1
-34.351522 33.766573 -4.206025 48.351827 -0.776811 1.657894 0.000626 -0.004406 -140680.000000 0 0 1
-33.293222 33.087573 -3.545625 47.072259 -0.782300 1.646191 -0.003363 -0.000436 48702.700000 0 0 1
-32.819622 32.019973 -4.307125 46.053855 -0.773066 1.664457 -0.005020 -0.014652 -98533.300000 0 0 1
-31.517522 31.333873 -3.818025 44.606536 -0.782476 1.656495 -0.000789 -0.013223 -836708.000000 0 0 1
-30.419522 32.185773 -4.021725 44.468478 -0.813603 1.661360 -0.003658 -0.004931 30147.900000 0 0 1
-29.149722 31.602073 -3.717425 43.153407 -0.825743 1.657048 0.027837 -0.008329 603753.000000 0 0 1
-28.833222 31.306673 -2.248725 42.620643 -0.826503 1.623582 0.018600 -0.005378 -953231.000000 0 0 1
-29.756322 30.543873 -1.511725 42.669101 -0.798458 1.606233 0.001901 -0.000781 -625813.000000 0 0 1
-29.411722 30.377173 -0.160425 42.282949 -0.801544 1.574590 0.005357 0.004642 -336464.000000 0 0 1
-30.500122 29.683073 0.682775 42.565343 -0.771823 1.554755 0.004429 0.001911 -125466.000000 0 0 1
-30.765722 28.360873 0.265175 41.844224 -0.744748 1.564459 -0.002008 0.002150 -92711.000000 0 0 1
-31.793422 28.250773 -0.701825 42.537283 -0.726466 1.587296 -0.012162 -0.000532 -265575.000000 0 0 1
-32.271722 26.861373 -1.097125 42.002394 -0.694158 1.596920 -0.012451 0.000521 100081.000000 0 0 1
-32.884422 26.080373 -0.057725 41.971114 -0.670515 1.572172 -0.010095 -0.002501 115730.000000 0 0 1
-33.307122 24.871173 -0.601125 41.572839 -0.641400 1.585256 0.012025 0.005457 -451023.000000 0 0 1
-33.362022 23.627673 0.316575 40.882657 -0.616222 1.563053 0.005758 -0.001187 143322.000000 0 0 1
-32.137222 23.083173 0.801475 39.576208 -0.622882 1.550544 0.012456 -0.007458 315001.000000 0 0 1
-31.669622 23.757773 1.952375 39.638472 -0.643613 1.521522 0.008725 -0.010621 193798.000000 0 0 1
-30.152122 23.543673 2.272075 38.322543 -0.662942 1.511473 0.018139 -0.024648 2181400.000000 0 0 1
-29.122922 24.394673 1.589775 38.023309 -0.697278 1.528974 0.032205 -0.016943 1539650.000000 0 0 1
-28.919022 25.638373 2.192975 38.709755 -0.725338 1.514114 0.016509 -0.013971 -246103.000000 0 0 1
-28.296822 26.690373 1.252175 38.918557 -0.756191 1.538617 0.015353 -0.001600 351777.000000 0 0 1
-26.989622 26.334573 0.814775 37.717546 -0.773115 1.549193 0.023840 -0.004293 23459.200000 0 0 1
-26.492822 27.335473 -0.067825 38.067076 -0.801051 1.572578 0.026942 0.000741 919778.000000 0 0 1
-25.227822 26.773273 -0.825925 36.795833 -0.815109 1.593244 0.031241 0.001396 325689.000000 0 0 1
-25.596022 25.834173 -1.832525 36.413170 -0.790029 1.621143 0.036502 -0.005667 226874.000000 0 0 1
-24.520222 25.133373 -2.460825 35.199196 -0.797746 1.640765 0.032358 -0.001547 131115.000000 0 0 1
-23.583222 24.242473 -1.680825 33.862827 -0.799182 1.620453 0.028760 0.000620 -776147.000000 0 0 1
-24.036222 23.014573 -1.280025 33.302387 -0.763688 1.609242 0.022255 -0.000451 -525499.000000 0 0 1
-23.135622 22.349073 -0.435025 32.170286 -0.768107 1.584319 0.021419 -0.015673 -641620.000000 0 0 1
-23.732522 20.958973 0.013575 31.662459 -0.723418 1.570368 0.022864 -0.017678 1180500.000000 0 0 1
-24.904222 20.880773 0.906675 32.512290 -0.697746 1.542906 -0.001820 -0.017844 1840480.000000 0 0 1
-26.136422 21.388973 0.403575 33.775192 -0.685836 1.558847 0.005516 -0.018436 4469.180000 0 0 1
-26.774522 20.717373 -0.802725 33.863386 -0.658542 1.594503 -0.006812 -0.016420 -931462.000000 0 0 1
-27.269722 19.436273 -0.491725 33.491017 -0.619226 1.585479 -0.010873 -0.014263 108673.000000 0 0 1
-28.101222 18.902573 -1.486025 33.899767 -0.592140 1.614646 -0.010265 -0.008641 -93383.400000 0 0 1
-28.323622 17.390873 -1.313925 33.262538 -0.550654 1.610308 -0.024467 0.002373 -196768.000000 0 0 1
-29.108522 17.050073 -0.198225 33.735002 -0.529869 1.576672 -0.014776 -0.003732 308044.000000 0 0 1
-29.388522 15.668273 -0.090325 33.304477 -0.489809 1.573508 -0.009548 -0.005431 -66983.100000 0 0 1
-28.217722 14.756673 0.396175 31.845819 -0.481845 1.558356 0.003457 -0.012091 -240389.000000 0 0 1
-27.955722 14.673873 1.782875 31.623150 -0.483366 1.514388 0.014004 -0.015045 415675.000000 0 0 1
-26.687322 14.199873 2.211275 30.310712 -0.488983 1.497778 0.020384 -0.020993 34496.100000 0 0 1
-26.316722 12.692773 1.980675 29.284798 -0.449394 1.503110 0.031964 -0.022153 -358871.000000 0 0 1
-26.127022 12.225473 0.677975 28.853823 -0.437660 1.547297 0.018697 -0.019300 435321.000000 0 0 1
-25.750822 10.848873 0.697675 27.951559 -0.398734 1.545834 0.034291 -0.020797 28733.600000 0 0 1
-25.583522 10.116573 -0.654125 27.518894 -0.376563 1.594569 0.024808 -0.017331 1175050.000000 0 0 1
-26.907322 9.884973 -1.194425 28.690474 -0.352066 1.612440 0.023804 -0.021414 1467350.000000 0 0 1
-26.729422 9.080073 -2.372625 28.329121 -0.327473 1.654647 0.026702 -0.021396 381004.000000 0 0 1
-28.095722 8.559873 -2.899225 29.513497 -0.295734 1.669189 0.029378 -0.021660 279100.000000 0 0 1
-27.925922 7.787773 -4.052325 29.273330 -0.271963 1.709673 0.031493 -0.013260 -515957.000000 0 0 1
-29.157322 7.448773 -4.569525 30.438696 -0.250119 1.721488 0.027536 -0.009611 -812284.000000 0 0 1
-10.695288 18.111573 -19.298825 28.545803 -1.037375 2.313206 0.008435 -0.006526 -42782.400000 0 0 1
-11.195888 17.295373 -20.309625 28.930238 -0.996297 2.349027 0.001309 -0.003742 -337300.000000 0 0 1
-10.406388 17.387173 -21.445725 29.504674 -1.031474 2.384533 -0.004448 -0.000587 -403641.000000 0 0 1
-10.669488 16.269573 -22.544925 29.779365 -0.990359 2.429606 -0.007568 0.003884 54099.100000 0 0 1
-10.201888 14.965973 -22.223125 28.669254 -0.972477 2.457757 -0.003037 0.007348 -18692.700000 0 0 1
-10.385088 14.119073 -23.316325 29.169321 -0.936617 2.496999 -0.001862 0.007255 -34093.400000 0 0 1
-9.699988 12.729173 -23.191925 28.177775 -0.919642 2.537570 -0.010605 0.011678 1308840.000000 0 0 1
-8.265588 12.684673 -23.393625 27.865436 -0.993283 2.567198 -0.000981 0.009095 1111980.000000 0 0 1
-7.702188 11.630573 -22.685725 26.631486 -0.985867 2.590282 -0.005075 0.003691 363836.000000 0 0 1
-6.174688 11.679973 -22.382425 25.990796 -1.084488 2.608358 -0.006069 0.004244 260269.000000 0 0 1
-5.450888 11.288073 -23.481825 26.618205 -1.120931 2.651250 -0.010222 -0.001209 -567206.000000 0 0 1
-4.074788 11.149273 -23.166925 26.031070 -1.220402 2.668080 0.005494 -0.005772 726721.000000 0 0 1
-3.187288 10.902773 -24.455625 26.964919 -1.286384 2.706764 0.021207 -0.006822 123065.000000 0 0 1
-3.376388 9.597973 -25.068175 27.054287 -1.232535 2.756032 0.021977 -0.009286 -127660.000000 0 0 1
-2.803388 9.422873 -26.341175 28.115956 -1.281627 2.784384 0.020858 -0.008393 -498611.000000 0 0 1
-2.461288 7.972573 -26.719195 27.991699 -1.271359 2.838909 0.025722 -0.000273 -187807.000000 0 0 1
-1.300088 7.362473 -26.208175 27.253709 -1.396015 2.863705 0.026211 -0.007632 97156.800000 0 0 1
-1.615788 6.350173 -25.281725 26.117065 -1.321636 2.887993 0.038871 -0.012873 -99068.100000 0 0 1
-0.300588 5.781273 -24.725025 25.393706 -1.518850 2.911597 -0.004105 -0.008929 120206.000000 0 0 1
0.257812 6.519273 -23.632625 24.516695 1.531271 2.872228 0.013277 -0.016542 139242.000000 0 1 0
1.202012 5.814573 -22.854925 23.613591 1.366944 2.887420 0.009541 -0.020668 -76300.200000 0 1 0
1.498612 6.551673 -21.572825 22.595509 1.345927 2.839579 0.011458 -0.013989 -642889.000000 0 1 0
2.314212 7.613373 -21.736425 23.147164 1.275704 2.790663 0.000453 -0.009169 -695524.000000 0 1 0
2.364312 8.287373 -20.513525 22.250286 1.292888 2.743867 0.012709 -0.007455 -58420.400000 0 1 0
3.029912 9.681373 -20.504325 22.876553 1.267490 2.682157 0.008755 -0.009483 -540261.000000 0 1 0
2.763812 10.421773 -19.357625 22.157835 1.311567 2.633398 0.009554 -0.015174 134390.000000 0 1 0
3.366612 11.727073 -19.493325 22.996696 1.291234 2.582351 0.014246 -0.009773 -836510.000000 0 1 0
4.665412 11.910173 -18.771325 22.715213 1.197451 2.543439 0.005659 -0.009302 -809434.000000 0 1 0
5.614212 10.968673 -19.246925 22.853343 1.097721 2.572134 0.012102 -0.012463 -910062.000000 0 1 0
6.598812 10.719573 -18.307625 22.217621 1.018996 2.539256 0.011414 -0.009370 -686380.000000 0 1 0
7.684612 9.753673 -18.831725 22.557067 0.903496 2.558653 0.016172 -0.005326 -364332.000000 0 1 0
7.385212 8.402573 -19.007225 22.054913 0.849749 2.609631 0.015351 -0.008568 -312592.000000 0 1 0
6.758112 8.133873 -20.206625 22.806570 0.877519 2.659443 0.016564 -0.006887 -324074.000000 0 1 0
6.497212 6.625873 -20.363325 22.378136 0.795202 2.713996 0.020188 -0.002923 -420560.000000 0 1 0
7.630012 5.811173 -20.541025 22.669815 0.650897 2.704759 0.025053 0.003317 -93688.000000 0 1 0
7.317712 4.463773 -20.975525 22.659365 0.547737 2.753649 0.026997 0.003299 -141235.000000 0 1 0
7.503412 4.289373 -22.514725 24.116649 0.519318 2.775061 0.033241 -0.004247 -731874.000000 0 1 0
6.486912 4.937873 -23.206825 24.597141 0.650634 2.803764 0.037846 -0.003218 -377709.000000 0 1 0
6.647512 5.128173 -24.594425 25.987945 0.657084 2.812631 0.036510 0.002302 288814.000000 0 0 1
5.338312 5.743273 -25.220175 26.410982 0.821925 2.840161 0.034345 -0.007922 602077.000000 0 0 1
5.191812 7.168273 -25.123095 26.636609 0.943962 2.802868 0.038517 -0.008346 276702.000000 0 0 1
4.736212 7.737673 -23.902525 25.566266 1.021529 2.778842 0.031002 -0.021809 -1194140.000000 0 0 1
4.543112 9.263173 -23.922425 26.052421 1.114819 2.734414 0.041919 -0.024209 -30956.300000 0 0 1
3.569512 9.749573 -24.825525 26.909148 1.219834 2.745481 0.049339 -0.022552 403377.000000 0 0 1
2.242212 9.437573 -24.408025 26.264938 1.337537 2.763311 0.019332 -0.014472 -366816.000000 0 0 1
1.163912 9.901873 -25.418745 27.304109 1.453789 2.767801 0.013583 -0.002894 -7092.960000 0 0 1
1.067912 11.300273 -25.486525 27.899813 1.476573 2.722606 0.026214 -0.015529 347094.000000 0 0 1
0.039312 11.625573 -26.416815 28.861802 1.567415 2.727015 0.037576 -0.015497 -30554.700000 0 0 1
-0.193788 13.095273 -26.807135 29.835318 -1.555999 2.687144 0.041362 -0.017440 -214028.000000 0 0 1
-0.497588 13.766873 -25.626865 29.094855 -1.534668 2.648354 0.039295 -0.019193 112612.000000 0 0 1
-0.570888 15.134173 -25.897365 30.000710 -1.533092 2.612420 0.038004 -0.028834 -215257.000000 0 0 1
-0.906188 15.919273 -24.647325 29.355324 -1.513934 2.567380 0.047540 -0.026810 754579.000000 0 0 1
-2.269388 15.850673 -24.193325 29.012255 -1.428590 2.556933 0.036717 -0.016488 511617.000000 0 0 1
-2.413788 16.125473 -22.816425 28.043653 -1.422212 2.521120 0.043437 -0.021836 452991.000000 0 0 1
-3.784488 15.579273 -22.303825 27.468103 -1.332494 2.518350 0.027150 -0.015453 561062.000000 0 0 1
-5.043888 15.877273 -22.841925 28.271578 -1.263200 2.511455 0.019923 -0.014378 -120168.000000 0 0 1
-5.307588 15.247173 -24.061025 28.975501 -1.235812 2.550607 0.022715 -0.012800 -410472.000000 0 0 1
-6.782688 15.450573 -24.470525 29.724260 -1.157134 2.537911 -0.000331 -0.008507 -132757.000000 0 0 1
-7.193188 16.712473 -24.903525 30.842086 -1.164354 2.510618 -0.000354 -0.008738 -412897.000000 0 0 1
-8.437788 16.511073 -25.526345 31.550057 -1.098357 2.513372 0.000789 -0.001537 -668297.000000 0 0 1
-9.107088 17.769673 -25.966225 32.755841 -1.097193 2.486055 -0.000613 -0.005780 -577629.000000 0 0 1
-9.404488 18.596973 -24.850725 32.432242 -1.102599 2.443758 -0.002247 -0.007343 -262253.000000 0 0 1
-10.447588 19.394273 -25.351415 33.585475 -1.076674 2.426195 -0.005945 -0.007663 -158449.000000 0 0 1
-11.089488 20.261173 -24.217725 33.466252 -1.070008 2.379867 -0.002503 -0.010085 -164787.000000 0 0 1
-10.409888 21.432773 -23.811825 33.685791 -1.118654 2.355874 -0.002752 -0.011464 -188164.000000 0 0 1
-10.939588 22.662173 -24.259325 34.953734 -1.121064 2.337883 -0.008040 -0.013005 -240197.000000 0 0 1
-10.652388 23.148973 -25.703565 36.194220 -1.139520 2.360517 -0.011683 -0.012170 -476659.000000 0 0 1
-11.216288 22.388773 -26.696645 36.602911 -1.106366 2.388180 -0.019849 -0.014042 -35757.500000 0 0 1
-10.817988 22.931473 -27.949385 37.736579 -1.130001 2.404825 -0.002074 -0.005817 -54391.500000 0 0 1
-11.558988 22.187073 -29.091705 38.369307 -1.090507 2.431348 0.000329 -0.004819 83667.900000 0 0 1
-10.935388 20.999273 -29.600005 37.903990 -1.090686 2.466935 0.011583 -0.009325 21754.600000 0 0 1
-10.714588 19.887373 -28.741185 36.556336 -1.076621 2.475458 0.002013 -0.005675 -143777.000000 0 0 1
-9.812588 18.839873 -29.450085 36.311640 -1.090615 2.516719 0.004769 -0.011383 -437280.000000 0 0 1
-8.525988 19.425773 -29.617105 36.431113 -1.157211 2.520017 0.002492 -0.015431 140086.000000 0 0 1
-7.532288 18.611073 -30.217965 36.279923 -1.186227 2.555144 0.005428 -0.011135 606469.000000 0 0 1
-7.015788 17.409373 -29.345915 34.835187 -1.187716 2.572558 0.017469 -0.021704 -706522.000000 0 0 1
-7.826888 16.294273 -29.667665 34.740953 -1.122995 2.594361 0.013843 -0.016891 526052.000000 0 0 1
-7.480588 15.155273 -28.834445 33.422548 -1.112285 2.611429 -0.006935 -0.009275 -722558.000000 0 0 1
-8.730788 14.363173 -28.631405 33.200674 -1.024618 2.610737 0.000133 -0.000345 -639270.000000 0 0 1
-9.744988 14.946473 -27.864305 33.087480 -0.993022 2.572037 0.003430 -0.004245 -332815.000000 0 0 1
-11.016388 14.384573 -28.048375 33.391437 -0.917230 2.568056 0.028056 -0.003672 307137.000000 0 0 1
-12.014788 14.726973 -26.901395 32.938183 -0.886474 2.526506 0.017951 0.000665 230133.000000 0 0 1
-12.375388 16.095573 -26.946815 33.739421 -0.915328 2.495886 0.002329 -0.002323 -553509.000000 0 0 1
-13.384488 16.337173 -26.006945 33.502372 -0.884418 2.459526 0.007561 -0.003410 -79513.200000 0 0 1
-14.350588 17.401873 -26.539785 34.829940 -0.881200 2.437164 -0.000371 -0.007555 -77170.000000 0 0 1
-13.697088 18.652273 -26.514725 35.193012 -0.937394 2.424027 -0.006156 -0.007501 195341.000000 0 0 1
-14.527388 19.623673 -27.084195 36.464875 -0.933533 2.407961 -0.006395 -0.010041 -255856.000000 0 0 1
-14.254988 21.059373 -26.633645 36.824623 -0.975746 2.379303 -0.016733 -0.003403 -655327.000000 0 0 1
-15.023388 22.011373 -27.282285 38.138246 -0.971893 2.367925 -0.032868 -0.003961 -305269.000000 0 0 1
-14.618688 23.395773 -27.281645 38.798922 -1.012310 2.350621 -0.030982 0.000300 -358945.000000 0 0 1
-14.512688 24.124373 -25.916265 38.265601 -1.029217 2.314846 -0.050865 0.002289 22105.200000 0 0 1
-13.962988 25.429273 -26.066935 39.001257 -1.068651 2.302800 -0.030542 -0.003579 73424.000000 0 0 1
-13.688988 26.037473 -24.854825 38.511046 -1.086768 2.272336 -0.011153 -0.011699 -3336.500000 0 0 1
-13.090988 27.442373 -25.060765 39.401773 -1.125688 2.260141 0.014416 -0.013935 565526.000000 0 0 1
-14.075088 28.401973 -25.520595 40.694974 -1.110701 2.248645 0.017751 -0.017974 432423.000000 0 0 1
-14.521688 29.174173 -24.421125 40.723496 -1.108944 2.213899 0.022348 -0.020933 -757168.000000 0 0 1
-15.894788 29.770773 -24.700425 41.821695 -1.080393 2.202614 0.018890 -0.021502 -528583.000000 0 0 1
-16.846788 28.713073 -24.743925 41.479111 -1.040192 2.209979 0.014282 -0.019967 -190883.000000 0 0 1
-18.044888 29.216973 -25.339095 42.676916 -1.017524 2.206498 0.008482 -0.012836 -341845.000000 0 0 1
-19.164488 28.211273 -25.324875 42.479440 -0.974085 2.209516 0.007271 -0.000085 -651818.000000 0 0 1
-19.655888 28.075973 -23.982925 41.830549 -0.960006 2.181367 0.011479 -0.004754 -238650.000000 0 0 1
-20.635288 27.040573 -23.949825 41.600502 -0.918949 2.184269 0.015601 -0.008293 310564.000000 0 0 1
-21.402588 27.089673 -22.576225 41.250540 -0.902143 2.149925 0.020737 -0.001411 704363.000000 0 0 1
-22.468988 28.056673 -22.498925 42.405588 -0.895542 2.130063 0.013473 0.001776 499937.000000 0 0 1
-22.958688 28.191473 -21.176625 42.075051 -0.887346 2.098217 0.003099 0.001402 -153421.000000 0 0 1
-24.271988 28.973373 -21.027725 43.252178 -0.873466 2.078493 0.008116 0.005136 30934.400000 0 0 1
-25.426588 28.275073 -21.404225 43.636360 -0.838391 2.083475 -0.010799 0.004642 -138840.000000 0 0 1
-26.576058 29.066573 -21.590625 44.914447 -0.830127 2.072255 0.000150 0.010788 354321.000000 0 0 1
-27.941538 28.409973 -21.853325 45.446935 -0.793711 2.072424 -0.005318 0.012918 -107716.000000 0 0 1
-27.957118 27.575973 -22.991425 45.504289 -0.778535 2.100478 -0.001701 0.017720 -865478.000000 0 0 1
-29.249898 27.353073 -23.431925 46.398300 -0.751900 2.100198 -0.001262 0.013228 -654260.000000 0 0 1
-29.216148 26.758973 -24.926725 46.807772 -0.741529 2.132388 -0.005880 0.028476 -27382.000000 0 0 1
-28.605338 25.457573 -25.216365 45.849955 -0.727240 2.153132 0.011909 0.027615 177573.000000 0 0 1
-28.341378 25.302473 -26.581825 46.368548 -0.728809 2.181291 0.033875 0.023318 -171285.000000 0 0 1
-28.376528 23.838573 -26.935455 45.815102 -0.698707 2.199277 0.031548 0.020831 -419798.000000 0 0 1
-27.251218 23.045973 -26.721735 44.584715 -0.701984 2.213482 0.029987 0.009836 -325600.000000 0 0 1
-27.459788 21.836473 -27.415005 44.524757 -0.671817 2.234102 0.046850 -0.006538 -68628.800000 0 0 1
-26.473798 20.743073 -27.021005 43.142459 -0.664619 2.247621 0.057184 -0.009617 -79708.800000 0 0 1
-26.683228 20.255173 -25.673385 42.206508 -0.649298 2.224688 0.052058 -0.006146 178739.000000 0 0 1
-25.974868 19.056673 -25.584175 41.138796 -0.632960 2.241962 0.043643 -0.013277 -71575.700000 0 0 1
-26.919508 17.836873 -25.414355 41.093836 -0.585182 2.237561 0.039006 -0.010489 152423.000000 0 0 1
-27.620398 17.576973 -26.633005 42.203712 -0.566738 2.253713 0.033887 -0.009168 392934.000000 0 0 1
-28.402968 16.407373 -26.612525 42.239282 -0.523834 2.252404 0.017130 -0.017544 -138558.000000 0 0 1
-29.206398 16.063273 -27.882285 43.456463 -0.502837 2.267397 0.006546 -0.012612 978005.000000 0 0 1
-30.473128 16.743773 -28.034615 44.664360 -0.502429 2.249357 0.001396 -0.011694 881839.000000 0 0 1
-31.216398 16.192773 -29.102835 45.646954 -0.478516 2.262128 0.009265 -0.006587 457920.000000 0 0 1
-32.493998 16.956673 -29.568695 47.092424 -0.480967 2.249631 0.022944 -0.008123 325652.000000 0 0 1
-33.521648 16.861273 -28.602115 47.181398 -0.466042 2.222090 0.002095 -0.008992 -392474.000000 0 0 1
-34.733141 17.345673 -29.142365 48.544215 -0.463166 2.214705 -0.002345 -0.003229 -306288.000000 0 0 1
34.939979 16.912373 -28.271295 48.021834 0.450799 2.200268 0.009470 0.000433 -575536.000000 0 0 1
34.708587 17.837273 -27.235415 47.588046 0.474718 2.180124 0.003456 -0.007630 -425078.000000 0 0 1
33.511077 17.504573 -26.602135 46.228518 0.481369 2.183949 0.013273 -0.011115 -382422.000000 0 0 1
32.943577 18.647573 -25.750375 45.783108 0.515079 2.168133 0.016315 -0.007175 -133708.000000 0 0 1
32.354307 19.716173 -26.459915 46.213155 0.547290 2.180424 0.024395 -0.010641 83005.400000 0 0 1
31.929077 20.738073 -25.596645 45.877247 0.576027 2.162695 0.028532 -0.009908 -596870.000000 0 0 1
31.120687 21.889573 -26.241205 46.219599 0.612989 2.174567 0.030444 -0.011966 34226.700000 0 0 1
29.876937 21.431273 -26.718305 45.451057 0.622255 2.199192 0.027549 -0.012489 -784076.000000 0 0 1
28.828407 21.852873 -25.907615 44.495276 0.648622 2.192296 0.014143 -0.002440 -790917.000000 0 0 1
27.456407 21.480373 -26.474675 43.774069 0.663882 2.220314 0.008635 -0.004351 -251881.000000 0 0 1
27.218537 20.099673 -26.552345 43.010145 0.636071 2.236167 0.006077 -0.011388 129656.000000 0 0 1
25.918757 19.781773 -27.027085 42.350488 0.651910 2.262924 -0.008642 -0.005544 -82198.000000 0 0 1
25.629047 18.249873 -27.127835 41.543054 0.618786 2.282342 -0.000386 -0.007632 -110820.000000 0 0 1
26.641867 17.599473 -27.864015 42.378459 0.583787 2.288298 0.004723 -0.012851 -100490.000000 0 0 1
27.700997 17.171473 -27.056855 42.358920 0.554914 2.263672 0.008546 -0.008680 -380026.000000 0 0 1
28.728717 16.244073 -27.761675 43.126786 0.514612 2.270149 -0.004050 0.002762 -124711.000000 0 0 1
28.188807 15.089873 -28.381855 42.753278 0.491498 2.296754 0.001298 0.001155 44252.400000 0 0 1
27.411907 14.248073 -27.549255 41.393014 0.479344 2.299031 0.013001 -0.008543 -408082.000000 0 0 1
28.151887 13.306673 -26.597715 40.951614 0.441549 2.277711 0.004094 -0.007118 -266564.000000 0 0 1
28.783727 14.029173 -25.541335 40.959497 0.453516 2.244104 0.005389 -0.007434 213482.000000 0 0 1
29.604567 13.215773 -24.715625 40.767010 0.419864 2.222152 0.001603 -0.004466 138508.000000 0 0 1
-14.518988 -31.542642 -24.283025 42.372214 1.139412 2.181066 0.040289 0.015812 105835.000000 0 0 1
-13.878588 -30.362442 -24.750625 41.558230 1.142056 2.208765 0.024400 0.005347 185555.000000 0 0 1
-14.120988 -30.245442 -26.145865 42.400416 1.133994 2.235266 0.021609 0.010679 -99012.100000 0 0 1
-13.275988 -29.145842 -26.811835 41.768486 1.143376 2.267790 0.027407 0.000328 -235930.000000 0 0 1
-13.586888 -27.875442 -26.311755 40.668811 1.117268 2.274409 0.035063 0.005942 124477.000000 0 0 1
-12.888188 -26.819942 -26.984925 40.169650 1.122834 2.307397 0.024954 -0.002109 39108.100000 0 0 1
-13.410688 -25.391742 -26.556295 39.112963 1.084882 2.317147 0.015273 0.003988 -87437.800000 0 0 1
-12.926188 -24.954342 -25.310255 37.820821 1.092858 2.303948 0.012655 -0.009471 9296.520000 0 0 1
-13.478088 -23.710242 -24.952025 36.965361 1.053898 2.311776 0.015853 -0.008334 -290478.000000 0 0 1
-13.042188 -23.089242 -23.640225 35.525652 1.056616 2.298881 0.017076 0.000229 -853835.000000 0 0 1
-11.717688 -22.692742 -23.559725 34.746588 1.094144 2.315895 0.012728 -0.012126 -862172.000000 0 0 1
-11.453788 -22.062442 -22.280425 33.382000 1.091944 2.301560 -0.001890 -0.002064 1265630.000000 0 0 1
-9.892688 -21.944642 -22.048025 32.642732 1.147276 2.312350 0.007428 -0.004965 1095020.000000 0 0 1
-9.293788 -21.004742 -22.895425 32.431067 1.154229 2.354591 0.020417 -0.010821 -1223690.000000 0 0 1
-7.929488 -20.920142 -22.726725 31.890957 1.208492 2.364049 0.032779 -0.005711 -900418.000000 0 0 1
-7.268988 -19.689642 -23.429925 31.456026 1.217139 2.411102 0.029854 0.002100 23489.900000 0 0 1
-7.350688 -18.526142 -22.694425 30.204097 1.193074 2.420931 0.039695 0.000992 112439.000000 0 0 1
-7.944888 -17.408342 -23.390325 30.220504 1.142646 2.455913 0.032165 -0.007628 -151220.000000 0 0 1
-7.109188 -16.674642 -24.453725 30.439594 1.167785 2.503700 0.044896 -0.014274 24809.200000 0 0 1
-6.965388 -17.428542 -25.622665 31.761480 1.190588 2.509379 0.029817 -0.013830 765480.000000 0 0 1
-5.832888 -16.866642 -26.334065 31.811777 1.237847 2.545987 0.028377 -0.015740 808916.000000 0 0 1
-5.489288 -17.628842 -27.598105 33.204875 1.268931 2.551962 0.025554 0.003229 211743.000000 0 0 1
-6.454688 -17.300942 -28.605265 34.047713 1.213707 2.568360 0.048938 -0.001078 405917.000000 0 0 1
-6.274188 -18.001342 -29.788575 35.366268 1.235423 2.572310 0.044957 -0.009388 13187.000000 0 0 1
-7.325688 -17.544942 -30.841505 36.231052 1.175263 2.589150 0.061788 -0.014781 195201.000000 0 0 1
-7.044988 -16.487542 -31.764355 36.475267 1.166986 2.627718 0.046621 -0.002304 -174887.000000 0 0 1
-6.846788 -15.231442 -31.159235 35.352132 1.148344 2.649606 0.038158 0.001588 188.230000 0 0 1
-7.249188 -14.040942 -32.078605 35.759413 1.094202 2.683884 0.039450 -0.001787 -73531.900000 0 0 1
-6.485688 -13.980042 -33.261925 36.658715 1.136423 2.707710 0.035718 -0.010054 133271.000000 0 0 1
-7.113088 -13.218742 -34.313703 37.453456 1.077130 2.729212 0.044583 -0.006673 122898.000000 0 0 1
-7.414988 -11.716742 -34.015135 36.732730 1.006569 2.754517 0.031273 -0.003236 368101.000000 0 0 1
-6.229288 -10.935842 -34.046855 36.298553 1.053014 2.787517 0.029293 -0.003807 166162.000000 0 0 1
-5.867488 -10.480342 33.559387 35.644038 1.060417 0.343699 0.027885 -0.009118 265909.000000 0 0 1
-4.789688 -9.356142 33.617688 35.222542 1.097650 0.303030 0.034590 -0.012473 142248.000000 0 0 1
-4.668288 -8.544842 32.467547 33.896148 1.070777 0.291362 0.034470 -0.013158 479705.000000 0 0 1
-3.612588 -7.562242 32.542157 33.604022 1.125136 0.252060 0.022308 -0.019848 -4644.900000 0 0 1
-3.587988 -6.666842 31.361797 32.262714 1.077070 0.236877 0.026578 -0.016041 843222.000000 0 0 1
-4.727688 -5.786042 31.302627 32.182041 0.885724 0.234314 0.034944 -0.012064 740960.000000 0 0 1
-5.912588 -6.346942 30.779237 31.978177 0.820813 0.274697 0.027644 -0.009663 233137.000000 0 0 1
-7.247488 -5.519942 30.842657 32.159996 0.650906 0.287210 0.016558 -0.011593 819481.000000 0 0 1
-8.207388 -6.147242 30.005577 31.709375 0.642854 0.329302 0.013425 -0.005770 -92333.300000 0 0 1
-9.426888 -5.419242 29.996247 31.906257 0.521737 0.347765 0.005361 -0.007219 481905.000000 0 0 1
-10.540088 -6.071242 29.125707 31.563590 0.522596 0.395607 0.007022 -0.000978 -5277.770000 0 0 1
-10.298688 -5.944442 27.719117 30.162042 0.523489 0.405243 0.005441 -0.003284 579181.000000 0 0 1
-11.330588 -6.563142 26.961337 29.972833 0.525016 0.452113 0.011928 -0.004099 136207.000000 0 0 1
-11.180888 -6.162542 25.537577 28.550955 0.503739 0.463583 0.011396 -0.000620 378047.000000 0 0 1
-10.026488 -6.803942 24.986017 27.769140 0.596216 0.451539 0.017707 0.002217 823715.000000 0 0 1
-9.470388 -6.263742 23.770687 26.343277 0.584350 0.445620 0.017173 -0.001682 460783.000000 0 0 1
-10.468188 -6.383642 22.557387 25.674297 0.547604 0.497878 0.021480 -0.007426 381340.000000 0 0 1
-11.531288 -5.456442 22.649387 25.994963 0.441967 0.512953 0.011039 -0.005278 -555810.000000 0 0 1
-12.376888 -5.695242 21.567387 25.510298 0.431264 0.563411 0.008228 -0.002606 7027.450000 0 0 1
-13.481788 -4.604642 21.341387 25.659621 0.329123 0.588614 -0.007019 0.005272 442338.000000 0 0 1
-13.034388 -3.348942 20.858087 24.822781 0.251491 0.572997 0.000195 -0.001600 -108654.000000 0 1 0
-14.098288 -2.411942 20.817187 25.257364 0.169440 0.602004 -0.006413 0.003676 274746.000000 0 0 1
-13.725288 -1.055942 20.179187 24.427405 0.076783 0.598666 -0.006435 -0.004331 146313.000000 0 1 0
-12.771888 -0.268942 20.892887 24.488899 0.021054 0.548788 -0.009140 0.003536 191885.000000 0 1 0
-13.029388 1.057058 20.686587 24.470742 -0.080951 0.563558 -0.007277 -0.007972 -162732.000000 0 1 0
-12.487388 1.710058 19.358287 23.099836 -0.136096 0.577139 0.008443 -0.014574 -64286.600000 0 1 0
-13.138488 1.327058 18.176287 22.466828 -0.100664 0.628300 0.003019 -0.008297 -543451.000000 0 1 0
-14.401388 1.906058 18.000887 23.131471 -0.131588 0.679003 -0.003616 -0.013058 -488116.000000 0 1 0
-15.385788 1.031058 17.203887 23.103231 -0.066914 0.730782 0.009599 -0.010436 -310278.000000 0 1 0
-15.699488 -0.140942 17.935687 23.836582 0.008977 0.719032 -0.008965 -0.001556 -130425.000000 0 1 0
-16.560688 -0.917942 17.179387 23.879496 0.055372 0.767829 -0.009659 -0.001850 -541740.000000 0 1 0
-16.407588 -2.475942 17.492387 24.110637 0.149772 0.759028 -0.018758 0.003015 -736616.000000 0 1 0
-17.154688 -2.869942 18.653987 25.504727 0.165763 0.750433 -0.011447 0.011320 305655.000000 0 0 1
-16.908388 -4.233842 18.892687 25.705109 0.245354 0.745162 -0.012703 0.012911 93087.600000 0 0 1
-17.805188 -4.773342 20.016087 27.211270 0.261928 0.744273 -0.019314 0.014039 -287739.000000 0 0 1
-17.292188 -4.277342 21.230087 27.713390 0.242489 0.698109 -0.017403 0.012361 1358850.000000 0 0 1
-18.279388 -4.336642 22.355887 29.201510 0.232936 0.698865 -0.010177 0.009328 838837.000000 0 0 1
-18.559388 -5.755842 22.908087 30.039325 0.300725 0.703468 -0.011061 0.006210 -226142.000000 0 0 1
-17.552188 -6.408842 23.644387 30.136516 0.350090 0.668784 0.004008 0.006960 -432973.000000 0 0 1
-16.501588 -6.938142 22.907687 29.072364 0.398013 0.663317 -0.018257 0.011217 -1302760.000000 0 0 1
-15.328488 -7.373542 23.737687 29.202901 0.448361 0.621761 -0.012389 0.004650 -677985.000000 0 0 1
-15.581088 -8.552642 24.447527 30.225809 0.502007 0.628637 -0.011822 0.000710 -131827.000000 0 0 1
-14.496688 -8.793342 25.294137 30.451111 0.545241 0.590527 0.004233 0.004401 -50520.100000 0 0 1
-14.832588 -9.851842 26.393457 31.838326 0.586295 0.593508 0.005570 0.003833 -80020.500000 0 0 1
-14.790188 -11.199542 25.938767 31.890422 0.648111 0.620872 0.007764 -0.000164 -39461.300000 0 0 1
-14.185188 -11.969742 26.964357 32.734856 0.700895 0.602855 0.019098 0.001417 -81279.200000 0 0 1
-14.303188 -13.490542 26.673647 33.136978 0.756168 0.635203 0.016080 -0.001456 -586322.000000 0 0 1
-15.406088 -14.064442 27.298997 34.356823 0.739905 0.652493 0.019556 -0.005737 -266463.000000 0 0 1
-15.558488 -15.465542 27.112457 34.875992 0.782402 0.680281 0.030632 -0.002068 847452.000000 0 0 1
-14.455088 -16.297042 27.917077 35.410540 0.845223 0.662620 0.030578 -0.000558 1373810.000000 0 0 1
-13.111888 -16.185942 27.457697 34.464930 0.889940 0.649006 0.021447 -0.004278 463598.000000 0 0 1
-12.219788 -16.941742 28.284147 35.161610 0.945929 0.636124 0.023260 -0.003738 -319518.000000 0 0 1
-10.853288 -17.190842 27.675197 34.339997 1.007650 0.633573 0.029070 -0.004263 -700979.000000 0 0 1
-10.114788 -18.190342 28.361827 35.179407 1.063318 0.633086 0.029390 -0.009920 -314568.000000 0 0 1
-9.118288 -18.747242 27.553217 34.551151 1.118104 0.647720 0.013970 -0.007249 -961058.000000 0 0 1
-8.087388 -19.325642 28.492587 35.365432 1.174461 0.634004 0.020445 -0.010120 -893124.000000 0 0 1
-8.502588 -20.566342 29.019167 36.570213 1.178773 0.654226 0.022430 -0.006397 163833.000000 0 0 1
-7.656388 -20.974342 30.075787 37.457926 1.220790 0.638615 0.027592 -0.008600 -87564.200000 0 0 1
-8.112788 -22.256342 30.766317 38.829478 1.221249 0.656154 0.024311 -0.010416 -29747.200000 0 0 1
-8.090088 -23.390642 29.937857 38.843879 1.237807 0.690822 0.027938 -0.005584 127116.000000 0 0 1
-8.557988 -24.494242 30.685437 40.184612 1.234667 0.701908 0.019394 -0.011451 -293723.000000 0 0 1
-8.488188 -25.808442 29.899807 40.399548 1.253048 0.737574 0.017526 -0.005938 -776621.000000 0 0 1
-9.498288 -26.001342 28.982257 40.078154 1.220557 0.762454 0.016344 -0.005937 -404779.000000 0 0 1
-9.270188 -27.196242 28.279037 40.314710 1.242285 0.793357 0.011913 -0.006807 -925029.000000 0 0 1
-10.468088 -27.637342 27.464137 40.344545 1.208728 0.822024 0.008249 -0.002237 -526903.000000 0 0 1
-10.614088 -26.894542 26.264227 39.061296 1.194905 0.833370 0.008748 -0.004062 204896.000000 0 0 1
-11.266888 -25.643942 26.421527 38.505215 1.156827 0.814571 0.001592 -0.000379 -544603.000000 0 0 1
-11.353988 -24.689342 25.241827 37.089439 1.139762 0.822261 0.007427 -0.007777 86275.800000 0 0 1
-12.377888 -25.082342 24.328597 37.070427 1.112370 0.854918 0.008293 -0.008810 406698.000000 0 0 1
-12.008788 -24.866342 22.982287 35.926751 1.120895 0.876690 0.022603 -0.007045 -114704.000000 0 0 1
-13.191388 -25.005042 22.010487 35.829127 1.085353 0.909275 0.041144 -0.008166 -210522.000000 0 0 1
-13.794388 -26.241942 21.784387 36.789729 1.086831 0.937094 0.031883 -0.012738 -430031.000000 0 0 1
-14.898988 -25.943342 20.984087 36.542697 1.049496 0.959127 0.036401 -0.015599 -884471.000000 0 0 1
-15.633588 -27.173542 20.542387 37.480663 1.048719 0.990730 0.041332 -0.018454 -357515.000000 0 0 1
-14.899688 -28.052642 19.688987 37.371214 1.082554 1.015907 0.032092 -0.013496 -190113.000000 0 0 1
-15.575388 -29.185942 19.270287 38.285191 1.080584 1.043342 0.036915 -0.017697 -236839.000000 0 0 1
-14.762188 -29.929342 18.218487 38.021059 1.112576 1.071089 0.048434 -0.021239 -37554.500000 0 0 1
-14.849888 -29.290642 16.968587 36.964764 1.101577 1.093873 0.042016 -0.023019 320769.000000 0 0 1
-13.748488 -29.618942 16.127087 36.419576 1.136214 1.112062 0.040746 -0.023584 252547.000000 0 0 1
-13.950788 -29.075642 14.709687 35.445625 1.123431 1.142861 0.041433 -0.022069 -281111.000000 0 0 1
-13.771088 -27.651342 14.678187 34.200712 1.108729 1.127214 0.040741 -0.020683 40911.400000 0 0 1
-13.888388 -27.002342 13.385087 33.183947 1.095743 1.155610 0.033929 -0.014338 19553.100000 0 0 1
-12.960888 -27.448142 12.248187 32.732296 1.129639 1.187270 0.032117 -0.002940 91870.500000 0 0 1
-13.336788 -26.752242 11.076787 31.878638 1.108326 1.215927 0.021220 0.000556 261375.000000 0 0 1
-12.400388 -27.040742 10.047587 31.399448 1.140829 1.245075 0.026795 0.004618 109923.000000 0 0 1
-12.636688 -26.302242 8.698187 30.449175 1.122918 1.281099 0.009213 0.010066 -306806.000000 0 0 1
-13.648288 -26.852042 7.869787 31.132643 1.100549 1.315241 0.036741 -0.005193 50545.100000 0 0 1
-13.797688 -26.083742 6.697987 30.258896 1.084237 1.347592 0.017473 -0.000939 639611.000000 0 0 1
-14.865988 -26.496642 5.611787 30.895983 1.059508 1.388148 0.013023 -0.001471 546105.000000 0 0 1
-14.422788 -27.595342 4.839387 31.510940 1.089191 1.416608 0.011268 -0.001222 -433830.000000 0 0 1
-15.283788 -27.853242 3.790587 31.996340 1.068932 1.452048 0.033406 0.006998 -266185.000000 0 0 1
-14.846388 -29.097942 2.896287 32.794724 1.099005 1.482365 0.041769 0.004315 869583.000000 0 0 1
-13.667988 -28.826742 2.104087 31.972208 1.128048 1.504939 0.028685 0.009536 562221.000000 0 0 1
-13.091988 -30.050442 1.641087 32.819542 1.159925 1.520772 0.019420 0.005842 464284.000000 0 0 1
-11.734388 -29.871642 0.888487 32.106078 1.196489 1.543119 0.009260 0.003863 318655.000000 0 0 1
-11.717088 -29.046442 -0.285713 31.321998 1.187370 1.579918 0.006209 0.007337 -321373.000000 0 0 1
-11.711288 -27.654642 -0.054413 30.032256 1.170211 1.572608 0.002411 0.006405 -425805.000000 0 0 1
-11.418988 -26.922042 -1.314513 29.273154 1.169646 1.615716 0.004440 0.009839 606970.000000 0 0 1
-10.189088 -27.385442 -1.883313 29.280143 1.214604 1.635161 -0.003642 0.006658 144170.000000 0 0 1
-10.036688 -26.752942 -3.160313 28.747914 1.211884 1.680951 0.009948 0.007765 684699.000000 0 0 1
-8.742488 -27.132142 -3.951813 28.778482 1.259082 1.708550 -0.001443 0.009106 549769.000000 0 0 1
-8.461988 -26.148442 -4.953013 27.926306 1.257819 1.749100 0.009156 0.008516 538956.000000 0 0 1
-7.087788 -26.300042 -5.367613 27.762208 1.307553 1.765364 0.004947 0.010221 1073700.000000 0 0 1
-6.608288 -25.077642 -6.070713 26.634773 1.313140 1.800742 0.004413 0.007582 -220079.000000 0 0 1
-7.147788 -24.965342 -7.374213 26.995151 1.291947 1.847481 0.008014 0.004988 -215740.000000 0 0 1
-6.624088 -23.818142 -7.987213 25.980338 1.299540 1.883291 0.014146 0.006464 -129925.000000 0 0 1
-6.812488 -23.682642 -9.544313 26.426718 1.290701 1.940309 0.013197 0.004262 -59208.500000 0 0 1
-5.926288 -24.551742 -10.224413 27.247890 1.333947 1.955449 0.000047 0.003366 -231088.000000 0 0 1
-6.174588 -24.793842 -11.611313 28.065685 1.326724 1.997332 -0.005357 0.006521 -538096.000000 0 0 1
-7.440888 -25.430942 -12.166113 29.156713 1.286150 2.001231 -0.009723 0.000202 -344175.000000 0 0 1
-7.633488 -25.396042 -13.527313 29.769401 1.278809 2.042499 0.001895 -0.001683 355022.000000 0 0 1
-8.820288 -26.146042 -13.832913 30.866850 1.245438 2.035489 0.000094 -0.004542 -99190.500000 0 0 1
-9.146188 -26.043342 -15.365213 31.591109 1.233061 2.078736 0.001877 -0.008231 -463982.000000 0 0 1
-8.342288 -26.657842 -16.291613 32.336526 1.267511 2.098805 0.000838 -0.010717 25341.300000 0 0 1
-6.986188 -26.198842 -16.303213 31.638282 1.310200 2.112154 0.004169 -0.003685 386900.000000 0 0 1
-5.958288 -27.199542 -16.871013 32.556832 1.355144 2.115544 0.010468 -0.007849 109339.000000 0 0 1
-6.161288 -27.365742 -18.292213 33.488063 1.349343 2.148654 0.026574 -0.008805 -381336.000000 0 0 1
-4.978088 -27.773442 -18.903913 33.963265 1.393440 2.161083 0.020868 -0.013223 -172376.000000 0 0 1
-24.204188 14.781973 -5.707025 28.929562 -0.548264 1.769372 0.009553 -0.005982 -78124.200000 0 0 1
-24.668188 13.550073 -5.261925 28.632356 -0.502301 1.755622 0.000330 0.001508 851225.000000 0 0 1
-23.559488 12.665673 -4.942225 27.200998 -0.493276 1.753504 0.016724 -0.004925 199506.000000 0 0 1
-23.962588 11.247673 -4.404125 26.834904 -0.438857 1.735661 0.033818 -0.015492 144812.000000 0 0 1
-24.580888 10.377373 -5.344325 27.211610 -0.399473 1.768480 0.036606 -0.013073 1017570.000000 0 0 1
-25.895038 10.717473 -5.824225 28.624095 -0.392415 1.775700 0.013296 -0.009094 349587.000000 0 0 1
-26.204238 10.211373 -7.224225 29.036591 -0.371582 1.822235 0.038269 -0.001572 -301522.000000 0 0 1
-25.758818 11.072773 -8.251825 29.226967 -0.405983 1.857025 0.058302 0.002499 -171473.000000 0 0 1
-26.081688 10.531273 -9.491925 29.686003 -0.383761 1.896256 0.066448 0.001016 -178795.000000 0 0 1
-26.418738 11.475673 -10.643025 30.706917 -0.409786 1.924741 0.050735 -0.006073 -293613.000000 0 0 1
-25.343108 12.315073 -10.927125 30.221452 -0.452331 1.940746 0.056944 -0.005307 64782.100000 0 0 1
-25.664048 13.013573 -12.148925 31.234481 -0.469291 1.970297 0.056215 -0.010282 241628.000000 0 0 1
-24.639688 14.100073 -12.597025 31.058192 -0.519765 1.988425 0.054172 -0.009000 124370.000000 0 0 1
-24.624388 15.205473 -11.749425 31.234850 -0.553185 1.956449 0.046304 -0.004202 -72063.600000 0 0 1
-23.836888 16.260373 -12.231225 31.340067 -0.598647 1.971726 0.042705 -0.006170 -239800.000000 0 0 1
-23.772288 17.644473 -11.498425 31.759453 -0.638509 1.941260 0.029089 -0.001742 -163876.000000 0 0 1
-22.934688 17.564173 -10.364825 30.690873 -0.653558 1.915287 0.019025 0.008252 -48628.200000 0 0 1
-22.757488 18.905073 -9.817425 31.171892 -0.693193 1.891195 -0.009465 0.016044 522439.000000 0 0 1
-21.705988 19.010373 -8.632025 30.117371 -0.719290 1.861486 -0.016346 0.023408 354649.000000 0 0 1
-22.142888 18.392573 -7.409825 29.723723 -0.693141 1.822743 -0.004843 0.017294 68144.500000 0 0 1
-23.082288 19.101473 -6.641625 30.688262 -0.691308 1.788945 -0.006462 0.005651 -307385.000000 0 0 1
-23.403988 18.447373 -5.247025 30.258610 -0.667514 1.745083 -0.008446 0.007253 145503.000000 0 0 1
-22.343288 18.495073 -4.313325 29.323966 -0.691445 1.718424 0.008525 -0.011072 238440.000000 0 0 1
-22.776388 17.953673 -3.084125 29.165220 -0.667540 1.676741 0.002786 -0.003500 456799.000000 0 0 1
-21.595388 17.767473 -2.066125 28.041268 -0.688456 1.644545 0.020247 -0.021025 61180.200000 0 0 1
-21.236288 18.921273 -1.339125 28.474335 -0.727814 1.617843 0.038087 -0.020952 -182992.000000 0 0 1
-20.229688 18.557973 -0.440625 27.456015 -0.742326 1.586845 0.077790 -0.033289 -18380.300000 0 0 1
-19.336888 19.760873 -0.011325 27.647919 -0.796242 1.571206 0.069917 -0.039075 112565.000000 0 0 1
-20.038888 20.585773 0.904575 28.742813 -0.798859 1.539320 0.054590 -0.031461 116770.000000 0 0 1
-19.511388 21.874473 1.025975 29.329839 -0.842435 1.535809 0.058807 -0.025690 -394443.000000 0 0 1
-20.301088 22.792273 1.948575 30.584617 -0.843143 1.507042 0.034609 -0.011276 -509100.000000 0 0 1
-20.293688 22.271773 3.252175 30.305812 -0.831836 1.463277 0.035513 -0.008757 -371364.000000 0 0 1
-21.518788 22.288873 3.905975 31.226731 -0.802975 1.445383 0.016204 -0.010233 -551126.000000 0 0 1
-21.223588 21.967873 5.357175 31.011731 -0.802629 1.397179 0.014431 -0.009343 78984.300000 0 0 1
-20.599088 23.065773 6.036575 31.508610 -0.841829 1.378020 0.011053 -0.006330 137670.000000 0 0 1
-19.881488 22.763273 7.220275 31.073663 -0.852872 1.336293 0.008546 0.004712 -506302.000000 0 0 1
-20.621688 22.482273 8.516075 31.673808 -0.828536 1.298579 0.007324 0.001773 -756806.000000 0 0 1
-21.581888 21.447473 8.392675 31.562778 -0.782274 1.301655 0.012106 -0.000158 327423.000000 0 0 1
-21.981688 20.767473 9.612575 31.731437 -0.757003 1.263025 0.019699 -0.005435 -37603.300000 0 0 1
-22.681688 21.511673 10.752875 33.058060 -0.758929 1.239497 0.023736 -0.001882 -551397.000000 0 0 1
-23.991388 21.928373 10.430075 34.135417 -0.740502 1.260280 0.036679 -0.003646 256106.000000 0 0 1
-24.473988 22.784573 11.457975 35.346825 -0.749665 1.240674 0.045256 -0.004984 -303078.000000 0 0 1
-25.781148 23.443073 11.021475 36.547478 -0.737935 1.264462 0.051184 -0.010894 -318890.000000 0 0 1
-26.473488 24.087873 12.075675 37.774239 -0.738251 1.245404 0.052364 -0.009320 75114.900000 0 0 1
-26.607688 25.486573 11.868875 38.709232 -0.763881 1.259160 0.048539 -0.007305 292733.000000 0 0 1
-27.202958 26.140373 13.163975 39.957606 -0.765481 1.235077 0.045589 -0.006706 209057.000000 0 0 1
-26.230698 26.064673 14.205875 39.613426 -0.782223 1.204015 0.027932 -0.007914 219693.000000 0 0 1
-26.538108 26.588673 15.511875 40.642920 -0.786350 1.179202 0.031002 -0.003915 -249890.000000 0 0 1
-25.336438 26.637873 16.474375 40.285436 -0.810433 1.149503 0.017383 -0.007005 -40988.500000 0 0 1
-25.078928 25.442573 17.187275 39.644414 -0.792596 1.122383 0.033886 -0.013166 102128.000000 0 0 1
-24.198488 25.674073 18.276975 39.733772 -0.814977 1.092817 0.029342 -0.010037 -272380.000000 0 0 1
-23.973788 24.429073 19.113175 39.202494 -0.794804 1.061515 0.030679 -0.008064 200277.000000 0 0 1
-22.637388 24.284273 19.575675 38.540684 -0.820482 1.038025 0.033095 -0.014420 560980.000000 0 0 1
-22.251888 22.958073 19.894075 37.656259 -0.801017 1.014191 0.042899 -0.015108 -519103.000000 0 0 1
-20.809188 22.912273 20.410675 37.075466 -0.833463 0.987813 0.037446 -0.017029 -628283.000000 0 0 1
-19.906988 23.078873 19.311775 36.081397 -0.859054 1.006019 0.031951 -0.021478 1190660.000000 0 0 1
-18.521088 22.789973 19.602775 35.308389 -0.888368 0.982208 0.028865 -0.021435 1077410.000000 0 0 1
-18.125288 21.269973 19.787175 34.241351 -0.865053 0.954675 0.028477 -0.009208 -436234.000000 0 0 1
-18.647988 20.600473 20.949475 34.799532 -0.835104 0.924787 0.045438 -0.007728 514210.000000 0 0 1
-17.844888 20.912373 22.096375 35.270627 -0.864380 0.893766 0.043283 -0.004513 56826.500000 0 0 1
-18.630488 20.704773 23.404875 36.380914 -0.838083 0.871958 0.024075 0.002225 221957.000000 0 0 1
-19.705188 21.668873 23.443575 37.515806 -0.832824 0.895795 0.020194 0.001934 293130.000000 0 0 1
-20.415488 21.375173 24.641875 38.482622 -0.808358 0.875858 0.030441 0.012820 -48195.700000 0 0 1
-21.634688 22.307473 24.738375 39.719898 -0.800708 0.898453 0.027152 0.010629 -690985.000000 0 0 1
-21.152988 23.549673 25.121175 40.411749 -0.838961 0.899974 0.021920 0.002260 344839.000000 0 0 1
-22.032988 24.690773 25.195775 41.592234 -0.842220 0.920050 0.021995 -0.000198 -104143.000000 0 0 1
-22.881488 25.125973 23.973575 41.588572 -0.832117 0.956423 0.010949 -0.002003 294337.000000 0 0 1
-24.050888 24.327473 23.835275 41.694022 -0.791115 0.962255 0.010461 -0.000234 74320.400000 0 0 1
-24.638088 24.548673 22.607375 41.482118 -0.783580 0.994418 0.009139 -0.003241 401965.000000 0 0 1
-25.712328 23.455073 22.175075 41.267399 -0.739521 1.003503 0.022519 -0.000039 970353.000000 0 0 1
-26.946208 23.589673 22.879675 42.497651 -0.719077 1.002289 0.016154 -0.004481 376451.000000 0 0 1
-27.801228 22.506973 22.592075 42.306902 -0.680548 1.007466 0.013568 -0.002140 -198436.000000 0 0 1
-29.292958 22.752373 22.894175 43.587740 -0.660383 1.017795 0.026145 0.000340 -923427.000000 0 0 1
-29.772428 23.636373 21.950975 43.896707 -0.671011 1.047129 0.021422 -0.000567 600582.000000 0 0 1
-31.175918 23.837573 22.212775 45.095178 -0.652789 1.055750 0.016126 -0.002557 968898.000000 0 0 1
-32.128208 22.948573 21.367675 44.893611 -0.620246 1.074738 0.021020 -0.009460 -745590.000000 0 0 1
-31.908958 21.566173 21.602575 44.158268 -0.594344 1.059615 0.019957 -0.003271 349105.000000 0 0 1
-32.420638 20.785273 20.514575 43.634540 -0.570102 1.081341 0.017564 -0.007572 85387.200000 0 0 1
-33.938328 20.527873 20.405375 44.604742 -0.543984 1.095647 0.013055 -0.007033 86603.500000 0 0 1
-34.419513 19.878173 19.210075 44.146026 -0.523731 1.120593 0.021115 -0.010237 278568.000000 0 0 1
35.016526 19.833473 19.137275 44.561856 0.515350 1.126908 0.032822 -0.013777 24122.300000 0 0 1
34.444647 18.984973 18.009175 43.257291 0.503744 1.141395 0.042737 -0.021378 -231116.000000 0 0 1
34.577847 17.626573 18.192475 42.863617 0.471429 1.132467 0.057276 -0.026090 438365.000000 0 0 1
33.772827 16.965473 17.233675 41.538303 0.465519 1.142978 0.058902 -0.030159 139164.000000 0 0 1
33.874117 15.428773 17.466475 41.116670 0.427397 1.132052 0.063392 -0.029247 265093.000000 0 0 1
32.976897 14.661973 16.649475 39.744864 0.418365 1.138553 0.050355 -0.032251 364411.000000 0 0 1
33.350477 13.309473 16.561675 39.543463 0.379712 1.138649 0.038235 -0.027107 340463.000000 0 0 1
32.423367 12.476773 15.593975 38.080397 0.367342 1.148889 0.030970 -0.029159 191859.000000 0 0 1
32.514317 12.959373 14.255275 37.793372 0.379277 1.184036 0.043851 -0.027203 272225.000000 0 0 1
31.805427 12.212173 13.300075 36.573410 0.366607 1.198609 0.042149 -0.022986 -437114.000000 0 0 1
31.926947 12.678173 11.854075 36.339855 0.378003 1.238515 0.037679 -0.018574 -956848.000000 0 0 1
33.208757 12.444573 11.399075 37.250877 0.358541 1.259799 0.041213 -0.017069 -654354.000000 0 0 1
33.340287 12.618573 9.988375 37.021220 0.361817 1.297610 0.034545 -0.007320 -435305.000000 0 0 1
34.762877 12.630273 9.409375 38.164352 0.348497 1.321679 0.028956 0.001132 -483876.000000 0 0 1
-35.414715 11.403873 9.688575 38.446311 -0.311525 1.316047 0.036335 0.002796 110446.000000 0 0 1
-34.107004 11.271873 9.176075 37.074832 -0.319185 1.320696 0.041194 0.007073 -64627.800000 0 0 1
-33.973728 10.990773 7.665975 36.520931 -0.312882 1.359317 0.044385 -0.002614 -393109.000000 0 0 1
-34.458945 12.125473 6.862575 37.169085 -0.338350 1.385100 0.028513 -0.005615 254425.000000 0 0 1
-34.115264 11.951673 5.497875 36.563921 -0.336971 1.419860 0.029029 -0.014683 218430.000000 0 0 1
-34.975796 12.836673 4.527675 37.531138 -0.351753 1.449864 0.024529 -0.010808 23347.300000 0 0 1
34.526987 12.411273 4.430975 36.956543 0.345083 1.450610 0.017493 -0.015203 -205241.000000 0 0 1
33.545357 13.402373 4.440675 36.395524 0.380101 1.448480 0.038217 -0.013102 -140035.000000 0 0 1
33.386727 14.246773 5.746775 36.751455 0.403326 1.413783 0.028734 0.000540 -1582720.000000 0 0 1
32.780307 15.486573 5.535375 36.674553 0.441354 1.419285 0.014589 0.000825 -88501.700000 0 0 1
32.426167 16.127073 6.746175 36.838155 0.461523 1.386627 0.002915 0.006557 729788.000000 0 0 1
31.089897 15.626573 7.471875 35.589329 0.465746 1.359276 0.008579 0.007261 760075.000000 0 0 1
31.181087 14.485573 8.257475 35.359269 0.434898 1.335089 0.018303 0.002279 -564599.000000 0 0 1
29.944927 13.865873 8.383375 34.047644 0.433650 1.322013 0.029251 -0.010645 -626381.000000 0 0 1
29.815007 12.454573 7.780375 33.235301 0.395695 1.334504 0.034986 -0.005718 -232724.000000 0 0 1
29.974497 12.558873 6.385575 33.120557 0.396765 1.376784 0.020669 -0.007037 303993.000000 0 0 1
30.408387 11.305573 5.849175 32.965115 0.355955 1.392417 0.045438 -0.017452 -240616.000000 0 0 1
30.197497 11.175873 4.306575 32.485928 0.354461 1.437838 0.039192 -0.020741 37436.700000 0 0 1
28.822257 11.057273 4.010175 31.129845 0.366321 1.441616 0.035247 -0.013248 121315.000000 0 0 1
28.687127 11.460573 2.617575 31.002382 0.380077 1.486264 0.047953 -0.019513 -277732.000000 0 0 1
27.227527 11.428273 2.158275 29.607462 0.397400 1.497835 0.051886 -0.005854 -336459.000000 0 0 1
26.816887 10.129573 1.773875 28.721077 0.361163 1.508995 0.048631 -0.008594 -378614.000000 0 0 1
25.416847 10.067873 1.739475 27.393502 0.377149 1.507254 0.043252 -0.007707 -76167.600000 0 0 1
24.858447 8.600173 1.474775 26.345404 0.333076 1.514789 0.046398 -0.013172 181092.000000 0 0 1
25.147447 7.718373 2.582075 26.431694 0.297798 1.472952 0.054602 -0.009311 847190.000000 0 0 1
26.484517 7.210673 2.585975 27.570105 0.265817 1.476862 0.074650 -0.014211 419693.000000 0 0 1
27.011857 6.634473 3.955175 28.094484 0.240846 1.429546 0.082599 -0.013051 199115.000000 0 0 1
28.418887 6.449073 3.951075 29.408071 0.223150 1.436035 0.100589 -0.011208 511183.000000 0 0 1
28.862657 5.809873 5.129775 29.885150 0.198639 1.398292 0.094651 -0.009557 -218657.000000 0 0 1
30.381357 5.844273 5.365175 31.400119 0.190042 1.399089 0.088679 -0.008208 -4554.950000 0 0 1
30.820537 7.142973 5.795975 32.163968 0.227739 1.389606 0.075842 -0.014122 -1345430.000000 0 0 1
32.101507 7.105373 6.256875 33.468516 0.217829 1.382742 0.032110 -0.001086 -1253400.000000 0 0 1
32.448637 8.234373 7.243075 34.251731 0.248520 1.357722 0.021245 -0.008980 98363.600000 0 0 1
31.694727 8.170473 8.425775 33.798018 0.252294 1.318841 0.038246 -0.011032 460881.000000 0 0 1
32.387537 9.008173 9.343875 34.891370 0.271280 1.299688 0.030060 -0.005094 210103.000000 0 0 1
31.806487 8.769173 10.758675 34.703027 0.269021 1.255581 0.041611 -0.009862 -1262020.000000 0 0 1
30.478937 9.117373 10.908475 33.631635 0.290665 1.240470 0.046885 -0.016720 -937990.000000 0 0 1
30.038157 8.657673 12.168275 33.545686 0.280617 1.199593 0.050739 -0.022941 -294549.000000 0 0 1
28.532517 8.974073 12.332275 32.353107 0.304725 1.179727 0.039071 -0.026235 -73944.500000 0 0 1
28.129507 10.355073 12.606675 32.518071 0.352727 1.172681 0.036195 -0.016108 295043.000000 0 0 1
28.192317 11.273373 11.534375 32.479801 0.380398 1.207749 0.039644 -0.023324 -23535.800000 0 0 1
26.977497 11.364373 10.538275 31.112530 0.398693 1.225246 0.028594 -0.013260 241631.000000 0 0 1
27.054777 12.484573 9.698775 31.335152 0.432339 1.256111 0.013600 0.010921 -456581.000000 0 0 1
25.916017 12.623573 8.922775 30.176322 0.453271 1.270621 0.017249 0.004926 -828851.000000 0 0 1
25.979607 13.733273 7.825175 30.410132 0.486279 1.310547 0.005498 0.011913 -208544.000000 0 0 1
25.948737 15.083073 8.267975 31.131904 0.526529 1.301992 0.000159 0.016038 344706.000000 0 0 1
26.205007 16.030973 7.266075 31.567235 0.549016 1.338536 -0.003022 0.011783 -652339.000000 0 0 1
26.030407 17.499273 7.679375 32.292095 0.591867 1.330686 0.001410 0.001004 714317.000000 0 0 1
24.726947 18.074673 7.831075 31.613944 0.631211 1.320481 0.011990 0.007994 975999.000000 0 0 1
23.850447 17.513173 8.829475 30.879033 0.633371 1.280812 0.027721 0.010755 387910.000000 0 0 1
22.614847 18.412173 9.112075 30.552730 0.683317 1.267947 0.040311 0.004082 816688.000000 0 0 1
21.743047 18.693873 7.983675 29.765081 0.710135 1.299249 0.048157 -0.001007 454191.000000 0 0 1
20.628447 19.481673 8.288475 29.559554 0.756815 1.286586 0.076113 -0.014299 -176331.000000 0 0 1
19.904647 19.928773 7.043675 29.033848 0.786004 1.325749 0.070379 -0.008525 -265130.000000 0 0 1
20.743347 20.851073 6.434175 30.107346 0.787988 1.355427 0.044759 0.008688 176627.000000 0 0 1
20.197447 21.102373 5.162775 29.663129 0.807306 1.395859 0.053492 0.000407 65290.800000 0 0 1
17.249012 17.352273 33.087032 41.150717 0.788382 0.636729 0.026910 0.005973 3895.650000 0 0 1
16.795212 18.199373 32.015447 40.475736 0.825502 0.658389 0.022502 0.003881 233859.000000 0 0 1
16.193712 17.367373 31.051827 39.090637 0.820355 0.652852 0.035178 -0.004406 -292795.000000 0 0 1
15.785912 18.057573 29.780787 38.238282 0.852420 0.678012 0.028881 -0.005853 612129.000000 0 0 1
16.855712 18.437673 28.902157 38.202061 0.830191 0.712760 0.027130 0.002716 222980.000000 0 0 1
16.301012 18.822373 27.687467 37.237086 0.857061 0.732439 0.044415 -0.013907 467934.000000 0 0 1
17.346712 19.303773 26.592747 37.158018 0.838745 0.773218 0.033642 -0.001279 -163707.000000 0 0 1
18.110112 20.385873 26.943467 38.334194 0.844446 0.791390 0.034110 0.003170 -543074.000000 0 0 1
18.876912 20.616673 25.776197 38.023642 0.829421 0.825895 0.023904 0.004631 100266.000000 0 0 1
19.891412 21.790473 26.042337 39.353479 0.830927 0.847640 0.042156 -0.000632 20061.100000 0 0 1
19.215812 23.020873 26.146627 39.785099 0.875245 0.853703 0.038105 -0.011060 111258.000000 0 0 1
20.078812 24.091173 26.442417 41.021272 0.875989 0.870293 0.061653 -0.015441 -227062.000000 0 0 1
19.402712 25.482873 26.347997 41.473594 0.920038 0.882405 0.059483 -0.021300 47257.500000 0 0 1
19.206112 25.922773 25.004017 40.817469 0.933146 0.911474 0.052641 -0.017065 560502.000000 0 0 1
18.268412 27.011473 24.898897 41.028156 0.976140 0.918675 0.049344 -0.020305 244862.000000 0 0 1
18.372812 27.862073 23.592587 40.871329 0.987827 0.955451 0.049578 -0.019762 425734.000000 0 0 1
19.616912 28.550573 23.460187 41.837051 0.968785 0.975503 0.054150 -0.020675 208544.000000 0 0 1
19.439812 29.685273 22.652187 42.098020 0.991009 1.002636 0.032026 -0.015054 -731660.000000 0 0 1
20.634712 30.488673 22.202787 42.992026 0.975812 1.028108 0.037082 -0.020664 -933370.000000 0 0 1
21.535412 29.701773 21.450587 42.498200 0.943452 1.041714 0.037842 -0.013007 88326.400000 0 0 1
22.712712 30.444773 21.095587 43.448536 0.929841 1.063826 0.038600 -0.024544 318912.000000 0 0 1
22.837512 31.157273 19.733887 43.379188 0.938280 1.098518 0.034385 -0.018892 -388263.000000 0 0 1
22.013512 32.282373 19.450187 43.646948 0.972318 1.108924 0.021017 -0.015822 297434.000000 0 0 1
21.939812 32.306273 18.031987 43.013988 0.974222 1.138219 0.012587 -0.007884 -98835.000000 0 0 1
21.094912 33.489173 17.477387 43.266373 1.008679 1.154967 0.022799 -0.001944 -533560.000000 0 0 1
21.634812 -34.319442 17.690887 44.258973 -1.008327 1.159593 0.021115 -0.006463 390199.000000 0 0 1
22.213112 -33.684342 16.549087 43.611117 -0.987807 1.181574 0.013662 -0.010198 -110719.000000 0 0 1
23.358212 -34.320942 15.746087 44.401265 -0.973222 1.208276 0.005560 -0.009437 -993937.000000 0 0 1
23.032712 33.611673 14.985787 43.414562 0.970032 1.218367 0.015549 -0.019219 317758.000000 0 0 1
22.204412 33.779073 13.830887 42.724175 0.989277 1.241132 -0.001637 -0.009415 21646.400000 0 0 1
21.721512 32.506973 13.140287 41.245539 0.981725 1.246558 0.008276 -0.009653 36394.800000 0 0 1
22.711212 31.919073 12.296587 41.058890 0.952377 1.266642 0.021004 -0.012837 185831.000000 0 0 1
22.201512 30.816973 11.521887 39.690639 0.946489 1.276264 0.027691 -0.008482 -1210030.000000 0 0 1
23.238812 30.277773 10.499687 39.585722 0.916176 1.302344 0.022773 -0.005590 1552550.000000 0 0 1
24.373012 29.514373 11.037187 39.836684 0.880520 1.290062 0.024691 0.000571 845163.000000 0 0 1
25.190112 30.255773 11.872387 41.120641 0.876507 1.277906 0.027023 -0.005466 -1506290.000000 0 0 1
26.544612 29.534973 12.159587 41.530550 0.838671 1.273657 0.030009 -0.007298 316392.000000 0 0 1
26.597012 28.481073 13.126787 41.120373 0.819592 1.245881 0.036222 -0.002303 -807148.000000 0 0 1
27.831712 28.352173 13.736187 42.037278 0.794661 1.237921 0.032375 0.002582 -728571.000000 0 0 1
27.887512 27.301573 14.868587 41.763191 0.774782 1.206790 0.017553 -0.004358 -227632.000000 0 0 1
29.015412 27.499973 15.680987 42.942240 0.758590 1.196987 0.015892 -0.013655 -168879.000000 0 0 1
29.388612 26.328173 16.404187 42.731260 0.730525 1.176789 0.016458 -0.012816 422872.000000 0 0 1
30.773212 26.526973 17.082587 44.073639 0.711428 1.172778 0.017784 -0.012781 857748.000000 0 0 1
31.893912 26.695073 16.204287 44.636616 0.696896 1.199282 0.023359 -0.009966 687922.000000 0 0 1
33.114612 26.832173 16.928487 45.859751 0.680979 1.192717 0.022845 -0.010979 857200.000000 0 0 1
34.400012 26.933373 16.066887 46.550105 0.664256 1.218395 0.034937 -0.013802 304402.000000 0 0 1
34.472812 28.169573 15.339187 47.087050 0.685113 1.238978 0.040515 -0.013757 -366002.000000 0 0 1
-35.049322 28.411773 14.948387 47.530391 -0.681185 1.250865 0.045749 -0.013899 -391357.000000 0 0 1
-35.014922 29.758773 14.204787 48.097872 -0.704429 1.270994 0.038121 -0.007395 -125706.000000 0 0 1
35.321412 30.809973 14.908287 49.184485 0.717284 1.262842 0.040034 -0.013254 -153495.000000 0 0 1
35.260212 31.951073 14.089987 49.625410 0.736203 1.282909 0.029686 0.001890 -493849.000000 0 0 1
34.343812 33.037873 14.577087 49.834626 0.766019 1.273947 0.030562 0.001010 -1244280.000000 0 0 1
34.248812 34.230873 13.849487 50.364095 0.785136 1.292220 0.013683 -0.006667 264677.000000 0 0 1
33.216512 -34.010142 14.282787 49.638941 -0.797203 1.278937 0.010304 -0.003520 751714.000000 0 0 1
31.787512 -34.441242 13.803687 48.858846 -0.825446 1.284374 0.027477 -0.002712 7758.830000 0 0 1
31.247512 33.507473 14.404187 48.027475 0.820284 1.266192 0.022877 -0.012018 541357.000000 0 0 1
30.055912 33.066773 13.719387 46.743886 0.833061 1.272909 0.025107 -0.006818 850249.000000 0 0 1
29.244912 31.897973 14.407687 45.610602 0.828762 1.249407 0.027887 -0.018495 341221.000000 0 0 1
28.385412 32.320773 15.467987 45.712390 0.850134 1.225606 0.025782 -0.017690 369965.000000 0 0 1
28.299712 31.293373 16.375987 45.258390 0.835591 1.200563 0.027893 -0.020978 98546.100000 0 0 1
27.329312 31.595773 17.575187 45.321864 0.857677 1.172568 0.017544 -0.019876 215371.000000 0 0 1
27.155412 30.529273 18.498887 44.851552 0.843820 1.145658 0.009741 -0.010054 227575.000000 0 0 1
28.249312 30.516373 19.415187 45.893596 0.823957 1.133990 0.010555 -0.009883 291519.000000 0 0 1
28.142112 29.310673 20.344287 45.442095 0.805735 1.106608 0.005595 -0.010091 892755.000000 0 0 1
26.946212 29.339473 21.172087 45.112751 0.827892 1.082282 0.010095 -0.011482 1033990.000000 0 0 1
26.986512 28.233173 22.083787 44.867333 0.807971 1.056179 -0.000497 -0.007672 409402.000000 0 0 1
25.744212 28.235573 23.035187 44.616498 0.831519 1.028280 0.009618 -0.014491 345056.000000 0 0 1
24.565012 27.705573 22.432787 43.292823 0.845409 1.026093 0.025846 -0.013923 586190.000000 0 0 1
23.471712 27.764373 23.373787 43.221703 0.868985 0.999422 0.036712 -0.019986 317264.000000 0 0 1
23.332912 26.665273 24.495657 43.075501 0.851949 0.965911 0.035804 -0.026360 -338337.000000 0 0 1
24.345912 26.582473 25.489277 44.148098 0.829286 0.955307 0.019632 -0.022036 212324.000000 0 0 1
23.944412 25.702073 26.499717 44.001891 0.820787 0.924492 0.047116 -0.024206 -506013.000000 0 0 1
24.965012 25.427373 27.630747 45.091699 0.794573 0.911238 0.050238 -0.022364 -121353.000000 0 0 1
25.370412 26.531673 28.469747 46.455505 0.807768 0.911148 0.057877 -0.026966 650336.000000 0 0 1
26.431512 27.223173 27.799117 47.037399 0.800152 0.938498 0.039851 -0.016212 -391670.000000 0 0 1
26.830912 28.594673 28.392227 48.411483 0.817210 0.944094 0.014355 -0.009473 -316765.000000 0 0 1
27.327012 28.502973 29.713767 49.417537 0.806458 0.925695 0.019508 0.000137 131366.000000 0 0 1
27.680112 29.766073 30.243707 50.664480 0.821694 0.931113 0.017634 0.000834 97126.300000 0 0 1
29.184812 30.105373 30.242447 51.698088 0.800923 0.945939 0.007962 0.008116 -27242.300000 0 0 1
29.757712 29.902973 28.956867 51.168441 0.787833 0.969257 -0.009560 0.009916 131413.000000 0 0 1
31.143912 30.234073 28.977067 52.189202 0.770576 0.982156 0.022912 0.003294 562857.000000 0 0 1
31.642512 30.844473 27.648187 52.125352 0.772628 1.011704 0.012857 0.004757 -96971.900000 0 0 1
31.417212 32.186173 27.517017 52.727385 0.797488 1.021751 0.011389 0.008771 215546.000000 0 0 1
31.991712 32.643273 26.283807 52.724676 0.795478 1.048917 0.006332 0.005182 58153.100000 0 0 1
31.649312 34.096473 25.979677 53.284069 0.822603 1.061493 0.010197 -0.004262 -345390.000000 0 0 1
32.359612 -34.113042 26.793147 54.117620 -0.811770 1.052857 0.035913 -0.011508 213532.000000 0 0 1
32.052912 -32.777642 26.433977 52.919922 -0.796577 1.047764 0.035943 -0.008239 -236711.000000 0 0 1
32.989212 -31.780842 27.131127 53.239159 -0.766744 1.036067 0.039797 -0.013874 -96424.200000 0 0 1
32.792812 -31.763642 28.564537 53.853786 -0.769457 1.011713 0.041980 -0.020220 302996.000000 0 0 1
33.812512 -31.022242 29.201007 54.390847 -0.742388 1.004069 0.044440 -0.030127 -474554.000000 0 0 1
33.495712 -30.514942 30.617127 54.685765 -0.738865 0.976563 0.041295 -0.026801 -395877.000000 0 0 1
33.432212 -31.473042 31.634637 55.758546 -0.755222 0.967512 0.042308 -0.019091 1050850.000000 0 0 1
32.341012 -32.439042 31.558027 55.625008 -0.786911 0.967530 0.042300 -0.024495 480828.000000 0 0 1
32.322212 -33.504542 32.692367 56.886471 -0.803357 0.958565 0.041015 -0.015874 -121448.000000 0 0 1
32.031012 -32.935642 33.976612 57.141512 -0.799322 0.934022 0.035833 -0.017719 344210.000000 0 0 1
32.626412 -33.589842 -33.808135 57.755954 -0.799947 2.196123 0.025155 -0.012298 90426.600000 0 0 1
31.934412 34.187373 -33.396145 57.479437 0.819458 2.190766 0.022233 -0.006418 57472.800000 0 0 1
32.216212 33.170373 -34.350124 57.602856 0.799990 2.209714 0.029378 -0.005941 101985.000000 0 0 1
31.358812 32.064873 -34.142356 56.366937 0.796530 2.221462 0.030759 -0.001294 68931.600000 0 0 1
31.447412 31.014473 33.599771 55.495782 0.778467 0.920469 0.023718 0.006625 324755.000000 0 0 1
32.702912 30.366673 33.377708 55.728688 0.748373 0.928629 0.027177 0.000760 270802.000000 0 0 1
32.698212 29.485873 32.319357 54.618043 0.733785 0.937588 0.028891 0.004667 -232261.000000 0 0 1
34.030012 28.748973 32.098907 54.907969 0.701475 0.946416 0.038508 0.004626 -147968.000000 0 0 1
34.230512 27.860173 33.196044 55.225850 0.683159 0.925924 0.029120 0.007073 921027.000000 0 0 1
-35.264622 27.381273 33.091143 55.572938 -0.660216 0.932965 0.014970 0.007275 768126.000000 0 0 1
-34.935822 26.029473 33.761241 55.116844 -0.640335 0.911527 0.001001 0.010007 -239622.000000 0 0 1
35.390412 24.857073 33.182592 54.510914 0.612313 0.916334 0.006854 0.006653 2523.630000 0 0 1
35.367412 23.829973 34.158849 54.640172 0.592913 0.895460 0.001976 -0.004212 -53839.100000 0 0 1
34.995112 22.442873 33.629613 53.472341 0.570245 0.890638 0.004623 -0.012468 -228400.000000 0 0 1
-34.884222 21.969173 32.718797 52.631485 -0.562025 0.899938 0.014442 -0.011315 -54315.300000 0 0 1
-35.238822 20.771773 32.058817 51.971231 -0.532631 0.906053 0.020666 -0.013858 -51999.400000 0 0 1
-34.105022 20.107573 31.235327 50.429284 -0.532721 0.902833 0.014026 -0.020077 -153690.000000 0 0 1
-33.637522 20.887173 30.190517 49.791809 -0.555681 0.919353 0.004479 -0.014684 -316664.000000 0 0 1
-32.701122 20.113973 29.463187 48.394366 -0.551438 0.916231 0.026597 -0.015424 -176742.000000 0 0 1
-33.244622 19.113473 28.372637 47.702581 -0.521785 0.933802 0.028938 -0.007735 -529644.000000 0 0 1
-34.032622 18.096873 28.900187 48.176104 -0.488724 0.927437 0.031979 -0.011049 -42741.700000 0 0 1
-34.410022 17.217873 27.868747 47.509702 -0.463947 0.943954 0.030718 -0.015594 24187.700000 0 0 1
-35.210822 15.994073 28.329717 47.939391 -0.426372 0.938562 0.033312 -0.020359 -136129.000000 0 0 1
-34.351222 15.061973 28.940737 47.375476 -0.413224 0.913625 0.038693 -0.013085 608509.000000 0 0 1
-35.101022 14.136973 29.747787 48.133840 -0.382876 0.904572 0.055470 -0.018007 211734.000000 0 0 1
-34.278122 12.868073 30.100807 47.398687 -0.359123 0.882716 0.056583 -0.012409 220485.000000 0 0 1
-33.195022 13.170473 30.970347 47.270850 -0.377711 0.856391 0.045213 -0.001620 291497.000000 0 0 1
-32.462522 12.022773 31.329397 46.689330 -0.354695 0.835215 0.060752 -0.005559 388981.000000 0 0 1
-30.932822 12.327173 31.440617 45.796409 -0.379225 0.814090 0.052362 -0.002771 -154543.000000 0 0 1
-30.320822 12.586073 30.190197 44.600555 -0.393453 0.827251 0.048359 -0.006414 620201.000000 0 0 1
-28.917122 12.797073 30.142217 43.686591 -0.416635 0.809356 0.033563 -0.002405 795512.000000 0 0 1
-27.921822 11.698373 30.607997 43.050314 -0.396751 0.779903 0.021180 -0.001779 -345153.000000 0 0 1
-27.589322 10.763573 29.573267 41.852160 -0.371974 0.786097 0.012706 0.000264 99087.300000 0 0 1
-26.334022 10.191873 29.883287 41.114059 -0.369270 0.757089 0.002601 -0.000061 -222519.000000 0 0 1
-25.857122 9.161073 28.823637 39.790929 -0.340497 0.760666 -0.003937 0.005409 -4287.860000 0 0 1
-26.573822 7.957273 28.808787 39.992905 -0.290943 0.766493 -0.005547 -0.001525 56268.900000 0 0 1
-27.915322 7.961173 28.357957 40.581020 -0.277815 0.797080 0.011253 -0.003585 13345.400000 0 0 1
-28.705022 6.649173 28.372897 40.904903 -0.227623 0.804279 0.011482 -0.004073 -55303.500000 0 0 1
-28.961722 6.163573 29.717747 41.951346 -0.209690 0.783587 0.008552 -0.005200 12230.200000 0 0 1
-29.855222 5.093073 29.574987 42.331472 -0.168966 0.797284 0.008743 -0.004953 -626920.000000 0 0 1
-30.625922 4.746773 30.839697 43.721458 -0.153768 0.787855 0.007149 -0.004831 432888.000000 0 0 1
-31.723422 5.663073 31.080557 44.771050 -0.176653 0.803473 0.020212 -0.012974 413145.000000 0 0 1
-32.610922 5.164273 32.042617 46.009469 -0.157056 0.800378 0.028970 -0.013558 645974.000000 0 0 1
-34.106622 5.583673 31.854617 47.001656 -0.162273 0.826120 0.026794 -0.010950 607423.000000 0 0 1
-34.390022 6.940473 32.185567 47.610445 -0.199142 0.828450 0.038606 -0.008684 -928527.000000 0 0 1
35.105712 7.218973 32.227647 48.199023 0.202808 0.838422 0.067225 -0.009585 -926266.000000 0 0 1
34.795712 8.574673 32.873589 48.630643 0.241615 0.828496 0.056454 -0.008474 -279933.000000 0 0 1
35.091312 8.679573 34.266175 49.808693 0.242476 0.812128 0.048261 -0.008108 280198.000000 0 0 1
35.119412 9.989173 -34.229125 50.047874 0.277116 2.323929 0.054283 -0.010526 -109842.000000 0 0 1
35.178812 10.202773 -32.669585 49.081027 0.282281 2.299128 0.048147 -0.008125 -833831.000000 0 0 1
34.007912 9.736073 -32.092765 47.762692 0.278830 2.307596 0.050955 -0.005446 -602955.000000 0 0 1
33.942412 10.017173 -30.716805 46.860999 0.286976 2.285624 0.033113 0.003642 -280166.000000 0 0 1
32.567312 9.498373 -30.311175 45.493035 0.283782 2.300008 0.006647 0.009520 -317634.000000 0 0 1
32.574512 8.069273 -30.152865 45.115488 0.242829 2.302783 0.007694 0.009205 -63512.700000 0 0 1
31.306012 7.555373 -29.808165 43.882534 0.236811 2.317566 0.001889 0.010772 -39224.800000 0 0 1
33.436877 6.707273 -20.266725 39.670548 0.197968 2.107000 -0.018167 0.017473 -258924.000000 0 0 1
33.327467 7.282173 -18.945625 39.021619 0.215123 2.077750 -0.012959 0.012559 355005.000000 0 0 1
34.054117 8.509473 -18.747925 39.794204 0.244867 2.061359 -0.012240 0.010761 -958758.000000 0 0 1
-35.346310 8.396473 -18.253525 40.657761 -0.233226 2.036392 -0.010418 0.003216 -723746.000000 0 0 1
-34.420749 7.911173 -19.157425 40.179367 -0.225914 2.067804 -0.006098 -0.001863 -290326.000000 0 0 1
-34.056538 8.820573 -20.179025 40.556668 -0.253429 2.091570 -0.004189 0.002592 -142961.000000 0 0 1
-32.910928 8.353973 -21.187225 40.022700 -0.248586 2.128666 0.001087 0.009091 551752.000000 0 0 1
-33.234788 7.254473 -22.045825 40.536365 -0.214909 2.145818 -0.007388 0.015050 113453.000000 0 0 1
-34.055338 7.529873 -23.160825 41.867515 -0.217606 2.156989 -0.011959 0.016270 2868.970000 0 0 1
-34.211497 6.283973 -24.093525 42.313269 -0.181655 2.176582 0.000798 0.012319 -223919.000000 0 0 1
-33.033498 5.981573 -24.793625 41.733859 -0.179135 2.206929 0.010335 0.001826 -275973.000000 0 0 1
-33.078918 4.702073 -25.428905 41.987540 -0.141201 2.221353 0.023875 0.014919 18507.000000 0 0 1
-31.796298 4.415373 -26.241965 41.462523 -0.137982 2.256100 0.032645 0.009227 -422756.000000 0 0 1
-30.638498 4.392473 -25.490955 40.097383 -0.142394 2.259745 0.026939 0.007993 -1480780.000000 0 0 1
-29.550438 4.078573 -26.280225 39.755671 -0.137154 2.293005 0.024371 0.009043 -387680.000000 0 0 1
-28.181108 4.416473 -25.644545 38.357825 -0.155453 2.303068 0.022341 0.000311 126360.000000 0 0 1
-27.964038 5.862773 -25.522265 38.311167 -0.206661 2.299876 0.019036 -0.000588 818519.000000 0 0 1
-26.575278 6.151973 -25.305665 37.208451 -0.227485 2.318703 0.012988 0.004219 605551.000000 0 0 1
-26.157948 7.636473 -25.426585 37.270164 -0.284043 2.321596 0.012067 -0.000089 140964.000000 0 0 1
-26.724318 8.559373 -24.434425 37.208778 -0.309961 2.287210 0.030357 -0.013399 10043.700000 0 0 1
-26.419718 9.904573 -24.609625 37.439761 -0.358677 2.288043 0.019911 -0.013526 -298933.000000 0 0 1
-25.091628 10.454273 -24.078425 36.313250 -0.394772 2.295716 0.037430 -0.011810 -309930.000000 0 0 1
-25.141928 10.997973 -22.788925 35.670815 -0.412356 2.263822 0.030631 -0.016858 1040700.000000 0 0 1
-23.802888 10.944873 -22.245225 34.368848 -0.430984 2.274767 0.052744 -0.012534 787707.000000 0 0 1
-23.766988 11.293573 -20.746225 33.508511 -0.443594 2.238434 0.065717 -0.024048 -1006160.000000 0 0 1
-23.947788 12.651973 -20.325725 33.863019 -0.486042 2.214590 0.063298 -0.029680 916336.000000 0 0 1
-25.204088 13.325473 -20.552125 35.145471 -0.486345 2.195397 0.054451 -0.022285 -111991.000000 0 0 1
-26.330718 12.790373 -19.698225 35.283429 -0.452190 2.163114 0.047642 -0.014631 -1403800.000000 0 0 1
-26.121398 12.943873 -18.327025 34.434737 -0.460063 2.132023 0.050007 -0.023406 725242.000000 0 0 1
-27.132578 12.235973 -17.587125 34.571705 -0.423660 2.104487 0.036070 -0.021366 -127923.000000 0 0 1
-26.625628 11.839273 -16.176125 33.328058 -0.418402 2.077572 0.047340 -0.020474 284453.000000 0 0 1
-25.880598 10.623573 -16.080025 32.268140 -0.389512 2.092462 0.067651 -0.020113 1228680.000000 0 0 1
-24.526588 10.748673 -16.555825 31.483056 -0.413036 2.124528 0.069121 -0.014868 -163635.000000 0 0 1
-23.747588 9.440273 -16.318725 30.321073 -0.378371 2.139093 0.059810 -0.013333 -1008320.000000 0 0 1
-22.397888 9.723473 -16.119025 29.258063 -0.409574 2.154270 0.061106 -0.009523 -581906.000000 0 0 1
-21.799688 8.561873 -15.609525 28.145858 -0.374243 2.158671 0.046094 -0.002574 -1137210.000000 0 0 1
-20.302588 8.654773 -15.432225 26.930535 -0.402962 2.181005 0.075262 -0.011735 -937639.000000 0 0 1
-19.647588 8.930373 -16.667025 27.268461 -0.426613 2.228397 0.078310 -0.020451 -428308.000000 0 0 1
-18.270288 8.942373 -16.437425 26.152598 -0.455171 2.250445 0.085460 -0.020580 -1134510.000000 0 0 1
-17.425188 9.371373 -17.619225 26.493336 -0.493433 2.298349 0.061054 -0.009767 -479991.000000 0 0 1
-17.307888 8.439873 -18.677125 26.825910 -0.453704 2.340935 0.086101 -0.015902 18566.300000 0 0 1
-16.490788 7.323573 -18.480825 25.828699 -0.417937 2.368158 0.089443 -0.020267 -745861.000000 0 0 1
-15.991588 6.595373 -19.767225 26.267337 -0.391174 2.422707 0.068226 -0.018458 582002.000000 0 0 1
-16.987988 5.820473 -20.459025 27.222074 -0.330088 2.421220 0.071974 -0.007746 1043280.000000 0 0 1
-18.068988 6.517273 -21.102825 28.535809 -0.346165 2.403155 0.061891 -0.013333 335426.000000 0 0 1
-19.016888 5.686473 -21.982425 29.617647 -0.290560 2.407154 0.058885 -0.004807 -385179.000000 0 0 1
-19.758088 4.858373 -21.149525 29.347712 -0.241109 2.375540 0.054614 -0.011424 36109.000000 0 0 1
-20.467788 3.839573 -21.851525 30.185457 -0.185436 2.380248 0.033500 -0.004261 -84186.200000 0 0 1
-21.305988 2.985973 -20.855025 29.963198 -0.139240 2.340638 0.050674 -0.000828 -51177.800000 0 0 1
-22.101388 1.994573 -21.470925 30.877990 -0.090003 2.339699 0.047981 0.000609 452167.000000 0 0 1
-22.738888 1.263773 -20.418525 30.587094 -0.055520 2.301715 0.058785 -0.002414 -215188.000000 0 0 1
-23.278688 -0.146127 -20.770425 31.198224 0.006277 2.299304 0.045554 0.010828 344622.000000 0 0 1
-22.242588 -1.123227 -20.920125 30.555621 0.050456 2.324930 0.051372 -0.008972 422771.000000 0 0 1
-22.723688 -2.435327 -21.191725 31.167066 0.106764 2.318477 0.038874 -0.008044 -407250.000000 0 0 1
-23.155088 -2.640627 -22.668625 32.511499 0.113550 2.342350 0.039774 -0.012175 -259623.000000 0 0 1
-22.229588 -2.427627 -23.683025 32.571976 0.108776 2.384882 0.027281 -0.011803 -742904.000000 0 0 1
-21.164888 -3.315227 -23.781625 32.007950 0.155376 2.408325 0.020585 -0.023267 -583758.000000 0 0 1
-20.287388 -3.111627 -24.989225 32.337620 0.152191 2.453975 0.031761 -0.025103 -359170.000000 0 0 1
-20.947288 -3.565027 -26.144325 33.690117 0.168575 2.459133 0.020816 -0.010873 -26624.200000 0 0 1
-20.269088 -3.205127 -27.305795 34.157213 0.156830 2.497117 0.013343 -0.017732 -134777.000000 0 0 1
-21.107688 -3.511927 -28.591315 35.711782 0.164871 2.499114 0.006076 -0.005794 187988.000000 0 0 1
-21.556088 -4.868127 -28.592835 36.137429 0.222109 2.483606 0.014940 0.002907 393073.000000 0 0 1
-22.323788 -5.065027 -29.796655 37.574548 0.223112 2.486516 -0.017012 -0.000930 -294236.000000 0 0 1
-21.948888 -6.380227 -30.568255 38.169087 0.282890 2.499533 0.008716 0.004958 -486946.000000 0 0 1
-20.629488 -6.300127 -31.013725 37.777222 0.296398 2.533893 -0.004489 0.001229 -466922.000000 0 0 1
-20.209788 -7.580327 -31.457085 38.150296 0.358843 2.540215 -0.004807 0.001243 317181.000000 0 0 1
-18.794088 -7.523927 -32.132445 37.977904 0.380795 2.579389 0.009871 -0.005251 273013.000000 0 0 1
-18.716888 -6.866627 -33.406655 38.903432 0.351622 2.603538 0.016119 -0.014498 253519.000000 0 0 1
-19.123688 -7.773727 -34.428973 40.143498 0.386095 2.601474 0.008394 -0.013657 -485937.000000 0 0 1
-19.000788 -7.164227 33.056319 38.795313 0.360566 0.550869 0.009870 -0.010842 -133385.000000 0 0 1
-17.709588 -6.917527 32.540917 37.688101 0.372385 0.528773 0.007496 -0.012273 67521.700000 0 0 1
-17.207688 -5.651327 32.914069 37.568311 0.317321 0.503058 0.002857 -0.010429 -1528040.000000 0 0 1
-15.899688 -5.339627 32.277647 36.375241 0.323998 0.479226 -0.001352 -0.011722 -1228990.000000 0 0 1
-15.903188 -5.362127 30.846577 35.116593 0.325202 0.498283 0.000054 -0.009047 7147.760000 0 0 1
-14.622588 -5.027527 30.368257 34.078250 0.331158 0.470960 -0.006755 -0.004290 -136856.000000 0 0 1
-14.663488 -5.049427 28.794917 32.705685 0.331636 0.494038 -0.007579 0.005974 94850.300000 0 0 1
-15.402988 -3.917127 28.358727 32.508665 0.249031 0.510821 -0.021907 -0.002475 -57498.100000 0 0 1
-16.024688 -4.068927 27.113717 31.756896 0.248661 0.547574 -0.012017 0.003470 -338404.000000 0 0 1
-15.191688 -3.705827 25.872467 30.230863 0.239265 0.543644 -0.005211 0.001379 66944.900000 0 0 1
-14.784488 -2.362827 25.774277 29.807338 0.158478 0.526252 -0.009409 0.013074 -35880.100000 0 0 1
-14.079688 -2.125327 24.555937 28.385712 0.149819 0.525485 -0.011245 0.018711 102256.000000 0 0 1
-13.800488 -0.607127 24.341777 27.988286 0.043965 0.516176 -0.002741 0.010340 -169725.000000 0 0 1
-14.946588 0.171673 24.087807 28.348764 -0.011485 0.555389 -0.006613 0.009256 -678102.000000 0 0 1
-14.697788 1.568973 24.203127 28.359795 -0.106346 0.548263 -0.008962 0.009402 -657905.000000 0 0 1
-15.655188 2.566873 23.521287 28.371195 -0.162517 0.593380 -0.007315 0.007387 -251026.000000 0 0 1
-15.220088 3.004773 22.206987 27.089297 -0.194915 0.609787 -0.007212 0.005617 403179.000000 0 0 1
-15.941088 4.134673 21.741887 27.274960 -0.253780 0.648257 -0.012032 0.002252 -376167.000000 0 0 1
-15.125188 4.920573 20.701487 26.106223 -0.314524 0.655126 -0.009964 0.003873 -146954.000000 0 0 1
-14.099188 5.677073 21.274687 26.146291 -0.382791 0.620343 0.000350 -0.000808 266152.000000 0 0 1
-12.929988 5.657173 20.465287 24.859931 -0.412430 0.603730 0.001207 -0.003433 574523.000000 0 1 0
-11.864688 6.765073 20.745587 24.837802 -0.518209 0.582223 0.004869 -0.000491 325393.000000 0 1 0
-12.186988 8.044373 20.226887 24.947175 -0.583428 0.625298 0.011324 -0.001503 789777.000000 0 1 0
-11.066988 8.898173 20.439987 24.888728 -0.677192 0.607190 -0.003216 -0.000758 401093.000000 0 1 0
-11.562088 10.340873 20.537887 25.737528 -0.729700 0.646870 -0.000539 0.004999 -101800.000000 0 0 1
-12.087588 10.876173 19.327487 25.257725 -0.732694 0.699427 0.007903 0.004921 408727.000000 0 0 1
-12.553488 12.176273 19.448987 26.155588 -0.770146 0.732375 -0.003806 0.008385 -669247.000000 0 0 1
-13.183188 12.783973 18.198987 25.854004 -0.770026 0.789904 0.010768 0.006709 -368394.000000 0 0 1
-12.326388 13.401573 17.260787 25.089375 -0.827164 0.812105 0.010295 0.003997 210222.000000 0 0 1
-11.885388 14.752873 17.583187 25.847208 -0.892631 0.822660 0.010508 0.001802 -264420.000000 0 0 1
-12.949588 15.886373 17.394687 26.882035 -0.886893 0.867055 0.011566 0.008874 115270.000000 0 0 1
-13.128288 16.352473 16.047387 26.405945 -0.894331 0.917612 0.011722 -0.000298 90384.700000 0 0 1
-13.854888 15.475273 15.222087 25.751775 -0.840588 0.938364 0.037591 0.000580 -689867.000000 0 0 1
-14.137088 16.036073 13.802087 25.446227 -0.848251 0.997503 0.024946 -0.004826 8321.100000 0 0 1
-15.142988 17.027373 13.831387 26.656121 -0.843907 1.025253 0.017705 -0.005028 -108153.000000 0 0 1
-15.335088 17.605373 12.578987 26.520652 -0.854210 1.076617 0.002867 -0.002273 -131041.000000 0 0 1
-16.531888 18.557973 12.620787 27.874467 -0.843074 1.100924 0.006528 -0.000510 -827130.000000 0 0 1
-17.769888 17.993573 12.886587 28.383123 -0.791653 1.099521 0.016111 -0.005001 -746920.000000 0 0 1
-18.721588 19.003973 13.171887 29.751427 -0.792883 1.112154 0.017981 -0.007409 -540849.000000 0 0 1
-20.063188 18.445373 13.614887 30.465200 -0.743411 1.107500 0.023647 -0.001066 -561693.000000 0 0 1
-20.544588 17.766273 12.459787 29.882551 -0.713005 1.140700 0.020511 -0.000274 -1230010.000000 0 0 1
-21.768888 17.184573 12.723787 30.513747 -0.668250 1.140670 0.043676 -0.007809 -511339.000000 0 0 1
-22.406088 16.565473 11.395287 30.104821 -0.636637 1.182599 0.043641 -0.002418 127095.000000 0 0 1
-21.929288 15.283373 11.041187 28.920286 -0.608669 1.179075 0.040539 -0.001981 156343.000000 0 0 1
-22.706488 14.784573 9.973587 28.872835 -0.577160 1.218098 0.040577 -0.010995 30914.100000 0 0 1
-22.044388 13.502473 9.421887 27.514428 -0.549569 1.221290 0.056952 -0.009919 -416373.000000 0 0 1
-22.120288 12.308773 10.190487 27.288442 -0.507780 1.188086 0.051183 -0.014087 620887.000000 0 0 1
-23.428188 11.830273 10.512387 28.272701 -0.467607 1.189826 0.052965 -0.019393 833496.000000 0 0 1
-24.354288 11.234773 9.415787 28.425490 -0.432216 1.233174 0.069280 -0.010544 -73696.900000 0 0 1
-24.666488 12.230473 8.409087 28.787720 -0.460309 1.274367 0.076727 -0.022129 98981.300000 0 0 1
-25.770648 11.733673 7.672787 29.337297 -0.427262 1.306182 0.078558 -0.020826 -231248.000000 0 0 1
-26.280088 12.628173 6.536187 29.880353 -0.447945 1.350268 0.058696 -0.021028 123841.000000 0 0 1
-25.471188 12.674773 5.279787 28.936265 -0.461736 1.387306 0.053068 -0.030393 1005160.000000 0 0 1
-24.152588 13.173173 5.294687 28.016311 -0.499316 1.380667 0.054699 -0.037531 -277475.000000 0 0 1
-23.947188 14.628573 5.735587 28.641926 -0.548372 1.369182 0.055030 -0.022681 -1150660.000000 0 0 1
-22.643688 15.022573 6.040487 27.837057 -0.585761 1.352062 0.050422 -0.014443 -424833.000000 0 0 1
-22.613188 16.393373 6.434587 28.661871 -0.627274 1.344367 0.046513 -0.011160 277294.000000 0 0 1
-21.256688 17.155273 6.609887 28.104106 -0.679027 1.333379 0.036657 -0.011335 342259.000000 0 0 1
-20.673488 17.619873 5.416187 27.698160 -0.705824 1.373985 0.046249 -0.028247 96002.500000 0 0 1
-19.450688 18.260773 5.697787 27.280943 -0.753855 1.360391 0.050212 -0.020005 -467108.000000 0 0 1
-18.843188 18.863373 4.467987 27.034339 -0.785933 1.404764 0.051290 -0.017636 606896.000000 0 0 1
-17.489488 19.306373 4.728387 26.475949 -0.834736 1.391241 0.037318 -0.017943 1196250.000000 0 0 1
-17.009688 20.280373 3.787187 26.738844 -0.872884 1.428682 0.037903 -0.019481 131997.000000 0 0 1
-17.190288 21.771973 4.122687 28.044988 -0.902453 1.423259 0.032837 -0.016296 -541006.000000 0 0 1
-16.401988 22.101173 5.201887 28.009760 -0.932350 1.383995 0.037283 -0.020275 -342906.000000 0 0 1
-16.567588 23.442473 5.524487 29.232763 -0.955565 1.380670 0.020170 -0.021732 -292039.000000 0 0 1
-16.013488 23.907573 6.905887 29.592146 -0.980622 1.335255 0.015812 -0.005284 -400817.000000 0 0 1
-16.701188 23.391273 7.980987 29.829138 -0.950741 1.299940 0.011813 -0.009051 -581227.000000 0 0 1
-15.981688 23.371973 9.186087 29.766553 -0.971028 1.257071 0.014606 -0.010403 -198643.000000 0 0 1
-16.691588 22.792573 10.432287 30.115496 -0.938703 1.217056 0.008309 -0.004358 448903.000000 0 0 1
-17.781388 23.598373 10.890387 31.490657 -0.925059 1.217674 0.006720 -0.004978 -39220.200000 0 0 1
-18.694588 22.823173 11.609387 31.704301 -0.884514 1.195899 0.005826 -0.000609 324884.000000 0 0 1
-19.892888 23.679073 12.186087 33.240430 -0.872075 1.195440 0.003015 -0.004546 487368.000000 0 0 1
-20.754288 24.307973 11.254187 33.886203 -0.864097 1.232249 0.000348 0.001358 172565.000000 0 0 1
-20.220888 25.471273 10.656187 34.223155 -0.899804 1.254158 -0.000711 -0.002719 -699989.000000 0 0 1
-21.321288 26.392573 10.161387 35.417778 -0.891286 1.279806 0.007322 -0.007905 -522593.000000 0 0 1
-21.975688 26.993173 11.227287 36.573408 -0.887505 1.258779 0.006247 -0.018359 -315068.000000 0 0 1
-22.867588 27.939073 10.707087 37.658466 -0.884888 1.282498 0.016293 -0.017624 -38908.900000 0 0 1
-23.709188 28.692673 11.772287 39.038209 -0.880214 1.264470 0.013524 -0.012309 236292.000000 0 0 1
-22.867188 29.628273 12.393087 39.425010 -0.913487 1.251029 0.015072 -0.017464 585323.000000 0 0 1
-23.519188 30.088773 13.579487 40.532566 -0.907339 1.229163 0.019927 -0.009644 157962.000000 0 0 1
8.061512 -32.972642 28.169487 44.110124 -1.331009 0.878096 0.005322 -0.023234 675250.000000 0 0 1
9.417812 -32.596942 27.880557 43.915615 -1.289538 0.882960 0.012508 -0.029746 1004160.000000 0 0 1
9.633212 -32.581042 26.464157 43.065934 -1.283317 0.909040 0.007988 -0.024148 -159995.000000 0 0 1
11.110012 -32.689342 26.027297 43.237086 -1.243177 0.924834 0.011512 -0.015687 -193888.000000 0 0 1
11.666512 -33.971142 26.092707 44.395668 -1.239992 0.942545 0.020618 -0.030263 900071.000000 0 0 1
13.079312 -33.788542 25.861307 44.514505 -1.201466 0.950884 0.025100 -0.022205 784677.000000 0 0 1
13.892012 34.004273 25.717837 44.840670 1.182952 0.959978 0.030824 -0.022965 -450271.000000 0 0 1
13.918912 33.396173 24.431697 43.657168 1.175907 0.976862 0.035283 -0.025096 630439.000000 0 0 1
14.984312 32.433773 24.478497 43.309076 1.138010 0.970115 0.040135 -0.021591 290222.000000 0 0 1
15.515412 31.980273 23.082187 42.382228 1.119095 0.994861 0.051514 -0.030398 -566861.000000 0 0 1
14.557012 31.329173 22.307787 41.122513 1.135829 0.997420 0.033406 -0.026683 -237200.000000 0 0 1
14.566112 29.896973 22.354387 40.071427 1.117433 0.978987 0.043715 -0.025803 -31214.200000 0 0 1
14.193812 29.210673 23.714387 40.213180 1.118483 0.940088 0.044624 -0.019765 5017.230000 0 0 1
15.232012 29.147073 24.680817 41.118229 1.089239 0.926995 0.042845 -0.023277 174007.000000 0 0 1
14.800712 28.464073 25.804157 41.171823 1.091294 0.893430 0.028459 -0.012922 -61901.100000 0 0 1
15.576412 28.751573 27.122427 42.484157 1.074302 0.878362 0.027971 -0.019461 234530.000000 0 0 1
15.345312 30.078373 27.533077 43.568996 1.099040 0.886740 0.020429 -0.019475 332894.000000 0 0 1
16.247012 30.346773 28.588107 44.745635 1.079248 0.877725 0.030011 -0.022900 258175.000000 0 0 1
15.972812 31.712273 29.224447 45.987686 1.104210 0.882161 0.027275 -0.026966 -36787.000000 0 0 1
16.662512 32.648773 28.437937 46.392865 1.098898 0.910968 0.022916 -0.017259 109603.000000 0 0 1
16.348112 33.906573 28.890587 47.450843 1.121529 0.916182 0.023863 -0.006860 -360436.000000 0 0 1
16.993212 -34.076042 28.103247 47.325874 -1.108201 0.934993 0.016213 -0.004952 -251324.000000 0 0 1
16.441112 -33.900842 26.782637 46.226474 -1.119240 0.952830 0.033688 -0.011539 -330438.000000 0 0 1
16.528112 -32.608942 26.168167 44.958809 -1.101677 0.949552 0.018804 -0.012758 -121733.000000 0 0 1
17.919212 -31.918142 25.933097 44.859686 -1.059234 0.954406 0.027027 0.007922 415369.000000 0 0 1
18.370612 -31.247842 27.086027 45.249971 -1.039321 0.929061 -0.005547 0.006575 -30076.600000 0 0 1
19.403712 -30.357842 26.714857 44.852939 -1.002075 0.932772 0.001946 0.009341 -143946.000000 0 0 1
19.875412 -29.414642 27.839727 45.114339 -0.976567 0.905754 -0.009130 0.015842 -365134.000000 0 0 1
18.881612 -28.551342 28.343577 44.441566 -0.986503 0.879194 0.001420 0.017387 257502.000000 0 0 1
19.388712 -27.568342 29.286077 44.649859 -0.957862 0.855415 0.021010 0.017160 -540406.000000 0 0 1
18.231212 -26.864542 29.964317 44.180776 -0.974554 0.825458 0.019793 0.007944 -294022.000000 0 0 1
17.534212 -26.069342 29.052797 42.791637 -0.978698 0.824483 0.029718 0.011947 -578964.000000 0 0 1
16.338912 -25.539642 29.511787 42.310506 -1.001663 0.798887 0.019994 0.003753 -1119170.000000 0 0 1
15.514812 -24.946742 28.420187 40.874886 -1.014417 0.801963 0.021519 0.001114 -1099350.000000 0 0 1
14.927612 -25.941042 27.572017 40.693825 -1.048629 0.826373 0.019682 0.007021 869677.000000 0 0 1
14.053712 -25.412342 26.542997 39.342402 -1.065632 0.830284 0.035352 0.001118 664600.000000 0 0 1
12.600212 -24.971542 27.008607 38.881976 -1.103489 0.802890 0.017245 0.007654 1096850.000000 0 0 1
11.763812 -26.110142 27.356057 39.604048 -1.147489 0.808286 0.008633 0.012170 523026.000000 0 0 1
11.449712 -27.008942 26.264537 39.375179 -1.169838 0.840577 0.013001 0.005773 -825198.000000 0 0 1
10.738812 -28.348242 26.665687 40.373305 -1.208683 0.849341 0.016554 0.004444 -634220.000000 0 0 1
9.394512 -28.112342 26.966157 40.071614 -1.248286 0.832608 0.009372 -0.000343 -685008.000000 0 0 1
8.711012 -29.329642 26.958107 40.778047 -1.282091 0.848521 0.001018 -0.009306 -92595.600000 0 0 1
7.172612 -29.123942 27.015157 40.366682 -1.329323 0.837606 -0.004675 0.005060 433935.000000 0 0 1
6.357912 -28.907042 25.834277 39.286766 -1.354300 0.853191 -0.005489 0.003372 360842.000000 0 0 1
6.745412 -27.885842 24.933337 38.010420 -1.333461 0.855342 0.010262 0.008875 -495089.000000 0 0 1
5.554512 -27.441242 24.021197 36.890273 -1.371080 0.861694 0.005378 0.013934 -531309.000000 0 0 1
5.076812 -28.345342 23.049187 36.884921 -1.393570 0.895800 0.002501 0.011803 2902.630000 0 0 1
4.187212 -29.330142 23.529387 37.834138 -1.428993 0.899618 0.010701 0.018564 -582268.000000 0 0 1
2.787712 -28.784142 23.861617 37.492331 -1.474249 0.880922 0.007828 0.005571 -1355850.000000 0 0 1
2.058012 -28.405142 22.713087 36.427624 -1.498471 0.897569 0.013176 0.003486 2013540.000000 0 0 1
0.739912 -27.754642 22.949087 36.021219 -1.544144 0.880067 0.020958 0.000479 2102650.000000 0 0 1
0.642512 -26.405142 23.706087 35.491166 -1.546468 0.839355 0.023201 0.000833 -607868.000000 0 0 1
0.779712 -26.667542 25.107307 36.635264 -1.541566 0.815737 0.016970 0.002601 11271.800000 0 0 1
1.021612 -25.476942 25.855857 36.313132 -1.530718 0.778418 0.010026 0.004281 18333.600000 0 0 1
2.488012 -25.088142 26.182137 36.347068 -1.471949 0.766508 0.008105 0.012981 88668.700000 0 0 1
3.115912 -24.460842 25.061297 35.158360 -1.444095 0.777297 0.014105 0.008951 -1073230.000000 0 0 1
4.231512 -23.770342 25.441367 35.074178 -1.394625 0.759241 0.015945 0.004599 -1089030.000000 0 0 1
4.147112 -22.264142 25.876727 34.387433 -1.386638 0.718938 0.008234 0.017015 -474507.000000 0 0 1
3.913712 -21.410042 24.790197 32.988799 -1.389995 0.720504 0.010029 0.008978 175596.000000 0 0 1
3.442612 -20.147842 25.173477 32.426703 -1.401563 0.681991 0.006218 0.013828 -134810.000000 0 0 1
3.412212 -19.122542 23.993867 30.871029 -1.394216 0.680546 0.010907 0.008903 763327.000000 0 0 1
4.729312 -18.673342 23.625687 30.483326 -1.322747 0.684024 0.020574 0.007817 669532.000000 0 0 1
4.680112 -17.944742 22.386287 29.069968 -1.315673 0.691825 0.031282 0.003215 -1240490.000000 0 0 1
6.012512 -17.456342 21.989787 28.712800 -1.239091 0.698429 0.029801 0.004880 -930306.000000 0 0 1
7.010112 -18.456642 21.742787 29.368999 -1.207811 0.737233 0.027800 0.003167 639298.000000 0 0 1
8.237712 -17.906942 21.246387 28.981501 -1.139634 0.747925 0.025816 0.000070 830485.000000 0 0 1
9.389412 -17.958642 22.285287 30.121552 -1.089048 0.737956 0.030124 0.007302 -130224.000000 0 0 1
9.282212 -16.935442 23.297087 30.260914 -1.069418 0.692153 0.021987 0.019312 58683.100000 0 0 1
10.269612 -17.078842 24.299987 31.426758 -1.029417 0.686884 0.030800 0.018045 -67455.600000 0 0 1
10.144512 -16.219542 25.584127 31.945770 -1.011873 0.642064 0.040859 0.008092 -178005.000000 0 0 1
10.533012 -14.892842 25.345997 31.227562 -0.955219 0.623817 0.035508 0.016664 70155.500000 0 0 1
10.281112 -14.046242 26.422667 31.641041 -0.938949 0.582526 0.028019 0.013054 -26896.900000 0 0 1
10.855012 -12.611242 26.362277 31.174418 -0.860100 0.563037 0.022978 0.007534 -71051.000000 0 0 1
9.971612 -11.775042 25.683427 29.962027 -0.868138 0.540990 0.021972 0.007274 283536.000000 0 0 1
10.486912 -10.458642 25.818787 29.765219 -0.784048 0.520814 0.017748 0.002717 -177362.000000 0 0 1
9.585612 -9.522442 25.059737 28.470182 -0.782092 0.494492 0.008347 0.003248 175290.000000 0 0 1
8.322012 -9.253742 25.693487 28.548956 -0.838361 0.451073 0.001831 0.006352 450912.000000 0 0 1
7.486512 -8.666842 24.730457 27.253578 -0.858339 0.433692 -0.003884 0.006877 -494447.000000 0 0 1
5.985112 -8.705742 25.004027 27.144297 -0.968516 0.399766 -0.005394 0.007823 -1994650.000000 0 0 1
5.529912 -7.824042 26.026757 27.734232 -0.955531 0.352726 0.000355 0.011795 518873.000000 0 0 1
4.215112 -8.095842 26.544857 28.070256 -1.090764 0.331185 0.000160 0.015850 1119890.000000 0 0 1
3.103112 -8.106742 25.463587 26.902469 -1.205221 0.328539 0.001104 0.014184 -1529950.000000 0 0 1
2.908612 -6.750442 25.097247 26.151487 -1.163958 0.284909 0.006125 0.012368 431943.000000 0 0 1
1.749212 -6.588442 24.269827 25.208963 -1.311286 0.273816 0.016857 0.000272 317271.000000 0 0 1
1.876612 -5.348542 23.410187 24.086623 -1.233352 0.237554 0.013229 -0.006051 -317558.000000 0 1 0
1.733612 -4.085942 24.005147 24.412034 -1.169530 0.182833 0.017779 0.001129 16063.700000 0 1 0
1.964212 -3.025942 23.058587 23.339085 -0.995037 0.155194 0.012918 -0.016017 -920597.000000 0 1 0
0.759312 -2.588942 22.227187 22.390333 -1.285506 0.120792 -0.000757 -0.016264 374582.000000 0 1 0
-0.196688 -1.726942 22.908287 22.974130 1.457391 0.075727 0.010338 -0.009978 1089910.000000 0 1 0
-1.180688 -2.465942 23.676587 23.833918 1.124254 0.114965 0.026010 -0.006307 -144122.000000 0 1 0
-2.078488 -1.479942 24.395537 24.528607 0.618753 0.104211 0.025814 -0.001790 -206909.000000 0 1 0
-1.421588 -0.798942 25.463157 25.515321 0.512014 0.063955 0.031320 -0.004226 116699.000000 0 0 1
-2.165288 0.357058 25.807837 25.900973 -0.163430 0.084829 0.029236 -0.002267 86021.200000 0 0 1
-1.620388 1.158058 27.040837 27.114085 -0.620510 0.073521 0.045981 -0.011018 -575178.000000 0 0 1
-1.894088 0.584058 28.316797 28.386083 -0.299108 0.069883 0.052281 -0.012394 95056.500000 0 0 1
-1.142388 -0.580942 28.670747 28.699378 0.470450 0.044671 0.052505 -0.012685 -479441.000000 0 0 1
0.314412 -0.283942 29.034197 29.037288 -0.734518 0.014590 0.057143 -0.014199 -632455.000000 0 0 1
1.179412 0.175058 27.970367 27.995769 0.147353 0.042603 0.045649 -0.016491 446439.000000 0 0 1
1.787912 -0.776942 27.067937 27.138045 -0.409934 0.071896 0.025066 -0.007451 -378275.000000 0 0 1
2.950112 -1.545942 27.656077 27.855910 -0.482685 0.119853 0.014221 -0.006540 -1169460.000000 0 0 1
2.572512 -2.584942 28.550237 28.782213 -0.787808 0.127048 0.020850 -0.005623 194998.000000 0 0 1
3.662112 -3.393942 28.959727 29.386999 -0.747411 0.170733 0.013512 0.003802 263683.000000 0 0 1
4.294712 -4.325442 27.859037 28.518063 -0.788963 0.215400 0.010170 0.008164 155814.000000 0 0 1
5.046712 -3.655942 26.847317 27.561089 -0.626928 0.228081 0.004270 0.007289 -43035.500000 0 0 1
5.452512 -4.456342 25.803017 26.746674 -0.685201 0.266423 0.004286 0.006979 -1033110.000000 0 0 1
6.411912 -3.792942 24.785737 25.881109 -0.534180 0.291977 0.012907 0.001830 -534841.000000 0 0 1
7.705812 -3.641942 25.288517 26.686183 -0.441507 0.325078 0.010322 0.009696 -37727.400000 0 0 1
8.509012 -4.865242 25.376867 27.204030 -0.519407 0.368594 0.012350 0.004272 -501727.000000 0 0 1
9.229812 -5.392042 24.173067 26.431056 -0.528720 0.416351 0.018578 -0.014350 -316024.000000 0 0 1
8.333312 -5.843942 23.157487 25.295552 -0.611581 0.414105 0.016049 -0.016324 152707.000000 0 0 1
8.968812 -5.794042 21.915487 24.378250 -0.573573 0.453368 0.015995 -0.015530 148408.000000 0 1 0
9.248612 -4.373942 21.316087 23.644106 -0.441758 0.447483 0.026768 -0.024045 -450114.000000 0 1 0
8.051812 -3.848942 20.865387 22.693841 -0.445911 0.404169 0.026662 -0.030269 -904032.000000 0 1 0
8.103912 -2.546942 20.390387 22.089097 -0.304511 0.394738 0.019477 -0.019853 -626078.000000 0 1 0
6.777012 -1.844942 20.094087 21.286241 -0.265794 0.336263 0.028491 -0.015608 -354941.000000 0 1 0
6.127012 -1.374942 21.235087 22.144066 -0.220749 0.287515 0.028544 -0.012758 348587.000000 0 1 0
4.911312 -0.675942 20.961187 21.539481 -0.136770 0.232246 0.007626 -0.010062 415226.000000 0 1 0
4.357212 -0.134942 22.339887 22.761240 -0.030960 0.192714 0.001207 -0.010209 -906129.000000 0 1 0
3.168312 0.546058 22.237387 22.468595 0.170673 0.143583 0.005633 -0.007286 -669834.000000 0 1 0
2.590412 0.703058 23.549387 23.701860 0.265024 0.113489 0.023361 -0.010586 286662.000000 0 1 0
1.116212 1.175058 23.575887 23.631529 0.811075 0.068636 0.021726 -0.007386 27084.900000 0 1 0
0.953812 2.537058 23.125487 23.283784 1.211191 0.116673 0.026206 -0.007990 167742.000000 0 1 0
-0.413388 2.875058 23.141287 23.322865 -1.427991 0.124864 0.009615 -0.001266 -45319.500000 0 1 0
-0.776888 4.301058 22.705587 23.122421 -1.392096 0.190167 0.011524 0.001389 -105199.000000 0 1 0
-0.703188 5.297058 23.746087 24.339884 -1.438817 0.221341 0.016341 0.004321 512243.000000 0 1 0
-1.840588 6.161058 23.601887 24.462123 -1.280491 0.265985 0.014749 0.010220 596308.000000 0 1 0
-1.739688 7.533058 24.384157 25.580473 -1.343835 0.307037 0.026624 0.009608 228401.000000 0 0 1
-0.654088 8.327058 23.922177 25.338474 -1.492408 0.335928 0.012887 0.007237 259870.000000 0 0 1
-0.636288 9.596058 24.469287 26.291352 -1.504586 0.374482 0.013294 0.008171 -746633.000000 0 0 1
0.289512 10.592058 23.778987 26.032974 1.543470 0.419192 0.009993 0.002088 491212.000000 0 0 1
1.697412 10.398058 23.941647 26.157280 1.408980 0.414555 0.004730 0.006391 423826.000000 0 0 1
2.149512 11.039058 25.155427 27.554976 1.378484 0.420420 0.009276 0.000328 162255.000000 0 0 1
3.552412 11.704058 24.953247 27.789731 1.276114 0.455752 0.009020 -0.001469 364742.000000 0 0 1
4.696512 10.984058 24.612997 27.358845 1.166746 0.451862 0.018024 -0.004191 -146931.000000 0 0 1
4.736112 10.578058 23.269387 25.995970 1.149832 0.462107 0.016541 -0.009546 358517.000000 0 0 1
6.175212 10.218058 22.716487 25.662828 1.027190 0.483893 0.025563 -0.010344 1506910.000000 0 0 1
7.019912 11.396058 22.478287 26.161474 1.018699 0.537066 0.026253 -0.009574 57129.700000 0 0 1
8.196012 10.915058 21.909387 25.813453 0.926726 0.557163 0.032429 -0.015481 -569829.000000 0 0 1
9.021712 12.011058 21.172187 25.959937 0.926581 0.617080 0.036952 -0.025036 -368088.000000 0 0 1
8.483312 12.380058 19.901587 24.926003 0.970045 0.646119 0.030115 -0.020463 98267.000000 0 1 0
9.185012 13.341058 19.159887 25.088833 0.967846 0.701799 0.042275 -0.025919 -470901.000000 0 0 1
10.561212 12.987058 18.579187 25.007780 0.888052 0.733350 0.044841 -0.025854 -744749.000000 0 0 1
11.536612 13.008058 19.543387 26.158115 0.845276 0.727070 0.041548 -0.031473 -1014930.000000 0 0 1
12.790812 12.640058 19.034187 26.185420 0.779470 0.756999 0.030652 -0.028108 328664.000000 0 0 1
13.939312 12.451058 20.081587 27.433618 0.729064 0.749534 0.031535 -0.021877 501340.000000 0 0 1
14.504312 13.673058 20.564887 28.639870 0.755906 0.769798 0.033041 -0.025397 -641661.000000 0 0 1
15.683412 13.350058 21.225987 29.575936 0.705203 0.770335 0.034065 -0.017662 -639237.000000 0 0 1
16.483312 14.566058 21.622687 30.844939 0.723728 0.793980 0.042030 -0.008892 -503221.000000 0 0 1
15.920012 15.296058 22.754587 31.704691 0.765413 0.770297 0.038330 -0.011322 513246.000000 0 0 1
16.785712 16.331058 23.216187 32.976582 0.771670 0.789753 0.032451 -0.004222 -257843.000000 0 0 1
-20.535088 13.326773 -24.678425 34.760859 -0.575655 2.360222 0.028762 0.004224 13608.600000 0 0 1
-20.468788 13.217773 -26.128875 35.726725 -0.573384 2.391101 0.030570 -0.007325 -171439.000000 0 0 1
-21.243488 14.211273 -26.724705 36.979128 -0.589596 2.378493 0.032270 -0.017487 -372332.000000 0 0 1
-21.122688 14.193073 -28.283645 38.047021 -0.591641 2.408916 0.026317 -0.006216 -39596.000000 0 0 1
-19.800988 14.360173 -28.760725 37.755436 -0.627456 2.436828 0.036624 -0.012750 -221754.000000 0 0 1
-19.812688 14.821773 -30.062695 38.935757 -0.642281 2.452951 0.032696 -0.015467 643698.000000 0 0 1
-18.398688 15.186773 -30.619375 38.816181 -0.690054 2.479700 0.016727 -0.012166 1046830.000000 0 0 1
-17.506388 14.079173 -30.819265 38.138220 -0.677315 2.511705 0.015685 -0.009160 816355.000000 0 0 1
-16.130888 14.347473 -31.101255 37.859524 -0.726951 2.534817 0.001833 -0.004155 1229320.000000 0 0 1
-15.183688 14.134573 -29.857805 36.356829 -0.749630 2.534383 0.020513 0.005501 57645.800000 0 0 1
-15.603088 14.691673 -28.553275 35.701416 -0.755322 2.497725 0.029042 -0.000131 -5658.980000 0 0 1
-16.140588 13.616773 -27.808095 34.917406 -0.700788 2.492109 0.034637 0.002731 290032.000000 0 0 1
-17.060388 14.024373 -26.596225 34.570204 -0.688038 2.448603 0.029523 -0.009094 148726.000000 0 0 1
-16.310488 14.595073 -25.530035 33.627828 -0.729950 2.432870 0.061866 -0.009108 189332.000000 0 0 1
-17.083788 15.045873 -24.443525 33.402395 -0.722055 2.391740 0.054506 -0.009499 -311185.000000 0 0 1
-16.190888 15.390173 -23.235525 32.231846 -0.760049 2.375878 0.042266 -0.005864 111648.000000 0 0 1
-15.364388 16.513073 -23.408725 32.507144 -0.821417 2.374757 0.016096 -0.011930 -47455.000000 0 0 1
-14.793388 16.984273 -22.186725 31.615828 -0.854233 2.348661 0.012386 -0.011389 -44927.000000 0 0 1
-14.331188 18.513673 -22.182325 32.252047 -0.912057 2.329223 0.009487 -0.011053 -82655.700000 0 0 1
-15.327688 19.501473 -22.331825 33.375977 -0.904665 2.303792 -0.007486 -0.011952 171299.000000 0 0 1
-16.018088 19.433073 -23.591125 34.507457 -0.881431 2.323553 -0.017398 -0.006195 587231.000000 0 0 1
-17.460788 20.014573 -23.708825 35.602958 -0.853439 2.299527 -0.013080 -0.003439 470012.000000 0 0 1
-17.454688 21.367073 -23.920725 36.516010 -0.885837 2.285078 -0.018812 -0.000948 391995.000000 0 0 1
-18.760788 21.934773 -24.024025 37.553364 -0.863234 2.264944 0.008811 -0.002473 154204.000000 0 0 1
-18.747888 23.473273 -24.083525 38.503169 -0.896854 2.246562 0.004324 -0.006967 82585.700000 0 0 1
-18.138788 24.042973 -22.936925 37.857399 -0.924465 2.221664 0.004887 -0.008091 36894.700000 0 0 1
-17.385988 25.185573 -23.322625 38.477662 -0.966600 2.221987 -0.005983 0.000138 75203.100000 0 0 1
-16.317488 25.535773 -22.227225 37.581719 -1.002189 2.203636 0.002155 -0.007756 523411.000000 0 0 1
-15.118988 24.755973 -22.076225 36.452732 -1.022531 2.221331 0.003577 -0.014614 489508.000000 0 0 1
-15.321988 23.428073 -21.633325 35.378505 -0.991613 2.228729 -0.003746 -0.000378 -968251.000000 0 0 1
-14.120188 22.508273 -21.816625 34.379749 -1.010521 2.258258 0.012183 -0.008724 49313.800000 0 0 1
-13.021388 22.945273 -21.027125 33.736954 -1.054619 2.243710 0.027379 -0.015509 133271.000000 0 0 1
-12.119288 21.911373 -20.696125 32.485612 -1.065572 2.261508 0.024485 -0.015674 240329.000000 0 0 1
-11.350488 21.999573 -19.305525 31.392962 -1.094477 2.233136 0.028667 -0.017890 223450.000000 0 0 1
-12.117888 21.950373 -18.106425 30.927410 -1.066374 2.196230 0.036339 -0.013876 -221413.000000 0 0 1
-12.976788 23.006873 -17.863525 31.887595 -1.057238 2.165427 0.041767 -0.023358 -95570.200000 0 0 1
-13.765688 22.920173 -16.496225 31.415823 -1.029941 2.123621 0.053049 -0.014512 358854.000000 0 0 1
-13.064388 23.440973 -15.366025 30.923650 -1.062342 2.090822 0.071497 -0.028269 -31825.300000 0 0 1
-13.838588 23.508973 -14.168825 30.739777 -1.038763 2.049837 0.070894 -0.016321 -208884.000000 0 0 1
-13.054688 23.765473 -12.882925 30.019865 -1.068481 2.014344 0.080859 -0.016060 -348743.000000 0 0 1
-12.391288 25.005773 -12.775625 30.692821 -1.110725 2.000104 0.072241 -0.016798 630476.000000 0 0 1
-11.572488 25.048073 -11.569125 29.919443 -1.137999 1.967821 0.033749 -0.015557 489364.000000 0 0 1
-11.050288 26.482673 -11.296025 30.838953 -1.175496 1.945816 0.045148 -0.018619 484160.000000 0 0 1
-10.216688 26.972173 -12.365625 31.381324 -1.208710 1.975824 0.051792 -0.024875 358168.000000 0 0 1
-10.157888 28.367673 -12.237425 32.521717 -1.226942 1.956579 0.025587 -0.015179 -793400.000000 0 0 1
-9.853288 29.017273 -13.641025 33.543508 -1.243447 1.989599 0.060193 -0.022016 1501590.000000 0 0 1
-8.444488 29.242673 -13.938425 33.477201 -1.289671 2.000230 0.037683 -0.022089 1215500.000000 0 0 1
-7.721388 28.033273 -14.113925 32.321619 -1.302024 2.022692 0.040522 -0.022873 -778741.000000 0 0 1
-6.369588 28.208573 -14.797025 32.484568 -1.348717 2.043741 0.032480 -0.022652 293145.000000 0 0 1
-5.398388 28.941273 -14.048325 32.620473 -1.386387 2.016020 0.018356 -0.021257 -477046.000000 0 0 1
-4.134888 28.884173 -14.658825 32.653849 -1.428608 2.036348 0.023920 -0.019225 40264.800000 0 0 1
-3.167088 29.925173 -14.019725 33.197878 -1.465355 2.006786 0.005127 -0.007809 -98153.100000 0 0 1
-3.459588 31.290273 -14.319225 34.584536 -1.460679 1.997679 0.002827 -0.006849 -101318.000000 0 0 1
-4.316388 31.863973 -13.362725 34.821062 -1.436153 1.964655 -0.008474 -0.013884 -70115.400000 0 0 1
-4.561188 33.379473 -13.644825 36.347969 -1.434991 1.955619 -0.006902 -0.015190 31046.600000 0 0 1
-3.507088 34.211773 -13.178825 36.829696 -1.468642 1.936741 -0.012673 -0.011041 122259.000000 0 0 1
-3.783088 -33.578842 -13.566025 36.412737 1.458607 1.952565 -0.006985 -0.012145 599168.000000 0 0 1
-2.914488 -32.537142 -12.796025 35.084157 1.481461 1.944132 -0.010794 -0.001402 402746.000000 0 0 1
-3.319988 -32.575842 -11.436725 34.684383 1.469231 1.906821 -0.002940 -0.008686 591239.000000 0 0 1
-2.339588 -31.896742 -10.655025 33.710612 1.497579 1.892384 -0.008222 -0.004256 366670.000000 0 0 1
-2.794188 -31.994642 -9.175125 33.401310 1.483684 1.849067 -0.008442 -0.007375 125923.000000 0 0 1
-1.993888 -31.168842 -8.321425 32.322104 1.506913 1.831182 -0.008733 0.002607 29501.700000 0 0 1
-2.220888 -31.440042 -6.993825 32.285014 1.500275 1.789155 -0.011577 -0.007213 -291233.000000 0 0 1
-1.038088 -30.935842 -6.174425 31.563071 1.537253 1.767688 -0.003284 -0.000124 -289404.000000 0 0 1
-1.124288 -31.137742 -4.798525 31.525368 1.534705 1.723602 0.006054 -0.004338 -594218.000000 0 0 1
-0.059188 -30.590442 -4.101425 30.864224 1.568861 1.704077 0.007930 -0.001160 -690592.000000 0 0 1
-0.189688 -30.822642 -2.561125 30.929445 1.564642 1.653697 0.010721 0.002956 -611454.000000 0 0 1
-0.062788 -32.127242 -2.017125 32.190564 1.568842 1.633499 0.017668 -0.003991 714122.000000 0 0 1
1.111612 -32.887842 -2.369625 32.991831 -1.537009 1.642683 0.020656 -0.004547 -162567.000000 0 0 1
2.409212 -32.395142 -1.782525 32.533473 -1.496563 1.625614 0.022569 -0.007851 -1866550.000000 0 0 1
2.551112 -32.611842 -0.425125 32.714234 -1.492729 1.583792 0.020369 -0.006705 1465130.000000 0 0 1
3.808312 -32.107542 0.155575 32.332981 -1.452737 1.565985 0.023002 -0.008825 1480800.000000 0 0 1
4.016112 -30.559742 0.225675 30.823334 -1.440127 1.563475 0.020119 -0.008536 -499284.000000 0 0 1
4.106212 -29.964042 -1.066725 30.262893 -1.434607 1.606052 0.025924 -0.012306 120026.000000 0 0 1
3.996112 -28.543342 -0.975825 28.838230 -1.431699 1.604641 0.034081 -0.006964 -331140.000000 0 0 1
3.491112 -27.818542 -2.243425 28.126359 -1.445953 1.650644 0.032902 -0.002856 -595369.000000 0 0 1
2.159712 -28.074442 -2.579825 28.275327 -1.494019 1.662163 0.027757 -0.002616 -325033.000000 0 0 1
1.667512 -27.175542 -3.640025 27.468899 -1.509512 1.703702 0.025933 -0.007906 131099.000000 0 0 1
2.214612 -27.197042 -5.072525 27.754533 -1.489547 1.754593 0.019374 0.001055 -126383.000000 0 0 1
1.899712 -28.430042 -5.702125 29.058396 -1.504075 1.768308 0.011407 0.001193 139142.000000 0 0 1
2.515312 -28.414242 -6.980925 29.367145 -1.482504 1.810806 0.015993 -0.007490 -367075.000000 0 0 1
1.652512 -29.074442 -8.075025 30.220191 -1.514020 1.841289 -0.002717 0.002830 -1258220.000000 0 0 1
0.487212 -28.417542 -8.310025 29.611662 -1.553653 1.855250 0.000994 0.001934 -1478800.000000 0 0 1
0.208712 -28.526942 -9.690825 30.128758 -1.563480 1.898265 -0.001229 0.004418 -415096.000000 0 0 1
-1.161788 -27.884742 -9.877625 29.605338 1.529156 1.910962 0.000289 -0.006084 -1268760.000000 0 0 1
-1.190588 -26.493042 -9.601225 28.204295 1.525887 1.918157 0.001668 -0.002149 -211428.000000 0 0 1
-2.467288 -25.903942 -9.524725 27.709603 1.475835 1.921686 0.006257 -0.011006 483194.000000 0 0 1
-3.559788 -26.461742 -8.574825 28.043243 1.437073 1.881545 0.008985 -0.010639 -534346.000000 0 0 1
-3.288088 -26.364842 -7.188325 27.524324 1.446722 1.835023 0.013624 -0.008871 -497801.000000 0 0 1
-2.652688 -27.501542 -6.715825 28.433674 1.474638 1.809242 0.013786 -0.004723 -214653.000000 0 0 1
-2.124388 -27.393942 -5.304225 27.983493 1.493402 1.761498 0.014452 0.001531 -530199.000000 0 0 1
-3.075288 -27.463542 -4.290125 27.966206 1.459284 1.724808 0.008967 -0.007108 -518427.000000 0 0 1
-2.616688 -27.197242 -2.969825 27.483756 1.474880 1.679065 0.008085 0.000740 -174709.000000 0 0 1
-3.794788 -27.160542 -1.988725 27.496372 1.431978 1.643186 0.011032 -0.002121 -116581.000000 0 0 1
-4.691588 -26.089342 -2.164625 26.596059 1.392870 1.652275 0.004050 -0.003547 -476486.000000 0 0 1
-5.636788 -26.087642 -1.117525 26.713054 1.357997 1.612643 0.015835 -0.002638 -102515.000000 0 0 1
-6.652288 -24.949042 -1.388925 25.858011 1.310223 1.624536 0.007088 -0.008096 41401.900000 0 0 1
-6.120488 -23.638642 -1.121225 24.443872 1.317441 1.616682 0.003134 -0.012063 -85063.500000 0 1 0
-6.640888 -23.271542 0.118875 24.200830 1.292819 1.565884 0.013676 0.002123 -40181.500000 0 1 0
-6.130388 -21.879342 0.490075 22.727239 1.297611 1.549231 0.002923 -0.000638 232484.000000 0 1 0
-5.006188 -21.919942 1.344975 22.524536 1.346262 1.511049 0.003195 -0.002868 -142206.000000 0 1 0
-4.426488 -20.656042 1.493875 21.177760 1.359694 1.500198 -0.003363 -0.003002 14085.800000 0 1 0
-3.428588 -20.463742 2.635475 20.915680 1.404794 1.444456 0.003446 -0.003082 483500.000000 0 1 0
-4.158888 -20.396142 3.873875 21.173234 1.369648 1.386799 -0.001226 0.004616 647625.000000 0 1 0
-3.259588 -20.206342 4.956575 21.059173 1.410859 1.333203 0.017290 -0.001294 627729.000000 0 1 0
-2.405188 -21.432042 5.441375 22.242435 1.459040 1.323649 0.008289 -0.007103 -230093.000000 0 1 0
-1.360688 -21.845142 4.644875 22.374909 1.508589 1.361683 0.019387 -0.006676 -682549.000000 0 1 0
-0.804588 -23.064842 5.000575 23.614403 1.535927 1.357421 0.020052 -0.007450 -907114.000000 0 1 0
0.103312 -23.594742 3.875375 23.911107 -1.566418 1.408004 0.023100 -0.008422 871879.000000 0 1 0
1.308212 -22.902942 3.492575 23.204617 -1.513738 1.419710 0.013766 -0.011375 642987.000000 0 1 0
2.281212 -23.124342 4.487275 23.665898 -1.472465 1.380032 0.024344 -0.012433 -536703.000000 0 1 0
3.489012 -22.143542 4.557275 22.875279 -1.414518 1.370232 0.034006 -0.012863 598123.000000 0 1 0
4.425912 -22.145442 3.502975 22.853449 -1.373539 1.416910 0.029970 -0.006196 -627443.000000 0 1 0
5.446612 -21.236442 3.711075 22.235650 -1.319733 1.403114 0.035381 -0.002180 -80182.300000 0 1 0
6.092612 -20.687242 2.391475 21.697950 -1.284383 1.460355 0.033935 -0.001568 497166.000000 0 1 0
6.931812 -21.661542 1.789175 22.813889 -1.261088 1.492291 0.034931 -0.002218 -131684.000000 0 1 0
6.446012 -21.895042 0.532375 22.830404 -1.284480 1.547476 0.031492 -0.001690 358386.000000 0 1 0
7.461912 -22.734542 -0.331225 23.930090 -1.253656 1.584638 0.033970 0.001306 837053.000000 0 1 0
8.693412 -22.076942 -0.587325 23.734189 -1.195665 1.595545 0.026158 0.003526 -224762.000000 0 1 0
9.525812 -22.853042 -1.422425 24.799716 -1.175867 1.628184 0.023214 0.003764 169078.000000 0 1 0
10.903112 -22.304942 -1.835825 24.894950 -1.116132 1.644606 0.021162 0.004566 -24104.500000 0 1 0
10.826812 -21.156842 -2.658225 23.914388 -1.097801 1.682182 0.023523 0.002671 40891.000000 0 1 0
11.929912 -21.055742 -3.578325 24.463676 -1.055308 1.717594 0.012873 0.007100 408447.000000 0 1 0
12.078512 -19.686442 -4.281425 23.489935 -1.020477 1.754087 0.010549 -0.011402 -140141.000000 0 1 0
12.538812 -18.543242 -3.556725 22.665478 -0.976227 1.728370 0.034467 -0.010601 -65517.300000 0 1 0
12.744312 -17.440842 -4.397125 22.043937 -0.939751 1.771614 0.033942 -0.014825 -496469.000000 0 1 0
13.408212 -16.187442 -3.744025 21.350202 -0.879030 1.747070 0.073074 -0.015212 1341960.000000 0 1 0
14.797112 -16.278942 -3.361625 22.254415 -0.833046 1.722431 0.052908 -0.007703 1143510.000000 0 1 0
15.717912 -16.186942 -4.433225 22.993985 -0.800098 1.764811 0.048319 -0.010117 -769406.000000 0 1 0
17.158112 -15.989942 -3.970225 23.787428 -0.750172 1.738485 0.039501 -0.004966 -585885.000000 0 1 0
17.782412 -17.121742 -3.404325 24.919022 -0.766472 1.707840 0.040827 -0.009589 -663750.000000 0 1 0
19.076012 -16.732642 -3.100825 25.563463 -0.720050 1.692395 0.018588 -0.003880 -1113820.000000 0 0 1
19.822912 -17.766342 -2.257425 26.714915 -0.730741 1.655398 0.027001 -0.013661 -973543.000000 0 0 1
21.160712 -17.447442 -2.115425 27.507526 -0.689515 1.647776 0.016386 -0.012060 -927368.000000 0 0 1
21.746712 -18.220942 -1.099025 28.392430 -0.697410 1.609514 0.013577 -0.014041 -174701.000000 0 0 1
23.270112 -18.371442 -1.301425 29.676619 -0.668297 1.614664 0.029900 -0.019539 -66445.400000 0 0 1
23.913012 -17.131842 -1.060225 29.435629 -0.621664 1.606823 0.027918 -0.009023 -274175.000000 0 0 1
25.147912 -17.333042 -0.415625 30.545451 -0.603470 1.584404 0.033472 -0.010518 -232065.000000 0 0 1
25.848412 -16.006542 -0.041225 30.403149 -0.554451 1.572152 0.027662 -0.014065 -391220.000000 0 0 1
25.114512 -15.082542 0.724075 29.304369 -0.540824 1.546085 0.027252 -0.009911 -356050.000000 0 0 1
25.810912 -13.982542 1.202475 29.379595 -0.496472 1.529856 0.025827 -0.013320 -122295.000000 0 0 1
25.022812 -13.270842 2.342875 28.420863 -0.487632 1.488268 0.034765 -0.024057 -81939.300000 0 0 1
24.690412 -14.022542 3.472975 28.606113 -0.516508 1.449089 0.046643 -0.012816 -220449.000000 0 0 1
25.747812 -14.558842 4.236875 29.880777 -0.514620 1.428524 0.043959 -0.001274 -127308.000000 0 0 1
25.376612 -15.164442 5.636975 30.094987 -0.538635 1.382377 0.048274 0.004374 -184397.000000 0 0 1
24.603612 -16.307642 5.627975 30.049143 -0.585331 1.382391 0.041545 0.000991 -280731.000000 0 0 1
23.800212 -16.400042 6.805075 29.693779 -0.603353 1.339566 0.023974 0.005521 228879.000000 0 0 1
22.840312 -17.626842 6.697175 29.618196 -0.657272 1.342707 0.030201 0.000030 303041.000000 0 0 1
23.525412 -18.878042 6.759575 30.911443 -0.676235 1.350339 0.041822 0.005805 263795.000000 0 0 1
22.592512 -19.950542 6.622575 30.859427 -0.723377 1.354509 0.024447 0.016394 288095.000000 0 0 1
1.617612 23.376173 -3.087125 23.634561 1.501707 1.701790 0.009218 -0.010588 -46103.600000 0 1 0
2.270812 24.580173 -2.752925 24.837876 1.478674 1.681860 0.017476 -0.009937 -735518.000000 0 1 0
3.062512 24.895673 -3.830325 25.374099 1.448397 1.722330 0.031939 -0.015628 -787719.000000 0 0 1
4.061512 25.961773 -3.390025 26.495316 1.415612 1.699096 0.021179 -0.008137 -234648.000000 0 0 1
5.037212 25.425273 -2.510625 26.040761 1.375211 1.667358 0.013689 -0.010855 -361177.000000 0 0 1
5.774612 26.467573 -1.907025 27.157233 1.355986 1.641076 0.011883 -0.011859 340813.000000 0 0 1
6.935712 25.850073 -1.056025 26.785174 1.308665 1.610232 0.012832 -0.021712 950815.000000 0 0 1
8.053412 25.341673 -1.806825 26.651875 1.263096 1.638642 0.025342 -0.023610 -44808.300000 0 0 1
8.857012 24.525573 -1.035125 26.096396 1.224237 1.610472 0.022157 -0.022382 -534767.000000 0 0 1
10.167512 24.158873 -1.728125 26.268153 1.172437 1.636632 0.035994 -0.023677 -550670.000000 0 0 1
11.002212 25.289073 -2.013825 27.652149 1.160437 1.643688 0.046689 -0.016017 796835.000000 0 0 1
11.977912 25.160773 -3.070925 28.035075 1.126488 1.680555 0.050924 -0.017709 1009840.000000 0 0 1
13.066012 24.067473 -3.208225 27.572752 1.073428 1.687415 0.047810 -0.017913 -232515.000000 0 0 1
12.590712 22.747273 -3.472525 26.230190 1.065267 1.703573 0.044415 -0.025167 -70210.500000 0 0 1
12.464112 22.570073 -4.883525 26.241400 1.066234 1.757988 0.041206 -0.022214 -113792.000000 0 0 1
11.602512 21.308673 -5.196825 24.812997 1.072188 1.781798 0.036115 -0.017411 1038150.000000 0 1 0
10.206112 21.491173 -4.905525 24.291962 1.127431 1.774135 0.018164 -0.017310 403381.000000 0 1 0
9.422712 20.355373 -5.076825 22.997888 1.137258 1.793382 -0.004392 -0.011838 -225404.000000 0 1 0
7.915612 20.615673 -5.004025 22.642949 1.204193 1.793633 -0.007390 -0.008413 -263095.000000 0 1 0
7.408612 20.932273 -3.734825 22.516583 1.230622 1.737436 -0.008881 -0.019212 -414704.000000 0 1 0
6.211312 21.650673 -3.784025 22.839678 1.291412 1.737241 0.000910 -0.000010 -196568.000000 0 1 0
5.756012 22.201273 -2.452825 23.066091 1.317117 1.677337 0.008389 -0.011052 325925.000000 0 1 0
5.059212 21.280273 -1.583225 21.930623 1.337388 1.643052 -0.001999 -0.014062 170047.000000 0 1 0
4.396112 22.000573 -0.556725 22.442392 1.373576 1.595606 0.004000 -0.005860 173863.000000 0 1 0
3.861612 21.130973 0.611975 21.489639 1.390044 1.542315 0.001586 -0.003691 267831.000000 0 1 0
3.142712 21.836073 1.637175 22.121733 1.427855 1.496721 -0.005657 0.005146 492313.000000 0 1 0
3.031912 21.014573 2.802775 21.416356 1.427508 1.439549 0.006477 -0.001518 -552010.000000 0 1 0
2.127712 21.600173 3.856475 22.044660 1.472609 1.394952 0.010002 -0.001394 -1013270.000000 0 1 0
0.778512 21.531273 3.542575 21.834643 1.534655 1.407830 0.005133 -0.009359 -1329700.000000 0 1 0
0.021212 22.194073 4.498075 22.645308 1.569841 1.370835 0.007130 -0.010941 64912.700000 0 1 0
-1.405588 22.409973 3.938575 22.796818 -1.508157 1.397156 -0.000622 -0.007146 468818.000000 0 1 0
-2.425288 22.788873 4.872475 23.429805 -1.464771 1.361307 0.011776 -0.016986 -468932.000000 0 1 0
-3.656688 22.661273 4.248175 23.344199 -1.410813 1.387797 0.014165 -0.020175 -809836.000000 0 1 0
-4.839188 22.949473 5.170075 24.017196 -1.362978 1.353833 0.026109 -0.029356 -548957.000000 0 1 0
-5.147188 24.319973 5.422875 25.443313 -1.362230 1.356013 0.028961 -0.014128 304194.000000 0 0 1
-6.149888 24.400473 6.440775 25.974753 -1.323899 1.320219 0.036847 -0.017249 282248.000000 0 0 1
-6.435188 25.791373 6.953975 27.476614 -1.326280 1.314926 0.037405 -0.012940 161463.000000 0 0 1
-5.443688 26.289373 7.868475 27.976379 -1.366614 1.285695 0.026262 -0.023446 395919.000000 0 0 1
-5.790088 27.510473 8.470275 29.361485 -1.363355 1.278155 0.046063 -0.011854 -234397.000000 0 0 1
-5.753788 28.812873 7.597575 30.348161 -1.373694 1.317758 0.048868 -0.016795 -16210.300000 0 0 1
-6.932788 28.988973 6.841875 30.581618 -1.336053 1.345162 0.050275 -0.022376 -405208.000000 0 0 1
-7.046488 30.233373 6.120875 31.641348 -1.341814 1.376124 0.057810 -0.020406 302680.000000 0 0 1
-8.500888 30.643373 5.625975 32.294473 -1.300188 1.395694 0.051483 -0.018493 1079520.000000 0 0 1
-9.312688 31.099073 6.668975 33.141420 -1.279842 1.368185 0.053555 -0.015056 -473599.000000 0 0 1
-9.940488 30.020573 7.319475 32.459556 -1.251037 1.343345 0.038058 -0.008152 -1216360.000000 0 0 1
-10.856988 30.567273 8.412775 33.511299 -1.229511 1.317039 0.033834 -0.008466 -336812.000000 0 0 1
-10.252688 31.095273 9.569975 34.111846 -1.252303 1.286432 0.047996 -0.009127 145244.000000 0 0 1
-11.258988 31.434573 10.520275 35.008190 -1.226860 1.265570 0.042659 -0.003990 379756.000000 0 0 1
-10.578688 31.944273 11.784275 35.654093 -1.251002 1.233945 0.040281 -0.010434 148326.000000 0 0 1
-10.023588 33.232973 11.678175 36.623525 -1.277858 1.246258 0.040898 -0.012088 -165171.000000 0 0 1
-9.139288 33.586973 12.683275 37.046954 -1.305121 1.221372 0.039509 -0.014786 -256984.000000 0 0 1
-8.849588 -34.003042 12.986075 37.458780 1.316186 1.216771 0.040369 -0.015316 -73070.500000 0 0 1
-9.892788 -33.202042 13.519775 37.189073 1.281215 1.198730 0.034286 -0.006483 -200446.000000 0 0 1
-9.562688 -31.853642 13.645575 35.948591 1.279150 1.181448 0.033488 -0.003098 -90377.900000 0 0 1
-10.576988 -31.024542 14.452875 35.822904 1.242230 1.155508 0.035554 -0.007617 -194813.000000 0 0 1
-10.739888 -31.252442 15.831675 36.642901 1.239790 1.124028 0.024905 -0.014523 299865.000000 0 0 1
-9.558888 -31.062542 16.600775 36.494377 1.272263 1.098552 0.024701 -0.016233 -51017.300000 0 0 1
-9.876088 -31.265642 18.124775 37.464449 1.264838 1.065821 0.018088 -0.023445 101008.000000 0 0 1
-10.444788 -30.123342 18.827375 37.026738 1.237034 1.037377 0.025359 -0.025891 627334.000000 0 0 1
-11.175888 -30.580942 19.980975 38.201228 1.220422 1.020376 0.023056 -0.025324 204299.000000 0 0 1
-11.178488 -29.644542 21.153475 38.094973 1.210200 0.982094 0.007776 -0.025017 122832.000000 0 0 1
-9.939588 -29.606542 21.829575 38.103452 1.246897 0.960753 0.001876 -0.020930 114310.000000 0 0 1
-10.047688 -28.817242 22.961675 38.191988 1.235307 0.925773 0.000295 -0.019615 436329.000000 0 0 1
-8.862288 -28.893442 23.984575 38.582781 1.273183 0.899962 0.009376 -0.015635 162131.000000 0 0 1
-8.896988 -29.913942 24.966775 39.966738 1.281709 0.896063 0.002379 -0.012236 -44206.500000 0 0 1
-7.650088 -30.254042 25.559775 40.337736 1.323126 0.884542 0.011598 -0.005247 99889.900000 0 0 1
-7.544188 -31.442742 26.558175 41.843726 1.335314 0.883177 0.016856 -0.000077 -290277.000000 0 0 1
-7.772788 -32.671342 25.914075 42.419006 1.337230 0.913590 0.022729 0.000333 257392.000000 0 0 1
-7.707888 -33.703842 26.829775 43.762967 1.345968 0.910855 0.025498 0.003465 -265029.000000 0 0 1
-7.533688 34.017073 26.151075 43.563705 -1.352846 0.926926 0.025788 -0.007825 285272.000000 0 0 1
-6.156188 33.857373 25.815775 43.019468 -1.390934 0.927176 0.030496 -0.004567 622286.000000 0 0 1
-5.793688 32.687773 25.078675 41.605255 -1.395375 0.923820 0.029449 -0.006391 -133713.000000 0 0 1
-6.485088 32.406273 23.705675 40.671635 -1.373287 0.948558 0.030741 -0.007133 579703.000000 0 0 1
-7.696588 31.667873 23.912175 40.421328 -1.332378 0.937788 0.036164 -0.008547 793883.000000 0 0 1
-8.557288 31.546973 22.780175 39.841876 -1.305915 0.962141 0.037371 -0.006357 366241.000000 0 0 1
-9.542388 30.393273 22.882975 39.222936 -1.266578 0.947878 0.042141 -0.013016 138158.000000 0 0 1
-8.818288 29.164373 22.776975 38.040944 -1.277171 0.928858 0.045005 -0.006883 222540.000000 0 0 1
-9.597488 28.061873 23.214575 37.662939 -1.241256 0.906663 0.040077 -0.004714 -141554.000000 0 0 1
-9.000088 26.639373 22.969175 36.307586 -1.244987 0.885855 0.032837 -0.002381 -249769.000000 0 0 1
-7.830088 26.344773 23.675675 36.275266 -1.281896 0.859697 0.022618 -0.006530 -251590.000000 0 0 1
-7.299288 25.087173 23.353175 35.043068 -1.287656 0.841408 0.020859 -0.010574 -261347.000000 0 0 1
-5.910388 24.923473 23.994375 35.097610 -1.337956 0.818048 0.012108 -0.007608 143583.000000 0 0 1
-4.901588 25.567873 23.185275 34.861134 -1.381386 0.843202 0.009426 -0.009370 -314013.000000 0 0 1
-3.653188 25.352573 23.772175 34.945887 -1.427686 0.822683 0.013363 -0.007297 -720530.000000 0 0 1
-2.572088 25.945573 22.864075 34.677865 -1.471985 0.850872 0.011237 -0.002863 -560912.000000 0 0 1
-2.423488 25.317573 21.598475 33.366854 -1.475364 0.866755 0.011711 0.000675 122852.000000 0 0 1
-1.365288 25.916673 20.881375 33.310205 -1.518165 0.893259 0.012076 0.000744 -43873.400000 0 0 1
-1.007588 25.020373 19.672575 31.844065 -1.530547 0.904882 0.003710 -0.001327 96466.600000 0 0 1
-0.036288 23.992073 20.003075 31.236899 -1.569284 0.875821 0.006466 0.004709 474281.000000 0 0 1
0.147612 23.088473 18.944675 29.866370 1.564403 0.883675 0.006277 0.003123 -62456.500000 0 0 1
1.186212 21.932773 19.207975 29.178758 1.516765 0.852256 0.001453 0.013396 1469600.000000 0 0 1
2.568712 22.341073 19.241275 29.596427 1.456322 0.863052 0.003585 -0.003317 824972.000000 0 0 1
3.432712 21.200973 19.371275 28.922501 1.410276 0.836904 0.013850 0.007534 964109.000000 0 0 1
4.891312 21.685673 19.037075 29.267791 1.348954 0.862627 0.007542 -0.002578 456210.000000 0 0 1
5.789112 20.618873 18.882375 28.551634 1.297076 0.848191 0.011680 0.001532 -113875.000000 0 0 1
7.094812 21.126173 18.683275 29.081202 1.246800 0.873103 0.028225 0.003431 22345.000000 0 0 1
8.222912 20.111473 18.469775 28.517016 1.182670 0.866267 0.029083 0.005037 -170339.000000 0 0 1
8.477412 19.240573 19.515875 28.686853 1.155786 0.822615 0.030148 0.001486 -33083.700000 0 0 1
9.528312 18.362073 19.160275 28.196996 1.092133 0.823695 0.028099 -0.006019 228607.000000 0 0 1
10.041712 17.569273 20.434175 28.758839 1.051559 0.780537 0.044310 -0.013033 -159054.000000 0 0 1
9.031412 16.726973 20.913375 28.261764 1.075716 0.737743 0.041124 -0.009880 9319.320000 0 0 1
9.443712 16.199073 22.141075 29.014149 1.042987 0.702680 0.042327 -0.015407 389203.000000 0 0 1
8.336712 15.262573 22.709675 28.603780 1.070860 0.653535 0.035922 -0.014969 -22776.400000 0 0 1
7.263612 15.956773 23.306375 29.164461 1.143622 0.644939 0.026727 -0.005589 611265.000000 0 0 1
6.132912 15.134773 23.690675 28.773635 1.185798 0.603514 0.021981 0.000567 863209.000000 0 0 1
6.374712 14.061873 24.739175 29.161619 1.145174 0.557941 0.022583 -0.004440 -662526.000000 0 0 1
6.912012 14.538373 25.983775 30.566268 1.126995 0.554659 0.026899 -0.010334 52331.600000 0 0 1
7.134412 13.398773 26.869475 30.860908 1.081513 0.514246 0.027552 -0.012900 -1114740.000000 0 0 1
8.088412 13.716973 28.054775 32.259079 1.038011 0.516262 0.018239 -0.009042 1415000.000000 0 0 1
9.490112 13.894173 27.686875 32.398662 0.971552 0.546077 0.047070 -0.013287 1496180.000000 0 0 1
9.749512 15.037573 26.904975 32.327377 0.995586 0.587614 0.039436 -0.011238 -1523710.000000 0 0 1
11.037312 15.017973 26.090075 32.063278 0.937003 0.620297 0.048151 -0.015384 -402587.000000 0 0 1
11.110912 14.098773 25.021275 30.794350 0.903368 0.622320 0.044936 -0.023123 791887.000000 0 0 1
12.472712 13.774873 24.679775 30.893478 0.834968 0.645387 0.052591 -0.027734 387624.000000 0 0 1
12.506412 12.646573 23.666475 29.604868 0.790970 0.644481 0.046002 -0.032538 194081.000000 0 0 1
12.065312 11.385473 24.231975 29.366467 0.756416 0.600314 0.043317 -0.026306 -830994.000000 0 0 1
10.706812 11.271573 24.433075 28.959616 0.811089 0.566667 0.046585 -0.018931 -1609470.000000 0 0 1
10.294812 9.920373 25.005475 28.804006 0.766878 0.519384 0.030900 -0.013360 -181601.000000 0 0 1
10.252712 8.994273 23.950475 27.561573 0.720107 0.517658 0.036964 -0.007075 209831.000000 0 0 1
10.121812 7.615973 24.352075 27.449548 0.645056 0.479648 0.032525 -0.013154 -149709.000000 0 0 1
10.507212 6.650773 23.260875 26.376175 0.564312 0.490941 0.029509 -0.021619 1169690.000000 0 0 1
11.956212 6.490173 23.225975 26.916896 0.497321 0.529861 0.033633 -0.014499 1610370.000000 0 0 1
12.419712 5.508073 22.317475 26.127721 0.417431 0.546847 0.035508 -0.018186 -58548.400000 0 0 1
12.073412 4.042373 22.699675 26.026589 0.323084 0.511170 0.017646 -0.016845 -368125.000000 0 0 1
12.772012 3.565173 23.844175 27.283318 0.272211 0.507531 0.027524 -0.005001 262899.000000 0 0 1
12.205412 2.331873 24.312875 27.304315 0.188777 0.472484 0.026471 -0.005889 -935030.000000 0 0 1
12.920012 1.492073 25.388575 28.526001 0.114976 0.473418 0.006131 0.005848 12242.300000 0 0 1
14.003212 0.685873 24.875175 28.554067 0.048941 0.513235 0.029757 0.003097 1440600.000000 0 0 1
15.285812 1.343773 25.008975 29.341278 0.087684 0.550338 0.009897 0.003731 403057.000000 0 0 1
16.385412 0.790673 24.095675 29.149759 0.048217 0.597728 0.005791 -0.003251 -395622.000000 0 0 1
16.672212 -0.547527 24.474175 29.618368 -0.032829 0.598259 0.011536 -0.002974 128758.000000 0 0 1
17.669112 -1.105427 23.634875 29.530100 -0.062481 0.642892 0.017264 0.004472 -208218.000000 0 0 1
18.000212 -2.575127 23.869475 30.006512 -0.142097 0.651003 0.017418 0.011099 -420634.000000 0 0 1
17.261712 -3.564027 23.193575 29.130927 -0.203609 0.649835 0.013509 0.007066 59453.000000 0 0 1
17.545612 -4.864427 23.705175 29.890575 -0.270452 0.654972 0.017571 0.005953 -625666.000000 0 0 1
16.670612 -5.921927 23.103375 29.098874 -0.341328 0.653499 0.023135 0.000883 -552023.000000 0 0 1
16.680212 -6.112527 21.717075 28.057509 -0.351257 0.685630 0.014272 0.002959 316199.000000 0 0 1
15.758712 -7.115627 21.251775 27.397210 -0.424131 0.682987 0.018829 -0.005945 105488.000000 0 0 1
16.034712 -8.672627 21.487275 28.178528 -0.495803 0.703565 0.019109 -0.007812 -232089.000000 0 0 1
15.925312 -9.066527 22.795875 29.248409 -0.517552 0.677107 0.023884 0.002208 -289186.000000 0 0 1
16.614312 -10.248527 22.955775 30.133624 -0.552717 0.704710 0.016592 -0.002634 -174969.000000 0 0 1
15.996112 -11.236427 24.018575 30.968126 -0.612367 0.683147 0.025063 -0.006876 213824.000000 0 0 1
14.985412 -12.071227 23.469075 30.349211 -0.678105 0.686765 0.033704 -0.007044 154962.000000 0 0 1
14.727212 -13.121527 24.355575 31.341016 -0.727805 0.680728 0.039172 0.004036 -240267.000000 0 0 1
13.659812 -14.098227 23.888475 30.919407 -0.801191 0.687863 0.035548 -0.000868 -245708.000000 0 0 1
14.141712 -14.886127 22.817575 30.695709 -0.811037 0.732736 0.045429 -0.001365 692949.000000 0 0 1
13.120112 -15.789927 22.380375 30.370057 -0.877486 0.742290 0.053419 0.007710 189199.000000 0 0 1
13.520512 -16.518427 21.132875 30.037661 -0.884870 0.790421 0.039478 -0.004648 86048.100000 0 0 1
14.595812 -17.441227 21.256575 31.129988 -0.873982 0.819163 0.041831 -0.009012 273966.000000 0 0 1
14.668312 -18.244027 20.087375 30.846500 -0.893617 0.861626 0.030564 -0.007494 -46941.200000 0 0 1
-22.816288 -32.146542 26.576667 47.542637 0.953551 0.977609 0.030848 -0.016912 -417697.000000 0 0 1
-23.454688 -33.009442 27.481587 48.938566 0.953028 0.974535 0.035008 -0.016025 221069.000000 0 0 1
-24.554688 -33.642042 26.800537 49.527653 0.940296 0.999025 0.042337 -0.019412 554202.000000 0 0 1
-25.339728 34.499773 27.732517 51.004202 -0.937296 0.995921 0.032781 -0.017829 468743.000000 0 0 1
-26.265608 -33.979742 28.627927 51.614564 0.912750 0.982856 0.052233 -0.018057 932699.000000 0 0 1
-25.538978 -33.680942 29.836067 51.738149 0.922028 0.956144 0.038047 -0.015804 992727.000000 0 0 1
-26.485388 -32.987542 30.933907 52.407636 0.894295 0.939421 0.033729 -0.019198 708029.000000 0 0 1
-26.717958 -31.600342 30.619317 51.477893 0.868923 0.933773 0.030896 -0.017744 -56026.500000 0 0 1
-27.646398 -31.043442 31.509897 52.162172 0.843215 0.922191 0.017037 -0.005555 -135127.000000 0 0 1
-28.213488 -29.661442 31.126097 51.426024 0.810412 0.920704 0.019766 -0.009731 -139545.000000 0 0 1
-29.012638 -29.572442 29.981117 51.138340 0.794953 0.944344 0.031670 0.001205 147855.000000 0 0 1
-29.497968 -28.239442 29.879447 50.600173 0.763604 0.939117 0.010918 0.003743 77599.500000 0 0 1
-30.055378 -27.881442 28.474187 49.914726 0.747893 0.963735 0.009785 -0.005673 -169244.000000 0 0 1
-29.069248 -27.760442 27.479527 48.690735 0.762372 0.971128 0.003954 -0.010313 -101476.000000 0 0 1
-28.692908 -26.426242 27.371877 47.653424 0.744298 0.958932 -0.005240 -0.002252 -428127.000000 0 0 1
-27.621158 -26.231042 26.309497 46.294552 0.759590 0.966350 0.011819 -0.002418 -243572.000000 0 0 1
-28.151938 -26.329942 24.989467 45.937685 0.751968 0.995616 -0.000954 -0.003135 515187.000000 0 0 1
-27.092748 -26.534442 24.062277 44.911989 0.774988 1.005383 0.024059 0.005762 112809.000000 0 0 1
-27.641688 -26.668742 22.618187 44.574287 0.767486 1.038600 0.004648 0.011494 68459.000000 0 0 1
-28.352118 -25.573042 22.095887 44.114071 0.733908 1.046180 -0.002749 0.004959 210635.000000 0 0 1
-28.736238 -25.968642 20.773487 43.950876 0.734850 1.078498 -0.008669 0.014041 -87171.900000 0 0 1
-29.336508 -24.836042 19.886987 43.277614 0.702512 1.093340 -0.014953 0.010463 -402876.000000 0 0 1
-30.566098 -24.378142 20.368287 44.084546 0.673248 1.090516 -0.010738 0.004015 -375333.000000 0 0 1
-31.036518 -23.390442 19.477087 43.471084 0.645828 1.106217 -0.003638 -0.000160 -1162490.000000 0 0 1
-32.444648 -22.901542 19.737687 44.347627 0.614651 1.109547 -0.000329 0.006558 -767561.000000 0 0 1
-33.389428 -23.890942 19.404787 45.411196 0.621069 1.129278 -0.010669 0.003338 209992.000000 0 0 1
-34.734325 -23.430942 19.435187 46.186674 0.593458 1.136473 0.001298 0.001683 607486.000000 0 0 1
35.077892 -24.320242 18.704587 46.602513 -0.606229 1.157790 0.016607 -0.002796 77388.800000 0 0 1
34.834944 -25.587042 19.323487 47.345191 -0.633522 1.150380 0.014230 -0.008229 -182089.000000 0 0 1
34.241907 -26.433742 18.366987 46.995713 -0.657415 1.169271 0.016182 0.002201 -145265.000000 0 0 1
33.812607 -27.772542 18.982287 47.696265 -0.687634 1.161480 0.013169 0.008211 110041.000000 0 0 1
32.674857 -27.631442 19.832987 47.164501 -0.701962 1.136793 0.009694 0.000656 201432.000000 0 0 1
32.925227 -27.201542 21.196087 47.678806 -0.690491 1.110113 0.016667 -0.006481 -714235.000000 0 0 1
31.617947 -27.192142 21.976987 47.139103 -0.710284 1.085788 0.015911 -0.008795 -297440.000000 0 0 1
30.638507 -26.298242 21.527387 45.757447 -0.709316 1.080976 0.018297 -0.001742 -417418.000000 0 0 1
29.556127 -26.179742 22.420487 45.405085 -0.724894 1.054356 0.020826 -0.007619 -112341.000000 0 0 1
28.586407 -25.041942 21.981987 43.903180 -0.719401 1.046398 0.023127 0.006059 -64441.900000 0 0 1
29.097397 -23.694542 21.647087 43.320736 -0.683411 1.047552 0.023145 0.010711 -470855.000000 0 0 1
29.960077 -23.110342 22.557487 44.051496 -0.657039 1.033202 0.041874 0.001042 -694244.000000 0 0 1
30.752617 -21.939842 21.998687 43.715241 -0.619683 1.043467 0.032506 -0.006151 -130778.000000 0 0 1
30.003567 -20.761442 21.821787 42.514020 -0.605313 1.031789 0.030740 -0.015530 -468702.000000 0 0 1
30.799677 -19.775442 21.286187 42.341350 -0.570778 1.044045 0.028363 -0.004792 -720070.000000 0 0 1
30.270127 -18.311242 21.399787 41.346499 -0.544035 1.026786 0.010963 0.005435 -175795.000000 0 0 1
30.063927 -17.837542 22.751987 41.709357 -0.535494 0.993824 0.019245 -0.011705 120645.000000 0 0 1
28.911117 -18.386142 23.346987 41.460640 -0.566438 0.972649 0.029369 -0.004680 -443392.000000 0 0 1
28.763847 -17.865742 24.835367 41.992131 -0.555803 0.937966 0.024945 0.000273 -74560.500000 0 0 1
28.403537 -16.491742 24.921347 41.228776 -0.526050 0.921702 0.022187 -0.007824 179189.000000 0 0 1
28.209067 -16.147742 26.245467 41.777093 -0.519901 0.891525 0.023931 -0.000508 -230794.000000 0 0 1
28.006877 -14.616842 26.522527 41.249020 -0.481015 0.872406 0.007895 -0.002634 697725.000000 0 0 1
26.723637 -14.043242 26.206247 39.976653 -0.483838 0.855900 0.027824 -0.007757 859991.000000 0 0 1
26.676087 -12.675442 26.587237 39.738666 -0.443580 0.837864 0.020586 -0.007873 128638.000000 0 0 1
27.481757 -11.791542 25.608127 39.370847 -0.405311 0.862641 0.028169 -0.025474 -46862.100000 0 0 1
26.830647 -11.748442 24.347947 38.088476 -0.412724 0.877278 0.019879 -0.008485 210451.000000 0 0 1
27.629977 -11.118842 23.382187 37.865168 -0.382590 0.905221 0.015423 0.000726 -155927.000000 0 0 1
28.722827 -12.000942 22.795587 38.583185 -0.395773 0.938726 0.016858 -0.015539 -468560.000000 0 0 1
28.150837 -12.889242 21.845687 37.892429 -0.429374 0.956335 0.012494 -0.013195 133565.000000 0 0 1
28.431757 -14.175642 22.254887 38.789091 -0.462515 0.959730 0.015517 -0.011888 -386211.000000 0 0 1
27.801857 -15.253342 21.363087 38.235967 -0.501802 0.977958 0.008770 -0.006434 -603010.000000 0 0 1
28.330917 -15.204742 20.098687 37.918099 -0.492562 1.012131 0.005808 -0.003689 -268984.000000 0 0 1
27.771717 -16.225042 19.242187 37.480421 -0.528742 1.031662 0.004895 -0.006691 -153257.000000 0 0 1
28.509507 -16.346142 17.894487 37.419259 -0.520599 1.072174 0.010289 -0.004728 -278816.000000 0 0 1
28.066167 -17.394642 17.057487 37.165053 -0.554831 1.093966 0.007896 -0.004194 57989.400000 0 0 1
26.732147 -17.398142 16.575287 35.945002 -0.576960 1.091529 0.016070 -0.013141 -283790.000000 0 0 1
26.369547 -16.220842 15.547787 34.643937 -0.551474 1.105388 0.016720 -0.006987 -782358.000000 0 0 1
26.511217 -16.507242 14.178487 34.298150 -0.556909 1.144623 0.030025 -0.009270 997313.000000 0 0 1
25.468747 -17.432742 13.708787 33.771117 -0.600231 1.152798 0.026900 -0.013907 608012.000000 0 0 1
25.364347 -17.992842 12.237587 33.419320 -0.616990 1.195893 0.026595 -0.000483 -444935.000000 0 0 1
25.038447 -16.938542 11.341487 32.287263 -0.594780 1.211871 0.025432 -0.004200 24200.700000 0 0 1
25.038047 -17.319842 9.940987 32.026613 -0.605161 1.255185 0.021126 -0.008407 104036.000000 0 0 1
26.420217 -17.600942 9.291787 33.078064 -0.587674 1.286060 0.032801 -0.002872 -161121.000000 0 0 1
27.077637 -18.668842 9.847487 34.332158 -0.603614 1.279880 0.038926 -0.001230 -700502.000000 0 0 1
28.439487 -18.593742 9.478087 35.275569 -0.579042 1.298767 0.046824 0.005422 -228567.000000 0 0 1
29.355557 -19.493542 10.301487 36.713315 -0.586189 1.286385 0.057405 -0.005510 -346358.000000 0 0 1
29.540127 -19.098842 11.598987 37.039456 -0.573938 1.252286 0.054858 -0.011946 83665.600000 0 0 1
29.705857 -20.246742 12.371787 38.018806 -0.598252 1.239349 0.042171 -0.009781 -107182.000000 0 0 1
29.605637 -19.852342 13.837487 38.237223 -0.590693 1.200507 0.042527 -0.005912 81609.900000 0 0 1
29.474047 -20.856642 14.822787 39.031192 -0.615827 1.181251 0.044314 -0.004230 63520.200000 0 0 1
29.144037 -20.128942 15.984387 38.859359 -0.604437 1.146873 0.036648 -0.008882 -50060.900000 0 0 1
28.962297 -20.971342 17.259887 39.705359 -0.626712 1.121092 0.025565 0.001331 1338850.000000 0 0 1
27.676957 -21.656442 17.289687 39.165657 -0.663961 1.113582 0.003543 0.000321 1081830.000000 0 0 1
27.642767 -22.414642 18.446587 40.085100 -0.681333 1.092592 0.019986 -0.009777 -417882.000000 0 0 1
26.402197 -23.291842 18.439087 39.744003 -0.722890 1.088351 0.025891 -0.003437 -425199.000000 0 0 1
25.183747 -22.645042 18.673587 38.674563 -0.732369 1.066903 0.031403 -0.002792 -168858.000000 0 0 1
24.111347 -23.561142 18.668087 38.535463 -0.773857 1.065074 0.010422 -0.009154 685821.000000 0 0 1
22.702147 -23.043942 19.105687 37.569109 -0.792870 1.037299 0.005322 -0.000338 376725.000000 0 0 1
22.145447 -21.983942 18.362187 36.206138 -0.781738 1.038914 0.010274 0.003120 609740.000000 0 0 1
20.929047 -21.426442 18.896287 35.414503 -0.797141 1.007975 0.010411 -0.001788 786848.000000 0 0 1
21.063947 -20.633142 20.250187 35.769910 -0.775067 0.969001 0.002677 0.001867 -335849.000000 0 0 1
21.126847 -21.440842 21.390687 36.927156 -0.792774 0.952967 0.001710 0.001887 -3865.450000 0 0 1
21.812247 -20.707442 22.386087 37.492788 -0.759421 0.930944 0.000389 0.014267 -36464.900000 0 0 1
22.132547 -21.566642 23.644187 38.910374 -0.772449 0.917688 0.004791 0.009886 -494583.000000 0 0 1
21.014847 -21.973042 24.347087 38.951495 -0.807684 0.895586 0.014210 0.008438 -467536.000000 0 0 1
21.425647 -22.745842 25.470347 40.313400 -0.815277 0.886912 0.019018 -0.003045 512745.000000 0 0 1
20.226747 -23.432742 26.224327 40.570063 -0.858698 0.867945 0.024760 -0.000937 367077.000000 0 0 1
19.689147 -24.522842 25.513057 40.496276 -0.894296 0.889230 0.030903 0.008137 174303.000000 0 0 1
18.706147 -25.137942 26.335917 40.931853 -0.931056 0.871853 0.034274 0.015660 -202846.000000 0 0 1
18.151647 -26.411042 25.689197 41.072621 -0.968662 0.895078 0.029939 0.014749 -399007.000000 0 0 1
17.276047 -26.126042 24.640187 39.851859 -0.986548 0.904225 0.028180 0.013134 -51807.700000 0 0 1
16.804547 -27.313442 24.061787 40.092225 -1.019240 0.927094 0.034390 -0.000905 -295797.000000 0 0 1
15.877647 -26.907042 22.891287 38.731119 -1.037694 0.938460 0.034631 -0.004257 418841.000000 0 0 1
14.630747 -26.326642 23.286887 38.071379 -1.063558 0.912634 0.027005 0.004317 639788.000000 0 0 1
13.887347 -25.864442 22.171287 36.788500 -1.078044 0.923955 0.018707 0.004264 162267.000000 0 0 1
12.479347 -25.301442 22.462587 36.061959 -1.112582 0.898366 0.012413 0.004113 446009.000000 0 0 1
11.432447 -26.287142 22.520187 36.453717 -1.160565 0.904887 0.012280 0.000765 -270424.000000 0 0 1
10.231847 -25.601142 22.373987 35.506400 -1.190580 0.889063 0.014290 0.006649 -560067.000000 0 0 1
9.006447 -26.503142 22.126287 35.680599 -1.243214 0.901899 0.018259 -0.000281 -152782.000000 0 0 1
9.002347 -27.326942 20.987787 35.613076 -1.252562 0.940569 0.008215 -0.000485 -116703.000000 0 0 1
7.759347 -27.977642 20.886487 35.765923 -1.300255 0.947177 0.005204 0.003310 -50714.700000 0 0 1
7.554847 -28.899342 19.607187 35.730791 -1.315099 0.989931 0.001886 -0.008469 -68715.700000 0 0 1
8.167847 -30.168942 19.739687 36.966661 -1.306398 1.007488 -0.004010 -0.008391 204097.000000 0 0 1
7.809647 -30.968542 18.606087 36.962516 -1.323767 1.043294 -0.008224 -0.011813 -283182.000000 0 0 1
8.431847 -32.333242 18.577887 38.231825 -1.315698 1.063372 -0.014699 -0.005879 -633025.000000 0 0 1
8.011847 -33.202642 19.653487 39.406404 -1.334021 1.048654 -0.007291 -0.006132 305956.000000 0 0 1
8.752547 -34.400042 19.736987 40.614266 -1.321649 1.063333 -0.006370 -0.007768 -182091.000000 0 0 1
8.149447 33.762373 20.792387 40.480053 1.333950 1.031368 0.008169 -0.014283 -292715.000000 0 0 1
7.219747 32.800073 20.387387 39.288867 1.354138 1.025221 0.010618 -0.018119 -201171.000000 0 0 1
7.312047 31.643273 21.177187 38.771587 1.343705 0.992971 0.017579 -0.030072 -271086.000000 0 0 1
6.414647 30.433773 20.787087 37.409427 1.363063 0.981634 0.027293 -0.022427 382612.000000 0 0 1
5.041547 30.668573 21.057787 37.542096 1.407866 0.975310 0.024302 -0.023843 -62982.100000 0 0 1
4.295047 29.523273 20.762187 36.347482 1.426330 0.962812 0.031909 -0.018414 -160390.000000 0 0 1
2.842147 29.430273 21.237387 36.403920 1.474523 0.947910 0.024262 -0.012935 -248727.000000 0 0 1
2.722947 29.185273 22.645887 37.040934 1.477767 0.913000 0.018310 -0.019727 468014.000000 0 0 1
1.359747 29.128273 23.067187 37.180644 1.524149 0.901533 0.009535 -0.015574 384024.000000 0 0 1
1.150447 28.608473 24.531777 37.703797 1.530604 0.862363 0.024177 -0.011828 -370064.000000 0 0 1
1.430047 29.512373 25.582667 39.083219 1.522378 0.857184 0.026918 -0.014348 224857.000000 0 0 1
1.469747 28.954473 26.853907 39.517768 1.520079 0.823661 0.027648 -0.008185 -215968.000000 0 0 1
2.787547 28.291073 27.326867 39.432384 1.472582 0.805146 0.016976 -0.003951 -270513.000000 0 0 1
2.975347 27.013773 26.717827 38.110876 1.461097 0.793920 0.023732 -0.004375 -124891.000000 0 0 1
3.931847 26.309573 27.433527 38.213236 1.422449 0.770006 0.015528 0.011127 -426640.000000 0 0 1
4.297747 25.010473 26.724607 36.853751 1.400620 0.759540 0.005830 0.020744 -594078.000000 0 0 1
3.202547 24.132573 26.711927 36.140897 1.438861 0.739055 0.017083 0.021800 141972.000000 0 0 1
3.692447 22.809673 26.579777 35.219311 1.410308 0.715610 0.015734 0.029992 211410.000000 0 0 1
2.519047 21.815273 26.526767 34.437205 1.455834 0.691495 0.013623 0.032091 -98379.300000 0 0 1
2.900847 20.472373 26.614837 33.702856 1.430038 0.660491 0.009903 0.032194 125271.000000 0 0 1
3.485147 19.847773 25.456357 32.467005 1.396975 0.669602 0.007413 0.030716 10571.200000 0 0 1
3.990847 18.397673 25.879117 32.002030 1.357185 0.628907 0.001701 0.023454 58449.000000 0 0 1
5.084447 18.388073 26.784017 32.883984 1.301029 0.618929 0.004691 0.017521 -38461.500000 0 0 1
6.281947 18.200073 26.072137 32.410829 1.238439 0.636087 0.019370 0.017148 -956997.000000 0 0 1
7.530647 18.197773 26.963437 33.390066 1.178431 0.630846 0.013489 0.008078 -314687.000000 0 0 1
7.978047 19.356273 27.602197 34.643842 1.179844 0.648912 0.004404 0.008164 254681.000000 0 0 1
8.468447 20.432173 26.769567 34.724602 1.177882 0.690527 -0.002658 0.013107 -181396.000000 0 0 1
9.110247 21.504873 27.705387 36.235958 1.170081 0.700403 -0.003904 0.016823 -516228.000000 0 0 1
10.240247 21.071473 28.379907 36.800662 1.118430 0.690105 0.016464 0.000608 -629687.000000 0 0 1
10.361947 21.599973 29.671797 38.135866 1.123504 0.679233 0.003180 -0.004686 -1308060.000000 0 0 1
11.719747 21.433373 30.254377 38.885335 1.070414 0.679255 0.015277 -0.006041 -1364520.000000 0 0 1
12.712047 22.182373 29.601077 39.113649 1.050414 0.712398 0.017576 -0.001088 -844120.000000 0 0 1
13.926847 22.030173 30.275257 39.948426 1.007057 0.710772 0.017589 0.006372 -255500.000000 0 0 1
15.151047 22.239973 29.364747 39.830378 0.972763 0.741813 0.014852 0.001970 -73042.000000 0 0 1
15.303147 23.586173 28.983107 40.379628 0.995252 0.770208 0.010993 0.002907 83439.400000 0 0 1
16.429247 23.792273 28.130677 40.340146 0.966455 0.799121 0.044610 -0.004802 396133.000000 0 0 1
-8.692288 16.866573 4.555275 19.513782 -1.094940 1.335184 0.001833 -0.011222 -334577.000000 0 1 0
-8.547688 18.208373 5.003675 20.727869 -1.131897 1.326990 0.005233 -0.013254 279527.000000 0 1 0
-7.209588 18.531773 5.347375 20.591240 -1.199774 1.308093 0.004450 -0.005905 98045.000000 0 1 0
-7.123988 19.993173 5.870475 22.021368 -1.228501 1.300953 0.008974 -0.008460 -169572.000000 0 1 0
-7.233888 21.103873 5.011175 22.865136 -1.240572 1.349841 0.013835 -0.014890 415224.000000 0 1 0
-8.525088 21.353673 4.416875 23.412929 -1.190951 1.381008 0.009561 -0.019532 724923.000000 0 1 0
-8.601888 22.489173 3.403675 24.317491 -1.205475 1.430367 0.024742 -0.021921 78506.900000 0 1 0
-7.884588 22.303373 2.194375 23.757577 -1.230993 1.478299 0.006986 -0.019530 -316993.000000 0 1 0
-8.382188 21.315273 1.287075 22.940324 -1.196124 1.514661 0.013958 -0.018038 -1002810.000000 0 1 0
-7.693588 21.205073 -0.110525 22.557895 -1.222748 1.575696 -0.000705 -0.003704 -456599.000000 0 1 0
-6.433688 20.660173 -0.164025 21.639362 -1.268909 1.578376 -0.002399 -0.000577 -691723.000000 0 1 0
-5.388888 21.441973 0.423375 22.112837 -1.324572 1.551649 0.005935 -0.008685 179391.000000 0 1 0
-3.993488 21.278773 -0.260725 21.651838 -1.385280 1.582838 0.000810 -0.002617 318394.000000 0 1 0
-4.088088 21.556473 -1.634125 22.001462 -1.383377 1.645138 0.004914 -0.008301 -662952.000000 0 1 0
-2.821888 21.626673 -2.186225 21.919298 -1.441048 1.670702 0.005415 -0.000968 -718244.000000 0 1 0
-2.832188 21.746473 -3.756925 22.249603 -1.441289 1.740463 0.013543 -0.004050 392086.000000 0 1 0
-1.542488 22.034773 -4.291525 22.501726 -1.500908 1.762692 0.022333 -0.006610 635219.000000 0 1 0
-1.678788 22.508973 -5.650825 23.268090 -1.496351 1.816107 0.029111 -0.010595 -132441.000000 0 1 0
-0.385488 23.160473 -6.152625 23.966871 -1.554154 1.830417 0.038444 -0.017570 587755.000000 0 1 0
0.769712 22.303573 -6.091325 23.133224 1.536299 1.837253 0.023675 -0.005963 492539.000000 0 1 0
1.911112 22.846673 -6.713825 23.889292 1.487341 1.855673 0.027658 -0.011528 667996.000000 0 1 0
3.163412 21.901773 -6.648025 23.106083 1.427352 1.862639 0.016662 -0.002736 415988.000000 0 1 0
3.135212 20.996173 -7.723025 22.590129 1.422569 1.919709 0.018304 -0.006392 -359281.000000 0 1 0
4.270712 20.216073 -7.901525 22.121543 1.362604 1.936051 0.017163 -0.000109 -222918.000000 0 1 0
3.886012 19.061473 -8.829725 21.363634 1.369685 1.996878 -0.000772 -0.000664 -19908.000000 0 1 0
4.146612 19.425773 -10.225925 22.341096 1.360493 2.046223 0.002453 -0.004350 403641.000000 0 1 0
3.131912 19.028373 -11.184025 22.292830 1.407667 2.096344 0.008322 -0.005614 269318.000000 0 1 0
3.336012 19.444873 -12.676725 23.450616 1.400888 2.141912 0.014117 -0.001931 -24303.700000 0 1 0
3.320412 20.832973 -12.902025 24.728529 1.412743 2.119693 0.030204 -0.008132 99061.800000 0 1 0
3.801712 21.163173 -14.218125 25.777664 1.393054 2.155039 0.037315 -0.006897 194642.000000 0 0 1
4.094612 22.644373 -14.482925 27.189862 1.391907 2.132536 0.029959 -0.004587 -305141.000000 0 0 1
2.950212 23.399973 -14.733825 27.809136 1.445380 2.129184 0.038876 -0.006618 -736094.000000 0 0 1
3.256112 24.731273 -15.119725 29.169234 1.439890 2.115711 0.025613 0.000081 -260136.000000 0 0 1
1.962912 25.461073 -15.487425 29.866027 1.493854 2.115966 0.022333 0.001938 -246955.000000 0 0 1
1.175112 25.761273 -14.348925 29.511281 1.525212 2.078553 0.033141 -0.009040 -270806.000000 0 0 1
0.920312 27.154673 -14.134125 30.626732 1.536918 2.050477 0.016908 -0.001112 -950185.000000 0 0 1
0.044512 27.398873 -12.875025 30.273197 1.569172 2.010084 0.025624 -0.011065 961928.000000 0 0 1
-1.384688 27.260573 -13.021625 30.242667 -1.520045 2.015922 0.009414 -0.020057 966123.000000 0 0 1
-1.752488 25.867373 -13.241625 29.112417 -1.503151 2.042994 0.008047 -0.012656 -803692.000000 0 0 1
-1.660288 24.859773 -11.989525 27.649838 -1.504109 2.019303 0.035374 -0.023486 -139870.000000 0 0 1
-2.499888 25.169073 -10.892025 27.538480 -1.471797 1.977430 0.038832 -0.018555 138039.000000 0 0 1
-2.983288 24.003973 -10.213325 26.256480 -1.447147 1.970324 0.077645 -0.017600 -93801.600000 0 0 1
-3.764888 24.311973 -8.935025 26.174053 -1.417159 1.919170 0.043640 -0.016532 -414361.000000 0 0 1
-3.061388 24.743473 -7.750425 26.109014 -1.447697 1.872187 0.046636 -0.018554 90504.500000 0 0 1
-2.591088 26.097773 -7.778825 27.355394 -1.471837 1.859137 0.039555 -0.021590 99436.400000 0 0 1
-2.281288 26.680273 -6.424125 27.537440 -1.485499 1.806253 0.034195 -0.018412 874387.000000 0 0 1
-1.214088 26.032573 -5.672125 26.670993 -1.524193 1.785103 0.047476 -0.018196 700921.000000 0 0 1
-1.092688 26.504673 -4.357025 26.882621 -1.529593 1.733590 0.044372 -0.015734 117696.000000 0 0 1
-1.967888 25.727973 -3.269825 26.009477 -1.494457 1.696847 0.034136 -0.009853 265145.000000 0 0 1
-3.314688 26.111673 -3.455425 26.547063 -1.444529 1.701329 0.015536 -0.006598 -688216.000000 0 0 1
-4.064388 25.214173 -2.713525 25.683399 -1.410977 1.676647 0.012184 -0.002831 -189230.000000 0 0 1
-5.391188 24.746673 -3.355225 25.548390 -1.356293 1.702505 0.009653 -0.001399 143456.000000 0 0 1
-6.449388 25.680973 -3.404925 26.696451 -1.324750 1.698687 0.000302 -0.000980 -627176.000000 0 0 1
-7.539988 25.057373 -4.013125 26.473166 -1.278506 1.722975 0.005233 0.001922 -29963.600000 0 0 1
-8.838088 25.900773 -4.056125 27.666116 -1.241957 1.717937 -0.001541 0.000493 -57426.500000 0 0 1
-9.312488 26.165573 -2.810225 27.915175 -1.228870 1.671637 0.002997 -0.002008 -1074460.000000 0 0 1
-10.536988 26.826773 -2.872925 28.964764 -1.196531 1.670147 0.006668 -0.000610 -276927.000000 0 0 1
-11.137188 26.984573 -1.416625 29.226887 -1.179369 1.619285 0.010089 -0.000433 252434.000000 0 0 1
-11.666788 25.794773 -0.786625 28.321423 -1.146037 1.598575 0.019147 -0.009230 1213910.000000 0 0 1
-10.617688 24.870173 -0.336225 27.043924 -1.167297 1.583229 0.023679 -0.011182 935300.000000 0 0 1
-11.167088 23.450973 -0.131425 25.974396 -1.126379 1.575856 0.020876 -0.011506 207488.000000 0 0 1
-11.985088 23.374073 1.034975 26.288035 -1.097000 1.531416 0.028579 -0.012747 85810.400000 0 0 1
-12.655788 22.161973 1.176475 25.548113 -1.051929 1.524731 0.034862 -0.020239 121531.000000 0 0 1
-13.555988 22.023173 2.459075 25.977529 -1.019034 1.475993 0.036978 -0.023696 177021.000000 0 0 1
-12.780088 21.968273 3.610575 25.670448 -1.043903 1.429677 0.042731 -0.026718 -25790.900000 0 0 1
-12.669188 23.245373 4.235175 26.810304 -1.071785 1.412164 0.032012 -0.026760 2376.340000 0 0 1
-12.411288 23.148273 5.759075 26.889581 -1.078637 1.354949 0.031186 -0.024291 -430279.000000 0 0 1
-11.086788 22.811973 6.054475 26.076036 -1.118405 1.336472 0.030320 -0.023079 -395062.000000 0 0 1
-11.046388 22.308773 7.400875 25.970695 -1.111029 1.281821 0.022058 -0.025887 217005.000000 0 0 1
-9.649288 22.080273 8.040275 25.402622 -1.158798 1.248744 0.021248 -0.022178 -9775.710000 0 0 1
-8.978588 23.198773 8.495975 26.286493 -1.201522 1.241680 0.026050 -0.020969 -534201.000000 0 0 1
-7.869988 22.925473 9.292375 25.958857 -1.240116 1.204708 0.026808 -0.019320 -638859.000000 0 0 1
-8.108088 22.727373 10.802575 26.438044 -1.228117 1.149877 0.024575 -0.020053 -287439.000000 0 0 1
-8.863188 21.551673 11.071775 25.799514 -1.180627 1.127249 0.029746 -0.018046 49340.500000 0 0 1
-8.763388 21.103873 12.387575 25.992738 -1.177213 1.074038 0.020063 -0.008066 -242501.000000 0 0 1
-9.802188 20.057373 12.843675 25.755409 -1.116223 1.048723 0.027098 -0.005306 -318274.000000 0 0 1
-9.798288 18.853773 12.121275 24.462144 -1.091514 1.052373 0.035328 -0.018268 -166614.000000 0 1 0
-10.586788 17.861173 12.719975 24.349524 -1.035742 1.021144 0.030109 -0.010355 -180734.000000 0 1 0
-10.771288 16.624973 11.850575 23.083468 -0.995900 1.031678 0.025278 -0.010569 -171745.000000 0 1 0
-10.912888 15.433873 12.585075 22.708581 -0.955339 0.983396 0.022903 -0.006106 24593.100000 0 1 0
-11.265188 14.439773 11.620375 21.689735 -0.908277 1.005395 0.014081 -0.001805 153649.000000 0 1 0
-11.565188 12.991473 12.100775 21.188693 -0.843414 0.962956 0.009001 -0.012270 -119110.000000 0 1 0
-12.687788 12.970873 12.933675 22.282357 -0.796430 0.951522 0.017433 -0.010759 -344149.000000 0 1 0
-13.022388 11.655073 13.347275 21.990295 -0.730047 0.918564 0.017224 -0.004655 61855.900000 0 1 0
-13.940888 11.557073 14.570875 23.242734 -0.692179 0.893228 0.026476 -0.010996 324557.000000 0 1 0
-15.185488 12.201473 14.385075 24.215808 -0.676869 0.934729 0.031723 -0.012163 183114.000000 0 1 0
-15.971888 12.344073 15.571675 25.494203 -0.657973 0.913735 0.035210 -0.009740 251410.000000 0 0 1
-16.963488 13.515473 15.543375 26.683786 -0.672749 0.948992 0.036116 -0.008088 689257.000000 0 0 1
-18.193688 13.224573 14.826975 26.939540 -0.628537 0.987977 0.034666 -0.003708 316070.000000 0 0 1
-18.963488 14.379473 14.878475 28.066922 -0.648774 1.012069 0.040028 -0.005752 -941140.000000 0 0 1
-20.309688 14.207573 14.216875 28.573731 -0.610422 1.050024 0.041604 -0.002884 -346308.000000 0 0 1
-21.195188 13.296373 14.881175 29.111491 -0.560273 1.034241 0.038268 0.003899 130531.000000 0 0 1
-22.412588 13.158173 14.200675 29.616225 -0.530872 1.070723 0.030975 0.003297 -404312.000000 0 0 1
-23.416488 12.154773 14.727075 30.215181 -0.478786 1.061679 0.027657 0.004222 -451014.000000 0 0 1
-24.047988 12.571373 15.911175 31.456488 -0.481691 1.040469 0.017494 -0.000909 44334.800000 0 0 1
-24.889888 11.531373 16.407675 31.963900 -0.433855 1.031749 0.011520 0.002016 -146673.000000 0 0 1
-25.771678 12.148673 17.508775 33.441394 -0.440504 1.019765 0.009962 0.005199 -232804.000000 0 0 1
-26.528148 13.234973 17.022275 34.185742 -0.462770 1.049580 0.013730 0.005914 538673.000000 0 0 1
-27.323658 13.915473 18.005275 35.558580 -0.471046 1.039843 0.013270 0.007817 398643.000000 0 0 1
-28.367118 14.949673 17.580275 36.568459 -0.485019 1.069287 0.016100 0.000895 -31786.200000 0 0 1
-27.758268 16.187473 17.441575 36.561787 -0.527944 1.073508 0.011061 0.004203 -61979.500000 0 0 1
-28.733628 17.172273 17.206675 37.637455 -0.538680 1.095987 0.013464 0.006081 -421465.000000 0 0 1
-28.178798 18.642873 17.190875 37.909465 -0.584481 1.100139 0.018110 -0.000865 -489138.000000 0 0 1
-27.703448 19.077173 18.428675 38.354082 -0.603048 1.069585 0.011571 -0.003602 -753192.000000 0 0 1
-28.571658 19.516773 19.397575 39.667493 -0.599281 1.059848 0.005347 0.003356 -1343620.000000 0 0 1
-27.911378 19.511673 20.782575 39.895687 -0.610093 1.022865 0.005581 -0.003555 158633.000000 0 0 1
-27.526188 18.288873 21.334275 39.336054 -0.586444 0.997554 0.006043 0.004283 531404.000000 0 0 1
-26.437758 17.637073 20.633275 37.891337 -0.588314 0.994958 0.017363 0.004423 -183395.000000 0 0 1
-25.974558 16.340173 21.346375 37.381100 -0.561531 0.963015 0.022712 0.007446 88529.900000 0 0 1
-26.943238 15.295273 21.470775 37.694530 -0.516320 0.964778 -0.009537 0.010194 366453.000000 0 0 1
-26.347318 14.028473 21.754675 36.935689 -0.489265 0.940990 -0.002571 0.012866 -219805.000000 0 0 1
-27.365528 12.924173 22.143175 37.499687 -0.441226 0.939131 0.012922 0.007395 32383.700000 0 0 1
-28.170738 12.648873 20.976975 37.331192 -0.422028 0.974097 0.015347 0.006758 -134029.000000 0 0 1
-29.102538 11.683273 21.337875 37.931009 -0.381757 0.973336 0.033455 0.003817 -914393.000000 0 0 1
-30.002348 11.318073 20.183475 37.889475 -0.360733 1.009016 0.039429 0.001371 -209184.000000 0 0 1
-29.304368 10.708173 19.063375 36.562593 -0.350339 1.022317 0.052905 -0.000068 620500.000000 0 0 1
-29.009658 9.336373 19.132075 35.982835 -0.311368 1.010190 0.049472 0.002540 -214592.000000 0 0 1
-28.483288 8.812773 17.739075 34.693478 -0.300060 1.034089 0.035065 -0.005517 284053.000000 0 0 1
-29.423398 8.753773 16.643775 34.919624 -0.289171 1.073978 0.033246 0.001737 584569.000000 0 0 1
-29.853818 9.988873 16.099875 35.358648 -0.322884 1.098053 0.038285 -0.001238 -424788.000000 0 0 1
-28.838598 10.888973 15.375975 34.447860 -0.361034 1.108108 0.031291 -0.000208 -359151.000000 0 0 1
-28.584138 10.606473 14.011975 33.554219 -0.355313 1.140003 0.022034 0.002491 264527.000000 0 0 1
-27.536348 11.440873 13.551175 32.753295 -0.393782 1.144244 0.021025 0.011097 -88497.600000 0 0 1
-27.248338 11.352973 12.011075 31.868916 -0.394775 1.184360 0.031349 0.009641 -604153.000000 0 0 1
-26.511638 10.227073 11.599275 30.692070 -0.368169 1.183243 0.047131 0.009547 20464.200000 0 0 1
-27.237208 9.077973 11.453175 30.910359 -0.321714 1.191218 0.042971 0.015184 -795991.000000 0 0 1
-26.458238 8.062573 10.613275 29.625749 -0.295789 1.204409 0.049179 -0.002319 -355363.000000 0 0 1
-26.302728 8.478773 9.300275 29.158501 -0.311836 1.246169 0.054157 -0.003233 221894.000000 0 0 1
-25.820358 7.455473 8.423175 28.164247 -0.281098 1.267075 0.072781 -0.011627 -273959.000000 0 0 1
-25.169328 8.067373 7.180275 27.388573 -0.310178 1.305533 0.065464 -0.009490 -130039.000000 0 0 1
-26.030908 8.757473 6.260675 28.169088 -0.324531 1.346671 0.056561 -0.007063 6880.930000 0 0 1
-25.322198 9.157373 5.130775 27.411604 -0.347002 1.382510 0.058054 -0.013064 -217400.000000 0 0 1
-26.198748 9.373373 3.869075 28.092779 -0.343588 1.432632 0.041115 -0.008667 115747.000000 0 0 1
-26.864208 8.202573 3.270075 28.278282 -0.296344 1.454898 0.050492 -0.015742 654626.000000 0 0 1
-26.119698 7.001573 2.993275 27.206990 -0.261900 1.460555 0.051839 -0.014724 -137315.000000 0 0 1
-24.993188 7.051273 1.943875 26.041477 -0.274981 1.496081 0.054881 -0.013418 676300.000000 0 0 1
-23.764588 7.720273 2.275975 25.090602 -0.314109 1.479961 0.038291 -0.013535 443172.000000 0 0 1
-22.873788 7.677773 1.233875 24.159487 -0.323841 1.519702 0.042059 -0.007982 -800446.000000 0 1 0
-21.720888 8.649873 1.494475 23.427563 -0.378978 1.506962 0.035155 -0.009348 -253682.000000 0 1 0
-22.112988 9.994673 1.290375 24.301086 -0.424501 1.517672 0.039655 -0.015641 938961.000000 0 1 0
-21.033188 10.846573 1.709475 23.726893 -0.476119 1.498686 0.052374 -0.014421 243082.000000 0 1 0
-21.396488 12.276373 2.211675 24.767126 -0.520899 1.481378 0.045858 -0.019617 240662.000000 0 1 0
-20.255288 12.961673 2.741975 24.203307 -0.569253 1.457263 0.047820 -0.021771 801414.000000 0 1 0
-20.669188 14.045273 3.525975 25.237225 -0.596853 1.430624 0.050264 -0.030747 -591700.000000 0 0 1
-19.532188 14.575173 4.387075 24.762642 -0.641073 1.392691 0.033093 -0.023338 -298624.000000 0 1 0
-19.094288 13.574773 5.308775 24.021852 -0.618026 1.347959 0.029795 -0.031246 -2067.030000 0 1 0
-18.256588 14.121373 6.284775 23.921007 -0.658369 1.304945 0.035304 -0.027239 -258676.000000 0 1 0
-17.608088 13.174573 7.284675 23.166368 -0.642355 1.250919 0.008595 -0.030382 -160357.000000 0 1 0
-16.565288 12.368573 6.784775 21.758298 -0.641358 1.253683 0.017396 -0.026118 -90742.600000 0 1 0
-16.070988 11.593873 7.869975 21.322079 -0.624955 1.192756 0.006206 -0.016933 -392440.000000 0 1 0
10.786712 -32.455942 -14.678725 37.218359 -1.249932 1.976205 0.040774 -0.020369 -267619.000000 0 0 1
11.886712 -32.640542 -13.834525 37.391081 -1.221554 1.949800 0.017544 -0.014048 -419977.000000 0 0 1
12.908212 -31.729742 -14.085125 37.037672 -1.184427 1.960908 0.002838 -0.015803 -321623.000000 0 0 1
14.316312 -32.054042 -13.582125 37.641632 -1.150748 1.939951 0.043939 -0.007300 -156833.000000 0 0 1
14.967012 -33.114942 -14.213225 39.020848 -1.146304 1.943620 0.020190 -0.005536 -862443.000000 0 0 1
16.352312 -33.010642 -14.104025 39.446471 -1.110864 1.936438 0.037703 -0.011150 -441716.000000 0 0 1
17.043012 -34.255842 -14.628425 40.962394 -1.109134 1.935977 0.020874 -0.010327 -177713.000000 0 0 1
16.958012 33.826773 -13.657825 40.228857 1.106094 1.917185 0.013650 0.003875 -222488.000000 0 0 1
17.487912 32.611473 -14.088725 39.595800 1.078571 1.934581 0.009907 0.006506 -787652.000000 0 0 1
17.376112 31.542373 -12.983925 38.280973 1.067277 1.916835 0.005659 0.004013 -292008.000000 0 0 1
18.284712 31.686373 -11.908725 38.473038 1.047421 1.885500 0.002554 -0.002899 -175998.000000 0 0 1
18.129612 30.692173 -10.923625 37.282944 1.037249 1.868152 0.003711 -0.004566 -307907.000000 0 0 1
19.173612 30.725773 -9.819925 37.525078 1.012899 1.835569 0.005577 0.005065 -633754.000000 0 0 1
20.339412 30.041573 -10.138825 37.669398 0.975645 1.843310 0.009420 0.006601 -515173.000000 0 0 1
21.274912 30.109773 -9.081425 37.969627 0.955669 1.812313 0.010585 0.003814 866745.000000 0 0 1
22.623212 29.331073 -9.303125 38.192535 0.913799 1.816857 0.002999 0.007698 741725.000000 0 0 1
23.586512 29.879073 -10.152325 39.397364 0.902553 1.831428 -0.000760 0.009530 -275024.000000 0 0 1
24.819412 29.198673 -10.123525 39.636492 0.866292 1.829067 -0.007514 0.016284 -517454.000000 0 0 1
25.819612 29.886073 -10.991525 40.995650 0.858268 1.842232 -0.007770 0.011613 -1019570.000000 0 0 1
26.270812 31.086173 -10.477125 42.027085 0.869156 1.822748 -0.010245 0.003386 458295.000000 0 0 1
27.264012 31.597273 -11.393925 43.261248 0.858884 1.837315 -0.016412 0.010145 581339.000000 0 0 1
27.768412 33.054573 -11.189025 44.596903 0.872091 1.824398 -0.011116 0.002699 -162135.000000 0 0 1
26.982112 34.067473 -11.807925 45.033922 0.900940 1.836098 0.007043 0.000059 359090.000000 0 0 1
27.482212 -33.733242 -11.444325 44.990845 -0.887161 1.827993 0.028091 -0.005383 600364.000000 0 0 1
26.411112 -32.682742 -11.900625 43.673027 -0.891132 1.846780 0.018910 -0.007403 151785.000000 0 0 1
25.192312 -32.849642 -11.235625 42.895114 -0.916568 1.835820 0.021224 -0.005047 -229552.000000 0 0 1
24.156612 -31.955442 -11.673425 41.724825 -0.923500 1.854353 0.023926 -0.006279 516741.000000 0 0 1
24.096812 -30.514042 -11.085025 40.430692 -0.902370 1.848527 0.031878 -0.018402 -356239.000000 0 0 1
24.889612 -29.708142 -11.924125 40.549368 -0.873425 1.869273 0.011348 -0.015622 -119486.000000 0 0 1
25.421512 -28.585242 -11.242325 39.871784 -0.843912 1.856635 0.004776 -0.021288 -350271.000000 0 0 1
26.349012 -27.687542 -12.080925 40.085149 -0.810164 1.876938 -0.005381 -0.005832 -270348.000000 0 0 1
27.571912 -28.286842 -12.390625 41.399074 -0.798196 1.874752 -0.008861 -0.003183 -520132.000000 0 0 1
27.527412 -29.194942 -13.493025 42.333967 -0.814788 1.895184 -0.000923 -0.007846 -91182.300000 0 0 1
28.893512 -29.846042 -13.881525 43.798607 -0.801613 1.893298 0.010558 -0.002859 433423.000000 0 0 1
29.211512 -30.957542 -13.099025 44.533878 -0.814409 1.869348 0.009307 -0.001286 -94850.100000 0 0 1
30.432712 -31.517842 -13.542925 45.857771 -0.802912 1.870592 0.017877 -0.012013 -187279.000000 0 0 1
31.110012 -32.381742 -12.482025 46.606984 -0.805425 1.841920 0.018045 -0.010967 -468967.000000 0 0 1
32.080512 -33.180142 -13.117725 47.980785 -0.802246 1.847717 0.012358 -0.009675 50575.300000 0 0 1
32.939312 -33.827942 -12.156125 48.755505 -0.798707 1.822783 0.014235 -0.007975 180786.000000 0 0 1
32.402912 34.086273 -11.350325 48.380291 0.810711 1.807610 0.003179 -0.005012 -575239.000000 0 0 1
31.588312 34.406473 -10.290025 47.827936 0.828075 1.787638 -0.002875 -0.009435 -510737.000000 0 0 1
31.075912 33.215973 -9.706525 46.510534 0.818673 1.781037 -0.008837 -0.001093 -792111.000000 0 0 1
30.341612 33.495673 -8.411325 45.970903 0.834766 1.754804 -0.021321 -0.005618 -571021.000000 0 0 1
29.340712 34.430973 -8.641925 46.054882 0.865049 1.759559 -0.012195 -0.012113 -689923.000000 0 0 1
28.676512 -34.274042 -7.464425 45.307504 -0.874084 1.736301 -0.012718 -0.013525 504243.000000 0 0 1
27.641912 -33.131642 -7.615825 43.815314 -0.875485 1.745500 0.001771 -0.017145 234690.000000 0 0 1
28.281412 -31.878042 -7.913725 43.343683 -0.845112 1.754407 0.000753 -0.024087 565458.000000 0 0 1
27.417612 -30.859642 -8.481425 42.142348 -0.844393 1.773437 0.003367 -0.012680 994883.000000 0 0 1
26.425312 -30.200442 -7.412425 40.808183 -0.851968 1.753451 0.014059 -0.014369 540502.000000 0 0 1
25.492612 -29.391842 -8.078025 39.736735 -0.856323 1.775512 0.011884 -0.020777 -190200.000000 0 0 1
24.463512 -28.980742 -7.173425 38.597990 -0.869720 1.757733 0.021678 -0.029230 150225.000000 0 0 1
23.569512 -27.951042 -7.887525 37.403151 -0.870238 1.783270 0.052075 -0.031885 548311.000000 0 0 1
22.530412 -28.589542 -8.702225 37.426062 -0.903375 1.805462 0.059917 -0.031535 877616.000000 0 0 1
21.765512 -27.693842 -9.444025 36.467465 -0.904692 1.832753 0.068391 -0.027837 -156532.000000 0 0 1
20.572612 -28.409142 -10.113325 36.504671 -0.944042 1.851510 0.056135 -0.011420 -118723.000000 0 0 1
20.898412 -29.137742 -11.275825 37.588507 -0.948601 1.875469 0.052136 -0.009172 531544.000000 0 0 1
19.845712 -30.043242 -11.708925 37.862218 -0.987025 1.885202 0.044385 -0.002963 914863.000000 0 0 1
19.647512 -31.318442 -10.835225 38.526246 -1.010511 1.855885 0.036951 -0.007814 365738.000000 0 0 1
20.695012 -32.248742 -11.052625 39.880138 -1.000256 1.851619 0.030044 -0.004301 127911.000000 0 0 1
20.266512 -33.540942 -10.642125 40.607648 -1.027271 1.835965 0.022992 -0.011205 589547.000000 0 0 1
21.379412 34.449973 -10.720025 41.938036 1.015372 1.829281 0.005543 -0.001060 104750.000000 0 0 1
22.281212 34.525573 -9.681025 42.215990 0.997694 1.802177 0.012581 0.000196 -1031320.000000 0 0 1
23.336712 33.656373 -9.945925 42.145877 0.964526 1.809032 0.017025 -0.000955 22216.600000 0 0 1
24.640812 34.009473 -9.153125 42.983643 0.943798 1.785384 0.019490 -0.002536 102330.000000 0 0 1
24.639112 33.606573 -7.805225 42.395862 0.938158 1.755956 0.007550 -0.013949 134795.000000 0 0 1
25.276012 32.349473 -7.626125 41.755514 0.907536 1.754465 0.002009 0.004200 -103958.000000 0 0 1
25.192412 31.883773 -6.106725 41.091662 0.902101 1.719961 -0.004514 0.003655 -332499.000000 0 0 1
26.077712 32.599473 -5.270625 42.077930 0.896090 1.696385 -0.007246 -0.009971 360545.000000 0 0 1
27.238912 31.900173 -4.806625 42.221831 0.864054 1.684886 -0.011469 -0.007740 171133.000000 0 0 1
27.041312 30.793473 -3.747625 41.152342 0.850185 1.661990 -0.005680 0.011377 -665917.000000 0 0 1
26.683712 31.238173 -2.439225 41.155726 0.863868 1.630099 -0.011971 0.007347 -95833.600000 0 0 1
26.599012 30.214673 -1.399625 40.278938 0.848953 1.605552 -0.010084 0.019299 -531671.000000 0 0 1
25.358812 29.285373 -1.530025 38.769104 0.857132 1.610272 -0.000848 0.020623 1173520.000000 0 0 1
24.115912 29.966873 -1.223425 38.484899 0.893164 1.602591 -0.004556 0.018513 835807.000000 0 0 1
22.966812 29.160473 -1.434925 37.146556 0.903662 1.609435 0.002371 0.018742 897734.000000 0 0 1
21.693012 29.738573 -0.729625 36.817141 0.940573 1.590615 0.022026 0.010923 615628.000000 0 0 1
21.863812 29.588973 0.682475 36.796730 0.934426 1.552248 0.031890 0.003349 -111667.000000 0 0 1
20.810112 30.273273 1.285875 36.758472 0.968571 1.535807 0.017570 0.001737 -225492.000000 0 0 1
20.024312 29.405673 2.290875 35.649892 0.972958 1.506492 0.035973 -0.017686 -332016.000000 0 0 1
19.402512 28.260173 1.796275 34.326687 0.969143 1.518444 0.056350 -0.014510 14865.800000 0 0 1
18.738312 27.636473 2.860875 33.512439 0.974969 1.485325 0.082686 -0.021495 -270643.000000 0 0 1
18.047412 26.321973 2.409175 32.005616 0.969773 1.495452 0.075274 -0.006772 191415.000000 0 0 1
18.874212 25.246373 1.924075 31.580331 0.928832 1.509832 0.069441 -0.009530 36915.500000 0 0 1
19.685712 24.623073 2.867375 31.655092 0.896371 1.480090 0.055779 -0.001714 -811616.000000 0 0 1
20.954212 23.986673 2.318875 31.934569 0.852773 1.498119 0.039302 0.005388 -711140.000000 0 0 1
20.813812 22.844473 1.488875 30.940289 0.831877 1.522657 0.036185 0.012688 521745.000000 0 0 1
22.081512 22.287073 1.138075 31.394299 0.790031 1.534537 0.025729 0.013202 380917.000000 0 0 1
22.068112 21.179173 0.060075 30.586967 0.764846 1.568832 0.027621 0.003997 -226900.000000 0 0 1
21.640112 21.734573 -1.236925 30.695539 0.787576 1.611104 0.022831 0.005313 466764.000000 0 0 1
21.755912 20.732173 -2.249025 30.136370 0.761308 1.645494 0.047118 -0.011336 62161.300000 0 0 1
21.504112 21.327273 -3.675725 30.508857 0.781269 1.691570 0.037654 -0.007090 -418800.000000 0 0 1
22.456512 22.271473 -4.064725 31.887857 0.781261 1.698613 0.028207 0.003219 15674.200000 0 0 1
22.071912 22.930173 -5.279625 32.261999 0.804467 1.735184 0.040246 -0.001842 50911.800000 0 0 1
22.959212 24.182673 -5.609025 33.814024 0.811345 1.737445 0.029046 0.008883 78964.500000 0 0 1
22.732912 25.357673 -4.828525 34.396388 0.839924 1.711640 0.011149 0.014733 78417.600000 0 0 1
23.222212 25.317073 -3.507625 34.533010 0.828529 1.672545 0.014405 0.011517 -176295.000000 0 0 1
22.137912 25.073573 -2.423225 33.535701 0.847499 1.643117 0.017318 0.009612 -361299.000000 0 0 1
21.216712 26.187773 -2.347725 33.785502 0.889881 1.640341 0.031744 0.002687 1678750.000000 0 0 1
20.060712 25.997773 -1.506125 32.872249 0.913594 1.616630 0.051146 0.004841 1131940.000000 0 0 1
19.098212 24.768573 -1.631525 31.319096 0.913949 1.622914 0.076966 -0.008332 -264453.000000 0 0 1
18.497212 24.727373 -2.953325 31.021153 0.928547 1.666144 0.063990 -0.009570 593097.000000 0 0 1
17.823312 23.531073 -3.368925 29.710798 0.922552 1.684431 0.079274 -0.014536 220943.000000 0 0 1
17.385312 23.660873 -4.817725 29.753932 0.937114 1.733431 0.072177 -0.020147 -197352.000000 0 0 1
16.461112 22.725573 -5.304225 28.557918 0.943919 1.757617 0.062388 -0.020406 104851.000000 0 0 1
15.965112 23.256873 -6.533825 28.956136 0.969210 1.798402 0.054320 -0.018867 -239355.000000 0 0 1
15.149812 22.214973 -7.322525 27.868283 0.972278 1.836673 0.049363 -0.006720 -607109.000000 0 0 1
15.826812 21.150573 -7.955825 27.588582 0.928389 1.863324 0.049176 -0.010038 269307.000000 0 0 1
14.953912 20.196973 -8.543525 26.542966 0.933465 1.898506 0.042888 -0.007826 144421.000000 0 0 1
15.722112 18.899273 -8.907225 26.147772 0.876911 1.918404 0.033130 -0.003090 -377615.000000 0 0 1
16.757712 19.018373 -9.823225 27.184833 0.848503 1.940511 0.040605 -0.000120 -105163.000000 0 0 1
17.499912 17.807173 -9.939325 26.872523 0.794100 1.949665 0.037358 -0.000538 549543.000000 0 0 1
18.942412 18.042473 -10.497025 28.187468 0.761070 1.952390 0.029465 0.001930 383712.000000 0 0 1
18.947112 18.627473 -11.782425 29.065466 0.776892 1.988186 0.030438 0.002913 -288291.000000 0 0 1
20.250012 18.943073 -12.179225 30.285913 0.752064 1.984651 0.034956 0.008150 -314795.000000 0 0 1
20.352712 19.305773 -13.696425 31.217588 0.759005 2.024993 0.036320 0.001270 -102303.000000 0 0 1
20.217612 18.169073 -14.559025 30.835568 0.732083 2.062525 0.036032 0.004240 482694.000000 0 0 1
20.703512 18.620573 -15.855125 32.042880 0.732479 2.088412 0.032620 0.002615 239866.000000 0 0 1
20.606112 17.584473 -17.067525 32.017588 0.706443 2.133018 0.031831 0.001308 -499680.000000 0 0 1
21.383512 16.422973 -16.973025 31.859884 0.654935 2.132631 0.040305 0.001628 120981.000000 0 0 1
21.792612 15.786573 -18.167025 32.468055 0.626915 2.164621 0.041315 -0.007858 -254638.000000 0 0 1
22.606912 16.527173 -19.225325 33.968118 0.631274 2.172420 0.032950 -0.007670 -428583.000000 0 0 1
23.965712 16.825173 -18.934225 34.870427 0.612102 2.144788 0.037239 -0.008006 155041.000000 0 0 1
24.552112 17.371173 -20.059025 36.151464 0.615757 2.158992 0.045482 -0.011090 283896.000000 0 0 1
26.089212 17.458073 -19.741425 37.083085 0.589732 2.132178 0.039558 -0.010307 556749.000000 0 0 1
26.382412 18.590973 -18.943025 37.423176 0.613855 2.101551 0.031725 -0.007494 480408.000000 0 0 1
27.718812 18.620773 -18.427725 38.139832 0.591530 2.075059 0.035573 -0.016386 490446.000000 0 0 1
27.955612 19.844473 -17.460925 38.473410 0.617310 2.041871 0.039668 -0.016511 127795.000000 0 0 1
27.270612 19.755773 -16.216225 37.375698 0.626937 2.019581 0.033560 -0.014065 -801668.000000 0 0 1
25.981812 20.235473 -16.273825 36.733722 0.661700 2.029762 0.028628 -0.010441 -1030280.000000 0 0 1
24.932312 19.640573 -15.325025 35.245265 0.667230 2.020625 0.038876 -0.003208 -104122.000000 0 0 1
25.170512 20.106173 -13.997925 35.124846 0.674008 1.980698 0.036412 -0.007091 505727.000000 0 0 1
24.254612 19.618773 -13.013125 33.801241 0.680125 1.965993 0.040550 -0.006841 75421.500000 0 0 1
24.819112 19.809973 -11.597425 33.807153 0.673627 1.920955 0.039664 -0.006235 -107896.000000 0 0 1
24.611012 21.178673 -11.215325 34.351443 0.710579 1.903382 0.035708 -0.005964 98430.900000 0 0 1
25.230912 21.616873 -10.024325 34.704109 0.708406 1.863823 0.023010 -0.002812 70192.700000 0 0 1
24.496912 21.274073 -8.682825 33.586848 0.715102 1.832285 0.031032 -0.001555 -306241.000000 0 0 1
24.478212 19.908173 -8.379425 32.645566 0.682799 1.830381 0.039113 -0.002160 395074.000000 0 0 1
23.739412 19.705373 -7.153425 31.670695 0.692809 1.798631 0.035223 -0.002901 660761.000000 0 0 1
22.190112 19.588573 -7.239725 30.471739 0.723209 1.810678 0.030220 -0.002104 209472.000000 0 0 1
21.469812 20.763573 -7.518225 30.799391 0.768677 1.817391 0.037231 -0.002254 334702.000000 0 0 1
20.113112 20.538673 -7.866425 29.803607 0.795866 1.837903 0.047440 -0.007559 280563.000000 0 0 1
19.304512 21.832473 -8.084125 30.243580 0.846773 1.841387 0.039619 -0.004496 -589930.000000 0 0 1
19.704412 22.621373 -9.212025 31.382348 0.854206 1.868726 0.032696 -0.003408 1943.620000 0 0 1
19.053912 22.365673 -10.425825 31.176477 0.865185 1.911779 0.033348 0.006035 -484226.000000 0 0 1
17.567612 22.719473 -10.528525 30.588319 0.912587 1.922184 0.029203 0.005549 -531656.000000 0 0 1
17.259912 24.117273 -10.200825 31.362466 0.949633 1.902079 0.035045 -0.003195 599376.000000 0 0 1
15.899312 24.423973 -10.521825 30.984309 0.993738 1.917273 0.030864 0.002483 640229.000000 0 0 1
15.441212 25.716873 -9.860325 31.575538 1.030060 1.888386 0.050001 -0.004903 -230451.000000 0 0 1
16.275512 26.793573 -10.153125 32.952599 1.024924 1.884005 0.034437 0.004053 -193534.000000 0 0 1
16.423912 27.651073 -9.037325 33.406586 1.034822 1.844735 0.043516 -0.013732 -16912.000000 0 0 1
19.675212 29.263773 33.708363 48.782539 0.978876 0.807935 0.004793 0.001299 -323995.000000 0 0 1
18.330212 29.653873 33.585135 48.407749 1.017146 0.804049 0.016842 -0.012193 -821647.000000 0 0 1
17.526212 28.618173 34.014482 47.782349 1.021298 0.778649 0.009807 -0.009997 -1062830.000000 0 0 1
16.075812 29.051773 34.095407 47.591323 1.065384 0.772138 0.020399 -0.011789 -548981.000000 0 0 1
15.482312 29.354073 32.822647 46.676437 1.085444 0.790915 0.017076 -0.015543 100958.000000 0 0 1
14.173212 29.896273 32.946635 46.692053 1.128099 0.787505 0.029059 -0.017501 139466.000000 0 0 1
13.466512 29.969073 31.581807 45.573049 1.148486 0.805164 0.028255 -0.022851 -230930.000000 0 0 1
13.119912 28.734573 31.040037 44.286473 1.142476 0.794149 0.021638 -0.018073 63120.500000 0 0 1
11.706212 28.615473 31.112237 43.861737 1.182481 0.782256 0.011578 -0.002888 55979.600000 0 0 1
11.227412 27.155473 31.072277 42.766352 1.178750 0.757496 -0.011314 0.013842 -191580.000000 0 0 1
11.302812 26.541873 29.792247 41.470502 1.168207 0.769302 -0.011175 0.016336 1291940.000000 0 0 1
12.603512 26.037773 29.354867 41.213133 1.119992 0.778070 -0.000150 0.009807 1079610.000000 0 0 1
12.569112 25.173573 28.018167 39.707796 1.107711 0.787514 0.026820 0.010496 -230666.000000 0 0 1
12.352612 25.868873 26.840417 39.270773 1.125303 0.818290 0.021540 0.013760 3193.220000 0 0 1
12.455612 25.128773 25.621787 37.987807 1.110618 0.830544 0.032699 0.007852 -1096.620000 0 0 1
11.442812 23.993273 25.284457 36.686767 1.125785 0.810414 0.030696 0.011123 -451967.000000 0 0 1
11.744812 23.357373 24.062687 35.531963 1.104886 0.826829 0.035720 -0.001236 649207.000000 0 0 1
10.850412 22.254873 23.757087 34.313408 1.117156 0.806047 0.031692 -0.001856 463252.000000 0 0 1
10.908412 21.830873 22.230987 33.012077 1.107406 0.831971 0.040055 0.002026 -90955.900000 0 0 1
10.458112 22.926473 21.503487 33.126956 1.142833 0.864365 0.034974 -0.001409 166802.000000 0 0 1
10.657012 22.700073 20.127387 32.155512 1.131869 0.894461 0.039238 0.002284 -752640.000000 0 0 1
10.179112 23.818373 19.183187 32.232342 1.166925 0.933340 0.030418 -0.001878 -96468.500000 0 0 1
8.808412 24.087273 19.005187 31.921497 1.220215 0.933067 0.039512 -0.007750 -127001.000000 0 0 1
8.213012 24.761773 20.094187 32.929854 1.250534 0.914468 0.038858 -0.009044 -300233.000000 0 0 1
6.875912 25.449273 19.774087 32.953879 1.306916 0.927228 0.038391 -0.012733 -183649.000000 0 0 1
7.064812 26.507673 18.835787 33.276946 1.310331 0.969113 0.035006 -0.017343 -314794.000000 0 0 1
5.836312 27.128773 18.571887 33.390835 1.358892 0.980994 0.032901 -0.020656 -531990.000000 0 0 1
5.879212 28.201273 17.534687 33.724504 1.365267 1.024017 0.034561 -0.015144 -24347.100000 0 0 1
6.197412 27.701773 16.271887 32.719573 1.350702 1.050297 0.036178 -0.009008 -37263.400000 0 0 1
6.817212 28.687273 15.483887 33.304426 1.337485 1.087252 0.024387 -0.003250 -224242.000000 0 0 1
7.340112 28.176273 14.187287 32.389176 1.315954 1.117395 0.024440 -0.003824 359386.000000 0 0 1
6.330712 27.907073 13.212087 31.518913 1.347722 1.138255 0.023686 -0.005577 278699.000000 0 0 1
6.859312 26.913973 12.337687 30.391292 1.321248 1.152766 0.020760 -0.013734 203001.000000 0 0 1
6.176912 26.866773 10.947587 29.661884 1.344814 1.192778 0.010424 -0.011866 48226.100000 0 0 1
6.771812 27.853473 10.037087 30.371311 1.332301 1.233985 0.003988 -0.006304 530107.000000 0 0 1
6.439512 29.256173 10.189287 31.641943 1.354143 1.242936 0.010416 -0.004324 -384382.000000 0 0 1
6.708812 30.176473 9.022387 32.202968 1.352035 1.286822 0.002483 0.005109 -314404.000000 0 0 1
5.852612 30.005873 7.906587 31.577200 1.378166 1.317714 -0.006814 0.003590 107627.000000 0 0 1
6.148812 28.845273 7.134687 30.344051 1.360774 1.333448 -0.000373 0.007310 277199.000000 0 0 1
4.839812 28.188473 6.594187 29.351271 1.400760 1.344198 -0.002835 0.008090 438327.000000 0 0 1
4.127012 29.112673 5.801187 29.970548 1.429975 1.376004 -0.019409 0.004651 -698861.000000 0 0 1
2.779312 28.760773 5.712187 29.453959 1.474460 1.375623 0.010755 -0.006584 232901.000000 0 0 1
1.845912 29.882573 5.040887 30.360930 1.509103 1.403992 0.018302 -0.006759 198550.000000 0 0 1
2.095112 30.215673 3.654287 30.507871 1.501569 1.450726 0.010767 -0.010044 -350384.000000 0 0 1
1.146812 31.042773 3.058887 31.214191 1.533870 1.472642 0.014011 -0.016415 442357.000000 0 0 1
-0.148288 30.281173 2.550487 30.388754 -1.565899 1.486769 0.024301 -0.003824 468828.000000 0 0 1
-0.025088 29.579473 1.355987 29.610548 -1.569948 1.524986 0.028739 -0.004059 408450.000000 0 0 1
-1.103888 28.629873 1.261587 28.678908 -1.532258 1.526792 0.028442 0.001145 613735.000000 0 0 1
-1.424888 28.182773 -0.170713 28.219286 -1.520281 1.576846 0.028265 -0.004527 561820.000000 0 0 1
-2.331588 28.953073 -1.006613 29.064239 -1.490440 1.605437 0.035828 -0.009400 568966.000000 0 0 1
-1.676688 29.734973 -1.996813 29.849073 -1.514468 1.637743 0.030757 -0.008870 54195.900000 0 0 1
-2.626888 30.806673 -2.585613 31.026392 -1.485732 1.654229 0.034687 -0.005671 1453730.000000 0 0 1
-3.906088 30.479873 -3.191813 30.894463 -1.443338 1.674294 0.014394 -0.007713 979072.000000 0 0 1
-3.858788 29.615373 -4.336113 30.178841 -1.441229 1.714976 0.005588 -0.012152 -594702.000000 0 0 1
-5.227288 29.318573 -4.964413 30.191864 -1.394358 1.735975 0.010898 -0.008231 -311571.000000 0 0 1
-5.818188 30.474273 -5.444413 31.498797 -1.382145 1.744514 0.014505 -0.007571 -208533.000000 0 0 1
-6.697088 30.201873 -6.524813 31.616092 -1.352583 1.778666 0.008514 -0.006800 -98127.500000 0 0 1
-7.291588 31.492473 -7.121913 33.100827 -1.343271 1.787650 0.011875 -0.013445 -286138.000000 0 0 1
-8.204288 32.163973 -6.294313 33.785350 -1.321045 1.758194 -0.000368 -0.001744 -263774.000000 0 0 1
-8.530788 33.394373 -6.884513 35.147617 -1.320689 1.767945 0.001556 -0.013689 -309886.000000 0 0 1
-9.629888 34.037873 -6.042613 35.886274 -1.295085 1.739985 -0.004029 -0.008970 -457993.000000 0 0 1
-10.911688 33.511173 -6.258613 35.794327 -1.256010 1.746549 0.000168 -0.006319 -575197.000000 0 0 1
-11.836588 34.392273 -5.649313 36.808260 -1.239330 1.724885 0.006131 0.001913 83679.500000 0 0 1
-13.299288 34.184673 -6.102413 37.184706 -1.199772 1.735653 0.012816 -0.003283 21532.600000 0 0 1
-13.572588 34.476973 -7.429313 37.789833 -1.195758 1.768681 0.019985 -0.002657 -530634.000000 0 0 1
-14.854488 34.015673 -7.739413 37.915964 -1.159061 1.776361 0.031305 -0.007743 -1007760.000000 0 0 1
-15.312288 34.554273 -9.075313 38.869335 -1.153664 1.806454 0.043568 -0.011851 -1046410.000000 0 0 1
-16.615688 34.204373 -9.357413 39.160967 -1.118592 1.812078 0.059925 -0.018443 -762639.000000 0 0 1
-17.590288 -33.962642 -8.942813 39.279169 1.092907 1.800484 0.056315 -0.015509 937561.000000 0 0 1
-19.088588 -34.485142 -9.213813 40.478309 1.065246 1.800433 0.057515 -0.016603 1565570.000000 0 0 1
-19.511188 33.534073 -8.380813 39.692046 -1.043843 1.783543 0.049122 -0.023961 176744.000000 0 0 1
-19.739988 33.857773 -7.038413 39.819030 -1.042951 1.748490 0.052487 -0.022589 -663561.000000 0 0 1
-19.938288 32.678573 -6.043813 38.755027 -1.022959 1.727385 0.045197 -0.017727 -399351.000000 0 0 1
-19.865588 33.031073 -4.620113 38.820597 -1.029332 1.690091 0.048028 -0.020637 853633.000000 0 0 1
-21.176588 33.148273 -4.036213 39.541711 -1.002303 1.673049 0.056440 -0.014547 885522.000000 0 0 1
-21.847488 -34.543742 -4.146713 41.082576 1.006851 1.671905 0.050150 -0.018630 23995.200000 0 0 1
-22.250088 -34.208242 -5.480113 41.174043 0.994118 1.704289 0.050349 -0.018843 700470.000000 0 0 1
-23.270588 -33.172442 -5.483913 40.890151 0.959062 1.705315 0.044949 -0.019665 669863.000000 0 0 1
-23.710288 -32.884242 -6.920313 41.127142 0.946100 1.739867 0.050876 -0.013072 -3648.140000 0 0 1
-22.681988 -32.245742 -7.670713 40.163419 0.957785 1.762964 0.061282 -0.003597 183868.000000 0 0 1
-22.593188 -32.395642 -9.121813 40.535629 0.961808 1.797772 0.054059 -0.002283 436146.000000 0 0 1
-23.804988 -31.889142 -9.997513 41.031025 0.929544 1.816931 0.034156 -0.006678 312380.000000 0 0 1
-25.005488 -32.621042 -9.778413 42.249546 0.916790 1.804358 0.019824 0.003369 1171080.000000 0 0 1
-26.246878 -32.146842 -10.334713 42.768263 0.886094 1.814856 0.005502 0.003484 1176260.000000 0 0 1
-26.692758 -30.710142 -9.991813 41.898120 0.855270 1.811595 0.014147 0.011660 -903264.000000 0 0 1
-26.040758 -29.601842 -10.596213 40.824868 0.849310 1.833356 0.012871 0.012692 -92972.100000 0 0 1
-26.399888 -29.411242 -11.917013 41.279419 0.839302 1.863656 0.009505 0.004148 250424.000000 0 0 1
-25.343058 -28.462942 -12.597513 40.138597 0.843317 1.890042 0.024691 0.001049 46495.500000 0 0 1
-24.183288 -29.170442 -12.943213 40.040889 0.878601 1.899958 0.024168 -0.009670 -713323.000000 0 0 1
-23.267288 -28.316642 -13.594113 39.089625 0.882973 1.925986 0.024664 -0.008837 -269866.000000 0 0 1
-21.928688 -29.028842 -13.865113 38.933049 0.923842 1.934916 0.031510 -0.015101 -339050.000000 0 0 1
-22.037288 -30.191942 -14.670613 40.154978 0.940280 1.944805 0.036068 -0.023949 -148329.000000 0 0 1
-22.363488 -31.338642 -13.855213 40.917025 0.950996 1.916243 0.032981 -0.024764 -86436.500000 0 0 1
-22.566988 -32.650242 -14.674313 42.315986 0.966019 1.924932 0.030710 -0.020204 141617.000000 0 0 1
-23.099788 -33.695042 -13.861813 43.140536 0.969831 1.897917 0.027296 -0.019135 -14533.000000 0 0 1
-23.225088 34.255273 -14.672813 43.910362 -0.974988 1.911504 0.031034 -0.015245 -435416.000000 0 0 1
-23.804988 33.066373 -13.960213 43.069130 -0.946829 1.900894 0.028191 -0.011439 -602553.000000 0 0 1
-23.214488 32.503373 -12.806613 41.945095 -0.950592 1.881069 0.030569 -0.009972 -120851.000000 0 0 1
-23.117188 33.391173 -11.722013 42.270325 -0.965247 1.851790 0.052051 -0.014946 20047.400000 0 0 1
-22.356388 32.817273 -10.478713 41.068052 -0.972773 1.828804 0.056729 -0.021149 69211.300000 0 0 1
-22.965388 31.731073 -9.812213 40.380064 -0.944307 1.816250 0.050177 -0.018273 253577.000000 0 0 1
-22.178988 31.330473 -8.687713 39.357113 -0.954785 1.793370 0.043802 -0.015460 99746.100000 0 0 1
-22.865388 30.230173 -7.830713 38.704126 -0.923227 1.774525 0.042400 -0.007706 65912.200000 0 0 1
-23.211888 29.092873 -8.619913 38.203270 -0.897365 1.798389 0.042211 -0.002411 117027.000000 0 0 1
-23.650788 27.852073 -8.054013 37.416104 -0.866792 1.787750 0.036101 -0.000195 -53139.700000 0 0 1
-22.671788 27.062373 -7.129413 36.016809 -0.873451 1.770059 0.038208 0.003357 146065.000000 0 0 1
-22.385488 27.669373 -5.857313 36.069549 -0.890571 1.733908 0.042737 0.001079 383641.000000 0 0 1
-21.321988 27.003273 -5.176413 34.793665 -0.902424 1.720125 0.034297 -0.004187 -522672.000000 0 0 1
-20.174088 27.911673 -4.868813 34.781613 -0.944943 1.711240 0.033057 -0.007908 -596537.000000 0 0 1
-19.423188 28.158973 -6.057213 34.740147 -0.966970 1.746050 0.038239 -0.003763 987787.000000 0 0 1
-18.101988 28.723773 -5.865713 34.454951 -1.008460 1.741873 0.023228 -0.004198 1143860.000000 0 0 1
-17.171388 28.403373 -7.084713 33.938198 -1.027035 1.781096 0.033009 -0.004078 -300711.000000 0 0 1
-17.482888 28.946873 -8.390213 34.842050 -1.027467 1.813994 0.042136 -0.010131 136713.000000 0 0 1
-17.597288 30.326373 -8.388113 36.051544 -1.045015 1.805618 0.037298 -0.009716 -64538.200000 0 0 1
-17.661088 30.965173 -9.769613 36.962160 -1.052461 1.838289 0.057398 -0.014792 578543.000000 0 0 1
-16.345388 30.903573 -10.329813 36.454184 -1.084285 1.858097 0.048263 -0.010126 436816.000000 0 0 1
-16.329788 31.790173 -11.400213 37.513223 -1.096269 1.879578 0.072948 -0.011972 -1175500.000000 0 0 1
-14.972588 32.091173 -11.951813 37.374692 -1.134253 1.896297 0.068001 -0.017787 -987880.000000 0 0 1
-14.995288 32.781273 -13.177413 38.381177 -1.141777 1.921257 0.071374 -0.018758 -228859.000000 0 0 1
-15.157888 31.848673 -14.269913 38.049046 -1.126586 1.955236 0.072769 -0.018135 -243904.000000 0 0 1
-14.588088 32.335273 -15.579113 38.743915 -1.146986 1.984611 0.080653 -0.016853 -116224.000000 0 0 1
-13.191688 32.491073 -15.495513 38.337988 -1.185120 1.986880 0.073160 -0.018738 -515932.000000 0 0 1
-12.721788 32.973673 -16.708713 39.093325 -1.202577 2.012418 0.068486 -0.021527 -296429.000000 0 0 1
-11.239088 32.693773 -16.975413 38.514472 -1.239684 2.027235 0.072414 -0.014386 -391478.000000 0 0 1
-10.898488 31.347973 -17.196813 37.379176 -1.236206 2.048864 0.073331 -0.024239 752400.000000 0 0 1
-9.582188 31.084573 -17.730113 37.046267 -1.271777 2.069849 0.064105 -0.018887 828071.000000 0 0 1
-9.500588 31.232173 -19.306313 37.926818 -1.275498 2.104867 0.059629 -0.021377 76774.000000 0 0 1
-10.225688 30.187473 -19.993613 37.624364 -1.244188 2.131050 0.060917 -0.036216 230009.000000 0 0 1
-9.833688 30.033973 -21.352813 38.140314 -1.254378 2.165000 0.047320 -0.029830 -1363190.000000 0 0 1
-10.920988 29.533073 -22.310413 38.590477 -1.216603 2.187235 0.051661 -0.034775 163801.000000 0 0 1
-11.866688 30.532373 -22.690713 39.848620 -1.200105 2.176600 0.062234 -0.036581 513108.000000 0 0 1
-12.743488 31.027873 -21.681413 39.940068 -1.181091 2.144622 0.062414 -0.033100 -970571.000000 0 0 1
-13.493288 32.275573 -22.143613 41.401944 -1.174814 2.135120 0.062322 -0.027254 193259.000000 0 0 1
-14.400088 32.036173 -23.217013 42.103546 -1.148363 2.154870 0.042934 -0.024418 -41939.700000 0 0 1
-15.262488 33.121473 -23.415713 43.339025 -1.138995 2.141580 0.037698 -0.017022 155262.000000 0 0 1
-15.587388 33.290473 -24.955613 44.429774 -1.132891 2.167219 0.032869 -0.017490 -188477.000000 0 0 1
-14.519188 33.798373 -25.682913 44.863669 -1.165051 2.180306 0.030077 -0.012017 -305233.000000 0 0 1
-14.803688 33.599873 -27.024513 45.589746 -1.155797 2.205298 0.032137 -0.007315 186987.000000 0 0 1
-15.105888 -34.189042 -27.815813 46.591822 1.154754 2.210566 0.023194 -0.001047 -106565.000000 0 0 1
-16.302588 -33.567842 -27.443013 46.321629 1.118686 2.204887 0.025038 0.006476 -410032.000000 0 0 1
-16.804888 -32.629742 -28.358513 46.382211 1.095207 2.228637 0.022272 0.009520 50590.300000 0 0 1
-18.239988 -32.133242 -28.068613 46.401394 1.054514 2.220448 0.051081 0.003642 794804.000000 0 0 1
-19.217988 -33.175242 -28.316913 47.663144 1.045746 2.206949 0.033784 0.001029 39242.300000 0 0 1
-20.501488 -32.783742 -27.872713 47.665216 1.011942 2.195381 0.041983 0.002038 430252.000000 0 0 1
-21.650688 -33.787542 -28.057313 48.964917 1.000924 2.180968 0.027313 0.000392 125685.000000 0 0 1
-21.526588 34.162973 -27.307213 48.746144 -1.008528 2.165414 0.044045 -0.006628 391916.000000 0 0 1
-22.833988 33.591773 -27.118913 48.838854 -0.973791 2.159488 0.036249 -0.003552 1009650.000000 0 0 1
-22.862488 32.029573 -26.963013 47.703154 -0.950873 2.171502 0.052557 -0.006789 -477166.000000 0 0 1
-22.121788 31.551773 -25.851113 46.402240 -0.959315 2.161697 0.049696 -0.017933 -290435.000000 0 0 1
-22.312788 30.155373 -25.716613 45.481328 -0.933773 2.171754 0.046872 -0.015630 -125780.000000 0 0 1
30.398477 10.292573 -26.887375 41.868071 0.326473 2.268152 -0.014544 0.009476 -150587.000000 0 0 1
30.022837 8.936873 -26.753665 41.194623 0.289317 2.277651 -0.024234 0.012302 412747.000000 0 0 1
28.619587 8.784273 -26.568845 40.026837 0.297804 2.296652 -0.014711 0.012876 411531.000000 0 0 1
28.257347 7.419973 -25.962355 39.084236 0.256788 2.297309 -0.023428 0.021286 79656.700000 0 0 1
28.752137 7.248973 -24.656725 38.564064 0.246972 2.264476 -0.033322 0.018612 425571.000000 0 0 1
28.177737 5.966273 -24.274525 37.667410 0.208655 2.271092 -0.027897 0.018268 155682.000000 0 0 1
28.286327 5.608573 -22.777625 36.747688 0.195740 2.239333 -0.012551 0.018675 -66633.700000 0 0 1
29.507267 5.186873 -22.205325 37.291539 0.174005 2.208625 -0.021471 0.015097 -44403.400000 0 0 1
29.298997 4.807973 -20.834925 36.271778 0.162651 2.182681 -0.006451 0.007550 583947.000000 0 0 1
30.623127 4.490773 -20.039925 36.871961 0.145609 2.145398 -0.014826 0.008449 415070.000000 0 0 1
31.213287 3.234673 -20.299425 37.373775 0.103263 2.144976 -0.010043 0.014877 266996.000000 0 0 1
32.218557 2.932473 -19.340325 37.691948 0.090768 2.109607 0.003325 0.008685 142912.000000 0 0 1
32.758777 1.462173 -19.370825 38.085486 0.044605 2.104371 0.017081 0.006115 434207.000000 0 0 1
31.775467 0.549573 -18.859225 36.954738 0.017294 2.106368 0.031412 -0.000069 75681.900000 0 0 1
32.170607 -0.770627 -19.000225 37.370447 -0.023950 2.104156 0.031717 0.005800 -568367.000000 0 0 1
31.114857 -1.787927 -18.636825 36.313389 -0.057399 2.109731 0.021705 0.003157 -274736.000000 0 0 1
30.857887 -1.950027 -17.230425 35.396318 -0.063110 2.079203 0.034798 0.002266 -1445.830000 0 0 1
29.536507 -1.659227 -16.826725 34.033762 -0.056116 2.087955 0.030418 -0.001295 -43425.200000 0 0 1
29.191497 -1.981727 -15.303325 33.019123 -0.067783 2.052702 0.047822 -0.003140 -284266.000000 0 0 1
29.144747 -3.371927 -15.006025 32.954012 -0.115184 2.043576 0.029559 -0.010077 647756.000000 0 0 1
28.265287 -3.623527 -13.908025 31.709455 -0.127502 2.024846 0.023868 -0.014720 -120682.000000 0 0 1
28.194727 -5.147027 -13.690225 31.762506 -0.180565 2.016417 0.020923 -0.010437 -373193.000000 0 0 1
27.356877 -5.782427 -14.605425 31.546055 -0.208304 2.052159 0.019106 -0.010379 129514.000000 0 0 1
27.233357 -7.141727 -14.308025 31.581317 -0.256467 2.040984 0.014414 -0.013392 -333682.000000 0 0 1
26.578947 -8.001227 -15.420525 31.752994 -0.292407 2.077892 0.005985 -0.003606 -540494.000000 0 0 1
25.258747 -7.654027 -15.684325 30.701571 -0.294230 2.106986 0.012058 -0.009347 -620071.000000 0 0 1
24.686847 -8.432327 -16.716925 30.983869 -0.329147 2.140683 0.000275 -0.002595 -468280.000000 0 0 1
23.261047 -8.082927 -17.097125 29.978687 -0.334435 2.177679 -0.000813 -0.004261 -753076.000000 0 0 1
23.100447 -6.751627 -17.609725 29.821427 -0.284352 2.202482 -0.002670 -0.001068 824401.000000 0 0 1
21.750247 -6.549127 -18.075725 29.029229 -0.292471 2.242951 -0.001148 0.000333 627255.000000 0 0 1
21.641947 -7.046827 -19.593025 30.031954 -0.314783 2.281551 -0.006292 0.009421 -521244.000000 0 0 1
22.347547 -6.262627 -20.509725 30.972280 -0.273229 2.294542 -0.007263 0.003473 220298.000000 0 0 1
22.193347 -6.768127 -21.851725 31.872403 -0.296003 2.326224 0.004784 0.003546 -34085.500000 0 0 1
22.807847 -5.808927 -22.909625 32.844975 -0.249388 2.342710 0.004222 0.000148 -145285.000000 0 0 1
22.734947 -6.372027 -24.185825 33.799921 -0.273263 2.368220 0.008356 -0.001367 272965.000000 0 0 1
23.064647 -5.271027 -25.040025 34.449448 -0.224674 2.384539 0.009732 -0.007115 -247528.000000 0 0 1
23.058147 -5.607527 -26.557505 35.614934 -0.238560 2.412358 0.022412 -0.011384 -731096.000000 0 0 1
21.765647 -5.887527 -26.978365 35.160184 -0.264174 2.445415 0.021044 -0.009112 -803222.000000 0 0 1
21.713747 -6.239827 -28.383425 36.277280 -0.279828 2.469310 0.020884 -0.011378 229074.000000 0 0 1
20.394947 -6.836527 -28.930695 36.051034 -0.323436 2.502258 0.012892 -0.018371 8617.020000 0 0 1
20.240047 -8.176727 -28.532065 35.924881 -0.383939 2.488510 0.008866 -0.009603 164121.000000 0 0 1
19.390047 -8.979827 -29.326085 36.285403 -0.433707 2.511896 0.008080 -0.012273 -295700.000000 0 0 1
19.337747 -10.442027 -28.979165 36.369993 -0.495119 2.492757 0.014936 -0.007515 -648830.000000 0 0 1
18.398547 -10.745927 -27.987725 35.175193 -0.528619 2.490904 0.016339 -0.003274 61275.900000 0 0 1
18.513447 -12.052727 -27.365145 35.169121 -0.577096 2.462434 0.014681 -0.008040 -461111.000000 0 0 1
18.328247 -13.325327 -28.261025 36.223949 -0.628643 2.465742 0.016448 -0.002122 490841.000000 0 0 1
17.067347 -13.409927 -28.949365 36.182678 -0.665964 2.498240 0.011363 -0.003171 1017820.000000 0 0 1
17.185447 -14.394227 -29.933665 37.397295 -0.697241 2.498797 0.008012 -0.005159 501064.000000 0 0 1
15.944747 -14.545027 -30.915425 37.703531 -0.739523 2.532139 0.003945 -0.009644 -187015.000000 0 0 1
14.923647 -15.271227 -30.363455 37.119604 -0.796909 2.528704 0.006018 -0.003843 -879082.000000 0 0 1
14.042147 -15.623627 -31.395855 37.775380 -0.838658 2.551914 0.002290 -0.005712 -497821.000000 0 0 1
12.845147 -16.402427 -30.818915 37.200039 -0.906430 2.547157 0.009671 -0.003144 -310090.000000 0 0 1
13.207447 -17.664127 -30.263315 37.447647 -0.928770 2.511801 0.003554 -0.010672 366977.000000 0 0 1
12.090347 -18.254827 -29.617985 36.832597 -0.985816 2.504997 0.003544 -0.005982 154181.000000 0 0 1
12.426347 -19.627627 -28.995485 37.153681 -1.006390 2.466134 0.005400 0.000339 -119008.000000 0 0 1
13.082847 -19.400127 -27.747615 36.296776 -0.977480 2.441007 0.009385 -0.001088 -190838.000000 0 0 1
13.072147 -20.485627 -26.854825 36.217724 -1.002823 2.406074 0.007731 0.007957 -338569.000000 0 0 1
13.934947 -20.201927 -25.636045 35.489539 -0.966960 2.377998 -0.009149 0.008528 498260.000000 0 0 1
15.318047 -20.546327 -25.790835 36.358785 -0.930158 2.359361 -0.007122 0.005691 734758.000000 0 0 1
16.056247 -20.771427 -24.616825 35.989489 -0.912739 2.324029 -0.006840 0.014695 -352082.000000 0 0 1
17.535547 -21.000427 -25.028925 37.080459 -0.875070 2.311747 -0.014169 0.012902 -160008.000000 0 0 1
18.112647 -22.253727 -25.017825 38.068201 -0.887628 2.287873 -0.007300 0.007846 221097.000000 0 0 1
18.061347 -22.899227 -23.749025 37.611209 -0.902964 2.254198 -0.007477 0.008371 -888756.000000 0 0 1
18.490747 -24.362227 -23.871625 38.797942 -0.921565 2.233538 -0.008318 -0.004079 221623.000000 0 0 1
19.892647 -24.602827 -23.987425 39.704068 -0.890863 2.219502 0.000269 -0.001105 484167.000000 0 0 1
20.170647 -25.989477 -23.819125 40.615990 -0.910794 2.197462 0.000418 -0.016117 -29493.700000 0 0 1
20.338247 -26.475547 -22.340625 40.170915 -0.915755 2.160530 0.010012 -0.018823 -49630.600000 0 0 1
19.164747 -26.475387 -21.530525 39.138180 -0.944229 2.153299 0.002502 -0.011720 400918.000000 0 0 1
19.486247 -26.728227 -20.170125 38.742043 -0.940838 2.118381 0.000801 -0.012652 -522610.000000 0 0 1
18.282647 -27.242577 -19.412925 38.121842 -0.979727 2.105090 0.007510 -0.015771 -1138100.000000 0 0 1
17.996247 -28.648097 -19.626225 39.112237 -1.009911 2.096466 0.017354 -0.012864 1087820.000000 0 0 1
16.719747 -29.191947 -19.213225 38.741034 -1.050653 2.089713 0.007231 -0.002282 614148.000000 0 0 1
15.452247 -28.530707 -19.726825 37.972632 -1.074425 2.117063 0.012429 -0.011342 -1091770.000000 0 0 1
14.782047 -27.716867 -18.785725 36.601053 -1.080847 2.109771 0.017090 -0.011804 308549.000000 0 0 1
13.737647 -26.982827 -19.444425 35.984463 -1.099875 2.141657 0.027712 -0.001039 588138.000000 0 0 1
12.737447 -26.195597 -18.536325 34.526037 -1.118214 2.137530 0.026555 -0.012938 -597101.000000 0 0 1
11.912947 -27.034757 -17.806025 34.494216 -1.155743 2.113208 0.032446 -0.015568 -530951.000000 0 0 1
11.104847 -26.208967 -16.986325 33.147591 -1.170024 2.108826 0.036874 -0.023262 280741.000000 0 0 1
9.600247 -26.274757 -17.393425 32.940231 -1.220487 2.127075 0.043912 -0.018964 258713.000000 0 0 1
8.990047 -27.562747 -17.125825 33.672242 -1.255510 2.104359 0.040849 -0.015326 664219.000000 0 0 1
7.568547 -27.449397 -16.991825 33.158324 -1.301754 2.108826 0.024314 -0.005399 1084310.000000 0 0 1
6.748447 -28.126557 -18.142625 34.143807 -1.335316 2.131000 0.032818 -0.000001 -33069.000000 0 0 1
6.823747 -27.555337 -19.438825 34.405349 -1.328042 2.171223 0.040404 -0.001986 -153162.000000 0 0 1
6.205247 -28.297907 -20.455425 35.464081 -1.354930 2.185593 0.039470 0.001171 -159862.000000 0 0 1
6.306847 -27.613197 -21.793325 35.738131 -1.346248 2.226612 0.036691 -0.010214 -136258.000000 0 0 1
5.444847 -26.513437 -21.954825 34.851442 -1.368251 2.252291 0.040262 -0.012044 -191424.000000 0 0 1
5.666347 -25.835027 -23.178525 35.168169 -1.354887 2.290387 0.034784 -0.013691 256076.000000 0 0 1
4.439447 -24.902927 -23.509725 34.533630 -1.394380 2.319620 0.012410 -0.008681 885847.000000 0 0 1
3.287847 -25.717387 -23.613925 35.068667 -1.443641 2.309544 -0.001564 -0.001104 102882.000000 0 0 1
2.085847 -25.144067 -24.109825 34.897830 -1.488030 2.333487 0.004581 -0.008719 1042830.000000 0 0 1
0.990647 -26.172997 -24.483725 35.853312 -1.532964 2.322502 -0.006126 -0.009648 127901.000000 0 0 1
1.437447 -26.845347 -25.609775 37.129496 -1.517302 2.331929 -0.022980 0.005356 6691.570000 0 0 1
0.468447 -27.728187 -26.072595 38.063789 -1.553904 2.325360 -0.013703 -0.002608 -148201.000000 0 0 1
1.140747 -28.728727 -27.040515 39.469362 -1.531110 2.325539 -0.028217 0.008994 -321807.000000 0 0 1
1.569647 -28.103237 -28.188655 39.835361 -1.515001 2.356933 -0.026946 0.006409 66432.700000 0 0 1
2.042347 -28.971817 -29.223695 41.201477 -1.500418 2.359283 -0.021275 0.002637 -347328.000000 0 0 1
3.513747 -29.366677 -29.153455 41.529171 -1.451712 2.348997 -0.027037 0.005274 -756027.000000 0 0 1
3.814447 -30.383107 -28.214115 41.637957 -1.445905 2.315298 -0.037987 0.005823 436740.000000 0 0 1
5.115547 -30.918077 -28.508735 42.365603 -1.406827 2.308948 -0.009906 0.005409 777422.000000 0 0 1
5.604047 -32.086177 -27.645475 42.722364 -1.397884 2.274566 0.009435 0.000341 36228.000000 0 0 1
4.762347 -33.256577 -27.761655 43.581984 -1.428563 2.261395 -0.000661 -0.004382 391516.000000 0 0 1
5.367147 -34.367429 -27.162095 44.132821 -1.415878 2.233769 0.029343 -0.015641 138112.000000 0 0 1
4.304247 33.680876 -26.787545 43.249283 1.443690 2.238743 0.020303 -0.017132 281858.000000 0 0 1
3.664147 33.067977 -27.898605 43.419457 1.460440 2.268601 0.014182 -0.011389 -151468.000000 0 0 1
2.287147 32.929497 -27.684845 43.081707 1.501452 2.268700 -0.005217 -0.015720 -522849.000000 0 0 1
1.413247 32.973417 -28.922855 43.883653 1.527962 2.290392 -0.000298 -0.010011 -329228.000000 0 0 1
1.346847 31.836467 -29.744095 43.589974 1.528516 2.321784 0.015538 -0.014539 198279.000000 0 0 1
0.421847 32.122567 -30.784315 44.493947 1.557665 2.334881 0.011136 -0.013571 167800.000000 0 0 1
0.157847 31.041847 -31.856525 44.479876 1.565711 2.369140 0.024617 -0.015847 -523793.000000 0 0 1
1.207747 30.836107 -32.748795 44.997863 1.531650 2.385884 0.024796 -0.011675 -275854.000000 0 0 1
0.952847 29.763717 -33.609825 44.904422 1.538794 2.416555 0.030218 -0.011185 -759575.000000 0 0 1
2.174147 29.460417 34.452287 45.382851 1.497131 0.708794 0.034318 -0.004254 -511289.000000 0 0 1
2.421247 30.513227 33.531549 45.401368 1.491612 0.739867 0.031884 -0.008094 -46781.100000 0 0 1
3.440347 30.196647 32.593377 44.564579 1.457354 0.750462 0.017582 -0.006681 -306726.000000 0 0 1
2.974247 29.250337 31.475427 43.071230 1.469462 0.751338 0.022998 0.001735 -74541.900000 0 0 1
2.725847 27.875597 31.794607 42.371880 1.473320 0.722174 0.023640 0.000982 866021.000000 0 0 1
3.903347 27.036867 31.851867 41.961527 1.427416 0.708908 0.029595 0.009373 815987.000000 0 0 1
3.482347 25.558727 32.279147 41.319712 1.435381 0.674203 0.033077 0.000463 121467.000000 0 0 1
2.567347 24.873687 31.438817 40.170770 1.467945 0.671918 0.028572 0.008964 97392.800000 0 0 1
2.899447 23.552787 31.140787 39.152129 1.448308 0.651163 0.028024 0.013108 -346456.000000 0 0 1
2.040647 22.892087 30.024617 37.811235 1.481889 0.653327 0.023769 0.022796 -23085.100000 0 0 1
0.740947 22.600587 30.446657 37.925380 1.538024 0.638813 0.017915 0.018729 -527246.000000 0 0 1
-0.064153 21.901187 29.538997 36.772523 -1.567867 0.637998 0.020305 0.023633 113585.000000 0 0 1
-1.401953 21.404687 30.119137 36.976865 -1.505392 0.618860 0.010508 0.022660 178296.000000 0 0 1
-2.306053 22.454387 30.449557 37.903732 -1.468456 0.637915 0.017309 0.014131 -466390.000000 0 0 1
-3.592853 21.968087 30.637227 37.870109 -1.408683 0.628334 -0.007928 0.013107 -151815.000000 0 0 1
-4.675553 23.082787 30.869577 38.827911 -1.370944 0.651730 -0.022331 0.001387 184483.000000 0 0 1
-4.442353 23.741787 32.083717 40.159331 -1.385824 0.645315 -0.013459 0.001521 42520.400000 0 0 1
-4.669753 25.121967 31.943097 40.905761 -1.387011 0.674699 -0.004335 -0.001511 -214238.000000 0 0 1
-4.707353 25.895057 33.257526 42.411982 -1.390974 0.669465 -0.000927 0.001185 -426927.000000 0 0 1
-5.985353 25.913987 33.819623 43.024715 -1.343807 0.666402 -0.002422 -0.002244 -512716.000000 0 0 1
-6.027153 26.452467 -33.787235 43.331707 -1.346772 2.465038 0.005008 0.004327 62593.800000 0 0 1
-7.437853 26.636557 -33.165485 43.183066 -1.298497 2.446541 0.007642 0.010446 36659.400000 0 0 1
-8.122453 27.743327 -33.719145 44.414493 -1.285984 2.432868 0.011677 0.006993 275734.000000 0 0 1
-9.385453 28.108947 -33.170655 44.480243 -1.248540 2.412440 0.012985 0.007778 467586.000000 0 0 1
-9.478153 28.450217 -31.624405 43.581570 -1.249212 2.382756 0.014468 0.006969 -108111.000000 0 0 1
-8.817753 29.711717 -31.280545 44.034207 -1.282299 2.360819 0.014273 0.003464 474412.000000 0 0 1
-8.841853 29.984557 -29.894105 43.254012 -1.284043 2.333846 0.018274 -0.002050 -135584.000000 0 0 1
-8.517353 31.447297 -29.480665 43.938450 -1.306297 2.306291 0.017732 -0.007767 -192913.000000 0 0 1
-7.131353 31.663407 -29.478175 43.845072 -1.349269 2.308143 0.013976 -0.006500 -492556.000000 0 0 1
-6.722253 32.868987 -28.920225 44.293774 -1.369062 2.282228 0.017292 -0.000514 959983.000000 0 0 1
-5.147553 32.965137 -28.881415 44.128604 -1.415896 2.284295 0.013848 -0.003286 837157.000000 0 0 1
-4.566653 34.223470 -28.399735 44.706209 -1.438144 2.259132 0.014147 -0.010345 66835.600000 0 0 1
-4.395453 -33.952907 -29.499055 45.191970 1.442055 2.282005 0.021221 -0.009481 -383047.000000 0 0 1
-3.440553 -34.198969 -30.677705 46.070907 1.470530 2.299469 0.027684 -0.016958 -543042.000000 0 0 1
-3.688353 33.857131 -31.613095 46.468237 -1.462285 2.318990 0.032191 -0.010422 -307146.000000 0 0 1
-4.440053 34.127379 -32.773965 47.523940 -1.441421 2.331775 0.040422 -0.013257 -179024.000000 0 0 1
-3.815453 -34.041366 -33.812105 48.131390 1.459179 2.349695 0.022940 -0.010787 -449069.000000 0 0 1
-3.848653 -32.668387 -33.453385 46.916571 1.453527 2.364621 0.007913 -0.013995 -200757.000000 0 0 1
-2.888753 -31.876687 -34.098995 46.767612 1.480420 2.387825 0.005480 -0.012718 -121588.000000 0 0 1
31.813477 19.704973 12.606787 39.488154 0.554556 1.245853 0.016044 -0.006974 -198561.000000 0 0 1
32.627877 18.752073 13.235687 39.892380 0.521628 1.232601 0.027940 -0.016088 -30466.000000 0 0 1
32.259287 17.444573 12.893587 38.874404 0.495722 1.232720 0.035001 -0.005544 -89699.600000 0 0 1
33.125817 16.336473 13.566187 39.347700 0.458164 1.218795 0.044170 -0.015772 468760.000000 0 0 1
34.386057 16.176673 12.916087 40.136155 0.439724 1.243159 0.042355 -0.005549 483242.000000 0 0 1
35.137979 15.193073 13.641087 40.639713 0.408108 1.228492 0.050867 -0.005070 345261.000000 0 0 1
-34.618967 14.431173 12.833587 39.641299 -0.394954 1.241114 0.053152 -0.009204 365817.000000 0 0 1
-33.740468 13.602073 13.527787 38.812840 -0.383209 1.214784 0.045756 -0.005913 -245290.000000 0 0 1
-34.384320 12.428473 13.894287 39.112653 -0.346845 1.207628 0.043544 -0.003913 -309210.000000 0 0 1
-33.804138 11.964473 15.187087 38.942470 -0.340176 1.170178 0.045632 -0.003955 -206586.000000 0 0 1
-33.925738 12.793373 16.271087 39.741343 -0.360610 1.148973 0.055405 -0.010912 297482.000000 0 0 1
-33.354218 12.204973 17.440287 39.568028 -0.350786 1.114343 0.051112 0.006331 15961.000000 0 0 1
-33.336258 13.113673 18.689887 40.405277 -0.374783 1.089915 0.052410 -0.005137 654356.000000 0 0 1
-34.680049 13.154373 19.179487 41.756389 -0.362541 1.093568 0.052192 -0.019232 654672.000000 0 0 1
-34.794050 13.968873 20.343587 42.656967 -0.381776 1.073659 0.078702 -0.017720 -674837.000000 0 0 1
34.724717 13.850173 21.057487 42.907470 0.379520 1.057829 0.067512 -0.019369 -653115.000000 0 0 1
34.622317 12.557173 21.544787 42.668082 0.347935 1.041485 0.059660 -0.008076 407274.000000 0 0 1
33.578697 12.419473 22.513487 42.292189 0.354258 1.009443 0.060560 -0.015679 347194.000000 0 0 1
33.598587 10.984473 23.131887 42.244619 0.315979 0.991339 0.048141 -0.020349 712192.000000 0 0 1
34.799172 10.740273 23.908437 43.565458 0.299361 0.989876 0.047166 -0.012066 918236.000000 0 0 1
34.577517 11.045073 25.262647 44.224423 0.309185 0.962784 0.046393 -0.010197 -928092.000000 0 0 1
-35.006829 11.367573 26.066787 45.101854 -0.313983 0.954577 0.051864 -0.007832 -286214.000000 0 0 1
-34.303855 12.547473 25.836307 44.740455 -0.350658 0.955169 0.053296 -0.012784 30110.000000 0 0 1
-33.428238 12.370873 24.735617 43.385900 -0.354444 0.964132 0.042485 -0.011406 -696443.000000 0 0 1
-32.453968 13.555473 24.522677 42.876247 -0.395657 0.961926 0.042342 -0.012102 773455.000000 0 0 1
-31.370238 13.839173 25.416107 42.680124 -0.415475 0.932906 0.033764 -0.014806 709556.000000 0 0 1
-31.863158 14.324173 26.673097 43.953349 -0.422482 0.918705 0.029163 -0.014626 -455073.000000 0 0 1
-30.807368 14.848373 27.660857 43.985124 -0.449124 0.890699 0.027265 -0.006475 -342181.000000 0 0 1
-30.383128 16.096573 27.227007 43.858226 -0.487192 0.901039 0.030086 -0.005372 -440351.000000 0 0 1
-29.728778 16.783473 28.233237 44.301251 -0.513948 0.879805 0.027134 -0.010231 -106580.000000 0 0 1
-29.074658 18.114073 27.692487 44.049168 -0.557174 0.890952 0.022607 -0.003805 -531790.000000 0 0 1
-30.015568 19.047573 27.367397 44.863334 -0.565466 0.914714 0.031013 -0.015677 -477662.000000 0 0 1
-29.407018 20.249373 27.024117 44.778485 -0.603027 0.922905 0.023326 -0.012829 -251146.000000 0 0 1
-30.232078 21.177573 26.095207 45.204291 -0.611062 0.955412 0.027142 -0.005965 803335.000000 0 0 1
-31.497678 21.523273 26.707087 46.568482 -0.599449 0.960023 0.022701 -0.007937 1774780.000000 0 0 1
-32.483808 22.187373 25.889327 47.092829 -0.599245 0.988730 0.020739 -0.003468 448133.000000 0 0 1
-32.439908 23.744673 26.036787 47.896465 -0.631854 0.996069 0.017020 -0.001001 -160409.000000 0 0 1
-33.399558 24.432973 25.242177 48.473375 -0.631579 1.023075 0.016066 -0.001572 259846.000000 0 0 1
-33.170368 25.813873 25.061497 48.935753 -0.661319 1.033133 0.029009 -0.004390 314293.000000 0 0 1
-34.160611 26.437273 24.014547 49.422416 -0.658629 1.063399 0.040653 -0.001152 234078.000000 0 0 1
-34.008028 25.997173 22.669087 48.438481 -0.652680 1.083773 0.031998 -0.007041 424994.000000 0 0 1
-34.813955 26.756073 21.728387 48.990016 -0.655264 1.111266 0.037988 -0.008702 238191.000000 0 0 1
-34.281179 26.709073 20.278687 47.956219 -0.661877 1.134199 0.037305 -0.022603 60496.900000 0 0 1
-34.598555 25.453873 19.668487 47.242026 -0.634281 1.141386 0.033945 -0.020670 403039.000000 0 0 1
-33.733968 25.070773 18.589587 45.957556 -0.639129 1.154370 0.048149 -0.014220 231298.000000 0 0 1
-34.201923 23.708573 17.948787 45.321374 -0.606144 1.163603 0.042466 -0.012010 562184.000000 0 0 1
35.404913 23.814473 17.251187 46.024346 0.592121 1.186586 0.038219 -0.018035 172937.000000 0 0 1
35.258791 22.872673 16.217987 45.048469 0.575467 1.202516 0.031133 -0.010959 -216171.000000 0 0 1
33.924857 22.936473 15.474887 43.777275 0.594502 1.209496 0.030090 -0.004335 953162.000000 0 0 1
32.830547 22.176173 16.054987 42.747983 0.594075 1.185781 0.030246 -0.014637 631811.000000 0 0 1
31.637577 22.117873 15.329487 41.534681 0.610123 1.192781 0.030752 -0.011278 -323020.000000 0 0 1
30.602907 21.058973 15.866487 40.395094 0.602719 1.167141 0.006549 -0.014043 436838.000000 0 0 1
29.933647 21.426573 17.039587 40.564378 0.621253 1.137282 0.006726 -0.007831 220833.000000 0 0 1
28.877157 22.368673 16.779187 40.196876 0.659069 1.140186 0.011346 -0.001882 -119304.000000 0 0 1
28.206427 22.816773 18.060287 40.526307 0.680157 1.108903 0.014562 0.002442 487050.000000 0 0 1
29.145307 23.640673 18.808187 41.977115 0.681492 1.106204 -0.000780 0.006091 599860.000000 0 0 1
28.566507 24.219573 19.989187 42.452333 0.703234 1.080529 -0.003574 0.008224 -82031.300000 0 0 1
29.549727 24.967673 20.910187 43.975072 0.701548 1.075263 -0.006350 0.005081 -138858.000000 0 0 1
30.003877 26.168173 20.446787 44.755748 0.717219 1.096342 0.006040 -0.003629 906254.000000 0 0 1
31.134667 26.646073 21.231587 46.153667 0.707871 1.092779 0.004106 -0.004465 632041.000000 0 0 1
32.037437 27.693273 20.528187 47.060824 0.712797 1.119419 0.019345 -0.009536 553178.000000 0 0 1
33.067997 28.281473 21.366287 48.475275 0.707535 1.114344 0.020387 -0.005705 605911.000000 0 0 1
32.648527 29.258773 22.291287 49.182350 0.730697 1.100402 0.005429 -0.005179 -219846.000000 0 0 1
33.597897 29.450973 23.519987 50.491269 0.719720 1.086232 0.008111 -0.003619 664568.000000 0 0 1
34.881469 30.033173 23.363387 51.619339 0.710849 1.101107 0.027115 -0.001806 70289.800000 0 0 1
35.293673 30.412673 24.697297 52.730736 0.711249 1.083356 0.049587 0.002225 523391.000000 0 0 1
-34.200999 31.195773 24.702157 52.469811 -0.739477 1.080613 0.064777 -0.001969 643413.000000 0 0 1
-33.062258 30.405973 24.382187 51.108973 -0.743570 1.073487 0.055755 -0.006060 425824.000000 0 0 1
-31.922058 31.273773 24.434817 50.932572 -0.775140 1.070428 0.065765 -0.005326 758111.000000 0 0 1
-30.569468 30.660773 23.972617 49.490016 -0.786889 1.065127 0.056623 -0.010258 217671.000000 0 0 1
-30.339348 30.362473 22.524387 48.473743 -0.785779 1.087532 0.038095 -0.009276 458799.000000 0 0 1
-31.016158 29.185573 21.963587 47.918669 -0.755000 1.094657 0.044567 -0.003571 183641.000000 0 0 1
-30.589858 27.819473 22.543187 47.094137 -0.738003 1.071642 0.030006 0.004483 -30831.900000 0 0 1
-29.263478 27.369773 22.244487 45.828733 -0.751973 1.063995 0.011972 -0.000564 727394.000000 0 0 1
-28.776728 26.425673 23.170887 45.423631 -0.742834 1.035488 0.009187 0.004841 -144486.000000 0 0 1
-28.445448 26.925473 24.589297 46.246709 -0.757954 1.010192 0.013276 0.010615 -633291.000000 0 0 1
-29.558578 27.372073 25.322447 47.583256 -0.747011 1.009633 0.014068 0.003996 -289275.000000 0 0 1
-29.176218 27.706973 26.634407 48.252665 -0.759575 0.986062 0.024541 -0.006984 -143560.000000 0 0 1
-30.288478 28.033473 27.678427 49.692684 -0.746753 0.980037 0.034393 -0.011471 231350.000000 0 0 1
-30.993198 26.882873 28.105187 49.730963 -0.714498 0.970188 0.019566 -0.006328 -794227.000000 0 0 1
-31.900078 27.123473 29.081187 50.980518 -0.704647 0.963758 0.026893 0.000361 -925674.000000 0 0 1
-32.537268 25.846973 29.571547 51.002119 -0.671305 0.952301 0.016693 -0.001244 -706753.000000 0 0 1
-31.727798 25.022173 30.314097 50.514421 -0.667783 0.927160 0.016332 -0.008875 -904667.000000 0 0 1
-32.269528 23.761973 30.532347 50.380333 -0.634714 0.919727 0.006794 -0.023214 -253482.000000 0 0 1
-31.589198 22.963073 31.674857 50.283961 -0.628571 0.889347 0.008556 -0.022311 562285.000000 0 0 1
-30.223028 22.596473 31.446747 49.121583 -0.642000 0.876061 0.022753 -0.016839 451801.000000 0 0 1
-29.679858 21.609873 32.288047 48.891702 -0.629336 0.849446 0.016808 -0.013785 25522.600000 0 0 1
-28.947698 22.094273 33.563053 49.523778 -0.651926 0.826144 0.015688 -0.018389 -24194.200000 0 0 1
-29.921438 22.479073 -34.374218 50.815234 -0.644313 2.313735 0.035377 -0.023449 414540.000000 0 0 1
-29.620998 22.296973 -32.968625 49.613393 -0.645254 2.297635 0.021781 -0.012145 -411445.000000 0 0 1
-28.552748 23.214173 -32.316895 48.974880 -0.682634 2.291438 0.046923 -0.015249 -675.642000 0 0 1
-28.853248 24.534373 -31.953855 49.552943 -0.704677 2.271614 0.031129 -0.015043 -265214.000000 0 0 1
-28.118588 24.860873 -30.802055 48.553934 -0.723985 2.258013 0.063487 -0.009310 -198234.000000 0 0 1
-28.280808 26.221273 -30.125875 48.937997 -0.747628 2.233934 0.038647 0.003596 -423292.000000 0 0 1
-28.217698 27.403973 -30.860855 49.996085 -0.770770 2.236059 0.055295 -0.010561 357429.000000 0 0 1
-29.240178 27.661573 -31.815555 51.306726 -0.757663 2.239673 0.009694 -0.001102 38356.800000 0 0 1
-28.850658 28.980673 -32.559095 52.271737 -0.787646 2.243217 0.030557 0.005595 222029.000000 0 0 1
-29.089598 30.123973 -31.764305 52.560722 -0.802865 2.219728 0.017425 -0.006910 57390.400000 0 0 1
-28.205048 31.163873 -32.154795 52.921097 -0.835195 2.223830 0.039069 -0.022396 -135003.000000 0 0 1
-28.536848 32.576973 -31.523985 53.566524 -0.851410 2.200001 0.037967 -0.008611 -48670.000000 0 0 1
-27.925688 32.744273 -30.242565 52.598899 -0.864655 2.183359 0.035527 -0.006587 262825.000000 0 0 1
-28.457458 33.818073 -29.493715 53.135376 -0.871265 2.159240 0.032708 -0.010041 -951063.000000 0 0 1
-28.115288 33.834073 -27.963375 52.126425 -0.877451 2.137025 -0.006996 -0.004413 -1257950.000000 0 0 1
-26.790848 34.030773 -27.626115 51.371638 -0.903876 2.138586 0.054118 0.009584 -979137.000000 0 0 1
-26.257538 -33.788042 -27.891585 51.078670 0.910160 2.148440 0.037655 0.016916 -383884.000000 0 0 1
-26.385228 -32.647142 -26.790525 49.797071 0.891079 2.138852 0.033649 0.022046 522601.000000 0 0 1
-27.727768 -32.155442 -26.765035 50.191320 0.859202 2.133246 0.011813 0.003001 265848.000000 0 0 1
-27.850358 -30.961542 -25.973885 49.080568 0.838249 2.128465 0.015302 0.004566 525194.000000 0 0 1
-29.267868 -30.364442 -25.703435 49.389006 0.803785 2.118149 -0.003870 0.001695 679339.000000 0 0 1
-29.888018 -29.618042 -26.757685 49.864774 0.780861 2.137205 -0.003052 -0.001648 1311530.000000 0 0 1
-31.284618 -29.365642 -26.480085 50.420860 0.753769 2.123724 -0.009883 -0.002304 1019350.000000 0 0 1
-31.978418 -28.673742 -27.681425 51.098571 0.730966 2.143285 -0.010227 -0.004221 277516.000000 0 0 1
-33.340138 -29.021942 -27.895325 52.268413 0.716265 2.133759 -0.004957 -0.008110 154781.000000 0 0 1
-33.891608 -28.309942 -28.966985 52.812689 0.695903 2.151348 0.000211 -0.013607 -255660.000000 0 0 1
-35.412829 -28.487242 -29.100025 53.966682 0.677438 2.140309 0.002729 -0.010651 52462.400000 0 0 1
34.777742 -28.146342 -27.893445 52.723355 -0.680398 2.128280 -0.009967 -0.003925 -310925.000000 0 0 1
33.375397 -28.107142 -28.046735 51.870491 -0.699920 2.142074 -0.003862 -0.013074 211447.000000 0 0 1
32.630097 -27.468842 -26.842205 50.396075 -0.699729 2.132495 -0.002846 -0.005530 44944.300000 0 0 1
32.580397 -28.221042 -25.660795 50.163591 -0.713822 2.107775 -0.013633 0.001899 -235302.000000 0 0 1
31.642177 -27.659442 -24.805025 48.801243 -0.718338 2.103991 -0.005114 0.007772 -256707.000000 0 0 1
31.351947 -28.372642 -23.462325 48.357337 -0.735555 2.077373 -0.012543 0.015795 244930.000000 0 0 1
30.693937 -29.645942 -23.714525 48.819855 -0.768032 2.078024 -0.000547 0.011199 234776.000000 0 0 1
30.279137 -30.397042 -22.554225 48.471634 -0.787341 2.054779 0.000246 0.008354 -347949.000000 0 0 1
31.242917 -30.575842 -21.364925 48.656571 -0.774608 2.025389 0.002716 0.015701 -667619.000000 0 0 1
32.352117 -31.436442 -21.738425 50.074629 -0.771044 2.019858 -0.003400 0.013670 1035880.000000 0 0 1
33.363347 -31.416242 -20.717625 50.292277 -0.755350 1.995383 -0.010745 0.017389 845559.000000 0 0 1
34.277377 -30.118042 -20.785125 50.140367 -0.720897 1.998232 -0.008462 0.011612 -779256.000000 0 0 1
33.613747 -28.917742 -20.417825 48.816056 -0.710441 2.002326 -0.005786 0.012115 -393040.000000 0 0 1
34.273577 -27.722142 -20.709525 48.704000 -0.680113 2.009992 -0.012338 0.009237 -853088.000000 0 0 1
33.425517 -26.517442 -20.435625 47.308082 -0.670660 2.017471 -0.010803 0.010992 -610126.000000 0 0 1
32.351217 -26.410442 -21.307325 46.884056 -0.684641 2.042572 -0.002231 0.010383 -457210.000000 0 0 1
31.404317 -25.451542 -20.874625 45.494637 -0.681079 2.047482 0.015207 0.008434 -266937.000000 0 0 1
30.240187 -25.238042 -21.843925 45.039812 -0.695477 2.077150 0.015620 0.005406 -565227.000000 0 0 1
29.326817 -26.267042 -21.727925 44.968015 -0.730416 2.075087 0.022860 0.003615 -324384.000000 0 0 1
28.134097 -26.086442 -22.474125 44.464774 -0.747651 2.100684 0.023205 0.004568 239429.000000 0 0 1
27.487477 -27.434942 -22.780025 45.024070 -0.784442 2.101282 0.024008 0.003582 -299063.000000 0 0 1
26.929987 -28.188542 -21.746025 44.639754 -0.808228 2.079614 0.013304 0.007801 72604.100000 0 0 1
26.520107 -29.486042 -22.279425 45.487531 -0.838306 2.082647 0.017448 0.007742 -220003.000000 0 0 1
25.802777 -30.438242 -21.312225 45.238045 -0.867634 2.061348 0.019435 0.016699 -207557.000000 0 0 1
26.599297 -30.959242 -20.218125 45.549641 -0.861002 2.030709 0.020003 0.014962 62138.000000 0 0 1
27.413417 -32.039442 -20.558425 46.911300 -0.863052 2.024436 0.016838 0.017481 -86593.600000 0 0 1
28.298027 -32.428742 -19.327225 47.179903 -0.853315 1.992866 0.008150 0.018209 183283.000000 0 0 1
27.625787 -32.959142 -18.171325 46.687109 -0.873203 1.970576 0.009580 0.015899 -38839.100000 0 0 1
27.218847 -32.013742 -17.236425 45.418494 -0.866172 1.960055 0.003945 0.007026 -258063.000000 0 0 1
26.646217 -32.714942 -15.987725 45.120900 -0.887278 1.932995 0.008813 0.009359 -797387.000000 0 0 1
25.432647 -33.323542 -16.279225 44.969891 -0.918898 1.941212 0.018508 0.008122 -704776.000000 0 0 1
24.971047 -33.906342 -15.054225 44.719379 -0.936010 1.914140 0.020306 0.013826 150561.000000 0 0 1
23.425647 -33.995042 -14.998225 43.924600 -0.967430 1.919260 0.016804 0.018879 142424.000000 0 0 1
22.785247 -32.828542 -14.546625 42.526285 -0.964063 1.919907 0.024944 0.019690 58087.900000 0 0 1
21.395147 -33.046242 -14.426225 41.927585 -0.996230 1.922050 0.019575 0.011670 31847.600000 0 0 1
-0.813588 -7.221427 -29.031855 29.927571 1.458606 2.896317 0.010046 0.002053 90138.600000 0 0 1
-0.426988 -8.593827 -28.983005 30.233272 1.521152 2.853002 0.012680 0.004392 36657.900000 0 0 1
-0.412388 -9.272227 -30.231015 31.623702 1.526350 2.843712 0.006878 -0.003210 -473611.000000 0 0 1
-0.227188 -10.779627 -30.157965 32.027407 1.549724 2.798236 0.013751 -0.001918 733801.000000 0 0 1
1.093212 -11.151627 -29.728935 31.770481 -1.473077 2.781150 0.002358 -0.003203 641720.000000 0 0 1
1.225212 -12.508927 -29.513035 32.077931 -1.473161 2.738983 0.009326 -0.004564 4277.210000 0 0 1
2.669612 -12.868927 -29.112655 31.941866 -1.366251 2.717533 0.014212 -0.004542 -314187.000000 0 0 1
3.534712 -13.023127 -30.248325 33.121854 -1.305763 2.721972 0.022740 -0.006654 1344450.000000 0 0 1
4.943412 -13.201127 -29.939275 33.091801 -1.212491 2.701551 0.032480 -0.007104 1713680.000000 0 0 1
5.321912 -14.546527 -29.202265 33.055960 -1.220068 2.653906 0.028539 -0.012583 -1233540.000000 0 0 1
4.946212 -14.534627 -27.864465 31.814286 -1.242784 2.637986 0.028720 -0.012725 -114059.000000 0 0 1
5.542812 -15.539727 -27.057385 31.690818 -1.228177 2.594023 0.035255 -0.011431 -187177.000000 0 0 1
5.148312 -17.015727 -27.373885 32.640001 -1.276991 2.565616 0.032976 -0.018903 -422643.000000 0 0 1
5.617512 -17.550027 -28.602675 34.024593 -1.261016 2.569273 0.033763 -0.027400 187744.000000 0 0 1
5.116512 -18.861927 -28.769655 34.779937 -1.305909 2.544887 0.026102 -0.029403 -702422.000000 0 0 1
5.284712 -19.373927 -30.219815 36.283804 -1.304500 2.555076 0.022943 -0.023876 821747.000000 0 0 1
6.659412 -19.485927 -30.643105 36.919494 -1.241486 2.549900 0.011044 -0.022363 1008320.000000 0 0 1
6.666612 -19.861927 -31.989055 38.239240 -1.246964 2.561753 0.010008 -0.023861 34569.700000 0 0 1
8.090712 -19.969627 -32.579025 39.059423 -1.185857 2.557275 0.007885 -0.012551 45165.200000 0 0 1
8.606212 -18.707227 -32.843415 38.764896 -1.139618 2.581576 0.017788 -0.010895 755142.000000 0 0 1
9.800812 -18.675927 -33.658825 39.721061 -1.087519 2.581827 0.011974 -0.011799 379632.000000 0 0 1
10.011912 -17.327927 -34.337488 39.743660 -1.046867 2.613905 0.015109 -0.004722 -393705.000000 0 0 1
9.182712 -17.174227 33.444753 38.701780 -1.079791 0.527306 0.024725 -0.008399 -12940.300000 0 0 1
9.265112 -15.809827 33.040295 37.781663 -1.040708 0.506380 0.019077 -0.001129 321853.000000 0 0 1
8.171712 -15.531127 31.962257 36.463388 -1.086448 0.502134 0.019819 -0.002931 413940.000000 0 0 1
8.516712 -16.064027 30.641537 35.629919 -1.083303 0.535537 0.025401 -0.002130 679264.000000 0 0 1
7.513012 -15.602427 29.708907 34.387501 -1.122035 0.527745 0.026085 0.006419 353623.000000 0 0 1
7.529512 -16.270227 28.300417 33.501156 -1.137367 0.564681 0.022081 0.011957 -254031.000000 0 0 1
6.839912 -17.515927 28.317047 33.991870 -1.198509 0.586192 0.023651 0.013502 229465.000000 0 0 1
7.008112 -18.320327 27.154057 33.497624 -1.205439 0.625575 0.019018 0.013259 11750.000000 0 0 1
6.541312 -19.766427 27.370287 34.389432 -1.251210 0.650316 0.011443 0.018259 -396486.000000 0 0 1
7.216712 -20.243827 28.493017 35.689571 -1.228352 0.646235 0.014797 0.020640 254256.000000 0 0 1
6.588912 -21.358127 29.096957 36.690820 -1.271563 0.655028 0.007761 0.019318 -110925.000000 0 0 1
7.161212 -21.767027 30.517207 38.162630 -1.252957 0.644064 0.004292 0.011902 -131297.000000 0 0 1
6.807012 -21.021627 31.666477 38.613599 -1.257641 0.609235 0.017392 -0.001427 87103.300000 0 0 1
6.969012 -19.603727 31.543297 37.786940 -1.229235 0.583087 0.018273 -0.002829 -270783.000000 0 0 1
6.557312 -18.809727 32.835887 38.405724 -1.235358 0.545296 0.017653 -0.006555 -31220.800000 0 0 1
5.186012 -18.835827 33.167303 38.493546 -1.302126 0.532318 0.019353 -0.010394 -423270.000000 0 0 1
4.746712 -17.884027 34.101771 38.798202 -1.311362 0.497135 0.013523 -0.016836 -414217.000000 0 0 1
3.279212 -18.142327 34.427278 39.052974 -1.391978 0.491654 0.013978 -0.020461 -460089.000000 0 0 1
3.003112 -19.247827 -33.690505 38.917190 -1.416021 2.617338 0.013485 -0.017294 -312891.000000 0 0 1
2.207112 -18.834027 -32.632105 37.741836 -1.454141 2.615177 0.008920 -0.032522 -499531.000000 0 0 1
1.770612 -19.964727 -31.685085 37.492266 -1.482341 2.577567 0.002816 -0.015884 -928925.000000 0 0 1
0.764212 -20.761527 -32.226185 38.342561 -1.534004 2.568966 -0.007719 -0.004445 -372180.000000 0 0 1
0.164712 -21.651727 -31.333025 38.086518 -1.563189 2.536906 -0.004607 -0.004677 124941.000000 0 0 1
-0.752088 -21.094527 -30.215865 36.858421 1.535158 2.531826 0.002982 -0.008642 -364714.000000 0 0 1
-1.868988 -20.392127 -30.768015 36.959474 1.479399 2.554365 0.009574 -0.016499 -39518.200000 0 0 1
-2.377788 -19.420827 -29.862105 35.701088 1.448968 2.561566 0.021819 -0.005417 -232593.000000 0 0 1
-1.895288 -17.970827 -30.038775 35.055253 1.465720 2.600018 0.008900 -0.004355 211147.000000 0 0 1
-2.735588 -17.010427 -29.367755 34.048540 1.411343 2.611037 0.020287 -0.009438 187862.000000 0 0 1
-2.323388 -15.708027 -29.727565 33.702646 1.423950 2.651001 0.029457 -0.009710 325636.000000 0 0 1
-3.329188 -14.579627 -29.339855 32.931385 1.346300 2.670205 0.032270 -0.000091 278690.000000 0 0 1
-3.227588 -14.319627 -27.974215 31.591545 1.349105 2.658359 0.025338 -0.006974 -203470.000000 0 0 1
-4.128288 -13.317027 -27.612865 30.933094 1.270190 2.674018 0.025113 -0.005437 -231969.000000 0 0 1
-4.014488 -12.970927 -26.125845 29.443519 1.270648 2.662299 0.023895 -0.015207 -492042.000000 0 0 1
-4.576388 -13.962127 -25.308825 29.264670 1.254060 2.615598 0.020212 -0.012956 123442.000000 0 0 1
-4.499488 -13.796627 -23.902225 27.962630 1.255543 2.595946 0.016441 -0.010439 -469125.000000 0 0 1
-5.490388 -12.767727 -23.347725 27.171225 1.164681 2.604659 0.028582 -0.011571 312883.000000 0 0 1
-6.864188 -13.152627 -23.499525 27.790940 1.089793 2.578451 0.025033 -0.011511 624452.000000 0 0 1
-7.726588 -12.022927 -23.294325 27.329041 0.999602 2.591288 0.018026 -0.012691 1438640.000000 0 0 1
-9.205188 -12.296127 -23.803825 28.329354 0.928176 2.568546 0.036977 -0.014428 1054330.000000 0 0 1
-10.008288 -13.024027 -22.890225 28.173631 0.915593 2.519172 0.037945 -0.011999 131388.000000 0 0 1
-11.033288 -13.745727 -23.582025 29.441303 0.894429 2.499734 0.024532 -0.007167 357412.000000 0 0 1
-11.707988 -14.824827 -22.702325 29.533846 0.902333 2.447584 0.025295 -0.010819 -431539.000000 0 0 1
-10.849888 -15.894627 -22.497025 29.605327 0.971835 2.433952 0.036976 -0.008411 -506155.000000 0 0 1
-11.448288 -17.130327 -22.082525 30.201810 0.981660 2.390825 0.024091 -0.001975 -144702.000000 0 0 1
-12.016988 -17.915527 -23.259525 31.723487 0.979966 2.393806 0.015972 0.007617 861765.000000 0 0 1
-13.193888 -17.294827 -23.849125 32.279567 0.919102 2.402129 0.014304 0.007204 552764.000000 0 0 1
-13.558288 -18.077627 -24.943525 33.657201 0.927293 2.405511 0.006108 0.003657 -342301.000000 0 0 1
-14.940388 -17.663527 -25.456525 34.398402 0.868727 2.403940 0.013157 -0.003454 -212314.000000 0 0 1
-16.043888 -18.010527 -24.627625 34.471805 0.843084 2.366603 0.010460 0.002035 131773.000000 0 0 1
-17.316488 -17.758927 -25.161095 35.331586 0.798011 2.363341 -0.012004 -0.002528 -40527.800000 0 0 1
-17.895588 -16.350327 -24.864125 34.724774 0.740306 2.368901 0.003272 0.005288 -396015.000000 0 0 1
-18.452688 -16.240927 -23.557425 34.047344 0.721733 2.334916 -0.004636 0.007756 45805.400000 0 0 1
-19.059088 -14.992827 -23.407025 33.703449 0.666547 2.338520 0.004672 0.006143 -240958.000000 0 0 1
-19.738688 -14.762527 -22.073625 33.087655 0.642155 2.301140 0.003850 0.001262 435212.000000 0 0 1
-18.770988 -14.794827 -20.989925 31.809021 0.667489 2.291446 0.012902 0.001322 918358.000000 0 0 1
-19.423988 -14.827927 -19.718425 31.400239 0.652011 2.249739 0.018392 -0.003775 82529.300000 0 0 1
-20.054088 -13.553427 -19.115225 30.842400 0.594329 2.239247 0.029344 -0.006679 480404.000000 0 0 1
-21.246988 -13.149627 -19.793125 31.876558 0.554196 2.240725 0.027566 -0.010224 727041.000000 0 0 1
-21.963788 -12.184127 -19.010325 31.500054 0.506473 2.218681 0.041979 -0.010640 887940.000000 0 0 1
-23.431488 -11.763027 -19.358425 32.590674 0.465261 2.206802 0.055041 -0.000975 652701.000000 0 0 1
-23.586888 -11.033227 -20.535725 33.163072 0.437532 2.238564 0.042370 -0.006419 -200923.000000 0 0 1
-24.968488 -10.800827 -20.625425 34.139294 0.408272 2.219501 0.036404 -0.009719 -267257.000000 0 0 1
-25.354798 -9.970127 -21.910525 34.961984 0.374652 2.248102 0.039619 0.000955 -115800.000000 0 0 1
-25.226508 -10.570427 -23.188525 35.858309 0.396795 2.274008 0.014150 0.001510 241100.000000 0 0 1
-25.827578 -9.620127 -24.029225 36.565206 0.356555 2.287842 0.000673 0.010678 -291566.000000 0 0 1
-25.989598 -9.993427 -25.474935 37.739900 0.367088 2.311779 -0.002457 0.013720 101467.000000 0 0 1
-24.871488 -9.714627 -26.297195 37.476757 0.372371 2.348568 -0.010200 0.013433 478774.000000 0 0 1
-24.021788 -10.878227 -26.471025 37.364385 0.425220 2.358104 -0.004328 0.010882 372747.000000 0 0 1
-22.950288 -10.777427 -27.553415 37.444082 0.439032 2.397725 0.002403 0.006687 -13703.200000 0 0 1
-23.565788 -10.937027 -28.807005 38.791861 0.434522 2.407747 0.005046 0.013173 663594.000000 0 0 1
-22.612388 -10.791827 -29.892045 39.004076 0.445285 2.443987 -0.000976 0.016479 550907.000000 0 0 1
-23.107488 -11.251427 -31.276315 40.481582 0.453126 2.453732 0.005091 0.010780 75027.400000 0 0 1
-24.115488 -10.438727 -31.834405 41.278967 0.408513 2.451523 -0.004234 0.011761 -105658.000000 0 0 1
-23.575388 -9.413527 -32.632385 41.343511 0.379898 2.480463 -0.001346 0.014084 -104149.000000 0 0 1
-24.609388 -8.382327 -33.262995 42.217439 0.328290 2.478183 -0.004152 0.012559 -694140.000000 0 0 1
-25.488488 -8.899727 -34.224812 43.591351 0.335932 2.473700 0.004574 -0.005239 525313.000000 0 0 1
-26.655348 -9.533127 -33.744535 44.046359 0.343468 2.443569 0.010129 -0.005597 -272991.000000 0 0 1
-27.633578 -8.761227 -32.827265 43.795012 0.307025 2.418203 -0.010738 0.018759 -794737.000000 0 0 1
-28.926568 -9.351327 -32.824985 44.740063 0.312674 2.394521 -0.018201 0.011718 752052.000000 0 0 1
-29.835528 -8.741427 -31.897785 44.542563 0.285011 2.369023 -0.014464 0.019728 360185.000000 0 0 1
-31.271848 -9.275227 -31.882795 45.612179 0.288335 2.344791 -0.003444 0.016700 -267988.000000 0 0 1
-31.324708 -10.666127 -31.606755 45.760141 0.328188 2.333260 0.002089 0.007306 -534376.000000 0 0 1
-32.612288 -11.196927 -31.602595 46.772390 0.330725 2.312666 -0.002357 0.005288 -762844.000000 0 0 1
-32.761788 -12.746627 -31.495645 47.199437 0.371049 2.301359 0.010424 0.001240 -950824.000000 0 0 1
-34.105322 -13.081927 -31.662965 48.341009 0.366267 2.284968 -0.004999 -0.002444 -358484.000000 0 0 1
-34.140022 -14.499327 -31.620905 48.740673 0.401618 2.276748 -0.006009 0.003751 -200037.000000 0 0 1
35.408714 -14.958127 -30.979645 49.368623 -0.399702 2.249156 0.009735 -0.006633 -475891.000000 0 0 1
-35.409517 -14.758627 -29.587345 48.446485 0.394903 2.227769 0.013885 -0.009444 -60898.300000 0 0 1
34.842337 -15.831127 -28.909875 47.962422 -0.426478 2.217753 0.018594 -0.008787 -160496.000000 0 0 1
35.077318 -15.832627 -27.416665 47.252130 -0.423987 2.189796 0.025007 -0.015030 -119679.000000 0 0 1
-34.425907 -16.088327 -27.076445 46.659524 0.437173 2.189891 0.022172 -0.018149 -152541.000000 0 0 1
-34.229605 -15.676627 -25.708815 45.589096 0.429474 2.169927 0.035407 -0.022438 366286.000000 0 0 1
-32.799148 -15.386927 -25.156705 44.106705 0.438645 2.177741 0.042835 -0.017031 239596.000000 0 0 1
-31.886988 -16.453027 -25.106645 43.792987 0.476349 2.181328 0.045133 -0.013060 461481.000000 0 0 1
-30.651198 -16.020327 -24.520825 42.395963 0.481615 2.187533 0.045800 -0.001789 502049.000000 0 0 1
-29.471668 -16.998327 -24.683525 42.033305 0.523162 2.198438 0.039119 -0.011108 -164705.000000 0 0 1
-29.593068 -18.269427 -24.046025 42.281591 0.553083 2.175735 0.043141 -0.020371 11356.900000 0 0 1
-30.249328 -19.250827 -24.826825 43.611781 0.566759 2.176413 0.038881 -0.027951 -43541.100000 0 0 1
-30.306118 -20.616027 -24.163525 43.901677 0.597354 2.153641 0.037264 -0.036410 -42334.600000 0 0 1
-29.092178 -21.300927 -24.419225 43.547478 0.632003 2.166087 0.030089 -0.030665 237117.000000 0 0 1
-28.985258 -22.462627 -23.588625 43.602041 0.659290 2.142420 0.027697 -0.028128 -507507.000000 0 0 1
-27.635738 -23.186027 -23.776825 43.204899 0.698066 2.153552 0.028193 -0.025058 331263.000000 0 0 1
-26.470088 -22.604027 -23.219025 41.841734 0.706781 2.159069 0.028061 -0.026468 2417.910000 0 0 1
-26.357198 -22.426327 -21.799925 40.900840 0.704994 2.132932 0.029224 -0.027823 -621247.000000 0 0 1
-26.084448 -23.741727 -20.926925 41.012245 0.738415 2.106284 0.024476 -0.020418 -104322.000000 0 0 1
-26.030548 -23.482527 -19.532325 40.131412 0.733982 2.079115 0.023261 -0.021445 38233.300000 0 0 1
-26.139838 -24.547527 -18.640225 40.414480 0.753994 2.050173 0.019232 -0.004524 -238083.000000 0 0 1
-26.108378 -24.031827 -17.195825 39.431872 0.744007 2.022045 0.014759 -0.003625 69058.200000 0 0 1
-27.262878 -23.348227 -16.731225 39.602249 0.708204 2.006978 0.027258 -0.004604 -198228.000000 0 0 1
-27.039658 -22.308227 -15.814225 38.456336 0.689811 1.994594 0.014174 0.002752 -205030.000000 0 0 1
-28.306258 -21.622027 -15.267325 38.753677 0.652313 1.975730 0.023787 0.007944 302330.000000 0 0 1
-29.062458 -20.926527 -16.277625 39.338366 0.624058 1.997404 0.028476 0.009663 769410.000000 0 0 1
-30.164088 -20.189927 -15.703725 39.548860 0.589849 1.979120 0.035798 0.005060 805054.000000 0 0 1
-31.163938 -19.613627 -16.753025 40.454286 0.561735 1.997775 0.043383 -0.019346 198850.000000 0 0 1
-32.067578 -20.545727 -17.333025 41.843640 0.569810 1.997896 0.031727 -0.015960 163062.000000 0 0 1
-32.938178 -19.857927 -18.231625 42.563517 0.542538 2.013450 0.028575 -0.015023 930555.000000 0 0 1
-33.981058 -20.822427 -18.956225 44.131896 0.549753 2.014775 0.016690 -0.014400 784954.000000 0 0 1
-35.085241 -21.334227 -18.249625 44.935200 0.546331 1.989014 0.016078 -0.004636 -70667.900000 0 0 1
-34.777274 -22.350627 -17.356825 44.836020 0.571211 1.968300 0.037816 -0.014425 -281275.000000 0 0 1
35.151112 -23.611327 -17.515325 45.824470 -0.591486 1.963001 0.020744 0.003953 417721.000000 0 0 1
33.825147 -23.257727 -17.158125 44.491164 -0.602346 1.966711 0.019398 -0.005344 245821.000000 0 0 1
32.970987 -24.377127 -16.947825 44.368447 -0.636651 1.962733 0.005528 -0.000364 325136.000000 0 0 1
31.535477 -24.178627 -16.433225 43.001665 -0.654111 1.962922 0.005280 -0.005012 602291.000000 0 0 1
30.593047 -23.670027 -17.402425 42.415199 -0.658501 1.993566 -0.005247 -0.000369 200328.000000 0 0 1
29.383017 -24.369927 -17.304325 41.912942 -0.692405 1.996392 0.001457 -0.005837 -172046.000000 0 0 1
28.267027 -23.999927 -18.284125 41.344051 -0.703938 2.028895 0.016480 0.005908 55120.600000 0 0 1
27.994307 -22.566827 -18.278325 40.336585 -0.678463 2.041087 0.025085 0.009488 335434.000000 0 0 1
26.668347 -22.276027 -18.674925 39.448383 -0.695897 2.063945 0.024820 -0.002597 1345.680000 0 0 1
33.777307 30.251273 -18.344125 48.913729 0.730384 1.955226 -0.006006 0.005088 47146.700000 0 0 1
33.091067 30.405673 -19.568825 49.014922 0.743132 1.981486 0.003581 -0.005948 128913.000000 0 0 1
33.582197 29.501773 -20.582925 49.211537 0.720806 2.002319 -0.001106 -0.002123 223329.000000 0 0 1
32.735947 29.532273 -21.900925 49.228527 0.733994 2.031840 -0.000058 -0.007113 -529003.000000 0 0 1
31.619987 28.677173 -21.900125 47.977279 0.736632 2.044819 -0.001376 -0.004640 386282.000000 0 0 1
30.766567 28.755073 -23.061725 48.013321 0.751617 2.071815 0.001406 0.002763 386484.000000 0 0 1
29.760217 29.924173 -22.995625 48.061683 0.788145 2.069697 0.002667 0.007969 -984137.000000 0 0 1
30.301317 31.212773 -23.120425 49.264196 0.800214 2.059311 0.001839 0.006084 -662856.000000 0 0 1
29.298747 32.152273 -23.160025 49.280543 0.831801 2.060045 0.014595 0.015119 -996620.000000 0 0 1
29.756957 33.583373 -22.828325 50.343339 0.845735 2.041432 0.012401 0.013591 -112797.000000 0 0 1
30.145757 33.788273 -21.475825 50.116116 0.842310 2.013652 0.013365 0.019670 409743.000000 0 0 1
31.539627 33.716873 -21.178125 50.794572 0.818750 2.000869 0.012865 0.013615 268177.000000 0 0 1
31.794317 33.707773 -19.626425 50.321855 0.814602 1.971447 0.009105 0.009491 -167765.000000 0 0 1
31.695937 -34.103742 -19.119025 50.331250 -0.821975 1.960445 0.016615 0.010696 153636.000000 0 0 1
31.599507 -34.094742 -17.693125 49.739591 -0.823362 1.934475 0.012106 -0.001426 -409273.000000 0 0 1
31.466227 -32.665642 -17.044025 48.452723 -0.804098 1.930253 0.015367 0.013475 1252690.000000 0 0 1
32.684237 -31.881542 -16.968425 48.709542 -0.772967 1.926617 0.017419 0.012791 2072970.000000 0 0 1
33.876227 -32.331042 -16.269025 49.573946 -0.762064 1.905169 0.023932 0.003794 815132.000000 0 0 1
35.152409 -31.557142 -16.582025 50.065043 -0.731556 1.908382 0.016768 0.004401 -129625.000000 0 0 1
-34.982492 -32.083542 -17.703225 50.660957 0.742200 1.927775 0.012394 0.003172 -772849.000000 0 0 1
-33.892158 -31.261542 -17.971525 49.486746 0.745045 1.942452 0.010682 0.007106 -556605.000000 0 0 1
-32.878618 -31.879942 -18.932625 49.555812 0.769978 1.962806 0.003557 -0.000557 -789896.000000 0 0 1
-32.240288 -33.001242 -18.304225 49.634290 0.797061 1.948494 0.006991 -0.003424 83471.600000 0 0 1
-31.369978 -33.697542 -19.177825 49.873728 0.821154 1.965492 0.009163 -0.002895 1228030.000000 0 0 1
-29.955918 -33.040042 -19.471225 48.663435 0.834317 1.982444 0.010777 -0.004611 -196518.000000 0 0 1
-30.059548 -32.026042 -20.475125 48.461061 0.817061 2.007006 0.010073 -0.006036 -400312.000000 0 0 1
-28.906718 -31.309342 -20.819325 47.426970 0.825277 2.025256 0.021049 -0.004971 -452357.000000 0 0 1
-27.974688 -32.183042 -21.686425 47.839652 0.855240 2.041277 0.014875 0.003513 -739535.000000 0 0 1
-28.681938 -32.812042 -22.773025 49.172088 0.852460 2.052319 0.010987 0.010778 119870.000000 0 0 1
-28.020028 -33.931142 -23.379625 49.830224 0.880526 2.059165 0.008573 0.011817 108289.000000 0 0 1
-28.869498 34.481073 -24.494825 51.209264 -0.873747 2.069546 -0.003016 0.012851 -437261.000000 0 0 1
-29.848868 33.589173 -23.976425 50.931880 -0.844290 2.060942 -0.013772 0.007344 269534.000000 0 0 1
-30.680438 32.994973 -24.954625 51.504279 -0.821731 2.076606 -0.013801 0.010779 147334.000000 0 0 1
-31.536658 33.793573 -25.920395 52.994653 -0.819931 2.081869 -0.003625 0.004454 -1007450.000000 0 0 1
-30.808538 34.534973 -26.848695 53.504044 -0.842365 2.096483 -0.005639 -0.000093 -406399.000000 0 0 1
-31.690298 -33.554042 -27.353465 53.650356 0.813956 2.105803 -0.008142 -0.001196 380549.000000 0 0 1
-31.131358 -32.758342 -28.553715 53.456384 0.810858 2.134298 -0.002564 0.000126 -235321.000000 0 0 1
-30.893128 -33.485242 -29.746695 54.410593 0.825640 2.149224 0.003489 -0.008074 34479.900000 0 0 1
-32.032968 -33.917842 -30.496865 55.736790 0.813970 2.149762 -0.003037 -0.005833 106656.000000 0 0 1
-31.702238 34.395973 -31.762935 56.542010 -0.826129 2.167306 0.010558 -0.007726 -78415.200000 0 0 1
-31.047918 -33.953042 -32.802075 56.504498 0.830062 2.190165 0.021384 -0.020075 125939.000000 0 0 1
-31.027188 34.414073 -34.013565 57.479887 -0.837107 2.204021 0.016597 -0.017327 -198972.000000 0 0 1
-30.050878 -34.232342 33.784026 56.712158 0.850354 0.932646 0.022703 -0.024837 1615530.000000 0 0 1
-28.690228 34.359973 33.673351 56.014565 -0.875081 0.925853 0.027551 -0.023739 1223130.000000 0 0 1
-28.610938 32.992573 33.308040 54.922865 -0.856405 0.919207 0.039507 -0.028132 -981358.000000 0 0 1
-27.237928 32.351673 33.218214 53.777181 -0.871004 0.904980 0.043689 -0.024929 -529745.000000 0 0 1
-26.693948 32.180173 -34.347467 54.109877 -0.878316 2.258510 0.045631 -0.030072 390352.000000 0 0 1
-25.300228 31.879073 -34.289014 53.217603 -0.899951 2.270926 0.052567 -0.030440 172434.000000 0 0 1
-24.833888 30.419773 34.327261 52.157889 -0.886151 0.852449 0.053714 -0.027945 -322529.000000 0 0 1
-24.968588 29.519473 -33.480875 51.144879 -0.868726 2.284487 0.054923 -0.027838 128885.000000 0 0 1
-24.837188 28.179473 -33.776065 50.515256 -0.848357 2.303162 0.043933 -0.024198 -412751.000000 0 0 1
-25.013788 27.252973 -32.517865 49.252671 -0.828213 2.291915 0.067707 -0.024393 465801.000000 0 0 1
-23.927788 27.172373 -31.556235 48.027834 -0.848808 2.287683 0.064832 -0.020126 599361.000000 0 0 1
-23.772988 28.398873 -30.770235 48.150371 -0.873833 2.264052 0.053436 -0.017509 -366737.000000 0 0 1
-22.567688 28.290773 -29.846745 46.909450 -0.897456 2.260441 0.073990 -0.013822 281020.000000 0 0 1
-21.294588 28.411873 -30.524375 46.823407 -0.927618 2.280889 0.071205 -0.008817 1452770.000000 0 0 1
-20.170888 28.463173 -29.607165 45.755886 -0.954278 2.274529 0.028468 -0.009318 853142.000000 0 0 1
-19.878488 29.759273 -28.781105 45.925163 -0.981888 2.248102 0.019055 -0.001448 -803656.000000 0 0 1
-19.326388 30.774473 -29.582245 46.858155 -1.010042 2.254044 0.015958 0.001677 16044.800000 0 0 1
-19.031888 31.923973 -28.853405 47.051799 -1.033203 2.230935 0.019835 -0.002454 -36250.000000 0 0 1
-18.734288 33.110973 -29.807065 48.329817 -1.055901 2.235394 0.013974 0.006007 165093.000000 0 0 1
-17.489788 32.964473 -30.456175 48.167704 -1.082997 2.255308 0.006900 0.004292 -375805.000000 0 0 1
-17.326988 34.038073 -31.302825 49.383011 -1.099937 2.257354 0.005593 0.012970 -46628.700000 0 0 1
-15.928688 34.122773 -31.943445 49.380871 -1.134055 2.274281 -0.006567 0.015509 -1011120.000000 0 0 1
-15.042588 -34.406042 -31.069235 48.737588 1.158631 2.262019 0.005810 0.012383 -321310.000000 0 0 1
-13.662388 -34.474042 -31.412675 48.599141 1.193476 2.273604 0.013922 0.013203 849026.000000 0 0 1
-13.021688 33.229873 -31.158515 47.377651 -1.197321 2.288508 0.013549 0.010026 -1051450.000000 0 0 1
-12.969088 32.814073 -29.764565 46.161563 -1.194409 2.271546 0.022028 0.000186 128329.000000 0 0 1
-12.583688 31.404173 -29.723285 45.033820 -1.189686 2.291644 0.014759 -0.002525 -50243.500000 0 0 1
-12.519088 30.830873 -28.296395 43.680158 -1.185079 2.275501 0.013249 -0.017684 -331539.000000 0 0 1
-11.453288 31.358073 -27.564025 43.292979 -1.220608 2.260989 0.022379 -0.009071 -390450.000000 0 0 1
-11.213588 30.651773 -26.388995 41.972071 -1.220082 2.250712 0.017304 -0.017795 155643.000000 0 0 1
-9.938888 31.163373 -25.658255 41.572627 -1.262066 2.235964 0.026675 -0.010385 463611.000000 0 0 1
-8.788688 30.488073 -26.122685 41.099371 -1.290139 2.259579 0.030214 -0.003199 -882472.000000 0 0 1
-7.622888 30.887373 -25.488265 40.765057 -1.328835 2.246245 0.032591 -0.006972 -313305.000000 0 0 1
-6.375388 30.065573 -25.899765 40.191816 -1.361842 2.271040 0.020647 -0.007197 12893.300000 0 0 1
-6.340088 28.789673 -25.404615 38.915761 -1.354035 2.282085 0.017478 -0.018451 -348570.000000 0 0 1
-5.136788 28.129573 -25.707855 38.451960 -1.390175 2.303081 0.016035 -0.022504 16740.300000 0 0 1
-4.775788 26.940073 -24.831725 36.948481 -1.395345 2.307788 0.025227 -0.030819 -237748.000000 0 0 1
-5.779088 25.980973 -24.976425 36.499734 -1.351924 2.324427 0.033793 -0.030956 57293.900000 0 0 1
-5.255888 24.758573 -24.527225 35.244802 -1.361616 2.340483 0.037462 -0.033422 93187.500000 0 0 1
-6.332188 23.643173 -24.621625 34.717728 -1.309115 2.359151 0.031670 -0.036050 163383.000000 0 0 1
-6.326488 22.946873 -25.814055 35.113371 -1.301778 2.396704 0.035899 -0.034100 -20261.700000 0 0 1
-7.190888 21.845473 -25.789715 34.554926 -1.252797 2.413342 0.031802 -0.035604 -550632.000000 0 0 1
-7.012488 20.809073 -26.989025 34.793677 -1.245757 2.458600 0.022476 -0.028150 206135.000000 0 0 1
-5.731588 20.185773 -27.063355 34.245316 -1.294136 2.482061 0.033719 -0.032865 -52640.900000 0 0 1
-5.720888 19.070473 -26.244265 32.941963 -1.279352 2.492582 0.033838 -0.026889 319825.000000 0 0 1
-4.389988 18.223873 -26.307525 32.302746 -1.334408 2.522500 0.033729 -0.033421 833746.000000 0 0 1
-4.376288 17.717573 -27.613865 33.099695 -1.328641 2.557592 0.027061 -0.031286 8846.840000 0 0 1
-3.282488 16.833973 -27.778375 32.646523 -1.378221 2.588460 0.029773 -0.027069 -132009.000000 0 0 1
-2.872988 16.455573 -29.230235 33.666698 -1.397948 2.622408 0.029727 -0.021395 -96236.900000 0 0 1
-2.130588 17.459973 -29.886705 34.678598 -1.449370 2.609643 0.035250 -0.028620 116560.000000 0 0 1
-1.983288 17.320773 -31.286215 35.815776 -1.456789 2.633207 0.030431 -0.028226 -95961.900000 0 0 1
-1.355988 18.589273 -31.890465 36.937806 -1.497981 2.612679 0.035506 -0.011214 -682165.000000 0 0 1
-0.019388 18.790273 -31.556635 36.727319 -1.569765 2.604528 0.045175 -0.016340 -590482.000000 0 0 1
0.493912 20.058473 -31.943785 37.722562 1.546178 2.580752 0.052546 -0.002516 314365.000000 0 0 1
0.050112 21.245973 -31.101195 37.665345 1.568438 2.542282 0.044655 0.002847 -492360.000000 0 0 1
0.896112 21.374873 -30.005675 36.851441 1.528897 2.522204 0.060222 -0.026164 -461291.000000 0 0 1
0.696712 22.517973 -29.215355 36.892838 1.539866 2.484707 0.060800 -0.021946 94077.800000 0 0 1
1.789712 22.768673 -28.137475 36.239937 1.492353 2.459764 0.061160 -0.017871 1231110.000000 0 0 1
3.081412 23.055473 -28.725365 36.962096 1.437932 2.460932 0.052147 -0.016703 579326.000000 0 0 1
4.128812 23.169573 -27.803615 36.426875 1.394448 2.439159 0.041353 -0.015199 -127430.000000 0 0 1
4.546012 24.617273 -27.566045 37.236584 1.388186 2.404305 0.044371 -0.011295 -524616.000000 0 0 1
5.227412 25.184073 -28.648425 38.500592 1.366134 2.409988 0.041435 -0.012258 25110.400000 0 0 1
5.613212 26.512973 -28.416705 39.267735 1.362161 2.379895 0.035742 -0.019920 -109099.000000 0 0 1
6.451612 27.088573 -29.598735 40.638641 1.336985 2.386692 0.035827 -0.010771 211524.000000 0 0 1
7.827812 26.775873 -29.449415 40.564640 1.286376 2.383265 0.027655 -0.003266 68937.900000 0 0 1
8.627812 27.401873 -30.430475 41.848722 1.265761 2.384964 0.039948 -0.009184 -71590.600000 0 0 1
9.969212 27.876573 -29.856125 42.046126 1.227350 2.360409 0.043327 -0.010627 -101901.000000 0 0 1
10.736412 28.616773 -30.814325 43.401761 1.211869 2.360264 0.048285 -0.014400 965317.000000 0 0 1
12.013412 29.015773 -30.260005 43.610836 1.178254 2.337638 0.042418 -0.019991 1210510.000000 0 0 1
12.909712 29.869573 -31.197955 45.079535 1.162841 2.335142 0.049484 -0.020383 -33350.800000 0 0 1
12.518312 31.226273 -31.225945 45.900413 1.189523 2.318965 0.043575 -0.016855 344030.000000 0 0 1
13.425812 31.906773 -32.078435 47.194497 1.172503 2.318160 0.069031 -0.024642 190057.000000 0 0 1
13.033412 33.391573 -32.205645 48.187867 1.198662 2.302765 0.070847 -0.028573 331958.000000 0 0 1
11.829212 33.550173 -32.940045 48.482893 1.231822 2.317763 0.065129 -0.028860 -90464.400000 0 0 1
11.353812 -34.255042 -32.764805 48.742685 -1.250742 2.307972 0.063499 -0.024561 335090.000000 0 0 1
9.958112 -34.086142 -33.444805 48.780980 -1.286561 2.326240 0.044250 -0.022528 358185.000000 0 0 1
10.010812 -34.014742 34.063487 49.168487 -1.284570 0.805444 0.044859 -0.014870 -257459.000000 0 0 1
8.789112 -33.657942 33.471360 48.274605 -1.315370 0.804664 0.045298 -0.022322 -550572.000000 0 0 1
9.008312 -32.935142 32.081757 46.852026 -1.303810 0.816541 0.041285 -0.018479 208435.000000 0 0 1
9.367512 -31.542842 32.305227 46.112133 -1.282115 0.794587 0.020946 -0.031828 199523.000000 0 0 1
9.601212 -30.905642 31.054227 44.852057 -1.269587 0.806028 0.030629 -0.013968 -432788.000000 0 0 1
9.281212 -29.350742 30.975267 43.670060 -1.264528 0.782289 0.008488 -0.029370 49932.700000 0 0 1
7.884112 -29.158442 31.050377 43.318586 -1.306722 0.771607 0.001693 -0.016693 -80522.300000 0 0 1
7.338512 -28.980942 32.352947 44.050674 -1.322791 0.745943 -0.000877 -0.005728 -666263.000000 0 0 1
5.802212 -28.919242 32.413857 43.825179 -1.372790 0.738295 -0.018320 -0.013215 216739.000000 0 0 1
5.039712 -30.084542 32.072297 44.261841 -1.404819 0.760337 0.000916 -0.016138 248810.000000 0 0 1
5.136112 -30.473842 30.699067 43.559929 -1.403824 0.788719 -0.001575 -0.020306 -723182.000000 0 0 1
4.580512 -29.533642 29.559737 42.035641 -1.416928 0.790899 -0.008086 -0.011192 481679.000000 0 0 1
3.149912 -29.511942 29.490807 41.839985 -1.464465 0.788588 0.008221 -0.012474 484637.000000 0 0 1
2.813312 -28.800242 28.338817 40.502558 -1.473422 0.795847 0.018177 -0.013754 450093.000000 0 0 1
1.317912 -29.092842 27.945167 40.361649 -1.525527 0.806029 0.018864 -0.017242 725966.000000 0 0 1
1.208812 -30.373342 27.391237 40.917979 -1.531019 0.837371 0.019233 -0.020351 99088.500000 0 0 1
1.100212 -31.402242 28.354887 42.323880 -1.535775 0.836655 0.039244 -0.021387 -913407.000000 0 0 1
1.181912 -32.885642 27.832267 43.098694 -1.534872 0.868752 0.038171 -0.018049 611129.000000 0 0 1
2.426312 -33.370442 27.289667 43.176374 -1.498216 0.886599 0.016330 -0.017756 557701.000000 0 0 1
2.800012 -32.775142 26.120847 42.004150 -1.485572 0.899676 0.016425 -0.021151 -323257.000000 0 0 1
4.326012 -32.972742 25.931937 42.170860 -1.440342 0.908505 0.015124 -0.010537 70364.700000 0 0 1
4.776312 -32.548642 24.668447 41.118846 -1.425092 0.927382 0.012300 -0.016398 -211062.000000 0 0 1
6.179712 -32.534642 24.717987 41.323972 -1.383090 0.929604 0.000085 -0.019557 -560009.000000 0 0 1
6.895512 -31.942842 23.491987 40.246325 -1.358188 0.947512 -0.000435 -0.002480 -899341.000000 0 0 1
8.225512 -31.639742 23.740487 40.402265 -1.316453 0.942703 0.014906 -0.005185 -938910.000000 0 0 1
9.005812 -31.869842 22.622887 40.107187 -1.295396 0.971501 0.002827 -0.005950 -456175.000000 0 0 1
10.115912 -30.806542 22.480187 39.455462 -1.253520 0.964581 0.003561 -0.003671 -277142.000000 0 0 1
11.170912 -31.026142 23.396387 40.432681 -1.225198 0.953723 0.015889 -0.008092 -79343.400000 0 0 1
11.967012 -29.862142 23.441487 39.805278 -1.189651 0.941094 0.005769 0.005304 380094.000000 0 0 1
13.333112 -29.946142 24.190957 40.739976 -1.151911 0.935036 0.041727 -0.006208 364979.000000 0 0 1
13.283812 -29.913342 25.549457 41.521590 -1.152879 0.907992 0.019000 -0.006411 21377.000000 0 0 1
14.539312 -29.507542 26.042687 41.956026 -1.112980 0.901143 0.033785 0.001049 -242593.000000 0 0 1
-10.592888 -13.807827 26.164327 31.423516 0.916400 0.586947 0.022074 -0.011901 487833.000000 0 0 1
-9.180088 -13.842027 25.967507 30.825106 0.985195 0.569048 0.018582 -0.014557 -3369.530000 0 0 1
-8.496488 -14.319027 27.067497 31.778519 1.035266 0.551471 0.013707 -0.011073 472998.000000 0 0 1
-6.947488 -14.240827 26.805027 31.138051 1.116910 0.533869 0.030209 -0.009729 419070.000000 0 0 1
-6.429488 -15.195127 25.921207 30.726848 1.170512 0.566841 0.025405 -0.011449 -25839.200000 0 0 1
-6.585788 -15.034027 24.489837 29.481294 1.157917 0.590449 0.025750 -0.009888 -281576.000000 0 0 1
-5.798488 -16.128427 23.704887 29.251843 1.225666 0.626009 0.023378 -0.009563 144280.000000 0 0 1
-6.398088 -17.412527 23.526587 29.960506 1.218669 0.667691 0.025710 -0.006706 -248525.000000 0 0 1
-6.678288 -18.156227 24.683377 31.361078 1.218332 0.664751 0.020716 -0.004376 -225716.000000 0 0 1
-7.241388 -19.579627 24.460647 32.157779 1.216555 0.706491 0.016369 -0.000601 774289.000000 0 0 1
-8.573588 -19.564927 23.920267 32.069798 1.157788 0.728939 0.008170 -0.002034 452128.000000 0 0 1
-9.119388 -20.841827 23.654287 32.818749 1.158342 0.765905 0.002211 0.000189 -154062.000000 0 0 1
-10.654288 -20.886627 23.705787 33.342606 1.099101 0.779911 0.003719 -0.000100 -344775.000000 0 0 1
-10.964088 -20.647127 25.031907 34.250715 1.082640 0.751240 0.004644 -0.003750 -1260260.000000 0 0 1
-12.321188 -20.463627 25.170587 34.700579 1.028833 0.759232 0.020920 0.001247 -1004450.000000 0 0 1
-12.747688 -20.412227 26.675677 35.927069 1.012548 0.734009 0.026080 0.003769 -106643.000000 0 0 1
-12.692488 -21.715627 27.304427 37.124109 1.041862 0.744406 0.025219 0.000963 -165413.000000 0 0 1
-11.814788 -21.755527 28.387947 37.666533 1.073289 0.717176 0.019122 -0.001109 -247784.000000 0 0 1
-11.679988 -23.148127 29.032647 38.924960 1.103495 0.728968 0.005763 0.001554 207514.000000 0 0 1
-12.827688 -23.710327 29.657217 40.078420 1.074876 0.737756 0.001256 -0.003456 -38398.700000 0 0 1
-12.437288 -25.013947 30.126877 41.085428 1.109380 0.747672 0.004419 -0.008289 -341737.000000 0 0 1
-13.330388 -25.703827 31.141427 42.522635 1.092368 0.749030 0.009589 -0.019430 -278576.000000 0 0 1
-13.324188 -25.122447 32.407827 43.115410 1.083149 0.720232 0.033940 -0.020490 99451.200000 0 0 1
-14.407688 -25.557207 33.224356 44.323923 1.057463 0.723368 0.031369 -0.025736 51283.800000 0 0 1
-14.267388 -25.008147 -34.233046 44.731054 1.052343 2.442316 0.024932 -0.024996 -3102.340000 0 0 1
-14.109988 -23.565727 -34.157269 43.830974 1.031296 2.464337 0.032091 -0.027489 -417125.000000 0 0 1
-15.200488 -22.769327 34.362372 43.934835 0.982157 0.672733 0.037470 -0.031315 -612191.000000 0 0 1
-15.145788 -21.273127 -34.156177 42.995177 0.952083 2.488846 0.018124 -0.025904 -225114.000000 0 0 1
-15.466888 -21.028527 -32.805965 41.924395 0.936627 2.469472 0.023577 -0.022698 203233.000000 0 0 1
-15.772388 -19.660127 -32.611305 41.216332 0.894683 2.483602 0.014558 -0.022935 -576606.000000 0 0 1
-15.883288 -19.279827 -31.121755 39.906819 0.881693 2.465239 0.011994 -0.012538 180440.000000 0 0 1
-17.057788 -19.744327 -30.470125 40.115272 0.858269 2.433439 0.010806 -0.011036 219877.000000 0 0 1
-17.056088 -19.390427 -29.093125 38.901269 0.849359 2.415645 0.005481 -0.004673 475639.000000 0 0 1
-16.091688 -20.233327 -28.170315 38.234756 0.898924 2.399081 0.006047 -0.004066 371300.000000 0 0 1
-14.715488 -20.021027 -28.324125 37.678152 0.936963 2.421491 0.007364 -0.004894 70916.300000 0 0 1
-13.901588 -21.087827 -27.817335 37.573325 0.987965 2.404384 0.009354 0.005732 1851260.000000 0 0 1
-12.323988 -20.991327 -27.975525 37.082968 1.039917 2.425541 0.035203 -0.004582 997004.000000 0 0 1
-11.745188 -20.129727 -27.027845 35.688370 1.042616 2.430010 0.040365 -0.010722 594485.000000 0 0 1
-10.321688 -20.245227 -26.939805 35.244284 1.099313 2.440866 0.041052 -0.014863 846435.000000 0 0 1
-9.738988 -21.382927 -26.064415 35.091754 1.143414 2.407965 0.035274 -0.013262 -413540.000000 0 0 1
-9.925188 -22.666727 -26.591785 36.323724 1.158071 2.392163 0.031873 -0.019178 15795.600000 0 0 1
-9.478588 -23.608427 -25.651935 36.127873 1.189005 2.360340 0.038568 -0.017728 -57958.300000 0 0 1
-9.548988 -25.062617 -26.090705 37.417146 1.206771 2.342410 0.041992 -0.022253 39007.000000 0 0 1
-8.382888 -25.476727 -26.787945 37.906865 1.252914 2.355588 0.036320 -0.022262 160130.000000 0 0 1
-8.604388 -26.645857 -27.524485 39.263653 1.258450 2.347619 0.036857 -0.016476 -56472.000000 0 0 1
-8.719888 -27.965367 -26.649725 39.601844 1.268540 2.308975 0.048460 -0.017787 29447.500000 0 0 1
-9.839988 -28.111587 -25.788055 39.396833 1.234092 2.284412 0.030169 -0.016565 -58018.400000 0 0 1
-9.711288 -29.271067 -24.976525 39.685404 1.250453 2.251530 0.046361 -0.007119 -399105.000000 0 0 1
-10.809488 -29.383787 -23.916325 39.398510 1.218289 2.223122 0.039585 -0.006604 -290632.000000 0 0 1
-10.810288 -28.443547 -22.874525 38.067592 1.207596 2.215413 0.038779 -0.023118 -524605.000000 0 0 1
-11.364688 -27.219297 -23.296025 37.586581 1.175276 2.239279 0.021248 -0.016005 -565474.000000 0 0 1
-11.201588 -26.030097 -22.303725 36.062414 1.164418 2.237598 0.022057 -0.025739 -158450.000000 0 0 1
-11.914988 -26.247057 -21.122025 35.735345 1.144658 2.203179 0.011225 -0.027885 53181.500000 0 0 1
-11.912588 -25.054577 -20.354225 34.408372 1.126968 2.203775 -0.000523 -0.019276 -207880.000000 0 0 1
-12.376088 -25.330647 -18.892725 33.937358 1.116325 2.161197 0.009350 -0.017779 -772776.000000 0 0 1
-13.666088 -25.816147 -18.777025 34.724805 1.083936 2.142111 0.028188 -0.018455 -891017.000000 0 0 1
-13.954988 -26.289667 -17.470225 34.512274 1.082801 2.101573 0.034077 -0.014729 -530739.000000 0 0 1
-15.453088 -26.546427 -17.332825 35.269499 1.043631 2.084538 0.039466 -0.019553 -1806020.000000 0 0 1
-16.164288 -25.337757 -17.240125 34.648348 1.002937 2.091596 0.039503 -0.011587 -30162.300000 0 0 1
-17.536488 -25.491167 -16.910925 35.260564 0.968208 2.070994 0.045604 -0.010224 1116210.000000 0 0 1
-18.494988 -26.216527 -17.981225 36.779006 0.956408 2.081624 0.039274 -0.008674 -525586.000000 0 0 1
-18.173188 -27.607317 -18.241025 37.751340 0.988626 2.075090 0.033390 -0.006905 -201818.000000 0 0 1
-18.592488 -28.475247 -17.197025 38.108503 0.992361 2.038978 0.038187 -0.017071 -525619.000000 0 0 1
-20.069188 -28.904647 -17.218525 39.175611 0.963890 2.025862 0.044749 -0.011786 -106590.000000 0 0 1
-20.445088 -29.837447 -18.217525 40.498803 0.970062 2.037370 0.042218 -0.009655 227714.000000 0 0 1
-21.735488 -30.393997 -17.959925 41.458237 0.949992 2.018842 0.034199 -0.007649 453764.000000 0 0 1
-22.124588 -31.403437 -19.041525 42.874852 0.957038 2.030987 0.018537 -0.006224 -173727.000000 0 0 1
-21.420688 -32.600897 -18.987625 43.384263 0.989475 2.023793 0.013296 -0.012982 -197889.000000 0 0 1
-21.612088 -33.312547 -20.195525 44.549606 0.995288 2.041290 0.022425 -0.002838 -67933.500000 0 0 1
-21.303888 34.299434 -20.054925 45.083332 -1.014996 2.031793 0.011736 -0.001474 143539.000000 0 0 1
-22.080488 33.579166 -19.110025 44.500577 -0.989121 2.014661 0.017529 -0.004750 -308560.000000 0 0 1
-21.404188 32.417627 -18.801125 43.156970 -0.987240 2.021551 0.019479 -0.005784 -394008.000000 0 0 1
-22.254888 31.215577 -18.349325 42.501647 -0.951437 2.017208 0.021772 -0.009793 -322808.000000 0 0 1
-22.849588 31.385987 -17.115425 42.427840 -0.941512 1.986027 0.011044 -0.004918 -326842.000000 0 0 1
-23.707788 30.319027 -16.744525 41.972392 -0.907162 1.981158 0.010123 -0.005375 -61060.200000 0 0 1
-23.044688 29.004167 -16.245825 40.450293 -0.899400 1.984086 0.011218 -0.017627 -109167.000000 0 0 1
-22.389788 28.364387 -17.342225 40.082338 -0.902575 2.018243 0.004841 -0.015204 2424.060000 0 0 1
-21.884188 27.090637 -17.142825 38.816192 -0.891309 2.028223 -0.005960 -0.008557 -143104.000000 0 0 1
-21.074588 26.683407 -18.387225 38.655304 -0.902305 2.066524 0.013666 -0.002651 -695993.000000 0 0 1
-20.769788 25.314237 -18.433125 37.576253 -0.883693 2.083520 0.024706 -0.010403 87000.100000 0 0 1
-19.987288 24.849617 -19.551825 37.406804 -0.893421 2.120789 0.024768 -0.005763 -253637.000000 0 0 1
-18.511888 25.260487 -19.616825 36.954053 -0.938369 2.130392 0.019873 -0.005869 -1423010.000000 0 0 1
-17.873188 24.867067 -18.419225 35.736392 -0.947597 2.112293 0.025908 -0.012683 -592511.000000 0 0 1
-16.581588 25.393127 -18.375425 35.460065 -0.992318 2.115542 0.038688 -0.015792 -431046.000000 0 0 1
-16.609888 26.714337 -17.552825 36.022852 -1.014531 2.079756 0.050831 -0.020555 -6843.100000 0 0 1
-17.323688 27.759207 -18.245525 37.464422 -1.012866 2.079459 0.037992 -0.017539 -12593.000000 0 0 1
-17.120688 29.001587 -17.572425 37.986841 -1.037513 2.051713 0.053736 -0.024202 -797033.000000 0 0 1
-18.223488 30.027367 -17.781125 39.368854 -1.025322 2.039415 0.046709 -0.022938 -357178.000000 0 0 1
-18.365888 30.514887 -19.101625 40.414555 -1.029006 2.063083 0.044684 -0.023893 130793.000000 0 0 1
-18.991288 29.579367 -19.994325 40.439844 -1.000034 2.087965 0.020093 -0.015803 -514839.000000 0 0 1
-19.030988 30.080347 -21.461225 41.564287 -1.006699 2.113366 0.022062 -0.019801 125505.000000 0 0 1
-19.845288 31.212857 -21.666825 42.866411 -1.004465 2.100700 0.018404 -0.017495 -43556.900000 0 0 1
-19.920388 31.406107 -23.055725 43.757649 -1.005549 2.125741 0.022590 -0.016453 -65518.900000 0 0 1
-20.334588 32.732447 -23.604525 45.189403 -1.014908 2.120397 0.027726 -0.016693 -26651.500000 0 0 1
-19.379588 33.785395 -23.440725 45.458651 -1.050008 2.112562 0.013491 -0.008595 159669.000000 0 0 1
-19.568688 -34.333407 -24.415325 46.452389 1.052758 2.124215 0.015490 -0.006394 233464.000000 0 0 1
-18.447388 -33.253367 -24.349725 45.155306 1.064312 2.140335 0.036551 0.002705 285727.000000 0 0 1
-18.584888 -32.348927 -23.223025 43.944966 1.049328 2.127578 0.023150 -0.000923 74751.500000 0 0 1
-18.186188 -32.871957 -21.976825 43.523371 1.065467 2.100112 0.026021 -0.008745 -297992.000000 0 0 1
-18.115788 -31.927007 -20.767825 42.176037 1.054683 2.085651 0.043728 -0.012002 -376407.000000 0 0 1
-17.212888 -30.909127 -21.053125 41.169063 1.062681 2.107589 0.039022 -0.009047 -250830.000000 0 0 1
-16.991888 -30.085567 -19.894125 39.870312 1.056673 2.093207 0.040409 -0.010473 314421.000000 0 0 1
-15.709388 -29.198897 -19.813625 38.625642 1.077203 2.109432 0.034808 -0.012660 776109.000000 0 0 1
-14.467188 -29.883447 -19.742025 38.627289 1.119933 2.107249 0.042420 -0.013618 -130658.000000 0 0 1
-13.409988 -29.023067 -20.032625 37.728931 1.137970 2.130532 0.022972 -0.019581 -236621.000000 0 0 1
-12.001088 -29.709667 -20.154325 37.853497 1.186893 2.132265 0.033654 -0.012317 657843.000000 0 0 1
-11.404788 -30.238117 -18.986325 37.481908 1.210128 2.101971 0.033238 -0.007427 -224352.000000 0 0 1
-10.857488 -29.175757 -18.278625 36.100110 1.214535 2.101722 0.015097 -0.014736 -925131.000000 0 0 1
-9.914888 -29.704657 -17.183525 35.720375 1.248642 2.072656 0.015349 -0.002652 115125.000000 0 0 1
-10.580188 -30.526427 -16.168025 36.127665 1.237162 2.034792 0.028346 -0.012376 150991.000000 0 0 1
-10.826288 -31.909787 -16.564725 37.547745 1.243705 2.027692 0.031395 -0.010543 177061.000000 0 0 1
-12.002188 -32.614337 -15.853425 38.197887 1.218174 1.998777 0.057166 -0.020829 137715.000000 0 0 1
-11.601688 -33.006117 -14.545925 37.889139 1.232785 1.964821 0.054590 -0.020574 303528.000000 0 0 1
-12.722188 -33.493457 -13.825125 38.403122 1.207788 1.939064 0.061481 -0.017650 -354827.000000 0 0 1
-12.354388 -33.940547 -12.441125 38.201744 1.221703 1.902516 0.044241 -0.021622 -108215.000000 0 0 1
-11.986388 -32.910347 -11.593925 36.894221 1.221516 1.890460 0.029221 -0.017548 36819.200000 0 0 1
-11.883988 -33.361777 -10.246125 36.867607 1.228595 1.852421 0.024274 -0.019247 -228593.000000 0 0 1
-10.581288 -32.927767 -9.505325 35.868548 1.259871 1.839005 0.016344 -0.014663 740644.000000 0 0 1
-9.436988 -33.570927 -10.085025 36.301124 1.296762 1.852316 0.009794 -0.019472 -250202.000000 0 0 1
-8.279088 -32.990817 -9.527925 35.323061 1.324923 1.843916 -0.000111 -0.018276 20252.300000 0 0 1
-6.984688 -33.554087 -10.146325 35.743678 1.365565 1.858617 0.004044 -0.022776 -172412.000000 0 0 1
-6.551288 34.353419 -9.626425 36.273197 -1.382356 1.839401 0.003290 -0.015321 -17554.500000 0 0 1
-5.332588 34.008892 -10.291025 35.929743 -1.415263 1.861285 0.002408 -0.012093 425817.000000 0 0 1
-4.637088 32.863807 -9.510425 34.525072 -1.430622 1.849869 0.002534 -0.017355 -181819.000000 0 0 1
-4.156088 33.271770 -8.240725 34.528152 -1.446527 1.811789 0.013005 -0.021766 -247078.000000 0 0 1
-3.517688 32.251577 -7.556925 33.311341 -1.462156 1.799646 0.015185 -0.017898 -267033.000000 0 0 1
-3.160388 32.802417 -6.129925 33.519585 -1.474747 1.754707 0.018304 -0.009723 -468139.000000 0 0 1
-2.142088 33.757995 -6.228725 34.394589 -1.507427 1.752897 0.012463 -0.003094 -380628.000000 0 0 1
-1.821288 34.465502 -5.013025 34.875756 -1.518002 1.715035 0.014725 0.000083 143534.000000 0 0 1
-0.899888 33.741822 -3.988725 33.988679 -1.544133 1.688422 0.023176 -0.000160 -384153.000000 0 0 1
0.425712 33.652954 -4.448525 33.948371 1.558147 1.702212 0.022092 0.000941 258486.000000 0 0 1
1.289612 32.818987 -3.614625 33.042617 1.531522 1.680409 0.025172 -0.006627 2480100.000000 0 0 1
2.825812 32.827227 -4.085625 33.200970 1.484927 1.694166 0.030179 -0.006361 2020720.000000 0 0 1
3.459412 34.126217 -3.870625 34.518805 1.469770 1.683164 0.024624 -0.000394 525863.000000 0 0 1
4.865812 34.031626 -4.106325 34.622097 1.428780 1.689680 0.039285 0.000015 681737.000000 0 0 1
5.605212 -33.761397 -3.787525 34.432480 -1.406273 1.681018 0.038774 0.002387 -51078.500000 0 0 1
5.355912 -32.705027 -4.632025 33.462819 -1.408473 1.709665 0.031835 0.010219 -172519.000000 0 0 1
5.651412 -31.515987 -3.895825 32.254819 -1.393363 1.691875 0.031521 -0.000502 -244439.000000 0 0 1
5.453012 -30.211557 -4.647025 31.049450 -1.392225 1.721026 0.020446 0.005808 251652.000000 0 0 1
6.328312 -29.940317 -5.764925 31.140079 -1.362498 1.756999 0.023725 0.001582 65594.200000 0 0 1
6.016912 -28.813937 -6.562925 30.158219 -1.364935 1.790168 0.017999 0.001982 -245034.000000 0 0 1
6.610812 -27.503837 -6.044825 28.925833 -1.334911 1.781325 0.023210 -0.000056 620156.000000 0 0 1
5.759612 -26.971087 -4.998625 28.028538 -1.360409 1.750096 0.026110 -0.004965 145775.000000 0 0 1
6.323312 -25.824137 -4.387125 26.946562 -1.330661 1.734333 0.019537 -0.006136 -422608.000000 0 0 1
5.487112 -25.150207 -3.339225 25.957499 -1.355989 1.699796 0.021265 -0.008191 57187.000000 0 0 1
4.329712 -24.441627 -3.752625 25.104218 -1.395470 1.720841 0.022532 -0.011575 -219561.000000 0 0 1
3.475712 -24.035527 -2.726425 24.438096 -1.427185 1.682594 0.020869 -0.006549 157827.000000 0 1 0
2.361512 -23.135427 -3.316925 23.490992 -1.469075 1.712470 0.030024 -0.012389 43892.700000 0 1 0
1.411712 -23.859127 -4.036525 24.239316 -1.511697 1.738104 0.026393 -0.011778 -561283.000000 0 1 0
0.263512 -23.078427 -4.317025 23.480203 -1.559379 1.755706 0.020661 -0.011083 203118.000000 0 1 0
-14.452188 23.339073 18.198687 32.935851 -1.016359 0.985376 0.000143 -0.004630 -287965.000000 0 0 1
-15.149888 22.921773 19.332187 33.595539 -0.986770 0.957655 -0.001957 0.004728 157068.000000 0 0 1
-14.984988 23.894673 20.333587 34.770102 -1.010669 0.946162 0.006222 0.005631 -975452.000000 0 0 1
-15.048088 23.490773 21.825287 35.420397 -1.001061 0.906915 0.021952 0.001936 -707149.000000 0 0 1
-14.120188 22.532973 22.203287 34.642467 -1.011015 0.875091 0.010570 0.003257 1026350.000000 0 0 1
-12.707288 22.869273 22.204787 34.315177 -1.063626 0.867043 0.003544 -0.001701 915046.000000 0 0 1
-12.188288 23.812473 23.321987 35.489481 -1.097718 0.853762 0.027188 0.007077 -537335.000000 0 0 1
-12.211188 23.372973 24.657557 36.102688 -1.089351 0.818956 0.020363 0.009806 -10225.700000 0 0 1
-11.881688 24.293173 25.657797 37.278081 -1.115910 0.811679 0.032675 0.009082 -1443.510000 0 0 1
-11.371888 23.749673 27.039417 37.742507 -1.124233 0.772142 0.030970 0.008494 -589042.000000 0 0 1
-10.116688 23.180373 26.967157 36.971673 -1.159282 0.753351 0.005873 0.004933 -952874.000000 0 0 1
-9.776988 22.703573 28.247267 37.535980 -1.164161 0.718888 -0.001210 0.000554 -146401.000000 0 0 1
-8.270688 22.331173 28.430467 37.086076 -1.216095 0.697255 -0.005518 -0.007248 534478.000000 0 0 1
-7.395488 23.396973 28.660207 37.729551 -1.264647 0.708064 -0.006604 -0.006255 -117248.000000 0 0 1
-7.031088 24.116173 27.530747 37.268861 -1.287109 0.739647 -0.007520 -0.005366 -1425640.000000 0 0 1
-6.136588 25.269473 27.832237 38.089859 -1.332562 0.751450 -0.002909 -0.012051 477841.000000 0 0 1
-4.803888 24.841073 28.176117 37.868850 -1.379769 0.731692 0.000456 -0.012462 582743.000000 0 0 1
-3.879088 25.866273 28.440217 38.638806 -1.421939 0.743575 0.010619 -0.007097 1418470.000000 0 0 1
-2.367688 25.369773 28.400127 38.154928 -1.477739 0.731255 0.014584 -0.003368 1267160.000000 0 0 1
-1.903388 25.196573 27.057147 37.021337 -1.495398 0.751226 0.015194 -0.004910 930511.000000 0 0 1
-0.518988 24.786473 27.012687 36.665022 -1.549861 0.742556 0.023874 0.006534 1207420.000000 0 0 1
0.072112 24.739473 25.588527 35.592407 1.567881 0.768531 0.021059 0.004189 -78601.600000 0 0 1
-0.334188 23.600173 24.863587 34.282325 -1.556637 0.759385 0.018109 0.004986 -92549.200000 0 0 1
0.244412 23.579473 23.582287 33.349296 1.560431 0.785365 0.016967 0.005269 -124722.000000 0 0 1
-0.129288 22.409473 22.636087 31.852686 -1.565027 0.780376 0.003989 0.010925 135133.000000 0 0 1
0.352612 21.140073 23.136487 31.342049 1.554118 0.740408 0.011211 0.012083 47759.500000 0 0 1
0.095512 20.035873 22.292987 29.973698 1.566029 0.732131 0.010567 0.011176 -89053.000000 0 0 1
0.940912 18.803173 22.645787 29.449555 1.520798 0.693570 0.007178 0.022961 -1410500.000000 0 0 1
2.167112 18.767573 22.089687 29.066689 1.455834 0.707536 0.001821 0.019627 -1377680.000000 0 0 1
2.958812 17.587073 22.370487 28.609411 1.404119 0.673044 -0.002584 0.015916 316680.000000 0 0 1
4.409512 17.733673 21.879487 28.506822 1.327087 0.695837 0.009715 0.014656 -387401.000000 0 0 1
5.191712 18.576273 22.689487 29.779936 1.298269 0.704547 0.009503 0.015298 -1230980.000000 0 0 1
6.211112 19.046873 21.879287 29.665881 1.255573 0.741400 0.016893 0.006670 -1004360.000000 0 0 1
7.373512 19.519673 22.744287 30.865659 1.209619 0.742353 0.022438 0.004478 -582313.000000 0 0 1
7.009612 20.682373 23.526187 32.099481 1.244029 0.748200 0.008173 0.012988 251925.000000 0 0 1
6.893312 21.857973 22.771387 32.308278 1.265300 0.788633 0.016134 0.008015 28754.100000 0 0 1
5.751812 22.819673 23.222487 33.062134 1.323884 0.792048 0.007711 0.011350 151682.000000 0 0 1
5.684312 24.173373 22.633287 33.599539 1.339844 0.831702 0.008680 -0.003657 -76178.600000 0 0 1
4.494112 24.787873 23.061387 34.153525 1.391442 0.829524 -0.006376 0.007391 -335620.000000 0 0 1
4.209312 26.189973 22.388687 34.711472 1.411437 0.869781 0.004582 0.002443 -231057.000000 0 0 1
3.943412 26.206773 20.976687 33.798918 1.421444 0.901248 0.007840 -0.001768 -314497.000000 0 0 1
2.890412 25.402073 20.513087 32.778141 1.457497 0.894619 0.015491 -0.007802 -735994.000000 0 0 1
2.455912 25.959073 19.140587 32.346051 1.476470 0.937576 0.010150 -0.011983 -1013410.000000 0 0 1
1.873512 27.205973 19.254787 33.382957 1.502041 0.956009 0.012366 -0.015466 224328.000000 0 0 1
1.437212 27.717773 17.952587 33.055043 1.518991 0.996658 0.012746 -0.006115 -172371.000000 0 0 1
0.415112 28.849573 18.079687 34.049159 1.556408 1.011031 -0.002234 0.006855 -133343.000000 0 0 1
0.860512 30.098073 18.612587 35.398628 1.542214 1.017141 0.006824 0.006435 612482.000000 0 0 1
-0.315988 30.844573 18.911987 36.182189 -1.560552 1.020796 0.001937 0.005552 590010.000000 0 0 1
0.040412 32.274973 19.418887 37.666546 1.569544 1.029150 0.007236 0.014504 -219316.000000 0 0 1
0.660612 32.179073 20.623887 38.226612 1.550270 1.000934 0.007690 0.009100 -100605.000000 0 0 1
1.242312 33.410473 21.085187 39.527056 1.533630 1.008138 0.010163 0.007071 206939.000000 0 0 1
1.855712 33.306973 22.495487 40.234873 1.515138 0.977491 0.010428 -0.010467 -268618.000000 0 0 1
0.804712 33.035973 23.360387 40.468886 1.546442 0.955448 0.007587 -0.004993 140057.000000 0 0 1
1.157312 33.355973 24.733277 41.541489 1.536114 0.933049 0.008943 -0.014981 -711104.000000 0 0 1
0.104512 32.967973 25.733487 41.822368 1.567626 0.908024 0.024298 -0.007811 -501429.000000 0 0 1
-1.089488 33.791073 25.686357 42.459540 -1.538566 0.921080 0.022979 -0.008827 392058.000000 0 0 1
-2.052388 33.360673 26.571197 42.698657 -1.509353 0.899124 0.028252 -0.014900 -505630.000000 0 0 1
-1.687588 33.429573 28.104557 43.706412 -1.520357 0.872347 0.044118 -0.016889 -682182.000000 0 0 1
-0.655188 32.614773 28.629657 43.402879 -1.550710 0.850476 0.051704 -0.021286 112804.000000 0 0 1
-0.207888 33.101173 29.863647 44.582152 -1.564516 0.836781 0.054362 -0.024112 -148823.000000 0 0 1
1.006312 32.277373 30.426327 44.368940 1.539629 0.815153 0.043741 -0.019765 1274570.000000 0 0 1
2.303012 32.451273 29.829217 44.138092 1.499947 0.828725 0.022769 -0.019802 774147.000000 0 0 1
2.466812 32.187273 28.473727 43.044847 1.494306 0.847993 0.019882 -0.017477 -2264640.000000 0 0 1
3.887512 31.988673 28.058817 42.728037 1.449862 0.854383 0.007733 -0.012590 -1175490.000000 0 0 1
4.486812 30.888673 28.712317 42.410361 1.426548 0.827101 0.007687 -0.017396 -867280.000000 0 0 1
5.841012 30.803773 28.456127 42.340772 1.383401 0.833790 -0.001314 -0.019911 -1080220.000000 0 0 1
6.564312 29.701373 29.200877 42.165779 1.353282 0.805812 -0.005209 -0.002460 -171408.000000 0 0 1
6.631612 30.005973 30.591577 43.361057 1.353283 0.787656 0.007126 -0.016332 362150.000000 0 0 1
7.342612 29.005173 31.345837 43.333307 1.322857 0.762132 -0.005372 0.001732 320736.000000 0 0 1
7.561612 29.218773 32.859185 44.616597 1.317559 0.742946 0.015421 -0.010976 -468719.000000 0 0 1
6.239212 29.211873 33.347956 44.769939 1.360373 0.730451 0.018172 -0.011854 -128197.000000 0 0 1
6.086212 28.949373 -34.151967 45.182574 1.363578 2.427772 0.028203 -0.014348 -452746.000000 0 0 1
6.071412 27.440973 -33.729375 43.903756 1.353051 2.446910 0.024292 -0.008885 -431744.000000 0 0 1
7.244612 26.759673 -34.053065 43.910998 1.306405 2.458306 0.015342 -0.010439 -328580.000000 0 0 1
7.212512 25.425873 -33.599145 42.748074 1.294389 2.475076 0.019800 -0.008971 -375505.000000 0 0 1
8.435512 24.602073 -33.970775 42.783565 1.240480 2.488181 0.012942 -0.002387 -608889.000000 0 0 1
8.644612 24.325773 33.580308 42.356931 1.229347 0.655417 -0.003402 0.005443 454342.000000 0 0 1
9.926612 23.773173 33.258068 42.068996 1.175248 0.659073 0.003427 -0.001306 317061.000000 0 0 1
10.131712 22.264873 33.628202 41.584037 1.143748 0.628891 0.004070 -0.004593 -872632.000000 0 0 1
9.573912 21.344673 32.723947 40.225757 1.149158 0.620639 0.001256 0.000443 37354.500000 0 0 1
9.278912 20.068573 33.377489 40.036266 1.137711 0.585056 0.003889 -0.001230 1367670.000000 0 0 1
7.932212 20.057873 34.242627 40.469689 1.194204 0.562114 0.025010 -0.013486 880679.000000 0 0 1
8.137212 20.653473 -33.424765 40.124744 1.195484 2.555343 0.033895 -0.010201 -656391.000000 0 0 1
6.933912 20.775073 -32.748315 39.397143 1.248661 2.552123 0.035254 -0.009044 -624241.000000 0 0 1
6.895112 21.527873 -31.375625 38.670683 1.260832 2.517262 0.043642 -0.016344 -499714.000000 0 0 1
7.125012 22.937873 -31.484055 39.599969 1.269623 2.489890 0.036237 -0.007529 13157.500000 0 0 1
7.291812 23.479373 -30.194435 38.937840 1.269678 2.458227 0.022657 -0.009143 -783400.000000 0 0 1
8.758512 23.577673 -29.787695 38.986215 1.215120 2.440375 0.029322 -0.004856 -460615.000000 0 0 1
9.304612 22.270473 -29.636635 38.221459 1.175040 2.458133 0.030589 -0.013172 -190283.000000 0 0 1
10.611612 22.253773 -29.092065 38.133777 1.125843 2.438575 0.042971 -0.006643 252225.000000 0 0 1
11.251412 20.865373 -29.168105 37.586386 1.076253 2.459140 0.045290 -0.017092 -59480.700000 0 0 1
11.349012 20.219273 -30.438115 38.263532 1.059321 2.490606 0.033553 -0.015697 -352131.000000 0 0 1
10.190612 19.550973 -30.773515 37.856285 1.090307 2.519917 0.030880 -0.014868 -728368.000000 0 0 1
10.544312 18.592373 -31.992405 38.475613 1.054896 2.552596 0.033171 -0.013721 -194756.000000 0 0 1
11.295212 17.461673 -31.614085 37.841012 0.996633 2.559738 0.039901 -0.010236 82619.100000 0 0 1
11.374512 16.398473 -32.507235 38.144590 0.964357 2.590993 0.025714 -0.007036 -61782.100000 0 0 1
12.416012 16.537873 -33.665485 39.509789 0.926807 2.590742 0.019420 0.005026 -143016.000000 0 0 1
12.311612 17.737373 34.439572 40.648177 0.964037 0.559991 0.023466 -0.002265 -28125.500000 0 0 1
12.934712 17.613973 33.162406 39.715287 0.937391 0.582657 0.029362 -0.005127 -130998.000000 0 0 1
12.108212 16.942673 32.061197 38.230659 0.950301 0.576042 0.034930 -0.010456 -675471.000000 0 0 1
12.409912 17.455273 30.750947 37.474167 0.952756 0.608353 0.028450 -0.008555 442876.000000 0 0 1
11.484812 17.079073 29.711017 36.143328 0.978801 0.605824 0.022905 -0.007164 672690.000000 0 0 1
10.047512 17.656773 29.824577 36.086279 1.053448 0.597971 0.010114 -0.010879 -159054.000000 0 0 1
9.206412 16.825073 30.593937 36.108587 1.070118 0.559961 0.024838 -0.008439 483228.000000 0 0 1
7.900612 17.420573 30.720477 36.189000 1.145017 0.556915 0.021421 -0.007607 921213.000000 0 0 1
7.072212 16.662273 31.796737 36.587976 1.169396 0.517520 0.016552 -0.006007 -106461.000000 0 0 1
7.627112 16.866973 33.069116 37.897679 1.146121 0.510317 0.030479 -0.005342 218290.000000 0 0 1
7.279812 15.792073 33.934675 38.130663 1.138850 0.473544 0.048023 -0.006796 -87196.300000 0 0 1
7.538412 16.098573 -33.486365 37.912113 1.132857 2.653573 0.055043 -0.013610 -219409.000000 0 0 1
6.482612 16.888673 -33.014865 37.646153 1.204295 2.640334 0.050940 -0.015208 77747.300000 0 0 1
6.505912 16.908673 -31.613225 36.436604 1.203490 2.621197 0.059020 -0.022669 -192580.000000 0 0 1
5.391412 17.795073 -31.039875 36.182949 1.276615 2.601885 0.048783 -0.024136 -645906.000000 0 0 1
5.493012 17.843573 -29.600995 34.996931 1.272160 2.578891 0.045069 -0.033377 693235.000000 0 0 1
4.656312 18.872173 -29.000295 34.912136 1.328899 2.551098 0.047847 -0.034730 1173740.000000 0 0 1
3.099912 18.738073 -29.047295 34.705477 1.406847 2.562511 0.059009 -0.033683 -582791.000000 0 0 1
2.600012 17.737973 -28.154915 33.378061 1.425254 2.574592 0.067234 -0.033304 1353890.000000 0 0 1
1.173412 17.522873 -28.311095 33.315853 1.503932 2.586361 0.065149 -0.034432 1578290.000000 0 0 1
0.181212 18.689773 -28.010005 33.673444 1.561101 2.553162 0.059944 -0.037661 -965409.000000 0 0 1
0.096212 18.793873 -26.589005 32.560622 1.565677 2.526292 0.071738 -0.048304 -73014.000000 0 0 1
-0.406388 20.055273 -26.366835 33.129882 -1.550536 2.491227 0.083306 -0.045242 -409079.000000 0 0 1
-0.953988 20.471073 -25.004225 32.329339 -1.524228 2.455018 0.063163 -0.051897 -202893.000000 0 0 1
-2.153488 19.886373 -24.566525 31.679954 -1.462927 2.458239 0.056450 -0.039685 -82957.200000 0 0 1
-2.551888 20.251173 -23.275625 30.957662 -1.445445 2.421665 0.055212 -0.031688 -135156.000000 0 0 1
-3.773088 19.506273 -22.735525 30.193293 -1.379727 2.423404 0.033120 -0.028461 -696949.000000 0 0 1
-5.012188 20.112173 -22.847025 30.848145 -1.326560 2.404802 0.029000 -0.028417 -321835.000000 0 0 1
-6.043688 19.290473 -22.306725 30.103795 -1.267184 2.405345 0.020874 -0.021907 851721.000000 0 0 1
-7.513788 19.808673 -22.374625 30.813380 -1.208245 2.383478 0.013625 -0.019894 600220.000000 0 0 1
-7.876588 20.660973 -21.271025 30.681801 -1.206575 2.336824 0.001120 -0.017827 124480.000000 0 0 1
-7.518988 22.003273 -21.476425 31.653057 -1.241516 2.316508 0.013929 -0.021448 -237942.000000 0 0 1
-7.730688 22.855373 -20.167425 31.446091 -1.244633 2.267031 0.019130 -0.023279 431416.000000 0 0 1
-6.721988 22.781473 -19.135325 30.501496 -1.283874 2.248951 0.034089 -0.023007 705294.000000 0 0 1
-7.084888 23.720473 -18.145025 30.693621 -1.280549 2.203300 0.039270 -0.019666 -280964.000000 0 0 1
-6.073388 23.725873 -17.017825 29.822968 -1.320196 2.178067 0.038409 -0.017739 639495.000000 0 0 1
-4.804788 24.301973 -17.381325 30.261895 -1.375602 2.182623 0.038409 -0.022916 61076.900000 0 0 1
-3.883488 24.073473 -16.349125 29.358260 -1.410856 2.161425 0.027798 -0.015402 -81921.800000 0 0 1
-2.470588 24.565873 -16.728025 29.823023 -1.470563 2.166281 0.018936 -0.004228 -189587.000000 0 0 1
-2.380888 25.960373 -16.533925 30.870378 -1.479340 2.136005 0.002972 -0.006589 -489657.000000 0 0 1
-1.241288 26.514573 -17.120825 31.586168 -1.524015 2.143654 -0.000912 -0.006065 -453784.000000 0 0 1
-1.062788 28.025673 -16.776025 32.680313 -1.532893 2.109865 -0.015677 -0.017594 -209575.000000 0 0 1
-2.024088 28.892573 -17.360825 33.767972 -1.500855 2.110779 -0.010150 -0.019187 92772.000000 0 0 1
-1.654488 29.183273 -18.706125 34.703312 -1.514164 2.140081 -0.005042 -0.012262 -158427.000000 0 0 1
-2.874488 29.541973 -19.621925 35.581045 -1.473800 2.154923 0.018587 -0.016847 758860.000000 0 0 1
-3.635288 30.721073 -19.332425 36.479340 -1.453012 2.129344 0.015108 -0.000773 131641.000000 0 0 1
-4.516588 30.507773 -18.242925 35.831942 -1.423817 2.104964 0.002155 -0.001515 -633437.000000 0 0 1
-4.833288 31.867473 -17.621425 36.734331 -1.420275 2.071108 0.011801 0.007502 -397946.000000 0 0 1
-5.778388 32.629173 -18.301725 37.855063 -1.395521 2.075409 0.035844 0.007619 -97008.700000 0 0 1
-6.204488 33.768473 -17.514125 38.542833 -1.389087 2.042502 0.027876 -0.006966 180757.000000 0 0 1
-7.005688 -34.233142 -18.194725 39.395884 1.368937 2.050869 0.024547 0.012778 481354.000000 0 0 1
-8.356888 -34.482642 -18.552725 40.038653 1.333030 2.052591 0.038786 -0.002888 181415.000000 0 0 1
-8.928588 -33.454542 -19.282625 39.632634 1.309988 2.078914 0.070789 -0.007027 -6347.290000 0 0 1
28.896712 -20.543527 -26.488425 44.257125 -0.618024 2.212439 0.037758 0.008848 -394354.000000 0 0 1
28.239512 -21.632827 -25.948855 44.031720 -0.653693 2.201016 0.044901 0.001749 -1060240.000000 0 0 1
27.116212 -21.860227 -26.717545 43.897445 -0.678491 2.225136 0.042690 0.001244 -848036.000000 0 0 1
26.251712 -23.049027 -26.412705 43.795445 -0.720527 2.218169 0.026002 0.006917 -153083.000000 0 0 1
26.629812 -24.348527 -26.949665 45.036453 -0.740678 2.212295 0.025379 0.013949 -1030130.000000 0 0 1
27.789712 -24.842227 -26.409465 45.682209 -0.729455 2.187210 0.034202 0.015667 -874305.000000 0 0 1
28.237912 -26.200057 -26.960875 47.018203 -0.747981 2.181463 0.028062 0.008744 -184546.000000 0 0 1
27.782812 -27.248127 -26.161055 46.890787 -0.775682 2.162667 0.033761 0.004484 -207868.000000 0 0 1
28.040412 -28.540127 -26.734425 48.119986 -0.794230 2.159855 0.019928 0.006598 660472.000000 0 0 1
27.005612 -28.991037 -27.843425 48.425609 -0.820839 2.183368 0.028785 -0.002685 284426.000000 0 0 1
27.002012 -28.276947 -29.043095 48.705192 -0.808458 2.209685 0.018032 -0.002194 75134.600000 0 0 1
28.062512 -28.527707 -29.971405 49.996198 -0.793618 2.213640 0.002376 -0.003281 -57276.400000 0 0 1
28.254012 -29.934017 -30.665545 51.329429 -0.814262 2.211084 0.008328 0.001962 -1480170.000000 0 0 1
28.796212 -31.009487 -29.955295 51.847178 -0.822389 2.186780 0.015878 0.004835 -496069.000000 0 0 1
30.050912 -31.031907 -29.332555 52.215279 -0.801457 2.167310 0.016153 0.006583 -654411.000000 0 0 1
31.228012 -30.600837 -30.179655 53.126373 -0.775255 2.174959 0.008399 -0.002080 -1765150.000000 0 0 1
31.113712 -29.284667 -30.725325 52.627943 -0.755124 2.194224 0.016437 -0.009709 -433641.000000 0 0 1
32.283212 -28.983237 -31.477425 53.600953 -0.731587 2.198460 0.018279 -0.014487 162627.000000 0 0 1
32.173412 -27.641287 -32.284745 53.305478 -0.709773 2.221385 0.015190 -0.004535 24165.000000 0 0 1
32.138612 -26.391527 -31.635085 52.251141 -0.687522 2.221119 0.001005 0.008742 1037230.000000 0 0 1
30.871412 -26.179767 -30.933355 50.944055 -0.703347 2.223331 0.016640 0.004558 1102490.000000 0 0 1
30.811912 -24.891227 -30.087355 49.741291 -0.679506 2.220408 0.008644 0.003138 -118448.000000 0 0 1
31.615512 -25.027697 -28.938455 49.632252 -0.669615 2.193283 0.008531 0.010708 87698.300000 0 0 1
31.587212 -23.788527 -28.154965 48.542230 -0.645486 2.189537 0.005375 0.008064 -59609.000000 0 0 1
32.520712 -23.792327 -26.915745 48.457496 -0.631624 2.159701 0.000123 0.001097 -415354.000000 0 0 1
31.931512 -24.306627 -25.702205 47.655398 -0.650638 2.140443 -0.001998 0.003589 -167249.000000 0 0 1
31.015612 -23.549127 -24.995825 46.274408 -0.649406 2.141430 0.029675 0.008108 -581884.000000 0 0 1
31.550712 -22.325727 -24.225925 45.615578 -0.615818 2.130681 0.025864 0.005499 -219182.000000 0 0 1
31.949612 -21.217927 -25.041625 45.804597 -0.586228 2.149221 0.030908 -0.005276 30418.500000 0 0 1
31.984312 -20.023127 -24.270125 44.866032 -0.559339 2.142358 0.017083 -0.014325 -97945.600000 0 0 1
32.154012 -18.690027 -24.966925 44.794475 -0.526530 2.162006 0.011750 -0.018547 234763.000000 0 0 1
31.011412 -18.314627 -25.734955 44.265349 -0.533462 2.191219 0.025271 -0.006632 338362.000000 0 0 1
31.027812 -17.033027 -26.295865 44.094463 -0.502044 2.209746 0.026273 -0.004615 -351476.000000 0 0 1
29.966112 -17.036827 -27.387095 44.025837 -0.516963 2.242178 0.019292 0.004993 -831061.000000 0 0 1
28.660512 -16.835127 -26.958895 42.797529 -0.531102 2.252243 0.015550 0.003700 -494005.000000 0 0 1
27.780712 -16.666027 -28.068685 42.864618 -0.540356 2.284743 -0.001303 0.005734 -1129940.000000 0 0 1
26.368412 -16.453227 -27.656315 41.603769 -0.557862 2.297962 -0.005816 0.004980 -992307.000000 0 0 1
25.733112 -17.540327 -26.921785 41.165989 -0.598287 2.283632 0.012450 0.016106 385123.000000 0 0 1
25.434012 -17.138727 -25.571675 39.931635 -0.592960 2.265798 0.012749 0.017916 -160145.000000 0 0 1
24.908312 -18.296627 -24.694525 39.560209 -0.633545 2.244937 0.020207 0.019468 -104285.000000 0 0 1
24.743112 -17.866027 -23.356325 38.430905 -0.625379 2.224019 0.021199 0.025315 146226.000000 0 0 1
24.238312 -18.850627 -22.449525 38.037128 -0.661007 2.202103 0.031649 0.021278 108955.000000 0 0 1
24.393512 -18.361327 -20.973825 37.041640 -0.645236 2.172712 0.025484 0.020562 174657.000000 0 0 1
23.555412 -17.251527 -20.597925 35.731599 -0.632129 2.185189 0.021179 0.017328 168341.000000 0 0 1
23.853412 -15.950227 -21.085925 35.609146 -0.589393 2.204520 0.021860 0.021491 -243827.000000 0 0 1
25.132112 -15.257927 -20.587425 35.892471 -0.545630 2.181673 0.017253 0.018540 -201085.000000 0 0 1
25.028112 -14.500827 -19.406525 34.832364 -0.525121 2.161735 0.016160 0.007967 372980.000000 0 0 1
25.990512 -13.448827 -19.351625 35.083658 -0.477511 2.155060 0.012503 0.009643 32772.100000 0 0 1
25.779512 -12.498527 -18.163925 33.922332 -0.451433 2.135844 0.022907 0.007736 -627313.000000 0 0 1
26.165312 -12.977527 -16.941225 33.764551 -0.460428 2.096412 0.007359 0.017923 -49703.700000 0 0 1
26.026912 -12.107627 -15.921825 32.825285 -0.435419 2.077214 0.000838 0.013462 -9031.570000 0 0 1
26.860512 -12.398927 -14.665825 33.019796 -0.432462 2.031024 0.005679 0.014361 -125980.000000 0 0 1
26.301312 -13.465527 -13.927325 32.665729 -0.473179 2.011260 0.016534 0.008813 217106.000000 0 0 1
26.826212 -13.485427 -12.618325 32.568766 -0.465802 1.968645 0.029277 0.005401 -106903.000000 0 0 1
26.519112 -14.768727 -11.847825 32.584499 -0.508132 1.942929 0.025437 0.002098 -762329.000000 0 0 1
25.194912 -14.911227 -11.472125 31.444204 -0.534394 1.944258 0.017177 -0.007844 -657544.000000 0 0 1
25.022912 -16.121027 -10.820925 31.672166 -0.572323 1.919473 0.023629 -0.012705 678996.000000 0 0 1
23.539712 -16.462027 -10.403425 30.550739 -0.610276 1.918276 0.027157 -0.013828 806778.000000 0 0 1
23.072912 -15.928727 -9.210125 29.511185 -0.604230 1.888188 0.023697 -0.014688 -515527.000000 0 0 1
21.709712 -16.072127 -9.016425 28.476671 -0.637277 1.892966 0.019666 -0.016616 -992287.000000 0 0 1
21.211812 -15.732427 -7.626525 27.488436 -0.638157 1.851930 0.018592 -0.014339 -320480.000000 0 0 1
21.238012 -14.327227 -7.248925 26.624604 -0.593477 1.846542 0.016528 -0.007031 348341.000000 0 0 1
21.062812 -14.057427 -5.838625 25.987360 -0.588514 1.797402 0.003029 -0.005169 -373862.000000 0 0 1
21.891212 -14.831127 -4.756625 26.866578 -0.595460 1.748781 0.008429 -0.003008 843237.000000 0 0 1
23.310112 -14.595527 -4.922925 27.939684 -0.559423 1.747919 0.017138 -0.003770 1044790.000000 0 0 1
23.954812 -15.295927 -3.906925 28.689066 -0.568271 1.707402 0.012082 -0.015857 -195444.000000 0 0 1
25.498712 -15.288027 -4.048825 30.005018 -0.540096 1.706147 0.019554 -0.011798 -24387.700000 0 0 1
26.046312 -14.118127 -3.536125 29.836824 -0.496711 1.689591 0.022138 -0.014448 -427114.000000 0 0 1
27.387612 -13.926827 -3.882325 30.969505 -0.470431 1.696487 0.033363 -0.029932 -382328.000000 0 0 1
27.989612 -12.616727 -3.332925 30.882173 -0.423490 1.678931 0.056806 -0.025089 -819085.000000 0 0 1
28.428012 -12.746727 -1.995625 31.218800 -0.421511 1.634764 0.060381 -0.037029 634250.000000 0 0 1
28.996612 -11.539127 -1.390325 31.239206 -0.378736 1.615317 0.056288 -0.033861 1033130.000000 0 0 1
30.466312 -11.184327 -1.828025 32.505800 -0.351831 1.627063 0.059107 -0.025846 260520.000000 0 0 1
30.418612 -10.707027 -3.127925 32.399326 -0.338446 1.667490 0.054597 -0.012962 331094.000000 0 0 1
31.677212 -10.542127 -3.757425 33.596138 -0.321269 1.682872 0.066180 -0.018387 23565.100000 0 0 1
31.445312 -10.227927 -5.261725 33.482890 -0.314468 1.728597 0.057547 -0.015750 475994.000000 0 0 1
30.527412 -11.199027 -5.858725 33.040366 -0.351608 1.749059 0.051158 -0.019768 877290.000000 0 0 1
30.365612 -10.954427 -7.237825 33.082563 -0.346220 1.791361 0.036446 -0.015102 -172784.000000 0 0 1
29.163512 -11.607127 -7.938625 32.376807 -0.378783 1.818517 0.025292 -0.010584 -226660.000000 0 0 1
29.195012 -13.007727 -8.038825 32.957130 -0.419144 1.817200 0.026688 -0.005934 325151.000000 0 0 1
27.916012 -13.621027 -7.925925 32.057080 -0.453944 1.820631 0.025243 -0.007229 316240.000000 0 0 1
28.078012 -15.152727 -7.884325 32.865521 -0.494874 1.813056 0.027155 -0.007655 63200.100000 0 0 1
28.400012 -15.736527 -9.140425 33.730496 -0.505988 1.845211 0.025902 -0.013596 180581.000000 0 0 1
28.480012 -17.106727 -9.176525 34.466793 -0.540903 1.840289 0.021055 -0.011261 -220363.000000 0 0 1
28.628912 -17.635927 -10.586325 35.252104 -0.552114 1.875807 0.014638 -0.010583 -122776.000000 0 0 1
29.927012 -17.404027 -11.105125 36.357255 -0.526742 1.881202 0.021801 -0.004119 368748.000000 0 0 1
30.309912 -17.984027 -12.378225 37.354203 -0.535507 1.908556 0.014288 0.010575 -74110.600000 0 0 1
29.723512 -17.332827 -13.665125 37.022287 -0.527927 1.948843 0.014796 0.006589 -42327.300000 0 0 1
30.350212 -16.144227 -14.113725 37.161387 -0.488865 1.960371 0.005442 0.008460 -155.146000 0 0 1
29.673412 -15.571127 -15.178525 36.788028 -0.483251 1.996096 -0.011039 0.010866 -779258.000000 0 0 1
30.459712 -14.318127 -15.653225 37.119083 -0.439416 2.006119 0.000862 0.009474 789022.000000 0 0 1
31.549212 -14.553927 -16.544925 38.482517 -0.432218 2.015215 -0.012518 0.012218 702992.000000 0 0 1
32.726212 -15.135127 -16.016925 39.454010 -0.433181 1.988830 0.000862 0.005026 -650613.000000 0 0 1
33.761812 -15.447127 -17.107725 40.879677 -0.429100 2.002578 0.011789 0.005757 212108.000000 0 0 1
35.009612 -15.897527 -16.544925 41.858558 -0.426250 1.977145 0.021619 0.000351 88187.200000 0 0 1
-35.022922 -16.408327 -17.559425 42.475542 0.438134 1.996982 0.031746 -0.007989 -678884.000000 0 0 1
-33.584822 -16.135527 -17.083125 40.989373 0.447878 2.000685 0.033632 -0.016748 -732526.000000 0 0 1
-33.039022 -17.048727 -16.174625 40.544476 0.476380 1.981152 0.040534 -0.016431 -115878.000000 0 0 1
-33.434422 -16.850727 -14.849725 40.278058 0.466837 1.948385 0.039065 -0.015020 -797430.000000 0 0 1
-32.690322 -17.656527 -13.805625 39.635910 0.495222 1.926565 0.048148 -0.016941 440767.000000 0 0 1
-31.291222 -17.354727 -13.697425 38.313791 0.506383 1.936393 0.042826 -0.016467 531949.000000 0 0 1
-30.826122 -17.955427 -12.530625 37.810894 0.527433 1.908586 0.044695 -0.004310 -143234.000000 0 0 1
-29.388822 -17.533427 -12.169625 36.321119 0.537917 1.912461 0.068686 -0.008491 -67686.300000 0 0 1
-29.243422 -16.160127 -11.740425 35.414192 0.504843 1.908708 0.065424 -0.018067 306372.000000 0 0 1
-28.185822 -16.037127 -10.782425 34.174416 0.517297 1.891792 0.067010 -0.021643 283295.000000 0 0 1
-28.620222 -16.091927 -9.316325 34.130062 0.512205 1.847270 0.066995 -0.014489 -107473.000000 0 0 1
-28.857522 -17.441127 -8.928525 34.880769 0.543639 1.829650 0.045976 -0.009187 117752.000000 0 0 1
-29.181822 -17.476927 -7.515525 34.835396 0.539609 1.788250 0.068116 -0.011507 -122563.000000 0 0 1
-29.178022 -18.963127 -7.081625 35.512062 0.576313 1.771557 0.048332 -0.018014 42172.400000 0 0 1
-30.284322 -19.753527 -7.482625 36.923322 0.577969 1.774863 0.043595 -0.017505 -154901.000000 0 0 1
-30.200322 -20.133327 -8.855625 37.360841 0.587998 1.810103 0.044581 -0.011034 -460467.000000 0 0 1
-31.507822 -20.687227 -9.383525 38.842693 0.580983 1.814788 0.034501 -0.012141 -89971.900000 0 0 1
-32.634022 -19.850027 -9.625725 39.391085 0.546472 1.817659 0.035301 -0.013775 -25434.000000 0 0 1
-33.694822 -20.627827 -10.071725 40.771165 0.549339 1.820411 0.034914 -0.013730 -568978.000000 0 0 1
-34.965222 -19.832027 -10.389625 41.518916 0.515947 1.823723 0.033397 -0.023413 -200162.000000 0 0 1
-35.082322 -19.347127 -11.694425 41.735359 0.503977 1.854803 0.029214 -0.024388 423463.000000 0 0 1
34.428312 -18.891627 -11.952425 41.049516 -0.501863 1.866247 0.043741 -0.027526 587986.000000 0 0 1
34.183712 -18.768227 -13.460125 41.254666 -0.502106 1.903150 0.040398 -0.023169 -123843.000000 0 0 1
34.129812 -19.969527 -14.151425 41.998678 -0.529395 1.914471 0.032477 -0.019453 -125542.000000 0 0 1
33.551112 -19.846227 -15.419525 41.920301 -0.534162 1.947470 0.027239 -0.017111 -111813.000000 0 0 1
32.344412 -20.805827 -15.552125 41.483877 -0.571622 1.955081 0.025702 -0.019036 -1045780.000000 0 0 1
31.395012 -20.445727 -14.554725 40.193464 -0.577247 1.941334 0.031420 -0.013938 -147334.000000 0 0 1
30.197912 -21.183227 -14.726125 39.717777 -0.611718 1.950633 0.029248 -0.009826 352697.000000 0 0 1
29.276212 -20.834027 -15.912925 39.298530 -0.618493 1.987692 0.029408 -0.008526 -1124780.000000 0 0 1
28.785812 -19.478927 -15.836925 38.195023 -0.594906 1.998336 0.005809 0.008931 122993.000000 0 0 1
27.915212 -19.278827 -16.920625 37.910946 -0.604403 2.033451 0.008045 0.009807 -220555.000000 0 0 1
27.158512 -17.960527 -16.899525 36.684592 -0.584293 2.049547 0.012067 0.012342 -124074.000000 0 0 1
26.299912 -17.738127 -15.797725 35.438604 -0.593376 2.032839 0.014511 0.014146 49112.500000 0 0 1
25.708312 -16.468727 -15.875725 34.411843 -0.569738 2.050307 0.009795 0.010693 -1640970.000000 0 0 1
24.364812 -16.401627 -15.136425 33.041925 -0.592490 2.046650 0.016583 0.001117 -185397.000000 0 0 1
23.287212 -17.039327 -15.770425 32.883723 -0.631688 2.070974 0.026964 0.002828 140581.000000 0 0 1
22.876112 -16.449227 -16.979725 32.896879 -0.623402 2.113146 0.022277 0.011053 -975507.000000 0 0 1
21.943612 -17.279727 -17.912725 33.180971 -0.667048 2.141054 0.008469 0.015153 966677.000000 0 0 1
20.610112 -17.492327 -17.446925 32.173800 -0.703754 2.143934 0.008778 0.021183 373209.000000 0 0 1
19.717912 -17.956427 -18.420025 32.411829 -0.738677 2.175249 0.004011 0.010332 1375870.000000 0 0 1
18.225112 -18.213027 -17.954625 31.404421 -0.785067 2.179401 0.000884 0.015135 1392290.000000 0 0 1
17.480412 -17.057427 -17.618225 30.115154 -0.773152 2.195712 0.000277 0.012965 -304762.000000 0 0 1
16.118512 -17.334227 -17.501425 29.437760 -0.821723 2.207469 0.008532 0.004819 -63300.000000 0 0 1
15.102612 -16.168127 -17.282325 28.074472 -0.819459 2.233929 0.013357 0.010832 116279.000000 0 0 1
14.641812 -15.493127 -18.439825 28.185933 -0.813641 2.283948 0.015110 0.017440 -184067.000000 0 0 1
13.727712 -14.515027 -18.096925 26.956164 -0.813268 2.306820 0.020276 0.008839 -205444.000000 0 0 1
12.802412 -13.959327 -19.210925 26.978217 -0.828601 2.363267 0.023743 0.001648 118693.000000 0 0 1
13.371612 -12.873327 -19.911025 27.220791 -0.766414 2.391263 0.019302 0.003887 216769.000000 0 0 1
12.607512 -12.460327 -21.049925 27.519238 -0.779527 2.441708 0.027724 0.009215 183622.000000 0 0 1
12.979512 -11.023427 -21.495625 27.423449 -0.704084 2.471624 0.018571 0.015549 992913.000000 0 0 1
14.300412 -10.850127 -22.063025 28.442998 -0.649064 2.458608 0.006369 0.025271 835832.000000 0 0 1
14.597112 -9.535027 -22.549725 28.504079 -0.578631 2.483410 0.010374 0.030488 214328.000000 0 0 1
15.748412 -9.480127 -23.556525 29.879678 -0.541869 2.478967 -0.012388 0.024697 355355.000000 0 0 1
15.269412 -10.108227 -24.780525 30.812426 -0.584759 2.505189 -0.000531 0.023208 176961.000000 0 0 1
16.138612 -9.748027 -25.789625 31.946574 -0.543369 2.510314 0.003274 0.015844 -414862.000000 0 0 1
22.302512 5.086073 -6.764225 23.854243 0.224215 1.858306 0.064799 0.022229 -17400.300000 0 1 0
22.247712 6.409273 -6.935725 24.169066 0.280492 1.861856 0.030884 0.016820 977713.000000 0 1 0
21.286612 6.914373 -5.988025 23.168618 0.314071 1.832218 0.011468 0.013549 124657.000000 0 1 0
21.153612 8.446073 -5.886025 23.525661 0.379880 1.823679 0.010982 0.005779 -620545.000000 0 1 0
20.624912 9.018473 -7.027125 23.581780 0.412210 1.873382 0.044208 0.006110 142891.000000 0 1 0
20.558412 10.400073 -7.008225 24.081633 0.468340 1.866089 0.054483 0.003871 -6392.050000 0 1 0
19.765812 11.192273 -5.902025 23.468877 0.515229 1.825009 0.048592 0.002600 179212.000000 0 1 0
20.489512 11.223673 -4.696025 23.829469 0.501134 1.769163 0.030748 0.002552 -22289.700000 0 1 0
19.935612 12.225573 -3.923025 23.712515 0.550107 1.737002 0.040689 -0.003582 -39962.600000 0 1 0
20.827712 12.770073 -2.787225 24.589367 0.550017 1.684391 0.031048 -0.009850 -400717.000000 0 1 0
22.120412 13.183773 -3.152825 25.943493 0.537473 1.692624 0.034499 -0.020093 4505.610000 0 0 1
22.936612 13.514873 -2.076325 26.703017 0.532461 1.648631 0.031894 -0.021599 -677.130000 0 0 1
23.774712 12.314173 -1.479225 26.815367 0.477906 1.625988 0.029508 -0.025671 -136247.000000 0 0 1
24.743612 11.824473 -2.421925 27.530533 0.445795 1.658883 0.016599 -0.014285 493498.000000 0 0 1
25.533112 10.828973 -1.805625 27.793286 0.401121 1.635808 0.026118 -0.020101 1153160.000000 0 0 1
26.970412 10.549173 -2.439225 29.062657 0.372844 1.654825 0.037288 -0.015343 607197.000000 0 0 1
27.863712 11.518073 -2.069825 30.221460 0.391980 1.639339 0.040390 -0.022815 -494988.000000 0 0 1
29.192512 11.077473 -2.260325 31.305307 0.362678 1.643062 0.048680 -0.017381 -269180.000000 0 0 1
30.268112 12.090673 -1.952625 32.652040 0.380034 1.630633 0.032581 -0.011979 -1123690.000000 0 0 1
30.145212 12.564473 -0.594525 32.664250 0.394903 1.588998 0.035456 -0.019167 345471.000000 0 0 1
30.993412 13.664073 -0.316225 33.873271 0.415236 1.580132 0.031476 -0.015476 -265510.000000 0 0 1
32.501112 13.409073 -0.280825 35.159698 0.391298 1.578784 0.037783 -0.016602 -437496.000000 0 0 1
33.404812 14.441073 0.147975 36.392966 0.408042 1.566730 0.031630 -0.013617 693595.000000 0 0 1
34.151712 15.076173 -0.907525 37.342389 0.415719 1.595102 0.031960 -0.004723 -336886.000000 0 0 1
33.425312 16.054473 -1.804225 37.124828 0.447771 1.619414 0.006173 0.012384 -655448.000000 0 0 1
32.494512 15.383773 -2.600725 36.046048 0.442164 1.643009 0.021956 0.009277 -337405.000000 0 0 1
31.777612 16.318373 -3.416025 35.885584 0.474403 1.666133 0.015581 0.019752 -47155.800000 0 0 1
30.400412 15.814273 -3.875725 34.486193 0.479676 1.683419 0.028592 0.006523 -640933.000000 0 0 1
30.425012 14.800173 -4.888925 34.185203 0.452747 1.714301 0.015830 0.007089 618199.000000 0 0 1
29.217912 14.650973 -5.658225 33.171568 0.464797 1.742209 0.011123 -0.001179 681646.000000 0 0 1
28.020912 13.922973 -4.987125 31.684257 0.461147 1.728854 0.014164 -0.010525 1028590.000000 0 0 1
26.952212 13.596573 -5.936525 30.765742 0.467217 1.764973 0.015255 -0.015111 1208710.000000 0 0 1
25.771812 13.104073 -5.339125 29.400838 0.470397 1.753407 0.024900 -0.008412 544179.000000 0 0 1
24.644912 12.739673 -6.371725 28.465239 0.477099 1.796551 0.022433 -0.009358 136300.000000 0 0 1
24.926712 11.635273 -7.248425 28.447499 0.436720 1.828437 0.017314 0.000008 466360.000000 0 0 1
23.911412 11.349673 -8.215725 27.714055 0.443167 1.871766 0.017850 -0.004168 -81830.300000 0 0 1
23.784712 12.288873 -9.445825 28.389303 0.476895 1.909988 0.026889 -0.000098 -32282.800000 0 0 1
23.339212 13.564673 -8.989025 28.452096 0.526479 1.892239 0.033366 -0.007500 298821.000000 0 0 1
23.088912 14.499073 -10.018325 29.046305 0.560730 1.922938 0.026429 -0.005993 -511901.000000 0 0 1
22.427512 15.820373 -9.606125 29.078431 0.614341 1.907473 0.025386 -0.012505 1375770.000000 0 0 1
21.052812 15.560773 -9.190825 27.745807 0.636508 1.908425 0.042026 -0.007361 1356960.000000 0 0 1
20.730012 15.614173 -7.817525 27.104418 0.645556 1.863375 0.053335 -0.009025 -562113.000000 0 0 1
19.494812 14.863273 -7.347425 25.591976 0.651404 1.861993 0.079579 -0.006387 -24684.300000 0 0 1
18.259512 15.343573 -7.923925 25.132123 0.698839 1.891559 0.071440 -0.017478 928203.000000 0 0 1
17.198212 14.414573 -7.806025 23.759050 0.697570 1.905564 0.075920 -0.038144 62594.200000 0 1 0
16.357212 14.617773 -6.498025 22.879292 0.729301 1.858774 0.073885 -0.028378 96640.000000 0 1 0
17.113612 14.332573 -5.257725 22.933426 0.697190 1.802114 0.106863 -0.015816 816828.000000 0 1 0
16.472612 14.841073 -4.132225 22.553928 0.733342 1.755052 0.085451 -0.010984 -62302.300000 0 1 0
16.004812 13.865073 -3.023125 21.390034 0.713885 1.712604 0.051310 0.002023 -241955.000000 0 1 0
17.117012 13.270273 -2.407925 21.791979 0.659478 1.681518 0.052629 -0.002400 237447.000000 0 1 0
16.769812 12.449873 -1.336725 20.928755 0.638618 1.634710 0.037465 -0.006022 -95553.800000 0 1 0
16.560412 13.254773 -0.012625 21.211705 0.674978 1.571392 0.030050 -0.007886 -414718.000000 0 1 0
15.577412 14.251573 -0.016425 21.113109 0.740979 1.571574 0.034572 -0.010030 226672.000000 0 1 0
15.776912 14.963073 1.174375 21.775759 0.758929 1.516840 0.038506 -0.006411 -21692.600000 0 1 0
14.606312 15.953173 1.482175 21.680519 0.829443 1.502379 0.040090 0.000731 194173.000000 0 1 0
14.441412 17.042673 0.558175 22.345439 0.867832 1.545814 0.046018 0.001069 6564.310000 0 1 0
13.297912 17.743573 0.962875 22.194503 0.927648 1.527399 0.033602 -0.011868 -253062.000000 0 1 0
13.068412 19.147173 0.334475 23.184251 0.971896 1.556369 0.029188 -0.013739 -381418.000000 0 1 0
12.842812 19.156373 -1.032325 23.086146 0.980200 1.615527 0.041965 -0.022449 149050.000000 0 1 0
12.309312 20.437773 -1.453225 23.902585 1.028700 1.631632 0.039811 -0.025152 1419290.000000 0 1 0
10.738012 20.621773 -1.339225 23.288537 1.090716 1.628334 0.034662 -0.027405 1154770.000000 0 1 0
10.236112 20.667373 -0.002525 23.063354 1.110933 1.570906 0.028117 -0.024821 247734.000000 0 1 0
8.813512 20.687073 0.002575 22.486284 1.168045 1.570682 0.014478 -0.017617 758527.000000 0 1 0
8.142712 20.725373 1.427275 22.313269 1.196438 1.506787 0.015197 -0.013850 314787.000000 0 1 0
8.171412 21.937273 2.129975 23.506440 1.214228 1.480059 0.020239 -0.004470 799131.000000 0 1 0
6.907112 22.035473 2.808375 23.262786 1.267042 1.449777 0.005691 -0.002990 744180.000000 0 1 0
6.684312 23.386973 3.486575 24.572072 1.292405 1.428424 0.007320 0.002418 82235.700000 0 1 0
7.207512 23.428173 4.811975 24.979644 1.272342 1.376949 0.000440 -0.000662 71608.700000 0 1 0
7.029412 24.705673 5.390775 26.245826 1.293595 1.363928 0.001120 0.007217 -60354.000000 0 0 1
7.689812 25.034473 6.750075 27.044806 1.272776 1.318541 -0.001247 0.006212 64326.400000 0 0 1
7.118512 24.247373 7.796675 26.446105 1.285241 1.271536 0.008244 -0.006557 631167.000000 0 0 1
7.963012 24.286873 8.932175 27.074813 1.253968 1.234591 0.003847 -0.014944 572030.000000 0 0 1
7.240612 23.324473 9.975975 26.381387 1.269799 1.183005 0.013431 -0.012304 466971.000000 0 0 1
6.118912 23.739773 10.717675 26.756055 1.318538 1.158657 0.012821 -0.013949 283660.000000 0 0 1
5.518512 22.598573 11.399975 25.905770 1.331286 1.115136 0.017541 -0.009627 751654.000000 0 0 1
4.158412 22.982573 12.074275 26.292188 1.391795 1.093663 0.026868 -0.016640 633519.000000 0 0 1
3.136512 23.340373 11.179875 26.069145 1.437215 1.127572 0.017945 -0.014630 757597.000000 0 0 1
1.920712 23.842473 11.788475 26.666848 1.490411 1.112897 0.018195 -0.013338 1165950.000000 0 0 1
0.787512 23.949473 10.719575 26.250842 1.537926 1.150149 0.026463 -0.005286 -482112.000000 0 0 1
0.976012 24.958473 9.735775 26.807896 1.531711 1.199130 0.025415 -0.006843 -356712.000000 0 0 1
-0.041288 25.071873 8.799275 26.571183 -1.569150 1.233265 0.025414 -0.007161 16453.400000 0 0 1
-1.331988 25.806873 9.280775 27.457270 -1.519228 1.225997 0.024937 -0.011518 352012.000000 0 0 1
-2.114488 25.041473 10.202475 27.122627 -1.486557 1.185147 0.021474 -0.010550 -129194.000000 0 0 1
-3.471288 25.382273 10.042675 27.516630 -1.434879 1.197198 0.037561 -0.014095 -527461.000000 0 0 1
-4.431288 24.533573 10.927775 27.220374 -1.392102 1.157691 0.032083 -0.017137 -143620.000000 0 0 1
-4.602388 24.782573 12.316675 28.054561 -1.387178 1.116282 0.024685 -0.009638 326804.000000 0 0 1
-5.431088 25.909373 12.613475 29.323916 -1.364169 1.126145 0.024901 0.001156 -33661.200000 0 0 1
-5.994488 25.950973 14.051775 30.113772 -1.343785 1.085328 0.025070 -0.001811 -345495.000000 0 0 1
-6.933988 24.934073 14.257875 29.547846 -1.299557 1.067249 0.025714 -0.005120 -34869.600000 0 0 1
-7.431388 24.901073 15.587975 30.303035 -1.280775 1.030485 0.014937 0.007956 370584.000000 0 0 1
-8.704188 24.054373 15.884675 30.111437 -1.223600 1.015106 0.014584 0.000821 905028.000000 0 0 1
-9.925888 24.692473 15.498975 30.797073 -1.188584 1.043428 0.019309 0.006435 -44593.000000 0 0 1
-11.038588 23.858873 15.639275 30.588938 -1.137463 1.034132 0.016111 0.000994 -283880.000000 0 0 1
-12.314088 24.618073 15.218275 31.452856 -1.106985 1.065755 0.012420 -0.004048 -318587.000000 0 0 1
-12.761188 25.432973 16.296075 32.790945 -1.105744 1.050694 0.011164 -0.001886 46816.200000 0 0 1
-13.634988 26.396573 15.697675 33.602216 -1.094001 1.084718 0.009767 0.000505 -410913.000000 0 0 1
-14.292388 27.307773 16.781875 35.094417 -1.088619 1.072201 0.017420 -0.001886 663716.000000 0 0 1
-15.443188 26.692873 17.412975 35.414873 -1.046297 1.056772 0.004362 -0.005882 762926.000000 0 0 1
-15.994088 27.479773 18.460675 36.766089 -1.043694 1.044758 0.018733 -0.007873 -701570.000000 0 0 1
-17.271288 26.918273 19.027275 37.214621 -1.000335 1.034117 0.008558 -0.016931 -709484.000000 0 0 1
-18.427788 27.124873 18.240875 37.524280 -0.974052 1.063165 0.010651 -0.019688 -162423.000000 0 0 1
-19.513388 26.465973 18.891675 37.922492 -0.935472 1.049315 0.021413 -0.013983 -178070.000000 0 0 1
-20.796388 26.759873 18.101475 38.421920 -0.910146 1.080232 0.011376 -0.017014 -846946.000000 0 0 1
-21.248288 28.094573 18.348275 39.717175 -0.923267 1.090577 0.010337 -0.017869 286205.000000 0 0 1
-21.649988 28.762373 17.153475 39.877785 -0.925557 1.126136 0.011752 -0.014621 173068.000000 0 0 1
-22.658088 29.943873 17.366875 41.371884 -0.923030 1.137599 0.001213 -0.023688 -127025.000000 0 0 1
-23.942288 29.603373 17.797775 42.028010 -0.890731 1.133519 0.003250 -0.016554 -113822.000000 0 0 1
-24.804788 30.670173 17.433075 43.125968 -0.890737 1.154653 -0.000809 -0.014607 -1326690.000000 0 0 1
-26.219728 30.653973 17.878175 44.122209 -0.863207 1.153602 0.003963 -0.011558 -1594740.000000 0 0 1
-26.964568 29.555773 17.456675 43.650511 -0.831212 1.159368 0.011250 -0.007018 -371238.000000 0 0 1
-28.276038 29.564573 17.961775 44.679119 -0.807672 1.157077 0.032370 -0.010721 -110950.000000 0 0 1
-28.568558 28.425573 18.980375 44.546945 -0.782889 1.130646 0.027304 -0.007577 -426998.000000 0 0 1
-28.542248 27.200973 18.374675 43.499213 -0.761341 1.134689 0.029752 -0.007407 146048.000000 0 0 1
-28.966968 26.253373 19.273575 43.586644 -0.736296 1.112758 0.028434 -0.005091 -249169.000000 0 0 1
-28.973508 24.805973 18.728275 42.491749 -0.708060 1.114361 0.033131 -0.008024 195184.000000 0 0 1
-30.006678 24.641473 17.749075 42.692301 -0.687535 1.142035 0.033197 -0.013638 359414.000000 0 0 1
-29.845198 23.577373 16.845175 41.597936 -0.668607 1.153870 0.038161 -0.013080 -503919.000000 0 0 1
-30.354088 22.210173 17.207075 41.361164 -0.631688 1.141732 0.036034 -0.010228 -915030.000000 0 0 1
-31.580158 21.858173 16.677675 41.871600 -0.605437 1.161128 0.039053 -0.009688 -805366.000000 0 0 1
-31.622308 20.406973 16.651475 41.154423 -0.573089 1.154244 0.032722 -0.011156 599881.000000 0 0 1
-32.969508 19.765873 16.158675 41.698692 -0.540066 1.172867 0.038641 -0.022562 559933.000000 0 0 1
-33.266628 20.043773 14.798575 41.562233 -0.542270 1.206750 0.033702 -0.017944 289101.000000 0 0 1
-34.552494 19.627273 14.348275 42.248996 -0.516590 1.224292 0.044576 -0.014911 476267.000000 0 0 1
-34.895514 20.146573 12.986875 42.334858 -0.523591 1.259003 0.041208 -0.009464 -65716.300000 0 0 1
-35.153911 21.562273 12.841175 43.192880 -0.550191 1.268934 0.024909 -0.015369 -248445.000000 0 0 1
-35.227162 21.945073 11.472175 43.059841 -0.557130 1.301115 0.020147 -0.004358 -318096.000000 0 0 1
-33.996328 21.920473 10.537075 41.800567 -0.572704 1.315968 0.027601 -0.008416 -150885.000000 0 0 1
-33.874558 20.611173 9.981075 40.889216 -0.546614 1.324204 0.026704 -0.006806 -537619.000000 0 0 1
-32.680118 20.442173 9.283075 39.649061 -0.558975 1.334472 0.043100 -0.002160 -371552.000000 0 0 1
-31.815568 19.267273 9.903175 38.490662 -0.544522 1.310582 0.038287 -0.010237 53810.100000 0 0 1
-31.433058 19.520173 11.235675 38.669299 -0.555723 1.275986 0.041196 -0.014318 -205116.000000 0 0 1
-31.022388 18.345973 11.884675 37.950082 -0.534056 1.252271 0.041995 -0.015645 143179.000000 0 0 1
-30.287128 18.669473 13.232575 37.959984 -0.552403 1.214727 0.028099 -0.012223 747252.000000 0 0 1
-29.121108 19.480173 13.167775 37.428684 -0.589572 1.211293 0.035798 -0.006949 412722.000000 0 0 1
-29.552308 20.805073 13.426175 38.554534 -0.613411 1.215105 0.041501 -0.007898 371986.000000 0 0 1
-28.329458 21.718173 13.688975 38.231208 -0.654059 1.204610 0.042240 -0.008773 70153.800000 0 0 1
-27.762438 21.393673 14.912175 38.089567 -0.656554 1.168532 0.037877 -0.010271 638391.000000 0 0 1
-26.731608 22.413873 15.179775 38.044528 -0.697767 1.160370 0.048490 -0.004854 652821.000000 0 0 1
-26.066198 22.245873 16.569375 38.064021 -0.706486 1.120422 0.039402 -0.008131 -443499.000000 0 0 1
-25.265208 21.097073 16.637475 36.881198 -0.695736 1.102788 0.053549 -0.016890 -19714.100000 0 0 1
-24.870888 20.892973 17.974975 37.123808 -0.698693 1.065359 0.046424 -0.009755 -182455.000000 0 0 1
-23.930288 19.711773 18.277275 35.989880 -0.689036 1.038115 0.053572 -0.007401 -80956.200000 0 0 1
-23.510788 19.673673 19.603275 36.388170 -0.696777 1.001871 0.056413 -0.012164 -58152.100000 0 0 1
-22.691588 18.558973 19.841975 35.398412 -0.685548 0.975767 0.051114 -0.009010 -153285.000000 0 0 1
-22.166388 18.480873 21.290375 35.863233 -0.694975 0.935204 0.043243 -0.005222 695381.000000 0 0 1
-23.234188 18.370773 22.267975 37.056383 -0.669031 0.926143 0.035863 0.001284 754653.000000 0 0 1
-22.780388 18.708873 23.546175 37.727846 -0.687577 0.896809 0.052212 -0.007215 19804.700000 0 0 1
-23.408588 17.861273 24.694775 38.429402 -0.651783 0.872908 0.032213 -0.000711 32450.700000 0 0 1
-23.021388 16.472373 24.720375 37.582181 -0.621069 0.852944 0.039423 -0.005266 470886.000000 0 0 1
-23.867988 15.725873 25.604175 38.373920 -0.582585 0.840315 0.027639 -0.003367 158081.000000 0 0 1
19.983812 25.011173 33.917365 46.640102 0.896668 0.756541 0.038536 -0.018753 249093.000000 0 0 1
20.946012 24.220773 33.231726 46.148986 0.857775 0.766855 0.036181 -0.021778 -100117.000000 0 0 1
20.814412 22.819073 33.387062 45.482367 0.831309 0.746506 0.033067 -0.014839 -255737.000000 0 0 1
19.577912 22.178873 32.716337 44.108454 0.847606 0.735158 0.026009 -0.012211 51372.800000 0 0 1
19.839312 22.097573 31.347027 43.180286 0.839195 0.758372 0.035189 -0.009171 285173.000000 0 0 1
18.938112 21.153373 30.829627 41.911612 0.840597 0.744264 0.036654 0.000042 160790.000000 0 0 1
19.609312 20.550673 29.535767 40.978248 0.808834 0.765888 0.033123 0.004887 -179516.000000 0 0 1
20.751712 19.772973 29.729487 41.297051 0.761251 0.767147 0.033175 0.002741 -522979.000000 0 0 1
20.900812 18.894573 28.618007 40.160169 0.735027 0.777604 0.026196 0.004266 568831.000000 0 0 1
22.106912 17.905073 28.797257 40.479491 0.680767 0.779303 0.030777 0.008590 1361350.000000 0 0 1
23.421412 18.480473 28.685987 41.388118 0.668023 0.805020 0.044085 0.001023 960894.000000 0 0 1
24.340412 17.569573 29.332967 41.971044 0.625225 0.796958 0.041495 0.005859 445517.000000 0 0 1
25.749312 18.150573 29.615197 43.238065 0.614004 0.816284 0.044272 -0.007298 50835.700000 0 0 1
26.622912 17.856673 28.553797 42.929705 0.590807 0.843130 0.046472 0.000672 152869.000000 0 0 1
27.872712 18.541473 28.670197 44.075554 0.587000 0.862582 0.045614 -0.008082 601536.000000 0 0 1
28.864712 18.095673 27.571747 43.827232 0.559974 0.890400 0.041759 0.001920 -17670.100000 0 0 1
28.430912 18.543573 26.321487 42.953481 0.577943 0.911209 0.035145 -0.000328 276218.000000 0 0 1
29.525312 18.425073 25.440087 43.109458 0.557911 0.939579 0.031862 0.007738 180920.000000 0 0 1
30.198212 19.722773 24.890097 43.822788 0.578559 0.966757 0.038968 0.000114 -130377.000000 0 0 1
29.320512 20.451673 24.066987 43.095049 0.609060 0.978265 0.037792 -0.002021 175944.000000 0 0 1
29.893312 21.370373 23.109287 43.409009 0.620648 1.009408 0.019503 -0.002152 407086.000000 0 0 1
30.656412 20.777873 21.865187 43.007232 0.595647 1.037462 0.014636 0.000277 796991.000000 0 0 1
29.628312 20.079873 21.149087 41.573093 0.595620 1.037098 0.035320 -0.000813 884030.000000 0 0 1
30.023712 19.647773 19.864287 41.012781 0.579468 1.065183 0.024372 -0.004344 -65717.500000 0 0 1
31.003012 18.431873 19.863087 41.175999 0.536379 1.067410 0.027461 -0.015405 -164993.000000 0 0 1
30.486712 17.209573 20.381987 40.509683 0.513903 1.043570 0.023464 -0.011632 113731.000000 0 0 1
31.365612 16.120473 20.204187 40.643332 0.474748 1.050532 0.021277 -0.007329 -638484.000000 0 0 1
30.634512 14.742673 20.299787 39.596731 0.448530 1.032513 0.013226 -0.011034 185431.000000 0 0 1
30.080012 14.342373 21.510487 39.663735 0.444922 0.997599 0.004861 -0.019987 845063.000000 0 0 1
29.020612 15.155273 22.057387 39.476658 0.481269 0.977925 0.012534 -0.009316 69513.400000 0 0 1
28.428512 14.609773 23.403987 39.615305 0.474716 0.938769 0.006649 -0.014321 66431.000000 0 0 1
27.940212 13.309073 23.359187 38.774199 0.444542 0.924240 0.007976 -0.013268 -94499.900000 0 0 1
27.289712 13.015473 24.572857 38.960958 0.445028 0.888335 0.011821 -0.008242 -67639.200000 0 0 1
26.825012 11.527273 24.507757 38.119411 0.405863 0.872491 0.026921 -0.005561 491788.000000 0 0 1
25.739512 11.473073 23.558287 36.730733 0.419304 0.874503 0.030869 0.001339 487129.000000 0 0 1
25.601912 10.100473 23.105787 35.935426 0.375774 0.872412 0.037036 0.001464 -181147.000000 0 0 1
24.392712 9.839473 22.192387 34.413975 0.383415 0.869949 0.028190 -0.010383 1754630.000000 0 0 1
23.049012 9.921673 22.819887 33.918193 0.406486 0.832820 0.028724 -0.010307 2784150.000000 0 0 1
22.191212 9.084673 21.938987 32.500774 0.388568 0.829791 0.028333 -0.000934 321070.000000 0 0 1
20.677812 9.310473 22.031187 31.616926 0.423073 0.799847 0.020457 0.004750 -60054.400000 0 0 1
20.084212 8.856973 23.248587 31.973713 0.415337 0.756685 0.022350 -0.002586 835696.000000 0 0 1
18.672112 8.670873 23.237487 31.045332 0.434744 0.724996 0.018299 -0.002843 213641.000000 0 0 1
18.133912 8.015873 24.495867 31.514132 0.416213 0.680437 0.014458 0.002044 -345955.000000 0 0 1
18.388812 6.650873 24.521557 31.363821 0.347042 0.673181 0.014445 -0.001913 311439.000000 0 0 1
17.869512 6.126673 25.732847 31.922328 0.330296 0.633251 0.008607 0.001457 -124956.000000 0 0 1
18.153712 4.591373 25.756097 31.843594 0.247722 0.628634 0.006229 0.000734 861303.000000 0 0 1
19.548612 4.239573 25.687907 32.557500 0.213566 0.661615 0.017411 0.001096 994037.000000 0 0 1
19.751512 2.849673 25.694487 32.533821 0.143287 0.660350 0.019764 0.005163 1216500.000000 0 0 1
21.288912 2.457973 25.551227 33.348532 0.114949 0.697909 0.043711 -0.003850 1588750.000000 0 0 1
22.080612 3.025273 26.620547 34.718284 0.136163 0.697020 0.047559 -0.013784 787216.000000 0 0 1
23.437012 3.194473 26.213057 35.307543 0.135466 0.734120 0.061244 -0.017449 590000.000000 0 0 1
24.403312 3.386373 27.408957 36.854309 0.137886 0.732192 0.056073 -0.018734 -795248.000000 0 0 1
24.535512 2.299673 28.311737 37.534442 0.093455 0.716229 0.049276 -0.019776 192038.000000 0 0 1
25.323412 2.559573 29.464717 38.935796 0.100733 0.712467 0.049135 -0.011173 140153.000000 0 0 1
26.841612 2.638773 29.201697 39.751407 0.097994 0.745708 0.057930 -0.019441 -963738.000000 0 0 1
27.269812 3.860473 28.585197 39.694576 0.140631 0.766809 0.064417 -0.013163 -18545.300000 0 0 1
28.632612 3.934173 28.247067 40.412882 0.136547 0.796851 0.054205 -0.007827 29494.300000 0 0 1
29.142212 2.981773 27.061337 39.880766 0.101963 0.825001 0.058156 -0.004762 -388448.000000 0 0 1
28.905512 3.372573 25.752657 38.860034 0.116151 0.846374 0.052611 -0.005428 -240766.000000 0 0 1
29.413412 2.464173 24.859737 38.590510 0.083582 0.870829 0.040434 0.010034 -387893.000000 0 0 1
29.050412 2.562873 23.311487 37.335241 0.087994 0.896455 0.065354 -0.008011 435454.000000 0 0 1
29.815312 3.538273 22.603987 37.582076 0.118121 0.925473 0.052826 -0.004600 -425369.000000 0 0 1
31.157112 3.261773 22.333987 38.473521 0.104308 0.951450 0.052309 0.000605 -516489.000000 0 0 1
31.834312 4.478673 21.725587 38.800555 0.139770 0.976495 0.036700 -0.003638 -724539.000000 0 0 1
31.346312 4.842173 20.440787 37.734119 0.153262 0.998331 0.034778 -0.009797 77135.500000 0 0 1
31.747712 6.169773 19.951487 38.000594 0.191945 1.018045 0.024126 0.004543 784203.000000 0 0 1
33.289612 6.355673 19.617287 39.159045 0.188650 1.046084 0.012977 0.003392 610291.000000 0 0 1
34.117612 6.276373 20.744487 40.419526 0.181929 1.031853 0.020108 0.008649 -157617.000000 0 0 1
34.065812 7.369873 21.675187 41.043980 0.213059 1.014439 0.022780 0.001681 -1008260.000000 0 0 1
34.729312 7.065873 23.018287 42.259830 0.200716 0.994783 0.019803 -0.001138 -45404.600000 0 0 1
34.091212 6.033373 23.839587 42.034965 0.175164 0.967771 0.015288 -0.001207 358334.000000 0 0 1
34.617512 6.050373 25.163567 43.222497 0.173030 0.949381 0.026304 -0.003202 -91664.100000 0 0 1
33.841512 5.155773 26.123737 43.061347 0.151188 0.918940 0.025524 -0.005249 -165105.000000 0 0 1
33.903412 3.788973 25.777027 42.758073 0.111296 0.923718 0.022631 -0.000053 317919.000000 0 0 1
33.200512 2.926473 26.694077 42.701429 0.087918 0.895494 0.032869 0.004913 39172.200000 0 0 1
33.244712 1.395273 26.267357 42.392590 0.041945 0.902536 0.011002 0.014031 56429.300000 0 0 1
32.412712 1.100573 25.150317 41.040634 0.033942 0.911178 0.019028 0.010975 159559.000000 0 0 1
32.622412 -0.229327 24.752477 40.950696 -0.007030 0.921726 0.023532 0.009713 -467864.000000 0 0 1
31.545612 -0.705727 23.805687 39.526377 -0.022368 0.924450 0.031720 0.011624 -688556.000000 0 0 1
30.296512 -0.923427 24.402397 38.912830 -0.030470 0.892966 0.039632 0.008211 -405700.000000 0 0 1
29.426612 -1.401527 23.381087 37.610704 -0.047592 0.899936 0.049081 -0.000123 312037.000000 0 0 1
27.919012 -1.520627 23.705387 36.656908 -0.054412 0.867569 0.055402 0.000791 252059.000000 0 0 1
27.242112 -0.297027 23.709487 36.115934 -0.010903 0.854650 0.050696 0.001168 -377898.000000 0 0 1
25.859712 -0.498527 23.521087 34.960189 -0.019276 0.832814 0.059471 -0.002713 47113.600000 0 0 1
25.053912 0.814873 23.461887 34.333987 0.032513 0.818465 0.067071 0.000177 6112.890000 0 0 1
25.153712 1.496073 22.249787 33.615480 0.059407 0.847458 0.063170 -0.010623 -180715.000000 0 0 1
24.109112 2.412473 22.184487 32.851496 0.099733 0.829430 0.056789 -0.006672 -310628.000000 0 0 1
24.138512 3.284673 20.898587 32.096850 0.135245 0.861750 0.046567 -0.011598 -188735.000000 0 0 1
23.404712 2.756173 19.831887 30.800662 0.117222 0.871240 0.043356 -0.011668 82576.700000 0 0 1
22.894312 3.793373 19.032287 30.012783 0.164199 0.883901 0.045083 -0.011966 -61022.300000 0 0 1
22.782112 3.452573 17.572387 28.978159 0.150403 0.919270 0.044881 -0.017056 969505.000000 0 0 1
24.082212 3.432873 16.926187 29.635002 0.141594 0.962884 0.057252 -0.021869 1239060.000000 0 0 1
23.991212 3.508673 15.488987 28.771475 0.145219 1.002324 0.040551 -0.022357 -368227.000000 0 0 1
23.600012 2.198273 14.797487 27.942058 0.092879 1.012694 0.038439 -0.013780 254355.000000 0 0 1
22.196612 1.979573 14.728787 26.712272 0.088948 0.986771 0.044144 -0.013057 621493.000000 0 0 1
21.968312 0.785873 13.992687 26.058005 0.035758 1.003941 0.039727 -0.013696 439472.000000 0 0 1
20.451512 0.389673 13.875987 24.717589 0.019051 0.974743 0.051900 -0.025828 560496.000000 0 1 0
19.564212 1.099673 13.042787 23.538946 0.056149 0.983522 0.060072 -0.021438 601469.000000 0 1 0
19.662312 0.859173 11.643987 22.867600 0.043669 1.036551 0.064846 -0.020189 -993318.000000 0 1 0
19.441312 -0.597727 11.104487 22.397132 -0.030736 1.052041 0.064719 -0.016302 -120096.000000 0 1 0
20.482312 -1.495627 11.443887 23.510095 -0.072891 1.062414 0.063386 -0.027321 942137.000000 0 1 0
21.681812 -1.271927 10.686187 24.205648 -0.058596 1.113555 0.065494 -0.020143 -807202.000000 0 1 0
22.848012 -2.184527 11.002987 25.453282 -0.095322 1.123775 0.063355 -0.027952 -699932.000000 0 0 1
23.223612 -1.741727 12.265987 26.321554 -0.074858 1.086026 0.056774 -0.027909 -19001.600000 0 0 1
24.155612 -2.615627 12.878187 27.498778 -0.107862 1.083410 0.033845 -0.018759 -41545.800000 0 0 1
24.381912 -2.392427 14.394887 28.415033 -0.097810 1.039567 0.036996 -0.016969 -342161.000000 0 0 1
25.260412 -1.353127 14.683687 29.249445 -0.053516 1.044868 0.030747 -0.015812 -258548.000000 0 0 1
25.470212 -1.153727 16.032087 30.117945 -0.045266 1.009469 0.030889 -0.022855 186776.000000 0 0 1
26.708012 -0.254927 16.303487 31.291957 -0.009545 1.022760 0.045441 -0.016240 632999.000000 0 0 1
27.959912 -0.912827 16.116187 32.285003 -0.032636 1.048138 0.057612 -0.016093 436103.000000 0 0 1
29.019812 0.008873 16.342187 33.304904 0.000306 1.057922 0.057706 -0.012657 508315.000000 0 0 1
30.435812 -0.639727 16.285087 34.524658 -0.021016 1.079585 0.044755 -0.008218 300249.000000 0 0 1
30.831812 -1.165527 15.048087 34.327890 -0.037785 1.117019 0.050978 -0.001319 395770.000000 0 0 1
32.024112 -1.941027 15.118087 35.466434 -0.060537 1.130437 0.036673 -0.001192 423527.000000 0 0 1
32.619512 -2.573627 13.837187 35.526383 -0.078735 1.170718 0.039902 0.001117 -75606.100000 0 0 1
33.032912 -1.543127 12.963787 35.519210 -0.046681 1.197185 0.035037 0.003066 -11622.000000 0 0 1
33.313412 -2.046627 11.687087 35.363260 -0.061358 1.233977 0.041376 -0.000814 -150540.000000 0 0 1
32.671012 -1.167427 10.604087 34.368657 -0.035718 1.257139 0.056792 0.002103 -262402.000000 0 0 1
33.390812 0.031073 10.401287 34.973334 0.000931 1.268822 0.034735 0.003257 616127.000000 0 0 1
32.579912 1.103373 9.863187 34.058047 0.033854 1.276988 0.040640 0.002005 -130729.000000 0 0 1
33.369412 2.333573 9.403787 34.747582 0.069818 1.296747 0.038080 0.002344 -398352.000000 0 0 1
33.788312 2.093073 8.073387 34.802451 0.061868 1.336686 0.022258 0.003356 176833.000000 0 0 1
34.146112 3.329973 7.413287 35.099894 0.097214 1.357988 0.016554 0.003364 -126421.000000 0 0 1
34.679812 3.213573 5.933187 35.330145 0.092400 1.402061 0.021575 0.003565 -147789.000000 0 0 1
34.946712 4.453573 5.400487 35.640879 0.126756 1.418685 0.018288 0.015833 126436.000000 0 0 1
35.207012 4.345373 4.019387 35.701141 0.122802 1.457973 0.010937 -0.006671 -391062.000000 0 0 1
-35.234322 5.724973 3.460287 35.863719 -0.161075 1.474162 0.018245 -0.015828 100466.000000 0 0 1
34.532012 6.649473 3.353787 35.325957 0.190231 1.475715 0.021411 -0.015337 151234.000000 0 0 1
34.921912 7.983273 3.097187 35.956434 0.224742 1.484552 0.017264 -0.019573 -723627.000000 0 0 1
33.830612 9.047373 3.422587 35.186352 0.261316 1.473372 0.040922 -0.012518 559734.000000 0 0 1
32.690612 9.225273 2.590687 34.066016 0.275047 1.494674 0.052692 -0.024432 598233.000000 0 0 1
31.810712 8.081473 2.679187 32.930376 0.248786 1.489347 0.045455 -0.017485 -516387.000000 0 0 1
30.529712 8.085673 1.813887 31.634342 0.258902 1.513426 0.077388 -0.026602 203783.000000 0 0 1
30.761212 8.083573 0.410087 31.808246 0.256975 1.557903 0.078728 -0.029533 524623.000000 0 0 1
29.597012 7.545573 -0.208713 30.544433 0.249626 1.577629 0.083850 -0.032768 294053.000000 0 0 1
29.841112 7.452973 -1.744013 30.807148 0.244748 1.627437 0.063184 -0.022827 442039.000000 0 0 1
28.811112 6.713673 -2.448513 29.684151 0.228938 1.653376 0.058734 -0.018367 1135760.000000 0 0 1
29.110112 6.648473 -3.849413 30.106790 0.224539 1.699006 0.060741 -0.013414 -9516.000000 0 0 1
27.919012 6.052973 -4.639113 28.941857 0.213500 1.731782 0.046938 -0.006508 -166618.000000 0 0 1
27.934112 4.653973 -4.554413 28.683040 0.165089 1.730255 0.056482 -0.008393 284427.000000 0 0 1
27.062012 4.014573 -5.432013 27.892222 0.147273 1.766799 0.047556 -0.005672 -549348.000000 0 0 1
27.010912 2.457673 -5.347313 27.644589 0.090738 1.765454 0.052013 0.002972 -253468.000000 0 0 1
26.381612 1.950573 -4.145813 26.776519 0.073803 1.726252 0.040130 -0.003928 476168.000000 0 0 1
26.464912 0.516173 -4.098113 26.785305 0.019502 1.724398 0.038920 -0.007702 -152874.000000 0 0 1
26.589712 0.090273 -2.650913 26.721682 0.003395 1.670164 0.040783 -0.006397 -828028.000000 0 0 1
27.755112 0.472373 -2.029013 27.833187 0.017018 1.643760 0.064314 -0.014293 -487729.000000 0 0 1
27.683312 0.178373 -0.669713 27.691986 0.006443 1.594983 0.071537 -0.013955 273605.000000 0 0 1
28.996912 0.582373 0.106987 29.002957 0.020081 1.567107 0.085137 -0.010995 512577.000000 0 0 1
30.057612 -0.199527 -0.401213 30.060952 -0.006638 1.584143 0.072750 -0.013989 490439.000000 0 0 1
31.314912 0.255573 0.120087 31.316185 0.008161 1.566962 0.056369 -0.018476 356728.000000 0 0 1
-3.341588 -21.198427 -8.566825 23.106926 1.414449 1.950610 0.006717 0.009671 373498.000000 0 1 0
-3.654088 -21.869727 -7.349825 23.359308 1.405241 1.890876 0.002972 0.006945 -521355.000000 0 1 0
-2.825288 -22.950227 -7.154125 24.204890 1.448308 1.870844 0.002305 0.002804 -96767.900000 0 1 0
-3.310188 -23.679927 -5.865625 24.619136 1.431908 1.811365 0.000528 0.010551 -136183.000000 0 1 0
-3.098988 -22.912527 -4.746525 23.603329 1.436359 1.773273 0.004989 0.005301 -166094.000000 0 1 0
-3.545788 -23.609727 -3.609925 24.145877 1.421727 1.720864 0.000316 0.003827 -147771.000000 0 1 0
-3.269788 -22.814327 -2.275325 23.159494 1.428444 1.669201 -0.002556 -0.005128 1092770.000000 0 1 0
-1.859888 -22.883427 -1.966425 23.042944 1.489698 1.656238 0.017413 -0.008644 386591.000000 0 1 0
-1.571388 -22.454427 -0.674425 22.519445 1.500929 1.600749 0.014021 -0.015650 -647556.000000 0 1 0
-0.157288 -22.509527 -0.146925 22.510556 1.563809 1.577323 0.025118 -0.017491 -768350.000000 0 1 0
0.698012 -21.545927 -0.688125 21.568211 -1.538411 1.602706 0.017941 -0.012971 923768.000000 0 1 0
1.918812 -21.341327 0.087675 21.427594 -1.481127 1.566705 0.019375 -0.011731 1212770.000000 0 1 0
2.947712 -20.332827 -0.422325 20.549726 -1.426826 1.591349 0.026458 -0.007163 -3969.490000 0 1 0
3.513312 -20.724127 -1.619825 21.082140 -1.402865 1.647706 0.019893 -0.006098 -859939.000000 0 1 0
4.537112 -19.816127 -1.928325 20.420155 -1.345715 1.665370 0.028661 -0.005387 -378720.000000 0 1 0
5.350512 -20.256927 -3.143925 21.186206 -1.312561 1.719741 0.018552 0.000450 -654146.000000 0 1 0
6.159912 -21.385027 -2.849725 22.436239 -1.290341 1.698155 0.024853 -0.002285 -11840.300000 0 1 0
6.948112 -21.911327 -3.934425 23.320854 -1.263725 1.740316 0.018065 0.001998 739441.000000 0 1 0
8.171012 -21.066827 -4.388425 23.018143 -1.200798 1.762621 0.013542 0.001227 -647505.000000 0 1 0
7.832912 -19.877327 -5.073225 21.959059 -1.195419 1.803934 0.006711 0.002187 -153296.000000 0 1 0
8.852312 -19.424327 -5.966725 22.164605 -1.143185 1.843359 0.005299 0.007224 -152082.000000 0 1 0
8.609212 -18.102127 -6.670725 21.125911 -1.126866 1.892054 -0.004124 0.003821 -1054710.000000 0 1 0
9.574812 -17.976527 -7.623625 21.747465 -1.081388 1.928957 0.007267 0.009848 -440401.000000 0 1 0
9.500612 -16.720727 -8.202725 20.907631 -1.054092 1.973961 0.008317 0.003926 58803.200000 0 1 0
9.825312 -16.637627 -9.753825 21.644503 -1.037356 2.038276 0.004914 0.002513 -319885.000000 0 1 0
8.905412 -17.295727 -10.580325 22.144792 -1.095307 2.068921 -0.007134 -0.001704 -38654.000000 0 1 0
8.786912 -16.523927 -11.784125 22.115958 -1.082058 2.132742 -0.008295 -0.005228 65255.700000 0 1 0
8.166612 -17.273827 -13.003725 23.112238 -1.129166 2.168365 -0.009332 -0.004051 -400115.000000 0 1 0
6.895912 -17.792527 -12.777125 22.964811 -1.201048 2.160817 -0.019077 -0.002659 -270037.000000 0 1 0
6.301412 -18.259927 -13.973125 23.840742 -1.238498 2.197037 -0.018195 0.000774 105375.000000 0 1 0
5.199212 -19.313027 -13.649725 24.214455 -1.307823 2.169657 -0.010928 0.004451 -258854.000000 0 1 0
5.627312 -20.546827 -13.223025 25.073634 -1.303474 2.126296 -0.001810 0.000734 -640513.000000 0 0 1
4.488312 -21.235427 -12.845125 25.220736 -1.362502 2.105177 0.003528 0.001638 -491622.000000 0 0 1
4.719312 -22.747627 -12.667925 26.461345 -1.366234 2.070008 0.000508 -0.002429 -477405.000000 0 0 1
5.012012 -23.340127 -13.942525 27.645539 -1.359271 2.099404 0.007721 -0.008771 -134723.000000 0 0 1
4.813812 -24.707827 -13.888525 28.749620 -1.378377 2.074972 0.006763 -0.004963 999329.000000 0 0 1
3.303512 -25.099637 -14.115025 28.985150 -1.439933 2.079419 0.010742 -0.012210 687168.000000 0 0 1
2.296212 -24.485927 -13.313025 27.965512 -1.477293 2.066956 0.008003 -0.008958 231188.000000 0 0 1
0.986512 -24.921927 -13.635925 28.425589 -1.531233 2.071116 0.008520 -0.018564 233115.000000 0 0 1
0.472312 -26.244257 -13.087625 29.330360 -1.552801 2.033327 0.008941 -0.012451 -1017120.000000 0 0 1
0.938912 -27.325317 -13.840625 30.645023 -1.536449 2.039403 0.007585 -0.007991 14501.000000 0 0 1
0.606812 -28.638067 -13.399225 31.623509 -1.549610 2.008335 -0.001643 0.005188 -87093.000000 0 0 1
-0.844188 -29.067397 -13.726325 32.156465 1.541762 2.011815 -0.000879 -0.002105 338252.000000 0 0 1
-1.880088 -28.362387 -13.075125 31.287675 1.504605 2.001929 -0.003750 -0.009542 -361144.000000 0 0 1
-3.139888 -28.686457 -13.604225 31.903709 1.461775 2.011322 -0.005935 0.000100 21766.400000 0 0 1
-4.310288 -27.952487 -12.867825 31.072513 1.417801 1.997775 -0.011342 -0.010160 410976.000000 0 0 1
-4.635888 -28.281787 -11.499125 30.880104 1.408323 1.952368 -0.008301 -0.014095 -273756.000000 0 0 1
-5.117388 -29.585967 -11.331225 32.092270 1.399524 1.931660 -0.013349 -0.012242 -761907.000000 0 0 1
-5.583088 -29.835977 -9.874525 31.919628 1.385810 1.885312 0.000216 -0.017556 -1178990.000000 0 0 1
-6.828888 -29.427417 -9.480925 31.662194 1.342774 1.874902 0.009683 -0.012865 -1555260.000000 0 0 1
-6.952688 -28.034617 -9.155225 30.300128 1.327697 1.877745 0.006513 -0.006849 -806107.000000 0 0 1
-8.388588 -27.664997 -8.745025 30.202582 1.276388 1.864548 0.002339 -0.001417 370199.000000 0 0 1
-9.455888 -27.760197 -9.671225 30.880009 1.242495 1.889344 0.010903 -0.002980 -67640.900000 0 0 1
-9.694988 -29.022687 -10.276825 32.278821 1.248402 1.894813 0.011785 -0.015005 -323312.000000 0 0 1
-11.126688 -29.205667 -10.893925 33.097610 1.206796 1.906195 0.012205 -0.008295 160377.000000 0 0 1
-11.121988 -28.556567 -12.110125 32.951954 1.199398 1.947125 0.013924 -0.017776 -132042.000000 0 0 1
-11.823388 -29.312317 -13.044825 34.193156 1.187398 1.962219 0.018761 -0.019665 -270454.000000 0 0 1
-12.151588 -28.555137 -14.383825 34.204552 1.168461 2.004819 0.017414 -0.019054 95065.000000 0 0 1
-13.138688 -27.505337 -14.364025 33.697090 1.125165 2.011161 0.019123 -0.029833 107120.000000 0 0 1
-12.790488 -26.317467 -13.712225 32.314560 1.118405 2.009025 0.024594 -0.018514 -782998.000000 0 0 1
-13.741388 -25.152837 -13.829425 31.823638 1.070786 2.020351 0.042854 -0.011689 -665161.000000 0 0 1
-13.646388 -24.402927 -15.018525 31.737720 1.060909 2.063724 0.038504 -0.010826 158669.000000 0 0 1
-14.544788 -23.306527 -15.135825 31.366196 1.012870 2.074363 0.047302 -0.004960 -131504.000000 0 0 1
-14.357888 -22.573127 -16.508425 31.436016 1.004282 2.123680 0.036469 -0.003202 954003.000000 0 0 1
-13.130688 -21.794127 -16.432425 30.289000 1.028550 2.144232 0.035605 0.002577 1243110.000000 0 0 1
-12.803788 -21.195827 -17.694025 30.434825 1.027389 2.191213 0.017184 0.010604 -339947.000000 0 0 1
-13.102988 -19.669327 -17.724425 29.541936 0.983142 2.214266 0.024370 0.013385 18468.600000 0 0 1
-12.044388 -18.784927 -17.368325 28.277190 1.000651 2.232189 0.033304 0.017112 295996.000000 0 0 1
-12.452188 -17.430727 -17.391425 27.592551 0.950483 2.252728 0.035319 0.018211 317871.000000 0 0 1
-11.267588 -16.428527 -17.569125 26.561799 0.969627 2.293538 0.050246 0.004474 868950.000000 0 0 1
-10.310088 -16.480427 -16.494225 25.494349 1.011769 2.274408 0.046416 0.011352 346764.000000 0 0 1
-9.112088 -15.834227 -16.862325 24.861434 1.048611 2.316178 0.049150 0.005654 -346617.000000 0 1 0
-8.449188 -15.049527 -15.736325 23.356133 1.059224 2.310076 0.040947 0.008559 164700.000000 0 1 0
-7.847788 -15.707127 -14.580225 22.822896 1.107443 2.263788 0.034836 0.001523 1364550.000000 0 1 0
-6.596288 -16.372327 -14.925425 23.115631 1.187799 2.272717 0.033549 -0.001927 733413.000000 0 1 0
-6.058788 -17.297527 -13.802525 22.943911 1.233882 2.216270 0.019878 0.002584 -527172.000000 0 1 0
-5.728788 -16.621627 -12.649925 21.659134 1.238888 2.194500 0.018557 -0.002490 162891.000000 0 1 0
-5.401188 -17.489527 -11.550325 21.644085 1.271264 2.133705 0.005091 -0.001216 141727.000000 0 1 0
-4.273988 -18.573527 -11.673125 22.349602 1.344622 2.120338 0.009487 -0.003358 763542.000000 0 1 0
-2.979688 -17.963527 -11.849825 21.725220 1.406419 2.147711 0.016132 -0.000916 269670.000000 0 1 0
-1.973488 -18.950827 -11.787425 22.404729 1.467033 2.124820 0.001474 0.001932 167128.000000 0 1 0
-0.581388 -18.536427 -12.285925 22.245923 1.539442 2.155890 -0.001305 0.007150 -864326.000000 0 1 0
-0.578988 -18.091927 -13.632325 22.660391 1.538805 2.216290 -0.000412 -0.001416 395516.000000 0 1 0
0.670412 -17.485427 -14.011025 22.416477 -1.532474 2.245969 0.005435 -0.002205 673662.000000 0 1 0
1.832412 -18.470627 -14.248825 23.399804 -1.471913 2.225506 0.006352 -0.000026 -1055500.000000 0 1 0
1.634312 -19.377627 -15.300725 24.744203 -1.486655 2.237445 0.012175 -0.002195 59787.200000 0 1 0
1.096812 -20.616727 -14.879725 25.449138 -1.517646 2.195288 0.007386 -0.004229 -719391.000000 0 0 1
1.073112 -21.644127 -16.043525 26.963206 -1.521257 2.208081 0.020178 -0.006034 894044.000000 0 0 1
2.309012 -22.362627 -16.243625 27.735789 -1.467908 2.196485 0.010222 -0.008205 452108.000000 0 0 1
3.338412 -21.572727 -16.785325 27.536788 -1.417263 2.226302 0.015092 -0.009037 -1470500.000000 0 0 1
4.553912 -22.384727 -17.114125 28.543080 -1.370097 2.213784 0.024991 -0.009607 -960497.000000 0 0 1
4.338212 -23.460627 -18.009825 29.892723 -1.387947 2.217403 0.029622 -0.011034 316097.000000 0 0 1
5.565212 -24.103527 -18.350925 30.801105 -1.343885 2.209043 0.036926 -0.015312 274824.000000 0 0 1
5.988112 -23.788027 -19.778525 31.510598 -1.324192 2.249364 0.042468 -0.012022 -54487.300000 0 0 1
6.293712 -22.405227 -20.055625 30.721867 -1.296950 2.282088 0.049560 -0.021970 156264.000000 0 0 1
6.783312 -22.258127 -21.370825 31.593507 -1.274981 2.313702 0.045381 -0.019747 75128.000000 0 0 1
7.125612 -20.781127 -21.672625 30.859881 -1.240471 2.349407 0.035902 -0.018536 -236321.000000 0 0 1
5.961712 -20.107827 -22.016625 30.407211 -1.282565 2.380466 0.041030 -0.023613 -446666.000000 0 0 1
6.236312 -18.770227 -22.362425 29.854498 -1.250026 2.417419 0.043024 -0.021600 798920.000000 0 0 1
4.952712 -17.946927 -22.775025 29.416378 -1.301534 2.456293 0.037671 -0.017939 -260496.000000 0 0 1
4.460912 -18.330127 -24.004825 30.530721 -1.332072 2.475515 0.036919 -0.019483 489726.000000 0 0 1
3.314512 -17.650427 -24.533425 30.404153 -1.385172 2.509699 0.043781 -0.009929 1033110.000000 0 0 1
1.989512 -17.572327 -23.710825 29.579521 -1.458058 2.500756 0.033719 -0.003210 -293873.000000 0 0 1
2.029312 -16.914927 -22.442225 28.175988 -1.451395 2.492284 0.038393 -0.003538 -468157.000000 0 0 1
1.019912 -15.920627 -22.351825 27.461075 -1.506821 2.521708 0.027717 -0.005810 283567.000000 0 0 1
1.117512 -15.111127 -21.020925 25.912821 -1.496978 2.517027 0.020707 -0.005565 142081.000000 0 0 1
2.259812 -14.271727 -20.952925 25.452191 -1.413758 2.537868 0.024390 -0.001909 -80045.200000 0 0 1
2.374912 -13.462727 -19.799625 24.060556 -1.396186 2.537307 0.021665 -0.006817 110608.000000 0 1 0
3.547112 -12.460327 -19.743525 23.614583 -1.293460 2.560883 0.028818 -0.005419 -431177.000000 0 1 0
4.812512 -13.044327 -19.560425 23.998437 -1.217353 2.523648 0.025417 -0.004400 498772.000000 0 1 0
5.982612 -12.218527 -19.724725 23.961403 -1.115475 2.537799 0.026715 -0.000944 977356.000000 0 1 0
6.112512 -11.172027 -18.556325 22.505870 -1.070162 2.540133 0.029357 -0.003897 -202386.000000 0 1 0
5.216312 -10.007827 -18.424425 21.606155 -1.090315 2.592004 0.015720 0.003183 439536.000000 0 1 0
5.542212 -8.902927 -19.234225 21.907388 -1.013985 2.642420 0.024248 -0.003417 -162655.000000 0 1 0
4.885412 -8.973127 -20.624525 23.016413 -1.072225 2.681652 0.032051 -0.009326 848995.000000 0 1 0
3.452212 -9.071327 -20.523125 22.702542 -1.207157 2.699834 0.023330 -0.010553 516467.000000 0 1 0
2.863212 -9.342927 -21.783825 23.875161 -1.273426 2.719919 0.033477 -0.012110 576009.000000 0 1 0
1.324212 -9.100627 -21.781825 23.643664 -1.426303 2.742089 0.030457 -0.015389 465029.000000 0 1 0
1.062912 -7.714127 -21.596825 22.957796 -1.433871 2.795539 0.026082 -0.015909 328794.000000 0 1 0
-0.317388 -7.392427 -21.812625 23.033439 1.527889 2.814555 0.021036 -0.013035 767114.000000 0 1 0
-0.464588 -6.375727 -23.013725 23.885085 1.498057 2.870649 0.027385 -0.008882 -216082.000000 0 1 0
-0.297088 -6.994727 -24.308525 25.296617 1.528349 2.861174 0.030368 -0.004305 -196876.000000 0 0 1
-0.798988 -6.264927 -25.482865 26.253840 1.443948 2.898648 0.024492 -0.009679 82296.300000 0 0 1
-0.389688 -4.838127 -25.826245 26.278399 1.490425 2.955819 0.034683 -0.007375 -636322.000000 0 0 1
-1.036788 -4.286427 -26.972445 27.330590 1.333477 2.979525 0.022597 -0.004937 -6689.050000 0 0 1
-0.683388 -2.905927 -27.285645 27.448458 1.339823 3.032620 0.016059 -0.001725 -454858.000000 0 0 1
-1.238188 -1.801327 -26.285615 26.376342 0.968594 3.058626 0.023762 -0.016078 575331.000000 0 0 1
-2.654688 -1.707627 -26.263765 26.452764 0.571615 3.021983 0.020633 -0.018238 108135.000000 0 0 1
-3.270388 -0.972027 -27.295425 27.507826 0.288905 3.017243 0.029898 -0.010342 -390734.000000 0 0 1
-4.795788 -1.116027 -27.150495 27.593377 0.228641 2.962186 0.034479 -0.015998 -128846.000000 0 0 1
-5.361688 -0.126027 -26.319785 26.860652 0.023501 2.940575 0.036011 -0.015807 -820509.000000 0 0 1
-6.735088 -0.284527 -26.210005 27.063014 0.042220 2.889853 0.047299 -0.022829 -804390.000000 0 0 1
-7.483188 0.931573 -25.588705 26.676727 -0.123852 2.855007 0.045463 -0.016893 -673301.000000 0 0 1
-7.606988 2.078073 -26.414765 27.566727 -0.266673 2.851481 0.042059 -0.017702 1143550.000000 0 0 1
-8.655388 1.959773 -27.427955 28.827923 -0.222668 2.828667 0.046087 -0.017691 2352870.000000 0 0 1
-10.174088 1.690173 -27.013575 28.915428 -0.164622 2.776882 0.039905 -0.018247 604555.000000 0 0 1
-11.144188 2.048673 -27.934925 30.145481 -0.181803 2.756252 0.040197 -0.025174 327606.000000 0 0 1
-12.471488 1.815173 -27.463695 30.217336 -0.144531 2.711368 0.006438 -0.019774 352249.000000 0 0 1
-13.521188 2.439373 -28.411575 31.559319 -0.178491 2.691161 -0.002827 -0.013265 756015.000000 0 0 1
-14.842888 2.126673 -27.915885 31.688021 -0.142310 2.648684 0.007489 -0.013112 1625530.000000 0 0 1
-15.993088 2.751273 -28.510805 32.805706 -0.170361 2.624137 0.017429 -0.010483 857631.000000 0 0 1
-16.374388 4.204973 -28.068285 32.766309 -0.251370 2.599479 0.004399 -0.003799 -543908.000000 0 0 1
-15.485888 5.242073 -28.510275 32.865298 -0.326399 2.620928 0.019027 -0.001908 288601.000000 0 0 1
-15.410688 5.469073 -29.930105 34.105883 -0.341023 2.641555 0.002098 -0.005260 -717338.000000 0 0 1
-16.617188 6.162973 -30.529955 35.301435 -0.355153 2.615620 -0.014364 0.009325 -474293.000000 0 0 1
-16.905988 7.454373 -29.888115 35.138007 -0.415287 2.587907 -0.008415 0.011498 436369.000000 0 0 1
-17.988488 8.130573 -30.525275 36.352226 -0.424506 2.567543 -0.013112 0.010381 -556711.000000 0 0 1
-18.696888 9.136373 -29.593345 36.177520 -0.454532 2.528728 -0.002599 0.011877 -729343.000000 0 0 1
-17.898888 10.160073 -29.174365 35.703513 -0.516283 2.527209 -0.005703 0.016198 -127865.000000 0 0 1
-18.733988 11.184573 -28.704595 36.055662 -0.538226 2.491651 0.019766 0.004387 -24622.200000 0 0 1
-8.326588 24.813573 31.571697 41.009968 -1.247038 0.692184 0.002529 0.002878 -526428.000000 0 0 1
-8.780988 26.006973 30.998297 41.404864 -1.245175 0.724753 0.009971 0.000285 106822.000000 0 0 1
-8.917888 27.096373 31.819467 42.734303 -1.252845 0.730878 0.005660 0.001817 -38917.900000 0 0 1
-7.646088 27.969673 31.902057 43.110399 -1.303946 0.737713 0.004020 -0.003030 -87893.500000 0 0 1
-7.630088 28.820873 30.810297 42.873481 -1.311992 0.768962 0.007651 0.004568 418747.000000 0 0 1
-6.369788 28.895473 30.162507 42.252803 -1.353824 0.775804 0.007049 0.003373 86438.000000 0 0 1
-6.329988 30.176673 29.295927 42.531772 -1.364030 0.810962 0.018960 -0.005994 -164980.000000 0 0 1
-6.420888 31.352773 30.080017 43.920742 -1.368795 0.816370 0.017942 -0.002408 320687.000000 0 0 1
-6.138388 32.508173 29.321827 44.206681 -1.384168 0.845590 0.022271 0.007371 -251699.000000 0 0 1
-6.446188 33.859573 30.056387 45.731941 -1.382668 0.853659 0.029278 0.002345 -915620.000000 0 0 1
-5.683988 34.015973 31.193737 46.502079 -1.405228 0.835505 0.046394 -0.009552 -493957.000000 0 0 1
-6.264188 -34.277442 32.168927 47.423864 1.390041 0.825312 0.042721 -0.011109 36348.600000 0 0 1
-7.420588 34.296473 33.042499 48.198754 -1.357715 0.815442 0.001459 -0.008979 112197.000000 0 0 1
-7.041088 33.274473 33.995079 48.087762 -1.362266 0.785636 0.013688 -0.009276 30633.600000 0 0 1
-6.919188 31.946573 33.461228 46.777264 -1.357505 0.773699 0.019128 0.001408 -149569.000000 0 0 1
-6.780088 31.030073 -34.212839 46.683545 -1.355677 2.393323 0.021619 -0.004361 -457073.000000 0 0 1
-5.536688 31.030273 -33.578895 46.055129 -1.394226 2.387806 0.024607 -0.003739 -598805.000000 0 0 1
-5.612288 30.599273 -32.249485 44.808956 -1.389400 2.374182 0.025182 -0.003184 -943157.000000 0 0 1
-4.261588 30.352273 -31.575005 44.004574 -1.431304 2.371059 0.025591 -0.000740 38948.500000 0 0 1
-3.586388 29.152873 -31.954655 43.403365 -1.448391 2.398272 0.026904 0.001916 141768.000000 0 0 1
-2.978988 29.196073 -33.238155 44.340275 -1.469114 2.418277 0.032498 -0.007541 -754801.000000 0 0 1
-2.321888 27.840473 -33.613165 43.707298 -1.487589 2.448152 0.030232 -0.004969 -363808.000000 0 0 1
-1.146888 27.540573 -32.849095 42.881949 -1.529177 2.443447 0.043166 0.000663 625825.000000 0 0 1
-0.681788 26.157673 -33.044035 42.149697 -1.544738 2.471829 0.046904 -0.000068 -63182.300000 0 0 1
-0.192288 25.778373 -34.443035 43.021903 -1.563337 2.499081 0.040450 0.009317 -996330.000000 0 0 1
-1.200888 25.607473 33.531500 42.208368 -1.523935 0.652731 0.038019 0.009330 -424460.000000 0 0 1
-0.662088 25.386573 32.212277 41.018864 -1.544722 0.667609 0.041316 0.011760 104578.000000 0 0 1
-0.436188 26.689773 31.321377 41.152921 -1.554455 0.705793 0.035442 0.005218 -283176.000000 0 0 1
-1.579988 27.394873 30.949547 41.362421 -1.513186 0.725372 0.027366 0.000484 -290620.000000 0 0 1
-1.171988 28.498773 30.218657 41.553831 -1.529695 0.756537 0.033689 -0.000902 570603.000000 0 0 1
-2.233688 29.642773 30.368627 42.496316 -1.495585 0.774719 0.038451 -0.003614 482840.000000 0 0 1
-2.227388 30.180873 31.714747 43.836874 -1.497129 0.761978 0.047251 -0.010615 -347461.000000 0 0 1
-3.129188 31.233773 31.818957 44.696604 -1.470943 0.778614 0.045659 -0.012807 -223701.000000 0 0 1
-2.819788 32.246173 32.984892 46.214391 -1.483573 0.775978 0.053538 -0.004100 961839.000000 0 0 1
-1.638588 33.066773 32.835057 46.628719 -1.521283 0.789527 0.056665 -0.011782 629747.000000 0 0 1
-0.913888 33.284373 34.024722 47.606369 -1.543346 0.774588 0.037884 -0.009442 -83455.600000 0 0 1
0.549412 33.725773 33.841837 47.780744 1.554507 0.783747 0.042458 -0.018773 -32074.900000 0 0 1
0.673312 -34.027742 33.366166 47.661741 -1.551012 0.795312 0.050075 -0.017026 633451.000000 0 0 1
2.023012 -33.637442 33.106839 47.240161 -1.510727 0.794250 0.025342 -0.019385 636881.000000 0 0 1
2.090312 -32.149842 32.619377 45.847633 -1.505870 0.779203 0.028884 -0.014343 -74230.200000 0 0 1
1.569612 -31.348742 33.631608 46.003177 -1.520769 0.750905 0.023735 -0.005687 103438.000000 0 0 1
1.722612 -30.005042 33.185499 44.772171 -1.513449 0.735928 0.014437 -0.008250 -81517.000000 0 0 1
1.244712 -28.960942 34.212984 44.842098 -1.527844 0.702908 0.012774 -0.004021 -138635.000000 0 0 1
-0.136888 -29.078142 -34.448064 45.080219 1.566089 2.440519 0.007663 0.002458 -230889.000000 0 0 1
-0.398588 -28.157042 -33.415375 43.698571 1.556641 2.441339 0.002541 0.013795 209761.000000 0 0 1
-1.889288 -27.804142 -33.174245 43.326322 1.502951 2.442899 -0.000604 0.024267 253355.000000 0 0 1
-1.951088 -27.307742 -31.851095 42.000140 1.499469 2.431585 0.003136 0.012560 -173762.000000 0 0 1
-3.181988 -26.664242 -31.661245 41.515554 1.452023 2.438175 0.014179 -0.001090 -304746.000000 0 0 1
-3.505588 -26.231542 -30.213985 40.165505 1.437943 2.422247 0.012399 -0.009078 -167812.000000 0 0 1
-4.112588 -27.224042 -29.392025 40.273477 1.420865 2.388842 0.011420 -0.008647 42893.700000 0 0 1
-4.507988 -26.688642 -28.094875 39.011890 1.403465 2.374832 0.016203 -0.009028 283458.000000 0 0 1
-3.382888 -26.240642 -27.096945 37.871620 1.442586 2.368128 0.009561 -0.014692 337874.000000 0 0 1
-2.706288 -25.079942 -27.565745 37.365730 1.463306 2.400495 0.008637 -0.008963 359563.000000 0 0 1
-1.739088 -24.502042 -26.691615 36.274189 1.499938 2.397687 0.011457 -0.011656 -352433.000000 0 0 1
-0.944788 -23.367642 -27.393545 36.018684 1.530387 2.434936 0.013670 -0.007079 749275.000000 0 0 1
-0.055688 -23.678042 -28.481195 37.038240 1.568444 2.448020 -0.008397 -0.011325 739117.000000 0 0 1
0.923812 -24.702942 -28.366865 37.626690 -1.533417 2.424779 0.007278 -0.006725 67429.600000 0 0 1
1.805112 -25.032542 -29.593805 38.803091 -1.498810 2.438222 -0.016876 -0.005735 377441.000000 0 0 1
2.590212 -23.940642 -30.054195 38.511273 -1.463022 2.466101 -0.003280 -0.007309 487909.000000 0 0 1
3.414812 -24.277642 -31.167025 39.654108 -1.431056 2.475063 0.003718 -0.002483 -594056.000000 0 0 1
4.326912 -23.109842 -31.739925 39.499491 -1.385707 2.504036 0.011432 -0.009850 -260205.000000 0 0 1
5.455212 -22.759942 -30.907905 38.769484 -1.335549 2.493477 0.007992 -0.014100 531910.000000 0 0 1
6.428312 -23.721142 -30.659975 39.294399 -1.306157 2.465883 0.004800 -0.005442 -967635.000000 0 0 1
7.162612 -24.185842 -31.943305 40.701753 -1.282876 2.473192 0.006600 0.005726 -1085450.000000 0 0 1
6.362512 -25.102242 -32.750095 41.751321 -1.322560 2.472538 -0.012036 0.008935 171756.000000 0 0 1
6.591812 -25.196142 -34.128123 42.930482 -1.314912 2.489742 -0.002486 0.013298 -224967.000000 0 0 1
6.272212 -23.944742 33.929871 41.999136 -1.314607 0.630266 -0.000362 0.009125 -326627.000000 0 0 1
4.889712 -23.713842 33.946313 41.696616 -1.367450 0.619573 0.000093 0.006859 -456403.000000 0 0 1
4.584812 -22.409242 33.375742 40.461522 -1.368987 0.600813 0.009831 0.000978 465814.000000 0 0 1
3.097812 -21.987842 33.647774 40.314195 -1.430830 0.583320 0.006157 -0.006125 1267920.000000 0 0 1
2.069112 -22.917242 33.260207 40.444067 -1.480754 0.605223 0.008829 0.000663 430107.000000 0 0 1
1.709812 -23.718742 34.376645 41.800190 -1.498834 0.605172 0.005089 0.001805 -800994.000000 0 0 1
0.332012 -24.307942 34.091586 41.871500 -1.557139 0.619454 0.013681 -0.002326 -314449.000000 0 0 1
0.410912 -25.303842 33.049090 41.625660 -1.554559 0.653502 0.028438 -0.003872 -461544.000000 0 0 1
-0.830688 -25.530642 32.447517 41.295824 1.538271 0.666915 0.039393 -0.023816 -644624.000000 0 0 1
-0.809788 -26.691542 31.470217 41.273099 1.540467 0.703647 0.040870 -0.022638 45020.000000 0 0 1
-1.947088 -26.808642 30.630007 40.751586 1.498295 0.720270 0.043063 -0.034447 217482.000000 0 0 1
-1.963688 -28.033342 29.975877 41.088654 1.500862 0.753145 0.040616 -0.031603 -484903.000000 0 0 1
-3.202888 -28.206542 29.100087 40.653198 1.457729 0.773009 0.040088 -0.021344 749884.000000 0 0 1
-4.341588 -28.676942 29.887107 41.646795 1.420541 0.770399 0.039949 -0.017179 522117.000000 0 0 1
-5.443088 -29.037242 29.126117 41.486375 1.385495 0.792504 0.023218 -0.008289 -407349.000000 0 0 1
-6.602188 -29.576242 29.986357 42.632435 1.351171 0.790670 0.016551 -0.002792 404875.000000 0 0 1
-7.752888 -30.021442 29.229007 42.611373 1.318073 0.814896 0.019308 -0.001455 1048220.000000 0 0 1
-8.946888 -30.309442 29.942047 43.534299 1.283763 0.812369 0.015299 -0.003049 137576.000000 0 0 1
-8.892888 -31.372142 31.069577 45.040130 1.294578 0.809556 -0.009920 0.002104 -894218.000000 0 0 1
-8.932188 -32.758642 30.625397 45.725567 1.304601 0.836904 -0.001350 0.003577 -762195.000000 0 0 1
-10.080788 -33.262442 30.058417 45.951287 1.276527 0.857756 -0.005571 0.006798 -1110300.000000 0 0 1
-9.944688 34.429873 29.499617 46.417027 -1.289610 0.882096 0.005174 0.008675 -881646.000000 0 0 1
-10.002688 33.444273 30.471767 46.336829 -1.280179 0.853149 0.001104 0.011442 290047.000000 0 0 1
-9.847888 32.127873 29.966867 45.024374 -1.273367 0.842539 0.001545 0.009173 -370825.000000 0 0 1
-10.290888 31.062473 31.011127 45.082919 -1.250880 0.812248 0.004642 0.012490 -1398350.000000 0 0 1
-11.648988 30.985973 31.099067 45.420055 -1.211198 0.816606 -0.006736 0.021926 -1566850.000000 0 0 1
-12.106188 29.795373 31.716397 45.169169 -1.184861 0.792357 0.003769 0.013365 44925.300000 0 0 1
-12.067188 29.650273 33.297713 46.189754 -1.184284 0.765711 0.006053 0.002442 -221941.000000 0 0 1
-13.027088 30.488373 33.914018 47.427908 -1.166996 0.774080 0.001511 0.014948 214188.000000 0 0 1
-13.309888 30.057573 -33.692915 47.072532 -1.153935 2.368517 0.004136 0.012534 -210382.000000 0 0 1
-14.599388 30.602473 -33.066965 47.361140 -1.125664 2.343659 0.000164 0.015491 -218116.000000 0 0 1
-14.775288 29.961073 -31.841295 46.150223 -1.112644 2.332215 -0.005519 0.008514 491273.000000 0 0 1
-16.070388 30.199273 -31.272315 46.348798 -1.081765 2.311377 0.004119 0.007528 687047.000000 0 0 1
-16.242488 29.698973 -29.824205 45.114638 -1.070333 2.293048 0.011265 -0.002585 -363220.000000 0 0 1
-16.040088 28.318173 -29.721845 44.074838 -1.055431 2.310880 0.007439 -0.002673 80723.800000 0 0 1
-16.029988 27.999173 -28.360195 42.955964 -1.050830 2.291902 0.008453 -0.005367 28687.800000 0 0 1
-16.649188 26.597673 -27.976485 42.039450 -1.011504 2.298935 -0.007858 -0.006361 -2082.740000 0 0 1
-18.026688 26.500673 -28.234095 42.713127 -0.973459 2.292969 0.000056 -0.004645 -497910.000000 0 0 1
-18.520388 25.241973 -27.916805 41.946513 -0.937800 2.299005 -0.008904 0.000323 593515.000000 0 0 1
-20.047288 25.052673 -28.179875 42.704046 -0.895930 2.291466 0.022419 -0.000846 524362.000000 0 0 1
-20.964088 25.632773 -27.291685 42.911165 -0.885258 2.260106 0.019766 -0.002835 -500650.000000 0 0 1
-22.223688 25.069773 -27.445955 43.308963 -0.845505 2.257155 0.041374 -0.008862 -183150.000000 0 0 1
-23.284288 25.309773 -26.348405 43.324140 -0.827056 2.224548 0.062701 -0.013497 2215.770000 0 0 1
-23.880788 26.573173 -26.312845 44.371064 -0.838711 2.205598 0.038733 0.003748 -493881.000000 0 0 1
-25.088218 26.770073 -25.660425 44.771786 -0.817819 2.181127 0.038519 0.011798 -443786.000000 0 0 1
-25.084058 26.513973 -24.088725 43.731766 -0.813104 2.154154 0.030789 0.013669 -597082.000000 0 0 1
-24.822788 25.174873 -23.771025 42.602895 -0.792440 2.162731 0.016725 0.009383 228038.000000 0 0 1
-25.972168 24.418773 -23.360525 42.620935 -0.754581 2.150887 0.019554 0.007700 129757.000000 0 0 1
-26.424028 24.561773 -21.851325 42.178079 -0.748889 2.115393 0.014157 0.010813 -169024.000000 0 0 1
-25.591408 23.973973 -20.892725 40.818837 -0.752777 2.108122 0.003561 0.010008 236075.000000 0 0 1
-24.366588 24.666073 -20.669225 40.365364 -0.791506 2.108370 0.004409 0.009589 -268954.000000 0 0 1
-23.551788 24.112373 -19.546625 38.963621 -0.797159 2.096317 0.005224 0.002789 -738189.000000 0 0 1
-24.216788 24.269773 -18.297425 38.862198 -0.786491 2.061026 0.006278 -0.005446 181309.000000 0 0 1
-23.373688 23.889273 -17.237225 37.605167 -0.796307 2.046961 0.005239 -0.006137 -374960.000000 0 0 1
-23.982788 24.025673 -15.846725 37.463659 -0.786291 2.007538 -0.005408 -0.006647 -489861.000000 0 0 1
-24.193988 25.387073 -15.442025 38.318516 -0.809457 1.985579 -0.001269 -0.010437 -823.402000 0 0 1
-24.832288 25.383873 -14.171525 38.233698 -0.796382 1.950511 -0.022359 -0.007012 -4593.830000 0 0 1
-25.101538 26.797773 -13.602825 39.156668 -0.818070 1.925588 -0.019786 -0.004520 -351489.000000 0 0 1
-23.875088 27.388573 -13.285225 38.686573 -0.853829 1.921338 0.012765 -0.006648 -259081.000000 0 0 1
-23.978888 28.270973 -12.210125 39.029759 -0.867360 1.888979 0.020088 -0.007788 560499.000000 0 0 1
-22.590088 28.759273 -11.657625 38.383695 -0.904966 1.879384 0.034590 -0.012279 713355.000000 0 0 1
-21.824488 27.680473 -11.090025 36.952747 -0.903142 1.875608 0.028982 -0.010640 -280713.000000 0 0 1
-20.601488 28.190773 -10.655625 36.505935 -0.939704 1.866996 0.031468 -0.007634 -421469.000000 0 0 1
-19.671288 27.086573 -10.104725 34.967806 -0.942677 1.863949 0.047129 -0.008226 249427.000000 0 0 1
-19.049788 26.269473 -11.138125 34.307979 -0.943378 1.901439 0.041657 -0.009858 472718.000000 0 0 1
-18.224188 25.226373 -10.645625 32.891036 -0.945177 1.900395 0.035203 0.002393 -180031.000000 0 0 1
-17.613988 24.290373 -11.686525 32.200150 -0.943395 1.942211 0.034833 0.002375 -194023.000000 0 0 1
-17.154888 23.100573 -11.109725 30.844005 -0.932037 1.939269 0.025149 0.001863 -8815.180000 0 0 1
-16.748788 22.226673 -12.135825 30.361573 -0.925031 1.981997 0.033143 0.009562 3733.190000 0 0 1
-16.465888 20.817273 -11.471425 28.915012 -0.901584 1.978747 0.027703 0.015585 -65651.900000 0 0 1
-17.665188 20.187773 -11.097325 29.030254 -0.851941 1.963045 0.017911 0.023703 -2274.820000 0 0 1
-17.360588 18.931073 -10.574725 27.777695 -0.828645 1.961340 0.034054 0.015617 72561.700000 0 0 1
-18.633788 18.035373 -10.334425 27.915821 -0.769080 1.950020 0.018364 0.027634 735645.000000 0 0 1
-19.257888 17.409173 -11.471925 28.382223 -0.735022 1.986894 0.010257 0.029460 651271.000000 0 0 1
-19.975288 18.306573 -12.368925 29.784778 -0.741836 1.999043 0.005948 0.026242 -5307.770000 0 0 1
-20.612888 17.595773 -13.630325 30.336251 -0.706598 2.036787 0.018926 0.012968 401625.000000 0 0 1
-19.651588 17.257973 -14.653625 29.979180 -0.720638 2.081502 0.038387 0.006765 735641.000000 0 0 1
-20.267388 16.788873 -15.857225 30.725963 -0.691801 2.113071 0.047810 0.004797 239826.000000 0 0 1
-19.213688 16.652873 -16.977025 30.572918 -0.714121 2.159515 0.054169 -0.000971 -29665.100000 0 0 1
-18.526988 17.835073 -17.455725 31.081207 -0.766372 2.167135 0.041075 -0.004331 98265.900000 0 0 1
-17.746588 17.411573 -18.521225 31.002258 -0.775870 2.211071 0.041312 0.000400 -485377.000000 0 0 1
-16.872188 18.602373 -19.042025 31.516943 -0.834132 2.219537 0.034999 -0.006789 -349558.000000 0 0 1
-15.772388 18.944473 -18.244025 30.667665 -0.876515 2.207931 0.040805 -0.004265 44357.500000 0 0 1
-15.102688 20.050373 -18.860725 31.398018 -0.925227 2.215170 0.027074 -0.010072 99963.800000 0 0 1
32.020877 31.030173 1.876075 44.628778 0.769687 1.528747 0.024472 -0.011491 815160.000000 0 0 1
33.338257 31.120573 1.312275 45.625119 0.751007 1.542030 0.031340 -0.009994 482392.000000 0 0 1
33.337027 31.843373 0.081275 46.101674 0.762486 1.569033 0.017237 -0.004675 -259692.000000 0 0 1
34.687457 31.844773 -0.660825 47.092950 0.742698 1.584829 0.001738 -0.003994 -128488.000000 0 0 1
-35.169563 32.452773 0.134975 47.854977 -0.745244 1.567976 -0.005395 0.001270 -47236.100000 0 0 1
-33.942588 32.410673 -0.586125 46.935003 -0.762315 1.583285 -0.000644 -0.003285 624766.000000 0 0 1
-32.827118 33.401673 -0.124925 46.832756 -0.794073 1.573464 0.001703 0.001594 559451.000000 0 0 1
-32.195388 33.115573 1.127875 46.200176 -0.799487 1.546381 -0.000121 0.001432 143034.000000 0 0 1
-31.409378 34.206073 1.563275 46.465560 -0.827995 1.537146 0.008150 0.007117 -6923.920000 0 0 1
-30.845838 34.141673 2.985175 46.108901 -0.836070 1.506009 0.018237 0.008475 -137928.000000 0 0 1
-30.515278 -33.715342 3.538975 45.611739 0.835178 1.493129 0.011616 0.009615 162889.000000 0 0 1
-29.872478 -33.882742 4.809075 45.426119 0.848216 1.464732 0.020118 -0.000012 -223125.000000 0 0 1
-29.744488 -32.613242 5.680275 44.504198 0.831371 1.442813 0.023331 -0.001687 1130300.000000 0 0 1
-30.937968 -32.180242 6.417375 45.098875 0.805077 1.428016 0.015936 -0.002306 1196090.000000 0 0 1
-31.395478 -33.080142 7.427875 46.207630 0.811521 1.409346 0.021592 -0.009673 -1496190.000000 0 0 1
-32.409328 -32.362942 8.323275 46.551062 0.784682 1.391031 0.029802 -0.006145 -56822.800000 0 0 1
-33.709118 -32.025442 7.913875 47.165273 0.759791 1.402209 0.022899 -0.000737 -344415.000000 0 0 1
-34.487526 -33.086042 7.462675 48.371139 0.764661 1.415898 0.014605 -0.001035 -860707.000000 0 0 1
34.822718 -32.946842 7.318375 48.494068 -0.757725 1.419305 0.010020 0.005842 207092.000000 0 0 1
34.140217 -32.999642 8.541875 48.244112 -0.768412 1.392803 0.008476 0.005622 225519.000000 0 0 1
32.756427 -32.819442 8.250175 47.097395 -0.786359 1.394715 0.008669 0.014965 243532.000000 0 0 1
31.884807 -33.015942 9.506275 46.872834 -0.802825 1.366570 0.016810 -0.000123 -538578.000000 0 0 1
30.511637 -32.809342 9.287875 45.756721 -0.821669 1.366392 0.020181 -0.004166 -52666.200000 0 0 1
29.793017 -32.707642 10.527775 45.477991 -0.831998 1.337186 0.024577 -0.000586 176295.000000 0 0 1
29.886277 -31.395842 11.399575 44.820070 -0.810026 1.313630 0.025246 -0.005090 -294773.000000 0 0 1
29.313897 -30.174042 10.873475 43.451235 -0.799856 1.317863 0.033304 -0.009730 319464.000000 0 0 1
29.847907 -29.727442 9.635875 43.214215 -0.783376 1.345927 0.036278 -0.015058 -19244.300000 0 0 1
29.375977 -28.289442 9.330775 41.836633 -0.766558 1.345876 0.037249 -0.014807 -68334.400000 0 0 1
29.576517 -27.879042 8.036875 41.431904 -0.755863 1.375581 0.036296 -0.021343 -217770.000000 0 0 1
29.065157 -26.575242 7.842575 40.156354 -0.740678 1.374232 0.036135 -0.018078 -190802.000000 0 0 1
29.163627 -26.004342 6.386775 39.592093 -0.728194 1.408774 0.028418 -0.007180 1181570.000000 0 0 1
30.499997 -25.570042 6.031575 40.254897 -0.697699 1.420395 0.038545 -0.006045 624334.000000 0 0 1
30.595927 -24.986142 4.750275 39.786720 -0.684811 1.451117 0.031079 -0.006087 510517.000000 0 0 1
32.084567 -24.611942 4.493375 40.686085 -0.654353 1.460130 0.043293 -0.008318 592244.000000 0 0 1
32.960317 -25.662942 4.165975 41.980048 -0.661556 1.471396 0.035172 -0.002100 -1345600.000000 0 0 1
34.274947 -25.260342 4.225475 42.786814 -0.635123 1.471879 0.040023 -0.005408 -882493.000000 0 0 1
35.197973 -26.497942 4.152775 44.252500 -0.645307 1.476815 0.037627 -0.005338 -121944.000000 0 0 1
35.071454 -27.278142 5.310775 44.747159 -0.661049 1.451832 0.023934 0.004110 -117599.000000 0 0 1
-35.165173 -28.545142 5.140475 45.583319 0.681861 1.457785 0.024503 0.003086 -704222.000000 0 0 1
35.075691 -29.578442 6.105075 46.286718 -0.700577 1.438514 0.017949 0.001721 1007150.000000 0 0 1
33.737977 -30.036742 5.885875 45.553270 -0.727427 1.441225 0.009850 0.005846 483970.000000 0 0 1
32.657347 -29.169042 6.057375 44.204378 -0.729037 1.433333 0.016476 0.001136 -22644.300000 0 0 1
31.265587 -29.760442 5.682475 43.537470 -0.760739 1.439904 0.019489 -0.002076 102566.000000 0 0 1
31.086457 -29.882442 4.282575 43.332073 -0.765653 1.471803 0.013003 -0.003295 46441.200000 0 0 1
29.959757 -29.198542 3.740175 42.001557 -0.772531 1.481630 0.018800 -0.002895 1326850.000000 0 0 1
28.563297 -29.926142 3.923175 41.555110 -0.808695 1.476247 0.028229 -0.002931 784431.000000 0 0 1
28.511377 -31.210242 3.343575 42.404685 -0.830558 1.491865 0.029688 -0.006484 -570453.000000 0 0 1
27.280787 -31.841442 3.610575 42.085092 -0.862385 1.484898 0.029244 -0.008525 -47333.100000 0 0 1
27.145867 -33.283842 2.966375 43.052428 -0.886623 1.501840 0.026166 -0.009302 -395312.000000 0 0 1
26.888387 -33.368942 1.572075 42.882899 -0.892534 1.534128 0.021352 -0.008695 100486.000000 0 0 1
27.030157 34.448873 1.156475 43.802873 0.905488 1.544391 0.008078 -0.000425 -153328.000000 0 0 1
26.803207 34.355873 -0.364125 43.576031 0.908268 1.579153 -0.005016 -0.006682 57162.000000 0 0 1
27.920507 -34.356942 -1.135025 44.285917 -0.888383 1.596429 0.004362 -0.008581 72677.900000 0 0 1
27.586837 -34.508842 -2.494825 44.250625 -0.896413 1.627206 0.005133 -0.011531 -560024.000000 0 0 1
28.679237 -33.950442 -3.409825 44.573064 -0.869365 1.647371 0.001286 -0.007548 -32805.600000 0 0 1
28.790367 -32.502842 -3.296225 43.545207 -0.845893 1.646565 -0.000530 -0.014056 -151030.000000 0 0 1
29.867757 -32.076142 -4.099825 44.020113 -0.821034 1.664067 0.008371 -0.020598 -122458.000000 0 0 1
29.996347 -30.535742 -4.239425 43.013777 -0.794309 1.669516 0.020370 -0.006413 -575437.000000 0 0 1
29.035887 -29.846742 -5.026225 41.942504 -0.799168 1.690921 0.015207 -0.012233 59915.300000 0 0 1
29.063297 -28.428742 -4.945825 40.955216 -0.774361 1.691854 0.021722 -0.011121 -462576.000000 0 0 1
30.034307 -27.801442 -5.933425 41.354386 -0.746810 1.714771 0.021600 -0.011079 -787734.000000 0 0 1
31.374827 -28.101942 -5.607025 42.491618 -0.730426 1.703138 0.021327 -0.007405 -507066.000000 0 0 1
32.264517 -27.440142 -6.476725 42.847501 -0.704769 1.722536 0.021718 -0.008739 -27641.700000 0 0 1
32.532337 -28.102842 -7.843025 43.699378 -0.712476 1.751251 0.027770 -0.007656 -523705.000000 0 0 1
31.358237 -28.199742 -8.638925 43.048757 -0.732416 1.772846 0.030477 -0.018378 70199.400000 0 0 1
31.397167 -29.296042 -9.595625 44.001320 -0.750793 1.790639 0.019736 -0.009696 161141.000000 0 0 1
31.346917 -30.773642 -9.098525 44.860109 -0.776170 1.775033 0.009589 -0.005901 716989.000000 0 0 1
32.628977 -31.238842 -8.656625 45.994048 -0.763636 1.760137 0.009702 -0.007562 81194.100000 0 0 1
32.436947 -32.507142 -8.048025 46.622317 -0.786479 1.744287 -0.001411 -0.013410 364607.000000 0 0 1
33.685027 -33.302142 -7.551925 47.966084 -0.779682 1.728897 0.001544 -0.010769 46659.700000 0 0 1
33.505397 -34.517442 -6.832225 48.587495 -0.800275 1.711881 0.000557 -0.012315 -190039.000000 0 0 1
32.841157 -34.243942 -5.593125 47.775225 -0.806306 1.688137 0.002772 -0.011247 -16443.000000 0 0 1
32.610927 33.578273 -4.780225 47.051286 0.800012 1.672568 -0.012842 -0.008580 36293.900000 0 0 1
31.659437 32.759273 -5.453425 45.882782 0.802470 1.689934 -0.011339 -0.014449 285132.000000 0 0 1
31.720707 31.455373 -4.901825 44.940757 0.781198 1.680087 -0.013075 -0.006893 -308592.000000 0 0 1
30.548557 30.556573 -5.273525 43.528479 0.785529 1.692246 -0.007645 -0.012185 -653267.000000 0 0 1
30.474977 30.152373 -6.601425 43.375899 0.780077 1.723581 -0.021952 0.002236 -1069530.000000 0 0 1
29.196297 29.841673 -7.002525 42.331838 0.796329 1.736980 -0.026226 0.008418 -1006190.000000 0 0 1
29.037357 29.524173 -8.487125 42.271458 0.793711 1.772947 -0.025421 0.009272 -311433.000000 0 0 1
29.601277 28.340473 -8.961425 41.949078 0.763642 1.786082 -0.015372 0.006150 -177107.000000 0 0 1
29.691317 28.109473 -10.360525 42.178872 0.758038 1.818969 -0.031372 0.009160 -692632.000000 0 0 1
30.822147 28.824073 -11.035625 43.618997 0.751912 1.826577 -0.004750 0.002845 -666222.000000 0 0 1
32.101337 28.409473 -10.564325 44.149733 0.724462 1.812425 -0.011369 -0.002637 860768.000000 0 0 1
33.239397 29.134073 -11.053425 45.561276 0.719675 1.815847 0.007891 -0.005930 641280.000000 0 0 1
33.477057 30.501773 -10.420525 46.472129 0.738927 1.796951 0.021428 -0.011768 -804965.000000 0 0 1
34.035827 30.364373 -9.126525 46.515869 0.728450 1.768280 -0.006589 -0.007948 247193.000000 0 0 1
34.031507 31.647073 -8.464325 47.236908 0.749110 1.750958 0.001689 -0.012792 -379804.000000 0 0 1
35.175575 31.752273 -7.408025 47.962555 0.734294 1.725871 0.013207 -0.005682 421965.000000 0 0 1
-34.362897 32.035573 -7.825625 47.626957 -0.750362 1.735856 0.012201 -0.010892 -303224.000000 0 0 1
-33.610008 30.916673 -8.216625 46.400282 -0.743683 1.748816 0.013814 -0.009326 -1014220.000000 0 0 1
-32.223988 31.304173 -8.705925 45.761662 -0.770920 1.762208 0.024879 -0.011100 -1085430.000000 0 0 1
-31.416388 31.745473 -7.675725 45.317560 -0.790608 1.740993 0.020781 -0.009550 1076350.000000 0 0 1
-30.007918 32.009373 -7.916325 44.584115 -0.817659 1.749302 0.029345 -0.018529 1409420.000000 0 0 1
-29.651648 33.198573 -8.929625 45.399379 -0.841773 1.768778 0.020524 -0.014635 -585204.000000 0 0 1
-29.726238 34.495073 -8.307425 46.287931 -0.859518 1.751247 0.014369 -0.006258 -145325.000000 0 0 1
-28.610268 -34.323842 -7.516625 45.311954 0.875937 1.737453 0.025756 -0.007017 -182811.000000 0 0 1
-28.856148 -32.970542 -6.847925 44.346679 0.851847 1.725835 0.026125 0.000894 493739.000000 0 0 1
-29.869548 -32.931442 -5.818525 44.838878 0.834115 1.700928 0.019771 -0.000151 139188.000000 0 0 1
-29.607488 -33.451742 -4.511225 44.899593 0.846285 1.671440 0.021571 -0.005129 -93782.400000 0 0 1
-30.846378 -33.622542 -3.584025 45.769199 0.828434 1.649183 0.014003 0.000530 81241.300000 0 0 1
-31.289528 -32.337542 -3.098325 45.103778 0.801868 1.639544 0.007723 0.002462 102343.000000 0 0 1
-32.089578 -32.353642 -1.920925 45.609090 0.789496 1.612926 0.013047 0.003413 -82033.100000 0 0 1
-32.684238 -30.947442 -1.745325 45.044974 0.758110 1.609552 0.020714 0.007399 -325549.000000 0 0 1
-33.506188 -30.886742 -0.624125 45.574609 0.744741 1.584491 0.028020 0.010076 -551898.000000 0 0 1
-34.157542 -29.618342 -0.610925 45.214567 0.714344 1.584308 0.036280 0.007392 -79493.100000 0 0 1
-34.951304 -29.520442 0.706775 45.755324 0.701360 1.555349 0.024825 0.009235 -767217.000000 0 0 1
34.675317 -30.224442 0.570775 46.002394 -0.716925 1.558388 0.018515 0.009187 -343251.000000 0 0 1
33.819247 -29.934442 1.652075 45.194486 -0.724539 1.534233 0.012091 0.010548 299599.000000 0 0 1
32.815757 -28.781942 1.407075 43.672118 -0.720005 1.538572 0.014954 0.009168 -306828.000000 0 0 1
31.892557 -28.952342 0.332175 43.075325 -0.737113 1.563085 0.009654 0.008560 574352.000000 0 0 1
30.987957 -27.837942 0.291775 41.656807 -0.731901 1.563792 0.017967 0.003383 691232.000000 0 0 1
29.649267 -28.062042 -0.471425 40.826210 -0.757902 1.582344 0.013303 -0.005192 157713.000000 0 0 1
28.597157 -28.650042 0.241975 40.480623 -0.786322 1.564819 0.014838 0.008528 -170985.000000 0 0 1
28.401227 -30.056142 0.045675 41.352187 -0.813700 1.569692 0.016484 0.013900 322145.000000 0 0 1
27.725757 -30.497542 -1.328325 41.238114 -0.832968 1.603013 0.003523 -0.006452 757286.000000 0 0 1
26.347527 -30.158342 -1.588025 40.077918 -0.852737 1.610430 0.008775 -0.006258 831661.000000 0 0 1
25.946257 -30.532142 -2.905225 40.172879 -0.866418 1.643178 0.004409 -0.010029 -345685.000000 0 0 1
24.466847 -30.883542 -2.961125 39.511871 -0.900812 1.645809 0.000218 -0.011767 -698136.000000 0 0 1
23.591247 -29.802042 -2.968025 38.125028 -0.901199 1.648725 0.016489 -0.008306 258079.000000 0 0 1
22.322147 -30.235542 -3.479225 37.743492 -0.934841 1.663108 0.019952 -0.007501 273257.000000 0 0 1
21.359047 -29.089042 -3.799325 36.287961 -0.937442 1.675688 0.024621 -0.009654 -330876.000000 0 0 1
21.732247 -28.132342 -4.808425 35.872554 -0.913050 1.705243 0.031363 -0.011569 56598.300000 0 0 1
21.097847 -26.903742 -4.558525 34.492182 -0.905766 1.703345 0.036852 -0.016148 -8847.270000 0 0 1
20.546347 -26.113342 -5.819525 33.733156 -0.904147 1.744180 0.043580 -0.033239 -205738.000000 0 0 1
19.268247 -26.532042 -6.218225 33.374854 -0.942685 1.758206 0.046527 -0.026421 -535194.000000 0 0 1
18.820947 -25.761242 -7.286525 32.725572 -0.939833 1.795334 0.053939 -0.023976 785043.000000 0 0 1
17.287247 -25.952042 -7.598825 32.095163 -0.983170 1.809825 0.050797 -0.020475 1167410.000000 0 0 1
16.455947 -25.165342 -6.763725 30.819484 -0.991675 1.792060 0.040784 -0.020082 96641.200000 0 0 1
15.115247 -25.604942 -6.713325 30.482002 -1.037521 1.792856 0.035756 -0.015639 -106474.000000 0 0 1
14.217047 -24.832042 -5.773525 29.190551 -1.050822 1.769897 0.015916 -0.008498 -374279.000000 0 0 1
14.448047 -25.177042 -4.455325 29.367999 -1.049821 1.723091 0.007366 -0.003366 99383.200000 0 0 1
14.077547 -24.170542 -3.529625 28.193096 -1.043399 1.696320 0.007327 0.000362 -80559.200000 0 0 1
14.045147 -24.727142 -2.118425 28.516406 -1.054235 1.645153 0.019973 -0.001792 99692.800000 0 0 1
13.274647 -25.940742 -2.093225 29.215063 -1.097809 1.642507 0.018562 0.006502 609742.000000 0 0 1
14.085447 -27.085942 -1.803025 30.582657 -1.091255 1.629786 0.025568 0.002876 72909.400000 0 0 1
13.365347 -28.403942 -2.256625 31.472349 -1.130989 1.642560 0.024666 0.005364 720012.000000 0 0 1
12.245647 -28.648142 -1.384525 31.186356 -1.166852 1.615206 0.044132 -0.010420 236378.000000 0 0 1
11.719547 -29.969342 -1.364725 32.208255 -1.198028 1.613181 0.041876 -0.008100 80508.900000 0 0 1
12.565147 -31.151142 -0.746325 33.598118 -1.187396 1.593011 0.041003 -0.004726 337420.000000 0 0 1
13.782347 -31.407742 -1.420825 34.328094 -1.157278 1.612198 0.038046 -0.000887 -89063.900000 0 0 1
14.188747 -32.777742 -1.309925 35.740968 -1.162272 1.607455 0.036347 -0.001397 207475.000000 0 0 1
15.496147 -33.027542 -2.137925 36.544764 -1.132100 1.629331 0.028048 -0.000154 397614.000000 0 0 1
16.611047 -32.526342 -1.460625 36.551651 -1.098629 1.610768 0.023250 0.012502 257249.000000 0 0 1
17.695947 -32.049242 -2.268125 36.680305 -1.066305 1.632671 0.008898 0.007333 814504.000000 0 0 1
18.552647 -30.896842 -1.600625 36.074610 -1.030031 1.615181 0.015118 0.002669 11397.000000 0 0 1
17.945247 -29.623642 -1.533125 34.669042 -1.026142 1.615032 0.026861 -0.005182 -373829.000000 0 0 1
18.714747 -28.673742 -0.893425 34.252349 -0.992540 1.596883 0.020590 0.001176 -686868.000000 0 0 1
18.333147 -27.155942 -1.061725 32.782262 -0.976974 1.603189 0.023587 0.001891 -496651.000000 0 0 1
18.549247 -26.598842 -2.312925 32.510345 -0.961837 1.642001 0.025479 -0.004540 18045.700000 0 0 1
17.494947 -26.816342 -3.218225 32.179905 -0.992737 1.670971 0.030628 -0.006221 -464737.000000 0 0 1
31.823077 -29.525142 13.964175 45.600881 -0.747958 1.259570 0.023906 -0.009498 305711.000000 0 0 1
32.522737 -30.070342 15.089575 46.793687 -0.746238 1.242458 0.024775 -0.005376 350346.000000 0 0 1
31.603747 -30.593842 16.006775 46.808085 -0.769163 1.221788 0.036863 -0.005389 -37239.000000 0 0 1
32.329417 -30.980142 17.307475 48.005302 -0.764089 1.201958 0.019541 -0.001112 -10159.800000 0 0 1
31.486497 -31.215342 18.455275 48.024933 -0.781074 1.176363 0.001460 -0.002424 10501.200000 0 0 1
32.148137 -31.560342 19.610675 49.133862 -0.776172 1.160231 -0.003362 0.002698 -551867.000000 0 0 1
32.900827 -32.922642 19.653175 50.523381 -0.785730 1.171260 0.005489 0.002373 -165098.000000 0 0 1
34.024637 -32.972842 18.800275 50.973861 -0.769700 1.193055 0.009146 0.004955 51784.200000 0 0 1
34.467897 -34.331142 18.802775 52.155609 -0.783410 1.201979 0.027335 -0.005709 427487.000000 0 0 1
-35.112745 -34.535542 17.890075 52.399077 0.777111 1.222369 0.021964 -0.000803 1380090.000000 0 0 1
-33.912328 -33.900742 18.388675 51.356106 0.785227 1.204605 0.023626 0.003640 1896690.000000 0 0 1
-32.878818 -33.808342 17.359575 50.253114 0.799336 1.218086 0.029157 0.006965 838394.000000 0 0 1
-31.605078 -33.020142 17.795775 49.049978 0.807291 1.199516 0.014245 -0.002359 -44307.900000 0 0 1
-30.547828 -32.939842 16.908575 48.001071 0.823057 1.210818 0.017763 -0.004253 -246931.000000 0 0 1
-30.735428 -31.870142 16.014775 47.083388 0.803521 1.223734 0.025214 0.001496 -611697.000000 0 0 1
-29.716808 -31.716342 14.858575 45.932475 0.817935 1.241384 0.016486 -0.003520 144131.000000 0 0 1
-28.499858 -31.190642 15.353475 44.953612 0.830447 1.222241 0.007685 0.000292 324490.000000 0 0 1
-27.484698 -31.108742 14.353275 43.922419 0.847170 1.237894 0.010726 0.001602 114148.000000 0 0 1
-26.122798 -30.621542 14.805475 42.886845 0.864514 1.218321 0.019367 -0.001174 -816200.000000 0 0 1
-25.072788 -30.746142 13.921575 42.044978 0.886689 1.233315 0.019208 0.000151 -471214.000000 0 0 1
-23.875588 -30.318742 14.581875 41.254101 0.903733 1.209524 0.015418 -0.001438 156707.000000 0 0 1
-22.698788 -30.212542 13.586875 40.157637 0.926462 1.225646 0.015906 -0.005220 -73385.700000 0 0 1
-22.332688 -31.507342 13.218275 40.818921 0.954183 1.241025 0.010788 -0.004329 785756.000000 0 0 1
-20.969988 -31.466142 12.742675 39.902810 0.982957 1.245760 0.004686 -0.011013 908415.000000 0 0 1
-20.339488 -32.832042 12.495375 40.592759 1.016161 1.257892 -0.002370 -0.006676 -336069.000000 0 0 1
-20.907988 -33.499942 11.416775 41.106359 1.012830 1.289358 -0.003511 -0.007184 -103645.000000 0 0 1
-20.639188 34.216673 11.436675 41.563858 -1.028034 1.292041 -0.012017 -0.003204 397591.000000 0 0 1
-21.652888 33.336773 10.590775 41.138212 -0.994759 1.310420 -0.011424 0.000513 195549.000000 0 0 1
-21.475588 33.458173 9.162475 40.799524 -1.000162 1.344291 -0.010991 -0.000109 293799.000000 0 0 1
-22.694688 33.229173 8.451875 41.117648 -0.971588 1.363767 -0.000591 -0.005622 -326952.000000 0 0 1
-22.708788 33.649073 6.933275 41.182757 -0.977135 1.401637 0.003373 0.006183 -562217.000000 0 0 1
-21.953888 32.751573 6.118875 39.900869 -0.980272 1.416837 0.004380 0.002999 747908.000000 0 0 1
-20.533288 32.779073 6.292875 39.187802 -1.011180 1.409516 -0.004210 0.001190 138739.000000 0 0 1
-19.772188 34.064273 5.785675 39.809397 -1.044885 1.424945 -0.010944 0.002185 -536990.000000 0 0 1
-19.881588 -33.862842 6.531175 39.807359 1.039900 1.405982 -0.005283 -0.000953 -44992.600000 0 0 1
-19.208688 -33.947542 7.765675 39.770780 1.055877 1.374273 -0.010837 -0.001358 -547638.000000 0 0 1
-19.192088 -32.718242 8.734175 38.924355 1.040298 1.344481 -0.006726 -0.008816 -526395.000000 0 0 1
-18.434488 -31.603342 8.326975 37.522527 1.042741 1.347014 0.016554 -0.016500 -156600.000000 0 0 1
-18.491288 -30.483942 9.194875 36.820431 1.025545 1.318403 0.021999 -0.015953 -95558.800000 0 0 1
-17.949988 -30.624642 10.669175 37.066184 1.040639 1.278824 0.009119 -0.011514 -245068.000000 0 0 1
-16.588788 -30.950542 10.605675 36.682479 1.078783 1.277488 0.013923 -0.019989 -448348.000000 0 0 1
-15.958388 -31.046642 11.899075 36.880240 1.096001 1.242278 0.035902 -0.020835 288006.000000 0 0 1
-14.543288 -31.659542 11.820175 36.790628 1.140182 1.243713 0.051052 -0.023370 119155.000000 0 0 1
-13.627188 -30.813442 11.152775 35.490179 1.154408 1.251130 0.041505 -0.018389 -34562.500000 0 0 1
-12.744588 -31.608642 10.359375 35.620884 1.187535 1.275709 0.054848 -0.011188 -343316.000000 0 0 1
-11.627088 -30.883342 9.638575 34.378367 1.210725 1.286619 0.056591 -0.007034 -653777.000000 0 0 1
-10.620588 -30.434642 10.482775 33.896207 1.235045 1.256380 0.048603 -0.004341 -712647.000000 0 0 1
-9.679488 -29.627142 9.815175 32.677173 1.255018 1.265718 0.049045 -0.000360 526943.000000 0 0 1
-8.611588 -29.022942 10.778575 32.135156 1.282355 1.228752 0.033549 0.007036 704537.000000 0 0 1
-9.301888 -28.107742 11.599275 31.798010 1.251204 1.197400 0.034477 -0.000281 322569.000000 0 0 1
-8.487288 -27.822242 12.754275 31.761340 1.274709 1.157570 0.031157 0.007113 285321.000000 0 0 1
-8.809188 -26.540042 13.563475 31.079631 1.250318 1.119191 0.028251 0.004133 -11953.500000 0 0 1
-8.523888 -25.223742 12.933375 29.600101 1.244913 1.118606 0.010368 0.002459 -108502.000000 0 0 1
-9.348488 -24.789742 11.890675 29.039863 1.210176 1.148934 0.012267 0.003362 -175416.000000 0 0 1
-8.956988 -23.357342 11.403575 27.492445 1.204615 1.143085 -0.003669 0.004059 -142443.000000 0 0 1
-7.824988 -23.323642 10.590975 26.784164 1.247101 1.164272 -0.008671 0.002399 -457642.000000 0 0 1
-7.678288 -22.029042 10.113875 25.426861 1.235411 1.161718 -0.011924 0.004113 -336972.000000 0 0 1
-6.507588 -21.833742 9.136875 24.546761 1.281128 1.189393 -0.012598 -0.001089 -669415.000000 0 1 0
-5.297788 -22.060342 9.773175 24.703040 1.335110 1.164047 -0.003125 0.003682 -1135270.000000 0 1 0
-4.244588 -22.183442 8.850475 24.258040 1.381741 1.197328 -0.006651 -0.003316 254278.000000 0 1 0
-3.021788 -22.925542 9.450175 24.980342 1.439743 1.182832 0.006006 -0.002136 124851.000000 0 1 0
-2.245388 -22.245642 10.403375 24.660506 1.470201 1.135296 0.010498 -0.006576 -297993.000000 0 1 0
-1.188288 -23.108942 10.764275 25.520674 1.519420 1.135382 0.012560 -0.000818 27468.200000 0 0 1
-0.217188 -22.583642 11.802275 25.482577 1.561180 1.089249 0.014610 -0.009803 -71432.300000 0 0 1
-0.761888 -22.841642 13.106775 26.345941 1.537453 1.050096 0.017524 0.000330 683997.000000 0 0 1
0.173812 -22.510642 14.158175 26.593479 -1.563075 1.009372 0.026875 -0.001433 529179.000000 0 0 1
0.820112 -21.102642 14.247475 25.475176 -1.531953 0.977293 0.029695 -0.007424 -570822.000000 0 0 1
1.953712 -20.828742 13.506875 24.901589 -1.477271 0.997493 0.033622 -0.011337 -733357.000000 0 1 0
2.272912 -19.469142 13.321675 23.699802 -1.454578 0.973873 0.032509 -0.008310 -676678.000000 0 1 0
3.703712 -19.330542 12.846275 23.503491 -1.381492 0.992535 0.037859 -0.009583 -493672.000000 0 1 0
4.038012 -19.911242 11.595075 23.392496 -1.370709 1.052184 0.048302 -0.007962 -183525.000000 0 1 0
5.431012 -20.090742 11.394475 23.726944 -1.306782 1.069875 0.055379 -0.002395 333124.000000 0 1 0
5.813612 -20.974742 10.188475 24.032122 -1.300412 1.132991 0.048824 -0.004872 -436330.000000 0 1 0
5.646912 -20.364642 8.894075 22.928385 -1.300302 1.172437 0.050457 -0.009335 -476691.000000 0 1 0
5.824612 -21.336742 7.846175 23.467959 -1.304304 1.229896 0.047864 -0.011085 -176395.000000 0 1 0
7.280412 -21.839142 7.571775 24.233949 -1.249017 1.253031 0.052289 -0.001557 412595.000000 0 1 0
8.157112 -20.947242 6.871475 23.506224 -1.199451 1.274138 0.045801 -0.008769 -48799.700000 0 1 0
8.464212 -19.729442 7.514075 22.745441 -1.165530 1.234116 0.044200 -0.008213 -245735.000000 0 1 0
9.474812 -19.854142 8.711975 23.661308 -1.125537 1.193729 0.039826 -0.006873 266529.000000 0 1 0
8.858312 -20.354942 9.881175 24.298785 -1.160325 1.152009 0.051039 -0.006803 -329496.000000 0 1 0
9.750212 -20.142942 10.966475 24.921242 -1.119989 1.115147 0.045782 -0.001103 507426.000000 0 1 0
9.026312 -20.135842 12.353975 25.289269 -1.149381 1.060419 0.047538 -0.005145 -51423.900000 0 0 1
9.001112 -21.449242 12.941975 26.619254 -1.173468 1.063074 0.044048 -0.010609 -92080.800000 0 0 1
8.021712 -21.712942 13.931975 27.016655 -1.216906 1.028994 0.047788 -0.007043 122279.000000 0 0 1
8.238012 -23.028142 14.769975 28.571180 -1.227246 1.027508 0.036235 -0.015733 -71258.900000 0 0 1
8.101712 -24.151942 13.924675 29.031889 -1.247144 1.070559 0.035549 -0.011960 -208282.000000 0 0 1
7.647612 -25.268242 14.643075 30.189231 -1.276904 1.064384 0.033568 -0.017995 180696.000000 0 0 1
7.539812 -26.527242 13.765975 30.822806 -1.293870 1.107816 0.032125 -0.021749 1494730.000000 0 0 1
8.815912 -27.102942 13.322575 31.460781 -1.256316 1.133528 0.032825 -0.016176 1098580.000000 0 0 1
8.611312 -28.127642 12.352475 31.904585 -1.273706 1.173237 0.024094 -0.019751 -352996.000000 0 0 1
9.869812 -28.613242 11.614475 32.419544 -1.238638 1.204398 0.027253 -0.018956 213646.000000 0 0 1
10.842812 -29.178742 12.506475 33.546646 -1.215010 1.188762 0.017357 -0.019264 -388973.000000 0 0 1
12.005412 -29.392042 11.784575 33.865886 -1.183020 1.215383 0.032561 -0.016733 -1081760.000000 0 0 1
13.022112 -30.304942 12.413675 35.242932 -1.164949 1.210842 0.023146 -0.017419 -1105010.000000 0 0 1
13.527812 -29.723042 13.612475 35.380226 -1.143685 1.175861 0.022475 -0.015822 574108.000000 0 0 1
14.537012 -30.534042 14.239975 36.693723 -1.126457 1.172253 0.028070 -0.012034 1146780.000000 0 0 1
15.965512 -30.596242 13.612375 37.098845 -1.089851 1.195098 0.036415 -0.002462 15894.900000 0 0 1
16.614012 -29.308242 13.682475 36.362186 -1.055092 1.185015 0.028008 -0.015057 1197310.000000 0 0 1
17.861512 -29.321442 12.937975 36.690213 -1.023667 1.210419 0.022642 -0.014704 557999.000000 0 0 1
18.528312 -27.975642 12.940175 35.963635 -0.985822 1.202729 0.012005 -0.010151 -986882.000000 0 0 1
19.793412 -28.098942 12.381175 36.532495 -0.957111 1.225040 0.002510 -0.014223 -762931.000000 0 0 1
20.504312 -26.892142 12.529075 36.063719 -0.919365 1.215983 -0.003242 -0.012605 -37881.100000 0 0 1
21.932112 -27.033842 11.945775 36.804180 -0.889213 1.240232 -0.004605 -0.011867 -445847.000000 0 0 1
22.779412 -27.856842 12.634675 38.138435 -0.885337 1.233132 -0.004536 -0.015965 36163.400000 0 0 1
23.936912 -28.149042 11.836175 38.799992 -0.866091 1.260799 -0.011142 -0.017720 660491.000000 0 0 1
25.070912 -28.907342 12.619175 40.291793 -0.856352 1.252241 0.006133 -0.016491 264674.000000 0 0 1
26.009812 -28.106142 13.320775 40.545142 -0.824117 1.236037 0.001104 -0.012325 1578000.000000 0 0 1
27.283812 -28.081542 12.585675 41.126374 -0.799806 1.259782 0.001504 -0.007103 1472680.000000 0 0 1
28.478312 -27.391742 13.331675 41.701982 -0.765952 1.245395 0.023844 -0.018654 263486.000000 0 0 1
28.430112 -25.995542 13.486275 40.815672 -0.740696 1.234049 0.033502 -0.017138 -337559.000000 0 0 1
27.483312 -25.492242 14.355575 40.140620 -0.747831 1.205065 0.029517 -0.012819 -883859.000000 0 0 1
28.095212 -25.283242 15.733475 40.940512 -0.732767 1.176346 0.012230 -0.001561 -115367.000000 0 0 1
28.536612 -26.476842 16.385975 42.235785 -0.747974 1.172375 0.007283 -0.009913 256354.000000 0 0 1
29.099112 -26.098442 17.659475 42.892238 -0.731089 1.146459 0.013145 0.011356 83034.200000 0 0 1
29.707212 -27.381242 18.320975 44.361120 -0.744677 1.145055 0.009686 0.024492 717680.000000 0 0 1
28.646812 -28.232242 18.787975 44.392424 -0.778110 1.133795 -0.009729 0.014945 739282.000000 0 0 1
29.247912 -29.250242 19.576475 45.763035 -0.785438 1.128762 -0.003337 0.010481 310195.000000 0 0 1
28.213312 -30.168542 20.318375 46.032252 -0.818876 1.113644 -0.004830 0.023161 -791884.000000 0 0 1
27.523612 -29.411642 21.324175 45.577564 -0.818547 1.083922 -0.009177 0.021165 1373620.000000 0 0 1
26.445012 -30.130742 22.021175 45.739834 -0.850453 1.068495 -0.014681 0.014546 1445090.000000 0 0 1
25.263612 -30.628942 21.145875 44.983666 -0.881099 1.081416 0.017667 0.003504 -1076390.000000 0 0 1
25.555312 -31.690542 20.354975 45.515815 -0.892164 1.107156 -0.000136 0.007845 30956.200000 0 0 1
24.644412 -31.978442 19.275075 44.738086 -0.914205 1.125370 0.010551 0.001910 12943.500000 0 0 1
24.790512 -31.131142 17.989675 43.673171 -0.898300 1.146241 0.006235 -0.002175 -1127100.000000 0 0 1
25.833812 -31.577242 17.246375 44.293854 -0.885107 1.170857 -0.006218 -0.007293 -824375.000000 0 0 1
26.310212 -30.430942 16.473475 43.470046 -0.857894 1.182122 -0.003478 -0.019779 -194660.000000 0 0 1
27.473012 -30.717942 15.530375 44.040333 -0.841104 1.210406 0.008978 -0.018171 -419738.000000 0 0 1
27.148012 -31.577242 14.422475 44.069769 -0.860679 1.237389 0.008773 -0.010500 334132.000000 0 0 1
27.400112 -32.928642 14.759575 45.309013 -0.876783 1.238988 -0.012272 -0.016960 -333080.000000 0 0 1
26.548712 -33.981842 14.058975 45.356967 -0.907586 1.255642 0.013424 -0.016997 -320652.000000 0 0 1
27.076612 -34.262342 12.755275 45.494483 -0.902015 1.286617 0.032469 -0.015181 596182.000000 0 0 1
26.367212 33.748973 12.261575 44.548505 0.907578 1.291956 0.032643 -0.013018 -482496.000000 0 0 1
26.945212 33.254673 10.924375 44.173065 0.889825 1.320895 0.026223 -0.009164 65751.000000 0 0 1
28.205912 32.626673 11.078875 44.528808 0.857942 1.319353 0.029867 -0.010211 166599.000000 0 0 1
28.721112 32.044573 9.921275 44.160940 0.840037 1.344200 0.025991 -0.006754 -145311.000000 0 0 1
30.232912 31.756773 10.001875 44.972871 0.809976 1.346523 0.011901 -0.005590 -24989.700000 0 0 1
30.582412 30.756373 10.943975 44.732639 0.788234 1.323635 0.006671 -0.000629 424872.000000 0 0 1
31.973212 30.596873 11.206675 45.651336 0.763405 1.322777 0.016885 -0.002554 523190.000000 0 0 1
32.204912 29.532573 12.324975 45.400818 0.742140 1.295876 0.009858 0.009052 -48493.500000 0 0 1
31.828512 28.224673 11.976975 44.194279 0.725459 1.296357 0.003368 0.005527 99444.700000 0 0 1
31.865312 27.348773 13.105075 43.989732 0.709271 1.268292 0.012405 -0.000338 -52920.400000 0 0 1
31.562312 25.914873 12.661475 42.755972 0.687457 1.270154 0.004806 -0.004697 122605.000000 0 0 1
32.616512 25.388573 11.865175 43.002313 0.661428 1.291250 0.007482 0.002201 60906.600000 0 0 1
32.735512 23.985273 11.754775 42.250229 0.632336 1.288858 -0.001078 -0.003095 -954094.000000 0 0 1
31.667612 23.330973 10.892775 40.814513 0.634964 1.300637 -0.011320 -0.000970 -142597.000000 0 0 1
30.505812 23.125873 11.667675 40.019311 0.648653 1.274948 -0.001236 -0.006911 82970.700000 0 0 1
29.442312 22.516173 10.930775 38.643365 0.652878 1.284019 -0.005741 0.006072 497955.000000 0 0 1
28.227412 22.083673 11.801075 37.732490 0.663885 1.252703 -0.003292 0.009604 24640.300000 0 0 1
27.450412 23.193273 12.137975 37.931299 0.701535 1.245068 0.004522 0.007016 190892.000000 0 0 1
26.568612 22.935773 13.251975 37.517405 0.712145 1.209783 0.017610 0.002882 50125.200000 0 0 1
23.683412 9.745473 26.006767 36.499729 0.390372 0.777714 0.024228 -0.006776 -751622.000000 0 0 1
23.176112 8.913873 26.977427 36.665663 0.367173 0.743996 0.026524 -0.013271 -466011.000000 0 0 1
21.783612 8.902673 26.905277 35.744612 0.387972 0.718630 0.023682 -0.015101 -637088.000000 0 0 1
21.169012 7.535173 27.386537 35.424967 0.341968 0.687105 0.030232 -0.024512 -105071.000000 0 0 1
21.441012 7.270273 28.766567 36.607230 0.326916 0.666781 0.025531 -0.016335 188007.000000 0 0 1
22.763212 6.946273 29.126897 37.613703 0.296178 0.685079 0.026439 -0.015717 -276790.000000 0 0 1
22.982312 6.667973 30.628637 38.868521 0.282382 0.663232 0.020702 -0.011989 -291762.000000 0 0 1
22.751812 7.873473 31.485197 39.635264 0.333160 0.652821 0.025027 -0.013833 396727.000000 0 0 1
22.986012 7.552873 32.817017 40.772040 0.317472 0.635306 0.021105 -0.010555 -133419.000000 0 0 1
23.154112 8.712873 33.830524 41.910994 0.359909 0.631404 0.029678 -0.012840 618140.000000 0 0 1
24.233212 9.644573 33.572246 42.513081 0.378772 0.660489 0.022354 -0.021127 383432.000000 0 0 1
24.476112 10.396873 -34.191541 43.315546 0.401681 2.480561 0.022364 -0.014822 -133626.000000 0 0 1
25.772512 11.207273 -34.404851 44.424308 0.410187 2.456657 0.001528 -0.008392 -441440.000000 0 0 1
25.586412 12.540573 34.085641 44.427034 0.455717 0.696289 0.002686 -0.005839 140673.000000 0 0 1
25.428812 13.541273 -33.827325 44.432853 0.489321 2.436133 0.008861 -0.006007 -470529.000000 0 0 1
24.781712 14.849573 -34.412568 44.931814 0.539842 2.443212 0.013541 -0.006298 -540435.000000 0 0 1
25.542212 15.546073 33.535157 44.929854 0.546750 0.728177 0.008238 -0.006043 84419.600000 0 0 1
25.109812 16.872673 33.352643 45.028753 0.591655 0.736690 0.017583 -0.009392 -208723.000000 0 0 1
25.711912 17.897273 34.355794 46.494466 0.608083 0.739327 0.004804 -0.009393 -130418.000000 0 0 1
25.375012 17.678373 -33.159145 45.342530 0.608497 2.391027 0.007327 -0.014595 12955.800000 0 0 1
26.482212 17.390473 -32.367245 45.292104 0.581060 2.366896 0.005976 -0.008485 -412979.000000 0 0 1
25.912412 16.841773 -30.997745 43.771664 0.576340 2.357698 -0.003564 -0.002407 249638.000000 0 0 1
25.383212 15.553073 -31.181595 43.110293 0.549728 2.379363 0.004617 0.001226 -83641.000000 0 0 1
24.365612 15.306573 -30.240405 41.742740 0.560900 2.381028 0.009369 -0.006551 153537.000000 0 0 1
23.718112 13.883973 -30.503455 41.058182 0.529596 2.408237 0.019312 -0.009207 -429945.000000 0 0 1
22.678812 13.873073 -31.446395 41.178470 0.548992 2.439761 0.018987 -0.011354 36843.000000 0 0 1
22.145512 12.582073 -31.671295 40.642382 0.516674 2.464293 0.021438 -0.003076 -41625.900000 0 0 1
21.239012 11.861173 -30.652045 39.132223 0.509316 2.470744 0.024445 -0.004908 -193067.000000 0 0 1
19.945012 12.444773 -30.532185 38.534273 0.557847 2.485429 0.032444 -0.005347 -75830.800000 0 0 1
19.270412 11.677573 -29.606585 37.205703 0.544808 2.491048 0.038905 -0.002453 -854157.000000 0 0 1
18.089612 12.516773 -29.106735 36.484321 0.605290 2.494413 0.042415 -0.003134 -241211.000000 0 0 1
17.053012 12.603273 -30.077945 36.801229 0.636465 2.527520 0.019116 0.003703 -874765.000000 0 0 1
15.927312 13.092973 -29.483635 35.977631 0.688039 2.531333 0.019577 -0.005100 -1526610.000000 0 0 1
14.913912 13.665173 -30.508375 36.604954 0.741732 2.556117 0.011670 -0.000609 306241.000000 0 0 1
14.152712 12.664473 -31.164335 36.495259 0.729959 2.594284 -0.001586 0.003552 -326776.000000 0 0 1
13.123412 11.957373 -30.541735 35.327047 0.738940 2.615036 0.003071 -0.000957 -781800.000000 0 0 1
12.170012 11.319773 -31.536235 35.648009 0.749218 2.656553 0.008515 0.003843 29139.500000 0 0 1
11.448212 12.288573 -32.311605 36.415799 0.820787 2.662246 0.018116 0.004235 187602.000000 0 0 1
10.624812 11.762073 -33.332005 36.908746 0.836155 2.697713 0.028536 0.010206 177723.000000 0 0 1
10.121512 12.765073 -34.379282 38.043753 0.900396 2.699077 0.035214 0.003765 104886.000000 0 0 1
11.038712 12.899873 33.464693 37.525266 0.862989 0.469508 0.024167 0.008707 234571.000000 0 0 1
10.429212 13.515873 32.356097 36.583662 0.913597 0.485501 0.036091 0.001837 42854.900000 0 0 1
11.232012 13.302973 31.017527 35.569849 0.869607 0.511487 0.031163 -0.002644 -117790.000000 0 0 1
11.470212 11.921973 30.654267 34.833652 0.804708 0.494895 0.017323 -0.002773 79721.900000 0 0 1
11.502512 11.866773 29.252447 33.598121 0.800984 0.514259 0.035441 -0.003269 -187217.000000 0 0 1
12.059112 10.592873 28.560447 32.761720 0.720759 0.512007 0.023197 0.001702 -170714.000000 0 0 1
11.209112 9.469473 28.521647 32.074904 0.701468 0.475159 0.018211 -0.005104 82955.400000 0 0 1
11.987412 8.321473 28.424897 31.951835 0.606812 0.474290 -0.000645 -0.002580 -371064.000000 0 0 1
11.142212 7.063073 28.667117 31.556925 0.564975 0.431294 0.001783 -0.003699 180955.000000 0 0 1
10.188612 6.801173 27.644497 30.237096 0.588598 0.417125 0.013984 -0.014251 40465.600000 0 0 1
9.237612 5.814773 27.967867 30.022436 0.561805 0.372101 0.001250 -0.016964 -217383.000000 0 0 1
9.676912 4.393473 27.633067 29.606277 0.426189 0.367157 0.003832 -0.010581 -487166.000000 0 0 1
10.614612 3.870073 28.514377 30.671113 0.349621 0.377248 -0.004028 -0.006346 -74538.500000 0 0 1
11.160212 2.644673 28.090077 30.341342 0.232681 0.387644 -0.020015 0.000324 -120364.000000 0 0 1
11.585712 1.716073 29.235317 31.494085 0.147051 0.381037 -0.012833 0.004256 -175476.000000 0 0 1
10.409012 1.368873 29.886887 31.677237 0.130758 0.337814 -0.006310 -0.002734 -223806.000000 0 0 1
10.606212 0.158273 30.561917 32.350387 0.014922 0.334070 -0.001857 -0.001505 123377.000000 0 0 1
9.560712 -0.006127 31.669037 33.080737 -0.000641 0.293194 0.009664 -0.001040 -135473.000000 0 0 1
9.779312 0.861073 32.788277 34.226415 0.087824 0.290916 0.006513 -0.005128 -944308.000000 0 0 1
8.621812 1.133373 33.498979 34.609273 0.130705 0.253984 0.016428 -0.012570 -615994.000000 0 0 1
8.702312 2.521273 34.248268 35.426416 0.282003 0.258620 0.023960 -0.010881 -217201.000000 0 0 1
8.609512 3.777473 33.525567 34.818912 0.413464 0.273412 0.014061 -0.010960 939298.000000 0 0 1
9.675012 3.978073 32.548427 34.188171 0.390098 0.310968 0.001022 -0.004585 624853.000000 0 0 1
9.643312 5.324673 31.862287 33.712771 0.504502 0.332864 -0.003691 -0.002779 38533.100000 0 0 1
9.798012 6.408773 32.756537 34.785976 0.579244 0.343270 -0.003848 -0.004418 114251.000000 0 0 1
10.011912 7.619573 32.069947 34.449641 0.650536 0.373866 -0.003271 -0.003005 -189337.000000 0 0 1
10.204712 8.862573 32.960104 35.623725 0.715124 0.389158 0.027889 -0.007049 148060.000000 0 0 1
9.029912 9.283373 33.641428 36.048107 0.799238 0.367476 0.034248 -0.007116 240756.000000 0 0 1
8.558712 8.487773 -34.153821 36.218467 0.781237 2.802313 0.031038 -0.010251 386721.000000 0 0 1
7.118212 8.910073 -33.726705 35.602654 0.896730 2.815523 0.036107 -0.012098 594534.000000 0 0 1
6.555412 8.076473 -32.700955 34.315525 0.888981 2.833617 0.043135 -0.008449 -155522.000000 0 0 1
5.181312 8.297873 -32.514745 33.954518 1.012618 2.849339 0.045398 -0.007202 23460.000000 0 0 1
4.651312 7.525873 -31.250425 32.478647 1.017216 2.865705 0.052389 -0.003881 -445831.000000 0 0 1
5.311212 7.899173 -30.069825 31.540455 0.978852 2.835019 0.052116 -0.007326 132074.000000 0 0 1
4.979312 7.248573 -28.826775 30.138320 0.968891 2.845495 0.053481 -0.007968 1032170.000000 0 0 1
3.516612 7.540673 -28.241485 29.441633 1.134427 2.855084 0.042187 -0.003706 1425140.000000 0 0 1
2.551212 6.938573 -29.085875 30.010675 1.218454 2.892694 0.037775 -0.004522 31543.800000 0 0 1
1.212312 7.272373 -28.769725 29.699397 1.405614 2.890725 0.039211 0.001726 596536.000000 0 0 1
0.148512 6.801173 -29.815485 30.581713 1.548964 2.917270 0.033289 0.000255 232908.000000 0 0 1
0.205912 7.433273 -31.073925 31.951287 1.543102 2.906706 0.034301 -0.003024 188327.000000 0 0 1
-0.573488 6.683373 -31.998755 32.694291 -1.485198 2.934954 0.054554 -0.009555 -770224.000000 0 0 1
-0.549488 7.315773 -33.398625 34.194892 -1.495827 2.925366 0.059830 -0.016576 -289118.000000 0 0 1
0.716312 7.676273 -33.910285 34.775648 1.477751 2.918039 0.041763 -0.018353 -529510.000000 0 0 1
1.592012 6.647973 -34.165493 34.842660 1.335749 2.944117 0.048763 -0.018929 -1051240.000000 0 0 1
1.564012 6.167373 33.277516 33.880314 1.322437 0.188918 0.059328 -0.027413 -437306.000000 0 0 1
0.388112 5.533573 32.829537 33.294888 1.500773 0.167388 0.059524 -0.026949 -363239.000000 0 0 1
0.237612 5.446073 31.406907 31.876480 1.527194 0.171856 0.069536 -0.028123 -204452.000000 0 0 1
1.184412 4.570573 30.578587 30.940959 1.317235 0.153197 0.084663 -0.029184 -243206.000000 0 0 1
0.814312 4.483773 29.224747 29.577917 1.391141 0.154688 0.069951 -0.027937 377139.000000 0 0 1
1.604912 3.503673 28.518787 28.777990 1.141255 0.134317 0.055802 -0.016007 187819.000000 0 0 1
1.598212 3.877173 27.044007 27.367226 1.179808 0.153843 0.055505 -0.016583 256251.000000 0 0 1
2.282812 5.114373 26.742397 27.322588 1.150980 0.206448 0.055667 -0.014098 210517.000000 0 0 1
2.096112 5.633373 25.430427 26.131115 1.214581 0.232099 0.037648 -0.004045 -776192.000000 0 0 1
2.650812 7.089173 25.320147 26.427127 1.212969 0.290461 0.035960 -0.000849 161356.000000 0 0 1
4.055912 7.198973 25.242137 26.560141 1.057722 0.316352 0.028031 0.000713 -133035.000000 0 0 1
4.535512 6.820273 23.941257 25.303572 0.983945 0.329633 0.037095 -0.005017 -1167670.000000 0 0 1
6.060712 6.869973 23.759087 25.464151 0.847901 0.368022 0.037435 -0.009859 137159.000000 0 0 1
6.838012 6.036373 24.649167 26.282649 0.723212 0.354416 0.028047 -0.009326 447572.000000 0 0 1
6.588712 4.581273 24.590797 25.867093 0.607579 0.315442 0.032885 -0.004841 -859769.000000 0 0 1
6.799612 3.928573 23.163187 24.458161 0.523909 0.326865 0.031013 -0.003574 -56295.300000 0 1 0
5.913512 4.233573 22.085187 23.251844 0.621328 0.318120 0.032440 -0.007093 259736.000000 0 1 0
4.695412 3.486873 22.203487 22.960837 0.638756 0.257555 0.032138 -0.006185 162948.000000 0 1 0
3.632812 3.806173 21.159087 21.803469 0.808698 0.243724 0.013723 -0.005239 -114120.000000 0 1 0
3.194612 5.181873 21.185687 22.042928 1.018334 0.279801 0.006692 -0.010924 460088.000000 0 1 0
1.968912 5.393973 20.494787 21.283981 1.220803 0.273169 0.001643 -0.000730 158639.000000 0 1 0
1.478512 6.825373 20.694787 21.841381 1.357472 0.325460 0.001995 0.007102 -174963.000000 0 1 0
2.181412 7.782273 19.945287 21.520613 1.297505 0.384998 -0.007790 0.004657 25880.200000 0 1 0
1.597312 9.072073 20.184187 22.186828 1.396513 0.428145 -0.002481 0.004932 762143.000000 0 1 0
2.550012 10.258273 19.709987 22.365561 1.327154 0.492264 -0.001859 -0.000412 120362.000000 0 1 0
2.613612 10.368873 18.287687 21.184522 1.323877 0.529109 -0.002484 0.001576 -410341.000000 0 1 0
3.517312 11.313373 17.816487 21.396053 1.269371 0.586831 -0.003965 -0.004445 -263263.000000 0 1 0
5.023412 11.019473 17.865587 21.583388 1.143074 0.595716 0.003091 -0.010049 -422258.000000 0 1 0
5.323912 9.864673 17.077687 20.428001 1.075899 0.580855 0.010337 -0.009972 -187917.000000 0 1 0
6.669612 9.495073 17.281587 20.815700 0.958442 0.591296 0.001618 -0.006347 -132736.000000 0 1 0
6.757512 8.131473 17.925087 20.810900 0.877418 0.532911 0.012296 -0.000582 -691592.000000 0 1 0
6.427112 8.180273 19.278887 21.906623 0.904846 0.494832 0.023880 -0.002224 17891.800000 0 1 0
6.489712 6.904273 19.935687 22.072992 0.816340 0.443696 0.016742 -0.006309 548546.000000 0 1 0
7.955712 6.435073 20.218087 22.659977 0.680121 0.468520 0.038188 -0.008933 302359.000000 0 1 0
8.750212 6.241873 19.081787 21.900726 0.619623 0.512981 0.032805 -0.008350 -54914.100000 0 1 0
10.015512 5.643973 19.355687 22.512386 0.513166 0.535959 0.026788 -0.003112 333185.000000 0 1 0
10.120712 4.095273 19.300987 22.174945 0.384502 0.514790 0.025814 0.000094 -183111.000000 0 1 0
9.335212 3.368673 20.232887 22.535835 0.346314 0.456026 0.030814 -0.007115 381017.000000 0 1 0
9.717612 2.012473 20.127587 22.441074 0.204209 0.458068 0.032373 -0.016024 289191.000000 0 1 0
8.980312 1.105173 21.164587 23.017540 0.122450 0.403994 0.043799 -0.017036 329157.000000 0 1 0
9.362412 1.423673 22.478987 24.392344 0.150907 0.398719 0.030173 -0.013212 665136.000000 0 1 0
8.501412 0.616273 23.290587 24.801315 0.072364 0.350833 0.034975 -0.017578 275257.000000 0 1 0
8.976012 0.610673 24.795257 26.377007 0.067929 0.348069 0.026073 -0.006150 266835.000000 0 0 1
10.230212 0.012273 25.137057 27.139068 0.001200 0.386507 0.025746 -0.004917 259236.000000 0 0 1
10.269912 -1.436627 25.091517 27.149940 -0.138985 0.391905 0.024634 -0.008486 -249249.000000 0 0 1
11.681012 -2.063427 25.094737 27.756974 -0.174844 0.441556 0.027597 -0.005405 59061.200000 0 0 1
11.728112 -3.468927 25.003767 27.834698 -0.287580 0.454923 0.027867 -0.004039 -98058.400000 0 0 1
13.076512 -3.796527 25.254577 28.691505 -0.282563 0.494490 0.026253 -0.002160 44885.700000 0 0 1
13.210112 -5.336427 25.335767 29.066916 -0.383920 0.512266 0.029312 -0.004796 -156429.000000 0 0 1
12.918012 -5.982627 24.097267 27.988304 -0.433713 0.533610 0.020869 -0.009427 288050.000000 0 0 1
12.737712 -7.329027 24.274947 28.376698 -0.522120 0.544370 0.024931 -0.009061 -51124.800000 0 0 1
12.427412 -8.030127 22.937287 27.295470 -0.573673 0.572899 0.029738 -0.009158 -155640.000000 0 0 1
12.077812 -9.354627 23.133387 27.722485 -0.659016 0.583639 0.027890 -0.004678 -423284.000000 0 0 1
12.145812 -10.077327 21.950487 27.035110 -0.692588 0.623354 0.025258 -0.008782 52518.600000 0 0 1
11.590912 -11.505727 22.177587 27.542265 -0.781710 0.634750 0.027874 -0.004816 78004.600000 0 0 1
10.199512 -11.539327 22.380587 27.167569 -0.846953 0.602718 0.023057 -0.002720 -653793.000000 0 0 1
9.800712 -12.835127 22.479787 27.679149 -0.918657 0.622958 0.028340 0.002623 517891.000000 0 0 1
8.250412 -12.924427 22.694087 27.388532 -1.002649 0.594197 0.013907 0.008237 850273.000000 0 0 1
7.490912 -12.360227 21.619687 26.005766 -1.025940 0.589278 0.013650 -0.002259 960045.000000 0 0 1
6.103412 -12.238827 22.020287 25.921682 -1.108195 0.555773 0.006390 0.001340 1357220.000000 0 0 1
5.350212 -11.106027 21.276987 24.590217 -1.121864 0.525123 0.005466 -0.002346 -40668.400000 0 1 0
5.798812 -9.806227 21.540087 24.367266 -1.036769 0.486496 0.011159 -0.002231 -471859.000000 0 1 0
4.869112 -8.794527 21.255887 23.513075 -1.065153 0.441755 0.009441 -0.002227 -514680.000000 0 1 0
5.420312 -7.355927 21.420487 23.287909 -0.935756 0.403197 0.011027 -0.018095 -494655.000000 0 1 0
4.552712 -6.316327 21.159687 22.546741 -0.946257 0.352591 0.004839 -0.012298 -493733.000000 0 1 0
5.061012 -5.132727 21.751187 22.914469 -0.792433 0.320005 0.023914 -0.019916 -73910.400000 0 1 0
-8.478288 -14.530727 -20.700125 26.674305 1.042618 2.459147 0.041136 0.006962 -334581.000000 0 0 1
-7.520688 -14.610827 -19.683525 25.641337 1.095431 2.445960 0.036764 -0.002924 -541789.000000 0 0 1
-6.600988 -13.590627 -19.881725 24.971207 1.118653 2.491762 0.028179 -0.011074 100141.000000 0 1 0
-5.770388 -13.171727 -18.607725 23.516785 1.157892 2.483652 0.020097 -0.011445 -118490.000000 0 1 0
-4.842188 -14.051827 -18.120825 23.436402 1.238945 2.454655 0.023788 -0.007960 -332755.000000 0 1 0
-4.120788 -13.522427 -16.998025 22.108138 1.274999 2.447850 0.022337 -0.012709 -430611.000000 0 1 0
-3.160688 -14.482727 -16.385125 22.095512 1.355927 2.406187 0.019932 -0.008564 -1887480.000000 0 1 0
-1.950688 -14.463627 -17.007425 22.411028 1.436737 2.432398 0.012056 -0.020093 -2089820.000000 0 1 0
-1.161488 -15.430827 -16.490725 22.614232 1.495667 2.387976 0.015681 -0.002785 131215.000000 0 1 0
0.269912 -15.592727 -17.146225 23.177554 -1.553488 2.403535 0.007392 -0.003440 988809.000000 0 1 0
0.334812 -16.471727 -18.296525 24.620981 -1.550473 2.408528 0.022977 -0.002022 -95391.300000 0 1 0
0.020312 -17.831227 -18.014025 25.346759 -1.569657 2.361294 0.017400 0.001096 -286097.000000 0 0 1
-0.366788 -18.541527 -19.322325 26.781990 1.551017 2.376715 0.035667 -0.003257 205556.000000 0 0 1
-1.621788 -18.154727 -19.856125 26.953479 1.481701 2.398946 0.032284 -0.007181 -186607.000000 0 0 1
-1.801988 -18.600927 -21.242025 28.292495 1.474221 2.420070 0.039772 -0.007177 244992.000000 0 0 1
-3.000888 -17.841627 -21.873725 28.386420 1.404160 2.450531 0.030595 -0.003895 400917.000000 0 0 1
-2.750988 -16.461027 -21.930825 27.558926 1.405205 2.491090 0.025984 0.003493 -7009.650000 0 0 1
-3.249688 -15.796327 -20.741825 26.273708 1.367903 2.480712 0.019274 0.000672 -108038.000000 0 0 1
-2.565488 -14.454827 -20.415625 25.146004 1.395142 2.518167 0.024812 -0.008607 -308622.000000 0 0 1
-2.578588 -13.515427 -21.480625 25.509471 1.382273 2.571896 0.025618 -0.016011 186453.000000 0 0 1
-1.861588 -12.364127 -21.020725 24.458291 1.421355 2.604993 0.024723 -0.012841 117011.000000 0 1 0
-1.703688 -11.423827 -22.194925 25.020413 1.422753 2.661761 0.031365 -0.013345 -450129.000000 0 0 1
-2.813788 -10.651827 -22.549125 25.096650 1.312536 2.687117 0.025161 -0.010985 -246480.000000 0 0 1
-2.665588 -9.947927 -23.773325 25.908253 1.308992 2.732788 0.019572 -0.007029 57278.300000 0 0 1
-3.651588 -8.771427 -23.935125 25.751936 1.176314 2.763714 0.017534 -0.008097 32533.200000 0 0 1
-5.034088 -9.012127 -23.948125 26.078212 1.061382 2.734610 0.029075 -0.010846 -90456.100000 0 0 1
-5.779088 -7.841327 -23.899925 25.808733 0.935665 2.754579 0.033262 -0.019323 121016.000000 0 0 1
-7.317888 -8.112227 -23.716925 26.112300 0.836833 2.709918 0.031989 -0.021121 995576.000000 0 0 1
-8.053188 -8.631527 -24.824025 27.487985 0.820047 2.697699 0.035499 -0.013627 205873.000000 0 0 1
-8.503488 -7.540227 -25.607345 28.016075 0.725430 2.723890 0.035502 -0.015675 -479896.000000 0 0 1
-9.200488 -8.038227 -26.860605 29.508544 0.718079 2.714721 0.038459 -0.019326 112139.000000 0 0 1
-9.907088 -6.977827 -27.518675 30.068554 0.613624 2.726795 0.048003 -0.020282 -41241.000000 0 0 1
-10.536488 -7.498027 -28.629405 31.414659 0.618485 2.717322 0.053537 -0.019289 -325236.000000 0 0 1
-11.361888 -6.518727 -29.476585 32.256090 0.520884 2.723414 0.052838 -0.016738 334195.000000 0 0 1
-10.617888 -5.525027 -30.208425 32.493298 0.479795 2.764344 0.029963 -0.008802 441078.000000 0 0 1
-11.515488 -4.843727 -31.097895 33.513389 0.398161 2.759602 0.037562 -0.011810 554803.000000 0 0 1
-10.818188 -3.722927 -31.939215 33.926491 0.331441 2.797625 0.032411 -0.018359 -144838.000000 0 0 1
-9.854888 -4.183327 -32.840205 34.541252 0.401441 2.826453 0.043751 -0.010000 -30334.700000 0 0 1
-9.348788 -3.157127 -33.700945 35.115822 0.325679 2.856758 0.032611 -0.010263 -398680.000000 0 0 1
-8.156988 -3.678427 34.415902 35.560112 0.423647 0.254365 0.027062 -0.011702 -553045.000000 0 0 1
-6.898988 -3.746327 -33.868625 34.766575 0.497473 2.913821 0.031090 -0.012318 -524708.000000 0 0 1
-5.995788 -4.312527 34.108023 34.898490 0.623535 0.213244 0.023284 -0.013630 -795640.000000 0 0 1
-4.569888 -3.966927 -34.400647 34.928855 0.714885 2.967462 0.031725 -0.016010 -660043.000000 0 0 1
-4.274188 -2.594827 34.437377 34.798488 0.545618 0.144189 0.038284 -0.021423 -108116.000000 0 0 1
-2.892488 -2.339527 -34.311010 34.512103 0.680101 3.033589 0.032971 -0.022560 279886.000000 0 0 1
-2.679488 -0.831127 -33.910545 34.026394 0.300771 3.059050 0.045968 -0.028246 47922.500000 0 0 1
-3.039588 -0.618327 -32.517475 32.665082 0.200686 3.046490 0.034673 -0.023165 279508.000000 0 0 1
-3.622888 0.624373 -32.250935 32.459790 -0.170665 3.028092 0.041346 -0.024667 -569964.000000 0 0 1
-3.881688 0.840073 -30.704615 30.960404 -0.213133 3.012960 0.061082 -0.023395 344745.000000 0 0 1
-4.901188 0.050473 -30.078605 30.475345 -0.010298 2.980058 0.046513 -0.022127 709326.000000 0 0 1
-6.202688 0.616573 -30.301815 30.936281 -0.099079 2.938717 0.044379 -0.023456 1071390.000000 0 0 1
-7.306688 -0.543727 -30.380925 31.251943 0.074278 2.904944 0.037967 -0.021539 679545.000000 0 0 1
-7.823288 -1.039627 -29.195395 30.243276 0.132115 2.877584 0.039248 -0.021867 -254387.000000 0 0 1
-8.930788 -1.880427 -29.351005 30.737216 0.207524 2.840123 0.039862 -0.020396 -163823.000000 0 0 1
-9.350288 -2.591627 -28.067225 29.697029 0.270383 2.808755 0.043410 -0.023685 -194796.000000 0 0 1
-9.999088 -1.747827 -27.160465 28.995301 0.173050 2.783935 0.038727 -0.020430 8650.820000 0 0 1
-10.391688 -2.473927 -25.994015 28.103315 0.233717 2.751687 0.032625 -0.019268 125523.000000 0 0 1
-11.285488 -1.692027 -25.004025 27.485022 0.148821 2.713436 0.031665 -0.011449 103254.000000 0 0 1
-10.662788 -0.507427 -24.549125 26.769611 0.047553 2.731420 0.041800 -0.010291 36288.700000 0 0 1
-11.420588 0.180973 -23.572225 26.193747 -0.015845 2.690378 0.037125 -0.008732 46700.500000 0 0 1
-10.695688 1.450873 -23.054425 25.456026 -0.134827 2.703723 0.041276 -0.014315 178952.000000 0 0 1
-10.606388 2.544573 -23.972525 26.337279 -0.235459 2.714594 0.023035 -0.012515 -218907.000000 0 0 1
-9.785888 3.529373 -23.443925 25.648347 -0.346139 2.723961 0.025128 -0.009405 -446707.000000 0 0 1
-9.600288 4.693973 -24.443025 26.676963 -0.454761 2.729438 0.035789 -0.013118 -64348.700000 0 0 1
-10.797588 5.414473 -24.657525 27.457202 -0.464809 2.686078 0.040270 -0.010501 127093.000000 0 0 1
-11.509688 4.925073 -25.788105 28.666280 -0.404330 2.689643 0.028121 -0.013067 -473151.000000 0 0 1
-12.848188 5.572173 -26.111365 29.629857 -0.409211 2.649301 0.021831 -0.006121 -336777.000000 0 0 1
-12.734588 6.887573 -26.593295 30.278899 -0.495795 2.643045 0.014351 -0.000072 -376189.000000 0 0 1
-13.988588 7.382073 -26.967105 31.263402 -0.485578 2.611139 0.012996 -0.001297 -444727.000000 0 0 1
-14.065688 8.936773 -27.058205 31.778230 -0.566014 2.589578 0.018308 0.007138 -121816.000000 0 0 1
-13.932488 9.511573 -25.786175 30.814137 -0.599014 2.562262 0.045343 0.003926 -31916.300000 0 0 1
-14.327488 10.889973 -25.758575 31.422485 -0.649918 2.531770 0.039509 0.007145 -144565.000000 0 0 1
-13.907188 11.725773 -24.529825 30.538761 -0.700501 2.503504 0.033805 0.007992 -231269.000000 0 0 1
-14.571988 11.347373 -23.349125 29.770578 -0.661625 2.472367 0.040642 0.004444 24504.500000 0 0 1
-14.114788 12.044473 -22.185625 28.922284 -0.706420 2.445069 0.034442 0.009331 -252721.000000 0 0 1
-15.046688 11.923373 -20.961225 28.424331 -0.670105 2.400068 0.044732 0.003987 438670.000000 0 0 1
-16.223788 12.715673 -21.164625 29.543882 -0.664764 2.369395 0.044442 -0.004645 340439.000000 0 0 1
-16.647188 13.296873 -19.912025 29.162037 -0.673976 2.322393 0.048853 0.001230 69328.600000 0 0 1
-18.153088 13.618373 -19.795525 30.114074 -0.643627 2.288095 0.055210 -0.008682 -31417.900000 0 0 1
-18.538788 14.641173 -20.706125 31.413281 -0.668465 2.290487 0.054162 -0.012387 302017.000000 0 0 1
-19.947788 14.830173 -20.680925 32.334949 -0.639296 2.264754 0.040826 -0.017084 420354.000000 0 0 1
-20.343288 16.150673 -21.421925 33.668865 -0.671014 2.260428 0.039257 -0.021486 -64763.600000 0 0 1
-20.257988 16.125173 -22.814225 34.509363 -0.672292 2.293084 0.048178 -0.026205 397511.000000 0 0 1
-20.796488 17.367873 -23.319225 35.748051 -0.695801 2.281440 0.030767 -0.016372 37096.800000 0 0 1
-20.763488 17.488073 -24.811725 36.777395 -0.699978 2.311281 0.020363 -0.011722 67807.400000 0 0 1
-19.472688 17.729173 -25.329205 36.538716 -0.738566 2.336737 0.020542 -0.012629 153364.000000 0 0 1
-19.256688 17.062973 -26.546855 36.968913 -0.725071 2.371844 0.012415 -0.019411 -260673.000000 0 0 1
-18.265488 17.814073 -27.471465 37.492007 -0.772887 2.393119 -0.002524 -0.014608 -35228.800000 0 0 1
-18.801688 18.984873 -28.075905 38.758035 -0.790246 2.380944 -0.009861 -0.023386 459640.000000 0 0 1
-18.317288 20.220273 -27.493615 38.733465 -0.834738 2.360033 -0.017550 -0.018622 -960822.000000 0 0 1
-19.187688 21.480573 -27.875405 40.082672 -0.841719 2.339839 0.020474 -0.010394 786863.000000 0 0 1
-20.203588 21.802273 -26.914295 40.098670 -0.823438 2.306625 0.034800 0.000277 640021.000000 0 0 1
-21.287988 20.878873 -26.875555 40.142262 -0.775696 2.304342 0.071377 -0.021068 -781119.000000 0 0 1
-22.266288 21.282673 -25.740145 40.140937 -0.762816 2.266915 0.063894 -0.004679 -159864.000000 0 0 1
-21.845488 20.995773 -24.452125 38.935257 -0.765567 2.249803 0.021439 0.005615 -212557.000000 0 0 1
-22.753188 21.494573 -23.497625 39.139016 -0.756961 2.214752 0.022760 -0.004414 -175408.000000 0 0 1
-22.439088 21.071273 -22.023125 37.848768 -0.753972 2.191824 0.018421 0.008525 -145721.000000 0 0 1
-21.317888 21.623873 -21.329425 37.107797 -0.792524 2.183152 0.017948 0.005224 8262.580000 0 0 1
-20.333288 20.644073 -21.171725 35.886798 -0.792982 2.201804 0.014368 0.005800 -545154.000000 0 0 1
-20.488588 19.875773 -19.823725 34.753541 -0.770217 2.177800 0.020378 -0.007455 -569751.000000 0 0 1
-21.529388 18.883373 -19.972625 34.914210 -0.720017 2.179798 0.037927 -0.011234 949041.000000 0 0 1
-22.259788 18.699773 -18.757825 34.598203 -0.698701 2.143804 0.037821 -0.008189 421879.000000 0 0 1
-23.264588 19.829573 -18.323125 35.639724 -0.705857 2.110779 0.013944 -0.002673 -826725.000000 0 0 1
-24.433788 19.832373 -19.086525 36.805277 -0.681821 2.115987 0.010391 -0.004541 -10997.500000 0 0 1
-25.297908 20.872173 -18.592225 37.700167 -0.689833 2.086515 0.011601 -0.006271 -418785.000000 0 0 1
-26.751898 20.775273 -19.106825 38.888903 -0.660303 2.084399 0.008380 0.005383 329195.000000 0 0 1
-27.567698 19.699673 -18.605625 38.655198 -0.620453 2.072959 0.013695 -0.004666 565455.000000 0 0 1
-27.840288 19.694873 -17.219325 38.203073 -0.615691 2.038381 0.001650 -0.013582 -907064.000000 0 0 1
-28.857838 18.569673 -16.981425 38.288070 -0.571784 2.030316 -0.007578 -0.007039 -529237.000000 0 0 1
-28.227088 17.343073 -16.875725 37.179843 -0.550950 2.041927 0.006469 -0.011579 280936.000000 0 0 1
-29.192908 16.342973 -16.565625 37.332808 -0.510356 2.030551 0.001892 -0.004727 296002.000000 0 0 1
-28.670318 15.126773 -15.795225 36.059610 -0.485492 2.024203 0.030082 -0.005610 -103479.000000 0 0 1
-28.064368 15.349373 -14.495525 35.118830 -0.500487 1.996275 0.029688 -0.003586 429421.000000 0 0 1
-28.962508 15.757173 -13.479325 35.620325 -0.498267 1.958881 0.007006 -0.006106 327185.000000 0 0 1
-28.185308 16.222273 -12.200125 34.733510 -0.522253 1.929702 0.009881 -0.006413 258493.000000 0 0 1
-27.509498 17.460073 -12.316225 34.832686 -0.565539 1.932194 0.005116 -0.002908 284750.000000 0 0 1
-28.315328 18.649773 -12.569325 36.160195 -0.582429 1.925808 -0.006511 -0.006498 36972.100000 0 0 1
-27.504738 19.957473 -12.588425 36.239202 -0.627702 1.925562 -0.004918 -0.010679 -90169.600000 0 0 1
-26.843288 20.349873 -11.412525 35.565786 -0.648664 1.897460 -0.008311 -0.021884 207594.000000 0 0 1
-25.887278 21.354273 -11.720825 35.546221 -0.689737 1.906819 -0.019212 -0.017450 636575.000000 0 0 1
-25.154868 22.144473 -10.580825 35.143974 -0.721838 1.876612 -0.018919 -0.007363 277175.000000 0 0 1
-26.020178 23.165473 -10.133625 36.281939 -0.727424 1.853864 -0.001201 -0.018304 205252.000000 0 0 1
-25.569138 24.529673 -10.289525 36.896612 -0.764653 1.853418 0.007185 -0.018916 27452.700000 0 0 1
-26.373948 25.351373 -9.291925 37.744100 -0.765631 1.819536 0.027110 0.000684 -96365.700000 0 0 1
-25.989218 25.100973 -7.964325 36.999037 -0.768014 1.787752 0.020189 0.001735 -159821.000000 0 0 1
-26.929538 25.546373 -7.033425 37.779442 -0.759046 1.758060 0.030729 -0.005127 -316073.000000 0 0 1
-26.869818 24.881573 -5.682125 37.058957 -0.746998 1.724730 0.034708 0.003164 -210790.000000 0 0 1
-27.109868 23.516873 -5.714225 36.340619 -0.714547 1.728692 0.025522 -0.002012 -165848.000000 0 0 1
-27.038588 22.913373 -4.424225 35.716686 -0.703001 1.694985 0.024629 -0.005304 -274685.000000 0 0 1
-27.202518 21.367873 -4.583425 34.893706 -0.665843 1.702531 0.007163 -0.005911 238094.000000 0 0 1
-26.198868 20.631673 -5.285825 33.763687 -0.667074 1.727997 0.004203 -0.010423 123072.000000 0 0 1
-26.098228 20.946373 -6.676225 34.123892 -0.676323 1.767713 0.001547 -0.007406 -1104730.000000 0 0 1
-26.974268 20.128873 -7.611425 34.506759 -0.641081 1.793203 0.003536 -0.015893 -443630.000000 0 0 1
-26.784688 18.743073 -7.466325 33.533092 -0.610570 1.795334 -0.012168 -0.008906 251927.000000 0 0 1
-26.979788 18.105673 -8.724425 33.642829 -0.591054 1.833120 -0.021819 -0.009161 -6870.960000 0 0 1
-26.566948 16.589973 -8.773525 32.526983 -0.558210 1.843910 0.000164 -0.002816 355862.000000 0 0 1
-27.598448 15.738873 -8.304225 32.838188 -0.518281 1.826455 -0.019195 -0.006331 268908.000000 0 0 1
-27.222168 14.404773 -8.564325 31.967039 -0.486699 1.842021 -0.001491 -0.008560 112868.000000 0 0 1
-27.918778 13.349973 -7.682125 31.885655 -0.446033 1.814118 -0.014906 -0.007447 -883994.000000 0 0 1
-29.275758 13.250373 -7.971925 33.108820 -0.425019 1.813965 0.002779 0.001327 -800139.000000 0 0 1
-29.825448 12.323573 -7.029225 33.027833 -0.391825 1.785264 0.009100 -0.005031 -189515.000000 0 0 1
-30.375718 10.948873 -7.456325 33.138479 -0.345952 1.797745 0.019028 -0.006424 -297116.000000 0 0 1
-29.410478 10.087373 -7.969725 32.097473 -0.330412 1.821719 0.026470 -0.000517 -65828.400000 0 0 1
-30.080958 8.943273 -8.448725 32.499648 -0.288984 1.833781 0.008318 0.010218 -547036.000000 0 0 1
-29.081328 7.899873 -8.863025 31.411540 -0.265247 1.856839 0.034013 0.005311 -309242.000000 0 0 1
-28.488638 8.184873 -10.140825 31.327798 -0.279768 1.900434 0.032835 0.002545 547522.000000 0 0 1
-27.568828 7.137973 -10.490425 30.348640 -0.253351 1.923742 0.054375 -0.009777 66379.500000 0 0 1
-26.969108 7.305873 -11.881725 30.362542 -0.264548 1.972871 0.049702 -0.006138 -247043.000000 0 0 1
-26.076608 8.382073 -12.050925 29.924462 -0.311009 1.985274 0.066717 -0.012945 343285.000000 0 0 1
-25.830148 8.708273 -13.422125 30.383943 -0.325169 2.028345 0.061096 -0.006154 -132845.000000 0 0 1
-31.291008 25.849373 34.259753 53.113538 -0.690452 0.869736 -0.008213 0.013387 -204395.000000 0 0 1
-31.303818 27.280673 34.268111 53.837418 -0.716833 0.880830 -0.011301 0.008536 305772.000000 0 0 1
-31.238428 27.782673 32.956948 53.234169 -0.726914 0.903208 -0.005050 0.003258 -241983.000000 0 0 1
-31.330708 29.334873 32.875356 54.064194 -0.752511 0.917156 0.010888 -0.002464 -19631.500000 0 0 1
-31.411308 29.793173 31.560317 53.575713 -0.758966 0.940878 0.022736 -0.002407 137713.000000 0 0 1
-31.543248 31.213073 31.527507 54.435430 -0.780137 0.953083 0.028728 -0.011871 -32846.300000 0 0 1
-31.335528 31.844673 30.129047 53.886529 -0.793457 0.977472 0.050248 -0.009194 1412370.000000 0 0 1
-30.020408 31.492973 29.597747 52.621848 -0.809333 0.973437 0.046976 -0.011329 1179610.000000 0 0 1
-29.892308 32.191773 28.406027 52.314077 -0.822419 0.996803 0.026165 -0.004557 799158.000000 0 0 1
-28.496618 32.170673 27.674367 51.116338 -0.845885 0.998695 0.036461 -0.006543 299341.000000 0 0 1
-28.275198 31.005673 26.884737 49.836007 -0.831426 1.000996 0.054057 -0.010011 -411525.000000 0 0 1
-26.984548 30.986273 26.368427 48.822217 -0.854319 1.000251 0.031915 -0.001167 -662013.000000 0 0 1
-26.797658 31.750073 25.016637 48.497564 -0.869785 1.028817 0.033397 -0.005941 -399337.000000 0 0 1
-27.019748 33.182973 25.157027 49.639223 -0.887417 1.039331 0.028460 -0.007902 366569.000000 0 0 1
-28.175848 33.642773 24.472967 50.245803 -0.873604 1.062070 0.033847 -0.007212 -54648.800000 0 0 1
-28.591118 -34.047442 24.928607 50.971715 0.872287 1.059776 0.047459 -0.008905 -290431.000000 0 0 1
-29.137288 -34.096342 26.210117 51.947207 0.863662 1.041932 0.050573 -0.018720 3150.160000 0 0 1
-28.988988 -32.901042 26.945377 51.467400 0.848524 1.019793 0.046319 -0.023213 -90954.700000 0 0 1
-29.491168 -32.969342 28.399947 52.566752 0.841027 1.000045 0.053165 -0.018750 159575.000000 0 0 1
-30.895068 -33.042942 28.563507 53.499674 0.818979 1.007589 0.057476 -0.021388 -35290.700000 0 0 1
-31.213568 -33.411242 29.893177 54.627831 0.819392 0.991763 0.049900 -0.019942 -194516.000000 0 0 1
-32.679628 -33.577542 30.292017 55.794405 0.798949 0.996883 0.062902 -0.021035 -199310.000000 0 0 1
-32.832628 -33.998442 31.666967 56.891759 0.802841 0.980487 0.050866 -0.017009 520163.000000 0 0 1
-34.225460 -33.957442 32.000827 57.866595 0.781467 0.984823 0.051088 -0.017345 770631.000000 0 0 1
-34.585481 -34.323142 33.488528 59.124572 0.781591 0.968658 0.041712 -0.004034 99583.400000 0 0 1
-34.255151 33.432873 33.828334 58.613382 -0.773251 0.955570 0.017689 -0.005126 183969.000000 0 0 1
-35.273224 32.860773 -34.268177 59.146755 -0.750006 2.188759 0.017841 0.002577 233145.000000 0 0 1
-34.942178 31.413973 -33.874265 57.924600 -0.732277 2.195429 0.002141 0.006100 436611.000000 0 0 1
-33.927218 31.451573 -32.880645 56.757328 -0.747550 2.188690 -0.007751 0.001131 -270605.000000 0 0 1
-33.348378 30.195773 -32.666575 55.596799 -0.735826 2.198839 -0.012126 0.009051 393398.000000 0 0 1
-32.352698 30.219873 -31.456365 54.308753 -0.751326 2.188560 -0.014886 0.007615 288380.000000 0 0 1
-32.986338 30.315073 -30.174615 54.014901 -0.743224 2.163535 -0.016677 0.005689 -251936.000000 0 0 1
-33.249908 31.603773 -29.660765 54.627061 -0.760021 2.144764 -0.021033 0.010799 -485722.000000 0 0 1
-34.227019 31.717773 -28.529315 54.693946 -0.747366 2.119542 -0.026361 0.013405 -454917.000000 0 0 1
-33.877318 31.073773 -27.305925 53.468360 -0.742261 2.106787 -0.035585 0.008271 18800.700000 0 0 1
-34.926645 31.108273 -26.312705 53.665199 -0.727639 2.083244 -0.013940 0.005860 223817.000000 0 0 1
-34.563523 30.923573 -24.839825 52.611038 -0.729873 2.062514 -0.007859 0.006456 -31528.400000 0 0 1
-34.041688 32.123573 -24.204525 52.693638 -0.756417 2.048053 -0.005004 0.005814 -224984.000000 0 0 1
-33.782788 32.072373 -22.848925 51.884364 -0.759432 2.026820 -0.004644 0.003488 -909892.000000 0 0 1
-34.984523 31.948673 -21.912425 52.199511 -0.740073 2.004002 -0.013546 0.003170 199598.000000 0 0 1
35.075418 33.181473 -21.729025 52.947574 0.757658 1.993675 -0.010883 -0.003071 332007.000000 0 0 1
-35.173115 34.161873 -20.937525 53.315678 -0.770814 1.974371 -0.000896 -0.006186 -208801.000000 0 0 1
-35.010391 33.902273 -19.354125 52.437331 -0.769320 1.948827 -0.000922 -0.001491 252752.000000 0 0 1
-34.108216 32.863973 -18.989225 51.029420 -0.766822 1.952092 -0.000689 -0.004558 -89613.600000 0 0 1
-34.084368 32.642973 -17.642125 50.384049 -0.763800 1.928531 0.003758 -0.000755 990973.000000 0 0 1
-32.843438 31.708573 -17.278825 48.812732 -0.767819 1.932622 -0.002902 0.010049 1081450.000000 0 0 1
-32.642578 31.595273 -15.874525 48.122756 -0.769096 1.906968 0.006195 0.008506 -250320.000000 0 0 1
-31.488468 30.850773 -15.563525 46.749514 -0.775169 1.910188 0.004197 0.009318 -284860.000000 0 0 1
-31.369258 30.609173 -14.037725 46.021837 -0.773135 1.880759 0.015343 0.002399 -393536.000000 0 0 1
-32.242798 29.656873 -13.473425 45.832972 -0.743646 1.869172 0.018450 -0.001351 99090.000000 0 0 1
-31.921538 29.492773 -12.119525 45.118634 -0.745872 1.842751 0.032932 -0.007128 -326197.000000 0 0 1
-32.834598 28.517373 -11.407225 44.960829 -0.715146 1.827315 0.030886 -0.008580 -313174.000000 0 0 1
-32.471528 28.295073 -10.077425 44.233084 -0.716777 1.800640 0.035952 -0.007257 331839.000000 0 0 1
-33.302608 27.292673 -9.462325 44.085023 -0.686540 1.787118 0.046939 -0.008852 -320849.000000 0 0 1
-32.492458 26.253873 -8.648525 42.659379 -0.679599 1.774946 0.034948 -0.007688 164781.000000 0 0 1
-31.948408 26.729073 -7.425725 42.311765 -0.696682 1.747210 0.028411 -0.010520 -222340.000000 0 0 1
-30.890138 27.617773 -7.528325 42.114340 -0.729526 1.750521 0.039039 -0.012109 -1219040.000000 0 0 1
-30.508008 28.183473 -6.109125 41.980568 -0.745813 1.716838 0.037069 -0.009289 -391214.000000 0 0 1
-29.707878 27.278373 -5.386825 40.690116 -0.742791 1.703573 0.040401 -0.008182 160916.000000 0 0 1
-29.595538 27.724673 -4.027225 40.752569 -0.752771 1.669779 0.040870 -0.003595 -256875.000000 0 0 1
-28.851488 26.821973 -3.085525 39.513884 -0.748960 1.648963 0.039464 -0.002441 -447405.000000 0 0 1
-29.615548 25.668473 -2.776325 39.289428 -0.714123 1.641519 0.022508 0.003460 1246.260000 0 0 1
-28.990268 24.651073 -1.987525 38.105922 -0.704681 1.622978 -0.002606 0.003541 -99767.900000 0 0 1
-29.964238 23.504573 -1.693525 38.120710 -0.665169 1.615236 -0.001258 -0.007306 -180373.000000 0 0 1
-29.994588 22.554273 -2.793025 37.632054 -0.644745 1.645084 -0.008637 0.001102 125274.000000 0 0 1
-31.019748 21.596473 -2.620825 37.888007 -0.608182 1.640025 0.006283 0.000616 -115367.000000 0 0 1
-31.315128 20.629173 -3.794825 37.690857 -0.582509 1.671650 0.002647 0.003569 -311752.000000 0 0 1
-30.256808 19.741973 -4.111225 36.360997 -0.578117 1.684106 -0.006601 0.001081 44294.200000 0 0 1
-30.472118 18.915873 -5.204025 36.241441 -0.555545 1.714888 0.004715 -0.003200 513124.000000 0 0 1
-29.298348 17.892073 -5.497125 34.766907 -0.548239 1.729576 0.006371 -0.001409 603185.000000 0 0 1
-29.375558 16.711673 -4.645625 34.114297 -0.517236 1.707399 -0.013461 -0.000677 969510.000000 0 0 1
-28.245768 15.935473 -5.090025 32.827900 -0.513659 1.726476 -0.007323 -0.004678 575167.000000 0 0 1
-27.861428 14.778573 -4.142525 31.809211 -0.487695 1.701398 -0.008671 -0.007527 236108.000000 0 0 1
-28.979018 13.911273 -3.928225 32.384223 -0.447558 1.692396 0.014593 -0.008066 621159.000000 0 0 1
-28.679528 12.812973 -3.137325 31.567870 -0.420159 1.670344 0.014532 -0.008015 253888.000000 0 0 1
-29.907008 11.942873 -2.693525 32.315885 -0.379932 1.654243 0.017673 -0.011719 135839.000000 0 0 1
-30.606978 11.277173 -3.717125 32.829540 -0.353017 1.684265 0.001797 -0.006062 26105.600000 0 0 1
-31.673518 10.556573 -3.199025 33.539331 -0.321715 1.666323 0.020468 -0.010428 -567359.000000 0 0 1
-32.721968 9.960673 -4.172325 34.457952 -0.295492 1.692179 0.009702 -0.006868 134754.000000 0 0 1
-32.350428 8.845873 -4.973325 33.904772 -0.266915 1.718013 0.015865 -0.009501 -20718.500000 0 0 1
-33.468548 8.434873 -5.702925 34.983055 -0.246883 1.734547 0.015604 0.000363 -78531.100000 0 0 1
-33.036508 7.482073 -6.895325 34.567872 -0.222722 1.771615 0.017224 -0.002740 55634.000000 0 0 1
-32.421178 6.266573 -6.389225 33.633687 -0.190932 1.761923 0.012234 0.000657 467632.000000 0 0 1
-32.198128 5.349973 -7.425325 33.473528 -0.164654 1.794484 0.014978 0.001813 -613217.000000 0 0 1
-31.044858 4.433273 -7.006325 32.132938 -0.141843 1.790604 0.024707 -0.002308 -449960.000000 0 0 1
-29.767008 5.032073 -7.088325 31.010335 -0.167465 1.801415 0.014908 -0.000554 -143851.000000 0 0 1
-28.895308 4.107673 -6.502725 29.901458 -0.141211 1.790020 0.008025 -0.002890 -241445.000000 0 0 1
-27.425358 4.508573 -6.249825 28.487502 -0.162937 1.791984 0.033017 -0.002117 263933.000000 0 0 1
-26.769558 4.914973 -7.443225 28.216445 -0.181581 1.837746 0.044439 -0.000874 -340829.000000 0 0 1
-25.397278 5.076673 -7.259725 26.897917 -0.197290 1.844085 0.062993 -0.008345 -601248.000000 0 0 1
-24.578488 5.374473 -8.514525 26.560952 -0.215277 1.897123 0.067663 -0.006318 -202113.000000 0 0 1
-24.669088 4.394073 -9.535425 26.810373 -0.176272 1.934418 0.071245 -0.019506 114668.000000 0 0 1
-23.787488 4.695873 -10.573925 26.451913 -0.194903 1.982031 0.075733 -0.020069 -344599.000000 0 0 1
-24.263788 4.002173 -11.875725 27.309003 -0.163472 2.020684 0.071844 -0.024529 -123976.000000 0 0 1
-25.219758 4.781373 -12.543825 28.570006 -0.187365 2.025344 0.065699 -0.011514 -69146.200000 0 0 1
-25.731998 4.105373 -13.676425 29.428462 -0.158210 2.054131 0.053231 -0.013245 48145.700000 0 0 1
-26.597838 5.028673 -14.574525 30.743280 -0.186858 2.064706 0.047303 -0.008710 -312908.000000 0 0 1
-25.875898 5.990573 -15.286825 30.645327 -0.227504 2.093045 0.037828 0.000294 35476.900000 0 0 1
-26.670358 6.712273 -16.188225 31.912712 -0.246555 2.102805 0.069683 -0.001346 -137986.000000 0 0 1
-27.348128 6.025973 -17.429025 32.984896 -0.216878 2.127504 0.027863 0.001531 -348249.000000 0 0 1
-28.530688 5.439773 -16.986225 33.647037 -0.188403 2.099988 0.032746 -0.007360 -772479.000000 0 0 1
-29.216618 4.872373 -18.089025 34.706823 -0.165246 2.119047 0.028656 0.002609 125145.000000 0 0 1
-30.554198 4.200573 -17.640725 35.530254 -0.136623 2.090357 0.034221 -0.001074 -63625.900000 0 0 1
-30.436858 3.114773 -16.764025 34.887486 -0.101981 2.072040 0.036562 -0.006238 213656.000000 0 0 1
-29.993998 1.936873 -17.441425 34.750463 -0.064486 2.096596 0.041735 -0.003944 -42671.000000 0 0 1
-29.958388 0.764373 -16.434025 34.178450 -0.025509 2.072397 0.036576 -0.007081 -431466.000000 0 0 1
-29.756948 -0.481327 -16.985825 34.266979 0.016174 2.089426 0.034847 0.001540 251973.000000 0 0 1
-29.906018 -1.499727 -16.015225 33.957422 0.050106 2.061931 0.042998 -0.009647 -76789.800000 0 0 1
-29.694408 -2.927327 -16.682125 34.185090 0.098264 2.080587 0.048552 -0.004860 -47230.800000 0 0 1
-30.611468 -3.124827 -17.746125 35.521141 0.101728 2.093926 0.038685 -0.006744 255927.000000 0 0 1
-30.317578 -4.279627 -18.545025 35.796490 0.140233 2.115387 0.047134 -0.003284 -694950.000000 0 0 1
-31.426868 -4.650527 -19.479625 37.265684 0.146913 2.120838 0.054650 -0.003564 -671598.000000 0 0 1
-31.239788 -5.863027 -20.099525 37.607052 0.185520 2.134667 0.047906 0.000962 193145.000000 0 0 1
-32.244778 -6.076627 -21.082325 39.001481 0.186268 2.141889 0.041993 -0.002502 -118104.000000 0 0 1
-32.032658 -7.358127 -21.946125 39.520445 0.225790 2.159533 0.045033 -0.005377 341645.000000 0 0 1
-30.839348 -7.281227 -22.734425 38.999176 0.231856 2.193146 0.039860 -0.003584 201908.000000 0 0 1
-30.886528 -8.106827 -23.861525 39.863149 0.256681 2.212531 0.029668 0.008633 -387958.000000 0 0 1
-29.566658 -8.310727 -24.614125 39.358742 0.274014 2.246413 0.023461 0.012421 -509188.000000 0 0 1
-29.024318 -7.141827 -25.232405 39.116377 0.241270 2.271898 0.016092 0.014343 90031.400000 0 0 1
-29.176108 -7.134327 -26.691055 40.181542 0.239820 2.297302 0.008210 0.021134 -415327.000000 0 0 1
-30.557888 -7.058927 -27.341225 41.607157 0.227020 2.287798 0.009934 0.017274 -450119.000000 0 0 1
-31.414578 -8.130727 -27.085845 42.268516 0.253263 2.266342 0.010917 0.011182 -812665.000000 0 0 1
-32.713608 -7.907527 -27.561575 43.501144 0.237170 2.256972 0.012166 0.016700 -132967.000000 0 0 1
-33.563498 -9.176727 -27.313495 44.235141 0.266891 2.236308 0.023958 0.005305 -529088.000000 0 0 1
-33.242768 -10.255427 -28.097275 44.718142 0.299238 2.250187 0.019165 0.002440 -260207.000000 0 0 1
-33.942698 -11.472527 -27.901345 45.411570 0.325942 2.232435 0.013736 0.002151 151187.000000 0 0 1
-35.290055 -11.552927 -28.682085 46.920359 0.316375 2.228490 0.013862 0.000799 358272.000000 0 0 1
34.578567 -10.608627 -28.281735 45.913797 -0.297682 2.234419 0.010477 0.003206 23760.900000 0 0 1
33.647587 -10.327527 -29.290025 45.789993 -0.297804 2.264852 0.017611 -0.005793 15061.300000 0 0 1
32.514077 -9.352227 -28.931185 44.515647 -0.280076 2.278263 0.014866 -0.001529 576904.000000 0 0 1
31.616437 -9.744927 -27.875955 43.262357 -0.298984 2.270965 0.009406 0.001232 817790.000000 0 0 1
30.498397 -8.870827 -27.709985 42.150766 -0.283052 2.288162 0.014910 -0.001679 619746.000000 0 0 1
29.416487 -9.440027 -26.772535 40.880465 -0.310528 2.284844 0.017046 0.002152 -114550.000000 0 0 1
29.949167 -9.562827 -25.497015 40.478365 -0.309070 2.252211 0.004305 0.009145 339118.000000 0 0 1
28.913657 -9.962427 -24.626425 39.264619 -0.331818 2.248738 -0.008149 0.007666 114638.000000 0 0 1
29.395687 -10.009927 -23.161725 38.739780 -0.328208 2.211650 -0.013300 0.005659 -163319.000000 0 0 1
30.474987 -10.862227 -22.938825 39.659835 -0.342392 2.187549 -0.016094 0.007427 -43469.000000 0 0 1
30.841607 -10.890327 -21.591025 39.191533 -0.339438 2.154251 -0.014329 0.007015 -144513.000000 0 0 1
31.627797 -12.103627 -21.064325 39.881338 -0.365495 2.127246 -0.004900 0.004115 -558803.000000 0 0 1
33.001937 -12.074727 -21.298925 41.092226 -0.350751 2.115682 0.004675 0.001940 -660559.000000 0 0 1
33.610567 -13.119727 -20.564025 41.529225 -0.372156 2.088827 0.017721 0.003035 616047.000000 0 0 1
35.122850 -13.259427 -20.963325 42.998697 -0.360974 2.080059 0.022000 -0.007234 606056.000000 0 0 1
-34.829043 -12.141727 -20.882525 42.385889 0.335435 2.085959 0.030260 -0.007961 543396.000000 0 0 1
-34.975474 -11.030327 -21.760225 42.643397 0.305500 2.106311 0.034537 0.003738 -777632.000000 0 0 1
-34.517792 -11.233327 -23.277725 43.122130 0.314626 2.141007 0.031961 0.000813 286993.000000 0 0 1
-35.215141 -12.182327 -24.090225 44.371772 0.333053 2.144704 0.027906 0.000975 357987.000000 0 0 1
34.300417 -11.866427 -24.449925 43.762193 -0.333067 2.163614 0.023604 0.001955 -38879.500000 0 0 1
33.682697 -12.897227 -25.424545 44.127882 -0.365682 2.184814 0.027370 -0.012781 -120264.000000 0 0 1
33.469217 -14.311827 -25.095835 44.213321 -0.404081 2.174394 0.026283 -0.021657 339822.000000 0 0 1
32.697477 -14.611227 -23.963125 43.091116 -0.420240 2.160487 0.019159 -0.011523 -295764.000000 0 0 1
-29.200708 9.122073 -19.411825 36.231374 -0.302787 2.136220 0.022179 -0.000151 466078.000000 0 0 1
-28.049818 8.324173 -19.679425 35.261365 -0.288485 2.162893 0.015764 -0.000896 -19193.400000 0 0 1
-27.087658 8.948573 -20.455725 35.103487 -0.319069 2.192876 0.030913 -0.011622 340046.000000 0 0 1
-25.826228 8.028573 -20.684125 34.048275 -0.301398 2.223698 0.027501 -0.001444 533645.000000 0 0 1
-24.709288 8.284173 -19.855125 32.762820 -0.323489 2.221852 0.035993 -0.009551 5714.430000 0 0 1
-23.762788 7.231373 -19.963525 31.866992 -0.295411 2.247805 0.042274 -0.007716 142961.000000 0 0 1
-22.378988 7.706773 -19.449425 30.634842 -0.331655 2.258649 0.051456 -0.011725 103659.000000 0 0 1
-21.764988 8.547373 -20.444225 31.060241 -0.374208 2.289238 0.062432 -0.013505 25676.900000 0 0 1
-20.640088 9.186473 -19.880925 30.094114 -0.418754 2.292447 0.050180 -0.003630 -255047.000000 0 0 1
-19.866788 10.088673 -20.834525 30.504885 -0.469881 2.322644 0.054639 -0.002676 -229639.000000 0 0 1
-19.393488 9.402273 -21.953925 30.764995 -0.451427 2.365421 0.055669 -0.006360 45597.500000 0 0 1
-18.528288 10.242773 -22.707925 31.046122 -0.505004 2.391206 0.060513 -0.005822 204638.000000 0 0 1
-17.649888 9.451773 -23.698925 31.024081 -0.491654 2.440113 0.052966 0.000306 201609.000000 0 0 1
-18.432688 8.738473 -24.620025 31.972965 -0.442693 2.449679 0.049014 -0.002188 -54624.300000 0 0 1
-17.520788 8.082573 -25.457655 31.943672 -0.432222 2.493033 0.036777 0.002817 114870.000000 0 0 1
-18.242288 7.121773 -26.463215 32.921155 -0.372202 2.504513 0.017654 0.005896 145931.000000 0 0 1
-18.754788 5.994273 -25.762015 32.424601 -0.309352 2.489014 0.028204 0.002830 -86867.700000 0 0 1
-19.499588 5.217773 -26.661535 33.440941 -0.261458 2.493559 0.021547 0.004615 -962742.000000 0 0 1
-19.964188 3.948573 -25.913515 32.949511 -0.195263 2.475855 0.021203 0.005091 -48795.400000 0 0 1
-18.990088 2.995373 -25.528615 31.957876 -0.156445 2.496129 0.021431 -0.000754 -81723.100000 0 0 1
-17.926788 3.368373 -24.707425 30.711114 -0.185731 2.505648 0.020541 -0.006024 -731881.000000 0 0 1
-16.982088 2.232973 -24.353825 29.773919 -0.130740 2.528649 0.020641 -0.007399 -385874.000000 0 0 1
-17.359388 1.384073 -23.283625 29.075611 -0.079562 2.499419 0.025818 -0.008792 562107.000000 0 0 1
-18.575988 0.626673 -23.372825 29.862166 -0.033723 2.469773 0.018912 -0.007360 365041.000000 0 0 1
-18.872488 -0.293727 -22.183425 29.126644 0.015563 2.436605 0.060109 -0.013771 -41016.600000 0 0 1
-17.948988 -1.318727 -21.927325 28.367460 0.073339 2.454313 0.055997 -0.015315 247420.000000 0 0 1
-18.396388 -1.892427 -20.679525 27.742587 0.102509 2.411942 0.072589 -0.018220 218602.000000 0 0 1
-17.881188 -3.342727 -20.496325 27.404562 0.184808 2.415714 0.043461 -0.029076 49878.400000 0 0 1
-18.375988 -4.186227 -21.524825 28.609780 0.223987 2.422432 0.045156 -0.031599 310383.000000 0 0 1
-18.473488 -5.514827 -21.093225 28.576340 0.290104 2.401100 0.051617 -0.023286 -134892.000000 0 0 1
-18.548688 -6.681327 -22.139225 29.645223 0.345737 2.414042 0.022244 -0.019997 -177862.000000 0 0 1
-17.283588 -6.793527 -22.733425 29.354438 0.374511 2.456635 0.031522 -0.015610 -156227.000000 0 0 1
-17.335688 -7.711827 -23.757325 30.404092 0.418565 2.467680 0.040576 -0.015864 -342014.000000 0 0 1
-16.008288 -7.749127 -24.486125 30.263585 0.450822 2.513407 0.041791 -0.017455 -1922550.000000 0 0 1
-15.973788 -8.280327 -25.845865 31.491815 0.478235 2.533461 0.033431 -0.025654 36332.200000 0 0 1
-14.745188 -8.554027 -26.506775 31.515092 0.525676 2.570077 0.055541 -0.025542 237578.000000 0 0 1
-13.703688 -9.374727 -25.708675 30.604126 0.599977 2.568152 0.061104 -0.029394 -800661.000000 0 0 1
-13.108888 -8.712927 -24.640225 29.238651 0.586611 2.573127 0.050134 -0.029721 -708778.000000 0 0 1
-12.287288 -9.594227 -23.981125 28.602814 0.662939 2.565171 0.028334 -0.025358 -654111.000000 0 0 1
-11.516588 -8.939127 -22.840625 27.096751 0.660057 2.573500 0.042835 -0.023857 -372626.000000 0 0 1
-12.248988 -8.610227 -21.694425 26.359472 0.612692 2.537507 0.029527 -0.021324 -34051.500000 0 0 1
-11.383888 -8.210127 -20.650225 24.968598 0.624817 2.544632 0.024765 -0.022302 -841296.000000 0 1 0
-12.013388 -8.067727 -19.260725 24.091186 0.591384 2.497246 0.011690 -0.021836 404803.000000 0 1 0
-12.934388 -6.962327 -19.091725 24.088718 0.493801 2.485790 0.010627 -0.021237 783805.000000 0 1 0
-14.240288 -7.115227 -19.630725 25.274050 0.463371 2.460229 0.023511 -0.031186 -290849.000000 0 0 1
-15.024188 -5.808327 -19.508725 25.299273 0.368900 2.451392 0.030745 -0.023505 -466606.000000 0 0 1
-15.176488 -5.524827 -18.139625 24.287764 0.349126 2.414128 0.022679 -0.019406 238723.000000 0 1 0
-14.984088 -4.152427 -17.761225 23.605649 0.270338 2.422516 0.025292 -0.024765 -592582.000000 0 1 0
-14.838188 -3.855827 -16.224725 22.322207 0.254235 2.384509 0.030737 -0.023361 724700.000000 0 1 0
-16.088088 -3.757327 -15.531625 22.675437 0.229435 2.325336 0.046718 -0.022829 807594.000000 0 1 0
-16.855688 -2.563327 -15.751925 23.212238 0.150919 2.316657 0.035192 -0.021942 154470.000000 0 1 0
-18.037088 -2.377727 -14.785625 23.443652 0.131069 2.253235 0.033270 -0.022713 -195813.000000 0 1 0
-17.590188 -2.248727 -13.458425 22.262091 0.127150 2.219990 0.032835 -0.030798 1167200.000000 0 1 0
-18.541588 -1.506627 -12.656025 22.499675 0.081079 2.168200 0.024422 -0.031026 494578.000000 0 1 0
-17.872688 -0.207527 -12.117625 21.594279 0.011611 2.166571 0.014837 -0.021224 209607.000000 0 1 0
-17.474888 0.642973 -13.230125 21.927638 -0.036778 2.218496 0.027886 -0.015947 583335.000000 0 1 0
-16.721988 1.773973 -12.802125 21.134480 -0.105691 2.221499 0.042406 -0.011379 -1168770.000000 0 1 0
-16.218088 2.624473 -13.997525 21.583441 -0.160433 2.276449 0.050922 0.000497 -70522.500000 0 1 0
-15.302888 2.066373 -14.897125 21.456295 -0.134220 2.338244 0.038590 -0.020550 283766.000000 0 1 0
-14.126388 1.510373 -14.315025 20.168193 -0.106514 2.359985 0.041402 -0.019434 -895366.000000 0 1 0
-13.490188 0.436473 -15.246225 20.362295 -0.032344 2.416967 0.030691 -0.024416 52694.800000 0 1 0
-12.947588 0.986473 -16.463025 20.967698 -0.076043 2.473753 0.028697 -0.024865 292443.000000 0 1 0
-12.560288 -0.060327 -17.316425 21.392126 0.004803 2.514056 0.007603 -0.015508 -44121.300000 0 1 0
-11.908988 0.468973 -18.632225 22.117950 -0.039359 2.572523 0.019782 -0.018401 -526097.000000 0 1 0
-10.690988 1.098073 -18.377125 21.289004 -0.102351 2.612413 0.005075 -0.008342 -785390.000000 0 1 0
-10.427988 2.060773 -19.306525 22.039320 -0.195105 2.638309 0.009271 -0.008534 -90574.600000 0 1 0
-8.992288 2.594273 -19.253125 21.407342 -0.280873 2.689123 -0.001935 -0.005156 -990137.000000 0 1 0
-7.980988 1.700273 -19.636125 21.264160 -0.209902 2.747740 -0.001160 0.000769 -220620.000000 0 1 0
-6.673888 2.164173 -19.374625 20.605837 -0.313576 2.794158 0.002903 0.001658 168501.000000 0 1 0
-6.187588 3.285773 -20.313525 21.487714 -0.488160 2.809479 0.012846 0.006861 -1211790.000000 0 1 0
-6.025888 2.900373 -21.662625 22.671409 -0.448591 2.842160 0.008653 0.007342 301398.000000 0 1 0
-5.749688 3.969173 -22.594925 23.650452 -0.604205 2.841705 0.002208 0.004901 -574088.000000 0 1 0
-5.235488 3.464373 -23.934925 24.744552 -0.584563 2.885080 0.013430 -0.006145 338006.000000 0 1 0
-3.877988 3.039673 -23.787925 24.292875 -0.664801 2.937346 0.022138 -0.014712 52012.600000 0 1 0
-3.500388 2.232973 -24.933525 25.276858 -0.567837 2.976585 0.040940 -0.019594 163306.000000 0 0 1
-2.059288 1.682173 -24.869225 25.010972 -0.684944 3.035077 0.034654 -0.019212 -940969.000000 0 0 1
-1.055488 2.675473 -24.906025 25.071543 -1.195036 3.026622 0.033397 -0.015294 1718320.000000 0 0 1
0.327712 2.202973 -25.031025 25.129916 1.423120 3.052848 0.041053 -0.014812 1726050.000000 0 0 1
0.801912 1.285873 -23.871525 23.919578 1.013181 3.078195 0.035994 -0.014245 -1567840.000000 0 1 0
0.292812 -0.029327 -23.875925 23.877738 -0.099824 3.129268 0.031006 -0.014660 -131461.000000 0 1 0
0.729912 -0.712227 -22.737925 22.760783 -0.773136 3.096771 0.030751 -0.012370 -666835.000000 0 1 0
0.365712 -2.224127 -22.692025 22.803694 -1.407825 3.042588 0.033546 -0.017098 -244417.000000 0 1 0
-0.802088 -2.555827 -21.989125 22.151686 1.266703 3.020369 0.028312 -0.018804 -724037.000000 0 1 0
-1.984888 -2.615727 -22.732025 22.967951 0.921669 2.998138 0.034603 -0.021277 -343670.000000 0 1 0
-2.828988 -1.324127 -22.789725 23.002783 0.437768 3.005382 0.038946 -0.021551 -2204780.000000 0 1 0
-3.420488 -1.116027 -21.564925 21.863011 0.315387 2.976273 0.029998 -0.018223 -358638.000000 0 1 0
-4.330988 -0.051927 -21.563825 21.994515 0.011989 2.943371 0.015309 -0.014229 -315494.000000 0 1 0
-5.615088 -0.244527 -22.360825 23.056355 0.043521 2.895343 0.023189 -0.005673 -1376850.000000 0 1 0
-6.373388 -1.379427 -21.913425 22.863094 0.213148 2.852359 0.023225 0.001834 151218.000000 0 1 0
-7.746588 -1.233427 -22.200025 23.545107 0.157897 2.801945 0.013412 0.009105 -128361.000000 0 1 0
-8.553788 -2.487227 -21.881625 23.625391 0.282972 2.754979 0.012399 -0.000579 -243651.000000 0 1 0
-8.441688 -3.590427 -22.732425 24.513596 0.402143 2.758036 0.030942 -0.004065 -54045.900000 0 1 0
-9.042988 -4.755027 -22.188125 24.427419 0.484093 2.710067 0.021247 -0.002907 199929.000000 0 1 0
-10.133888 -5.390227 -23.100225 25.794779 0.488842 2.680437 0.026851 -0.013123 1538720.000000 0 0 1
-11.493988 -4.934727 -22.836125 26.037509 0.405533 2.640477 0.016330 -0.018199 1466400.000000 0 0 1
-12.391288 -5.584927 -23.758525 27.371571 0.423448 2.621957 0.018734 -0.022036 -521897.000000 0 0 1
-13.847088 -5.248427 -23.550825 27.819583 0.362297 2.580277 0.001509 -0.023045 -1076240.000000 0 0 1
-14.172088 -3.891227 -23.809425 27.979965 0.267966 2.588579 0.015339 -0.024777 939342.000000 0 0 1
-15.604288 -3.707427 -23.884525 28.769938 0.233265 2.550245 0.032251 -0.024582 1260480.000000 0 0 1
-15.964488 -2.271827 -24.307025 29.169462 0.141356 2.555854 0.020002 -0.021194 -191956.000000 0 0 1
-15.450088 -2.039027 -25.639065 30.003741 0.131217 2.595440 0.015111 -0.014774 226032.000000 0 0 1
-15.875188 -0.776027 -26.112125 30.569051 0.048844 2.594809 0.001174 -0.015275 727641.000000 0 0 1
-17.378388 -0.705727 -26.612485 31.791992 0.040587 2.562723 0.011703 -0.013585 739509.000000 0 0 1
-17.699288 -1.397527 -27.793695 32.980408 0.078796 2.573137 0.014725 -0.020076 75593.800000 0 0 1
-17.183888 -0.731227 -28.933945 33.659974 0.042527 2.605273 0.004873 -0.010333 -342035.000000 0 0 1
-17.223188 -1.584727 -30.255565 34.850377 0.091753 2.622271 0.007746 -0.005520 783807.000000 0 0 1
-18.558888 -1.854727 -30.721435 35.939934 0.099607 2.595961 -0.000526 -0.004741 782517.000000 0 0 1
-18.605688 -2.306827 -32.078415 37.155319 0.123356 2.612687 0.005991 -0.008255 -598473.000000 0 0 1
-19.974788 -2.728327 -32.659875 38.381028 0.135749 2.588565 -0.017471 0.000761 676752.000000 0 0 1
-21.011288 -1.733227 -32.781305 38.975534 0.082304 2.570062 -0.014051 -0.005898 829325.000000 0 0 1
-21.605088 -1.255327 -31.586355 38.289078 0.058038 2.540900 -0.020067 0.006543 -241018.000000 0 0 1
-22.795188 -0.312727 -31.904275 39.212257 0.013718 2.521165 -0.009032 0.008309 -97006.300000 0 0 1
-22.286788 0.910173 -32.440595 39.369043 -0.040816 2.539254 -0.010382 0.001080 491811.000000 0 0 1
-23.273488 1.757973 -33.009175 40.427111 -0.075392 2.526138 -0.010223 0.003151 -94180.100000 0 0 1
-22.746788 3.130973 -33.546865 40.652324 -0.136785 2.541377 -0.008641 0.002245 -687234.000000 0 0 1
-22.308188 4.142373 -32.633375 39.746090 -0.183597 2.534038 -0.015655 -0.002613 784299.000000 0 0 1
-23.261588 4.893873 -31.841255 39.735588 -0.207360 2.500309 -0.014451 -0.003627 376809.000000 0 0 1
-24.382988 5.692773 -32.607795 41.112115 -0.229365 2.486749 -0.011285 -0.007360 437532.000000 0 0 1
-25.450728 4.861473 -33.055875 42.000766 -0.188741 2.476777 -0.012836 -0.020836 222969.000000 0 0 1
-26.350188 5.550073 -33.888215 43.284487 -0.207593 2.470139 -0.006590 -0.024915 -108349.000000 0 0 1
-27.637348 4.727673 -34.150914 44.186636 -0.169421 2.454162 0.009944 -0.017914 -329727.000000 0 0 1
-27.436628 3.537373 33.973831 43.812130 -0.128222 0.683379 0.006011 -0.015845 1475300.000000 0 0 1
-28.728538 2.980973 33.582193 44.294230 -0.103393 0.710307 0.006504 -0.011942 1217300.000000 0 0 1
-28.749398 1.471073 33.229917 43.964978 -0.051124 0.713880 0.008715 0.012948 -203301.000000 0 0 1
-28.656338 0.659673 34.401270 44.777988 -0.023016 0.694673 -0.006063 0.021524 181845.000000 0 0 1
-28.554628 -0.712427 34.184977 44.547581 0.024944 0.696049 -0.002636 0.016954 -710419.000000 0 0 1
-28.075548 -1.573527 -33.558255 43.782061 0.055988 2.444145 -0.050934 0.027084 244427.000000 0 0 1
-26.726388 -1.433827 -33.123635 42.585571 0.053597 2.461976 -0.039327 0.023302 667473.000000 0 0 1
-26.510658 -0.180827 -32.426375 41.884573 0.006821 2.456222 -0.031073 0.028235 -954780.000000 0 0 1
-26.764088 -0.220827 -30.896725 40.877534 0.008251 2.427727 -0.010963 0.025412 -563139.000000 0 0 1
-25.841558 -0.953427 -30.147925 39.718919 0.036878 2.432621 -0.012663 0.019565 109944.000000 0 0 1
-26.130378 -0.862927 -28.750615 38.860509 0.033012 2.403631 -0.006047 0.012584 -650459.000000 0 0 1
-25.086768 -1.387327 -27.771725 37.450491 0.055245 2.406187 0.000823 0.010237 -471685.000000 0 0 1
-25.215558 -2.758327 -27.537035 37.439565 0.108957 2.397210 -0.011050 0.014086 573788.000000 0 0 1
-24.161488 -3.122127 -26.640735 36.100608 0.128507 2.400836 0.010722 0.006000 -6697.620000 0 0 1
-24.346488 -4.503127 -25.923655 35.847810 0.182893 2.379161 0.008055 0.002577 -215323.000000 0 0 1
-25.545238 -4.413627 -25.206395 36.158009 0.171088 2.342166 0.006364 0.008180 -378215.000000 0 0 1
-25.692828 -5.492127 -24.336325 35.812589 0.210592 2.317941 0.002441 0.007308 -128560.000000 0 0 1
-26.920758 -5.424227 -23.433725 36.101093 0.198827 2.277215 0.015753 0.002320 -183733.000000 0 0 1
-26.843258 -6.374327 -22.412325 35.545813 0.233146 2.253019 0.024124 0.002664 29766.600000 0 0 1
-28.045108 -6.379127 -21.664625 36.008017 0.223654 2.216375 0.031453 0.007393 -351814.000000 0 0 1
-28.310778 -7.551127 -20.798025 35.931567 0.260655 2.188081 0.031796 0.001062 -437743.000000 0 0 1
-27.415638 -7.790027 -19.725025 34.660905 0.276849 2.176190 0.030558 0.000169 167135.000000 0 0 1
-27.881828 -8.830927 -18.863425 34.802448 0.306731 2.143629 0.036393 -0.002275 194357.000000 0 0 1
-28.855858 -8.428227 -17.739325 34.905289 0.284175 2.103905 0.044037 -0.011411 292340.000000 0 0 1
-28.108598 -7.770827 -16.714225 33.613157 0.269721 2.091225 0.045133 -0.013725 368694.000000 0 0 1
-28.846898 -6.876227 -15.937525 33.666463 0.234003 2.063937 0.052063 -0.013945 71064.500000 0 0 1
-27.909368 -6.074327 -14.986325 32.255545 0.214303 2.053993 0.045316 -0.014069 531052.000000 0 0 1
-27.187268 -4.992827 -15.542425 31.711872 0.181622 2.083017 0.033775 -0.010790 1300900.000000 0 0 1
-26.012478 -4.594427 -14.771925 30.264955 0.174821 2.080693 0.027174 -0.023001 1100810.000000 0 0 1
-13.648088 21.867073 -4.533425 26.172335 -1.012817 1.744889 0.026587 -0.002789 -226570.000000 0 0 1
-14.177288 21.305373 -5.699625 26.218316 -0.983649 1.789937 0.067958 -0.016036 219858.000000 0 0 1
-14.853888 20.052473 -5.470325 25.547291 -0.933241 1.786593 0.052313 -0.021005 171971.000000 0 0 1
-15.224788 19.197973 -6.726325 25.408655 -0.900313 1.838716 0.083096 -0.019251 88020.900000 0 0 1
-14.126388 18.748473 -7.536725 24.654863 -0.925079 1.881458 0.073235 -0.016140 129956.000000 0 1 0
-14.498688 17.926073 -8.618525 24.613716 -0.890710 1.928529 0.067087 -0.015477 -346511.000000 0 1 0
-15.096588 16.486973 -8.331825 23.856792 -0.829392 1.927560 0.062066 -0.004195 1343340.000000 0 1 0
-16.433388 16.581673 -7.774125 24.605794 -0.789890 1.892251 0.067123 0.011526 1021580.000000 0 1 0
-16.717888 15.565573 -6.828225 23.841130 -0.749720 1.861269 0.080158 0.006834 -1591390.000000 0 1 0
-18.157388 15.507273 -6.517525 24.751654 -0.706839 1.837255 0.074579 -0.005937 -1439920.000000 0 1 0
-19.055388 15.141973 -7.517525 25.473522 -0.671458 1.870368 0.077698 0.002324 1421940.000000 0 0 1
-20.442288 15.590873 -7.410825 26.755986 -0.651565 1.851444 0.042519 -0.000378 1774020.000000 0 0 1
-21.372588 14.819973 -8.395125 27.329420 -0.606290 1.883027 0.044841 0.008937 -46431.100000 0 0 1
-21.559188 13.508773 -7.931225 26.649387 -0.559742 1.872989 0.068548 0.003550 171919.000000 0 0 1
-22.188788 12.712173 -8.964625 27.098084 -0.520262 1.907970 0.065907 0.005093 274054.000000 0 0 1
-22.610688 11.369273 -8.356625 26.652143 -0.465907 1.889719 0.052287 -0.004069 -615642.000000 0 0 1
-21.565288 10.446673 -8.210625 25.330001 -0.451107 1.900905 0.063161 -0.001702 -208409.000000 0 0 1
-21.915188 9.358373 -7.362525 24.941158 -0.403586 1.870457 0.067081 -0.009154 -297386.000000 0 1 0
-20.741488 8.416373 -7.116525 23.488073 -0.385475 1.878619 0.049576 -0.001009 -492934.000000 0 1 0
-20.525888 7.267373 -7.973125 23.188305 -0.340286 1.921802 0.051655 -0.000476 492926.000000 0 1 0
-19.406588 6.503873 -7.541125 21.812487 -0.323373 1.923808 0.034468 0.005582 -9404.490000 0 1 0
-19.175188 5.361173 -8.521925 21.657636 -0.272628 1.975214 0.022377 -0.011668 -865444.000000 0 1 0
-20.196288 4.430673 -8.600625 22.394009 -0.215959 1.964985 0.033136 -0.005595 -228842.000000 0 1 0
-20.020888 3.424873 -9.602925 22.467351 -0.169425 2.012430 0.024639 -0.009838 -160097.000000 0 1 0
-21.098288 2.297373 -9.493825 23.249696 -0.108462 1.991433 0.031966 -0.013491 235003.000000 0 1 0
-20.876588 1.425573 -8.369725 22.537002 -0.068180 1.951288 0.041672 -0.016930 781547.000000 0 1 0
-21.827688 0.326873 -8.234625 23.331606 -0.014974 1.931506 0.047041 -0.010936 157367.000000 0 1 0
-21.656388 -0.870227 -9.250225 23.565294 0.040162 1.974184 0.025019 -0.020306 229760.000000 0 1 0
-20.455188 -1.576627 -8.907325 22.366066 0.076925 1.980406 0.013277 -0.015753 821037.000000 0 1 0
-20.509988 -2.947727 -9.192525 22.668286 0.142744 1.988348 0.001902 -0.016725 281264.000000 0 1 0
-21.565688 -3.837327 -8.404725 23.461529 0.176094 1.937172 0.013278 -0.011547 500824.000000 0 1 0
-21.244088 -4.060627 -7.054225 22.749990 0.188863 1.886069 0.002204 -0.005026 -14206.100000 0 1 0
-22.118688 -4.964227 -6.438425 23.565509 0.220777 1.847529 0.004253 -0.001173 -674029.000000 0 1 0
-22.104388 -6.438727 -6.956125 24.050963 0.283444 1.864213 -0.001470 -0.001035 -403924.000000 0 1 0
-21.095888 -7.322727 -6.529425 23.265687 0.334104 1.855264 -0.001251 0.001573 314312.000000 0 1 0
-21.201488 -8.568527 -7.182625 23.968997 0.384077 1.875136 0.001788 0.006072 -388211.000000 0 1 0
-20.284988 -9.613427 -6.529925 23.378166 0.442565 1.853879 0.009186 0.006937 1162110.000000 0 1 0
-18.851888 -9.442027 -6.724625 22.130660 0.464330 1.879538 -0.006140 0.000028 1411050.000000 0 1 0
-18.146588 -10.251127 -5.819225 21.639030 0.514216 1.843071 0.017336 0.000185 -182364.000000 0 1 0
-17.570288 -11.605727 -6.362525 21.997492 0.583743 1.864228 0.015671 0.002515 801874.000000 0 1 0
-16.420088 -11.623627 -7.272725 21.392067 0.616002 1.917685 0.013199 -0.001240 1575820.000000 0 1 0
-16.612088 -10.901027 -8.497125 21.610067 0.580729 1.974908 0.006202 -0.006239 -903430.000000 0 1 0
-15.515988 -11.124627 -9.509125 21.329010 0.622030 2.032898 0.007462 -0.008151 -226869.000000 0 1 0
-15.769988 -12.306427 -10.291525 22.495692 0.662656 2.045965 0.017415 -0.002747 -1041990.000000 0 1 0
-14.651388 -12.762127 -10.897025 22.277347 0.716590 2.081914 0.017077 0.002657 -1095180.000000 0 1 0
-14.940788 -14.057827 -11.791625 23.662038 0.754959 2.092474 0.029878 0.004692 -72799.900000 0 1 0
-15.519788 -13.795727 -13.050625 24.525593 0.726655 2.131902 0.013167 0.007675 -98577.500000 0 1 0
-15.916888 -15.033527 -13.590525 25.769296 0.756865 2.126325 0.013743 0.013219 -113547.000000 0 0 1
-16.329888 -15.011127 -15.063125 26.812253 0.743345 2.167356 0.025023 0.017079 -69129.800000 0 0 1
-16.577488 -16.297727 -15.624625 28.009961 0.776889 2.162558 0.023085 0.020122 358163.000000 0 0 1
-16.784488 -16.305227 -17.038225 28.946167 0.770916 2.200144 0.019569 0.017031 -255059.000000 0 0 1
-16.935888 -17.698127 -17.709125 30.226828 0.807403 2.196755 0.017473 0.009320 452437.000000 0 0 1
-18.167588 -18.426027 -17.632825 31.312876 0.792460 2.168950 0.012998 0.011256 254023.000000 0 0 1
-19.006288 -18.328227 -18.757925 32.388619 0.767238 2.188484 0.018040 0.009590 342562.000000 0 0 1
-20.501488 -18.272927 -18.335625 33.021296 0.727986 2.159480 0.014295 0.005027 170796.000000 0 0 1
-20.830888 -17.045027 -17.696825 32.212365 0.685775 2.152418 0.018073 0.016624 182055.000000 0 0 1
-21.067088 -17.178127 -16.302425 31.696676 0.684062 2.111018 0.013308 0.013089 -218219.000000 0 0 1
-20.871288 -15.852127 -15.547725 30.473469 0.649565 2.106220 0.013599 0.010326 -473937.000000 0 0 1
-21.951388 -14.986527 -15.551025 30.794379 0.599030 2.100173 0.030302 0.007514 20131.400000 0 0 1
-21.535188 -13.708227 -14.990425 29.603929 0.566862 2.101762 0.029622 0.004467 -78979.600000 0 0 1
-22.761788 -12.821827 -14.707425 29.980103 0.513001 2.083543 0.038856 -0.004077 -192901.000000 0 0 1
-23.496288 -13.325227 -13.626425 30.254201 0.515892 2.038007 0.054254 -0.000516 -117457.000000 0 0 1
-24.491888 -12.428427 -13.234425 30.487184 0.469590 2.019833 0.080080 -0.008570 -459452.000000 0 0 1
-25.042488 -12.807827 -11.838025 30.517298 0.472761 1.969161 0.070770 -0.013706 -738308.000000 0 0 1
-26.118408 -11.989427 -11.557525 30.975700 0.430347 1.953161 0.060295 -0.022605 -363185.000000 0 0 1
-26.863338 -12.485827 -10.456125 31.414413 0.435085 1.910115 0.057047 -0.015811 248693.000000 0 0 1
-27.805928 -11.437627 -9.773525 31.615039 0.390242 1.885087 0.062974 -0.020635 579308.000000 0 0 1
-27.071548 -10.475927 -9.036825 30.401940 0.369225 1.872602 0.059779 -0.022149 934440.000000 0 0 1
-28.025088 -9.657227 -8.295025 30.781082 0.331849 1.843654 0.064180 -0.026061 1056390.000000 0 0 1
-27.312078 -8.523327 -7.498425 29.577408 0.302495 1.827112 0.054888 -0.019495 335723.000000 0 0 1
-26.295558 -8.890227 -6.553425 28.520867 0.326024 1.802644 0.029437 -0.015386 599833.000000 0 0 1
-25.523518 -7.821627 -6.007825 27.362781 0.297362 1.792162 0.020894 -0.007883 286685.000000 0 0 1
-26.265518 -6.734627 -5.103725 27.591314 0.250998 1.756844 0.037726 -0.012589 -75287.900000 0 0 1
-26.962478 -7.252527 -3.965625 28.201073 0.262766 1.711884 0.029420 -0.012639 540724.000000 0 0 1
-26.198578 -7.366927 -2.746325 27.352868 0.274117 1.671369 0.047037 -0.003964 41069.800000 0 0 1
-25.877328 -5.990527 -2.121125 26.646232 0.227490 1.650484 0.037482 0.000686 314506.000000 0 0 1
-26.984388 -5.313927 -1.541725 27.545815 0.194438 1.626795 0.033625 -0.010238 462674.000000 0 0 1
-26.471158 -4.132327 -0.901425 26.806919 0.154857 1.604429 0.011892 -0.001090 -138504.000000 0 0 1
-27.504938 -3.187527 -0.237525 27.690041 0.115375 1.579374 0.010688 -0.005100 -213267.000000 0 0 1
-28.229398 -3.737827 0.825975 28.487760 0.131643 1.541798 0.012112 -0.006590 -1740.450000 0 0 1
-27.531018 -3.739027 2.037175 27.858344 0.134986 1.497605 0.002694 0.000111 231040.000000 0 0 1
-28.557548 -3.985027 3.193175 29.010521 0.138648 1.460503 -0.001743 0.001853 377784.000000 0 0 1
-29.117468 -5.280327 3.167375 29.761402 0.179396 1.464169 0.006812 -0.001289 -247108.000000 0 0 1
-30.032128 -5.362227 4.236675 30.799864 0.176688 1.432804 0.015503 -0.006162 -597035.000000 0 0 1
-30.886338 -6.605427 4.194175 31.862025 0.210689 1.438778 0.015507 -0.003469 -772638.000000 0 0 1
-30.186158 -7.790927 4.406775 31.485272 0.252584 1.430372 0.020905 -0.004949 -58467.900000 0 0 1
-30.897398 -8.972727 3.924275 32.412327 0.282630 1.449425 0.033519 -0.013076 -140742.000000 0 0 1
-30.243668 -10.332227 4.113775 32.223555 0.329201 1.442783 0.021843 -0.004427 -257461.000000 0 0 1
-30.213288 -10.711727 5.477775 32.520607 0.340711 1.401549 0.022555 0.000745 255486.000000 0 0 1
-29.049128 -11.440027 5.831475 31.760544 0.375164 1.386141 0.026801 0.003286 -94891.400000 0 0 1
-28.951188 -11.843027 7.260475 32.111416 0.388300 1.342722 0.025532 -0.010677 -134204.000000 0 0 1
-28.711278 -10.779527 8.149275 31.732418 0.359161 1.311074 0.036848 -0.015308 274254.000000 0 0 1
-28.717108 -11.226627 9.471875 32.255633 0.372671 1.272753 0.035982 -0.018176 -174319.000000 0 0 1
-28.784378 -10.156727 10.537775 32.291550 0.339216 1.238376 0.031303 -0.017655 -15522.100000 0 0 1
-27.722968 -9.220327 10.430475 31.022124 0.321080 1.227889 0.029961 -0.012545 356915.000000 0 0 1
-27.743258 -8.375927 11.566175 31.202899 0.293207 1.191059 0.032236 -0.010700 31532.700000 0 0 1
-26.630088 -7.297027 11.487975 29.906216 0.267450 1.176527 0.036949 -0.001395 89126.600000 0 0 1
-26.975798 -6.257927 10.521575 29.623620 0.227951 1.207695 0.032359 -0.003820 307704.000000 0 0 1
-26.091318 -5.183027 10.676575 28.663738 0.196097 1.189120 0.027755 -0.007339 -464695.000000 0 0 1
-26.427878 -4.146927 9.571075 28.411885 0.155646 1.227207 0.028501 -0.015895 15721.000000 0 0 1
-25.980868 -4.597027 8.310975 27.662438 0.175126 1.265640 0.015218 -0.006514 609065.000000 0 0 1
-26.595768 -3.869327 7.236875 27.833054 0.144473 1.307764 0.006120 -0.018561 229748.000000 0 0 1
-25.851298 -4.400427 5.958075 26.891486 0.168605 1.347382 0.007924 -0.007021 -829110.000000 0 0 1
-24.545088 -3.942427 6.000975 25.573732 0.159260 1.333934 0.033908 -0.018310 -824313.000000 0 0 1
-23.972888 -4.387627 4.804775 24.840219 0.181021 1.376142 0.055817 -0.011394 -219756.000000 0 1 0
-22.465688 -4.035327 4.746375 23.313495 0.177727 1.365774 0.065420 -0.014490 91261.400000 0 1 0
-22.199388 -2.638527 4.534175 22.810817 0.118301 1.370691 0.045370 -0.008808 30095.500000 0 1 0
-20.829088 -2.400727 4.309575 21.405299 0.114752 1.368079 0.032547 -0.000816 -416109.000000 0 1 0
-20.368988 -0.956827 4.586475 20.900884 0.046940 1.349557 0.015727 -0.008317 -681425.000000 0 1 0
-20.710588 0.039573 3.621975 21.024955 -0.001911 1.397662 0.029237 0.000006 161667.000000 0 1 0
-21.876388 0.737973 3.930875 22.238991 -0.033721 1.393107 0.021633 -0.018433 -425976.000000 0 1 0
-22.240988 1.992673 3.031675 22.534936 -0.089356 1.435855 0.060419 -0.010022 -108135.000000 0 1 0
-21.471988 3.119573 3.467075 21.972679 -0.144276 1.412344 0.025737 -0.010872 634583.000000 0 1 0
-21.619288 4.141673 2.550875 22.159739 -0.189280 1.455428 0.039012 -0.002107 484030.000000 0 1 0
-20.452688 4.225573 1.506275 20.938882 -0.203736 1.498797 0.028978 0.000628 90508.500000 0 1 0
-20.708188 5.219573 0.434375 21.360282 -0.246911 1.550459 0.042677 0.000579 899209.000000 0 1 0
-21.749188 4.856873 -0.494725 22.290382 -0.219708 1.592993 0.062718 -0.001495 216722.000000 0 1 0
-21.372088 3.832273 -1.567225 21.769443 -0.177426 1.642851 0.068083 0.001350 -247359.000000 0 1 0
-21.119388 2.589773 -0.908525 21.296969 -0.122016 1.613469 0.037432 0.003720 259475.000000 0 1 0
-20.782888 1.500273 -1.761525 20.911294 -0.072063 1.655134 0.040507 0.000949 115777.000000 0 1 0
-19.882988 0.452973 -1.004625 19.913504 -0.022778 1.621267 0.030364 -0.001293 -80871.800000 0 1 0
-20.628088 -0.424527 -0.169425 20.633151 0.020577 1.579008 0.034859 -0.000108 619021.000000 0 1 0
-19.877588 -1.179927 0.783075 19.927968 0.059290 1.531491 0.027598 -0.002531 -654166.000000 0 1 0
-19.096988 -2.330827 0.180675 19.239551 0.121451 1.561405 0.017478 -0.004221 -306362.000000 0 1 0
-18.369888 -3.041527 1.177175 18.657154 0.164083 1.507659 0.021687 -0.002268 722354.000000 0 1 0
-17.708388 -4.253227 0.757475 18.227745 0.235717 1.529228 0.013188 -0.002105 195933.000000 0 1 0
-18.679788 -5.448227 0.533875 19.465422 0.283792 1.543366 0.019335 -0.000248 212807.000000 0 1 0
-19.251688 -5.942627 1.734475 20.222530 0.299402 1.484921 0.039824 -0.008846 534004.000000 0 1 0
-20.124888 -7.038227 1.547275 21.376197 0.336432 1.498350 0.018249 -0.006302 -362597.000000 0 1 0
-20.885088 -7.486927 2.766875 22.358367 0.344211 1.446727 0.027531 -0.005204 -559162.000000 0 1 0
-20.155188 -8.324127 3.636575 22.107631 0.391664 1.405551 0.031625 -0.004597 726657.000000 0 1 0
-20.873088 -8.740727 4.819175 23.136779 0.396570 1.360969 0.033262 -0.005347 -72085.600000 0 1 0
-19.951688 -9.588727 5.640875 22.843664 0.448005 1.321281 0.020323 0.000610 -464917.000000 0 1 0
-19.526788 -10.804527 5.104575 22.893011 0.505387 1.345931 0.019145 0.000165 259133.000000 0 1 0
-18.471388 -11.305327 5.908075 22.447894 0.549229 1.304468 0.011128 -0.000479 100409.000000 0 1 0
-17.983688 -12.657227 5.304775 22.622092 0.613283 1.334097 0.012657 -0.001090 673991.000000 0 1 0
-19.014888 -13.641427 5.472175 24.033293 0.622314 1.341090 0.025678 0.001965 625043.000000 0 1 0
-18.421388 -14.822627 4.995375 24.166331 0.677565 1.362587 0.021088 0.001585 415774.000000 0 1 0
-19.085588 -16.153527 5.516175 25.605161 0.702385 1.353662 0.025441 -0.001930 -168933.000000 0 0 1
-18.327188 -17.270127 5.106475 25.694731 0.755712 1.370728 0.017340 -0.000849 95424.300000 0 0 1
-18.776188 -18.447927 5.687275 26.929841 0.776580 1.358006 0.017971 -0.001711 -383148.000000 0 0 1
-17.832888 -19.659727 5.530175 27.112720 0.834085 1.365385 0.017100 -0.001978 -636103.000000 0 0 1
-17.716988 -20.052027 4.187575 27.083413 0.847144 1.415556 0.020677 -0.002197 -25433.300000 0 0 1
-16.986988 -21.218127 4.042875 27.479292 0.895697 1.423136 0.015630 -0.002890 836922.000000 0 0 1
-15.416888 -21.117527 4.165775 26.476104 0.940185 1.412799 0.015845 0.001959 717944.000000 0 0 1
-14.786888 -22.415327 4.134075 27.169643 0.987648 1.418045 0.013289 0.006957 564201.000000 0 0 1
-13.364588 -22.231327 4.212775 26.279109 1.029524 1.409793 0.007497 0.009879 447473.000000 0 0 1
-12.715588 -23.581227 4.308975 27.135359 1.076263 1.411326 0.014761 0.014055 -580988.000000 0 0 1
-12.987988 -24.418427 3.180775 27.839985 1.081961 1.456294 0.013521 0.016267 -39388.500000 0 0 1
-12.181988 -25.540747 3.266675 28.485115 1.125748 1.455863 0.016519 0.006608 -416615.000000 0 0 1
18.374212 19.769273 -24.640725 36.545877 0.821956 2.310733 0.041805 0.003353 -552773.000000 0 0 1
17.409612 19.999673 -25.607585 36.862310 0.854524 2.338774 0.033815 -0.002442 -680858.000000 0 0 1
17.821912 19.786173 -26.938545 37.878733 0.837580 2.361970 0.042321 0.002039 -699909.000000 0 0 1
16.746512 19.874673 -28.009375 38.209598 0.870611 2.393585 0.038410 -0.002427 -460289.000000 0 0 1
16.453612 21.190073 -28.400285 39.068104 0.910564 2.384656 0.040308 0.009462 -443244.000000 0 0 1
15.474912 21.314473 -29.351345 39.437052 0.942814 2.410220 0.032235 0.008647 -668652.000000 0 0 1
15.207112 22.774973 -29.749345 40.434876 0.982071 2.397547 0.036016 0.007759 -207877.000000 0 0 1
14.506912 23.474573 -28.731165 39.836992 1.017258 2.376356 0.043871 0.002348 210598.000000 0 0 1
14.240012 24.759473 -29.192425 40.841243 1.048861 2.367103 0.041392 0.005568 170188.000000 0 0 1
13.312212 25.528573 -28.197165 40.298922 1.090126 2.345774 0.037506 0.001943 681004.000000 0 0 1
11.947812 25.124773 -28.086715 39.533125 1.126908 2.360948 0.038679 0.002004 522352.000000 0 0 1
11.356612 26.025973 -27.134935 39.276311 1.159346 2.333492 0.033081 0.005100 -1537340.000000 0 0 1
9.940512 25.795773 -26.695895 38.430541 1.202979 2.338734 0.032370 0.006797 -708106.000000 0 0 1
9.398412 26.765373 -25.789655 38.338253 1.233106 2.308631 0.033105 -0.004505 140964.000000 0 0 1
9.156212 28.043473 -26.366905 39.566226 1.255208 2.300165 0.038635 -0.002711 -750216.000000 0 0 1
8.645812 29.025773 -25.269285 39.443406 1.281298 2.266136 0.043617 -0.005125 92058.900000 0 0 1
9.649112 29.486573 -24.378425 39.457204 1.254542 2.236795 0.044950 -0.001955 285266.000000 0 0 1
9.031512 30.146273 -23.276525 39.142848 1.279716 2.207634 0.064095 -0.011557 -236897.000000 0 0 1
10.119312 30.551573 -22.312925 39.162044 1.250948 2.177009 0.046150 -0.005127 239382.000000 0 0 1
11.111512 31.464973 -22.817425 40.424561 1.231328 2.170557 0.033371 -0.006440 613253.000000 0 0 1
11.982712 31.889973 -21.797225 40.443476 1.211367 2.139993 0.019884 0.002106 475739.000000 0 0 1
13.302812 32.638673 -22.174625 41.640866 1.183774 2.132372 0.007915 0.018572 414061.000000 0 0 1
14.242712 31.803673 -22.766525 41.625030 1.149747 2.149505 0.005858 0.012723 -579064.000000 0 0 1
15.329212 32.453173 -23.370525 42.829600 1.129513 2.147976 0.007658 0.016010 633337.000000 0 0 1
16.567612 31.510673 -23.635625 42.732318 1.086740 2.156888 -0.003100 0.016578 288174.000000 0 0 1
17.288812 31.230373 -22.504925 42.198470 1.065201 2.133307 0.011152 0.017177 -773118.000000 0 0 1
18.432612 30.531573 -22.890525 42.378229 1.027644 2.141410 0.018516 0.009457 -455392.000000 0 0 1
19.322212 29.974173 -21.780325 41.787336 0.998206 2.119074 0.021534 0.015465 -194959.000000 0 0 1
20.145512 30.849073 -21.064025 42.440548 0.992291 2.090149 0.023383 0.025855 -44744.000000 0 0 1
21.098212 30.081773 -20.363225 42.008434 0.959157 2.076864 0.024917 0.010059 220259.000000 0 0 1
21.809512 30.785973 -19.145825 42.308315 0.954439 2.040398 0.028845 0.010242 473863.000000 0 0 1
22.815512 31.743573 -19.526825 43.697813 0.947601 2.034049 0.018927 0.016369 694636.000000 0 0 1
23.389212 32.333373 -18.331325 43.915142 0.944553 2.001407 0.032374 0.018794 -190401.000000 0 0 1
24.627112 33.190573 -18.591225 45.318235 0.932441 1.993510 0.030135 0.020476 232806.000000 0 0 1
25.692912 32.440773 -19.166625 45.605800 0.900956 2.004536 0.034034 0.020619 -339017.000000 0 0 1
26.944812 33.047373 -18.984325 46.675008 0.886772 1.989673 0.025558 0.021499 -40221.500000 0 0 1
28.117312 32.214473 -19.503625 46.997307 0.853205 1.998733 0.021307 0.014225 -208728.000000 0 0 1
28.335412 31.014473 -18.727625 45.994750 0.830508 1.990148 0.027846 0.014731 23791.600000 0 0 1
29.555512 30.381173 -19.081125 46.482613 0.799173 1.993799 0.016564 0.003525 208772.000000 0 0 1
29.972612 29.266173 -18.101525 45.634763 0.773473 1.978673 0.008131 -0.001290 -172666.000000 0 0 1
30.382012 29.812373 -16.871125 45.787325 0.775935 1.948156 0.002588 0.010448 3402.980000 0 0 1
30.540012 28.797173 -15.933025 44.898004 0.756035 1.933573 0.004195 0.000026 -301955.000000 0 0 1
31.130312 29.377273 -14.599925 45.224753 0.756434 1.899515 0.004056 0.001169 -240031.000000 0 0 1
32.404012 29.955573 -14.600025 46.481363 0.746155 1.890310 -0.007796 0.009804 -432142.000000 0 0 1
32.378812 31.326473 -14.872425 47.443908 0.768881 1.889645 0.006431 0.006595 -1507430.000000 0 0 1
33.772512 31.826873 -14.910825 48.742847 0.755747 1.881688 0.007882 0.001639 -1301040.000000 0 0 1
34.420312 31.723673 -13.662625 48.762861 0.744651 1.854783 0.012870 -0.002309 643814.000000 0 0 1
-35.117622 32.327973 -13.797525 49.686184 -0.744060 1.852189 0.014651 -0.008554 723305.000000 0 0 1
-34.424722 32.531373 -12.469825 48.978038 -0.757128 1.828231 0.013786 -0.000753 -363895.000000 0 0 1
-34.944722 33.604973 -11.719025 49.877483 -0.765856 1.807970 0.025240 -0.011637 72532.000000 0 0 1
-34.001722 33.998273 -10.771425 49.274976 -0.785347 1.791174 0.013185 -0.006161 23756.800000 0 0 1
-34.426222 -33.776142 -10.068325 49.268283 0.775867 1.776603 0.017309 -0.002446 245924.000000 0 0 1
-33.405322 -33.433242 -9.138225 48.137349 0.785816 1.761792 0.017154 -0.003375 119062.000000 0 0 1
-33.358122 -34.142042 -7.919725 48.385590 0.797011 1.735216 0.016201 -0.006287 97318.900000 0 0 1
-32.974722 -33.184742 -6.719725 47.262184 0.788573 1.713460 0.029313 0.000373 -341403.000000 0 0 1
-34.047522 -32.357842 -6.386125 47.403020 0.759959 1.705927 0.014054 0.002253 -482573.000000 0 0 1
-33.733422 -31.331542 -5.486625 46.364990 0.748500 1.689410 0.019888 0.008826 -1051530.000000 0 0 1
-34.895622 -30.441742 -5.187025 46.597310 0.717336 1.682343 0.012605 0.012160 -1287320.000000 0 0 1
34.970312 -31.207842 -4.528725 47.088868 -0.728606 1.667119 0.007155 0.001697 -27957.000000 0 0 1
33.711212 -30.547842 -4.535225 45.718538 -0.736209 1.670159 0.010316 0.010363 22881.500000 0 0 1
33.404712 -29.502042 -3.411625 44.697701 -0.723439 1.647197 0.014151 0.013716 -800107.000000 0 0 1
34.147012 -28.324442 -3.510625 44.504123 -0.692463 1.649762 0.031962 0.006788 169557.000000 0 0 1
33.610712 -27.359242 -2.634425 43.418294 -0.683222 1.631509 0.022643 0.007686 229919.000000 0 0 1
34.273112 -25.957942 -2.906325 43.091852 -0.648211 1.638292 0.019091 -0.001343 86014.100000 0 0 1
34.097612 -25.516842 -4.215125 42.796304 -0.642442 1.669449 0.023969 -0.014425 -53126.600000 0 0 1
33.545012 -24.217542 -4.193625 41.585378 -0.625301 1.671812 0.028256 -0.015144 -310459.000000 0 0 1
33.087112 -23.782742 -5.628725 41.134637 -0.623227 1.708064 0.021548 -0.017417 -713348.000000 0 0 1
34.076812 -23.731342 -6.614325 42.049435 -0.608311 1.728751 0.028322 -0.018611 -318081.000000 0 0 1
33.550112 -23.333442 -7.865925 41.616491 -0.607686 1.760950 0.016913 -0.020644 11928.600000 0 0 1
34.679012 -23.280642 -8.921525 42.710839 -0.591216 1.781228 0.020787 -0.032378 50468.600000 0 0 1
35.121212 -24.591742 -9.132825 43.836763 -0.610858 1.780671 0.026304 -0.014212 74563.000000 0 0 1
-34.700022 -24.563242 -10.131325 43.704555 0.615991 1.804738 0.039553 -0.015910 252061.000000 0 0 1
-34.466222 -25.854142 -10.937525 44.452070 0.643584 1.819401 0.033878 -0.004744 -349681.000000 0 0 1
-33.765722 -26.849442 -10.181825 44.324779 0.671788 1.802576 0.034633 0.000943 469216.000000 0 0 1
-34.557522 -27.813242 -9.472425 45.359956 0.677685 1.781173 0.030924 -0.006219 235292.000000 0 0 1
-33.611422 -28.807142 -8.760425 45.125648 0.708581 1.766171 0.025114 0.000098 458234.000000 0 0 1
-32.802422 -29.564042 -9.649825 45.201223 0.733520 1.785938 0.025094 0.002547 321783.000000 0 0 1
-31.828422 -30.367442 -9.014925 44.905443 0.761912 1.772923 0.020872 -0.006262 261921.000000 0 0 1
-31.168822 -31.438242 -9.982425 45.381795 0.789701 1.792575 0.013532 -0.003103 -208189.000000 0 0 1
-30.524622 -30.790342 -11.018925 44.734935 0.789732 1.819673 0.014457 0.011930 -175122.000000 0 0 1
-30.146622 -31.757442 -11.962025 45.392113 0.811414 1.837472 0.008207 0.009951 -191826.000000 0 0 1
-30.149922 -31.081842 -13.390125 45.325425 0.800617 1.870693 0.001248 0.010960 -293238.000000 0 0 1
-29.184822 -30.092242 -13.689725 44.098814 0.800705 1.886445 -0.003791 0.009052 -84162.700000 0 0 1
-29.475722 -29.533942 -14.945025 44.321842 0.786385 1.914730 -0.001505 0.012717 186819.000000 0 0 1
-28.430122 -28.474242 -15.383225 43.077812 0.786173 1.935961 -0.002449 -0.001327 -417533.000000 0 0 1
-27.216422 -29.012842 -15.732825 42.778504 0.817335 1.947411 0.007580 -0.005344 -1490350.000000 0 0 1
-26.259022 -28.120742 -16.194025 41.743967 0.819620 1.969188 0.029548 -0.000263 89143.800000 0 0 1
-25.050022 -28.884442 -16.826325 41.772476 0.856373 1.985380 0.032613 -0.002793 -177370.000000 0 0 1
-25.271322 -29.607942 -18.041125 42.903987 0.864255 2.004793 0.021491 0.000693 -109693.000000 0 0 1
-25.641822 -28.864142 -19.209625 43.123676 0.844448 2.032478 0.021960 0.001995 -639482.000000 0 0 1
-24.510822 -28.061742 -19.777025 42.182608 0.852839 2.058777 0.025424 -0.000326 -500183.000000 0 0 1
-24.081822 -27.063542 -18.848525 40.836703 0.843631 2.050547 0.020993 -0.007446 1143620.000000 0 0 1
-22.739922 -26.558342 -19.116425 39.848303 0.862699 2.071143 0.036038 -0.014651 1412910.000000 0 0 1
-22.389422 -25.353942 -18.200025 38.410278 0.847411 2.064434 0.027178 -0.011643 -134060.000000 0 0 1
-22.411822 -25.585242 -16.787725 37.930490 0.851419 2.029283 0.034781 -0.010094 255724.000000 0 0 1
-21.836622 -24.541242 -15.996225 36.537512 0.843649 2.023950 0.031384 -0.006986 -62441.200000 0 0 1
-22.262022 -24.566342 -14.543125 36.202282 0.834566 1.984189 0.023843 -0.000119 -512140.000000 0 0 1
-23.635922 -24.315842 -14.440025 36.856903 0.799576 1.973368 0.007799 0.012591 -411035.000000 0 0 1
-24.011322 -24.169242 -13.050825 36.483145 0.788676 1.936624 0.003889 0.015924 632908.000000 0 0 1
-25.550122 -24.206442 -12.811725 37.455318 0.758400 1.919898 0.007685 0.018792 -244062.000000 0 0 1
-26.160422 -25.492042 -12.981125 38.764952 0.772459 1.912261 0.020077 0.011151 1606130.000000 0 0 1
-27.583922 -25.626542 -12.724325 39.742934 0.748629 1.896701 0.018281 0.013646 946493.000000 0 0 1
-28.569622 -24.657442 -13.368525 40.036611 0.712030 1.911242 0.022411 0.015290 -1574120.000000 0 0 1
-28.837022 -23.415742 -12.707525 39.260056 0.682017 1.900408 0.026705 0.017924 381668.000000 0 0 1
-29.442022 -23.433542 -11.393425 39.316328 0.672249 1.864802 0.029237 0.012096 406791.000000 0 0 1
-30.945922 -23.860342 -11.317525 40.682335 0.656827 1.852708 0.024737 0.005677 886267.000000 0 0 1
-32.018322 -23.091242 -11.886525 41.227028 0.624805 1.863267 0.046263 -0.009205 692539.000000 0 0 1
-32.028822 -22.889942 -13.277925 41.546337 0.620502 1.896096 0.051522 -0.001332 -269302.000000 0 0 1
-33.447322 -22.465442 -13.778625 42.582507 0.591456 1.900301 0.037607 -0.012057 542988.000000 0 0 1
-34.374622 -23.481842 -13.453825 43.749479 0.599304 1.883382 0.038120 -0.010310 -669724.000000 0 0 1
35.159712 -23.085242 -13.762125 44.255280 -0.580989 1.887011 0.043419 -0.022838 58383.200000 0 0 1
34.209512 -24.212442 -13.186525 43.936517 -0.615921 1.875622 0.031427 -0.010455 -125234.000000 0 0 1
34.214312 -25.393042 -13.989725 44.845715 -0.638475 1.888044 0.018533 0.000186 166507.000000 0 0 1
33.375012 -26.307142 -13.281825 44.523747 -0.667522 1.873717 0.018000 -0.009661 343300.000000 0 0 1
33.116412 -27.627742 -14.037425 45.354583 -0.695286 1.885468 0.015251 -0.009731 587185.000000 0 0 1
32.148012 -27.561942 -15.086025 44.952680 -0.708743 1.913036 0.012287 -0.005417 129788.000000 0 0 1
32.229512 -28.647442 -15.947925 45.975577 -0.726625 1.925037 0.014767 0.015862 -67668.000000 0 0 1
31.587912 -28.296542 -17.316025 45.807589 -0.730491 1.958449 0.008881 0.006743 287064.000000 0 0 1
30.180312 -28.284942 -17.159725 44.781082 -0.752991 1.964045 0.015343 0.008201 -358038.000000 0 0 1
29.508412 -27.842542 -18.284725 44.500390 -0.756359 1.994225 0.015571 0.006135 -622859.000000 0 0 1
28.011912 -28.060542 -18.085925 43.579375 -0.786265 1.998751 0.013029 -0.001336 -484093.000000 0 0 1
27.499812 -27.168642 -17.107825 42.273543 -0.779340 1.987440 0.007714 -0.007326 232429.000000 0 0 1
26.099612 -27.369742 -16.921125 41.432077 -0.809148 1.991504 0.016522 -0.007673 461134.000000 0 0 1
25.468312 -26.408442 -15.895425 39.983812 -0.803519 1.979638 0.017602 -0.010094 -261001.000000 0 0 1
25.476312 -25.060442 -16.329125 39.290056 -0.777169 1.999404 0.019719 -0.016108 20021.700000 0 0 1
25.153712 -24.303942 -15.176425 38.127611 -0.768218 1.980179 0.021491 -0.015417 -376451.000000 0 0 1
24.897312 -22.795842 -15.560525 37.170640 -0.741364 2.002726 0.020435 -0.019492 -229849.000000 0 0 1
23.566012 -22.501242 -15.879525 36.246684 -0.762289 2.024276 0.018848 -0.012744 -278741.000000 0 0 1
23.521912 -21.185942 -16.322525 35.616700 -0.733196 2.046859 0.027313 -0.008968 307530.000000 0 0 1
22.063912 -20.664342 -16.230425 34.311192 -0.752655 2.063530 0.014561 -0.006387 317920.000000 0 0 1
21.665612 -20.370442 -14.857325 33.242950 -0.754597 2.034129 0.027751 -0.015492 -477751.000000 0 0 1
20.418412 -19.759242 -14.849625 32.060108 -0.768993 2.052377 0.027674 -0.017594 -462779.000000 0 0 1
20.395712 -18.634042 -13.813025 30.887089 -0.740292 2.034440 0.025792 -0.003688 -118989.000000 0 0 1
19.821612 -18.996042 -12.599225 30.207389 -0.764133 2.001038 0.021386 -0.020070 -145521.000000 0 0 1
19.715712 -17.836642 -11.807225 29.090645 -0.735401 1.988735 0.029697 -0.025822 -18223.100000 0 0 1
18.713212 -17.844642 -10.627425 27.956354 -0.761644 1.960748 0.029354 -0.016017 -10346.300000 0 0 1
19.135312 -18.776942 -9.634025 28.487684 -0.775946 1.915781 0.034711 -0.032747 71444.200000 0 0 1
18.185412 -18.778442 -8.626225 27.527274 -0.801440 1.889536 0.031559 -0.038316 -278481.000000 0 0 1
18.807212 -19.500042 -7.425125 28.090841 -0.803482 1.838301 0.035587 -0.039773 83139.400000 0 0 1
19.805912 -18.781242 -6.746625 28.116297 -0.758850 1.813115 0.027680 -0.040749 -235692.000000 0 0 1
20.512912 -19.607542 -5.859425 28.975302 -0.762836 1.774422 0.026084 -0.031969 480741.000000 0 0 1
21.838612 -18.927642 -5.371725 29.394490 -0.714113 1.754575 0.025087 -0.029589 545751.000000 0 0 1
22.855612 -18.844042 -6.331825 30.291400 -0.689492 1.781380 0.015047 -0.035459 -551966.000000 0 0 1
23.997012 -18.180342 -5.942425 30.687030 -0.648353 1.765674 0.015892 -0.028492 -278829.000000 0 0 1
25.034112 -17.917842 -7.082825 31.589907 -0.621210 1.796930 0.025321 -0.031290 283745.000000 0 0 1
25.949612 -18.908642 -7.484425 32.968708 -0.629708 1.799809 0.033226 -0.036902 205298.000000 0 0 1
25.412512 -19.892642 -8.321825 33.328152 -0.664158 1.823160 0.034911 -0.045810 105611.000000 0 0 1
26.437012 -21.062842 -8.326625 34.812233 -0.672736 1.812325 0.040629 -0.050049 -342827.000000 0 0 1
27.726112 -20.755842 -8.696325 35.709499 -0.642606 1.816800 0.027309 -0.032957 -1214830.000000 0 0 1
28.574712 -21.797642 -8.321025 36.890254 -0.651662 1.798316 0.036602 -0.036840 -276984.000000 0 0 1
-29.659168 30.576873 4.197775 42.804587 -0.800632 1.472570 0.019065 0.008120 9668.580000 0 0 1
-28.900948 31.566373 3.566575 42.946724 -0.829450 1.487654 0.010902 0.016385 -314668.000000 0 0 1
-27.577828 31.729173 4.020775 42.230837 -0.855282 1.475442 0.009722 0.016182 140795.000000 0 0 1
-26.791458 32.894373 3.416875 42.561685 -0.887295 1.490429 0.012176 0.011484 -879034.000000 0 0 1
-26.367468 32.719773 2.129975 42.075690 -0.892494 1.520152 0.020390 0.017867 -16687.700000 0 0 1
-25.753788 33.871473 1.538575 42.578181 -0.920711 1.534653 0.020887 0.002037 -600736.000000 0 0 1
-24.422788 34.339473 2.109275 42.191480 -0.952582 1.520783 0.034969 0.002602 -1730650.000000 0 0 1
-23.360888 33.680073 1.494575 41.015998 -0.964371 1.534349 0.032116 0.004489 -326243.000000 0 0 1
-22.201788 33.982373 2.290975 40.656729 -0.992082 1.514417 0.013657 0.008246 -378580.000000 0 0 1
-20.874688 33.482173 1.830375 39.498845 -1.013308 1.524440 0.013480 0.004287 -917791.000000 0 0 1
-20.427488 33.973373 0.591175 39.646208 -1.029437 1.555885 0.031382 0.002147 -468537.000000 0 0 1
-19.097088 33.551073 0.440175 38.607862 -1.053336 1.559395 0.035439 -0.001470 -502874.000000 0 0 1
-18.376588 34.149673 -0.808225 38.788560 -1.077121 1.591635 0.042434 -0.003108 17680.200000 0 0 1
-18.207888 -33.533642 -0.722425 38.164829 1.073364 1.589727 0.044895 -0.001045 393645.000000 0 0 1
-17.260988 -33.021342 0.219775 37.261226 1.089137 1.564898 0.042382 -0.007066 -256984.000000 0 0 1
-17.271088 -31.486142 0.356275 35.913709 1.069083 1.560876 0.044011 -0.004392 70716.700000 0 0 1
-16.411288 -30.797342 -0.536225 34.901206 1.081192 1.586161 0.033819 0.006071 215510.000000 0 0 1
-16.731488 -29.458942 -0.469525 33.882036 1.054269 1.584654 0.026705 0.001405 212090.000000 0 0 1
-15.649188 -28.594542 -1.166025 32.617549 1.070045 1.606552 0.022771 0.007221 198734.000000 0 0 1
-15.799188 -28.671742 -2.589425 32.838822 1.067157 1.649731 0.029014 0.004490 100751.000000 0 0 1
-14.909188 -27.761542 -3.167425 31.670485 1.077954 1.670976 0.025876 0.011369 -297706.000000 0 0 1
-15.194088 -27.647542 -4.642925 31.887358 1.068288 1.716920 0.021219 -0.005662 -437921.000000 0 0 1
-16.438188 -27.109242 -4.964125 32.089991 1.025707 1.726114 0.032876 -0.002575 -716012.000000 0 0 1
-16.706688 -27.217742 -6.343325 32.560047 1.020280 1.766870 0.024367 0.002938 307580.000000 0 0 1
-17.650188 -26.124242 -6.922625 32.278907 0.976617 1.786938 0.011498 -0.001513 308055.000000 0 0 1
-17.121188 -24.843342 -6.680425 30.902342 0.967379 1.788695 0.002789 0.009892 -432703.000000 0 0 1
-17.900788 -23.828942 -7.193425 30.659452 0.926515 1.807627 -0.002025 0.010138 -430510.000000 0 0 1
-17.237588 -22.430242 -7.054725 29.155091 0.915561 1.815194 -0.008913 0.005310 349976.000000 0 0 1
-16.007488 -22.385942 -7.746225 28.589754 0.950029 1.845170 0.006260 0.002020 45287.100000 0 0 1
-15.165988 -21.284042 -7.406125 27.163731 0.951696 1.846940 0.047663 -0.008715 748733.000000 0 0 1
-13.906188 -21.099442 -8.290025 26.594981 0.988066 1.887793 0.051523 -0.007038 236708.000000 0 0 1
-14.246888 -20.603742 -9.513425 26.795396 0.965818 1.933753 0.050279 -0.000870 -197325.000000 0 0 1
-13.091988 -20.444442 -10.321725 26.380169 1.001221 1.972806 0.052611 0.001112 221591.000000 0 0 1
-13.280388 -19.623442 -11.589925 26.377538 0.975838 2.025712 0.057444 0.003168 500189.000000 0 0 1
-14.294688 -20.140242 -12.487725 27.675092 0.953552 2.038935 0.044251 0.015422 423449.000000 0 0 1
-14.513088 -19.181042 -13.531725 27.598001 0.923061 2.083248 0.048627 0.005826 1535590.000000 0 0 1
-15.853388 -19.458642 -14.388325 28.930823 0.887143 2.091321 0.044773 0.007308 1182720.000000 0 0 1
-17.053588 -19.347542 -13.672125 29.190396 0.848334 2.058250 0.029900 0.007159 -482657.000000 0 0 1
-18.088388 -19.546442 -14.612925 30.377471 0.824121 2.072642 0.022366 0.015198 14010.400000 0 0 1
-19.480088 -19.761042 -13.947925 31.056677 0.792558 2.036567 0.005198 0.014477 696087.000000 0 0 1
-20.427888 -20.237742 -14.917725 32.394495 0.780722 2.049357 0.020481 0.006788 340276.000000 0 0 1
-21.783288 -20.060742 -14.543325 32.991715 0.744256 2.027306 0.006733 0.007672 -107667.000000 0 0 1
-22.719988 -20.791542 -15.491225 34.474107 0.741107 2.036843 0.009503 0.001970 -622973.000000 0 0 1
-22.700788 -20.391542 -16.824625 34.845498 0.731861 2.074685 0.011449 -0.008543 373691.000000 0 0 1
-23.431488 -21.301942 -17.664425 36.260712 0.737829 2.079620 0.015969 -0.012378 -98408.500000 0 0 1
-23.890188 -20.656142 -18.955725 36.833908 0.712926 2.111369 0.012218 -0.016386 -936611.000000 0 0 1
-22.853788 -20.432742 -19.820825 36.505584 0.729526 2.144746 0.013377 -0.015695 -659561.000000 0 0 1
-23.227988 -19.985842 -21.134325 37.224091 0.710513 2.174578 0.008594 -0.016534 -28670.400000 0 0 1
-22.102588 -19.220342 -21.886225 36.564364 0.715762 2.212507 0.000208 -0.008981 -328768.000000 0 0 1
-21.014188 -19.958442 -22.296625 36.566035 0.759637 2.226558 -0.002526 -0.002726 -1092280.000000 0 0 1
-20.014188 -19.140342 -22.833825 35.892951 0.763084 2.260313 -0.010383 -0.003600 -1021760.000000 0 0 1
-18.731888 -19.920442 -22.915525 35.676728 0.816138 2.268305 -0.000500 -0.000834 -1126960.000000 0 0 1
-18.775888 -21.058442 -23.775125 36.895101 0.842637 2.271032 -0.000781 0.005582 -189406.000000 0 0 1
-17.531488 -21.728942 -23.770025 36.667616 0.891907 2.276089 0.001835 0.008625 64555.100000 0 0 1
-17.465288 -23.054642 -24.533825 37.927053 0.922474 2.274268 0.010977 0.008002 -131231.000000 0 0 1
-17.453388 -22.986842 -25.918635 38.791639 0.921384 2.302516 0.012932 0.007821 78409.900000 0 0 1
-17.292788 -24.231442 -26.606475 39.926279 0.950967 2.300153 0.016788 0.004933 -111133.000000 0 0 1
-17.293588 -24.130942 -28.118315 40.890221 0.948979 2.329049 0.032479 0.010173 416521.000000 0 0 1
-16.069988 -23.619842 -28.659525 40.466156 0.973374 2.357790 0.016682 0.002531 550113.000000 0 0 1
-16.129788 -23.522442 -30.063195 41.439969 0.969719 2.382504 0.035938 -0.006167 572692.000000 0 0 1
-14.658888 -23.507342 -30.597925 41.276035 1.013213 2.405802 0.016994 -0.008151 958366.000000 0 0 1
-13.934888 -24.715942 -30.356125 41.551813 1.057419 2.389939 0.020525 -0.009049 1099320.000000 0 0 1
-12.591088 -24.709142 -30.884335 41.508063 1.099520 2.409918 0.028430 -0.009231 1253120.000000 0 0 1
-11.725888 -25.941042 -30.480805 41.707476 1.146263 2.390324 0.020851 -0.004750 -562410.000000 0 0 1
-12.081388 -27.156742 -31.116025 43.030867 1.152212 2.379090 0.013876 0.001346 305428.000000 0 0 1
-11.186188 -28.237642 -30.895775 43.324867 1.193618 2.364733 0.012439 0.001204 226725.000000 0 0 1
-9.782088 -28.190642 -31.520925 43.404726 1.236799 2.383588 0.030107 -0.005402 543863.000000 0 0 1
-8.933888 -27.103742 -31.000745 42.136366 1.252393 2.397532 0.034036 -0.015352 1161770.000000 0 0 1
-7.757188 -26.876042 -31.826795 42.372638 1.289805 2.420548 0.037878 -0.012944 813277.000000 0 0 1
-6.968388 -25.652342 -31.233555 41.013851 1.305550 2.436477 0.048142 -0.014400 -472295.000000 0 0 1
-7.528288 -24.359042 -31.182935 40.279194 1.271053 2.456199 0.055387 -0.014646 -13624.000000 0 0 1
-8.333188 -24.052942 -30.051355 39.383625 1.237286 2.438803 0.041260 -0.004788 -39259.100000 0 0 1
-8.971288 -22.683642 -30.023125 38.683583 1.194179 2.459287 0.040686 -0.013430 420953.000000 0 0 1
-9.884088 -22.447342 -31.128325 39.630177 1.156019 2.474252 0.036714 -0.014567 424997.000000 0 0 1
-10.233388 -21.105142 -31.040255 38.905612 1.119321 2.494492 0.042344 -0.019069 -112924.000000 0 0 1
-11.054688 -20.587442 -32.230745 39.810423 1.078018 2.514276 0.040031 -0.018257 -61736.600000 0 0 1
-11.598188 -19.319042 -31.987945 39.127636 1.030119 2.527902 0.037157 -0.016950 68315.700000 0 0 1
-12.070088 -18.756742 -33.182245 39.982043 0.998999 2.549776 0.031189 -0.015392 12126.000000 0 0 1
-12.943288 -17.437542 -33.007245 39.510439 0.932264 2.559667 0.033543 -0.011900 -56536.500000 0 0 1
-12.292888 -16.231342 -33.157275 38.909850 0.922605 2.590889 0.048209 -0.009202 -161949.000000 0 0 1
-11.426788 -15.848342 -32.096365 37.575498 0.946109 2.594775 0.043309 -0.006293 221227.000000 0 0 1
-11.135488 -14.338642 -31.975455 36.769899 0.910483 2.625207 0.047305 0.002056 44737.000000 0 0 1
-10.352288 -13.872742 -33.079665 37.334797 0.929711 2.659502 0.052589 -0.003375 210979.000000 0 0 1
-10.993088 -13.848042 -34.372571 38.653459 0.899825 2.666498 0.042678 -0.009883 -317078.000000 0 0 1
-11.468188 -12.463142 34.081393 38.057727 0.826950 0.461202 0.032532 -0.003970 510180.000000 0 0 1
-12.792288 -12.162542 -34.374919 38.642012 0.760168 2.667207 0.034535 -0.002137 235116.000000 0 0 1
-13.480888 -11.416242 33.545461 37.912569 0.702660 0.484708 0.030100 -0.007770 302387.000000 0 0 1
-14.679488 -10.666842 34.143884 38.666183 0.628389 0.488490 0.041072 -0.010297 134963.000000 0 0 1
-14.171688 -9.589742 -33.988715 38.053024 0.594905 2.675194 0.054803 -0.014872 -172264.000000 0 0 1
-15.130088 -8.993542 -33.168755 37.549562 0.536302 2.653721 0.047337 -0.010042 -294098.000000 0 0 1
-14.562588 -8.037742 -32.105895 36.158854 0.504335 2.663583 0.053270 -0.022705 -451487.000000 0 0 1
-14.297388 -6.747242 -32.612665 36.242606 0.440933 2.690206 0.039112 -0.027241 -202009.000000 0 0 1
-15.292888 -5.752742 -32.620515 36.483756 0.359797 2.677238 0.036689 -0.024105 -283159.000000 0 0 1
-15.651088 -5.157642 -31.234915 35.315403 0.318332 2.656123 0.035408 -0.023501 130946.000000 0 0 1
-16.316388 -6.086042 -30.371565 35.009947 0.357018 2.620976 0.052182 -0.024774 -9126.500000 0 0 1
-16.709788 -5.584742 -29.105245 34.022369 0.322548 2.597261 0.050484 -0.027419 197903.000000 0 0 1
-15.560888 -5.138442 -28.129525 32.554800 0.318942 2.614090 0.045797 -0.032087 399244.000000 0 0 1
-15.143888 -3.846942 -28.432445 32.442876 0.248764 2.639100 0.028518 -0.025850 -665773.000000 0 0 1
-13.872688 -3.535942 -27.957235 31.409574 0.249571 2.668331 0.031007 -0.023107 -380688.000000 0 0 1
-13.387988 -2.206942 -28.595125 31.651066 0.163376 2.698544 0.012324 -0.001272 -142215.000000 0 0 1
-13.291188 -2.191942 -30.020715 32.904462 0.163446 2.719809 0.014911 -0.010748 200864.000000 0 0 1
-13.056688 -0.896942 -30.557055 33.241769 0.068588 2.736934 0.008479 -0.014903 -146696.000000 0 0 1
-13.078588 -0.905942 -32.058555 34.635547 0.069159 2.753406 0.000059 -0.014439 9206.340000 0 0 1
-14.354088 -1.293942 -32.570995 35.617184 0.089901 2.725003 -0.013887 -0.011214 597241.000000 0 0 1
-14.400588 -1.195942 -33.969035 36.914801 0.082858 2.739390 -0.017519 -0.006468 -280817.000000 0 0 1
-15.755088 -1.558942 34.315017 37.791183 0.098627 0.432271 -0.027638 -0.009935 -221979.000000 0 0 1
-15.664188 -1.503942 32.906606 36.475654 0.095718 0.446063 -0.025594 -0.007350 218165.000000 0 0 1
-16.928788 -1.547942 32.277667 36.480512 0.091185 0.484749 -0.016212 -0.003467 75524.600000 0 0 1
-16.788488 -1.761942 30.753047 35.081443 0.104567 0.502007 -0.011217 0.002717 -104250.000000 0 0 1
-16.146788 -0.675942 30.155497 34.213004 0.041838 0.491969 -0.016208 0.017877 -121579.000000 0 0 1
-16.342688 -0.607942 28.783967 33.105434 0.037182 0.516681 -0.016432 0.011935 -272486.000000 0 0 1
-15.662188 0.587058 28.121547 32.194257 -0.037465 0.508459 -0.014831 0.009699 -246529.000000 0 0 1
-16.155388 1.898058 28.433987 32.758065 -0.116952 0.519637 -0.005933 0.014413 544613.000000 0 0 1
-17.519388 2.181058 28.093017 33.179867 -0.123857 0.561065 0.007553 0.008692 683108.000000 0 0 1
-17.737188 2.959058 26.776917 32.254723 -0.165306 0.591383 0.009234 0.006616 -183668.000000 0 0 1
-17.722888 4.384058 26.865937 32.482292 -0.242499 0.596877 0.004511 0.006062 30698.600000 0 0 1
-18.300488 4.900058 25.695147 31.924270 -0.261619 0.635326 0.014573 0.009388 -334137.000000 0 0 1
-18.288688 6.472058 25.610967 32.129197 -0.340130 0.648279 0.026766 0.003831 588736.000000 0 0 1
-16.993188 7.082058 25.534337 31.478983 -0.394870 0.624672 0.012828 0.001940 401962.000000 0 0 1
-16.518088 7.173058 24.240447 30.197670 -0.409683 0.638944 0.015762 0.004242 -285831.000000 0 0 1
-15.334788 8.153058 24.119777 29.721906 -0.488662 0.624056 0.009145 -0.000146 369132.000000 0 0 1
-14.120888 7.641058 24.664097 29.429627 -0.495998 0.577060 -0.013253 0.004924 837426.000000 0 0 1
-12.978788 8.138058 23.941027 28.422697 -0.560056 0.569222 0.003469 0.005617 381915.000000 0 0 1
-11.665588 8.038058 24.735807 28.505376 -0.603332 0.520120 0.001011 0.017480 -806326.000000 0 0 1
-10.591488 8.546058 24.009357 27.598260 -0.678922 0.515677 -0.007204 0.011887 -263563.000000 0 0 1
-9.404288 8.675058 24.768357 27.877747 -0.745085 0.476810 -0.010355 0.011087 63385.600000 0 0 1
-9.230288 9.997058 25.544467 28.942342 -0.825256 0.489435 0.000023 -0.001371 -1286880.000000 0 0 1
-10.182288 10.169058 26.554747 30.203366 -0.784748 0.496619 -0.010870 -0.006197 -87325.900000 0 0 1
-10.151988 11.421058 27.278047 31.266520 -0.844157 0.510631 0.000643 -0.009262 -864230.000000 0 0 1
-10.533888 12.697058 26.458147 31.180308 -0.878246 0.557552 -0.011553 -0.012148 104673.000000 0 0 1
-11.888888 12.769058 26.034077 31.339554 -0.821078 0.590415 -0.009206 -0.015179 325240.000000 0 0 1
-12.092888 11.878058 24.987147 30.194101 -0.776436 0.596066 -0.012080 -0.006439 -1158990.000000 0 0 1
-13.603688 11.813058 24.666247 30.545579 -0.715064 0.630856 -0.002917 -0.008650 -219482.000000 0 0 1
-14.071388 13.005058 24.133927 30.815287 -0.746036 0.671032 -0.013874 -0.010061 831955.000000 0 0 1
-15.394288 12.920058 23.537187 30.950140 -0.698235 0.706733 -0.000161 -0.001239 1190640.000000 0 0 1
-15.556788 12.223058 22.164087 29.709654 -0.665964 0.728727 0.004924 0.000473 -316661.000000 0 0 1
-15.555088 10.832058 22.176987 29.173841 -0.608284 0.707226 0.004586 -0.001208 95794.300000 0 0 1
-15.440988 10.366058 20.859587 27.946407 -0.591227 0.728139 0.005497 0.001265 -259183.000000 0 0 1
-15.955588 8.935058 20.719687 27.635511 -0.510485 0.723114 0.002355 -0.001628 1057510.000000 0 0 1
-17.331588 8.903058 20.292287 28.132282 -0.474539 0.765095 0.009500 -0.002187 882150.000000 0 0 1
-17.932188 7.585058 20.284387 28.116771 -0.400163 0.764926 0.009518 0.002224 154002.000000 0 0 1
-19.407588 7.580058 20.731187 29.392071 -0.372352 0.787904 0.015471 0.009586 29815.800000 0 0 1
-19.545288 7.892058 22.110287 30.547793 -0.383763 0.761512 0.011345 0.007013 -155689.000000 0 0 1
-20.917488 7.791058 22.386687 31.613378 -0.356547 0.783936 -0.008714 0.007353 -246080.000000 0 0 1
-21.348488 8.409058 23.736687 33.013641 -0.375232 0.768439 -0.003618 0.003797 -503561.000000 0 0 1
-21.269588 9.842058 23.883877 33.461934 -0.433389 0.775941 0.005698 0.000830 1220370.000000 0 0 1
-20.031888 10.588058 23.648587 32.751171 -0.486234 0.764009 0.017290 0.007101 1491910.000000 0 0 1
-18.786088 10.253058 24.526027 32.551011 -0.499597 0.717481 0.021370 -0.001755 -57041.100000 0 0 1
-18.809288 10.862058 25.804907 33.729317 -0.523699 0.699664 0.026994 -0.002103 180951.000000 0 0 1
-18.114988 10.057058 26.737677 33.826034 -0.506811 0.659258 0.021430 -0.000641 36383.400000 0 0 1
-30.203388 -14.262627 21.218887 39.571560 0.441177 1.004849 0.029351 -0.003691 100425.000000 0 0 1
-29.310218 -15.350327 21.275887 39.336812 0.482443 0.999332 0.025650 -0.004813 -85133.500000 0 0 1
-29.969548 -16.509427 20.829587 40.057542 0.503514 1.023955 0.018778 0.000047 62655.700000 0 0 1
-29.853438 -16.834127 19.318387 39.342288 0.513447 1.057520 0.013292 -0.005975 21239.300000 0 0 1
-30.402388 -15.808627 18.543387 38.962483 0.479503 1.074776 0.016918 -0.014246 -118233.000000 0 0 1
-29.738858 -15.787827 17.327487 37.866832 0.488047 1.095513 0.011069 -0.011083 -819924.000000 0 0 1
-30.237838 -14.643927 16.401187 37.386767 0.451002 1.116656 0.007640 -0.010047 86152.400000 0 0 1
-31.520338 -14.688527 15.830987 38.208699 0.436081 1.143590 0.033568 -0.014164 1675320.000000 0 0 1
-32.741128 -14.641927 16.658387 39.545788 0.420525 1.135981 0.031873 -0.016288 1243230.000000 0 0 1
-33.243578 -13.211127 17.073487 39.638028 0.378266 1.125489 0.034664 -0.020503 -679644.000000 0 0 1
-34.442196 -13.271227 17.783487 40.971243 0.367787 1.121815 0.036134 -0.019765 -389392.000000 0 0 1
-34.865402 -11.970827 18.109587 41.071329 0.330733 1.114162 0.036173 -0.013255 434292.000000 0 0 1
34.806076 -11.984327 19.154687 41.496856 -0.331603 1.091005 0.031025 -0.001624 378062.000000 0 0 1
35.216459 -12.527727 20.387887 42.577093 -0.341775 1.071456 0.033061 -0.009365 -193607.000000 0 0 1
34.486477 -12.010427 21.463887 42.358776 -0.335128 1.039425 0.027095 -0.011046 -1175250.000000 0 0 1
35.026138 -12.322127 22.890687 43.619361 -0.338276 1.018336 0.023329 -0.011933 -774346.000000 0 0 1
-34.673423 -11.661127 23.298687 43.371153 0.324430 1.003691 0.032092 -0.010927 -36197.400000 0 0 1
-33.533678 -12.403327 22.816587 42.413992 0.354271 1.002794 0.030599 -0.014708 -663231.000000 0 0 1
-32.196618 -11.686227 22.901987 41.203047 0.348177 0.981432 0.046512 -0.013250 -548034.000000 0 0 1
-32.062788 -10.673927 21.917887 40.278392 0.321367 0.995409 0.054760 -0.015622 464852.000000 0 0 1
-30.737178 -10.142127 21.869787 39.063083 0.318714 0.976582 0.056847 -0.018852 241171.000000 0 0 1
-30.646368 -8.808927 21.147087 38.262205 0.279892 0.985209 0.065460 -0.002332 73299.700000 0 0 1
-30.893908 -8.908427 19.731387 37.724279 0.280740 1.020380 0.054646 -0.000605 431770.000000 0 0 1
-32.280148 -8.877127 19.422087 38.704377 0.268369 1.045111 0.060103 -0.009221 -58955.500000 0 0 1
-32.487908 -8.884727 17.883987 38.134492 0.266951 1.082670 0.057586 -0.008634 187632.000000 0 0 1
-33.863688 -8.780427 17.551287 39.139404 0.253700 1.105788 0.044472 -0.006431 286662.000000 0 0 1
-34.141339 -8.592827 16.164387 38.739580 0.246563 1.140371 0.050797 -0.009807 975036.000000 0 0 1
35.157908 -8.619627 15.858987 39.520677 -0.240427 1.157879 0.043593 -0.007878 901512.000000 0 0 1
34.533857 -9.859427 16.035987 39.331265 -0.278102 1.150845 0.037871 -0.004396 -194718.000000 0 0 1
33.143727 -9.635627 15.857087 37.984196 -0.282924 1.140142 0.041381 -0.003963 39365.000000 0 0 1
32.328187 -10.926027 15.787987 37.599870 -0.325920 1.137467 0.031332 -0.001136 -233862.000000 0 0 1
32.191757 -11.546727 17.082387 38.228838 -0.344392 1.107560 0.016973 -0.001255 298810.000000 0 0 1
31.089917 -12.446927 17.180087 37.638601 -0.380810 1.096797 0.012718 0.003147 368902.000000 0 0 1
30.672637 -12.953827 18.585287 38.131682 -0.399603 1.061690 0.005474 0.001639 -87440.100000 0 0 1
31.464947 -13.994027 19.081887 39.369964 -0.418479 1.064798 0.016905 -0.002604 -324766.000000 0 0 1
31.356207 -14.061127 20.476887 40.002874 -0.421549 1.033418 0.008162 -0.002722 -428469.000000 0 0 1
32.336937 -15.136027 21.018787 41.431464 -0.437781 1.038731 0.004575 0.005353 -54247.200000 0 0 1
32.404737 -15.083727 22.422887 42.194450 -0.435652 1.010523 0.003080 -0.000064 -175097.000000 0 0 1
33.009677 -16.277327 22.868887 43.331007 -0.458119 1.014821 0.000505 0.010223 -321778.000000 0 0 1
33.364227 -16.212427 24.351857 44.373724 -0.452322 0.989880 0.016026 0.002661 351248.000000 0 0 1
34.389117 -15.244827 24.587757 44.939670 -0.417271 0.991867 0.019621 -0.000163 235214.000000 0 0 1
34.621347 -15.011027 25.989057 45.819206 -0.409113 0.967684 0.020481 0.002490 -405686.000000 0 0 1
-35.045983 -14.089527 26.282977 46.016634 0.382255 0.962875 0.028360 -0.005230 -832153.000000 0 0 1
-33.792308 -14.653027 26.043457 45.109787 0.409149 0.955335 0.014348 -0.001392 -961028.000000 0 0 1
-32.840798 -13.753327 26.501807 44.384882 0.396597 0.930927 0.020320 -0.006628 934235.000000 0 0 1
-31.340858 -14.250927 26.273297 43.308480 0.426762 0.918951 0.020578 -0.004609 849728.000000 0 0 1
-31.047078 -14.285327 24.864467 42.263854 0.431236 0.941823 0.016259 -0.002730 1017260.000000 0 0 1
-29.722328 -14.819127 24.617807 41.340776 0.462516 0.932927 0.027767 -0.014617 1061850.000000 0 0 1
-29.392938 -16.319827 24.913907 41.844764 0.506849 0.933047 0.018615 -0.010451 -566274.000000 0 0 1
-29.450098 -16.594927 26.293717 42.825920 0.513144 0.909719 0.020847 -0.012342 80877.400000 0 0 1
-29.167988 -17.966927 26.597807 43.370789 0.552087 0.910608 0.019567 -0.019664 -211582.000000 0 0 1
-28.743328 -18.185327 28.081437 44.107280 0.564103 0.880634 0.018443 -0.018190 295750.000000 0 0 1
-27.450818 -17.655927 28.356707 43.236350 0.571569 0.855484 0.023939 -0.014070 198806.000000 0 0 1
-27.004658 -18.114327 29.647127 44.003779 0.590849 0.831537 0.036748 -0.016278 94843.400000 0 0 1
-25.800548 -17.226627 29.997377 43.153998 0.588707 0.802204 0.017997 -0.009198 -183596.000000 0 0 1
-26.205978 -15.979727 30.626697 43.360114 0.547575 0.786491 0.033925 -0.016981 -312114.000000 0 0 1
-25.237498 -15.014627 30.418537 42.280701 0.536686 0.767797 0.023401 -0.015615 -982858.000000 0 0 1
-25.344458 -13.738327 31.245947 42.513438 0.496730 0.745179 0.028026 -0.011578 -63663.700000 0 0 1
-24.671788 -13.860627 32.500507 43.094049 0.511858 0.716398 0.032509 -0.008367 339665.000000 0 0 1
-24.468588 -12.602227 33.178962 43.108832 0.475605 0.692494 0.032285 -0.006232 -235365.000000 0 0 1
-23.644388 -12.724527 -34.434793 43.666069 0.493710 2.479315 0.032705 -0.005359 -402200.000000 0 0 1
-22.268488 -12.968527 34.369354 42.957197 0.527356 0.643362 0.007816 -0.003375 -166681.000000 0 0 1
-21.885288 -14.342927 34.355859 43.185767 0.580140 0.650904 0.009549 -0.002308 -206941.000000 0 0 1
-21.813688 -15.134727 -33.241045 42.542496 0.606565 2.467640 0.007264 -0.000287 -470908.000000 0 0 1
-20.877988 -14.688427 -32.289475 41.161274 0.613096 2.472625 -0.012427 0.003229 37432.600000 0 0 1
-20.698488 -15.575127 -31.211215 40.560472 0.645084 2.448852 -0.002625 -0.000026 -692547.000000 0 0 1
-19.430988 -15.406427 -30.402255 39.232874 0.670384 2.457381 -0.004403 0.009774 -779789.000000 0 0 1
-19.317888 -14.380127 -29.417525 38.017885 0.639904 2.455585 -0.015464 0.010202 200380.000000 0 0 1
-19.982188 -14.702127 -28.173565 37.539181 0.634326 2.419631 -0.016734 0.012805 126746.000000 0 0 1
-19.958788 -13.486427 -27.199725 36.332657 0.594240 2.416790 -0.008436 0.014304 -847874.000000 0 0 1
-18.823788 -13.412327 -26.439065 35.117654 0.619079 2.423210 0.009466 0.001231 -967949.000000 0 0 1
-18.741988 -12.118827 -25.909595 34.197005 0.573991 2.430512 0.006299 -0.004386 366708.000000 0 0 1
-17.380188 -11.817927 -25.224815 32.833300 0.597153 2.446929 0.017007 -0.006159 -585493.000000 0 0 1
-17.177088 -12.479627 -24.008425 32.049928 0.628309 2.417490 0.031486 -0.007081 600351.000000 0 0 1
-15.827888 -12.613127 -23.557625 31.057603 0.672843 2.431826 0.032014 -0.013486 652834.000000 0 0 1
-14.844488 -13.421127 -24.433725 31.583103 0.735084 2.455351 0.021899 -0.009127 -954344.000000 0 0 1
-14.329388 -12.754527 -25.538705 31.941114 0.727316 2.497352 0.038910 -0.018583 -127080.000000 0 0 1
-13.514088 -13.654627 -26.250525 32.529517 0.790571 2.509809 0.040778 -0.015994 50143.300000 0 0 1
-12.400388 -13.091827 -27.180845 32.618459 0.812515 2.555840 0.053465 -0.011355 287401.000000 0 0 1
-12.888688 -12.327327 -28.275075 33.429944 0.763140 2.578861 0.070271 -0.020471 1369.300000 0 0 1
-11.800988 -11.665327 -28.869475 33.298495 0.779617 2.619927 0.080676 -0.016850 220861.000000 0 0 1
-12.234788 -10.938727 -30.175895 34.350115 0.729528 2.643468 0.061015 -0.012979 357997.000000 0 0 1
-11.223388 -10.019727 -30.562635 34.065144 0.728797 2.684144 0.072065 -0.012182 309913.000000 0 0 1
-11.109188 -10.013227 -31.965475 35.291222 0.733559 2.703972 0.066282 -0.002826 -26943.800000 0 0 1
-10.451688 -8.765327 -32.614615 35.352254 0.697869 2.745463 0.048713 -0.004856 -149951.000000 0 0 1
-9.102288 -8.694527 -32.232225 34.602930 0.762490 2.769279 0.028311 -0.002529 -507307.000000 0 0 1
-8.581788 -7.506627 -32.750165 34.678089 0.718669 2.806577 0.027938 -0.005157 186753.000000 0 0 1
-7.077388 -7.266427 -32.425185 33.974741 0.798577 2.838409 0.031242 -0.002432 141332.000000 0 0 1
-6.788688 -7.037027 -31.046465 32.549793 0.803358 2.836485 0.022178 0.000348 -210731.000000 0 0 1
-7.175588 -5.837927 -30.382025 31.759060 0.682968 2.846040 0.028726 -0.006627 -285890.000000 0 0 1
-6.403288 -4.546427 -30.741535 31.728758 0.617416 2.891484 0.024783 -0.008748 1115800.000000 0 0 1
-5.057488 -4.482827 -30.203475 30.950344 0.725236 2.921461 0.019047 -0.004427 937340.000000 0 0 1
-4.463888 -3.251827 -30.599195 31.093591 0.629582 2.963029 0.026907 -0.008527 -691798.000000 0 0 1
-2.987088 -3.179327 -30.248655 30.561609 0.816563 2.998361 0.014085 -0.002483 -1534750.000000 0 0 1
-2.267088 -4.099327 -31.060485 31.411748 1.065623 2.991903 0.007662 -0.003675 1529120.000000 0 0 1
-0.816088 -4.007227 -30.920965 31.190222 1.369890 3.010100 0.014877 -0.003793 1812550.000000 0 0 1
-0.129388 -2.684227 -31.349735 31.464705 1.522631 3.056080 0.011373 -0.003526 -1078680.000000 0 0 1
-0.053288 -1.685427 -30.350895 30.397703 1.539190 3.086091 0.013121 -0.007400 -30758.900000 0 0 1
0.343712 -0.428427 -30.880505 30.885389 -0.894676 3.123808 0.015123 -0.007992 97428.400000 0 0 1
0.537012 0.691373 -29.796285 29.809142 0.910404 3.112221 0.023009 -0.014696 561672.000000 0 0 1
-0.651688 1.191173 -29.182345 29.213915 -1.070184 3.095098 0.024977 -0.011988 64452.000000 0 0 1
-0.429388 2.491173 -28.714615 28.825673 -1.400110 3.053783 0.034977 -0.015759 -806599.000000 0 0 1
-1.638688 3.239073 -28.231215 28.463633 -1.102430 3.013713 0.031070 -0.015099 -1224250.000000 0 0 1
-2.453888 3.551873 -29.295285 29.611671 -0.966223 2.995281 0.025690 -0.012689 -154481.000000 0 0 1
-3.661788 4.181473 -28.882165 29.412121 -0.851560 2.951473 0.042795 -0.016639 -194635.000000 0 0 1
-4.708588 4.276273 -29.960725 30.628456 -0.737319 2.932400 0.050337 -0.017029 -930442.000000 0 0 1
-4.278388 5.003473 -31.050235 31.740454 -0.863358 2.932667 0.050206 -0.013306 441579.000000 0 0 1
-5.240488 5.084773 -32.124405 32.943816 -0.770318 2.918090 0.054354 -0.013033 -422046.000000 0 0 1
-4.756688 5.888573 -33.354605 34.202793 -0.891328 2.918425 0.057987 -0.007497 287386.000000 0 0 1
-4.050988 5.146273 -34.368253 34.986732 -0.903928 2.953285 0.070038 -0.007802 486210.000000 0 0 1
-2.900588 4.422673 -34.002735 34.411617 -0.990323 2.987283 0.059537 -0.013446 -978525.000000 0 0 1
-2.273388 3.632173 33.788472 34.059092 -1.011548 0.126144 0.053532 -0.018801 -740895.000000 0 0 1
-3.101688 2.547073 33.398738 33.639021 -0.687528 0.119595 0.051447 -0.025108 142896.000000 0 0 1
-2.855688 1.932973 32.153687 32.338072 -0.595044 0.106838 0.060877 -0.023320 -382931.000000 0 0 1
-2.774788 2.808673 30.892517 31.143791 -0.791467 0.127115 0.067071 -0.023445 551719.000000 0 0 1
-3.986288 3.506373 30.574447 31.031950 -0.721434 0.171926 0.049998 -0.016124 661597.000000 0 0 1
-3.719588 4.338673 29.486037 30.034743 -0.862074 0.191442 0.044249 -0.021145 519554.000000 0 0 1
-4.968288 5.222173 29.191977 30.068696 -0.810307 0.242074 0.051345 -0.007834 474665.000000 0 0 1
-4.766688 6.055573 28.135787 29.172141 -0.903936 0.267349 0.046228 0.002691 -445877.000000 0 0 1
-5.874988 6.890073 27.924197 29.355568 -0.864752 0.313564 0.029967 0.006123 -471559.000000 0 0 1
-5.917588 7.559373 26.498077 28.183507 -0.906622 0.347585 0.027569 0.002721 -418695.000000 0 0 1
-4.970188 8.538473 26.221447 28.020931 -1.043648 0.360329 0.022748 0.005444 -337755.000000 0 0 1
-5.166288 9.212273 24.959767 27.102518 -1.059695 0.400313 0.021596 0.005461 -90456.200000 0 0 1
-4.442488 10.560473 25.070367 27.564154 -1.172598 0.428650 0.024849 -0.001316 -542119.000000 0 0 1
-4.741588 11.520173 24.043327 27.079118 -1.180339 0.478054 0.030428 0.004918 71967.500000 0 0 1
-4.251388 12.818273 24.245837 27.753253 -1.250547 0.508201 0.027227 0.009666 -185673.000000 0 0 1
-2.721888 13.060273 24.083757 27.531922 -1.365328 0.505861 0.013111 0.009036 303254.000000 0 0 1
-1.812288 12.637773 25.098027 28.158634 -1.428365 0.470573 0.018229 0.007418 200509.000000 0 0 1
-2.041488 13.090573 26.456537 29.588496 -1.416091 0.464268 0.030479 0.007834 -1141700.000000 0 0 1
-1.184188 12.508573 27.574557 30.302193 -1.476408 0.427547 0.019482 0.004496 227669.000000 0 0 1
0.193712 12.888073 27.482117 30.354682 1.555767 0.438554 0.012145 0.011000 359081.000000 0 0 1
0.889912 12.454773 28.631117 31.235463 1.499466 0.411249 0.014569 0.000448 -474276.000000 0 0 1
2.398412 12.643073 28.593697 31.356007 1.383322 0.422894 0.013600 0.003084 -407630.000000 0 0 1
2.783312 14.008073 28.741457 32.094303 1.374657 0.461172 0.006436 0.007190 -36673.200000 0 0 1
4.180312 14.165373 28.652997 32.235493 1.283834 0.475935 0.016424 0.004336 -416517.000000 0 0 1
4.608112 15.661373 28.884037 33.178320 1.284638 0.514438 0.013131 0.006375 -268872.000000 0 0 1
4.289412 16.123073 30.196317 34.498842 1.310777 0.504772 0.020198 0.011280 892746.000000 0 0 1
3.178812 17.049273 30.267427 34.884089 1.386464 0.520326 0.010482 0.012276 482073.000000 0 0 1
3.418412 18.465273 29.756847 35.186955 1.387742 0.562961 0.012843 0.019053 -517132.000000 0 0 1
4.385812 19.209073 30.438367 36.259040 1.346324 0.574490 0.040581 0.019030 -174343.000000 0 0 1
4.901512 20.153473 29.529187 36.085457 1.332219 0.612327 0.019437 0.015827 256741.000000 0 0 1
6.055012 21.039573 30.105747 37.224761 1.290577 0.628762 0.026874 0.015725 217194.000000 0 0 1
5.644912 21.758973 31.248757 38.494191 1.316963 0.623605 0.027078 0.004874 -103321.000000 0 0 1
6.647012 22.619773 31.731267 39.531130 1.284983 0.639003 0.000390 0.007166 -494266.000000 0 0 1
6.765012 24.076973 31.113547 39.918903 1.296884 0.677059 -0.011165 0.018482 -512535.000000 0 0 1
7.376212 24.193173 29.864797 39.135971 1.274861 0.702695 -0.023206 0.021237 115494.000000 0 0 1
7.573212 25.546873 29.424517 39.696328 1.282605 0.735880 -0.024495 0.019499 -93674.700000 0 0 1
8.132012 25.554973 28.008357 38.776982 1.262712 0.763684 -0.008765 0.012748 -112077.000000 0 0 1
7.291612 25.016273 27.020807 37.538054 1.287179 0.767247 -0.008575 0.011353 -133693.000000 0 0 1
8.022112 24.985973 25.827187 36.819787 1.260128 0.793368 0.004883 0.014066 -381358.000000 0 0 1
28.924487 2.040973 6.952575 29.818280 0.070445 1.335465 0.076016 0.004775 8291.450000 0 0 1
28.764337 2.719573 8.150175 30.020135 0.094266 1.295855 0.075154 -0.001511 887904.000000 0 0 1
27.459437 2.551673 8.737575 28.928825 0.092659 1.263968 0.071289 -0.002173 610604.000000 0 0 1
27.370707 3.373673 10.023775 29.343028 0.122640 1.222170 0.055889 -0.007829 -138596.000000 0 0 1
27.345337 4.835673 9.888275 29.477604 0.175028 1.228713 0.069950 -0.014186 1004630.000000 0 0 1
28.617217 5.399773 9.485275 30.627979 0.186497 1.255926 0.072133 -0.015664 718688.000000 0 0 1
28.564037 6.872973 9.154475 30.772494 0.236128 1.268735 0.062348 -0.017196 223877.000000 0 0 1
27.828037 7.348273 7.999375 29.872843 0.258167 1.299707 0.075196 -0.021058 340249.000000 0 0 1
28.080217 8.758673 7.824375 30.437374 0.302353 1.310813 0.061787 -0.021656 149623.000000 0 0 1
27.408817 9.381873 6.576475 29.707117 0.329793 1.347570 0.052166 -0.017054 1772520.000000 0 0 1
25.957197 9.597673 6.638475 28.459809 0.354160 1.335370 0.051124 -0.009805 1942450.000000 0 0 1
25.384747 9.879573 5.353675 27.760640 0.371156 1.376729 0.051830 -0.014269 -1528580.000000 0 0 1
23.927247 10.085973 5.427075 26.527215 0.398925 1.364756 0.025539 -0.010323 -1703730.000000 0 0 1
23.690847 11.391073 5.947475 26.951535 0.448188 1.348292 0.017585 -0.002755 213433.000000 0 0 1
22.303747 11.651873 6.094975 25.891543 0.481421 1.333162 0.019688 -0.006069 171500.000000 0 0 1
21.983947 13.079973 6.533675 26.402055 0.536719 1.320730 0.021316 -0.001759 -336035.000000 0 0 1
22.126947 14.085273 5.588575 26.818442 0.566874 1.360872 0.021329 0.003078 189916.000000 0 0 1
22.085047 15.290173 6.353975 27.602748 0.605561 1.338520 0.038960 -0.002089 -60379.400000 0 0 1
22.025947 16.479673 5.401075 28.033793 0.642344 1.376921 0.047520 0.005482 -339969.000000 0 0 1
20.746247 16.385473 4.830775 26.874279 0.668493 1.390059 0.068887 -0.004354 7685.970000 0 0 1
20.541047 17.396273 3.892675 27.197754 0.702693 1.427178 0.055595 0.000370 -779650.000000 0 0 1
19.177947 17.447573 3.212375 26.125290 0.738188 1.447524 0.070823 -0.005014 -766696.000000 0 0 1
18.253747 17.946473 4.149175 25.932428 0.776910 1.410106 0.070356 -0.005816 -165276.000000 0 0 1
17.034747 18.202673 3.487975 25.173118 0.818531 1.431790 0.079061 -0.007137 778558.000000 0 0 1
15.961047 19.147673 4.214875 25.281486 0.875915 1.403296 0.063740 -0.013867 -184848.000000 0 0 1
14.656747 18.895373 3.860975 24.223180 0.911062 1.410722 0.050515 -0.017485 -951895.000000 0 1 0
13.901547 20.075473 4.113575 24.762857 0.965146 1.403904 0.046560 -0.020363 10615.100000 0 1 0
12.411047 19.835473 3.795575 23.704144 1.011694 1.409981 0.033684 -0.017599 -91902.300000 0 1 0
11.690947 19.073973 4.760675 22.872663 1.020926 1.361125 0.022802 -0.019810 -524483.000000 0 1 0
10.345347 18.994173 4.372875 22.066419 1.072063 1.371307 0.026832 -0.016431 -592487.000000 0 1 0
9.628947 18.389273 5.551675 21.487277 1.088434 1.309461 0.026435 -0.019098 -797907.000000 0 1 0
9.426447 19.288173 6.645975 22.473551 1.116216 1.270583 0.030216 -0.021952 -221860.000000 0 1 0
8.881847 18.620673 7.757975 22.040935 1.125727 1.211110 0.031496 -0.023109 -137214.000000 0 1 0
7.890747 19.449073 8.636875 22.696386 1.185374 1.180417 0.016955 -0.026921 -599810.000000 0 1 0
6.691047 19.714373 8.024075 22.311710 1.243596 1.202919 0.022102 -0.028226 -995411.000000 0 1 0
6.607747 21.063173 7.454075 23.299845 1.266809 1.245152 0.022797 -0.012716 -866450.000000 0 1 0
5.368347 21.312073 6.619875 22.953134 1.324037 1.278232 0.017838 -0.001006 150249.000000 0 1 0
4.047847 21.287273 7.147775 22.817181 1.382886 1.252169 0.019038 -0.016194 499271.000000 0 1 0
3.712347 22.342673 8.052075 24.037730 1.406146 1.229216 0.008729 -0.012312 -681212.000000 0 1 0
3.533847 23.794673 7.513375 25.201693 1.423360 1.268064 0.014374 -0.000116 -246310.000000 0 0 1
2.665347 23.855973 6.408875 24.845225 1.459531 1.309894 0.015069 -0.006993 -85417.700000 0 1 0
2.936047 25.015073 5.631575 25.808698 1.453960 1.350822 0.018259 0.003449 -221872.000000 0 0 1
1.872347 25.508473 4.622675 25.991479 1.497527 1.391992 0.016804 -0.001732 328550.000000 0 0 1
0.659947 25.899373 5.267075 26.437759 1.545321 1.370229 0.030663 -0.010302 255131.000000 0 0 1
-0.328853 26.339673 4.372775 26.702203 -1.558312 1.406295 0.037041 -0.007692 78601.100000 0 0 1
-1.678753 26.669473 5.053275 27.195856 -1.507933 1.383900 0.033575 -0.012108 -285124.000000 0 0 1
-2.581953 27.210973 4.173475 27.649980 -1.476193 1.419278 0.048085 -0.008920 -469657.000000 0 0 1
-3.740853 27.711273 4.799675 28.371562 -1.436614 1.400807 0.032148 -0.007301 162882.000000 0 0 1
-4.836353 28.311673 3.866475 28.980869 -1.401604 1.436983 0.035928 -0.008109 45555.700000 0 0 1
-4.426053 29.485873 3.191275 29.986512 -1.421801 1.464171 0.036516 -0.004752 -120650.000000 0 0 1
-5.293853 29.854773 2.158775 30.397247 -1.395300 1.499718 0.041794 -0.008842 -34637.600000 0 0 1
-4.607153 30.814973 1.070775 31.175872 -1.422385 1.536443 0.033153 -0.002331 287597.000000 0 0 1
-4.338353 32.137673 1.497275 32.463721 -1.436615 1.524658 0.029566 0.002662 226352.000000 0 0 1
-3.145353 32.351073 2.233175 32.580243 -1.473875 1.502199 0.028426 -0.007371 -279422.000000 0 0 1
-2.454753 33.704873 2.019675 33.854444 -1.498094 1.511103 0.023650 -0.008928 -945823.000000 0 0 1
-1.676753 33.753973 0.882675 33.807119 -1.521161 1.544684 0.016612 -0.001335 -331243.000000 0 0 1
-1.018353 -34.112742 0.744375 34.136055 1.540953 1.548988 0.019818 -0.008278 1136920.000000 0 0 1
0.420947 -34.055342 1.397475 34.086602 -1.558436 1.529787 0.016502 -0.005955 406976.000000 0 0 1
0.254447 -34.130142 2.807575 34.246369 -1.563341 1.488723 0.010530 -0.012180 427742.000000 0 0 1
1.437947 34.543073 3.468575 34.746548 1.529193 1.470805 0.005328 -0.012802 310357.000000 0 0 1
1.197447 -34.478042 4.993775 34.858385 -1.536080 1.427043 0.004715 -0.019443 706327.000000 0 0 1
0.090947 33.844473 5.481175 34.285564 1.568109 1.410239 0.005556 -0.024264 494582.000000 0 0 1
-0.232653 34.278973 6.785475 34.944882 -1.564009 1.375378 0.017242 -0.023615 755050.000000 0 0 1
0.860647 33.911473 7.900475 34.830248 1.545423 1.341977 0.011965 -0.020450 665303.000000 0 0 1
0.957847 32.529973 8.104275 33.537977 1.541360 1.326736 0.018603 -0.017671 -161541.000000 0 0 1
1.908547 32.419973 9.137175 33.737000 1.511995 1.296536 0.023836 -0.011285 -293488.000000 0 0 1
2.720347 31.138273 9.220775 32.588572 1.483654 1.283933 0.015250 -0.013730 -211461.000000 0 0 1
1.995847 30.076773 9.763575 31.684745 1.504535 1.257551 0.024393 -0.012727 275126.000000 0 0 1
2.786247 28.896173 9.765475 30.628687 1.474671 1.246297 0.018079 -0.009276 -91416.300000 0 0 1
2.486547 28.108173 11.102075 30.323396 1.482563 1.195958 0.021211 -0.008138 -165440.000000 0 0 1
2.985547 28.659373 12.317875 31.336930 1.466997 1.166819 0.022583 -0.005120 10488.900000 0 0 1
3.136247 27.744673 13.442075 30.988583 1.458235 1.122118 0.016793 -0.007411 759362.000000 0 0 1
1.763347 27.312673 14.136775 30.804868 1.506324 1.094024 0.021070 -0.006588 1678090.000000 0 0 1
0.881447 28.267473 14.714275 31.880039 1.539624 1.091053 0.020858 -0.005327 401127.000000 0 0 1
0.045747 28.938473 13.778575 32.051309 1.569216 1.126424 0.024348 -0.004499 -375427.000000 0 0 1
-0.727253 30.067373 14.482975 33.381617 -1.546614 1.122023 0.013236 -0.000201 1023770.000000 0 0 1
-1.888853 29.695773 15.282175 33.450733 -1.507275 1.096339 0.004228 0.006235 902620.000000 0 0 1
-2.574353 30.810673 15.759075 34.702641 -1.487436 1.099415 0.012947 0.007905 89395.400000 0 0 1
-3.910053 30.526073 16.495175 34.917337 -1.443401 1.078777 0.005813 0.007826 570050.000000 0 0 1
-4.893353 29.971273 15.607375 34.143993 -1.408956 1.096059 0.015739 0.006375 953616.000000 0 0 1
-6.124253 29.736673 16.310175 34.464445 -1.367687 1.077824 0.019319 0.011720 -362144.000000 0 0 1
-7.240053 29.258973 15.401575 33.848403 -1.328222 1.098406 0.017088 0.006989 -308705.000000 0 0 1
-8.472653 29.166273 16.093175 34.372192 -1.288082 1.083540 0.022544 0.006105 -387245.000000 0 0 1
-9.474753 28.617573 15.309875 33.810186 -1.251074 1.100872 0.028166 0.004584 -733418.000000 0 0 1
-10.718253 28.263473 16.106175 34.250748 -1.208326 1.081230 0.031248 0.001307 -823165.000000 0 0 1
-11.472053 29.339673 16.647375 35.630879 -1.198065 1.084655 0.032689 -0.005163 436469.000000 0 0 1
-11.089153 29.609573 18.010575 36.387868 -1.212453 1.053006 0.037758 -0.006350 -301651.000000 0 0 1
-11.931953 30.735473 18.599275 37.854641 -1.200491 1.057176 0.045347 -0.006114 -99031.200000 0 0 1
-13.286753 30.394973 18.834275 38.146063 -1.158691 1.054410 0.056824 -0.009165 -70006.000000 0 0 1
-14.021953 31.487273 19.233875 39.471578 -1.151840 1.061819 0.061212 -0.016980 -18957.800000 0 0 1
-14.814953 31.193273 20.566075 40.192867 -1.127396 1.033652 0.049530 -0.018034 335538.000000 0 0 1
-13.993353 31.118273 21.737175 40.455724 -1.148206 1.003555 0.051247 -0.013704 -179784.000000 0 0 1
-14.732453 30.712673 22.807475 40.993833 -1.123531 0.980793 0.041349 -0.003399 -296767.000000 0 0 1
-13.967253 30.856773 24.181575 41.616982 -1.145743 0.950777 0.021308 0.002749 -424557.000000 0 0 1
-12.815053 30.067473 24.349075 40.757281 -1.167901 0.930521 0.029767 0.001018 339234.000000 0 0 1
-12.326953 29.870873 25.694275 41.284605 -1.179411 0.899030 0.024378 0.002044 139391.000000 0 0 1
-11.913253 31.154773 26.484475 42.590761 -1.205563 0.899711 0.013950 0.007414 79866.500000 0 0 1
-13.048353 31.989373 26.713575 43.671439 -1.183501 0.912596 0.005506 0.006055 619484.000000 0 0 1
-12.559653 33.188673 27.111775 44.657376 -1.209020 0.918382 0.003010 0.003617 -185724.000000 0 0 1
-13.688353 34.176573 27.522875 45.966486 -1.189843 0.928845 0.000118 0.006259 158401.000000 0 0 1
-14.419153 33.802473 28.672775 46.611664 -1.167596 0.908231 -0.012265 0.001290 157072.000000 0 0 1
-13.636353 33.660473 29.842675 47.005987 -1.185888 0.882957 -0.011175 0.012687 -672856.000000 0 0 1
-14.367353 32.901173 30.946875 47.398493 -1.159073 0.859378 -0.011370 0.006785 619841.000000 0 0 1
-15.509253 33.567573 31.533875 48.597368 -1.137983 0.864684 -0.008408 0.008384 482732.000000 0 0 1
-16.152053 32.789173 32.494975 48.907485 -1.113084 0.844083 -0.008589 0.009374 16928.500000 0 0 1
-17.603453 33.204173 32.799075 49.881640 -1.083315 0.853250 -0.007726 0.010689 -84046.300000 0 0 1
-17.855753 34.445073 33.408675 51.199908 -1.092550 0.859899 0.002672 0.003713 239790.000000 0 0 1
-19.249853 -34.377142 33.524975 51.732665 1.060338 0.865785 0.010594 -0.000967 549355.000000 0 0 1
-19.655853 -32.866442 33.675475 50.996011 1.031810 0.849505 0.012734 -0.001987 -99095.300000 0 0 1
-19.341453 -32.276742 -33.947837 50.678748 1.030937 2.304821 0.025951 0.001524 -340489.000000 0 0 1
-20.244453 -32.577342 -32.935837 50.555815 1.014770 2.280323 0.031681 0.004249 -210540.000000 0 0 1
-19.881353 -31.758342 -31.672637 49.061353 1.011464 2.272568 0.047208 0.000041 33620.500000 0 0 1
-20.185153 -30.375942 -31.892437 48.448589 0.984287 2.289320 0.049688 -0.001688 178535.000000 0 0 1
-19.557353 -29.641442 -30.854337 47.043546 0.987564 2.286128 0.047233 0.005874 100664.000000 0 0 1
-19.948553 -28.111242 -30.910437 46.299479 0.953637 2.301803 0.057845 -0.006907 -154668.000000 0 0 1
-21.311453 -27.917642 -30.659737 46.621800 0.918794 2.288460 0.060508 -0.003276 -428570.000000 0 0 1
-21.696253 -26.562142 -30.741037 46.057422 0.885888 2.301576 0.065092 -0.009919 246202.000000 0 0 1
-23.017753 -26.285242 -29.979837 46.038261 0.851575 2.279953 0.060945 -0.009970 -127578.000000 0 0 1
-22.920053 -26.339742 -28.587237 45.125834 0.854708 2.256865 0.060720 -0.001201 447526.000000 0 0 1
-22.122653 -25.271742 -28.012937 43.735539 0.851745 2.265955 0.067203 -0.003302 225910.000000 0 0 1
-21.785053 -25.573042 -26.545137 42.816040 0.865214 2.239515 0.062574 -0.003253 38268.400000 0 0 1
-22.770953 -25.102142 -25.646537 42.501514 0.834055 2.218587 0.049183 -0.015353 95640.300000 0 0 1
-22.532153 -25.558342 -24.331537 41.868251 0.848242 2.190932 0.047155 -0.004826 -488611.000000 0 0 1
-23.669953 -25.308142 -23.302237 41.758388 0.818833 2.162801 0.028647 -0.010495 -426641.000000 0 0 1
-24.863253 -25.977742 -23.481037 42.946286 0.807316 2.149278 0.028999 -0.007206 -761049.000000 0 0 1
-24.800753 -27.419842 -23.375937 43.741965 0.835510 2.134600 0.046828 0.008351 -1088040.000000 0 0 1
-26.170353 -28.127342 -23.463537 45.017466 0.821424 2.119064 0.025411 0.007925 322385.000000 0 0 1
-26.917853 -27.994342 -22.264137 44.765453 0.804999 2.091339 0.018369 0.009634 -37613.500000 0 0 1
-27.949053 -27.028242 -22.406837 44.874734 0.768651 2.093610 0.014189 0.010614 -86489.300000 0 0 1
-28.649153 -26.659642 -21.086237 44.453795 0.749443 2.065011 0.016640 0.013285 -174975.000000 0 0 1
-29.474453 -27.671142 -20.553037 45.352649 0.753852 2.041129 0.020578 0.003968 308340.000000 0 0 1
-30.003253 -27.271342 -19.300337 44.904613 0.737736 2.015076 0.022679 0.001702 -680649.000000 0 0 1
-30.824353 -28.288442 -18.468837 45.732643 0.742525 1.986511 0.015678 0.002124 -553522.000000 0 0 1
-32.085053 -28.648742 -18.938037 46.998407 0.728879 1.985535 0.011836 0.006819 397047.000000 0 0 1
-33.154553 -27.705742 -19.077837 47.231307 0.696106 1.986598 0.016166 0.011386 325322.000000 0 0 1
-33.778953 -27.153242 -17.741437 46.830276 0.677085 1.959345 0.028276 0.006181 -466906.000000 0 0 1
-32.774753 -26.360142 -17.174737 45.431411 0.677346 1.958471 0.025667 0.009998 330002.000000 0 0 1
-33.181853 -25.838342 -15.888337 44.956585 0.661611 1.932016 0.028675 0.008317 5169.960000 0 0 1
-32.709553 -26.647442 -14.636837 44.656892 0.683621 1.904730 0.033676 0.006286 64847.100000 0 0 1
-33.500653 -27.798142 -14.374237 45.843747 0.692637 1.889724 0.040483 0.007070 298663.000000 0 0 1
-32.993953 -28.430642 -13.230637 45.518700 0.711243 1.865717 0.027053 0.005675 -318653.000000 0 0 1
-33.732653 -29.691442 -12.848737 46.739316 0.721767 1.849284 0.028612 0.005990 -388564.000000 0 0 1
-33.519553 -30.749142 -13.751837 47.520345 0.742318 1.864384 0.022731 0.002713 225267.000000 0 0 1
-33.964353 -32.024042 -13.278337 48.532780 0.756003 1.847925 0.012780 -0.006623 -206546.000000 0 0 1
-33.395553 -33.160742 -14.132937 49.138963 0.781870 1.862528 0.004355 0.002543 536790.000000 0 0 1
-32.002853 -33.507242 -14.077237 48.426093 0.808358 1.865750 -0.003130 0.003116 648237.000000 0 0 1
-31.691853 -34.278642 -15.190737 49.093353 0.824589 1.885385 0.001406 -0.003193 -886977.000000 0 0 1
-30.241253 34.455773 -15.333837 48.341082 -0.850449 1.893573 -0.010264 -0.000038 -810951.000000 0 0 1
-29.896253 33.820973 -16.527737 48.070888 -0.846916 1.921778 -0.004868 0.001679 -185404.000000 0 0 1
-28.501153 33.561873 -16.400237 46.985985 -0.866760 1.927348 0.003859 -0.003363 263422.000000 0 0 1
9.216112 20.110373 -8.819925 23.815014 1.141081 1.950184 0.000367 -0.003979 -292254.000000 0 1 0
7.821212 20.368073 -8.920925 23.571437 1.204164 1.958932 0.002065 -0.001809 370593.000000 0 1 0
7.339712 20.479073 -10.229825 24.039824 1.226657 2.010351 0.007607 -0.003258 21509.300000 0 1 0
7.308912 19.076273 -10.987425 23.195859 1.204907 2.064261 0.001365 -0.002989 27391.600000 0 1 0
8.617112 18.591373 -11.319225 23.409797 1.136772 2.075474 0.005973 -0.003966 517448.000000 0 1 0
8.513512 17.454573 -12.153125 22.909396 1.116995 2.129971 0.003951 -0.011663 -157792.000000 0 1 0
9.725012 17.215273 -13.064125 23.698372 1.056581 2.154678 0.010682 -0.004138 6244.050000 0 1 0
9.477912 16.138873 -13.882725 23.302877 1.039788 2.208997 0.011265 -0.014786 -369281.000000 0 1 0
10.567112 15.933373 -14.718325 24.128102 0.985193 2.226866 0.025363 -0.008345 -586295.000000 0 1 0
10.357612 14.682473 -15.594525 23.791686 0.956428 2.285589 0.025181 -0.012471 -423616.000000 0 1 0
10.270612 13.464073 -14.914525 22.565677 0.919143 2.292865 0.017175 -0.014279 1033550.000000 0 1 0
11.533812 12.853473 -14.580325 22.601470 0.839458 2.271957 0.022069 -0.010783 762647.000000 0 1 0
12.458012 12.216673 -15.676325 23.456264 0.775618 2.302746 0.024387 -0.008602 114465.000000 0 1 0
13.116112 13.145873 -16.525825 24.858585 0.786531 2.298014 0.025669 -0.013526 346220.000000 0 1 0
13.896212 12.469573 -17.505925 25.593991 0.731341 2.324009 0.031719 -0.016563 -426648.000000 0 0 1
14.636112 13.360973 -18.471425 27.091049 0.739884 2.321054 0.031954 -0.017287 82285.600000 0 0 1
15.657612 14.066773 -17.760925 27.540613 0.731929 2.271688 0.024020 -0.012797 -728367.000000 0 0 1
16.578312 14.504873 -18.652125 28.864053 0.718791 2.273399 0.033153 -0.014054 -1030090.000000 0 0 1
17.681212 15.454373 -18.171025 29.692576 0.718295 2.229348 0.026114 -0.000730 -447939.000000 0 0 1
17.367612 16.820173 -17.800925 30.023742 0.769387 2.205445 0.025261 -0.000916 69779.000000 0 0 1
16.928612 17.629073 -18.915325 30.905528 0.805665 2.229430 0.026117 0.004631 -176108.000000 0 0 1
16.591812 19.041373 -18.519725 31.318402 0.854034 2.203512 0.024604 0.001502 92185.800000 0 0 1
17.708412 19.914773 -18.364325 32.364092 0.843975 2.174176 0.020363 0.006246 140511.000000 0 0 1
17.337812 21.150773 -17.916525 32.694905 0.884143 2.150757 0.009983 0.008799 120563.000000 0 0 1
18.382912 22.290573 -18.126025 34.107974 0.881178 2.131085 0.018042 0.006432 1434690.000000 0 0 1
19.623212 22.349973 -17.378825 34.447283 0.850271 2.099605 0.021324 -0.000933 859818.000000 0 0 1
19.435312 23.190173 -16.241825 34.341117 0.873261 2.063439 0.025797 0.001225 -117264.000000 0 0 1
20.692312 23.444473 -15.377525 34.846569 0.847673 2.027835 0.024467 -0.000254 -512465.000000 0 0 1
21.009412 22.558173 -14.306625 33.984498 0.820932 2.005316 0.027584 0.001707 405860.000000 0 0 1
21.955312 23.226173 -13.432725 34.668847 0.813519 1.968669 0.023941 -0.000985 1391190.000000 0 0 1
23.475212 23.118273 -13.811125 35.725163 0.777738 1.967732 0.018539 -0.004276 296588.000000 0 0 1
23.791912 23.692573 -15.060625 36.799667 0.783306 1.992439 0.011935 -0.001959 -433657.000000 0 0 1
25.089512 24.217673 -15.001225 37.960717 0.767718 1.977057 0.011410 -0.005450 -406133.000000 0 0 1
25.616212 24.755873 -16.391525 39.213845 0.768320 2.002043 0.011321 -0.006861 -452897.000000 0 0 1
25.959312 23.752073 -17.366825 39.238418 0.741026 2.029290 0.018203 -0.017431 182791.000000 0 0 1
26.183512 24.370973 -18.620525 40.326723 0.749560 2.050754 0.011487 -0.007576 -1187040.000000 0 0 1
26.616512 23.274973 -19.618325 40.435650 0.718522 2.077358 -0.000163 -0.010663 -610478.000000 0 0 1
28.011512 23.163373 -19.685825 41.336647 0.690943 2.067161 0.001475 -0.006800 -651152.000000 0 0 1
28.346312 22.188073 -20.681825 41.515803 0.664134 2.092280 0.006029 -0.001086 -1218960.000000 0 0 1
29.808912 22.294073 -20.933225 42.705934 0.642155 2.083083 0.027608 -0.004765 -1541680.000000 0 0 1
30.215612 23.456873 -21.608525 43.933318 0.660132 2.085008 0.014719 0.000837 1153560.000000 0 0 1
31.643512 23.488573 -21.862625 45.066609 0.638547 2.077294 0.029984 -0.001439 1461700.000000 0 0 1
32.273512 24.812673 -22.440225 46.484535 0.655440 2.074584 0.020488 -0.000297 17990.300000 0 0 1
32.006912 25.103973 -23.841025 47.149192 0.665113 2.100932 0.023350 -0.003523 22569.800000 0 0 1
30.675312 25.338173 -24.252925 46.596160 0.690402 2.118223 0.012181 -0.004113 -292306.000000 0 0 1
30.451412 25.760573 -25.711215 47.454844 0.702142 2.143378 0.012508 -0.004948 -134099.000000 0 0 1
30.705212 27.118673 -26.051835 48.548229 0.723452 2.137220 0.011107 -0.008159 -959217.000000 0 0 1
29.659612 27.782973 -26.649625 48.598237 0.752740 2.151205 0.007131 -0.002145 -826742.000000 0 0 1
29.312112 27.492973 -28.131005 49.055243 0.753385 2.181514 0.008611 0.003188 215574.000000 0 0 1
28.741412 26.184273 -28.294995 48.086294 0.738875 2.199901 0.007793 -0.007495 20656.100000 0 0 1
28.621412 25.868173 -29.676135 48.672586 0.734913 2.226490 0.014166 -0.013071 -315942.000000 0 0 1
27.959812 24.480773 -29.863055 47.674536 0.719153 2.247715 0.012472 -0.013847 980332.000000 0 0 1
26.539712 24.431873 -29.592805 46.658406 0.744068 2.257826 0.012730 -0.010877 822193.000000 0 0 1
26.039612 23.127273 -29.685745 45.762163 0.726234 2.276666 0.016048 -0.013051 177.959000 0 0 1
24.638612 23.086073 -29.026855 44.526243 0.752878 2.280890 -0.002033 -0.007938 -4467.130000 0 0 1
24.557112 23.104973 -27.621175 43.586934 0.754940 2.257127 -0.008166 0.003131 -991122.000000 0 0 1
23.260412 23.030273 -27.173375 42.542127 0.780427 2.263656 -0.006466 -0.003103 -1289820.000000 0 0 1
23.104312 23.326873 -25.676365 41.680067 0.790191 2.234495 -0.002470 0.001167 -130430.000000 0 0 1
23.672912 22.249373 -24.899425 40.931928 0.754409 2.224730 -0.013841 0.001022 350650.000000 0 0 1
23.801512 22.607673 -23.559025 40.406021 0.759680 2.193283 -0.008428 0.002369 -623978.000000 0 0 1
24.351112 21.516473 -22.726925 39.654109 0.723676 2.181116 -0.000478 0.003209 448614.000000 0 0 1
25.646712 21.048773 -23.119125 40.438826 0.687248 2.179380 -0.015747 0.001066 506653.000000 0 0 1
25.791812 19.734273 -22.625325 39.579849 0.653119 2.179296 0.010238 -0.004997 65265.900000 0 0 1
26.914312 18.939973 -23.334625 40.343618 0.613214 2.187559 0.023311 -0.011061 -246345.000000 0 0 1
28.178512 19.112573 -22.758725 40.954591 0.595991 2.160009 0.043945 -0.025276 -844132.000000 0 0 1
29.102812 18.336373 -23.472725 41.643308 0.562226 2.169608 0.037406 -0.014750 -644737.000000 0 0 1
30.302712 17.997273 -22.594925 41.865103 0.535934 2.140886 0.037162 -0.013163 -653410.000000 0 0 1
30.964812 19.212273 -22.352825 42.750202 0.555324 2.121011 0.035358 -0.010524 573360.000000 0 0 1
32.263812 18.965173 -21.763225 43.292832 0.531412 2.097513 0.043905 -0.007632 1102130.000000 0 0 1
32.797012 20.098273 -20.861825 43.758431 0.549784 2.067750 0.030121 -0.012683 -63446.700000 0 0 1
32.244912 20.102973 -19.565125 42.739420 0.557481 2.046290 0.038508 -0.008223 319384.000000 0 0 1
32.923512 21.030073 -18.690025 43.307490 0.568430 2.017024 0.029474 -0.005017 -125060.000000 0 0 1
32.310412 21.194873 -17.277425 42.328416 0.580565 1.991251 0.031824 -0.008491 -104623.000000 0 0 1
32.363612 19.882073 -16.714325 41.497818 0.550893 1.985344 0.035850 -0.018495 415531.000000 0 0 1
31.963212 19.901273 -15.342725 40.658416 0.556894 1.957737 0.037562 -0.017642 -219105.000000 0 0 1
32.457412 18.664773 -14.565125 40.174622 0.521875 1.941794 0.027981 -0.006809 -204852.000000 0 0 1
33.864912 18.656373 -14.414325 41.263365 0.503538 1.927647 0.023282 -0.016703 26445.300000 0 0 1
34.363712 17.582173 -13.711325 40.963373 0.472924 1.912106 0.010092 -0.002322 -188942.000000 0 0 1
34.339112 17.687073 -12.181125 40.501691 0.475631 1.876282 0.020541 -0.013752 -638224.000000 0 0 1
35.309312 18.588873 -11.716525 41.588107 0.484589 1.856391 0.022224 -0.018657 -45603.400000 0 0 1
35.126512 18.937373 -10.346925 41.225657 0.494451 1.824492 0.023459 -0.021081 -203470.000000 0 0 1
33.994512 19.943773 -10.046925 40.673353 0.530565 1.820395 0.024255 -0.021686 -196669.000000 0 0 1
32.717112 19.465273 -10.343125 39.449797 0.536703 1.836082 0.041977 -0.025540 -637221.000000 0 0 1
31.716812 20.455973 -10.241925 39.106266 0.572822 1.835787 0.032372 -0.010522 618097.000000 0 0 1
30.280612 19.920973 -10.550025 37.750015 0.581894 1.854039 0.015057 -0.007082 519533.000000 0 0 1
30.151312 19.659773 -11.932825 37.920978 0.577806 1.890912 0.022881 -0.014302 553996.000000 0 0 1
28.814312 19.218173 -12.205825 36.723084 0.588210 1.909617 0.027641 -0.011525 691401.000000 0 0 1
28.629212 18.550773 -13.593925 36.722714 0.574944 1.949996 0.056028 -0.014245 -293695.000000 0 0 1
29.346712 17.350973 -13.810225 36.783258 0.533954 1.955677 0.044863 -0.010208 -174429.000000 0 0 1
28.953012 16.577073 -14.923425 36.548391 0.519992 1.991409 0.038079 -0.008039 -507556.000000 0 0 1
30.078112 15.878773 -15.707525 37.464044 0.485732 2.003437 0.043645 -0.018275 -274959.000000 0 0 1
30.723112 15.007373 -14.822425 37.267079 0.454383 1.979843 0.038342 -0.016838 -199055.000000 0 0 1
31.823212 14.292673 -15.320925 38.101549 0.422128 1.984614 0.034901 -0.012818 -115534.000000 0 0 1
32.451412 13.410173 -14.214625 37.881162 0.391867 1.955455 0.020810 -0.028827 -600989.000000 0 0 1
33.206412 14.175273 -13.294525 38.475298 0.403465 1.923604 0.018814 -0.008897 -1053.090000 0 0 1
33.737712 13.251873 -12.367825 38.298935 0.374276 1.899619 0.016837 -0.005427 -236371.000000 0 0 1
34.761712 13.878473 -11.400125 39.127375 0.379856 1.866444 0.020541 0.002498 261130.000000 0 0 1
-34.920022 14.449073 -11.938725 39.632270 -0.392326 1.876786 -0.000828 0.002558 53531.600000 0 0 1
-34.040122 15.037473 -11.008925 38.807885 -0.415978 1.858423 -0.010996 0.003038 778587.000000 0 0 1
-32.554722 15.350573 -11.414225 37.758900 -0.440614 1.877893 0.001737 -0.017564 1653550.000000 0 0 1
-31.645722 14.277873 -11.781825 36.662253 -0.423834 1.897963 0.004319 -0.004242 632553.000000 0 0 1
-31.297522 13.356573 -10.749825 35.686015 -0.403362 1.876782 0.013905 -0.000899 326198.000000 0 0 1
-30.303922 12.186573 -11.248925 34.545312 -0.382354 1.902472 0.015871 -0.002755 680028.000000 0 0 1
-30.715222 11.456473 -12.430225 35.059751 -0.357007 1.933223 0.001093 -0.000035 139704.000000 0 0 1
-29.955222 10.274973 -12.647725 34.100665 -0.330435 1.950768 0.030534 -0.008292 -181802.000000 0 0 1
-29.887722 9.639973 -14.073125 34.413048 -0.312005 1.992097 0.038320 -0.013829 213884.000000 0 0 1
-31.038622 8.848873 -14.331425 35.314138 -0.277725 1.988680 0.010741 -0.005110 584929.000000 0 0 1
-30.865522 8.319373 -15.605925 35.572986 -0.263279 2.024950 0.027050 -0.016709 783315.000000 0 0 1
-32.198922 7.714073 -16.194025 36.858160 -0.235144 2.025683 0.030106 -0.013653 599990.000000 0 0 1
-32.668922 6.585473 -15.540325 36.771302 -0.198916 2.007132 0.022694 -0.010983 -284429.000000 0 0 1
-33.762322 5.920573 -16.086525 37.864546 -0.173595 2.009586 0.005526 -0.013910 -37822.300000 0 0 1
-34.699422 5.201073 -15.058125 38.181778 -0.148782 1.976189 0.011833 -0.008521 338692.000000 0 0 1
35.061112 4.490373 -15.619225 38.644602 0.127379 1.986874 0.017262 -0.003884 482924.000000 0 0 1
34.202612 4.018773 -14.558725 37.388844 0.116963 1.970762 0.030615 -0.008020 150571.000000 0 0 1
33.274412 2.885873 -14.965425 36.598890 0.086513 1.992049 0.042338 -0.002737 -534234.000000 0 0 1
33.964912 1.656973 -15.088325 37.202397 0.048746 1.988403 0.039806 -0.006513 -79803.700000 0 0 1
33.198012 0.470873 -15.171525 36.503492 0.014183 1.999419 0.040915 -0.001281 -201304.000000 0 0 1
32.516612 0.103573 -13.820025 35.331769 0.003185 1.972677 0.049958 -0.016663 -262162.000000 0 0 1
33.444012 -0.062827 -12.769325 35.798904 -0.001879 1.935525 0.062196 -0.019590 148182.000000 0 0 1
32.883212 -0.081427 -11.453025 34.820742 -0.002476 1.905950 0.067571 -0.009769 -118719.000000 0 0 1
33.093812 1.223573 -10.722025 34.808898 0.036956 1.883913 0.069284 -0.020494 -115184.000000 0 0 1
32.290412 2.217873 -11.305925 34.284306 0.068577 1.906856 0.065171 -0.009500 166802.000000 0 0 1
32.676512 3.483273 -10.835725 34.602031 0.106198 1.889307 0.067689 -0.014420 -176685.000000 0 0 1
31.733012 4.675073 -11.163125 33.962564 0.146273 1.905712 0.061093 -0.015359 -205349.000000 0 0 1
31.777312 4.898973 -12.587325 34.528803 0.152962 1.943941 0.054735 -0.009115 545266.000000 0 0 1
30.866712 5.903673 -13.033725 34.021835 0.188981 1.963945 0.050758 -0.011548 -88351.400000 0 0 1
31.127812 6.352273 -14.430525 34.893153 0.201307 1.997161 0.029056 -0.004754 -345423.000000 0 0 1
30.891212 5.404273 -15.467225 34.967245 0.173193 2.028997 0.022384 -0.000830 107757.000000 0 0 1
31.250712 5.909073 -16.737125 35.939609 0.186880 2.055223 0.015714 0.004544 -815110.000000 0 0 1
30.385912 7.046973 -17.394425 35.714556 0.227887 2.079494 0.021125 0.002182 595866.000000 0 0 1
29.125512 6.746373 -17.971625 34.882493 0.227617 2.112043 0.006682 0.007529 547908.000000 0 0 1
28.139712 6.153773 -17.145825 33.521510 0.215297 2.107711 0.005568 0.008446 -644533.000000 0 0 1
26.714512 6.146173 -17.734225 32.648788 0.226134 2.145018 0.001105 0.006431 -27760.100000 0 0 1
26.651512 5.441073 -18.916225 33.132038 0.201389 2.178440 0.002144 -0.001233 145286.000000 0 0 1
25.325212 5.357073 -19.388825 32.341786 0.208458 2.213670 0.005640 -0.007560 -13027.800000 0 0 1
25.114412 4.225573 -20.373225 32.613762 0.166692 2.245520 0.009609 0.018260 -100781.000000 0 0 1
25.014912 2.981673 -19.775925 32.026917 0.118636 2.236329 0.000655 -0.001424 133769.000000 0 0 1
24.466212 1.974873 -20.577725 32.030274 0.080544 2.268482 0.009025 0.000039 -119368.000000 0 0 1
23.451112 1.028673 -19.860525 30.748224 0.043836 2.273008 0.009231 -0.006103 852791.000000 0 0 1
22.168012 1.603873 -19.583525 29.622755 0.072225 2.293077 0.010998 -0.004819 554294.000000 0 0 1
21.296212 0.719473 -18.938425 28.508073 0.033771 2.297377 0.007804 -0.005271 -428067.000000 0 0 1
19.931112 1.351273 -18.646525 27.327057 0.067694 2.321764 0.005286 -0.003260 -1341970.000000 0 0 1
19.169212 1.505973 -19.839825 27.628704 0.078401 2.371847 0.007323 -0.008593 654200.000000 0 0 1
18.025712 2.351773 -19.707825 26.811481 0.129735 2.396539 -0.005139 -0.009662 1068500.000000 0 0 1
16.867312 1.967673 -18.728225 25.280909 0.116131 2.405064 0.009859 -0.010845 -660413.000000 0 0 1
17.215112 2.114873 -17.335825 24.522716 0.122237 2.355943 0.009757 -0.013349 -329071.000000 0 1 0
16.182312 1.994673 -16.410925 23.133621 0.122644 2.359439 -0.002162 -0.007469 143178.000000 0 1 0
15.144412 3.185773 -16.245125 22.436721 0.207337 2.380441 0.006681 -0.012668 933503.000000 0 1 0
14.337512 3.568273 -17.385925 22.815942 0.243921 2.437204 0.007057 -0.005252 608391.000000 0 1 0
13.929212 4.902273 -17.290025 22.737638 0.338404 2.434747 0.040821 -0.009225 -88455.700000 0 1 0
-19.657988 -21.924527 -17.689525 34.351720 0.839851 2.111749 0.030396 -0.006325 -43993.100000 0 0 1
-19.307088 -22.674627 -18.848225 35.244261 0.865441 2.135054 0.029378 -0.008639 145643.000000 0 0 1
-20.203688 -22.298827 -19.861425 36.054166 0.834653 2.154211 0.032671 -0.005716 -221689.000000 0 0 1
-20.014588 -23.112127 -21.145425 37.173689 0.857099 2.175876 0.023341 -0.004137 -14126.400000 0 0 1
-20.219888 -24.492727 -20.940425 38.042594 0.880671 2.153696 0.018191 -0.001336 52279.500000 0 0 1
-19.521988 -25.188697 -21.928425 38.683773 0.911468 2.173490 0.024199 -0.001893 -187629.000000 0 0 1
-19.454788 -26.710107 -21.694425 39.529314 0.941284 2.151747 0.020956 0.012683 272363.000000 0 0 1
-20.667188 -27.416917 -21.895425 40.721366 0.924860 2.138490 0.028160 0.017141 253404.000000 0 0 1
-20.364988 -28.769397 -21.750725 41.418655 0.954808 2.123680 0.047189 0.002271 134508.000000 0 0 1
-21.628188 -29.623787 -21.965725 42.753249 0.940156 2.110380 0.046248 0.003872 13608.100000 0 0 1
-22.213288 -29.556387 -23.247525 43.674450 0.926300 2.132101 0.038583 0.009339 -92213.700000 0 0 1
-21.535588 -30.220207 -24.293625 44.353384 0.951649 2.150444 0.037747 0.004483 -373551.000000 0 0 1
-21.937088 -29.674657 -25.693025 44.966128 0.934209 2.178990 0.042099 0.009923 358484.000000 0 0 1
-23.266688 -30.041477 -26.043285 46.066059 0.911808 2.171650 0.045664 0.011795 578495.000000 0 0 1
-23.807988 -29.366277 -27.203875 46.575201 0.889550 2.194549 0.045904 0.015253 165880.000000 0 0 1
-23.146388 -29.780387 -28.544435 47.301284 0.910091 2.218630 0.056966 0.004941 -342774.000000 0 0 1
-23.501488 -31.041627 -29.041475 48.572727 0.922769 2.211671 0.050178 0.012899 125343.000000 0 0 1
-23.216488 -31.078717 -30.441325 49.310914 0.929204 2.236146 0.062456 0.008331 -207956.000000 0 0 1
-23.969588 -32.230557 -31.144255 50.826318 0.931345 2.230343 0.037804 -0.000026 -134945.000000 0 0 1
-23.364188 -33.480027 -30.846125 51.169140 0.961512 2.217836 0.045005 -0.011219 4067.380000 0 0 1
-24.125988 34.512951 -31.268475 52.449257 -0.960714 2.209514 0.041605 -0.010591 334514.000000 0 0 1
-23.353788 33.135323 -31.118855 51.105109 -0.956856 2.225493 0.057378 -0.014821 97424.200000 0 0 1
-22.399988 32.895397 -32.101685 51.131055 -0.972973 2.249560 0.058089 -0.019415 -535727.000000 0 0 1
-21.925888 31.581007 -31.858855 49.930864 -0.963923 2.262772 0.056331 -0.011126 238714.000000 0 0 1
-20.643088 31.187677 -32.641895 49.641732 -0.986102 2.288358 0.050594 -0.001340 302372.000000 0 0 1
-20.947388 31.036397 -33.977865 50.562301 -0.977095 2.307702 0.035875 -0.000692 -6269.450000 0 0 1
-20.060988 30.108797 34.345929 49.886128 -0.983059 0.811396 0.016378 0.004007 -75181.500000 0 0 1
-20.214888 29.836907 32.872486 48.779945 -0.975322 0.831330 0.012295 0.000903 -148084.000000 0 0 1
-19.693288 30.886927 32.100157 48.705728 -1.003193 0.851224 0.013951 0.002661 242563.000000 0 0 1
-19.942188 30.616317 30.754657 47.758755 -0.993467 0.871135 0.023647 -0.000962 -356497.000000 0 0 1
-19.305388 31.594527 29.813107 47.536654 -1.022302 0.892894 0.021156 -0.005351 -776414.000000 0 0 1
-19.957188 32.804067 29.884647 48.656842 -1.024241 0.909435 0.031468 -0.007965 -92121.500000 0 0 1
-19.188888 33.913057 29.471527 48.855703 -1.055884 0.923244 0.015266 -0.012689 178055.000000 0 0 1
-20.084788 -33.913727 29.326667 49.128332 1.036108 0.931115 0.009824 -0.017053 391133.000000 0 0 1
-20.523188 -33.471947 30.599327 49.778422 1.020767 0.908777 0.007037 -0.008015 -2869.080000 0 0 1
-21.462488 -32.387427 30.584987 49.447197 0.985559 0.903915 0.030755 -0.014762 196099.000000 0 0 1
-21.065688 -30.947697 30.128727 48.054795 0.973150 0.893144 0.020594 -0.021170 -714784.000000 0 0 1
-20.738488 -30.592517 28.846847 46.884193 0.975061 0.908057 0.034991 -0.017346 -155139.000000 0 0 1
-20.905988 -29.231537 28.537397 45.890371 0.949951 0.899680 0.032297 -0.023215 565441.000000 0 0 1
-22.389388 -28.775397 28.251087 46.124094 0.909569 0.911575 0.032651 -0.019183 140822.000000 0 0 1
-23.294688 -28.745327 29.335537 47.217688 0.889757 0.900418 0.033960 -0.018636 474400.000000 0 0 1
-24.381988 -29.661427 29.346067 48.326734 0.882778 0.918210 0.033625 -0.010695 164776.000000 0 0 1
-25.449868 -29.587147 28.227317 48.165096 0.860430 0.944617 0.020664 -0.010462 -798161.000000 0 0 1
-24.993088 -29.606967 26.877437 47.155313 0.869701 0.964319 0.031171 -0.007824 -219169.000000 0 0 1
-26.032208 -29.506747 25.926037 47.122005 0.847877 0.988205 0.029560 -0.011289 203867.000000 0 0 1
-25.490478 -30.111977 24.559637 46.472265 0.868324 1.013988 0.030725 -0.015210 -108387.000000 0 0 1
-24.634288 -29.178977 23.948697 45.075503 0.869651 1.010660 0.023788 -0.013788 -1286.440000 0 0 1
-24.287588 -29.425937 22.616387 44.353959 0.880770 1.035720 0.032257 -0.017605 -394551.000000 0 0 1
-23.209288 -30.470707 22.292587 44.318105 0.919854 1.043715 0.026134 -0.016862 -820273.000000 0 0 1
-23.537488 -31.833087 22.553387 45.563297 0.934112 1.052973 0.022001 -0.019550 390199.000000 0 0 1
-22.576988 -32.662837 21.914187 45.352099 0.965992 1.066489 0.020879 -0.009856 167657.000000 0 0 1
-21.405388 -33.088317 22.826587 45.542073 0.996592 1.045789 0.018872 -0.004062 -89016.200000 0 0 1
-20.645488 -32.048477 23.437687 44.751159 0.998512 1.019568 0.022138 -0.011544 648354.000000 0 0 1
-19.787788 -32.701567 24.404377 45.348899 1.026634 1.002559 0.021438 -0.013668 45533.800000 0 0 1
-19.270888 -31.900987 25.599337 45.214667 1.027379 0.968940 0.016921 -0.012232 -447070.000000 0 0 1
-18.059288 -31.253747 25.243237 44.047197 1.046839 0.960518 0.025522 -0.015855 126703.000000 0 0 1
-17.424588 -30.539087 26.272367 43.891792 1.052300 0.929080 0.032460 -0.011922 188633.000000 0 0 1
-16.436588 -31.390647 27.133827 44.629348 1.088436 0.917280 0.018551 -0.018273 -417645.000000 0 0 1
-17.064588 -32.379287 27.976787 46.068634 1.085766 0.918158 0.005717 -0.015234 261067.000000 0 0 1
-16.327188 -32.700367 29.166887 46.761078 1.107711 0.897274 0.007452 -0.011813 -261946.000000 0 0 1
-16.733788 -32.005187 30.504767 47.274649 1.089039 0.869424 0.024105 -0.014629 26865.100000 0 0 1
-16.465788 -30.580277 30.551197 46.256363 1.076868 0.849344 0.018025 -0.017878 475013.000000 0 0 1
-17.091488 -30.147457 31.783497 47.023173 1.055048 0.828596 0.026929 -0.013580 282969.000000 0 0 1
-16.979988 -28.618937 31.845387 46.059659 1.035308 0.807379 0.027240 -0.016851 -704767.000000 0 0 1
-17.865288 -27.877937 31.095307 45.423188 1.000888 0.816784 0.032349 -0.018473 -567608.000000 0 0 1
-17.830488 -27.951727 29.633987 44.467950 1.002972 0.841410 0.033290 -0.017914 -391851.000000 0 0 1
-16.530688 -27.529757 28.864447 43.177627 1.030034 0.838600 0.033600 -0.015633 430847.000000 0 0 1
-16.475388 -26.165467 28.587597 42.110815 1.008852 0.824579 0.032410 -0.008148 581042.000000 0 0 1
-15.302488 -25.929877 27.802347 40.981644 1.037652 0.825200 0.018457 -0.001470 292329.000000 0 0 1
-15.231988 -24.557227 27.157477 39.656014 1.015609 0.816431 0.027743 0.003048 308538.000000 0 0 1
-16.208988 -24.341727 26.117477 39.209356 0.983329 0.841824 0.048810 -0.003486 448990.000000 0 0 1
-15.895688 -23.271527 25.295347 37.869400 0.971535 0.839328 0.043401 0.000026 -44461.600000 0 0 1
-16.270988 -21.841727 25.756177 37.485821 0.930535 0.813318 0.061307 -0.003320 -217387.000000 0 0 1
-15.968088 -20.760627 24.869087 36.117239 0.915150 0.811287 0.040382 -0.002939 -46256.400000 0 0 1
-16.521788 -19.521527 25.232907 35.927136 0.868433 0.792123 0.060788 0.000118 -121252.000000 0 0 1
-16.197088 -18.339127 24.320127 34.498374 0.847342 0.788423 0.038446 -0.007706 647202.000000 0 0 1
-14.810988 -18.004827 24.490937 33.813387 0.882419 0.760782 0.034457 -0.006263 357806.000000 0 0 1
-14.553688 -16.904427 23.674587 32.527766 0.859986 0.755648 0.040219 -0.003956 -909415.000000 0 0 1
-13.146088 -16.390927 23.765387 31.721850 0.894816 0.723973 0.027628 -0.006042 -930571.000000 0 0 1
-12.132888 -17.262827 23.314787 31.445055 0.958171 0.735575 0.006987 -0.001833 19167.500000 0 0 1
-10.832588 -16.733127 23.442187 30.771393 0.996270 0.704682 0.006380 -0.003851 15543.800000 0 0 1
-10.134388 -15.940927 22.247487 29.185093 1.004507 0.703953 0.016046 -0.007616 168375.000000 0 0 1
-9.737588 -16.750127 21.149787 28.682763 1.044207 0.741629 0.020006 -0.002223 -55294.100000 0 0 1
-8.651888 -17.607427 21.411187 29.039896 1.114071 0.741728 0.018756 0.001010 -655674.000000 0 0 1
-8.519588 -18.846827 20.477587 29.105289 1.146244 0.790389 0.014905 0.009483 100732.000000 0 0 1
-8.107388 -18.513727 19.128587 27.827876 1.158040 0.812908 0.023353 0.000496 -23588.700000 0 0 1
-7.736788 -19.665727 18.375387 28.004527 1.195980 0.855081 0.022930 0.003591 210147.000000 0 0 1
-7.543788 -19.269927 16.824887 26.670502 1.197656 0.888158 0.017167 0.001459 -331610.000000 0 0 1
-6.357588 -18.569527 16.588287 25.698590 1.240938 0.869126 0.014634 0.000788 -462790.000000 0 0 1
-6.353588 -18.078127 15.307187 24.525430 1.232829 0.896772 0.022249 -0.009914 332744.000000 0 1 0
-5.473688 -16.815827 15.037287 23.213214 1.256105 0.866116 0.013614 -0.005405 26538.700000 0 1 0
-5.955488 -15.741527 15.768587 23.063214 1.209110 0.817960 0.013938 -0.009778 -163378.000000 0 1 0
-5.260888 -14.526527 15.687987 22.018398 1.223332 0.777750 0.014019 -0.010675 -76631.900000 0 1 0
-5.826988 -13.498127 16.725387 22.268628 1.163274 0.721109 0.011573 -0.003959 161622.000000 0 1 0
-5.252788 -13.790027 18.003687 23.278517 1.206853 0.686604 0.014421 0.000536 57233.700000 0 1 0
-5.926288 -14.725027 18.815087 24.616149 1.188168 0.700780 0.021795 -0.002698 -433177.000000 0 1 0
-7.175488 -14.215727 19.543887 25.209880 1.103350 0.683690 0.027801 -0.008456 -256798.000000 0 0 1
-6.899488 -13.222027 20.481287 25.335904 1.089847 0.629385 0.025812 -0.005637 -459557.000000 0 0 1
-8.079488 -12.720427 21.026687 25.869073 1.004925 0.621834 0.028864 -0.000020 -189127.000000 0 0 1
-7.821888 -11.850027 22.271987 26.412998 0.987372 0.567550 0.035451 0.005540 -399560.000000 0 0 1
-7.504188 -10.564427 21.930287 25.472680 0.953174 0.533694 0.037828 0.005099 69383.800000 0 0 1
-7.006488 -9.783027 22.979887 25.939809 0.949288 0.482382 0.033037 0.000172 452376.000000 0 0 1
-5.554788 -9.930127 23.537387 26.143291 1.060775 0.450287 0.046883 0.003240 379138.000000 0 0 1
-5.396188 -11.095927 24.338577 27.287447 1.118151 0.469194 0.041973 0.005916 -388767.000000 0 0 1
-4.068688 -11.273927 24.744407 27.494387 1.224450 0.451072 0.040037 0.003147 -428864.000000 0 0 1
-3.929588 -12.422127 25.744217 28.853347 1.264419 0.468506 0.037139 0.001618 1661070.000000 0 0 1
-2.550888 -12.730727 26.193627 29.234988 1.373043 0.460189 0.033612 -0.000683 2085490.000000 0 0 1
-2.469888 -13.928227 26.981567 30.464747 1.395291 0.482872 0.024409 -0.003767 -103287.000000 0 0 1
-2.480188 -15.261327 26.195767 30.418377 1.409690 0.533205 0.017847 -0.014211 -394651.000000 0 0 1
-1.318488 -15.501327 25.458557 29.835678 1.485944 0.548529 0.017206 -0.007940 -348225.000000 0 0 1
-1.337888 -16.846927 25.003787 30.179435 1.491548 0.594365 0.011648 -0.009177 -97082.000000 0 0 1
0.013112 -17.640127 24.903577 30.518231 -1.570053 0.616300 0.009873 -0.008521 443819.000000 0 0 1
0.390312 -18.255827 26.128707 31.876902 -1.549419 0.609953 0.011471 -0.009933 85874.400000 0 0 1
0.869712 -17.434827 27.138087 32.267714 -1.520954 0.571614 0.017261 -0.006245 -673499.000000 0 0 1
1.282612 -18.233027 28.377977 33.754969 -1.500566 0.572212 0.007982 0.001211 -450140.000000 0 0 1
2.463412 -19.026627 28.254707 34.152737 -1.442041 0.596504 0.005700 0.002889 835835.000000 0 0 1
3.226612 -19.154927 29.488767 35.311608 -1.403915 0.582480 0.008925 -0.001067 441770.000000 0 0 1
4.049912 -17.953927 29.863477 35.079518 -1.348937 0.552323 0.017603 0.003439 -1000490.000000 0 0 1
3.177912 -16.924227 30.274657 34.829348 -1.385185 0.517157 0.007874 -0.008402 335401.000000 0 0 1
3.968212 -15.856427 30.790287 34.859931 -1.325574 0.488032 0.009097 -0.020230 -230070.000000 0 0 1
3.160912 -14.731727 31.402577 34.830116 -1.359436 0.447359 0.001130 -0.021199 -541754.000000 0 0 1
2.464712 -15.229427 32.505077 35.980415 -1.410349 0.443139 0.015694 -0.027266 -399471.000000 0 0 1
1.707412 -14.223127 33.083581 36.051851 -1.451323 0.408629 0.005538 -0.015400 -633258.000000 0 0 1
0.910512 -14.638027 34.322459 37.324684 -1.508675 0.403825 0.002143 -0.009566 -726139.000000 0 0 1
1.619212 -14.741927 -33.374415 36.521197 -1.461398 2.723431 0.016611 -0.008759 7087.450000 0 0 1
0.805512 -15.447827 -32.463545 35.960617 -1.518699 2.696923 0.011653 -0.020472 313589.000000 0 0 1
1.719312 -15.771627 -31.272225 35.066399 -1.462212 2.672105 0.017850 -0.018283 457719.000000 0 0 1
1.044712 -16.517227 -30.267005 34.496403 -1.507631 2.641204 0.021606 -0.022258 -166354.000000 0 0 1
1.778612 -16.427327 -29.082445 33.448604 -1.462945 2.624918 0.017622 -0.016323 -107050.000000 0 0 1
1.453812 -17.485927 -27.988065 33.033362 -1.487845 2.581614 0.031467 -0.022207 -8782.460000 0 0 1
2.087412 -18.773027 -28.234145 33.969851 -1.460059 2.551974 0.031455 -0.023577 117264.000000 0 0 1
1.563512 -19.776627 -27.394115 33.823026 -1.491902 2.514821 0.050302 -0.033486 -600562.000000 0 0 1
2.286612 -21.117027 -27.676695 34.887775 -1.462934 2.487017 0.043270 -0.032437 -210469.000000 0 0 1
3.577112 -21.308727 -27.157755 34.704484 -1.404476 2.469536 0.040544 -0.032903 -306837.000000 0 0 1
3.724312 -21.292327 -25.708935 33.588436 -1.397635 2.442475 0.034538 -0.027844 -1105260.000000 0 0 1
5.207912 -21.403027 -25.296215 33.542666 -1.332109 2.425156 0.029547 -0.025839 286247.000000 0 0 1
5.863412 -22.679327 -25.499155 34.625690 -1.317800 2.398564 0.025961 -0.023555 202938.000000 0 0 1
6.020512 -23.095527 -26.858605 35.930970 -1.315793 2.415095 0.025963 -0.017028 -1112520.000000 0 0 1
5.113212 -24.289427 -27.188145 36.814623 -1.363314 2.401661 0.001937 -0.015606 -170937.000000 0 0 1
5.385112 -25.439457 -26.417105 37.067895 -1.362192 2.364091 0.018758 -0.003146 -68537.800000 0 0 1
4.821512 -26.620667 -26.971305 38.201547 -1.391620 2.354668 0.007163 0.001273 403.642000 0 0 1
5.163312 -27.885107 -26.155405 38.579064 -1.387706 2.315792 0.009499 -0.002424 -140615.000000 0 0 1
6.497012 -28.310277 -26.080915 39.037124 -1.345209 2.302456 0.025347 0.001729 -547566.000000 0 0 1
6.695912 -29.367367 -25.193755 39.268343 -1.346623 2.267352 0.026027 0.003910 -311641.000000 0 0 1
8.022812 -30.075957 -25.472215 40.221418 -1.310115 2.256606 0.024481 0.002207 -232637.000000 0 0 1
8.135912 -30.393617 -26.862735 41.371144 -1.309244 2.277474 0.020655 0.006242 -1174940.000000 0 0 1
9.452212 -30.734847 -27.100605 42.052562 -1.272436 2.271095 0.066125 0.005246 -871609.000000 0 0 1
9.778012 -30.650067 -28.602915 43.048378 -1.261982 2.297536 0.071367 -0.005935 37745.700000 0 0 1
9.221812 -31.613117 -29.447675 44.176878 -1.286964 2.300415 0.055369 -0.013526 394710.000000 0 0 1
9.893512 -31.467347 -30.733045 45.084316 -1.266176 2.320852 0.070450 -0.006832 505283.000000 0 0 1
-34.882864 -4.657027 -5.819925 35.670346 0.132720 1.734688 0.061820 -0.019840 -171433.000000 0 0 1
-34.351250 -4.210327 -4.576225 34.909555 0.121959 1.702263 0.072999 -0.024196 548718.000000 0 0 1
-33.205588 -3.353527 -4.638025 33.695229 0.100652 1.708881 0.060146 -0.026417 237355.000000 0 0 1
-33.365328 -1.912227 -5.159125 33.815947 0.057249 1.723959 0.079643 -0.021748 -644368.000000 0 0 1
-34.213001 -1.240327 -4.291025 34.503344 0.036237 1.695485 0.056990 -0.024508 648719.000000 0 0 1
-35.080469 -0.306827 -5.008525 35.437534 0.008746 1.712605 0.060435 -0.032309 600195.000000 0 0 1
34.943585 0.596573 -4.061025 35.183831 0.017071 1.686477 0.066930 -0.030656 235606.000000 0 0 1
-35.115580 1.642973 -3.454925 35.323361 -0.046753 1.668761 0.055415 -0.023374 279356.000000 0 0 1
34.955547 2.439273 -2.605925 35.137318 0.069669 1.645029 0.058927 -0.028445 -624086.000000 0 0 1
-35.317848 3.773073 -2.121825 35.582139 -0.106428 1.630463 0.044518 -0.028946 -442979.000000 0 0 1
-35.101420 4.684173 -3.184625 35.555492 -0.132663 1.660484 0.062126 -0.030461 271881.000000 0 0 1
-33.785368 4.629073 -3.704725 34.301667 -0.136166 1.679012 0.033505 -0.016576 -355806.000000 0 0 1
-32.923378 5.841173 -3.321125 33.602053 -0.175590 1.669795 0.011984 -0.015634 -393478.000000 0 0 1
-32.549578 5.891173 -1.951225 33.135905 -0.179052 1.629716 0.011023 -0.023448 432557.000000 0 0 1
-32.108828 7.234873 -1.697325 32.957565 -0.221622 1.622319 0.023106 -0.029064 -78956.000000 0 0 1
-31.534178 7.577173 -0.281025 32.432960 -0.235814 1.579461 0.025269 -0.033123 -913592.000000 0 0 1
-30.223718 7.104873 -0.179525 31.048101 -0.230884 1.576579 0.021108 -0.029840 -527968.000000 0 0 1
-29.536828 7.509073 0.934775 30.490723 -0.248953 1.540134 0.031298 -0.030161 -217784.000000 0 0 1
-29.214278 9.046573 1.207875 30.606755 -0.300298 1.531322 0.036097 -0.033041 -1028280.000000 0 0 1
-30.357498 9.829273 1.440475 31.941622 -0.313132 1.525684 0.044158 -0.034965 -34872.500000 0 0 1
-30.086688 11.180573 1.797775 32.147255 -0.355797 1.514844 0.047077 -0.021368 -55554.100000 0 0 1
-31.407568 11.943573 1.600475 33.639943 -0.363389 1.523202 0.038811 -0.031727 -875434.000000 0 0 1
-31.762498 12.076673 0.271975 33.981999 -0.363337 1.562793 0.036482 -0.023056 1045690.000000 0 0 1
-33.067008 12.615273 -0.035025 35.391713 -0.364463 1.571786 0.035117 -0.007750 1403560.000000 0 0 1
-34.284437 11.751873 0.433075 36.245230 -0.330225 1.558848 0.049485 -0.021992 -393866.000000 0 0 1
-34.571649 10.587173 -0.338825 36.158013 -0.297170 1.580167 0.050430 -0.012703 208927.000000 0 0 1
34.956655 10.196273 0.027475 36.413355 0.283809 1.570042 0.064534 -0.023619 450788.000000 0 0 1
34.490317 8.990773 -0.837325 35.652729 0.255000 1.594284 0.064424 -0.028537 55615.100000 0 0 1
34.204667 9.344373 -2.131725 35.522117 0.266683 1.630844 0.064070 -0.020708 -34199.500000 0 0 1
33.831897 8.193173 -2.830525 34.924736 0.237599 1.651932 0.057676 -0.030567 78904.500000 0 0 1
33.206617 8.414473 -4.248825 34.518622 0.248174 1.694197 0.050321 -0.013266 773166.000000 0 0 1
31.827487 8.801873 -4.215925 33.290177 0.269806 1.697779 0.058089 -0.018691 699103.000000 0 0 1
31.457357 9.331173 -5.475725 33.265893 0.288362 1.736154 0.044917 -0.011764 15418.900000 0 0 1
30.060937 9.965773 -5.565825 32.155170 0.320117 1.744765 0.051427 -0.008663 -177339.000000 0 0 1
28.883347 9.196673 -5.479125 30.803365 0.308258 1.749622 0.040062 -0.012176 64318.900000 0 0 1
27.888347 9.943273 -6.131525 30.236140 0.342488 1.775001 0.028016 0.001495 84336.000000 0 0 1
26.584707 9.102973 -6.356125 28.809913 0.329901 1.793249 0.029064 0.013487 242203.000000 0 0 1
26.802287 8.135473 -7.371825 28.963637 0.294698 1.828148 0.024965 0.004106 811506.000000 0 0 1
25.580047 7.461173 -7.713225 27.739894 0.283806 1.852565 0.032268 0.001206 539291.000000 0 0 1
25.704747 6.415173 -8.862025 27.936069 0.244575 1.893598 0.027880 0.001389 -463121.000000 0 0 1
26.509567 5.317873 -8.535125 28.352870 0.197974 1.876571 0.040175 -0.003640 408764.000000 0 0 1
26.370067 4.314373 -9.559625 28.379229 0.162172 1.914369 0.035160 -0.002360 -335865.000000 0 0 1
27.344397 3.154773 -9.247225 29.037558 0.114864 1.894898 0.041483 -0.000149 -121588.000000 0 0 1
28.687497 3.504773 -9.568025 30.443439 0.121568 1.890503 0.079714 -0.003945 901944.000000 0 0 1
29.685557 3.152673 -8.607125 31.068541 0.105806 1.851505 0.057147 -0.014234 152304.000000 0 0 1
29.928327 1.622673 -8.311225 31.103284 0.054166 1.841297 0.057665 -0.012511 -527416.000000 0 0 1
28.911777 0.985673 -7.522825 29.890722 0.034079 1.825210 0.066261 -0.016323 561790.000000 0 0 1
29.310417 -0.311527 -7.050525 30.148092 -0.010628 1.806845 0.059332 -0.017292 -248362.000000 0 0 1
29.137657 -1.505327 -8.031025 30.261633 -0.051617 1.839401 0.045485 -0.013408 -506820.000000 0 0 1
29.994817 -1.554327 -9.130925 31.392336 -0.051774 1.865927 0.054452 -0.020199 -9982.220000 0 0 1
29.684437 -2.730827 -9.848525 31.394532 -0.091737 1.889886 0.040826 -0.014912 95695.000000 0 0 1
30.700987 -3.191527 -10.927925 32.743793 -0.103583 1.911065 0.039235 -0.014820 -451126.000000 0 0 1
32.019227 -3.492827 -10.588925 33.905104 -0.108656 1.888421 0.057063 -0.011701 -395010.000000 0 0 1
32.674277 -4.005527 -11.706625 34.938484 -0.121981 1.912469 0.051692 -0.019891 297142.000000 0 0 1
34.163637 -4.374627 -11.425425 36.288177 -0.127356 1.891098 0.048221 -0.015259 309342.000000 0 0 1
34.285017 -5.444627 -10.531825 36.277068 -0.157490 1.865354 0.042375 -0.013954 65834.100000 0 0 1
-35.227116 -5.646627 -10.120225 37.084404 0.158940 1.847199 0.043293 -0.011408 -64792.600000 0 0 1
-35.005854 -6.981227 -9.449425 36.924774 0.196848 1.829585 0.045127 -0.016890 -16747.000000 0 0 1
35.256685 -7.043327 -8.118825 36.858616 -0.197177 1.792887 0.044145 -0.010947 549355.000000 0 0 1
34.974642 -8.352127 -7.777025 36.789478 -0.234415 1.783796 0.043198 -0.010113 -608924.000000 0 0 1
34.497667 -8.547927 -6.340325 36.102019 -0.242891 1.747334 0.053655 -0.008897 -117080.000000 0 0 1
-35.330605 -8.333827 -5.343925 36.691441 0.231647 1.716961 0.045259 -0.004336 737388.000000 0 0 1
35.412986 -9.308827 -4.275025 36.864748 -0.257050 1.687023 0.054591 -0.013424 -166145.000000 0 0 1
-34.835085 -10.684927 -4.536625 36.718276 0.297619 1.694665 0.056659 -0.011595 -206169.000000 0 0 1
35.225654 -11.281527 -5.536325 37.400139 -0.309943 1.719372 0.035569 -0.009564 476908.000000 0 0 1
-34.876847 -12.282827 -6.190425 37.491114 0.338613 1.736673 0.039256 -0.007614 217438.000000 0 0 1
35.210902 -12.666127 -7.480525 38.160144 -0.345309 1.768104 0.047614 -0.016073 210832.000000 0 0 1
35.267186 -11.588727 -8.397625 38.060387 -0.317483 1.793266 0.053644 -0.017587 33298.400000 0 0 1
34.421717 -11.863127 -9.496025 37.626624 -0.331893 1.825930 0.062597 -0.014831 -56730.600000 0 0 1
34.784693 -11.235227 -10.819425 38.121715 -0.312416 1.858564 0.036685 -0.016136 -437408.000000 0 0 1
34.445017 -9.880527 -10.893525 37.453343 -0.279349 1.865918 0.029464 -0.012297 249566.000000 0 0 1
34.308597 -9.594827 -12.295225 37.687041 -0.272696 1.903125 0.026639 -0.022151 -266353.000000 0 0 1
33.512527 -8.310127 -12.541525 36.734691 -0.243068 1.919211 0.027414 -0.014138 -184466.000000 0 0 1
33.566877 -7.983927 -13.914325 37.203316 -0.233512 1.954123 0.035425 -0.006793 713544.000000 0 0 1
32.652867 -6.918927 -14.218925 36.280285 -0.208805 1.973513 0.034028 -0.014492 166354.000000 0 0 1
32.983697 -6.224227 -15.542925 36.989833 -0.186513 2.004456 0.036930 -0.015700 -82220.100000 0 0 1
33.991207 -5.259727 -15.276925 37.635771 -0.153520 1.988776 0.049651 -0.011648 283281.000000 0 0 1
33.506137 -3.939527 -15.527425 37.138686 -0.117039 2.002141 0.057952 -0.010962 1387120.000000 0 0 1
34.689687 -2.836027 -15.685425 38.176563 -0.081573 1.994199 0.064666 -0.015184 1024090.000000 0 0 1
35.361877 -2.933027 -16.968225 39.331738 -0.082754 2.016855 0.056793 -0.013643 1025740.000000 0 0 1
-34.157000 -2.368727 -16.945225 38.202777 0.069237 2.030363 0.048564 -0.008405 835242.000000 0 0 1
-33.886478 -0.908727 -16.586325 37.738910 0.026810 2.025840 0.043324 -0.004298 -737360.000000 0 0 1
-34.322166 0.023873 -17.548525 38.548182 -0.000696 2.043434 0.035144 -0.001003 105231.000000 0 0 1
-34.203275 1.360173 -17.028825 38.232119 -0.039746 2.032424 0.037088 -0.007044 -14904.500000 0 0 1
-34.654969 2.527373 -17.974725 39.120905 -0.072801 2.048190 0.016463 -0.002344 195103.000000 0 0 1
-33.845438 2.721273 -19.143325 38.979300 -0.080230 2.084166 0.019588 0.006548 416609.000000 0 0 1
-33.671328 4.093973 -19.494025 39.122064 -0.120992 2.092418 0.007726 0.015957 -377216.000000 0 0 1
-33.038138 4.310873 -20.859525 39.309311 -0.129749 2.130165 0.012925 0.019993 417383.000000 0 0 1
-31.618598 4.135373 -20.826225 38.086332 -0.130051 2.149353 0.017472 0.010889 709071.000000 0 0 1
-31.070288 4.602873 -22.066925 38.386174 -0.147074 2.183237 0.019706 0.010696 692427.000000 0 0 1
-29.574668 5.060673 -22.025325 37.220778 -0.169474 2.204022 0.034137 0.002212 745902.000000 0 0 1
-28.644958 4.097773 -21.598325 36.108351 -0.142090 2.211991 0.029915 0.013964 623710.000000 0 0 1
-27.311348 4.626973 -21.531025 35.084236 -0.167822 2.231529 0.018651 0.009434 948820.000000 0 0 1
-26.327628 3.617773 -20.871325 33.791189 -0.136558 2.236555 0.033032 0.016282 219170.000000 0 0 1
-26.640648 3.525273 -19.471525 33.185719 -0.131562 2.197829 0.032215 0.020163 -155796.000000 0 0 1
-26.020478 2.408773 -18.942225 32.274995 -0.092309 2.198022 0.037100 0.013591 -523018.000000 0 0 1
-25.190988 2.625873 -17.660225 30.876603 -0.103863 2.179691 0.034464 0.004381 12367.000000 0 0 1
-24.168888 3.559073 -17.954725 30.317887 -0.146208 2.204602 0.035092 0.002994 190592.000000 0 0 1
-23.298988 3.735373 -16.823625 28.979824 -0.158971 2.190174 0.035545 -0.006581 766220.000000 0 0 1
-22.042888 4.606973 -17.165925 28.315757 -0.206035 2.222111 0.047027 -0.008582 611997.000000 0 0 1
-20.893088 3.951073 -17.651925 27.635530 -0.186902 2.263656 0.060065 -0.014566 50131.300000 0 0 1
-19.789688 4.826773 -17.794025 27.047307 -0.239233 2.288804 0.055272 -0.013365 92435.600000 0 0 1
-18.554388 4.030173 -18.282825 26.358476 -0.213886 2.337302 0.072187 -0.019871 -366139.000000 0 0 1
-18.162388 3.065273 -17.344225 25.300007 -0.167195 2.326145 0.088698 -0.026218 405631.000000 0 0 1
-17.115888 2.265673 -17.935225 24.894963 -0.131607 2.375227 0.070990 -0.022481 -10392.600000 0 1 0
-17.052888 0.904873 -17.209125 24.244046 -0.053013 2.360052 0.067167 -0.029298 888084.000000 0 1 0
-18.059388 -0.109627 -17.516025 25.158788 0.006070 2.340913 0.063896 -0.029410 1490930.000000 0 0 1
-19.427288 0.242773 -17.292825 26.010003 -0.012496 2.298093 0.061399 -0.028452 241987.000000 0 0 1
-20.495388 -0.673927 -17.906125 27.223967 0.032870 2.288603 0.059436 -0.029973 -45953.100000 0 0 1
-20.247488 -1.972227 -17.425325 26.786048 0.097100 2.279088 0.040681 -0.027947 836499.000000 0 0 1
-21.374288 -2.784727 -17.754125 27.925326 0.129554 2.259804 0.044585 -0.012298 404138.000000 0 0 1
-21.485088 -3.985527 -16.788625 27.556330 0.183417 2.225908 0.047120 -0.011522 -62883.600000 0 0 1
-21.753288 -3.411427 -15.512425 26.934712 0.155557 2.184534 0.037887 -0.018693 308958.000000 0 0 1
-21.916588 -4.466627 -14.565825 26.691775 0.201048 2.148026 0.029838 -0.027299 -101804.000000 0 0 1
-22.353088 -3.969527 -13.163625 26.243069 0.175751 2.096248 0.027125 -0.023895 -282601.000000 0 0 1
-23.518388 -3.196327 -13.100825 27.110195 0.135080 2.075152 0.027382 -0.021348 40372.600000 0 0 1
-23.864988 -2.973227 -11.777325 26.778407 0.123947 2.026180 0.036639 -0.025252 -238644.000000 0 0 1
-24.532488 -1.597327 -11.526425 27.152401 0.065019 2.009215 0.042702 -0.022566 -260930.000000 0 0 1
-24.987988 -1.319327 -10.204125 27.023403 0.052749 1.958003 0.038880 -0.025505 703725.000000 0 0 1
-25.305668 0.067973 -10.092225 27.243980 -0.002686 1.950278 0.046455 -0.023640 -95149.900000 0 0 1
-25.937298 0.427973 -8.692125 27.358355 -0.016499 1.894114 0.053335 -0.017206 -186291.000000 0 0 1
-24.933588 0.465073 -7.723425 26.106539 -0.018650 1.871134 0.045720 -0.020585 628110.000000 0 0 1
-25.507988 0.796273 -6.424525 26.316649 -0.031206 1.817413 0.044225 -0.012110 135427.000000 0 0 1
-24.438388 1.267073 -5.429425 25.066291 -0.051801 1.789129 0.028323 -0.007308 -77940.000000 0 0 1
-23.988088 2.605073 -5.628625 24.776928 -0.108175 1.799969 0.048064 -0.011274 -199375.000000 0 1 0
-22.656488 2.751373 -5.253025 23.419666 -0.120847 1.797021 0.038369 -0.003895 -716454.000000 0 1 0
-22.227388 4.209373 -5.256225 23.225062 -0.187161 1.799091 0.062734 -0.000771 -185773.000000 0 1 0
-22.938188 5.102773 -4.378725 23.903388 -0.218893 1.755021 0.068808 -0.001371 669023.000000 0 1 0
-22.569688 6.457673 -4.568025 23.915668 -0.278676 1.762983 0.083448 -0.010262 -490406.000000 0 1 0
-23.005688 7.445173 -3.422525 24.421424 -0.312986 1.711404 0.061443 -0.006989 -276792.000000 0 1 0
-22.258788 7.399173 -2.237625 23.562860 -0.320925 1.665904 0.051202 -0.010185 1684360.000000 0 1 0
-20.839888 7.722173 -2.316825 22.345034 -0.354862 1.674667 0.057607 -0.011466 1120900.000000 0 1 0
-20.373988 9.201373 -2.458425 22.490187 -0.424203 1.680326 0.053993 -0.016454 -647732.000000 0 1 0
-20.629488 9.890873 -3.665325 23.169802 -0.447075 1.729658 0.068887 -0.009620 549223.000000 0 1 0
-19.929488 11.117673 -3.717325 23.121540 -0.508850 1.732270 0.071689 -0.007509 -281850.000000 0 1 0
-19.688288 11.832573 -5.046725 23.518246 -0.541151 1.787066 0.061532 -0.007311 -230200.000000 0 1 0
-18.695088 11.198373 -5.819425 22.556054 -0.539684 1.831746 0.059775 -0.000233 170617.000000 0 1 0
-18.647888 11.734673 -7.131625 23.158289 -0.561668 1.883835 0.053925 0.005395 -155470.000000 0 1 0
-17.311788 11.416773 -7.826325 22.165109 -0.583011 1.931670 0.048382 0.004368 -285706.000000 0 1 0
-17.092088 10.091173 -8.364025 21.538991 -0.533331 1.969604 0.045673 0.002663 401182.000000 0 1 0
-17.971488 9.591973 -9.379525 22.426676 -0.490268 2.002293 0.050961 0.005381 -46314.000000 0 1 0
-17.729188 10.217773 -10.736025 23.108206 -0.522829 2.053977 0.032334 0.011906 98570.100000 0 1 0
-16.513288 9.889773 -11.373625 22.357451 -0.539609 2.104491 0.025615 0.005545 57939.000000 0 1 0
-16.602788 10.548473 -12.605325 23.362728 -0.566003 2.140697 0.026170 0.006887 149816.000000 0 1 0
-15.577088 10.092873 -13.657125 23.044062 -0.574919 2.205145 0.025684 0.004592 -118568.000000 0 1 0
-15.832788 8.866073 -14.375325 23.150257 -0.510474 2.240760 0.035553 -0.005247 -73065.400000 0 1 0
-15.849688 7.654973 -13.638825 22.267212 -0.449934 2.230025 0.034070 -0.005366 -165745.000000 0 1 0
-15.674788 6.387873 -14.541325 22.314883 -0.386977 2.280544 0.041877 -0.010962 -5379.280000 0 1 0
-14.404388 6.170073 -15.135525 21.786241 -0.404702 2.338839 0.045517 -0.022512 517920.000000 0 1 0
-14.402788 5.036773 -16.005125 22.112743 -0.336415 2.380085 0.039719 -0.024935 -27905.700000 0 1 0
31.310177 -16.046627 28.348717 45.182642 -0.473602 0.892554 0.015731 0.017188 -227618.000000 0 0 1
30.648547 -14.841027 28.690657 44.528006 -0.450954 0.870652 0.019702 0.014541 507137.000000 0 0 1
29.685997 -15.036727 29.763537 44.645601 -0.468855 0.841075 0.024332 0.015917 777125.000000 0 0 1
30.294767 -14.901227 31.205267 45.973777 -0.457126 0.824720 0.024660 0.004666 233861.000000 0 0 1
30.650767 -13.578527 31.608887 46.075673 -0.417024 0.814790 0.015863 0.001786 -29991.800000 0 0 1
30.615107 -13.476927 33.010406 46.995736 -0.414679 0.792015 0.006597 -0.000552 -141294.000000 0 0 1
30.963107 -12.110527 33.595567 47.265643 -0.372834 0.780187 0.018230 -0.004664 70843.900000 0 0 1
30.655287 -12.008827 -33.924795 47.274203 -0.373363 2.371172 0.011437 -0.008637 137600.000000 0 0 1
30.873127 -10.665427 -33.550055 46.824219 -0.332624 2.369584 0.016380 -0.003329 -123100.000000 0 0 1
30.426797 -10.374527 -32.127515 45.448850 -0.328605 2.355893 0.020755 -0.005763 -624161.000000 0 0 1
29.053817 -10.479527 -31.926735 44.421404 -0.346170 2.372762 0.057660 -0.013082 -706715.000000 0 0 1
28.647617 -10.160627 -30.656785 43.171319 -0.340835 2.360464 0.052541 -0.011407 241882.000000 0 0 1
27.092017 -9.984727 -30.563115 42.044930 -0.353103 2.384616 0.022510 0.011995 641341.000000 0 0 1
26.687697 -9.743127 -29.252395 40.778233 -0.350045 2.370792 0.012502 0.000448 187098.000000 0 0 1
26.092937 -10.881027 -28.688345 40.277279 -0.395084 2.363525 0.016348 0.000291 -1029340.000000 0 0 1
25.771047 -10.733227 -27.172195 38.957377 -0.394635 2.342678 0.018279 0.004050 88136.100000 0 0 1
24.858347 -9.652927 -26.751865 37.772724 -0.370395 2.357788 0.012039 0.001006 1555010.000000 0 0 1
23.570647 -9.546627 -27.365355 37.357411 -0.384828 2.392825 0.005534 -0.000645 922546.000000 0 0 1
22.560847 -10.750627 -27.171895 36.917200 -0.444685 2.397972 0.010106 0.008943 -550636.000000 0 0 1
23.029847 -11.881027 -27.895525 38.074834 -0.476284 2.393004 0.017269 0.000146 -28683.800000 0 0 1
22.257847 -13.029127 -27.688315 37.839301 -0.529594 2.391659 0.011849 -0.005462 -339702.000000 0 0 1
22.929747 -14.235327 -28.343705 39.138005 -0.555590 2.380668 0.024250 0.005306 85067.200000 0 0 1
22.846347 -14.076227 -29.757895 40.070289 -0.552193 2.407804 0.025833 -0.001431 -56283.100000 0 0 1
23.977347 -14.631827 -30.360075 41.361065 -0.547912 2.395027 0.023544 0.005638 -521260.000000 0 0 1
23.994247 -14.605827 -31.846205 42.464513 -0.546808 2.418781 0.039132 -0.003815 -218519.000000 0 0 1
22.986647 -15.402527 -32.466365 42.657808 -0.590351 2.435786 0.047448 -0.003379 266079.000000 0 0 1
23.179547 -15.752627 -33.877625 43.967376 -0.596897 2.450449 0.050673 -0.004460 164257.000000 0 0 1
23.485347 -14.584127 33.974818 43.801216 -0.555709 0.683037 0.041201 -0.008844 -482417.000000 0 0 1
22.348247 -13.837127 33.806487 42.822760 -0.554388 0.660882 0.048321 -0.004326 -784490.000000 0 0 1
22.479747 -12.816627 32.816837 41.791742 -0.518175 0.667702 0.041767 -0.004218 -1529210.000000 0 0 1
21.604547 -11.579227 33.001961 41.109176 -0.492002 0.638840 0.057471 -0.011269 -1234050.000000 0 0 1
20.245747 -11.772527 32.910933 40.393219 -0.526692 0.618475 0.039592 -0.008551 -843394.000000 0 0 1
19.882847 -12.041527 31.560977 39.197210 -0.544544 0.634810 0.029242 -0.005083 -1652730.000000 0 0 1
18.405147 -12.395927 31.273067 38.345967 -0.592721 0.617117 0.024359 -0.002669 361393.000000 0 0 1
17.608947 -11.230527 31.517777 37.809655 -0.567732 0.585220 0.033213 -0.009007 -582493.000000 0 0 1
16.578247 -11.448127 32.416547 38.167138 -0.604356 0.556079 0.019206 0.001001 -494279.000000 0 0 1
15.844147 -10.092627 32.656187 37.673925 -0.567178 0.522025 0.026297 -0.004944 -1122410.000000 0 0 1
15.117647 -9.670127 31.521067 36.271646 -0.569071 0.517562 0.034699 -0.009435 787429.000000 0 0 1
14.120447 -8.632827 31.731517 35.788293 -0.548738 0.480757 0.039558 -0.007142 1519920.000000 0 0 1
13.047747 -8.827727 32.857471 36.438796 -0.594828 0.447072 0.038350 -0.005929 -1108330.000000 0 0 1
12.215247 -9.967627 32.714267 36.315136 -0.684420 0.449087 0.032596 -0.002356 1043460.000000 0 0 1
10.918647 -9.945427 33.324820 36.450953 -0.738786 0.417175 0.027551 -0.000219 1712310.000000 0 0 1
9.860047 -8.882927 32.731947 35.320069 -0.733313 0.385199 0.024315 0.001251 207104.000000 0 0 1
10.264347 -7.555727 32.999491 35.375305 -0.634555 0.368580 0.043263 -0.004610 347146.000000 0 0 1
9.325747 -6.706627 32.344957 34.324112 -0.623464 0.341244 0.032334 0.003069 206878.000000 0 0 1
9.783347 -5.231427 32.231577 34.087480 -0.491042 0.331502 0.033756 0.004289 10654.100000 0 0 1
9.819247 -4.620727 33.489965 35.204353 -0.439835 0.313364 0.039092 -0.000061 310129.000000 0 0 1
10.370447 -3.333327 33.335613 35.070220 -0.310996 0.315830 0.027085 -0.001645 -170691.000000 0 0 1
10.254147 -2.634927 -34.225549 35.825669 -0.251520 2.841591 0.026380 -0.007027 -795081.000000 0 0 1
8.931247 -2.348027 -33.922695 35.157213 -0.257083 2.875805 0.025515 0.001380 -645144.000000 0 0 1
8.872347 -1.658927 -32.714555 33.936892 -0.184843 2.872385 0.028814 0.001238 -362147.000000 0 0 1
7.433747 -1.381327 -32.283835 33.157422 -0.183723 2.911535 0.029987 0.003332 -653947.000000 0 0 1
6.664947 -0.683027 -33.207385 33.876518 -0.102124 2.942507 0.033178 0.000050 1405440.000000 0 0 1
5.359847 -0.307927 -32.637775 33.076383 -0.057388 2.978560 0.035588 0.002611 1936930.000000 0 0 1
4.535947 0.677973 -33.552075 33.864084 0.148368 3.005742 0.036131 -0.003021 224906.000000 0 0 1
5.137147 1.940573 -33.492925 33.940125 0.361182 2.979080 0.036180 -0.009103 174965.000000 0 0 1
4.669347 2.728073 34.338182 34.761414 0.528759 0.156206 0.035181 -0.012826 -45297.700000 0 0 1
5.310947 4.121973 34.370322 35.021648 0.660014 0.193162 0.031846 -0.016802 -59796.200000 0 0 1
5.055947 4.919773 33.243725 33.983996 0.771748 0.209105 0.043608 -0.025799 476302.000000 0 0 1
5.910847 6.094673 33.256475 34.323116 0.800709 0.249955 0.042128 -0.027149 237130.000000 0 0 1
5.493447 7.190773 32.290947 33.534914 0.918422 0.273226 0.056364 -0.031097 -246421.000000 0 0 1
4.385647 7.900973 32.835437 34.056206 1.064064 0.268559 0.053662 -0.029018 207826.000000 0 0 1
4.115847 9.081373 32.165807 33.675669 1.145269 0.300581 0.047088 -0.024791 -187747.000000 0 0 1
3.820547 9.124373 30.603107 32.162104 1.174258 0.312633 0.041773 -0.023627 -591416.000000 0 0 1
2.538147 8.623373 30.334507 31.638380 1.284546 0.288090 0.057020 -0.026195 -317094.000000 0 0 1
2.307847 8.619373 28.945527 30.289656 1.309182 0.299025 0.044951 -0.013239 -373029.000000 0 0 1
1.004347 7.962873 28.540337 29.647376 1.445330 0.274135 0.043020 -0.014879 280407.000000 0 0 1
-0.215953 8.674873 28.784397 30.063958 -1.545907 0.292803 0.043439 -0.010226 876212.000000 0 0 1
-1.285553 8.259273 27.921227 29.145551 -1.416386 0.290877 0.041091 -0.006263 129232.000000 0 0 1
-2.664153 8.682073 28.379967 29.797628 -1.273061 0.309704 0.041861 -0.001002 -946617.000000 0 0 1
-2.901453 10.075873 28.405507 30.278944 -1.290421 0.353614 0.044065 -0.003176 699516.000000 0 0 1
-4.140853 10.372273 29.100647 31.170152 -1.190960 0.366447 0.036045 0.003248 705993.000000 0 0 1
-4.189953 11.797873 29.757757 32.284201 -1.229546 0.398243 0.034142 0.000037 -354636.000000 0 0 1
-4.249953 12.999573 28.928427 31.998514 -1.254820 0.441632 0.021911 0.000008 1959200.000000 0 0 1
-5.583953 13.172273 28.315447 31.724657 -1.169843 0.467855 0.013017 0.001362 1702140.000000 0 0 1
-5.729353 14.572073 27.745897 31.859152 -1.196189 0.513781 -0.000482 0.000464 -30249.500000 0 0 1
-4.862853 14.911173 26.670477 30.940342 -1.255550 0.531601 0.004331 0.009443 16694.000000 0 0 1
-4.978553 16.299173 26.265767 31.310374 -1.274349 0.575567 0.004022 0.011280 356651.000000 0 0 1
-3.747953 16.756373 25.409467 30.666989 -1.350745 0.594264 0.019013 0.011186 292196.000000 0 0 1
-3.732553 16.251773 24.082847 29.292245 -1.345041 0.605605 0.010450 0.011484 385591.000000 0 0 1
-2.711653 16.938673 23.327787 28.956128 -1.412057 0.634066 0.010983 0.011225 597109.000000 0 0 1
-2.744153 16.600873 21.791587 27.531666 -1.406976 0.657521 0.018692 0.012515 153166.000000 0 0 1
-2.016253 15.428673 21.376087 26.439484 -1.440850 0.629213 0.006850 0.012631 94003.900000 0 0 1
-1.928253 15.234473 19.953387 25.178264 -1.444894 0.655924 -0.003354 0.009275 47432.700000 0 0 1
-1.045453 14.022973 19.521687 24.058948 -1.496381 0.624235 -0.003293 0.002380 -208458.000000 0 1 0
-1.627453 12.795973 19.839087 23.663789 -1.444291 0.576504 -0.000403 0.004368 -138905.000000 0 1 0
-1.038653 11.772073 19.109287 22.468319 -1.482794 0.553863 -0.003019 -0.002714 -461149.000000 0 1 0
-1.763353 10.383573 19.207087 21.905255 -1.402580 0.501577 -0.012906 0.000342 -600132.000000 0 1 0
-1.905353 9.899873 20.544587 22.884884 -1.380659 0.456193 -0.003209 0.003410 1141180.000000 0 1 0
-2.980153 10.478573 21.354187 23.972549 -1.293708 0.471745 0.010752 0.006656 67663.600000 0 1 0
-4.420553 10.258973 20.959887 23.750888 -1.163942 0.489669 0.003647 0.006248 -1023840.000000 0 1 0
-4.931653 8.922773 21.123587 23.455128 -1.065879 0.449658 0.000862 0.005062 416129.000000 0 1 0
-6.347053 8.866573 21.172887 23.815800 -0.949518 0.475581 0.002664 0.009223 459395.000000 0 1 0
-7.041553 7.482173 21.220387 23.576921 -0.815727 0.450914 -0.000645 0.004405 -96090.700000 0 1 0
-6.982353 6.746673 22.411987 24.424742 -0.768233 0.408812 0.006581 0.004077 265463.000000 0 1 0
-7.798753 5.579173 22.320287 24.292858 -0.620982 0.405766 0.013118 -0.001521 303183.000000 0 1 0
-7.829153 4.739673 23.639187 25.348990 -0.544372 0.369385 0.008764 -0.001540 -384911.000000 0 0 1
-8.484753 5.381773 24.691347 26.657403 -0.565250 0.386465 -0.006439 0.009728 74836.200000 0 0 1
-8.687353 4.560773 25.860137 27.658949 -0.483439 0.362637 -0.006541 0.012984 -26581.900000 0 0 1
-9.665053 5.162273 26.893767 29.040266 -0.490568 0.386894 -0.014005 0.016266 31839.300000 0 0 1
-9.058853 6.177373 27.668207 29.761593 -0.598485 0.377303 -0.004552 0.017680 347071.000000 0 0 1
-10.067153 6.899373 28.354757 30.869745 -0.600816 0.406453 0.000157 0.015083 368568.000000 0 0 1
-9.448453 8.099373 29.127117 31.674312 -0.708669 0.403782 0.004683 0.009272 -54079.200000 0 0 1
-8.482953 7.766773 30.081497 32.205275 -0.741353 0.365193 0.011009 0.009737 -213046.000000 0 0 1
-8.127653 8.902173 30.828577 33.101489 -0.830847 0.372734 0.017688 0.005328 235807.000000 0 0 1
-7.098253 8.492273 31.934287 33.797967 -0.874576 0.333635 0.037359 0.003755 711708.000000 0 0 1
-5.806253 8.183773 31.413857 32.977525 -0.953734 0.309179 0.046220 0.001608 -309080.000000 0 0 1
-5.007053 7.638273 32.415747 33.677804 -0.990549 0.274630 0.066240 -0.003645 468386.000000 0 0 1
-3.489753 7.676873 32.034647 33.125992 -1.144140 0.257402 0.049591 -0.007960 688937.000000 0 0 1
-3.002653 9.024073 31.998787 33.382214 -1.249582 0.288900 0.039116 -0.002391 -207964.000000 0 0 1
-1.587753 8.988773 31.923317 33.202668 -1.395962 0.278502 0.035775 -0.007386 330452.000000 0 0 1
-1.044353 10.377373 31.542497 33.222126 -1.470496 0.319341 0.031944 -0.005680 -210486.000000 0 0 1
-1.335453 11.257773 32.608947 34.523388 -1.452723 0.334585 0.031065 -0.012321 107230.000000 0 0 1
-1.441053 12.536473 32.032357 34.428356 -1.456350 0.375277 0.034846 -0.004542 -304844.000000 0 0 1
-1.528053 13.649073 33.161505 35.893141 -1.459308 0.392658 0.024590 -0.010978 228121.000000 0 0 1
-0.271553 13.889673 33.778599 36.523835 -1.551248 0.390189 0.036214 -0.012734 51976.600000 0 0 1
-0.493153 14.758273 -34.042675 37.107324 -1.537393 2.732322 0.043074 -0.012225 65117.100000 0 0 1
0.816547 15.199673 -33.346935 36.656716 1.517127 2.713378 0.035584 -0.011431 -200881.000000 0 0 1
1.517647 16.011673 -34.270119 37.856544 1.476295 2.702794 0.035266 -0.007350 -450296.000000 0 0 1
2.856347 16.060373 -33.842805 37.569000 1.394786 2.692445 0.045363 -0.007774 -457136.000000 0 0 1
3.587547 17.062973 34.149554 38.343286 1.363562 0.472075 0.055190 -0.002177 -371630.000000 0 0 1
3.161147 18.389873 34.374246 39.112262 1.400564 0.497327 0.035348 0.002934 368737.000000 0 0 1
3.945547 19.353773 33.632236 39.003374 1.369688 0.531021 0.030750 0.018109 418883.000000 0 0 1
3.401647 20.836673 33.684765 39.754264 1.408971 0.559869 0.038275 0.008610 94242.900000 0 0 1
3.551147 21.393273 -33.921885 40.261359 1.406303 2.572782 0.037518 -0.007248 199246.000000 0 0 1
3.363547 22.816673 -33.893965 40.996522 1.424434 2.544106 0.040941 -0.002076 74173.300000 0 0 1
3.424747 23.451573 -32.496915 40.221321 1.425787 2.511465 0.043153 -0.006661 87479.600000 0 0 1
2.992547 24.799973 -32.452205 40.952895 1.450710 2.485575 0.045850 -0.014065 225741.000000 0 0 1
2.756647 25.216973 -31.122595 40.151099 1.461912 2.457728 0.051341 -0.014237 -38771.500000 0 0 1
2.305447 26.692673 -30.937745 40.926250 1.484640 2.427884 0.050656 -0.021677 826384.000000 0 0 1
3.363947 27.658273 -31.200955 41.830560 1.449765 2.412665 0.042674 -0.019158 851415.000000 0 0 1
2.972447 28.891073 -30.610265 42.196183 1.468272 2.382451 0.033652 -0.022642 -786425.000000 0 0 1
3.962447 30.035273 -30.504275 42.992201 1.439627 2.359628 0.035414 -0.024307 -1225290.000000 0 0 1
4.900947 29.801173 -29.521255 42.233087 1.407800 2.344805 0.042494 -0.027610 -743956.000000 0 0 1
5.580947 31.020973 -29.319935 43.047721 1.392792 2.320064 0.057196 -0.028000 -861266.000000 0 0 1
6.786147 30.866873 -28.393765 42.485545 1.354387 2.302739 0.055022 -0.024831 -375852.000000 0 0 1
8.000447 30.448773 -28.972585 42.784876 1.313853 2.314705 0.046422 -0.025916 395034.000000 0 0 1
8.974547 31.506873 -29.186295 43.875566 1.293301 2.298566 0.053158 -0.027304 300372.000000 0 0 1
8.737247 32.646273 -30.200235 45.322983 1.309291 2.300077 0.065426 -0.027174 -587547.000000 0 0 1
7.936547 33.638473 -29.535945 45.463256 1.339097 2.277942 0.052782 -0.025572 249389.000000 0 0 1
7.605147 -34.313742 -30.344195 46.433192 -1.352686 2.282999 0.048053 -0.020091 850876.000000 0 0 1
6.260047 -34.385142 -31.176325 46.834703 -1.390712 2.299184 0.015255 -0.013438 499087.000000 0 0 1
6.397047 33.909873 -32.314285 47.275942 1.384339 2.323377 0.018930 -0.018603 -59810.300000 0 0 1
5.251947 33.874373 -33.121745 47.666614 1.416979 2.339025 0.036584 -0.017374 -418702.000000 0 0 1
5.452847 33.089473 -34.435272 48.066981 1.407473 2.369428 0.033691 -0.013458 -16013.200000 0 0 1
6.301747 33.696173 33.525690 47.949098 1.385915 0.796528 0.035480 -0.021260 -216116.000000 0 0 1
6.397947 33.031473 32.291337 46.634133 1.379473 0.805931 0.040345 -0.024437 -418545.000000 0 0 1
5.425747 33.515873 31.221127 46.124952 1.410303 0.827279 0.025697 -0.029013 -180252.000000 0 0 1
5.615147 -34.266742 30.811667 46.423036 -1.408374 0.845022 0.027873 -0.025328 168343.000000 0 0 1
4.658847 -33.900142 29.832727 45.397313 -1.434223 0.853768 0.009905 -0.026350 69213.600000 0 0 1
17.544912 -21.424527 30.232927 40.998344 -0.884627 0.741556 0.043988 -0.000288 -303494.000000 0 0 1
16.314412 -20.696027 30.105187 40.010097 -0.903238 0.719038 0.047086 0.003269 1628110.000000 0 0 1
15.133012 -21.543627 30.057377 39.957250 -0.958438 0.719344 0.042188 0.005436 921358.000000 0 0 1
14.655412 -21.882227 31.487907 41.049985 -0.980669 0.696546 0.035926 0.002113 -1058150.000000 0 0 1
15.419412 -22.861627 32.151787 42.357404 -0.977413 0.708929 0.041141 -0.009083 254716.000000 0 0 1
14.959012 -23.207827 33.478449 43.395643 -0.998250 0.689648 0.035318 -0.004573 170229.000000 0 0 1
15.813712 -24.308727 34.185617 44.829055 -0.994044 0.703508 0.036246 -0.014167 131576.000000 0 0 1
15.466212 -25.570157 33.713450 45.051453 -1.026815 0.725252 0.033812 -0.017360 220262.000000 0 0 1
16.362212 -26.516347 34.287651 46.330138 -1.017926 0.737618 0.032387 -0.014140 264630.000000 0 0 1
16.003312 -27.993087 34.009473 46.865373 -1.051455 0.758768 0.017906 0.000329 12254.900000 0 0 1
16.404112 -28.462337 32.699547 46.351482 -1.047952 0.787711 0.006050 0.000808 296016.000000 0 0 1
15.917712 -29.751117 32.429187 46.799089 -1.079520 0.805231 0.017097 0.001419 -192659.000000 0 0 1
16.704812 -30.275027 31.185637 46.563634 -1.066596 0.836935 0.015578 -0.003379 -94764.300000 0 0 1
17.837312 -31.035007 31.516307 47.692966 -1.049151 0.848890 0.006147 -0.012698 -338173.000000 0 0 1
18.516712 -31.452057 30.352317 47.469608 -1.038706 0.877072 -0.005848 -0.007457 -734467.000000 0 0 1
19.650012 -32.401527 30.630447 48.725827 -1.025645 0.891008 -0.022288 -0.004821 -683593.000000 0 0 1
20.784312 -31.741387 31.150307 49.090171 -0.991053 0.883367 -0.016046 -0.005164 175663.000000 0 0 1
21.749712 -32.686137 31.628457 50.416196 -0.983664 0.892654 0.002959 -0.007806 -120731.000000 0 0 1
23.062512 -32.000697 32.023677 50.807873 -0.946320 0.888870 0.007872 -0.022065 -675842.000000 0 0 1
23.830012 -31.612407 30.944217 50.246973 -0.924856 0.907342 0.008684 -0.012732 -705269.000000 0 0 1
24.541112 -30.433287 31.157887 49.992650 -0.892171 0.897905 0.013593 -0.009101 -137706.000000 0 0 1
25.521212 -30.154447 29.987057 49.596840 -0.868425 0.921512 0.016078 -0.008923 -312719.000000 0 0 1
26.674412 -30.918387 30.186807 50.781042 -0.858955 0.934214 0.017401 -0.011979 -534732.000000 0 0 1
27.633212 -30.734737 29.161187 50.582540 -0.838486 0.956349 0.011517 -0.028563 454729.000000 0 0 1
28.873112 -31.657307 29.302107 51.908142 -0.831362 0.970970 0.018993 -0.021565 334940.000000 0 0 1
28.486512 -32.978867 28.905717 52.293666 -0.858356 0.985127 0.009587 -0.013623 375681.000000 0 0 1
29.533212 -33.909787 29.099307 53.561684 -0.854273 0.996450 0.019306 -0.011263 -159538.000000 0 0 1
28.905812 33.897057 29.706237 53.544533 0.864706 0.982680 0.006031 -0.004265 -458680.000000 0 0 1
28.580912 33.924988 31.096577 54.173522 0.870688 0.959392 0.008661 -0.001466 78272.700000 0 0 1
27.472912 -34.413918 31.469267 54.123871 -0.897088 0.950311 -0.001538 -0.000555 121837.000000 0 0 1
26.063612 34.555190 30.827827 53.138761 0.924574 0.951898 0.001252 -0.001558 -114432.000000 0 0 1
25.483812 33.301160 31.171527 52.249938 0.917605 0.931557 0.001206 -0.004729 1092250.000000 0 0 1
24.086112 33.234157 30.776247 51.301339 0.943659 0.927406 -0.012126 -0.007553 1553750.000000 0 0 1
23.489112 31.802237 30.761297 50.093693 0.934632 0.909583 0.000283 -0.019193 -123284.000000 0 0 1
23.875912 31.090297 29.592747 49.116153 0.915903 0.924160 0.005010 -0.016161 268123.000000 0 0 1
23.259312 29.824797 29.667407 48.069420 0.908454 0.905645 0.030725 -0.030114 -124068.000000 0 0 1
22.842612 29.232977 28.324727 46.675926 0.907501 0.918720 0.026147 -0.027059 -550709.000000 0 0 1
21.740412 29.968787 27.880077 46.347302 0.943203 0.925360 0.037478 -0.033113 -365624.000000 0 0 1
21.225712 29.514997 26.668307 45.087299 0.947333 0.937901 0.038357 -0.020687 465573.000000 0 0 1
19.870112 30.173867 26.230387 44.646577 0.988455 0.942816 0.055601 -0.024321 525258.000000 0 0 1
19.937912 31.456997 25.722907 45.262909 1.005883 0.966358 0.042750 -0.025558 -901862.000000 0 0 1
18.685712 32.008067 25.519927 44.999321 1.042388 0.967794 0.039701 -0.025304 -1161370.000000 0 0 1
18.596712 33.503797 25.236507 45.882714 1.064074 0.988406 0.052218 -0.017838 -466594.000000 0 0 1
18.991212 33.958220 23.958747 45.692980 1.060877 1.018854 0.062409 -0.017963 107971.000000 0 0 1
20.387912 34.001877 23.749287 46.214968 1.030663 1.031086 0.049919 -0.016132 -93694.300000 0 0 1
20.731812 34.263649 22.257387 45.816994 1.026659 1.063531 0.051635 -0.015238 -29558.300000 0 0 1
20.392512 -33.520357 21.890187 44.929380 -1.024251 1.061901 0.060156 -0.015653 289172.000000 0 0 1
21.029312 -33.276917 20.662687 44.458203 -1.007216 1.087425 0.064849 -0.019264 -98663.600000 0 0 1
20.773912 -31.924727 20.017487 43.028403 -0.993918 1.086918 0.062698 -0.020066 -78902.100000 0 0 1
21.550112 -30.883397 20.663587 42.955505 -0.961555 1.068949 0.056577 -0.009579 622630.000000 0 0 1
21.181112 -29.561807 20.279487 41.638895 -0.949080 1.062108 0.060712 -0.015739 -329828.000000 0 0 1
21.746612 -28.998907 18.998287 40.924158 -0.927352 1.088029 0.033259 -0.013222 -489306.000000 0 0 1
21.399912 -29.741747 17.871087 40.766451 -0.947087 1.117004 0.017722 -0.029786 136848.000000 0 0 1
21.725612 -29.033417 16.724587 39.933111 -0.928386 1.138656 0.016720 -0.031695 -595678.000000 0 0 1
21.350312 -29.847517 15.520687 39.844722 -0.949867 1.170676 0.001835 -0.021566 -321405.000000 0 0 1
22.305012 -30.835857 15.305687 41.019845 -0.944573 1.188417 0.018071 -0.017461 -373704.000000 0 0 1
22.590312 -31.016627 13.940087 40.824985 -0.941309 1.222327 0.014710 -0.011821 -165671.000000 0 0 1
21.467112 -31.352297 12.908687 40.130259 -0.970409 1.243304 -0.006163 -0.016325 -130014.000000 0 0 1
20.885012 -32.616167 13.040287 40.866211 -1.001251 1.246020 -0.012408 -0.009300 317530.000000 0 0 1
19.802912 -32.765927 12.139087 40.163650 -1.027166 1.263754 0.003556 0.003526 49264.100000 0 0 1
18.571712 -33.582237 12.592387 40.388654 -1.065636 1.253730 0.040113 0.004238 192813.000000 0 0 1
17.916012 -33.023397 13.724787 39.998725 -1.073710 1.220548 0.036328 0.004215 355235.000000 0 0 1
18.215712 -33.728937 14.925987 41.136826 -1.075615 1.199485 0.022712 -0.005647 -396575.000000 0 0 1
17.821712 -32.949097 16.183987 40.806591 -1.074977 1.162984 0.032265 -0.014566 -600830.000000 0 0 1
16.489012 -32.691777 16.482487 40.153608 -1.103652 1.147810 0.041848 -0.020580 -894350.000000 0 0 1
15.817812 -33.646947 17.269687 40.994662 -1.131344 1.135955 0.044790 -0.007043 -556128.000000 0 0 1
16.307612 -34.267156 18.634387 42.277850 -1.126617 1.114351 0.040766 -0.016640 -794619.000000 0 0 1
17.245612 33.838178 18.513687 42.251509 1.099459 1.117225 0.027695 -0.007434 -332056.000000 0 0 1
17.660812 33.397109 19.842287 42.673031 1.084365 1.087180 0.036634 -0.015524 439869.000000 0 0 1
18.474412 32.040707 19.784887 41.944637 1.047767 1.079589 0.030342 -0.008800 79722.200000 0 0 1
17.757312 30.922607 19.301287 40.547126 1.049526 1.074672 0.010092 -0.000384 -284612.000000 0 0 1
18.626012 29.857027 19.062687 40.021949 1.013031 1.074348 0.009058 -0.006689 -208202.000000 0 0 1
17.946812 28.494717 18.836687 38.585720 1.008732 1.060796 0.009089 0.004878 -234446.000000 0 0 1
17.628212 27.697097 19.979487 38.432577 1.003995 1.024111 0.014935 -0.007350 -46497.000000 0 0 1
17.283212 26.384697 19.659787 37.166771 0.990881 1.013420 0.019643 -0.006158 -480144.000000 0 0 1
17.095212 25.440457 20.909287 37.103388 0.979131 0.972130 0.034271 -0.005028 -335171.000000 0 0 1
15.922712 25.829217 21.572087 37.229507 1.018361 0.952761 0.027717 -0.000440 -654922.000000 0 0 1
14.905712 24.903247 21.339587 36.024019 1.031447 0.936798 0.019485 0.007193 -122740.000000 0 0 1
13.622512 25.238157 22.175387 36.253072 1.075850 0.912610 0.033862 -0.001442 349993.000000 0 0 1
12.861312 26.249507 21.579787 36.333692 1.115210 0.934857 0.037062 -0.008267 -765314.000000 0 0 1
11.632412 26.527287 22.164387 36.472867 1.157541 0.917641 0.027622 -0.010428 -484920.000000 0 0 1
10.854312 27.564197 21.356787 36.520041 1.195661 0.946167 0.022891 -0.018951 -382833.000000 0 0 1
11.318112 28.883987 21.538987 37.766551 1.197338 0.963902 0.018439 -0.018621 77737.900000 0 0 1
10.844312 29.750607 20.505087 37.724744 1.221256 0.996142 0.015313 -0.019474 -181097.000000 0 0 1
11.211412 31.234757 20.615987 39.068206 1.226179 1.014915 0.015042 -0.025771 -525222.000000 0 0 1
10.484212 31.898267 21.601487 39.925460 1.253243 0.999117 0.005952 -0.023495 -606450.000000 0 0 1
11.137912 31.975347 22.851587 40.849369 1.235612 0.977121 0.007307 -0.023164 -335806.000000 0 0 1
10.453712 32.860497 23.882557 41.946024 1.262796 0.965064 0.004157 -0.024793 -480863.000000 0 0 1
9.294912 32.327657 24.447477 41.583073 1.290826 0.942313 0.000380 -0.019116 -487283.000000 0 0 1
8.974412 33.187636 25.554137 42.836587 1.306698 0.931602 0.004894 -0.024367 -1490270.000000 0 0 1
7.677212 32.804937 26.253417 42.712356 1.340907 0.908846 0.025232 -0.028832 -946106.000000 0 0 1
6.496012 33.385716 25.784447 42.680697 1.378623 0.922130 0.016179 -0.020855 15809.500000 0 0 1
6.049612 32.971377 24.472887 41.504599 1.389334 0.940180 0.015274 -0.031724 -312064.000000 0 0 1
5.168612 31.663527 24.393447 40.303024 1.408988 0.920715 0.015724 -0.032539 419151.000000 0 0 1
5.990612 30.544727 24.745287 39.764268 1.377129 0.899119 0.005690 -0.021319 8517.060000 0 0 1
5.329412 29.331047 24.510187 38.593552 1.391059 0.882678 0.005704 -0.019759 -791603.000000 0 0 1
6.304712 28.153527 24.751767 38.013425 1.350491 0.861721 -0.003396 -0.006488 -744869.000000 0 0 1
7.366012 27.933757 23.904897 37.496627 1.312970 0.879520 -0.006698 -0.008353 85308.100000 0 0 1
8.383212 28.946977 23.893977 38.459431 1.288903 0.900424 0.001355 -0.009414 -673981.000000 0 0 1
9.528612 28.741917 24.916087 39.213565 1.250676 0.882277 0.003436 -0.008620 -899363.000000 0 0 1
9.235412 28.857517 26.273117 40.103938 1.261062 0.856447 -0.004333 0.001528 117336.000000 0 0 1
10.339112 28.764657 27.162257 40.891209 1.225738 0.844297 0.004335 0.006387 541792.000000 0 0 1
11.351512 29.945577 27.307347 42.086644 1.208461 0.864742 0.010356 -0.006956 509162.000000 0 0 1
10.756612 31.122107 27.897227 43.157219 1.238023 0.867927 0.016000 -0.018678 142285.000000 0 0 1
11.690112 32.161547 27.981397 44.203873 1.222163 0.885364 0.026587 -0.011033 -183742.000000 0 0 1
11.100412 33.397617 28.752647 45.445954 1.249912 0.885790 0.019421 -0.014545 -159885.000000 0 0 1
11.186312 33.414175 30.186337 46.398875 1.247747 0.862444 0.030565 -0.025945 12013.200000 0 0 1
10.254912 32.607637 30.875687 46.062233 1.266096 0.836178 0.036205 -0.019548 -331810.000000 0 0 1
10.665812 32.501637 32.340997 47.075005 1.253707 0.813430 0.046986 -0.027587 -94596.500000 0 0 1
10.069912 31.369507 33.005721 46.635038 1.260178 0.784495 0.054809 -0.032169 267345.000000 0 0 1
10.413412 31.285257 34.376982 47.633847 1.249478 0.764552 0.072384 -0.024808 -237456.000000 0 0 1
10.342312 29.868127 -33.991785 46.416698 1.237452 2.392516 0.057838 -0.015197 -81212.400000 0 0 1
11.393812 29.010207 -34.427841 46.440147 1.196554 2.405858 0.051057 -0.004212 297674.000000 0 0 1
11.214412 27.751037 -33.839935 45.177697 1.186754 2.417409 0.042081 -0.005461 7434.000000 0 0 1
12.294312 26.806717 -34.386766 45.301213 1.140791 2.432679 0.019843 -0.006998 26461.500000 0 0 1
12.132312 25.422347 -34.050965 44.192272 1.125530 2.450451 0.016626 -0.005681 -113934.000000 0 0 1
12.543312 25.040987 -32.714225 43.065139 1.106420 2.433564 0.028780 -0.003990 -82792.200000 0 0 1
12.630412 23.484987 -32.517795 42.053287 1.077362 2.454750 0.028168 -0.012752 -207244.000000 0 0 1
13.725912 22.852587 -33.134855 42.527168 1.029915 2.464098 0.018891 -0.000967 -349426.000000 0 0 1
13.663212 21.443287 -33.196475 41.815115 1.003487 2.487971 0.020007 -0.000259 954060.000000 0 0 1
14.976312 20.765987 -33.797905 42.400643 0.945987 2.493287 0.033054 -0.004494 1186890.000000 0 0 1
16.066712 20.781487 -32.904235 42.103422 0.912658 2.467878 0.023870 -0.007864 -113739.000000 0 0 1
17.247812 20.272887 -33.496495 42.784251 0.865848 2.470136 0.022958 -0.006443 -688887.000000 0 0 1
18.453312 20.521487 -32.650315 42.751599 0.838413 2.439855 0.018711 -0.005181 -1002720.000000 0 0 1
19.022312 21.800087 -32.724745 43.680672 0.853339 2.417622 0.016424 -0.002225 137859.000000 0 0 1
20.057312 22.174387 -31.817005 43.661436 0.835486 2.387249 0.009834 -0.000044 256734.000000 0 0 1
19.734812 22.282587 -30.318295 42.487357 0.845960 2.365397 0.005671 0.003215 244637.000000 0 0 1
18.879812 23.428887 -30.091315 42.554051 0.892508 2.356230 0.009558 0.002744 296874.000000 0 0 1
18.609212 23.784987 -28.763515 41.705733 0.906884 2.331840 0.021897 0.010611 -119696.000000 0 0 1
19.837612 24.205787 -27.904765 41.930024 0.884254 2.298971 0.007563 0.008081 305928.000000 0 0 1
20.571912 25.366637 -28.361995 43.255897 0.889394 2.285878 0.007501 0.003332 287565.000000 0 0 1
19.847212 26.621437 -28.296075 43.626604 0.930159 2.276536 0.010104 0.006936 -474749.000000 0 0 1
20.588412 27.816257 -28.879115 45.073608 0.933624 2.266219 0.010428 0.008540 -607341.000000 0 0 1
20.735312 27.961147 -30.296445 46.148169 0.932708 2.286971 0.013144 0.003678 -36600.000000 0 0 1
21.318312 26.884397 -31.045535 46.271660 0.900361 2.306273 0.015097 -0.003361 544825.000000 0 0 1
22.804112 26.560117 -30.689915 46.554680 0.861339 2.290581 0.021882 -0.008665 227742.000000 0 0 1
23.764912 27.460587 -31.185535 47.868492 0.857419 2.280335 0.019106 -0.004265 -722920.000000 0 0 1
25.077312 27.060207 -30.964515 48.165627 0.823412 2.269043 0.021847 -0.005713 -237076.000000 0 0 1
26.118712 28.101297 -31.487765 49.632140 0.821947 2.258058 0.015390 0.006072 -25781.100000 0 0 1
26.113012 29.271927 -30.717095 49.822435 0.842372 2.235126 0.016340 0.005649 870498.000000 0 0 1
27.283912 30.059247 -31.061915 51.115680 0.833759 2.223931 0.015546 0.004261 1116290.000000 0 0 1
27.551712 31.305117 -30.111135 51.437220 0.849084 2.196165 0.015793 0.010526 138347.000000 0 0 1
27.991012 30.842307 -28.855645 50.669448 0.833824 2.176679 0.020228 0.001889 167653.000000 0 0 1
27.083212 31.374237 -27.913535 49.970077 0.858671 2.163499 0.023898 0.007282 9554.500000 0 0 1
27.530212 31.245967 -26.419075 49.317244 0.848533 2.136129 0.033275 0.006954 -442842.000000 0 0 1
27.618412 29.886887 -25.915325 48.245277 0.824826 2.137860 0.027343 0.016043 41476.600000 0 0 1
26.441112 29.296457 -25.375165 46.918161 0.836582 2.142230 0.031912 0.012163 -406243.000000 0 0 1
26.068412 29.776657 -23.981425 46.274401 0.851703 2.115593 0.033715 0.014909 -408996.000000 0 0 1
25.592712 31.091177 -23.992425 46.875203 0.882098 2.108117 0.037820 0.020236 45482.400000 0 0 1
25.563912 31.688797 -22.705025 46.617718 0.891973 2.079502 0.038172 0.030403 -116575.000000 0 0 1
2.820112 -26.246817 -20.348525 33.330330 -1.463761 2.227502 0.021079 -0.004989 -43031.600000 0 0 1
2.221212 -26.932607 -19.257425 33.183543 -1.488510 2.189931 0.001691 0.004262 98485.000000 0 0 1
2.778112 -26.320727 -18.113725 32.071882 -1.465637 2.170969 0.023070 -0.000425 -204835.000000 0 0 1
2.613612 -27.222277 -16.884525 32.139859 -1.475080 2.123917 0.013704 -0.019466 -379543.000000 0 0 1
3.682012 -28.089177 -16.688325 32.879466 -1.440457 2.103148 0.027152 -0.024903 -370820.000000 0 0 1
3.381412 -29.026907 -15.660925 33.155088 -1.454827 2.062755 0.026325 -0.035052 209128.000000 0 0 1
4.545212 -30.019137 -15.346025 34.019230 -1.420527 2.038792 0.078303 -0.026228 670042.000000 0 0 1
5.604512 -29.462597 -14.606825 33.358875 -1.382818 2.024024 0.044134 -0.012568 673937.000000 0 0 1
6.877312 -30.143917 -14.533925 34.164135 -1.346486 2.010216 0.057303 -0.006953 1372960.000000 0 0 1
7.223512 -30.960677 -13.261625 34.447255 -1.341584 1.965986 0.054511 -0.007962 -35853.900000 0 0 1
7.825212 -30.145157 -12.211625 33.452776 -1.316818 1.944473 0.038862 -0.002040 159417.000000 0 0 1
8.006312 -30.883357 -10.971825 33.738164 -1.317137 1.902025 0.041498 -0.000655 95949.700000 0 0 1
9.280612 -31.743167 -10.798425 34.790292 -1.286358 1.886396 0.051847 -0.001748 -196091.000000 0 0 1
10.281512 -31.092247 -10.078625 34.263917 -1.251438 1.869359 0.052544 -0.003911 -107191.000000 0 0 1
11.415712 -31.944587 -9.907425 35.340235 -1.227580 1.854949 0.048794 -0.006523 302792.000000 0 0 1
12.544912 -31.327247 -9.056525 34.939832 -1.189904 1.832994 0.039945 -0.000074 -506678.000000 0 0 1
13.505012 -30.627437 -9.776625 34.871301 -1.155498 1.854969 0.037145 -0.006016 -485148.000000 0 0 1
14.468712 -30.221527 -8.845725 34.654454 -1.124289 1.828908 0.029423 -0.003509 -455811.000000 0 0 1
15.687912 -29.505277 -9.468525 34.732189 -1.082113 1.846907 0.032640 -0.005062 -101658.000000 0 0 1
15.565912 -28.092617 -9.771825 33.570543 -1.064816 1.866155 0.040174 -0.006247 24539.000000 0 0 1
14.863412 -27.796437 -10.968325 33.374648 -1.079757 1.905662 0.030755 -0.006962 -208785.000000 0 0 1
14.571012 -26.304807 -11.070025 32.043763 -1.064941 1.923531 0.037478 -0.003341 -205566.000000 0 0 1
13.591812 -25.865567 -10.110525 30.919050 -1.086974 1.903923 0.023763 -0.004407 663436.000000 0 0 1
12.902512 -24.645927 -10.317425 29.670622 -1.088514 1.925947 0.015694 -0.000067 431691.000000 0 0 1
12.178812 -24.392827 -11.665725 29.655061 -1.107726 1.975102 0.000329 0.002310 -311817.000000 0 0 1
13.062912 -24.015727 -12.711225 30.149130 -1.072624 2.006018 0.001047 -0.002896 -471803.000000 0 0 1
12.444512 -23.956327 -13.929825 30.377813 -1.091697 2.047162 0.009785 -0.007354 -277667.000000 0 0 1
13.314812 -23.475127 -15.170425 30.959774 -1.054853 2.082891 0.015669 -0.008620 841467.000000 0 0 1
14.382012 -24.341827 -15.592925 32.287864 -1.037143 2.074799 0.008806 -0.010782 824513.000000 0 0 1
15.166512 -23.780227 -16.641225 32.748323 -1.003061 2.103838 0.012359 -0.017940 51970.300000 0 0 1
16.233312 -24.737327 -17.320225 34.284778 -0.990056 2.100395 0.014710 -0.019196 1849100.000000 0 0 1
17.548612 -24.725427 -16.690225 34.610174 -0.953564 2.074000 0.023901 -0.018682 801184.000000 0 0 1
18.352712 -23.650327 -17.177525 34.514162 -0.910860 2.091736 0.018390 -0.018708 -131483.000000 0 0 1
19.815612 -23.992427 -16.735625 35.332367 -0.880454 2.064241 0.015416 -0.016724 325297.000000 0 0 1
20.304412 -25.081937 -17.471125 36.696225 -0.890275 2.067012 0.021053 -0.011907 -1114710.000000 0 0 1
21.527612 -25.485607 -16.971725 37.429851 -0.869389 2.041403 0.028672 -0.002221 -872699.000000 0 0 1
22.280512 -26.480767 -17.805325 38.918914 -0.871325 2.045976 0.022769 -0.004490 -702237.000000 0 0 1
22.957612 -25.917227 -18.903525 39.447407 -0.845879 2.070549 0.025222 -0.001499 -75066.100000 0 0 1
23.511912 -26.956117 -19.729825 40.849826 -0.853538 2.074856 0.021124 -0.008976 241832.000000 0 0 1
24.400512 -26.337137 -20.896625 41.541530 -0.823549 2.097897 0.013799 -0.006382 -133941.000000 0 0 1
23.851012 -25.362887 -21.689325 41.019186 -0.816109 2.127936 0.024436 -0.006673 -477128.000000 0 0 1
24.170212 -24.117827 -21.122425 40.150038 -0.784313 2.124789 0.034961 -0.001664 62835.200000 0 0 1
23.323912 -22.866027 -21.581925 39.148941 -0.775485 2.154691 0.063467 0.002982 -192645.000000 0 0 1
23.473612 -22.253427 -22.846525 39.600369 -0.758720 2.185758 0.058722 0.005164 207848.000000 0 0 1
22.917512 -23.015527 -23.970425 40.367166 -0.787532 2.206582 0.025080 -0.003576 466013.000000 0 0 1
22.095112 -22.109727 -24.950925 39.994783 -0.785729 2.244461 0.014575 -0.000615 354067.000000 0 0 1
22.926812 -21.354727 -25.834295 40.608791 -0.749911 2.260327 0.020038 0.005841 149577.000000 0 0 1
22.198812 -20.442527 -26.623645 40.243045 -0.744234 2.293709 0.014867 0.011935 75491.800000 0 0 1
23.029612 -19.777227 -27.754995 41.132001 -0.709566 2.311461 0.015453 0.010020 207923.000000 0 0 1
22.188812 -18.840027 -28.379575 40.653294 -0.703958 2.343520 0.011917 0.009425 317478.000000 0 0 1
22.763912 -18.388927 -29.590305 41.616517 -0.679485 2.361748 0.024701 0.001438 -255797.000000 0 0 1
21.793112 -17.467027 -30.312685 41.217662 -0.675651 2.397097 0.040908 -0.002065 -472057.000000 0 0 1
20.596112 -18.120727 -30.678695 41.155108 -0.721549 2.411992 0.028817 0.000464 -72501.100000 0 0 1
19.723812 -17.238927 -31.297875 40.813801 -0.718272 2.444708 0.032042 -0.006346 161873.000000 0 0 1
18.404712 -17.744527 -31.953635 40.922322 -0.767137 2.466800 0.022606 -0.006792 201232.000000 0 0 1
18.614512 -18.514127 -33.119135 42.262869 -0.782694 2.471310 0.024922 -0.003812 226944.000000 0 0 1
17.468012 -19.066127 -33.719035 42.492611 -0.829113 2.487380 0.024889 -0.009018 -335442.000000 0 0 1
17.930512 -19.988327 34.042718 43.358311 -0.839614 0.667860 0.039031 -0.003031 -17792.300000 0 0 1
18.590812 -21.103927 -34.345829 44.391779 -0.848625 2.455454 0.037010 -0.005492 -102875.000000 0 0 1
18.973212 -21.972927 33.555596 44.370828 -0.858528 0.713228 0.032659 -0.011851 -236873.000000 0 0 1
19.736812 -23.208727 34.042504 45.684558 -0.866067 0.730015 0.018727 -0.010528 -254526.000000 0 0 1
19.033912 -24.009727 -33.945145 45.727778 -0.900487 2.407339 0.020802 -0.015033 -125227.000000 0 0 1
19.299812 -23.728027 -32.601925 44.703328 -0.887952 2.388088 0.027461 -0.007583 194381.000000 0 0 1
18.355812 -24.589327 -31.693495 44.114039 -0.929542 2.372360 0.031643 -0.005199 84866.100000 0 0 1
18.532612 -25.995527 -31.829655 45.081616 -0.951455 2.354694 0.033347 -0.014467 256595.000000 0 0 1
19.653312 -26.524967 -31.126345 45.372634 -0.933121 2.326795 0.026621 -0.020438 237021.000000 0 0 1
19.822412 -28.006127 -31.500575 46.578508 -0.954862 2.313511 0.025141 -0.022177 283185.000000 0 0 1
18.697212 -28.679037 -30.950325 46.151875 -0.993054 2.305839 0.029207 -0.020136 210131.000000 0 0 1
18.789012 -30.050807 -31.035985 47.109557 -1.012023 2.290025 0.026367 -0.016587 664360.000000 0 0 1
17.443012 -30.776387 -30.648765 46.805891 -1.055172 2.284722 0.058810 -0.015801 794025.000000 0 0 1
16.315312 -30.884457 -31.470955 47.015531 -1.084790 2.304162 0.057015 -0.020762 -120192.000000 0 0 1
16.529312 -31.564017 -32.690565 48.354714 -1.088388 2.313195 0.040336 -0.015561 77838.000000 0 0 1
15.161212 -32.016927 -33.306355 48.623649 -1.128542 2.325376 0.042170 -0.020674 1212250.000000 0 0 1
14.297612 -30.897287 -33.680395 47.889801 -1.137393 2.350811 0.054260 -0.014452 75403.300000 0 0 1
13.197412 -31.371667 -34.408712 48.397445 -1.172591 2.361661 0.031591 -0.021728 -196843.000000 0 0 1
12.257312 -30.253717 34.030566 47.155154 -1.185858 0.764581 0.040862 -0.003666 35228.800000 0 0 1
11.425412 -29.615257 -33.936985 46.468510 -1.202595 2.389590 0.060620 -0.009225 127982.000000 0 0 1
10.725412 -28.507077 34.405256 45.950077 -1.210942 0.724618 0.034773 0.000332 506313.000000 0 0 1
9.713012 -27.756577 -33.551635 44.614822 -1.234179 2.421931 0.039312 0.002534 1073910.000000 0 0 1
8.642412 -28.600247 -33.088525 44.581565 -1.277341 2.407146 0.041682 0.003688 -103784.000000 0 0 1
7.870712 -27.936297 -32.178335 43.333936 -1.296177 2.407691 0.006783 0.007613 -977667.000000 0 0 1
6.897212 -28.739997 -31.338325 43.077251 -1.335264 2.385455 0.001112 0.010000 174065.000000 0 0 1
5.704812 -29.185787 -31.981485 43.671162 -1.377765 2.392526 -0.006392 0.008875 304783.000000 0 0 1
5.850212 -30.267497 -32.879645 45.071248 -1.379867 2.388392 0.005058 0.003737 -224653.000000 0 0 1
4.543912 -31.073107 -33.091705 45.620676 -1.425593 2.382363 0.007950 -0.005369 183473.000000 0 0 1
4.135812 -31.775237 -31.951025 45.250841 -1.441366 2.354753 0.003476 -0.008366 348495.000000 0 0 1
2.983712 -32.581147 -32.189175 45.897458 -1.479473 2.348055 0.023152 -0.018749 -703353.000000 0 0 1
2.271412 -33.205907 -30.954985 45.453302 -1.502499 2.319962 0.006423 -0.027124 611558.000000 0 0 1
1.292812 -32.316627 -30.381875 44.374476 -1.530813 2.324947 -0.004428 -0.023829 803555.000000 0 0 1
0.061612 -32.222787 -31.100555 44.783438 -1.568884 2.338473 -0.008823 0.007473 -413503.000000 0 0 1
-0.874088 -31.170367 -30.524215 43.635805 1.542761 2.345525 -0.020354 0.004434 -337133.000000 0 0 1
-1.524788 -31.446987 -29.334095 43.031699 1.522347 2.320861 -0.004977 -0.001527 -225607.000000 0 0 1
-2.243788 -30.372377 -28.791595 41.910283 1.497054 2.328124 -0.006956 0.000285 -63341.200000 0 0 1
-2.760288 -30.586527 -27.323005 41.105978 1.480795 2.297884 0.006942 -0.004901 178374.000000 0 0 1
-1.715188 -30.428367 -26.375095 40.304752 1.514488 2.284174 -0.006938 0.003045 99904.700000 0 0 1
-2.215488 -30.745707 -25.111045 39.758917 1.498862 2.254389 0.001291 -0.005373 655042.000000 0 0 1
-1.026788 -30.836197 -24.100725 39.150610 1.537510 2.233931 -0.011633 0.002971 330486.000000 0 0 1
-1.482988 -30.637067 -22.776825 38.204880 1.522429 2.209526 0.015211 -0.007793 335963.000000 0 0 1
-0.612288 -31.114637 -21.729425 37.956073 1.551120 2.180334 0.004411 -0.005313 513378.000000 0 0 1
-1.389888 -30.952737 -20.372925 37.081799 1.525923 2.152448 -0.017955 0.009484 350483.000000 0 0 1
-1.606488 -29.665537 -19.744125 35.671492 1.516696 2.157356 -0.001774 -0.001530 108453.000000 0 0 1
-0.423888 -28.999187 -19.354625 34.867378 1.556180 2.159271 0.011275 -0.005120 -66891.500000 0 0 1
-0.778388 -27.529847 -18.872425 33.386626 1.542530 2.171556 0.021121 -0.011237 -147534.000000 0 0 1
-1.578388 -27.472667 -17.706325 32.722358 1.513406 2.142550 0.021589 -0.006922 146889.000000 0 0 1
-1.419088 -26.220657 -17.135625 31.355483 1.516728 2.148970 0.025679 -0.013518 404825.000000 0 0 1
-2.407188 -26.053077 -15.928725 30.631384 1.478662 2.117663 0.017518 -0.010339 273285.000000 0 0 1
-2.382488 -24.719527 -15.527325 29.288720 1.474712 2.129570 0.015444 -0.010034 756821.000000 0 0 1
-3.338588 -24.565027 -14.436125 28.687775 1.435716 2.098112 0.009726 -0.004958 569591.000000 0 0 1
-3.084988 -23.394027 -13.516225 27.193492 1.439682 2.090979 0.012224 -0.002968 -1024870.000000 0 0 1
-2.012788 -23.688827 -12.716525 26.961488 1.486032 2.061963 0.013323 -0.004434 -1063360.000000 0 0 1
-1.690088 -22.510127 -12.105825 25.614707 1.495856 2.063049 0.009893 -0.001170 48045.000000 0 0 1
-0.363888 -22.632827 -11.320725 25.308815 1.554720 2.034545 0.001962 0.000243 203127.000000 0 0 1
0.101312 -21.355927 -10.856825 23.957390 -1.566052 2.041117 -0.000659 0.001410 2129.860000 0 1 0
1.391712 -21.460727 -10.278825 23.835979 -1.506038 2.016654 0.000245 0.001339 319512.000000 0 1 0
1.927612 -20.092327 -9.842625 22.456504 -1.475151 2.024500 -0.003426 0.000555 -1257160.000000 0 1 0
2.402512 -19.265027 -10.859525 22.245058 -1.446728 2.080796 -0.005784 0.004328 199327.000000 0 1 0
3.259212 -18.162227 -10.524925 21.242952 -1.393236 2.089155 -0.008429 0.003588 611130.000000 0 1 0
4.598212 -18.558227 -9.852325 21.508595 -1.327916 2.046613 -0.005075 -0.005890 -699687.000000 0 1 0
4.473312 -19.133927 -8.588825 21.444944 -1.341132 1.982865 0.000154 -0.001811 74611.400000 0 1 0
5.625412 -19.920127 -8.251725 22.283350 -1.295565 1.950138 0.001657 0.002985 206874.000000 0 1 0
5.367112 -21.077327 -7.252625 22.927280 -1.321456 1.892656 0.007802 0.001688 408860.000000 0 1 0
4.303212 -21.950427 -7.672125 23.647418 -1.377209 1.901214 0.004010 -0.004179 502731.000000 0 1 0
4.160612 -22.962927 -6.712925 24.283123 -1.391553 1.850888 0.019032 -0.007964 49506.200000 0 1 0
3.116112 -23.943027 -7.236425 25.206042 -1.441377 1.861985 0.020241 -0.011974 144032.000000 0 0 1
3.666812 -24.503627 -8.396525 26.160560 -1.422255 1.897541 0.015248 -0.006955 609051.000000 0 0 1
2.623212 -25.111977 -9.169825 26.862210 -1.466713 1.919165 0.009643 0.001100 587169.000000 0 0 1
3.132412 -25.777937 -10.447425 27.990404 -1.449874 1.953306 0.000943 0.001383 -212482.000000 0 0 1
3.539312 -27.094817 -10.214825 29.171879 -1.440905 1.928538 -0.000650 0.008496 -153837.000000 0 0 1
4.099912 -27.563537 -11.433025 30.120955 -1.423135 1.960128 0.009932 0.010038 93929.500000 0 0 1
4.312512 -29.105647 -11.416725 31.560704 -1.423699 1.940928 0.018083 0.011841 -426148.000000 0 0 1
3.148612 -29.859117 -11.524225 32.160354 -1.465736 1.937282 0.025632 0.012132 -559952.000000 0 0 1
3.412712 -31.246847 -11.538825 33.483676 -1.462010 1.922620 0.023715 0.010889 1783.400000 0 0 1
2.179112 -32.151337 -11.773325 34.308427 -1.503123 1.921077 0.011761 0.006045 117688.000000 0 0 1
1.891612 -32.202787 -13.205425 34.856577 -1.512123 1.959350 0.019417 -0.002788 401822.000000 0 0 1
0.873212 -33.140437 -13.524825 35.804636 -1.544454 1.958150 0.011346 -0.001809 120688.000000 0 0 1
0.380012 -33.056807 -15.016225 36.309557 -1.559301 1.997158 0.013630 -0.006105 292951.000000 0 0 1
-0.400888 -31.881007 -15.250525 35.343144 1.558222 2.016950 0.011474 -0.006182 240901.000000 0 0 1
-0.997288 -31.856727 -16.565825 35.920359 1.539501 2.050123 -0.010432 -0.006198 544886.000000 0 0 1
-2.218988 -30.875317 -16.557425 35.104949 1.499050 2.061963 0.001173 0.007225 921984.000000 0 0 1
-3.392988 -31.389397 -15.891125 35.345926 1.463121 2.037101 -0.006711 0.006484 292368.000000 0 0 1
-4.517788 -31.062247 -16.692025 35.551333 1.426366 2.059542 0.001457 0.010516 -504469.000000 0 0 1
-5.802988 -31.144407 -15.907925 35.450118 1.386584 2.036152 0.003681 -0.001844 -1103720.000000 0 0 1
-6.049888 -30.135297 -14.966525 34.186754 1.372672 2.023932 -0.017041 0.003123 27104.500000 0 0 1
-7.361788 -30.160067 -14.416925 34.229714 1.331387 2.005544 0.001485 -0.000923 582068.000000 0 0 1
-7.711288 -31.327567 -13.397625 34.933892 1.329444 1.964394 -0.008250 -0.006671 -49925.500000 0 0 1
-7.658288 -32.590237 -14.045525 36.304954 1.339997 1.968038 -0.003750 -0.006002 -674006.000000 0 0 1
-8.403688 -33.501357 -13.343225 37.027079 1.325021 1.939454 0.010661 -0.011579 -254576.000000 0 0 1
-8.705388 34.262520 -14.050325 38.040974 -1.321982 1.949103 0.024904 -0.007686 140462.000000 0 0 1
-7.595488 33.385289 -14.111725 37.032550 -1.347094 1.961742 0.020665 -0.004836 -178278.000000 0 0 1
-7.992188 32.115957 -14.581525 36.165324 -1.326896 1.985797 0.038519 -0.018860 -183816.000000 0 0 1
-7.964288 -22.131127 -3.205025 23.737920 1.225357 1.706227 0.030562 -0.004331 121105.000000 0 1 0
-7.705388 -21.013027 -4.007525 22.737207 1.219326 1.747976 0.025894 -0.009084 532314.000000 0 1 0
-6.505288 -21.204027 -4.787725 22.690347 1.273117 1.783397 0.017722 -0.001875 915052.000000 0 1 0
-6.345788 -20.137627 -5.822725 21.901990 1.265525 1.839886 0.022430 -0.014687 451141.000000 0 1 0
-7.168488 -20.272627 -7.001625 22.613920 1.230914 1.885585 0.025919 -0.012665 -172575.000000 0 1 0
-7.059188 -19.203127 -7.922225 21.939778 1.218524 1.940232 0.012721 -0.009896 46899.300000 0 1 0
-7.706588 -19.293027 -9.312225 22.766860 1.190765 1.992182 0.010102 -0.012796 437132.000000 0 1 0
-6.996988 -20.233127 -10.117425 23.679095 1.237852 2.012270 -0.004822 -0.004082 94403.600000 0 1 0
-7.886488 -20.721127 -11.126225 24.806344 1.207124 2.035909 0.018314 0.006572 335684.000000 0 1 0
-7.286888 -21.478027 -12.323325 25.812182 1.243711 2.068516 0.014951 0.002341 -150953.000000 0 0 1
-6.502688 -20.691127 -13.175625 25.377249 1.266296 2.116700 0.019583 0.001154 -352971.000000 0 0 1
-6.335988 -21.285727 -14.467325 26.505290 1.281484 2.148173 0.013832 0.000807 168144.000000 0 0 1
-5.379688 -20.502027 -15.435525 26.220785 1.314184 2.200215 0.017004 0.000695 310370.000000 0 0 1
-4.015288 -20.752527 -15.108625 25.981926 1.379674 2.191374 0.010219 0.004105 278292.000000 0 0 1
-3.049288 -20.053727 -15.869325 25.754332 1.419896 2.234681 0.017185 0.014621 196520.000000 0 0 1
-2.969488 -18.480427 -15.794325 24.490911 1.411475 2.271696 0.021990 0.008986 -1183110.000000 0 1 0
-4.025988 -17.862727 -16.467125 24.626242 1.349116 2.303231 0.021657 0.007216 -473027.000000 0 1 0
-4.122688 -17.895927 -17.899725 25.644900 1.344376 2.343374 0.033022 0.003018 -831290.000000 0 0 1
-5.552188 -17.715027 -18.426425 26.156875 1.267076 2.352456 0.031695 0.012844 -874649.000000 0 0 1
-6.302888 -18.775027 -17.979925 26.748939 1.246912 2.307937 0.024656 0.017092 -1250250.000000 0 0 1
-7.478588 -18.772327 -18.731425 27.553508 1.191684 2.318313 0.023309 0.021638 -283888.000000 0 0 1
-8.518888 -19.784627 -18.134525 28.157839 1.164208 2.270552 0.033728 0.012501 51630.200000 0 0 1
-8.167588 -21.135027 -18.270725 29.107014 1.202027 2.249403 0.023268 0.011058 313303.000000 0 0 1
-9.208688 -22.035227 -17.892225 29.840960 1.174948 2.213780 0.027531 0.010543 3896.770000 0 0 1
-8.927788 -23.484927 -18.200925 31.024520 1.207519 2.197728 0.017082 -0.004124 -711847.000000 0 0 1
-8.928088 -23.783927 -19.621625 32.099752 1.211690 2.228461 0.007556 -0.006293 302167.000000 0 0 1
-8.077588 -24.877127 -19.952525 32.897145 1.256836 2.222463 0.018848 -0.023239 1126850.000000 0 0 1
-6.512888 -24.684327 -19.865725 32.347809 1.312828 2.232078 0.035267 -0.017821 439434.000000 0 0 1
-5.992888 -23.736027 -20.765625 32.101789 1.323484 2.274267 0.033994 -0.011993 -76493.800000 0 0 1
-5.802188 -22.403127 -20.269225 30.763728 1.317374 2.290109 0.031345 -0.008097 57055.100000 0 0 1
-4.701288 -22.130627 -19.170125 29.654012 1.361475 2.273731 0.037494 0.007049 183790.000000 0 0 1
-3.415588 -22.370327 -19.683625 29.992380 1.419283 2.286684 0.032357 -0.006567 417730.000000 0 0 1
-2.388888 -22.107327 -18.672925 29.036508 1.463155 2.269315 0.018338 -0.000375 516389.000000 0 0 1
-1.059688 -22.766227 -18.965625 29.649940 1.524283 2.264841 0.027336 -0.004207 -486510.000000 0 0 1
-0.287488 -22.346727 -20.045225 30.021158 1.557932 2.301916 0.038952 -0.007871 399158.000000 0 0 1
1.101512 -22.703127 -19.964425 30.252662 -1.522316 2.291512 0.031146 -0.014774 937003.000000 0 0 1
1.829712 -22.009027 -21.132525 30.566791 -1.487852 2.334160 0.047590 -0.020506 97765.000000 0 0 1
1.302112 -22.348527 -22.434325 31.693076 -1.512598 2.357263 0.038731 -0.026660 -104325.000000 0 0 1
0.619012 -21.287927 -23.016925 31.358218 -1.541726 2.394989 0.042261 -0.020738 -711336.000000 0 0 1
0.192212 -21.612927 -24.440925 32.626896 -1.561903 2.417504 0.040656 -0.025418 -200809.000000 0 0 1
-0.380388 -20.555327 -25.203855 32.525382 1.552293 2.457350 0.047424 -0.028295 1150520.000000 0 0 1
-1.742588 -20.185827 -24.851625 32.064115 1.484683 2.457607 0.041407 -0.021661 931262.000000 0 0 1
-2.149588 -18.869727 -25.579985 31.859425 1.457368 2.502943 0.023392 -0.009552 58885.900000 0 0 1
-1.344488 -17.742427 -25.269465 30.905456 1.495163 2.528092 0.033644 -0.012890 131557.000000 0 0 1
-1.900688 -16.562527 -25.796665 30.714782 1.456538 2.567854 0.028517 -0.006239 -110565.000000 0 0 1
-1.247888 -15.240827 -25.317255 29.577076 1.489101 2.598231 0.025844 -0.003394 -302736.000000 0 0 1
0.076012 -15.072627 -25.770845 29.855089 -1.565753 2.612366 0.037801 -0.012596 -310344.000000 0 0 1
0.791612 -13.929927 -25.386945 28.968371 -1.514029 2.639065 0.041041 -0.013272 323267.000000 0 0 1
0.140612 -12.598427 -25.786935 28.700281 -1.559636 2.687115 0.033483 -0.004584 -320881.000000 0 0 1
0.999612 -11.525227 -25.492175 27.994304 -1.484280 2.715578 0.026944 0.000139 51838.100000 0 0 1
0.703412 -10.398327 -26.301325 28.290982 -1.503253 2.764317 0.019224 0.003341 -302304.000000 0 0 1
1.594612 -9.133827 -25.968695 27.574312 -1.397955 2.798656 0.030573 0.000191 436669.000000 0 0 1
2.965812 -9.104227 -26.265415 27.956305 -1.255875 2.792013 0.040222 -0.000965 -383910.000000 0 0 1
3.316012 -9.386027 -27.624955 29.363780 -1.231191 2.795730 0.034183 0.003339 -115814.000000 0 0 1
4.766512 -9.124827 -28.148085 29.971600 -1.089415 2.790969 0.036861 0.009146 444888.000000 0 0 1
5.037112 -7.711227 -28.380725 29.837913 -0.992162 2.827779 0.035295 0.002120 712547.000000 0 0 1
6.246312 -7.411027 -29.102575 30.674087 -0.870474 2.820108 0.043780 0.005898 549095.000000 0 0 1
7.522812 -7.210327 -28.222375 30.084613 -0.764192 2.787900 0.050696 0.002885 270286.000000 0 0 1
8.087712 -8.406227 -27.686955 30.044021 -0.804707 2.742841 0.048653 0.010149 537725.000000 0 0 1
8.811812 -9.211827 -28.622035 31.332518 -0.807588 2.722585 0.046747 0.002546 -407359.000000 0 0 1
9.231912 -10.586527 -28.124325 31.436927 -0.853643 2.678392 0.036248 0.002248 523092.000000 0 0 1
8.086712 -11.450127 -27.986075 31.300491 -0.955885 2.677236 0.035285 0.001137 659311.000000 0 0 1
8.234512 -12.680927 -27.250475 31.164106 -0.994870 2.635033 0.031093 0.001080 -7091.960000 0 0 1
9.128312 -13.780127 -27.882345 32.413626 -0.985735 2.606467 0.026264 -0.007288 122370.000000 0 0 1
8.459112 -14.336127 -28.984375 33.424170 -1.037721 2.620284 0.030117 -0.019267 30350.800000 0 0 1
9.184412 -15.449727 -29.406205 34.464074 -1.034452 2.592967 0.021616 -0.016759 109161.000000 0 0 1
8.434912 -16.272127 -30.521975 35.602259 -1.092564 2.600807 0.025180 -0.020836 45855.100000 0 0 1
8.061312 -15.400627 -31.582185 36.049944 -1.088573 2.638442 0.032894 -0.020004 433174.000000 0 0 1
7.140712 -16.063127 -32.425675 36.884119 -1.152492 2.644815 0.032012 -0.019448 -156604.000000 0 0 1
6.059712 -15.154827 -33.076365 36.884073 -1.190416 2.683201 0.026629 -0.015929 405908.000000 0 0 1
6.632712 -14.298527 -34.052115 37.523157 -1.136465 2.708080 0.039291 -0.007027 -257680.000000 0 0 1
5.647112 -13.459027 34.397753 37.366304 -1.173527 0.401296 0.019500 -0.013575 -158511.000000 0 0 1
6.246012 -12.264927 33.506074 36.222895 -1.099770 0.389768 0.037728 -0.003938 350473.000000 0 0 1
6.670812 -12.612727 32.196387 35.216303 -1.084301 0.417152 0.028616 0.003392 111519.000000 0 0 1
6.799012 -11.417927 31.443737 34.136553 -1.033716 0.399858 0.030931 0.002986 -164407.000000 0 0 1
7.540512 -11.585827 30.103807 33.125970 -0.993831 0.430475 0.014239 0.009325 -95366.300000 0 0 1
6.691412 -11.995427 29.046717 32.130625 -1.061961 0.441715 0.015204 0.012681 113743.000000 0 0 1
7.211712 -11.828327 27.729407 30.997389 -1.023276 0.463323 0.005522 0.011990 -310862.000000 0 0 1
6.485412 -12.540727 26.572937 30.090719 -1.093525 0.488380 0.007799 0.008269 -331265.000000 0 0 1
6.772012 -13.881827 26.453147 30.632242 -1.116930 0.528485 0.012118 0.008332 563476.000000 0 0 1
5.972212 -14.579127 25.442987 29.925973 -1.182006 0.554436 0.003425 0.005490 303426.000000 0 0 1
4.499012 -14.954227 25.629587 30.012427 -1.278558 0.547236 0.000257 -0.006772 -433520.000000 0 0 1
3.692712 -13.816527 25.652487 29.369757 -1.309633 0.508590 -0.004244 -0.007446 -31034.500000 0 0 1
2.311712 -14.175027 25.575567 29.332321 -1.409136 0.511677 -0.000924 -0.007810 592060.000000 0 0 1
1.410512 -13.015927 25.116297 28.323705 -1.462849 0.480511 0.013217 -0.001993 -548071.000000 0 0 1
1.565712 -12.614727 23.742587 26.931269 -1.447310 0.491556 0.009272 0.004489 183350.000000 0 0 1
0.629912 -11.612327 23.349587 26.085363 -1.516604 0.462091 0.019275 0.015122 -656995.000000 0 0 1
-0.778688 -12.038527 23.074687 26.037928 1.506203 0.481729 0.025635 0.016068 -1566900.000000 0 0 1
-0.895388 -12.724127 21.877387 25.324399 1.500543 0.527862 0.024240 0.008844 415921.000000 0 0 1
-2.153988 -13.396127 21.765287 25.648072 1.411369 0.557438 0.033396 0.007595 649766.000000 0 0 1
-2.420788 -13.958927 20.335987 24.784355 1.399082 0.608481 0.025924 0.000884 124685.000000 0 1 0
-1.509288 -14.990427 20.032787 25.065981 1.470451 0.644830 0.024785 -0.004738 -80731.800000 0 0 1
-1.811388 -15.552727 18.744787 24.424076 1.454851 0.695908 0.023935 -0.007297 294415.000000 0 1 0
-2.786088 -16.758727 18.679587 25.249638 1.406056 0.738029 0.013358 -0.011632 442504.000000 0 0 1
-2.272188 -17.793127 17.822887 25.286627 1.443783 0.788607 0.004467 -0.007216 -95930.100000 0 0 1
-3.186788 -18.849727 17.768287 26.099423 1.403317 0.821953 0.004767 0.001446 63675.500000 0 0 1
-2.665288 -19.904027 16.806787 26.186679 1.437681 0.873944 0.004354 -0.006640 100931.000000 0 0 1
-1.632788 -20.714027 17.303587 27.039805 1.492134 0.876389 0.007986 -0.002951 -132666.000000 0 0 1
-2.031388 -22.066027 17.424787 28.189702 1.478996 0.904440 0.009767 -0.017105 688266.000000 0 0 1
-0.828388 -22.880427 18.045087 29.151764 1.534607 0.903321 0.019957 -0.003974 585055.000000 0 0 1
0.359212 -22.922127 17.330387 28.738394 -1.555127 0.923490 0.030344 -0.012502 -697884.000000 0 0 1
1.337012 -23.714127 17.975487 29.787003 -1.514476 0.922954 0.028845 -0.008196 174649.000000 0 0 1
2.672912 -23.757427 17.197487 29.450185 -1.458759 0.947208 0.038538 -0.015040 231957.000000 0 0 1
3.461612 -22.598327 17.440687 28.754908 -1.418798 0.919109 0.033208 -0.002135 -282019.000000 0 0 1
4.450412 -22.377927 16.470887 28.140148 -1.374483 0.945526 0.030198 -0.010711 -177865.000000 0 0 1
5.169712 -21.056027 16.605787 27.309968 -1.330037 0.917196 0.038570 -0.008269 -149724.000000 0 0 1
6.092612 -21.123427 17.710887 28.231093 -1.289988 0.892646 0.046842 -0.005470 68215.400000 0 0 1
6.553812 -19.883827 18.217687 27.752534 -1.252405 0.854715 0.056562 -0.010768 202529.000000 0 0 1
7.497012 -18.989227 17.384187 26.814285 -1.194778 0.865423 0.053476 -0.014335 -739445.000000 0 0 1
6.951012 -18.433727 16.254187 25.540506 -1.210202 0.880964 0.040499 -0.011881 33073.600000 0 0 1
7.917012 -17.688027 15.505087 24.818403 -1.149947 0.895996 0.050375 -0.013278 76384.200000 0 1 0
7.277612 -16.699527 14.562187 23.321560 -1.159816 0.896422 0.035536 -0.011063 -301414.000000 0 1 0
6.643012 -17.326427 13.492787 22.943191 -1.204679 0.942094 0.036415 -0.013890 -115706.000000 0 1 0
6.018612 -16.384927 12.674587 21.571618 -1.218770 0.942758 0.034182 -0.017855 -211251.000000 0 1 0
6.469012 -16.596027 11.206487 21.044277 -1.199120 1.009222 0.039457 -0.014425 -392515.000000 0 1 0
7.817812 -16.263227 11.110287 21.190782 -1.122704 1.018906 0.037547 -0.006210 -934045.000000 0 1 0
8.350112 -16.460627 9.883087 20.936858 -1.101343 1.079190 0.033876 -0.005442 166267.000000 0 1 0
9.880912 -16.209827 9.865187 21.394224 -1.023375 1.091546 0.032207 0.000771 487512.000000 0 1 0
10.507112 -16.627227 8.681587 21.499629 -1.007235 1.155128 0.033269 -0.000452 824764.000000 0 1 0
11.925212 -16.395427 8.572387 22.011509 -0.941950 1.170762 0.045507 0.002574 1431410.000000 0 1 0
12.738612 -17.500027 7.793387 23.005653 -0.941577 1.225198 0.039086 0.000513 185224.000000 0 1 0
12.861612 -18.717527 8.492187 24.246322 -0.968752 1.212962 0.023869 -0.004404 349199.000000 0 1 0
13.621612 -19.716127 7.792387 25.199113 -0.966213 1.256410 0.023371 -0.004137 127764.000000 0 0 1
13.898712 -20.974127 8.656687 26.608766 -0.985573 1.239433 0.020618 -0.002306 -298960.000000 0 0 1
12.878612 -21.913227 8.875087 26.922395 -1.039463 1.234859 0.030808 -0.001217 -354866.000000 0 0 1
13.418212 -23.056627 9.489487 28.314428 -1.043741 1.229035 0.023764 0.001185 -802332.000000 0 0 1
12.428212 -23.822327 10.242687 28.755458 -1.089936 1.206599 0.042518 -0.007681 -995736.000000 0 0 1
12.192812 -23.098327 11.436987 28.513191 -1.085106 1.158066 0.043986 -0.014487 -158537.000000 0 0 1
11.176412 -23.657527 12.267887 28.897956 -1.129451 1.132360 0.052325 -0.013344 36370.200000 0 0 1
11.352612 -25.164637 12.787187 30.424545 -1.147000 1.137029 0.051633 -0.017049 -639655.000000 0 0 1
12.389012 -25.332137 13.704087 31.352939 -1.115936 1.118435 0.038476 -0.021841 -432351.000000 0 0 1
12.388412 -26.552447 14.438987 32.664806 -1.134254 1.112930 0.025023 -0.029296 -730614.000000 0 0 1
13.561512 -26.634567 15.372387 33.609895 -1.099840 1.095753 0.019438 -0.024643 -670330.000000 0 0 1
13.500012 -25.806817 16.494287 33.470937 -1.088826 1.055498 0.015173 -0.021185 -304630.000000 0 0 1
14.531212 -26.130527 17.365787 34.576454 -1.063281 1.044605 0.021601 -0.014730 -591037.000000 0 0 1
14.530512 -25.303807 18.671287 34.641527 -1.049532 1.001564 0.032605 -0.005244 -45798.600000 0 0 1
14.873012 -23.915627 18.624887 33.764628 -1.014433 0.986504 0.012417 -0.022139 606583.000000 0 0 1
16.177012 -23.730127 19.188587 34.540071 -0.972453 0.981777 0.015659 -0.017154 562017.000000 0 0 1
16.723212 -22.262827 19.171687 33.806107 -0.926546 0.967807 0.010179 -0.025832 -2536.340000 0 0 1
16.863712 -21.604227 17.969687 32.772505 -0.908013 0.990447 0.002782 -0.019886 533628.000000 0 0 1
15.652612 -21.033327 17.491387 31.517515 -0.931029 0.982465 0.003986 -0.011506 -291937.000000 0 0 1
15.962512 -20.160927 16.264287 30.426827 -0.901103 1.006836 -0.010099 -0.006335 849891.000000 0 0 1
16.855912 -19.021427 16.533387 30.319785 -0.845684 0.994049 -0.014796 -0.001543 810992.000000 0 0 1
18.233112 -19.262227 16.688587 31.336699 -0.812838 1.009177 0.003250 -0.009321 -337917.000000 0 0 1
19.106812 -18.008127 17.015487 31.287213 -0.755805 0.995781 0.013140 -0.007823 -198533.000000 0 0 1
19.003612 -17.587327 18.356287 31.739638 -0.746712 0.954105 0.001691 -0.007954 288296.000000 0 0 1
19.604812 -16.321527 18.474687 31.496904 -0.694262 0.943997 0.004728 -0.004198 -442006.000000 0 0 1
19.846012 -16.024927 19.979687 32.401395 -0.679275 0.906341 0.004452 -0.001837 -88174.500000 0 0 1
20.864712 -16.869027 20.477287 33.752327 -0.679900 0.918903 0.004502 -0.004852 29945.600000 0 0 1
21.191212 -16.593127 21.827087 34.652865 -0.664301 0.889400 0.010875 0.002789 -5743.010000 0 0 1
33.000567 -0.905827 -7.847025 33.932782 -0.027442 1.804161 0.072729 -0.019278 581680.000000 0 0 1
34.421917 -0.865727 -8.053525 35.362086 -0.025145 1.800557 0.061844 -0.019898 819051.000000 0 0 1
34.986975 -2.073927 -8.426525 36.047134 -0.059208 1.806744 0.055560 -0.020879 -138595.000000 0 0 1
-34.370381 -1.884227 -8.774225 35.522675 0.054766 1.820383 0.044430 -0.015761 168527.000000 0 0 1
-33.578988 -3.038227 -8.440425 34.756582 0.090234 1.816093 0.049419 -0.013483 -381091.000000 0 0 1
-32.304708 -2.890427 -8.959325 33.648450 0.089236 1.840310 0.086421 -0.016230 -690759.000000 0 0 1
-31.235238 -3.955927 -8.617725 32.642834 0.125979 1.837964 0.083687 -0.010850 164403.000000 0 0 1
-30.741078 -3.742227 -7.262025 31.808098 0.121138 1.801135 0.065656 -0.012668 429357.000000 0 0 1
-29.640538 -4.592227 -6.989925 30.797875 0.153709 1.799753 0.060650 -0.016609 91784.600000 0 0 1
-29.355148 -4.505327 -5.453625 30.195442 0.152288 1.752404 0.048185 -0.020929 -274892.000000 0 0 1
-28.877578 -3.212527 -5.184025 29.514555 0.110791 1.747355 0.044288 -0.018455 207658.000000 0 0 1
-29.160198 -2.939427 -3.785025 29.551375 0.100463 1.699232 0.034764 -0.018553 -186670.000000 0 0 1
-28.862218 -1.506727 -3.296225 29.088880 0.052157 1.684356 0.043044 -0.017054 -228396.000000 0 0 1
-27.532668 -1.235027 -2.895925 27.712082 0.044827 1.675488 0.027424 -0.004832 576676.000000 0 0 1
-27.455028 0.100673 -2.367025 27.557059 -0.003667 1.656798 0.032448 -0.009211 -563947.000000 0 0 1
-26.001368 0.420373 -2.016625 26.082841 -0.016166 1.648190 0.035112 -0.000717 -439236.000000 0 0 1
-25.632448 -0.212027 -0.820725 25.646460 0.008272 1.602803 0.023800 -0.004635 1131590.000000 0 0 1
-24.201088 -0.305327 -0.707925 24.213365 0.012616 1.600037 0.024695 -0.003363 696301.000000 0 1 0
-23.738988 -1.136027 0.449775 23.770410 0.047818 1.551874 0.012239 -0.001171 -502531.000000 0 1 0
-23.914688 -2.518227 0.286275 24.048611 0.104914 1.558892 0.019094 0.003277 83903.300000 0 1 0
-23.132088 -3.208327 1.189175 23.383776 0.137817 1.519920 0.019233 -0.000000 -518762.000000 0 1 0
-23.214588 -4.687927 0.962075 23.702728 0.199259 1.530196 0.018015 -0.001310 674072.000000 0 1 0
-24.345288 -5.372427 1.575475 24.980755 0.217195 1.507687 0.008465 -0.003795 964723.000000 0 1 0
-24.577688 -6.786327 1.242375 25.527641 0.269405 1.522109 0.009555 0.000268 356845.000000 0 0 1
-25.844778 -7.374727 1.946775 26.946782 0.277960 1.498488 0.009311 0.001145 314051.000000 0 0 1
-25.810008 -7.224527 3.386075 27.015103 0.272927 1.445126 0.013298 -0.000550 -9858.620000 0 0 1
-27.026398 -7.720927 3.897175 28.376520 0.278269 1.433023 0.017341 0.002330 -252922.000000 0 0 1
-27.002398 -7.948327 5.439975 28.668776 0.286271 1.379886 0.026840 0.000187 -576582.000000 0 0 1
-26.075228 -8.948827 5.751775 28.161710 0.330598 1.365108 0.024939 0.009256 -85618.900000 0 0 1
-25.982298 -9.201827 7.147575 28.475274 0.340374 1.317073 0.018060 0.001996 -283444.000000 0 0 1
-25.271148 -8.183027 8.014675 27.745772 0.313154 1.277759 0.021320 0.004507 -1187410.000000 0 0 1
-23.912288 -8.030927 7.788575 26.399909 0.324013 1.271317 0.023905 0.000781 -731044.000000 0 0 1
-23.564888 -6.732127 8.163875 25.831654 0.278272 1.249242 0.023483 -0.003767 -138375.000000 0 0 1
-22.102888 -6.382827 7.808275 24.295005 0.281130 1.243595 0.024529 -0.005240 -77532.800000 0 1 0
-21.139688 -7.121327 8.483775 23.865752 0.324930 1.207370 0.026042 -0.010699 341623.000000 0 1 0
-19.816788 -6.776227 8.064775 22.442436 0.329480 1.203221 0.021523 -0.012402 653971.000000 0 1 0
-18.708688 -7.010727 9.105875 21.956372 0.358535 1.143155 0.021411 -0.010795 -116684.000000 0 1 0
-18.640288 -5.874527 9.951375 21.931718 0.305299 1.099835 0.022766 -0.012415 680245.000000 0 1 0
-17.580688 -5.921827 10.920475 21.526853 0.324901 1.038753 0.012449 -0.012648 349512.000000 0 1 0
-17.413288 -4.598127 11.795175 21.528853 0.258166 0.990971 0.008541 -0.013626 -48621.200000 0 1 0
-18.610288 -4.400527 12.503975 22.848563 0.232192 0.991716 0.028092 -0.009850 241897.000000 0 1 0
-18.448188 -3.223827 13.269775 22.952464 0.173003 0.954347 0.017378 -0.007771 -331750.000000 0 1 0
-19.557088 -3.072627 14.276475 24.407754 0.155837 0.946020 0.019761 -0.011038 -343288.000000 0 1 0
-19.413788 -4.015127 15.306575 25.046110 0.203943 0.913302 0.022423 -0.004986 -446415.000000 0 0 1
-20.583988 -4.068427 16.031475 26.405697 0.195135 0.918363 0.028454 -0.001999 -569076.000000 0 0 1
-20.414988 -5.047027 17.262975 27.207619 0.242362 0.883447 0.016371 0.010136 -191535.000000 0 0 1
-21.486388 -4.805027 18.128775 28.520267 0.220011 0.881952 0.026845 0.006925 321039.000000 0 0 1
-21.256888 -5.516427 19.360875 29.276778 0.253911 0.848239 0.019484 0.009946 -46257.900000 0 0 1
-22.062988 -4.898627 20.570575 30.560114 0.218485 0.832379 0.000406 0.007303 -77555.400000 0 0 1
-21.715888 -3.513727 20.862775 30.318005 0.160414 0.811886 0.003143 0.010644 337493.000000 0 0 1
-22.074388 -3.242927 22.196675 31.472012 0.145866 0.787974 0.012494 0.002151 -145344.000000 0 0 1
-22.194088 -1.775127 22.542775 31.684465 0.079812 0.779198 0.015389 0.003411 -517417.000000 0 0 1
-23.305188 -1.130727 22.018975 32.081858 0.048480 0.814355 0.030723 -0.006388 -522044.000000 0 0 1
-23.178388 0.278773 22.224275 32.112829 -0.012027 0.806446 0.031960 -0.006695 -44612.200000 0 0 1
-24.516488 0.950173 21.883275 32.876112 -0.038737 0.842461 0.043143 -0.014597 -22812.000000 0 0 1
-25.561118 0.699573 22.781075 34.246716 -0.027362 0.843028 0.038180 -0.011726 -234641.000000 0 0 1
-26.762398 1.362673 22.435575 34.949075 -0.050874 0.873757 0.040437 -0.011335 563525.000000 0 0 1
-27.777228 1.268073 23.634375 36.493370 -0.045620 0.866320 0.027808 -0.007317 61962.900000 0 0 1
-27.340098 2.042073 24.746975 36.933234 -0.074553 0.836525 0.016757 -0.001453 575385.000000 0 0 1
-28.297928 1.961473 25.813575 38.353106 -0.069204 0.832471 0.013410 0.000328 157272.000000 0 0 1
-27.979878 2.924573 26.965675 38.968889 -0.104146 0.806569 0.013129 0.000914 228540.000000 0 0 1
-26.956068 2.375473 27.796675 38.793396 -0.087897 0.771980 0.004734 -0.000186 519034.000000 0 0 1
-26.694198 3.228373 28.894175 39.469937 -0.120355 0.749462 -0.002508 0.002198 -520022.000000 0 0 1
-25.477878 2.737573 29.688175 39.217398 -0.107038 0.712063 0.014495 -0.001098 -458488.000000 0 0 1
-25.691598 1.711973 30.573975 39.971953 -0.066537 0.699932 0.014849 0.000705 1086640.000000 0 0 1
-24.546488 1.608273 31.473575 39.946246 -0.065426 0.663408 0.012365 -0.008471 1101700.000000 0 0 1
-24.649088 0.476273 32.512075 40.802443 -0.019320 0.648788 0.006530 -0.009806 -82373.900000 0 0 1
-24.675988 -0.766527 31.819275 40.273542 0.031054 0.659859 0.010862 -0.003808 423475.000000 0 0 1
-25.439778 -1.852027 32.394175 41.230994 0.072672 0.667009 -0.007719 0.003675 -230806.000000 0 0 1
-26.124848 -2.753527 31.340475 40.893948 0.105011 0.697603 0.006649 0.004340 -576054.000000 0 0 1
-27.312648 -2.290727 30.788575 41.220923 0.083675 0.727384 0.004101 0.007938 -642681.000000 0 0 1
-27.191948 -1.173527 29.927775 40.453071 0.043130 0.738001 0.012418 0.004622 -1274850.000000 0 0 1
-28.490818 -0.611827 29.380575 40.930664 0.021471 0.770140 0.026066 -0.008091 -188537.000000 0 0 1
-29.384508 -0.312427 30.441675 42.311257 0.010632 0.767758 0.021053 -0.008677 -739725.000000 0 0 1
-30.723898 -0.301827 30.021175 42.957187 0.009824 0.796990 0.016843 -0.006602 45264.600000 0 0 1
-31.623428 -0.089627 31.290775 44.487772 0.002834 0.790688 0.007294 -0.001750 -173271.000000 0 0 1
-31.763008 -1.267127 32.105375 45.180188 0.039872 0.780435 0.018666 0.007556 278171.000000 0 0 1
-32.507308 -0.984627 33.321675 46.562094 0.030280 0.773257 0.022445 0.010616 340538.000000 0 0 1
-32.590918 -2.291427 34.102275 47.226939 0.070193 0.763972 0.019335 0.014378 -35509.100000 0 0 1
-33.479678 -3.236427 33.544975 47.503986 0.096369 0.786749 0.034043 0.000904 -18550.100000 0 0 1
-33.549778 -4.468127 34.211675 48.124739 0.132400 0.780025 0.015042 0.009381 -226801.000000 0 0 1
-34.777137 -5.249027 33.717975 48.722719 0.149803 0.806488 0.021564 0.011930 -268272.000000 0 0 1
34.894624 -4.692327 34.224075 49.101324 -0.133670 0.799578 0.038649 0.001019 -93904.300000 0 0 1
33.684237 -5.312427 33.796275 48.010810 -0.156424 0.789880 0.042125 -0.009261 1339920.000000 0 0 1
32.352667 -4.744127 -34.434037 47.485836 -0.145600 2.382039 0.066233 -0.009365 660773.000000 0 0 1
32.105167 -5.223527 -33.109137 46.413811 -0.161287 2.365058 0.056832 -0.007621 99929.800000 0 0 1
31.794527 -6.590927 -32.940937 46.254055 -0.204402 2.363387 0.058938 -0.012760 -262172.000000 0 0 1
30.459447 -7.023327 -33.602937 45.894034 -0.226619 2.392321 0.047420 -0.007332 489284.000000 0 0 1
29.309247 -6.579827 -32.861837 44.522201 -0.220835 2.401046 0.039374 -0.012468 332670.000000 0 0 1
28.086187 -7.021727 -33.396737 44.198196 -0.244985 2.427386 0.021431 -0.010825 -568250.000000 0 0 1
26.889037 -6.548727 -32.597437 42.760952 -0.238895 2.437683 0.024965 -0.019894 -1191400.000000 0 0 1
25.676647 -6.983827 -33.100837 42.470336 -0.265567 2.464484 0.026846 -0.015215 -1137610.000000 0 0 1
24.641647 -6.658927 -32.227437 41.111552 -0.263927 2.471722 0.037224 -0.015335 135012.000000 0 0 1
23.239647 -7.131727 -32.776637 40.807482 -0.297755 2.503447 0.027674 -0.019494 557092.000000 0 0 1
23.074247 -8.546527 -32.821637 41.021017 -0.354725 2.498288 0.035777 -0.026302 186016.000000 0 0 1
22.625447 -9.094427 -31.583237 39.901382 -0.382191 2.484109 0.040499 -0.029612 -294779.000000 0 0 1
22.459847 -10.582527 -31.361937 40.000071 -0.440323 2.471956 0.043071 -0.019149 414204.000000 0 0 1
21.288847 -11.060527 -32.039037 40.025618 -0.479162 2.498864 0.053329 -0.025061 574431.000000 0 0 1
21.110347 -12.452827 -31.796337 40.146316 -0.532954 2.484893 0.044126 -0.016000 -746130.000000 0 0 1
19.945247 -13.135427 -32.548437 40.370200 -0.582379 2.508580 0.042152 -0.011464 1290310.000000 0 0 1
18.607947 -12.666227 -32.254937 39.332810 -0.597648 2.532298 0.018602 -0.008237 898203.000000 0 0 1
18.228147 -11.532827 -32.945937 39.379007 -0.564112 2.561911 0.022533 -0.011058 -54008.200000 0 0 1
16.821147 -11.033727 -32.438837 38.170306 -0.580542 2.586487 0.018917 -0.008896 1610310.000000 0 0 1
15.703847 -11.636827 -33.135837 38.470901 -0.637728 2.608663 0.011603 0.000705 279300.000000 0 0 1
14.468347 -11.246127 -32.602337 37.399476 -0.660740 2.629523 0.009667 -0.004321 -79635.300000 0 0 1
13.297147 -11.736127 -33.487037 37.893699 -0.723121 2.654527 0.011834 -0.006109 -558164.000000 0 0 1
13.118247 -13.146127 -33.512237 38.314215 -0.786460 2.635548 0.015378 -0.005538 28252.000000 0 0 1
11.894647 -13.595627 -34.038237 38.534728 -0.852030 2.653680 0.008168 -0.007069 777696.000000 0 0 1
10.644847 -13.547627 -33.056837 37.277412 -0.904814 2.661126 0.005482 -0.004865 565741.000000 0 0 1
10.101847 -12.273927 -32.818137 36.465418 -0.882168 2.690519 0.029127 -0.003150 -558178.000000 0 0 1
9.165047 -12.230527 -31.812237 35.293091 -0.927706 2.693726 0.026059 -0.008096 -864987.000000 0 0 1
8.069047 -11.221127 -32.078437 34.929204 -0.947370 2.734774 0.033133 -0.006038 -588742.000000 0 0 1
8.556147 -9.895227 -32.073837 34.638911 -0.857845 2.754335 0.035399 -0.002294 963100.000000 0 0 1
7.537847 -8.991527 -32.538537 34.589349 -0.873118 2.795513 0.039368 -0.002165 656219.000000 0 0 1
8.199247 -7.613127 -32.790337 34.646696 -0.748348 2.812761 0.045150 0.002259 73984.800000 0 0 1
8.486147 -6.880627 -31.602937 33.438052 -0.681296 2.808755 0.046534 -0.000176 411046.000000 0 0 1
8.944847 -5.553527 -31.879837 33.573441 -0.555619 2.822611 0.048899 -0.005982 -243075.000000 0 0 1
9.098947 -4.646627 -30.601937 32.262370 -0.472153 2.819369 0.048721 -0.000592 -580346.000000 0 0 1
7.855147 -4.291927 -30.101237 31.403955 -0.500063 2.852551 0.046382 0.000239 -425825.000000 0 0 1
7.988647 -3.426827 -28.997237 30.272122 -0.405222 2.850343 0.052430 -0.004333 -367271.000000 0 0 1
6.634447 -2.848227 -28.638637 29.534722 -0.405515 2.894632 0.049772 -0.004872 -1380600.000000 0 0 1
6.089747 -1.907927 -29.529437 30.211138 -0.303615 2.928755 0.046365 0.000322 735749.000000 0 0 1
4.827747 -1.340327 -29.154237 29.581635 -0.270810 2.971399 0.047728 -0.004302 1624110.000000 0 0 1
3.544447 -2.265927 -29.066837 29.369687 -0.568809 2.997861 0.031609 -0.002615 174025.000000 0 0 1
3.659547 -3.275327 -28.055837 28.482451 -0.730051 2.968297 0.046030 -0.013370 -420761.000000 0 0 1
2.667947 -4.279327 -28.066937 28.516373 -1.013312 2.963816 0.041043 -0.006021 -109076.000000 0 0 1
2.949047 -5.375527 -27.011837 27.698962 -1.069024 2.918388 0.046994 -0.005844 -126998.000000 0 0 1
2.766747 -4.837527 -25.663237 26.261346 -1.051269 2.927760 0.041824 -0.014264 -133108.000000 0 0 1
3.083347 -5.783827 -24.664637 25.520658 -1.081022 2.881856 0.048436 -0.019580 -270996.000000 0 0 1
2.962847 -5.172327 -23.265337 24.016813 -1.050597 2.890777 0.049701 -0.022873 -147187.000000 0 1 0
3.947547 -4.192827 -22.946237 23.657825 -0.815520 2.895705 0.045228 -0.021432 87289.900000 0 1 0
3.797247 -3.699427 -21.611537 22.252266 -0.772351 2.901038 0.038105 -0.025091 -49244.500000 0 1 0
4.761147 -2.582627 -21.174737 21.856531 -0.497019 2.891163 0.042773 -0.026649 -544877.000000 0 1 0
6.091547 -2.930827 -20.987937 22.049721 -0.448438 2.829998 0.035194 -0.023337 -874755.000000 0 1 0
6.838947 -1.841427 -20.516837 21.704899 -0.263018 2.809196 0.045096 -0.018777 487949.000000 0 1 0
8.351447 -2.104527 -20.260037 22.014649 -0.246856 2.739638 0.038028 -0.018722 -280498.000000 0 1 0
9.088847 -2.387527 -21.473837 23.439989 -0.256884 2.729088 0.041035 -0.024187 -7335.890000 0 1 0
10.308547 -3.051027 -21.318037 23.875376 -0.287756 2.674515 0.025652 -0.024832 -28989.400000 0 1 0
11.433147 -2.256227 -20.625337 23.689912 -0.194837 2.627294 0.010526 -0.017243 -1197890.000000 0 1 0
11.286047 -2.193527 -19.182237 22.363913 -0.191964 2.601637 0.018941 -0.013450 -48961.400000 0 1 0
12.336247 -1.555627 -18.491437 22.283092 -0.125440 2.549620 0.008196 -0.019031 -324668.000000 0 1 0
12.562847 -0.007727 -18.482137 22.347585 -0.000615 2.544601 0.005812 -0.016335 -121914.000000 0 1 0
12.895447 0.507773 -19.781137 23.618716 0.039356 2.563524 0.002279 -0.013848 263745.000000 0 1 0
12.783447 1.924273 -19.780837 23.630506 0.149407 2.562737 0.010465 -0.017730 -83541.900000 0 1 0
13.149247 2.644273 -21.076337 24.982130 0.198450 2.574854 0.005498 -0.015453 -393300.000000 0 1 0
14.523547 2.691073 -21.386337 25.991358 0.183212 2.537160 0.010746 -0.012172 -82410.400000 0 0 1
14.683747 3.868473 -22.210837 26.905367 0.257599 2.541914 0.019631 -0.016248 85074.600000 0 0 1
16.116047 4.045873 -22.794537 28.207924 0.245963 2.511698 0.012079 -0.013293 487012.000000 0 0 1
16.562447 3.167373 -23.806437 29.173504 0.188957 2.525304 0.003173 -0.011618 7033.890000 0 0 1
16.961647 1.900873 -23.361737 28.932361 0.111603 2.510631 0.005381 -0.006537 -560451.000000 0 0 1
8.985312 27.180973 3.061375 28.790852 1.251532 1.464263 0.001075 0.001576 212874.000000 0 0 1
8.982212 27.525273 4.428075 29.290419 1.255366 1.419036 0.000789 0.003554 433766.000000 0 0 1
10.324112 27.711473 4.855675 29.968160 1.214169 1.408051 0.025489 -0.000022 80407.300000 0 0 1
10.345812 28.290873 6.308875 30.776797 1.220209 1.364345 0.014676 0.002776 -37104.000000 0 0 1
10.229712 27.306173 7.305575 30.060697 1.212350 1.325311 0.007916 0.000718 147937.000000 0 0 1
10.208212 27.970673 8.582275 30.987442 1.220856 1.290168 0.006761 0.004470 -279925.000000 0 0 1
10.298512 26.925673 9.774075 30.439838 1.205485 1.243911 0.004268 0.009409 398462.000000 0 0 1
11.560212 26.303973 10.018575 30.428758 1.156721 1.235290 0.003491 0.006615 521056.000000 0 0 1
12.166212 25.487473 9.015875 29.646484 1.125440 1.261789 0.007216 0.002977 -642936.000000 0 0 1
13.522912 24.978673 9.514575 29.955473 1.074597 1.247574 0.014537 0.002633 -883592.000000 0 0 1
14.449512 26.026373 9.473275 31.239453 1.063979 1.262698 0.013494 -0.000060 -868247.000000 0 0 1
15.672212 25.436273 9.828375 31.451855 1.018596 1.252984 -0.000712 0.008475 261106.000000 0 0 1
16.714712 26.358173 10.586275 32.957611 1.005653 1.243791 0.008283 0.011165 -13892.600000 0 0 1
17.470412 27.165573 9.746375 33.736856 0.999281 1.277725 0.017715 0.005097 677023.000000 0 0 1
18.872112 27.272173 10.032475 34.649366 0.965465 1.277047 0.028687 -0.005831 878995.000000 0 0 1
19.297712 28.007773 11.373275 35.863469 0.967482 1.248098 0.024866 0.008653 -770471.000000 0 0 1
19.346212 29.399273 11.351575 36.979067 0.988782 1.258785 0.021323 -0.002246 -786689.000000 0 0 1
18.109612 30.006973 11.392675 36.853352 1.027797 1.256513 0.009930 0.010361 -796950.000000 0 0 1
18.286912 31.573273 11.424775 38.233600 1.045819 1.267346 0.006361 0.017696 -617264.000000 0 0 1
18.609112 32.221173 10.196175 38.580630 1.047053 1.303337 0.020755 -0.002520 184536.000000 0 0 1
17.659112 32.218373 9.134075 37.858937 1.069408 1.327126 0.035940 -0.006519 257339.000000 0 0 1
16.268012 32.852673 9.391775 37.843781 1.111012 1.320003 0.031459 -0.005221 -166431.000000 0 0 1
16.293312 34.228773 9.661375 39.120622 1.126522 1.321251 0.036723 -0.009651 -1222370.000000 0 0 1
15.050112 -34.331342 9.722575 38.725642 -1.157649 1.317018 0.035350 -0.004636 -1084950.000000 0 0 1
15.182812 -32.798542 9.946775 37.486003 -1.137257 1.302233 0.033813 -0.003492 255011.000000 0 0 1
15.668612 -32.189442 8.715575 36.845988 -1.117795 1.331992 0.031692 -0.009812 201307.000000 0 0 1
15.531212 -30.793042 8.773075 35.586469 -1.103656 1.321700 0.042851 -0.009574 -30865.300000 0 0 1
15.950312 -30.059742 7.434575 34.832075 -1.082954 1.355701 0.031997 -0.006896 -329703.000000 0 0 1
15.173412 -30.309442 6.330475 34.481439 -1.106655 1.386158 0.039846 -0.000797 -417125.000000 0 0 1
15.627712 -29.473342 5.269775 33.773862 -1.083257 1.414125 0.038924 -0.000779 161345.000000 0 0 1
15.378812 -29.976642 3.862375 33.912016 -1.096782 1.456655 0.035592 -0.005245 -88141.900000 0 0 1
16.044712 -31.160342 3.567375 35.229616 -1.095293 1.469362 0.025588 -0.007206 -184704.000000 0 0 1
15.842312 -31.421342 2.175075 35.256354 -1.103803 1.509064 0.033847 -0.003827 103572.000000 0 0 1
16.362712 -32.856642 1.784975 36.748924 -1.108747 1.522205 0.036745 -0.005524 187854.000000 0 0 1
17.772812 -32.990242 1.879075 37.520125 -1.076647 1.520694 0.029820 0.003566 188338.000000 0 0 1
18.157612 -34.225342 1.315375 38.766004 -1.083023 1.536859 0.052107 -0.001251 -441136.000000 0 0 1
19.531512 34.444173 1.813875 39.638001 1.054958 1.525019 0.046972 -0.001351 -337592.000000 0 0 1
19.581812 33.989773 3.103375 39.349498 1.048129 1.491847 0.038151 -0.021823 -665271.000000 0 0 1
20.885712 33.644373 3.420375 39.747399 1.015238 1.484637 0.020254 -0.005010 -876769.000000 0 0 1
21.156812 33.217073 4.845875 39.679556 1.003667 1.448365 0.016502 0.011609 -241920.000000 0 0 1
20.690812 31.902073 5.192775 38.377296 0.995425 1.435071 0.023435 -0.001200 -745278.000000 0 0 1
21.698412 30.990773 5.426675 38.219078 0.959965 1.428326 0.012506 -0.006470 -516489.000000 0 0 1
21.113712 29.780473 6.218575 37.031555 0.954070 1.402071 0.033888 -0.015034 76927.700000 0 0 1
19.996412 29.218373 5.589475 35.844275 0.970632 1.414220 0.034747 -0.019166 -574409.000000 0 0 1
19.074712 28.748573 6.540675 35.115602 0.984988 1.383441 0.036949 -0.024338 504565.000000 0 0 1
17.607112 29.139773 6.150075 34.597112 1.027273 1.392084 0.055451 -0.028136 272815.000000 0 0 1
17.172812 30.453973 6.217375 35.510642 1.057349 1.394804 0.053210 -0.032118 45394.500000 0 0 1
17.532212 31.208073 5.036175 36.148103 1.058951 1.431021 0.058955 -0.029208 -303335.000000 0 0 1
17.344012 32.716573 5.293575 37.406027 1.083337 1.428803 0.056007 -0.021200 337353.000000 0 0 1
15.994012 33.128073 5.133075 37.143318 1.121009 1.432156 0.052136 -0.018172 -19463.000000 0 0 1
15.989312 34.554873 5.200975 38.428472 1.137413 1.435038 0.045669 -0.022821 344923.000000 0 0 1
14.637312 -33.803642 5.450075 37.237621 -1.162161 1.423909 0.035842 -0.021809 735478.000000 0 0 1
13.707112 -33.997842 4.371775 36.916806 -1.187555 1.452095 0.030020 -0.015594 -549345.000000 0 0 1
12.579912 -33.214042 4.641475 35.818571 -1.208740 1.440848 0.030425 -0.014532 -444678.000000 0 0 1
11.855612 -33.065942 3.286175 35.280462 -1.226530 1.477517 0.030405 -0.016767 -253950.000000 0 0 1
10.726112 -32.202142 3.370175 34.108437 -1.249268 1.471827 0.029200 -0.018507 234875.000000 0 0 1
10.219112 -32.055142 2.008975 33.704574 -1.262184 1.511156 0.026936 -0.009639 -85059.200000 0 0 1
9.219912 -30.855742 1.944375 32.262426 -1.280434 1.510492 0.034501 -0.011121 157005.000000 0 0 1
8.569912 -30.444242 0.731175 31.635895 -1.296402 1.547682 0.043792 -0.003294 219079.000000 0 0 1
7.660412 -31.354742 0.168375 32.277393 -1.331176 1.565580 0.032015 -0.007445 -692976.000000 0 0 1
8.063112 -31.844542 -1.249125 32.873225 -1.322806 1.608804 0.040690 -0.004097 56595.300000 0 0 1
9.287012 -32.564442 -1.264925 33.886450 -1.292983 1.608133 0.043562 -0.007760 210901.000000 0 0 1
9.360012 -33.368642 -2.483925 34.745445 -1.297321 1.642347 0.042907 -0.000459 444521.000000 0 0 1
10.710812 -34.147142 -2.391225 35.867349 -1.266849 1.637514 0.041705 -0.002188 466204.000000 0 0 1
10.767812 34.081573 -1.289525 35.765378 1.264778 1.606859 0.040386 -0.005438 -858359.000000 0 0 1
12.001612 33.474973 -1.237725 35.582924 1.226547 1.605588 0.046558 -0.004447 -1138190.000000 0 0 1
12.206712 32.509273 -0.049525 34.725482 1.211601 1.572223 0.047998 -0.012967 -268756.000000 0 0 1
12.568612 32.989973 1.229975 35.324512 1.206791 1.535970 0.051679 -0.009264 1430470.000000 0 0 1
13.913612 33.547573 1.373775 36.344401 1.177646 1.532989 0.059853 -0.003971 908376.000000 0 0 1
15.067212 32.567973 1.516375 35.916474 1.137482 1.528564 0.062561 -0.008598 -836118.000000 0 0 1
15.639712 32.147173 0.309475 35.751043 1.118004 1.562140 0.065268 -0.014020 94.582600 0 0 1
16.467112 31.010273 0.487775 35.114680 1.082641 1.556905 0.073635 -0.014289 -60440.000000 0 0 1
17.039412 30.528173 -0.880825 34.972657 1.061715 1.595985 0.067805 -0.004506 1369880.000000 0 0 1
18.144012 31.282373 -1.496025 36.194338 1.045207 1.612141 0.058084 0.000984 1275470.000000 0 0 1
17.706312 32.501773 -2.097625 37.071266 1.071970 1.627410 0.042867 0.005377 -564623.000000 0 0 1
18.861112 33.291973 -2.630125 38.353808 1.055346 1.639426 0.034980 0.009502 -209342.000000 0 0 1
19.788412 33.909173 -1.730925 39.298974 1.042545 1.614856 0.019417 0.006310 262086.000000 0 0 1
20.592712 -34.265142 -2.428125 40.050662 -1.029656 1.631460 0.011406 0.004834 -904011.000000 0 0 1
21.763612 -33.682442 -1.620325 40.134613 -0.997139 1.611180 0.005198 0.004396 207303.000000 0 0 1
22.888712 -34.495042 -1.277325 41.417781 -0.984964 1.601641 0.002375 0.001535 995324.000000 0 0 1
23.596712 33.843973 -2.257725 41.319688 0.961938 1.625464 0.012664 0.004384 -356185.000000 0 0 1
24.227612 -34.536342 -3.460425 42.328603 -0.959057 1.652639 -0.002254 0.000351 -1252350.000000 0 0 1
23.277012 -34.075342 -4.362825 41.496776 -0.971500 1.676127 0.002720 -0.004538 43011.900000 0 0 1
23.967112 -33.513942 -5.431125 41.558439 -0.949982 1.701858 0.007213 -0.010596 848905.000000 0 0 1
22.894312 -33.125242 -6.545225 40.795479 -0.966039 1.731933 0.010322 -0.014937 909220.000000 0 0 1
21.992812 -32.075142 -6.180125 39.378832 -0.969756 1.728388 0.020897 -0.013184 426310.000000 0 0 1
21.267512 -31.672642 -7.334425 38.849158 -0.979470 1.760729 0.030883 -0.013946 394950.000000 0 0 1
20.279012 -30.493142 -7.008725 37.285282 -0.983924 1.759897 0.045432 -0.021650 1371060.000000 0 0 1
19.041812 -30.767142 -6.330925 36.732659 -1.016595 1.744013 0.032923 -0.008608 571343.000000 0 0 1
18.064312 -29.760542 -6.422125 35.401312 -1.025254 1.753216 0.044742 -0.018479 -78884.600000 0 0 1
16.878912 -29.989042 -5.515825 34.852039 -1.058152 1.729729 0.038402 -0.007294 189620.000000 0 0 1
15.777112 -30.783942 -5.962025 35.101482 -1.097190 1.741475 0.041443 -0.005533 634765.000000 0 0 1
14.679212 -30.762742 -5.056925 34.458642 -1.125575 1.718082 0.024429 -0.006181 642553.000000 0 0 1
13.483012 -31.669142 -5.409025 34.842269 -1.168294 1.726670 0.031946 0.002680 118681.000000 0 0 1
13.930112 -33.033242 -5.419525 36.257611 -1.171724 1.720831 0.029763 0.006128 -182131.000000 0 0 1
12.886712 -33.891142 -5.782125 36.716615 -1.207441 1.728934 0.030527 0.003771 -236733.000000 0 0 1
13.235312 33.755873 -5.641825 36.694177 1.197128 1.725161 0.029374 0.008062 83039.000000 0 0 1
13.593712 33.305773 -4.283525 36.227229 1.183285 1.689314 0.032328 0.000642 134355.000000 0 0 1
14.091312 31.960373 -4.232225 35.184403 1.155536 1.691375 0.040803 -0.002986 -90628.000000 0 0 1
13.113912 30.873773 -4.726325 33.874809 1.169130 1.710776 0.040583 -0.002666 96647.100000 0 0 1
12.108112 30.519073 -3.794625 33.051768 1.193104 1.685859 0.044155 -0.007696 -153987.000000 0 0 1
12.568012 29.664973 -2.773925 32.336670 1.170057 1.656685 0.051270 -0.014189 -306519.000000 0 0 1
11.506512 28.783273 -2.066325 31.066804 1.190494 1.637358 0.053778 -0.012108 157572.000000 0 0 1
10.536412 29.511973 -1.356825 31.365801 1.227880 1.614068 0.036609 -0.011185 161818.000000 0 0 1
9.653712 28.716473 -0.552825 30.300752 1.246492 1.589042 0.025402 -0.007156 781992.000000 0 0 1
8.410812 29.510473 -0.045225 30.685694 1.293147 1.572270 0.022855 -0.002456 97301.100000 0 0 1
7.368212 28.700173 0.407675 29.633708 1.319493 1.557039 0.007052 -0.001724 255793.000000 0 0 1
6.214112 29.554373 0.609775 30.206754 1.363555 1.550608 0.014007 0.000383 524771.000000 0 0 1
5.112312 28.914973 1.461275 29.399774 1.395800 1.521072 0.006605 0.001491 -235764.000000 0 0 1
4.512512 27.799073 0.860675 28.176089 1.409874 1.540245 0.002091 -0.002117 -349346.000000 0 0 1
3.385112 27.353073 1.584875 27.607271 1.447666 1.513357 0.006445 -0.000310 31023.400000 0 0 1
2.878212 26.142573 0.811375 26.313049 1.461141 1.539956 0.006870 -0.003426 -398649.000000 0 0 1
1.636712 25.664273 1.245475 25.746552 1.507109 1.522403 0.010320 -0.000521 -356541.000000 0 0 1
1.179512 24.734873 0.319875 24.765046 1.523146 1.557880 0.001758 0.000255 -366178.000000 0 1 0
-0.108088 23.997473 0.722975 24.008604 -1.566292 1.540679 0.005895 0.001270 -246912.000000 0 1 0
-1.177488 24.898273 0.624475 24.933921 -1.523540 1.545749 0.012965 -0.003840 -1505710.000000 0 1 0
-2.339288 24.338873 1.085975 24.475137 -1.474977 1.526411 0.010115 0.002309 -1425680.000000 0 1 0
-3.477288 25.333273 1.321575 25.604937 -1.434387 1.519159 0.028083 -0.010378 -916453.000000 0 0 1
-4.522788 24.548073 1.896575 25.033188 -1.388598 1.494961 0.021325 -0.014366 462231.000000 0 0 1
-5.665088 25.294973 2.339775 26.026975 -1.350471 1.480777 0.017105 -0.012067 159548.000000 0 0 1
-6.641588 25.709073 1.270275 26.583467 -1.317987 1.522994 0.020332 -0.009232 -1166250.000000 0 0 1
-6.290588 26.851873 0.488875 27.583212 -1.340676 1.553072 0.019843 -0.011048 150104.000000 0 0 1
-7.233288 26.957373 -0.568825 27.916733 -1.308648 1.591174 0.019218 -0.004203 31394.400000 0 0 1
-6.995488 28.208873 -1.456425 29.099803 -1.327711 1.620867 0.020398 0.002399 131368.000000 0 0 1
-7.527488 29.436973 -1.001425 30.400679 -1.320446 1.603743 0.027405 -0.008576 -121129.000000 0 0 1
-7.357888 30.425073 -1.999025 31.365900 -1.333516 1.634572 0.025367 -0.004388 -154415.000000 0 0 1
-7.528388 31.900173 -1.577625 32.814426 -1.339038 1.618892 0.016664 -0.005539 -737351.000000 0 0 1
-7.692088 32.813473 -2.632525 33.805656 -1.340535 1.648748 0.010070 -0.000464 621697.000000 0 0 1
-6.601188 33.008273 -3.572425 33.850908 -1.373414 1.676527 0.004299 -0.003949 283116.000000 0 0 1
-5.285488 33.530273 -2.999925 34.076607 -1.414450 1.658945 0.010857 0.001919 -1012740.000000 0 0 1
-5.209588 -34.219642 -2.729825 34.721400 1.419717 1.649498 0.009510 -0.000317 -121275.000000 0 0 1
-4.148788 -33.906842 -1.862525 34.210457 1.449043 1.625266 0.014877 -0.006597 -129108.000000 0 0 1
-3.937188 -32.391042 -1.697525 32.673577 1.449838 1.622774 0.006632 -0.003887 74452.800000 0 0 1
-4.961788 -31.712342 -0.994725 32.113571 1.415592 1.601776 0.000481 -0.002940 -92697.300000 0 0 1
-5.273188 -30.416342 -1.453925 30.904275 1.399136 1.617860 -0.000418 0.000911 230940.000000 0 0 1
-6.681988 -29.909542 -1.032725 30.664249 1.350999 1.604481 0.007026 -0.006067 339564.000000 0 0 1
-6.850088 -29.497542 0.290375 30.283873 1.342615 1.561208 0.001236 -0.003678 -944427.000000 0 0 1
-7.991888 -28.726142 0.384975 29.819619 1.299449 1.557886 0.004836 0.000852 -680873.000000 0 0 1
-8.123588 -27.981942 1.718575 29.187930 1.288248 1.511883 0.008555 -0.001170 -439066.000000 0 0 1
-7.304788 -26.888942 1.719475 27.916513 1.305533 1.509164 0.014331 0.000847 -725886.000000 0 0 1
-7.131388 -26.292442 3.032675 27.410697 1.305935 1.459931 0.012522 0.001747 -50758.900000 0 0 1
-8.281888 -25.321342 3.390075 26.856147 1.254692 1.444228 -0.003795 0.009344 185603.000000 0 0 1
-8.264688 -24.092342 2.746575 25.618151 1.240333 1.463378 0.003280 -0.000093 -614725.000000 0 0 1
-9.229688 -23.233142 3.310475 25.217558 1.192651 1.439140 -0.004176 -0.001643 -292975.000000 0 0 1
-8.627188 -21.869142 3.792975 23.813324 1.195048 1.410835 0.002989 0.006398 385766.000000 0 1 0
-7.775088 -22.063642 4.907475 23.902711 1.231991 1.364015 -0.006704 0.009893 -353301.000000 0 1 0
-7.122388 -20.884642 5.355175 22.706267 1.242131 1.332708 -0.009720 0.010736 -381941.000000 0 1 0
-7.877088 -19.728542 6.007575 22.076114 1.190916 1.295190 -0.007752 0.002540 -409900.000000 0 1 0
-8.459988 -20.084642 7.239275 22.964567 1.172134 1.250090 0.003337 0.000379 -174189.000000 0 1 0
-9.099688 -19.018742 7.858675 22.500569 1.124530 1.214009 -0.002271 -0.002969 -848492.000000 0 1 0
-27.154138 29.667773 -6.084225 40.676058 -0.829606 1.720937 0.038068 0.000497 -426462.000000 0 0 1
-26.455588 30.429673 -5.165025 40.651452 -0.855146 1.698197 0.043363 0.002940 -6814.930000 0 0 1
-25.276418 29.792173 -4.692925 39.350914 -0.867217 1.690339 0.035863 0.005108 736044.000000 0 0 1
-24.285688 30.560473 -3.771925 39.216891 -0.899310 1.667126 0.029717 0.003784 338124.000000 0 0 1
-24.832088 30.782573 -2.450525 39.625805 -0.891988 1.632677 0.029898 -0.003004 370376.000000 0 0 1
-24.102288 31.776773 -1.695825 39.919411 -0.921885 1.613290 0.030314 -0.000648 212073.000000 0 0 1
-22.932688 31.177373 -0.882025 38.713237 -0.936604 1.593582 0.032792 0.002597 193539.000000 0 0 1
-21.791888 30.981573 -1.716825 37.916905 -0.957804 1.616090 0.038897 -0.005822 504179.000000 0 0 1
-20.656188 30.700373 -0.886125 37.013189 -0.978538 1.594739 0.032112 -0.002268 378485.000000 0 0 1
-19.457988 30.104573 -1.649525 35.883416 -0.996994 1.616782 0.030556 -0.005443 522144.000000 0 0 1
-18.238788 30.094073 -0.904725 35.201209 -1.025933 1.596501 0.023915 -0.001861 1038480.000000 0 0 1
-17.120088 29.577373 -1.664825 34.215348 -1.046093 1.619473 0.016253 -0.001397 -285238.000000 0 0 1
-15.808588 29.900773 -1.044825 33.838725 -1.084452 1.601678 0.009086 -0.003886 -1179290.000000 0 0 1
-15.495788 29.299373 0.198275 33.145316 -1.084314 1.564814 0.008771 -0.009458 -223551.000000 0 0 1
-14.400088 29.970573 0.781275 33.259708 -1.122891 1.547304 0.008977 -0.013363 37229.300000 0 0 1
-13.885888 29.469173 2.153975 32.647965 -1.130453 1.504773 0.024287 -0.011832 -606687.000000 0 0 1
-14.772988 29.538773 3.211575 33.182744 -1.107051 1.473860 0.013667 -0.009690 -829289.000000 0 0 1
-14.417888 28.738373 4.389975 32.450600 -1.105794 1.435098 0.023231 -0.016593 867978.000000 0 0 1
-13.228288 29.226073 5.328975 32.519977 -1.145766 1.406186 0.033641 -0.011370 915072.000000 0 0 1
-13.492388 30.404273 6.065775 33.812098 -1.153139 1.390423 0.030895 -0.018546 -290470.000000 0 0 1
-13.463688 31.617773 5.344975 34.778200 -1.168226 1.416497 0.031939 -0.012265 -23256.600000 0 0 1
-13.094188 32.842773 6.185075 35.893741 -1.191417 1.397616 0.045606 -0.018511 638989.000000 0 0 1
-14.240188 33.420373 6.846075 36.967188 -1.168000 1.384528 0.044876 -0.013831 612772.000000 0 0 1
-13.949688 34.493573 7.683775 37.992641 -1.186490 1.367148 0.060725 -0.022009 126536.000000 0 0 1
-15.162688 -34.211742 8.558075 38.387381 1.153611 1.345967 0.036486 -0.018345 184953.000000 0 0 1
-15.427688 34.027773 9.638275 38.584961 -1.145131 1.318329 0.016601 -0.018115 -57407.900000 0 0 1
-16.522388 34.468273 10.409175 39.615679 -1.123804 1.304921 0.029598 -0.017993 -799104.000000 0 0 1
-16.766388 33.745973 11.741775 39.468617 -1.109679 1.268727 0.034441 -0.016645 433720.000000 0 0 1
-15.827188 34.101373 12.764275 39.703025 -1.136261 1.243490 0.038274 -0.022910 -183397.000000 0 0 1
-14.544488 33.581773 12.583875 38.699244 -1.162079 1.239604 0.040623 -0.016648 -403708.000000 0 0 1
-13.527688 33.728973 13.774875 38.863725 -1.189368 1.208481 0.047790 -0.015594 187868.000000 0 0 1
-13.852688 33.021173 14.971775 38.812999 -1.173586 1.174785 0.039360 -0.013503 83153.600000 0 0 1
-13.393188 31.612773 15.065575 37.492885 -1.170058 1.157287 0.027968 -0.006757 118769.000000 0 0 1
-14.163288 30.493573 14.279375 36.528855 -1.135976 1.169180 0.030883 -0.011795 141473.000000 0 0 1
-14.006788 30.572273 12.902875 36.018581 -1.141183 1.204427 0.029560 -0.010261 980364.000000 0 0 1
-15.043688 29.745973 12.296775 35.529510 -1.102568 1.217385 0.019484 -0.015029 896262.000000 0 0 1
-14.892488 29.733573 10.756375 34.950982 -1.106457 1.257963 0.012098 -0.008599 -176241.000000 0 0 1
-13.895188 28.846173 10.333075 33.644470 -1.121896 1.258625 0.008439 -0.002272 -150322.000000 0 0 1
-14.020088 28.430173 8.953375 32.939346 -1.112651 1.295519 0.013626 -0.004678 -79864.400000 0 0 1
-13.187188 27.138273 8.638575 31.384913 -1.118471 1.291951 0.027599 -0.006916 574195.000000 0 0 1
-11.864088 27.413673 8.189075 30.973004 -1.162354 1.303221 0.026225 -0.002133 481329.000000 0 0 1
-11.222988 26.176173 7.884175 29.551780 -1.165755 1.300734 0.036650 -0.007871 -229408.000000 0 0 1
-10.256188 26.139773 6.700475 28.868209 -1.196894 1.336554 0.039855 -0.016509 -779663.000000 0 0 1
-10.768688 26.362373 5.462675 28.996209 -1.182995 1.381271 0.037206 -0.023078 -564497.000000 0 0 1
-9.829388 26.192073 4.460575 28.329106 -1.211779 1.412683 0.048191 -0.008658 -416647.000000 0 0 1
-10.194688 26.869973 3.110375 28.906773 -1.208167 1.462987 0.040931 -0.016293 73945.500000 0 0 1
-9.795988 28.227073 3.049975 30.033837 -1.236759 1.469070 0.041266 -0.007570 33491.600000 0 0 1
-10.043188 28.766173 1.812075 30.522810 -1.234895 1.511393 0.036397 -0.009782 -73764.400000 0 0 1
-9.678388 30.242873 1.753375 31.802152 -1.261073 1.515635 0.047823 -0.016520 385709.000000 0 0 1
-10.619488 31.145073 2.328675 32.988055 -1.242190 1.500146 0.041288 -0.020394 -38572.100000 0 0 1
-10.117588 32.434073 2.159475 34.044060 -1.268419 1.507322 0.042933 -0.010349 20999.200000 0 0 1
-10.944388 33.570873 2.832775 35.423265 -1.255653 1.490742 0.038873 -0.002836 -186993.000000 0 0 1
-12.188288 33.881073 2.301475 36.080164 -1.225473 1.506965 0.041125 -0.003708 -660401.000000 0 0 1
-12.121988 -34.397742 1.202975 36.491017 1.231979 1.537824 0.027616 -0.002655 1267750.000000 0 0 1
-13.608588 -34.097642 0.654575 36.718814 1.191061 1.552969 0.026341 -0.000632 1894480.000000 0 0 1
-14.346088 33.899073 0.191675 36.810245 -1.170451 1.565589 0.022745 -0.001792 -145167.000000 0 0 1
-14.541688 33.994873 -1.192825 36.993714 -1.166589 1.603046 0.020882 -0.003508 295325.000000 0 0 1
-13.300788 33.666773 -2.103225 36.259979 -1.194546 1.628833 0.016788 -0.004539 563849.000000 0 0 1
-12.820088 32.323273 -1.967025 34.828405 -1.193206 1.627304 0.013142 -0.002685 -243311.000000 0 0 1
-11.593488 32.210173 -2.627425 34.333767 -1.225301 1.647397 0.009243 0.004555 -289618.000000 0 0 1
-10.956688 30.805273 -2.658325 32.803666 -1.229074 1.651923 -0.010906 -0.004045 -276416.000000 0 0 1
-11.329988 29.947773 -3.700125 32.232416 -1.209114 1.685845 -0.009665 -0.004256 -349875.000000 0 0 1
-10.348788 29.945773 -4.705525 32.031058 -1.238061 1.718235 -0.006040 -0.000629 -92336.600000 0 0 1
-10.742688 29.148773 -5.978925 31.635484 -1.217695 1.760934 -0.001700 -0.004111 -267889.000000 0 0 1
-10.957388 27.780373 -5.826625 30.426354 -1.195102 1.763486 -0.005934 -0.006066 -66654.900000 0 0 1
-11.119288 27.251673 -7.079225 30.272226 -1.183393 1.806834 -0.011897 -0.004793 -43837.800000 0 0 1
-11.576488 25.752173 -7.108925 29.115739 -1.148330 1.817451 0.008117 -0.005942 -589447.000000 0 0 1
-10.582388 24.875673 -6.708925 27.853109 -1.168578 1.814056 -0.000514 -0.001099 -475845.000000 0 0 1
-10.955488 23.501773 -6.762625 26.797185 -1.134589 1.825918 0.024729 -0.012003 -63107.100000 0 0 1
-10.251188 22.542473 -5.726825 25.417444 -1.143999 1.798058 0.020186 -0.010893 514425.000000 0 0 1
-8.849088 22.322673 -5.940425 24.736546 -1.193383 1.813314 0.018281 -0.014119 923485.000000 0 1 0
-8.198388 21.194573 -5.319225 23.339187 -1.201707 1.800727 0.023223 -0.009638 136364.000000 0 1 0
-8.239488 21.110373 -3.749925 22.969522 -1.198675 1.734787 0.014251 -0.012261 330573.000000 0 1 0
-9.561488 21.093673 -3.198525 23.379385 -1.145212 1.708036 0.020350 -0.013216 560398.000000 0 1 0
-10.090788 19.743573 -3.111625 22.390062 -1.098314 1.710221 0.021242 -0.015494 411553.000000 0 1 0
-11.393588 19.689973 -2.241825 22.859017 -1.046224 1.669026 0.028412 -0.015145 195306.000000 0 1 0
-11.276988 19.726673 -0.850225 22.738403 -1.051474 1.608197 0.022842 -0.017047 132765.000000 0 1 0
-10.938988 18.428473 -0.340825 21.433297 -1.035102 1.586699 0.021204 -0.016343 -371538.000000 0 1 0
-10.590388 18.378673 1.184375 21.244639 -1.048036 1.515018 0.014223 -0.012680 351909.000000 0 1 0
-11.746588 18.630973 1.979575 22.113665 -1.008261 1.481158 0.027268 -0.014287 604706.000000 0 1 0
-11.398688 18.746073 3.376375 22.197866 -1.024473 1.418100 0.021318 -0.008317 -306857.000000 0 1 0
-12.636588 18.641473 4.280075 22.923937 -0.975074 1.382987 0.034013 -0.016954 74423.500000 0 1 0
-13.277088 17.373273 4.218675 22.269012 -0.918253 1.380203 0.012575 -0.014710 -715600.000000 0 1 0
-14.507388 17.477273 4.820775 23.219803 -0.877986 1.361660 0.025312 -0.021494 -926422.000000 0 1 0
-15.138388 16.184773 5.331375 22.793447 -0.818792 1.334710 0.017776 -0.015409 -138712.000000 0 1 0
-14.513088 15.652273 6.497975 22.312486 -0.823145 1.275288 0.021497 -0.013675 155103.000000 0 1 0
-14.921488 16.245873 7.743375 23.378174 -0.827865 1.233198 0.019321 -0.012218 -867987.000000 0 1 0
-13.976788 15.790873 8.866575 22.876154 -0.846264 1.172780 0.013105 -0.010228 2286030.000000 0 1 0
-12.667588 16.474373 8.979175 22.638426 -0.915292 1.162949 0.011592 -0.015336 1933850.000000 0 1 0
-11.765588 16.199873 7.884575 21.518166 -0.942652 1.195643 0.008153 -0.014133 153803.000000 0 1 0
-10.739488 17.428573 7.790175 21.903848 -1.018550 1.207183 0.023775 -0.015880 517062.000000 0 1 0
-9.733288 17.362773 8.774375 21.752987 -1.059864 1.155606 0.023007 -0.011191 -405959.000000 0 1 0
-9.057488 18.590773 8.718675 22.442598 -1.117438 1.171806 0.019472 -0.012456 -12448.200000 0 1 0
-7.747988 18.667373 9.558375 22.357653 -1.177379 1.129047 0.017614 -0.008835 -209929.000000 0 1 0
-6.807888 17.715973 9.046575 21.024832 -1.203915 1.125993 0.014440 -0.011433 -436718.000000 0 1 0
-5.525888 17.822573 9.594875 20.981925 -1.270145 1.095848 0.009617 -0.014602 252304.000000 0 1 0
-4.647988 19.010273 9.042675 21.558391 -1.331002 1.137957 0.009303 -0.017218 -1381800.000000 0 1 0
-5.043288 20.340273 9.314575 22.933006 -1.327752 1.152543 0.015294 -0.020080 -103034.000000 0 1 0
-4.471588 21.329473 8.449275 23.373741 -1.364145 1.200935 0.016823 -0.023196 -682737.000000 0 1 0
-3.040088 21.774873 8.651375 23.626966 -1.432079 1.195912 0.020170 -0.024510 -465534.000000 0 1 0
-2.026088 20.793273 8.405675 22.519338 -1.473663 1.188271 0.015100 -0.015521 1243190.000000 0 1 0
-0.745988 21.484573 8.283575 23.038250 -1.536088 1.203003 0.017188 -0.016372 1882680.000000 0 1 0
0.481212 20.548173 7.977875 22.047799 1.547382 1.200551 0.013802 -0.014950 538522.000000 0 1 0
0.637012 19.649873 9.059775 21.647236 1.538390 1.138983 0.015147 -0.027961 -676705.000000 0 1 0
1.902012 19.018473 9.102975 21.170359 1.471119 1.126318 0.001130 -0.030812 768910.000000 0 1 0
2.893612 19.176973 10.339375 21.977988 1.421036 1.081004 0.006692 -0.030509 868428.000000 0 1 0
3.779612 18.071673 10.623175 21.300767 1.364623 1.048672 0.017840 -0.026700 192588.000000 0 1 0
4.537612 18.229873 11.756775 22.161677 1.326843 1.011606 0.017339 -0.020363 741835.000000 0 1 0
6.072212 18.552273 11.509675 22.661227 1.254483 1.038049 0.021061 -0.023761 1086850.000000 0 1 0
6.715612 17.351973 11.038975 21.634449 1.201527 1.035321 0.011769 -0.022857 150881.000000 0 1 0
7.640112 16.864773 12.001375 22.064108 1.145432 0.995680 0.013884 -0.012661 -132719.000000 0 1 0
8.831412 16.017873 11.490675 21.600965 1.066919 1.009892 0.021090 -0.015470 351868.000000 0 1 0
9.850712 16.866773 10.989875 22.412093 1.042202 1.058300 0.018829 -0.024326 -605321.000000 0 1 0
10.945912 16.234973 10.424575 22.182405 0.977584 1.081565 0.016807 -0.025483 -989091.000000 0 1 0
11.834512 17.334873 9.898575 23.206363 0.971776 1.130126 0.024113 -0.022289 -424773.000000 0 1 0
12.894912 16.768573 9.120675 23.035853 0.915250 1.163712 0.024558 -0.018652 242717.000000 0 1 0
13.535112 17.839773 8.367775 23.905573 0.921748 1.213188 0.033306 -0.011245 734865.000000 0 1 0
14.680612 17.277873 7.455475 23.866910 0.866490 1.253102 0.043033 -0.016306 -198322.000000 0 1 0
15.863312 16.920973 8.069075 24.557564 0.817648 1.235999 0.055729 -0.011061 -646501.000000 0 1 0
16.899112 16.841873 7.105775 24.894190 0.783702 1.281332 0.076673 -0.007078 -396072.000000 0 1 0
18.256312 16.553273 7.732075 25.828062 0.736513 1.266767 0.059597 -0.006723 -659824.000000 0 0 1
18.379912 15.386573 8.523075 25.440334 0.696981 1.229168 0.054790 -0.008994 203369.000000 0 0 1
19.487712 15.562473 9.387775 26.647548 0.673874 1.210775 0.055677 -0.005954 -48867.000000 0 0 1
19.656512 14.440873 10.413675 26.520971 0.633612 1.167276 0.034689 -0.005446 216644.000000 0 0 1
20.293812 13.249273 9.850275 26.161230 0.578392 1.184757 0.032213 -0.007353 613164.000000 0 0 1
20.448512 12.223173 10.770875 26.144968 0.538766 1.146184 0.037166 -0.011189 -69632.600000 0 0 1
21.218112 10.995173 10.194575 25.981368 0.478099 1.167578 0.031344 -0.006392 -534487.000000 0 0 1
22.618812 11.166673 10.224375 27.218433 0.458587 1.185707 0.022826 -0.006770 456496.000000 0 0 1
23.354412 10.238973 9.434675 27.189671 0.413180 1.216431 0.037686 -0.010681 -211856.000000 0 0 1
23.377712 8.773473 9.862575 26.847004 0.359027 1.194625 0.044585 -0.017662 -1169080.000000 0 0 1
22.163312 8.114373 9.671975 25.506912 0.350960 1.181875 0.038183 -0.016755 -159711.000000 0 0 1
22.089212 6.724673 10.055175 25.184540 0.295518 1.160087 0.048527 -0.024369 193456.000000 0 0 1
23.163412 5.663873 9.557275 25.689777 0.239813 1.189605 0.057259 -0.022226 455654.000000 0 0 1
23.008012 5.512273 8.169875 25.029995 0.235148 1.238300 0.050010 -0.015605 62600.200000 0 0 1
24.184312 5.174273 7.475675 25.836791 0.210774 1.277257 0.060146 -0.014592 -226854.000000 0 0 1
23.970012 4.875773 5.957175 25.175833 0.200674 1.331908 0.066418 -0.015812 -3028.880000 0 0 1
23.241712 3.648673 5.754875 24.220004 0.155717 1.330893 0.068422 -0.017972 583608.000000 0 1 0
22.968112 3.511473 4.390775 23.646216 0.151710 1.384026 0.064642 -0.015864 -427814.000000 0 1 0
22.027412 2.329273 4.094075 22.525405 0.105353 1.388027 0.058097 -0.014917 -312013.000000 0 1 0
22.548412 1.119873 4.593675 23.038812 0.049624 1.370062 0.061336 -0.016795 787666.000000 0 1 0
21.766512 0.098773 3.984875 22.128489 0.004538 1.389730 0.048410 -0.017546 -62571.500000 0 1 0
22.323712 -1.292327 4.321575 22.774860 -0.057826 1.379887 0.055164 -0.016449 -454652.000000 0 1 0
22.139312 -1.693327 5.675875 22.917942 -0.076336 1.320531 0.043982 -0.017340 710812.000000 0 1 0
22.351112 -3.071427 5.700975 23.270303 -0.136562 1.323288 0.043111 -0.018869 -599884.000000 0 1 0
22.152412 -3.555327 7.152475 23.548410 -0.159137 1.262186 0.057984 -0.018394 -200423.000000 0 1 0
22.353112 -4.920227 7.372775 24.046374 -0.216659 1.259171 0.055123 -0.018358 479639.000000 0 1 0
22.285312 -5.169127 8.739475 24.489456 -0.227922 1.205885 0.064421 -0.021661 -336107.000000 0 1 0
22.116812 -6.639827 9.149475 24.838550 -0.291655 1.193554 0.069348 -0.024368 59073.700000 0 1 0
20.852112 -7.109227 8.733375 23.698598 -0.328577 1.193381 0.070017 -0.023743 176500.000000 0 1 0
20.499412 -8.345327 9.331875 24.019873 -0.386613 1.171786 0.056890 -0.022849 -131748.000000 0 1 0
-25.438868 -33.006442 5.175075 41.992173 0.914163 1.447243 0.018763 -0.007666 406598.000000 0 0 1
-26.350008 -33.960742 5.755675 43.367991 0.910927 1.437686 0.009725 -0.002382 543970.000000 0 0 1
-26.591788 -33.800242 7.192475 43.604027 0.904197 1.405089 0.013040 0.004385 -284468.000000 0 0 1
-27.311548 34.092473 7.731375 44.362050 -0.895384 1.395623 0.027143 0.003560 -196745.000000 0 0 1
-28.705538 34.013773 7.542175 45.142320 -0.869832 1.402934 0.028571 -0.002239 -118521.000000 0 0 1
-29.173298 32.695973 7.893475 44.524318 -0.842274 1.392570 0.033192 -0.006120 -799936.000000 0 0 1
-30.680888 32.585773 7.945575 45.456371 -0.815498 1.395098 0.033509 -0.004874 -721894.000000 0 0 1
-31.275518 32.708673 6.647975 45.740691 -0.807793 1.424939 0.023430 -0.002656 -76473.300000 0 0 1
-32.676408 32.641373 6.797675 46.684207 -0.784862 1.424667 0.017827 0.001844 -258921.000000 0 0 1
-33.436878 32.706173 5.473775 47.092258 -0.774351 1.454298 0.015807 -0.000624 -410355.000000 0 0 1
-33.352168 31.565773 4.666775 46.157815 -0.757887 1.469519 0.014065 -0.002099 150381.000000 0 0 1
-34.184604 31.600873 3.540675 46.687672 -0.746143 1.494886 0.015766 0.001685 -264606.000000 0 0 1
-33.921298 30.367973 2.651075 45.605881 -0.730183 1.512633 0.009211 -0.001637 41038.200000 0 0 1
-34.009078 29.122073 3.326375 44.897408 -0.708142 1.496640 0.014284 -0.006785 348357.000000 0 0 1
-33.479518 28.088573 2.514975 43.774092 -0.698060 1.513311 0.005273 -0.007893 -378651.000000 0 0 1
-33.686588 26.689073 3.106575 43.089948 -0.670013 1.498639 0.016503 -0.008815 -325633.000000 0 0 1
-35.044441 26.314473 3.046475 43.930005 -0.644070 1.501392 0.013839 -0.008161 -221734.000000 0 0 1
-35.275399 25.282273 3.952175 43.579430 -0.621854 1.479983 0.016875 -0.007236 494096.000000 0 0 1
34.105727 24.757573 3.997375 42.333403 0.627902 1.476229 0.024164 -0.009604 -12176.800000 0 0 1
33.644537 23.897773 2.987575 41.376128 0.617606 1.498528 0.016225 -0.004031 -35220.200000 0 0 1
34.125177 22.568973 2.929775 41.017920 0.584319 1.499309 0.007547 -0.003158 -883795.000000 0 0 1
33.385037 21.752273 1.856675 39.889463 0.577469 1.524234 0.011388 -0.003089 -608394.000000 0 0 1
32.046767 21.501173 2.157775 38.651671 0.590949 1.514941 0.015027 -0.011336 -123159.000000 0 0 1
31.663447 20.592673 3.224275 37.908152 0.576629 1.485639 0.004030 -0.005492 -693988.000000 0 0 1
32.070777 19.089073 3.082475 37.449020 0.536895 1.488392 0.005274 -0.005232 -565108.000000 0 0 1
31.689307 18.435373 1.925475 36.712158 0.526895 1.518324 0.012241 -0.010255 249066.000000 0 0 1
31.961787 17.022073 1.802775 36.256817 0.489367 1.521053 0.002937 -0.004666 -289043.000000 0 0 1
31.253347 16.078773 2.870375 35.263829 0.475153 1.489309 0.005279 -0.001662 593328.000000 0 0 1
29.835647 15.986173 2.735375 33.958884 0.491882 1.490159 0.000217 0.000946 660963.000000 0 0 1
29.300927 15.074473 3.685575 33.156711 0.475157 1.459410 0.004567 -0.005047 237880.000000 0 0 1
27.763817 15.064473 3.864975 31.823040 0.497139 1.449044 -0.001462 -0.001261 337750.000000 0 0 1
27.021467 14.579473 2.753875 30.827010 0.494786 1.481344 0.010643 -0.012526 527675.000000 0 0 1
25.675047 15.032673 2.702475 29.874615 0.529688 1.480212 0.004150 -0.001742 294008.000000 0 0 1
24.869347 14.540773 1.495775 28.847111 0.529084 1.518921 0.023285 -0.013838 -404834.000000 0 0 1
25.211747 15.123073 0.253375 29.400743 0.540304 1.562178 0.028639 -0.013722 -86719.900000 0 0 1
26.370317 14.596073 -0.341625 30.142257 0.505529 1.582130 0.033395 -0.009400 -1029090.000000 0 0 1
26.811307 15.456173 -1.551725 30.986244 0.522946 1.620895 0.047287 -0.011845 9211.370000 0 0 1
27.334697 16.764273 -1.364825 32.095003 0.550139 1.613334 0.027197 -0.018249 708232.000000 0 0 1
28.477267 16.819773 -0.504425 33.077393 0.533508 1.586047 0.033579 -0.018078 -280025.000000 0 0 1
29.178567 18.210873 -0.447625 34.398038 0.557965 1.583810 0.037774 -0.010560 -17513.200000 0 0 1
30.044007 18.272173 -1.572425 35.199249 0.546413 1.615483 0.031413 -0.005616 21071.900000 0 0 1
30.746637 19.492373 -1.657525 36.442498 0.565022 1.616295 0.026457 0.002529 298542.000000 0 0 1
30.096317 20.611073 -2.538725 36.565691 0.600477 1.640281 0.019681 -0.000337 -218419.000000 0 0 1
31.096557 21.564173 -2.699225 37.938044 0.606322 1.642005 -0.008188 0.009309 80718.500000 0 0 1
30.703517 22.705773 -3.464925 38.344019 0.636758 1.661284 0.011042 0.010318 -209475.000000 0 0 1
31.711687 23.881273 -3.444825 39.847372 0.645466 1.657355 -0.008826 0.016448 -17739.400000 0 0 1
31.635237 24.541973 -2.205725 40.099400 0.659797 1.625831 -0.006620 0.021554 338446.000000 0 0 1
32.717947 24.147073 -1.381225 40.687258 0.635801 1.604750 0.004958 0.026318 -81273.400000 0 0 1
32.895087 25.106173 -0.163725 41.381559 0.651908 1.574753 -0.002320 0.007953 62760.300000 0 0 1
33.298597 26.378773 -0.653625 42.486038 0.669960 1.586181 0.008606 0.013147 258851.000000 0 0 1
34.329277 26.851273 0.216875 43.583680 0.663773 1.565820 0.010292 0.009362 248307.000000 0 0 1
34.628937 28.372273 -0.002125 44.767724 0.686413 1.570844 -0.000374 -0.003540 -283717.000000 0 0 1
35.391814 28.564573 -1.156725 45.495641 0.679053 1.596224 -0.010134 0.002662 -371564.000000 0 0 1
34.624047 28.638173 -2.309525 44.992260 0.691059 1.622150 -0.022407 0.009396 -584694.000000 0 0 1
35.085333 27.867973 -3.514825 44.943948 0.671250 1.649081 -0.020770 0.004326 -481242.000000 0 0 1
-34.836595 28.649373 -4.208325 45.299944 -0.688247 1.663830 -0.015280 0.001632 -293421.000000 0 0 1
-34.480120 28.050473 -5.453925 44.782284 -0.682934 1.692887 -0.008218 -0.002220 387871.000000 0 0 1
35.261116 28.054973 -6.583625 45.538686 0.672074 1.715877 -0.010340 0.004479 719837.000000 0 0 1
34.097377 27.319473 -6.262425 44.138449 0.675484 1.713158 -0.013757 0.009739 -178470.000000 0 0 1
33.096107 27.439973 -7.245725 43.598221 0.692235 1.737764 -0.023995 0.014527 1042710.000000 0 0 1
31.931127 26.341173 -7.068425 41.993057 0.689763 1.739925 -0.018401 0.017997 444990.000000 0 0 1
32.075717 24.978873 -7.384325 41.319777 0.661647 1.750473 -0.017875 0.013984 -855118.000000 0 0 1
33.218647 24.311173 -6.971125 41.750547 0.631786 1.738553 -0.011151 0.013920 -711509.000000 0 0 1
33.249547 22.798573 -7.316625 40.973653 0.601051 1.750328 -0.005659 0.016568 -68496.900000 0 0 1
32.268877 22.022273 -6.654425 39.630068 0.598858 1.739509 -0.004084 0.021899 15214.400000 0 0 1
32.484867 20.651473 -6.736425 39.078502 0.566275 1.744044 0.016019 0.010823 -230127.000000 0 0 1
31.484917 19.712773 -6.008725 37.629751 0.559391 1.731163 0.028511 0.004083 530321.000000 0 0 1
30.234287 19.703373 -6.697325 36.704075 0.577562 1.754292 0.021476 -0.000475 -254300.000000 0 0 1
29.171577 19.137473 -6.019025 35.404130 0.580604 1.741635 0.044902 -0.011825 73440.800000 0 0 1
27.884377 19.052073 -6.900625 34.469386 0.599397 1.772354 0.027164 -0.011235 291258.000000 0 0 1
27.903757 17.967073 -7.777325 34.086979 0.572071 1.800985 0.032601 -0.007669 213770.000000 0 0 1
26.938267 18.128673 -8.833125 33.650306 0.592354 1.836406 0.028417 -0.014152 142917.000000 0 0 1
26.971437 16.867373 -9.731825 33.266726 0.558872 1.867678 0.033016 -0.007932 -110593.000000 0 0 1
26.250137 17.015773 -10.934625 33.138682 0.575120 1.907063 0.051931 -0.008501 3924.050000 0 0 1
26.346917 15.845473 -11.668325 32.884477 0.541460 1.933526 0.042218 -0.009254 98413.000000 0 0 1
25.605447 15.945573 -13.070425 32.874552 0.556974 1.979680 0.047040 -0.001581 978800.000000 0 0 1
24.166747 16.049373 -12.907425 31.752411 0.586230 1.989419 0.029350 -0.002679 1164720.000000 0 0 1
23.445047 15.910273 -14.101225 31.648879 0.596232 2.032587 0.028231 -0.004246 -62832.000000 0 0 1
23.266047 14.458873 -14.567125 31.025297 0.556048 2.059548 0.026357 -0.010820 -145115.000000 0 0 1
24.443047 13.887173 -15.155925 31.937723 0.516667 2.065245 0.029595 -0.014255 681634.000000 0 0 1
24.780147 14.238373 -16.486925 32.994024 0.521525 2.094042 0.034126 -0.014838 258894.000000 0 0 1
26.117007 13.609073 -17.002325 34.005646 0.480370 2.094378 0.042847 -0.009953 628301.000000 0 0 1
25.955347 12.236173 -17.300725 33.507000 0.440533 2.113358 0.040992 -0.013216 142139.000000 0 0 1
27.232167 11.670973 -17.491225 34.405602 0.404893 2.104102 0.036284 -0.009997 72426.600000 0 0 1
27.138217 10.250873 -18.054925 34.169336 0.361160 2.127506 0.041878 0.000954 -175800.000000 0 0 1
26.706907 10.248473 -19.403625 34.565745 0.366410 2.166818 0.024878 -0.003334 -4798.470000 0 0 1
26.962627 9.064173 -20.152025 34.860387 0.324306 2.187168 0.013856 -0.002177 858621.000000 0 0 1
28.436017 8.998973 -20.716625 36.314833 0.306492 2.177878 0.003997 0.000530 305573.000000 0 0 1
28.694107 10.049773 -21.637325 37.316531 0.336887 2.189319 0.004947 -0.000766 462915.000000 0 0 1
29.341437 9.613873 -22.867625 38.422321 0.316632 2.208267 -0.019588 0.012431 -21769.600000 0 0 1
30.806707 9.149273 -22.819025 39.414087 0.288693 2.188244 -0.019817 0.014107 85137.300000 0 0 1
31.804377 10.149573 -22.553725 40.288990 0.308909 2.164939 -0.009927 0.014114 221321.000000 0 0 1
33.104227 9.632773 -22.634625 41.243259 0.283164 2.151734 -0.021187 0.016672 -221926.000000 0 0 1
34.197867 10.703173 -22.492925 42.308198 0.303320 2.131337 0.001616 0.013416 -255829.000000 0 0 1
34.323007 11.135973 -21.164825 41.833342 0.313731 2.101258 -0.002736 0.009587 96777.400000 0 0 1
35.074347 12.324273 -21.025425 42.710256 0.337900 2.085504 -0.018114 0.009933 -251918.000000 0 0 1
34.795356 13.013773 -19.679525 42.039966 0.357901 2.057952 -0.021035 0.011541 -182343.000000 0 0 1
35.242642 12.289473 -18.560025 41.683923 0.335525 2.032257 -0.024161 0.015965 61311.100000 0 0 1
35.001356 12.993573 -17.377525 41.181382 0.355462 2.006419 -0.015918 0.010111 -87007.200000 0 0 1
-35.197168 12.422673 -16.065525 40.635754 -0.339296 1.977250 -0.017923 0.015746 -1013630.000000 0 0 1
35.054412 11.222173 -15.568625 39.964122 0.309826 1.970956 -0.014388 0.007648 274738.000000 0 0 1
-35.134225 10.631873 -14.492925 39.465116 -0.293847 1.946830 -0.002184 -0.003599 -337397.000000 0 0 1
35.202322 9.206973 -14.214625 39.064400 0.255814 1.943223 0.015007 -0.012136 256371.000000 0 0 1
33.880667 9.237773 -13.694325 37.693110 0.266186 1.942616 0.027597 -0.003591 583338.000000 0 0 1
33.734407 8.469173 -12.508625 36.962180 0.245971 1.916030 0.030996 -0.001527 -147020.000000 0 0 1
32.626757 9.023773 -11.570225 35.774346 0.269831 1.900140 0.042175 -0.006298 -4605.560000 0 0 1
32.767827 10.394473 -11.308825 36.189295 0.307175 1.888610 0.035928 0.000795 301787.000000 0 0 1
31.693457 10.917973 -10.537825 35.138627 0.331755 1.875377 0.028166 -0.003781 49781.900000 0 0 1
31.873957 10.714273 -8.996925 34.809329 0.324279 1.832227 0.040637 -0.008714 36188.700000 0 0 1
32.955517 11.498173 -8.522425 35.929177 0.335694 1.810280 0.032375 -0.003215 130597.000000 0 0 1
32.619347 12.822873 -8.034625 35.958351 0.374549 1.796141 0.030340 -0.003218 -339184.000000 0 0 1
32.334367 12.861173 -6.506525 35.401354 0.378570 1.755640 0.032907 -0.000917 -49814.300000 0 0 1
33.558787 12.613973 -5.827225 36.321633 0.359539 1.731927 0.040590 0.000834 574935.000000 0 0 1
33.472687 12.658273 -4.397525 36.055386 0.361545 1.693067 0.042418 0.001511 261577.000000 0 0 1
34.871980 12.543573 -3.712825 37.244882 0.345293 1.670649 0.045692 0.002834 617538.000000 0 0 1
-35.185431 13.717473 -3.915625 37.967298 -0.371737 1.674112 0.033470 0.013167 2004860.000000 0 0 1
-33.791768 13.490673 -3.467125 36.550004 -0.379842 1.665799 0.024578 -0.004468 2067930.000000 0 0 1
-32.913328 14.750973 -3.542225 36.241215 -0.421336 1.668693 0.017182 -0.003158 59792.500000 0 0 1
-33.192568 15.661473 -2.512325 36.787770 -0.440864 1.639142 0.036984 -0.006195 58813.000000 0 0 1
-32.312888 16.758473 -2.523325 36.487481 -0.478441 1.640007 0.021381 -0.001174 -90822.000000 0 0 1
-32.636018 17.775273 -1.432325 37.190342 -0.498728 1.609319 0.023249 0.003084 -510762.000000 0 0 1
-33.756488 18.566073 -1.622525 38.559462 -0.502843 1.612887 0.002785 0.007233 -431884.000000 0 0 1
-34.132768 19.354673 -0.517725 39.241779 -0.515832 1.583990 -0.019062 0.012848 -614160.000000 0 0 1
-35.285339 20.321773 -0.751625 40.725846 -0.522531 1.589253 -0.020292 0.019378 -428163.000000 0 0 1
-35.091111 21.410773 -1.590925 41.138040 -0.547848 1.609479 -0.011654 0.018818 -141012.000000 0 0 1
-35.151706 21.085773 -2.977825 41.098901 -0.540310 1.643315 -0.038901 0.023587 -135792.000000 0 0 1
-35.114580 22.399473 -3.766625 41.820540 -0.567820 1.660985 -0.007262 -0.007806 64836.300000 0 0 1
-33.778778 22.822273 -3.935925 40.955506 -0.594189 1.667047 0.003627 0.005278 -219463.000000 0 0 1
-33.662718 24.012173 -4.659325 41.610964 -0.619607 1.683005 0.010515 -0.001580 1224520.000000 0 0 1
-32.160848 24.242473 -5.103225 40.596312 -0.645921 1.696836 0.016638 -0.003725 1117660.000000 0 0 1
-31.617838 23.403773 -6.081925 39.804699 -0.637205 1.724191 0.015180 -0.004762 -458296.000000 0 0 1
-30.378758 23.920873 -6.493025 39.207607 -0.667024 1.737169 0.015500 -0.001557 -466559.000000 0 0 1
-29.697678 23.051573 -7.589125 38.352599 -0.660064 1.769989 0.019556 -0.019573 -447415.000000 0 0 1
-30.453208 22.968273 -8.743525 39.132961 -0.646193 1.796130 0.023689 -0.028590 -107775.000000 0 0 1
-29.670058 22.546973 -9.825625 38.538568 -0.649822 1.828598 0.004419 -0.029909 299284.000000 0 0 1
-30.571038 22.513173 -11.088825 39.552412 -0.634754 1.854963 0.013440 -0.019285 174930.000000 0 0 1
-31.049828 23.782073 -11.433225 40.747974 -0.653620 1.855199 0.023824 -0.018792 271332.000000 0 0 1
-31.874438 23.698073 -12.603125 41.670339 -0.639317 1.878057 0.015320 -0.010746 -32475.300000 0 0 1
-32.444928 25.091673 -13.035125 43.036959 -0.658286 1.878512 0.034167 -0.010026 961224.000000 0 0 1
-31.382328 26.027173 -13.376025 42.909000 -0.692387 1.887810 0.028320 -0.014866 -43638.400000 0 0 1
-30.766728 25.942473 -14.635425 42.822880 -0.700532 1.919592 0.014337 -0.011982 -827640.000000 0 0 1
-29.527778 26.878973 -14.610425 42.518624 -0.738474 1.921570 -0.002203 -0.003445 749427.000000 0 0 1
-28.348498 26.437373 -13.892925 41.177486 -0.750529 1.914941 0.006402 -0.009988 911277.000000 0 0 1
-28.585448 25.940073 -12.592825 40.602887 -0.736920 1.886143 0.019637 -0.008217 -1930200.000000 0 0 1
-28.922748 27.028073 -11.553425 41.237406 -0.751548 1.854766 0.024934 -0.001636 -19904.300000 0 0 1
-27.769288 27.773173 -11.191925 40.837993 -0.785468 1.848405 0.014323 0.004053 3075.140000 0 0 1
-28.084538 28.987873 -10.510525 41.707423 -0.801225 1.825549 0.009346 -0.004550 629156.000000 0 0 1
-26.827218 29.797473 -10.037725 41.332129 -0.837805 1.816104 0.025384 -0.009431 512716.000000 0 0 1
-27.222498 30.943273 -9.345825 42.259850 -0.849280 1.793791 0.020147 -0.014109 -672656.000000 0 0 1
-26.187998 31.826373 -9.059425 42.199555 -0.882283 1.787161 0.035969 -0.011672 -743476.000000 0 0 1
33.678747 -25.294957 34.149779 54.224535 -0.644183 0.889520 0.013406 -0.005137 -289310.000000 0 0 1
33.258617 -23.966527 34.342529 53.478400 -0.624425 0.873463 0.012757 -0.009314 -449224.000000 0 0 1
32.154927 -23.960127 -33.719875 52.393291 -0.640388 2.269978 -0.002013 0.000997 -417827.000000 0 0 1
31.728457 -22.522927 -33.398865 51.278274 -0.617316 2.280127 -0.008565 0.003135 226942.000000 0 0 1
31.158827 -21.839627 34.362045 51.269796 -0.611338 0.836291 -0.011317 0.001825 137830.000000 0 0 1
30.902667 -20.517227 -34.180508 50.440445 -0.586106 2.315346 -0.015826 0.010792 263823.000000 0 0 1
30.546997 -19.481527 33.580344 49.399275 -0.567720 0.823342 -0.007276 0.014811 340487.000000 0 0 1
31.708157 -18.999527 32.915858 49.495888 -0.539831 0.843273 0.009162 0.008219 292817.000000 0 0 1
31.378637 -18.609027 31.610817 48.271715 -0.535292 0.856810 0.015872 0.012838 209853.000000 0 0 1
32.611347 -18.512027 30.651327 48.432416 -0.516298 0.885544 0.009660 0.013712 670001.000000 0 0 1
33.521037 -17.431727 31.007437 48.877256 -0.479538 0.883572 0.008781 0.004264 405626.000000 0 0 1
34.510407 -17.383327 30.015327 48.929215 -0.466613 0.910382 0.025918 0.000158 -446073.000000 0 0 1
-35.146510 -16.478127 30.410697 49.311422 0.438411 0.906244 0.021205 -0.005072 107640.000000 0 0 1
-34.100899 -16.550727 29.414707 47.979400 0.451856 0.910856 0.028717 -0.005618 1383950.000000 0 0 1
-32.948978 -15.711427 29.583517 46.985834 0.444949 0.889724 0.030240 -0.010839 982692.000000 0 0 1
-31.930468 -16.140727 30.688147 47.136400 0.468035 0.861830 0.033127 -0.012510 107341.000000 0 0 1
-30.855438 -15.191827 30.878677 46.220584 0.457513 0.839182 0.030839 -0.009752 253181.000000 0 0 1
-29.895318 -15.859027 31.621147 46.315610 0.487737 0.819301 0.033266 -0.012819 128088.000000 0 0 1
-28.814298 -15.001027 32.366267 45.857058 0.480000 0.787234 0.029628 -0.012388 440252.000000 0 0 1
-29.450298 -14.243427 33.377689 46.736125 0.450477 0.775354 0.034858 -0.012266 106449.000000 0 0 1
-28.600568 -13.274027 33.855767 46.264514 0.434532 0.749856 0.029328 -0.011181 -474525.000000 0 0 1
-29.024038 -12.782927 -33.668735 46.253451 0.414863 2.386077 0.019563 -0.000967 -180132.000000 0 0 1
-28.957138 -13.790627 -32.657025 45.773120 0.444462 2.365212 0.043340 0.000142 294191.000000 0 0 1
-29.199728 -13.263927 -31.389455 44.875982 0.426381 2.345454 0.041891 0.009032 -473544.000000 0 0 1
-29.016868 -14.172027 -30.173205 44.195557 0.454330 2.322276 0.046011 0.006351 190814.000000 0 0 1
-30.242188 -14.849727 -29.928475 45.064597 0.456443 2.297118 0.045156 0.006299 367517.000000 0 0 1
-30.361598 -15.340127 -28.597635 44.440644 0.467837 2.269861 0.047828 -0.003005 1431990.000000 0 0 1
-31.632818 -16.328327 -28.558955 45.638398 0.476510 2.246909 0.037877 -0.007125 1198690.000000 0 0 1
-31.465178 -17.600427 -29.211525 46.402000 0.510003 2.251747 0.046451 0.000724 -676527.000000 0 0 1
-32.700598 -18.116627 -29.513595 47.629755 0.505921 2.239088 0.032283 -0.006120 -1004760.000000 0 0 1
-32.514088 -19.420127 -30.275145 48.485994 0.538420 2.245172 0.033769 -0.006567 -17416.700000 0 0 1
-33.642448 -20.243927 -30.482515 49.707289 0.541696 2.230953 0.006428 -0.002978 -276647.000000 0 0 1
-33.265938 -21.474327 -31.028045 50.304164 0.573230 2.235478 0.003973 -0.001077 -8707.530000 0 0 1
-34.474111 -22.339527 -31.430085 51.723969 0.574974 2.223895 0.008774 0.001370 223082.000000 0 0 1
-35.302033 -22.766227 -30.355805 51.826726 0.572781 2.196561 -0.001481 -0.000040 456594.000000 0 0 1
34.644937 -23.888627 -30.623985 52.045812 -0.603663 2.199880 0.005667 0.000244 471960.000000 0 0 1
35.232795 -25.278117 -30.964205 53.283346 -0.622348 2.190905 0.000197 0.003736 -58147.600000 0 0 1
-35.132314 -25.477857 -32.296035 54.096530 0.627437 2.210562 0.011541 -0.003224 -246827.000000 0 0 1
-34.395376 -26.695987 -32.342715 54.238075 0.660028 2.209693 -0.004250 -0.000767 101333.000000 0 0 1
-34.412236 -27.541727 -33.615935 55.432660 0.674952 2.222357 0.006841 -0.011944 1432480.000000 0 0 1
35.066292 -28.035467 -33.742655 56.162256 -0.674435 2.215306 0.021916 -0.008579 1041570.000000 0 0 1
34.902278 -29.113797 34.282341 56.930318 -0.695221 0.924566 0.017833 -0.010564 76583.300000 0 0 1
-35.329306 -30.431417 -34.088574 57.760383 0.711055 2.202068 0.012345 -0.010852 -105676.000000 0 0 1
35.005734 -30.864507 -32.859695 57.076955 -0.722611 2.184267 0.015742 -0.015905 -548738.000000 0 0 1
-34.991841 -31.785657 -32.263455 57.233622 0.737422 2.169673 0.014030 -0.011939 -258065.000000 0 0 1
35.399547 -32.204477 -30.878605 56.953880 -0.738172 2.143812 0.006493 -0.014147 332397.000000 0 0 1
34.257657 -33.061767 -30.876015 56.745007 -0.767636 2.146135 0.015802 -0.006956 341202.000000 0 0 1
33.984637 -33.366637 -29.517215 56.031723 -0.776223 2.125621 0.001414 -0.006894 -259710.000000 0 0 1
32.903307 -34.448800 -29.315875 55.935391 -0.808341 2.122457 0.001363 -0.003575 429918.000000 0 0 1
31.705827 -34.004684 -29.980125 55.320755 -0.820369 2.143531 0.012334 -0.006667 -532549.000000 0 0 1
30.648857 34.324513 -29.563225 54.694688 0.841910 2.141844 0.021462 -0.001456 -1237520.000000 0 0 1
29.337547 -34.353814 -30.163665 54.320557 -0.863995 2.159508 0.018035 0.003573 -997503.000000 0 0 1
29.320437 34.406595 -31.560215 55.132105 0.865041 2.180284 0.020208 0.001722 -287163.000000 0 0 1
28.047187 -34.391587 -32.064375 54.749887 -0.886661 2.196480 0.017114 0.012509 -26055.900000 0 0 1
27.804527 34.081004 -33.460525 55.264937 0.886473 2.221136 0.017352 -0.005788 139992.000000 0 0 1
27.500337 32.681417 -33.549695 54.313217 0.871277 2.236621 0.011000 -0.002351 95951.800000 0 0 1
27.045817 32.181767 34.105691 54.132619 0.871897 0.889192 0.016384 -0.005846 57359.100000 0 0 1
27.076897 30.651047 34.115008 53.258603 0.847233 0.875577 0.010487 -0.005532 170157.000000 0 0 1
28.363777 30.042937 34.201186 53.635837 0.814140 0.879345 0.013077 -0.000809 137398.000000 0 0 1
28.182387 28.646667 34.420676 52.911827 0.793568 0.862516 0.014700 -0.002878 98452.700000 0 0 1
29.528937 27.940687 -34.247629 53.155810 0.757769 2.270888 0.025974 -0.007371 -124057.000000 0 0 1
30.139697 28.428217 -33.084635 53.020354 0.756184 2.244646 0.023003 -0.006092 -482369.000000 0 0 1
31.286577 27.615607 -32.907185 53.144656 0.723156 2.238520 0.031234 -0.010026 -145888.000000 0 0 1
31.831087 27.670977 -31.477855 52.628475 0.715596 2.211943 0.024096 -0.007150 -220676.000000 0 0 1
32.897487 28.562587 -31.231075 53.604534 0.714983 2.192745 0.015360 0.002174 -190757.000000 0 0 1
32.622667 29.950677 -31.353095 54.261386 0.742722 2.186847 0.019864 0.000632 30288.700000 0 0 1
31.664777 30.653147 -30.322315 53.495012 0.769166 2.173443 0.016030 0.010552 323708.000000 0 0 1
32.208417 30.844127 -28.988485 53.189045 0.763764 2.147196 0.014411 0.007800 337612.000000 0 0 1
31.216587 31.042167 -27.960965 52.152727 0.782597 2.136649 0.011091 0.005938 113403.000000 0 0 1
31.794377 31.295737 -26.572965 51.927141 0.777495 2.108000 0.008798 0.006189 -203364.000000 0 0 1
32.321027 32.590887 -26.509875 53.005548 0.789555 2.094550 0.000250 0.002651 25734.900000 0 0 1
32.694157 33.020427 -25.182215 52.852629 0.790363 2.067421 -0.008934 0.003566 -18521.100000 0 0 1
32.809707 34.529425 -25.103465 53.841824 0.810931 2.055837 -0.007758 0.005177 -35153.300000 0 0 1
31.554667 -33.957957 -25.256175 52.789338 -0.822066 2.069666 0.005983 0.007435 112394.000000 0 0 1
31.737957 -32.539257 -25.022025 51.886442 -0.797864 2.074013 0.000405 0.008277 -365198.000000 0 0 1
32.306657 -31.612407 -26.167835 52.228536 -0.774537 2.095580 -0.002651 0.002786 305765.000000 0 0 1
33.629347 -31.918127 -26.563295 53.435086 -0.759298 2.091065 -0.002450 -0.001338 151003.000000 0 0 1
34.615797 -31.166307 -25.824585 53.258814 -0.733008 2.077032 0.004663 -0.001032 -69555.000000 0 0 1
-34.829099 -31.628407 -26.296195 53.897237 0.737274 2.080473 -0.007429 -0.000431 -296471.000000 0 0 1
-34.403011 -32.929527 -26.016355 54.265750 0.763518 2.070796 -0.003613 -0.001661 -474344.000000 0 0 1
-34.440339 -33.362277 -24.629925 53.905581 0.769500 2.045313 0.003119 0.000563 -532138.000000 0 0 1
-33.309108 -32.833957 -23.712825 52.439141 0.778215 2.040023 -0.015105 0.005021 26444.700000 0 0 1
-33.203618 -31.396697 -23.616725 51.439115 0.757435 2.047801 -0.028114 -0.000436 -447608.000000 0 0 1
-32.854828 -30.898247 -22.288125 50.308070 0.754718 2.029775 -0.007494 -0.004589 -127060.000000 0 0 1
-32.480008 -29.345947 -22.321825 49.136538 0.734750 2.042362 0.007326 -0.002682 200026.000000 0 0 1
-33.510038 -28.382357 -22.513125 49.348978 0.702739 2.044519 -0.002221 0.001539 -400862.000000 0 0 1
-34.119822 -28.492697 -23.771625 50.409187 0.695767 2.061870 0.013384 -0.008923 -278201.000000 0 0 1
-35.263302 -27.479597 -23.971725 50.727431 0.661972 2.062989 -0.003354 -0.000819 -269451.000000 0 0 1
-34.888249 -26.148327 -23.839525 49.691527 0.643173 2.071166 -0.014845 0.003055 -973694.000000 0 0 1
35.114316 -25.270227 -24.473025 49.704411 -0.623796 2.085608 -0.008630 0.005830 -750768.000000 0 0 1
-35.219329 -24.756027 -25.856405 50.217683 0.612676 2.111672 -0.008416 0.001067 -286053.000000 0 0 1
-34.236889 -23.731927 -25.729225 48.962863 0.606126 2.124081 -0.008922 -0.001593 -22943.200000 0 0 1
-33.965848 -23.118427 -26.954145 49.139255 0.597612 2.151396 -0.002468 -0.008256 198675.000000 0 0 1
-32.766348 -22.123227 -27.068385 47.914175 0.593874 2.171151 0.002448 -0.018543 -185203.000000 0 0 1
-32.798058 -20.848227 -26.410485 46.988029 0.566224 2.167681 0.022859 -0.010828 185160.000000 0 0 1
-33.867298 -19.917827 -26.622115 47.459990 0.531634 2.166315 0.015842 -0.009708 1002160.000000 0 0 1
-35.055636 -19.893327 -25.577405 47.737257 0.516163 2.136246 0.018891 -0.010115 595663.000000 0 0 1
-34.697009 -19.492127 -24.279325 46.618784 0.511843 2.118591 0.021044 -0.020615 134351.000000 0 0 1
-33.911968 -20.374127 -23.428325 45.978397 0.541004 2.105459 0.010161 -0.018077 149423.000000 0 0 1
-34.575361 -21.700327 -22.918225 46.814579 0.560484 2.082374 0.026390 -0.010149 801128.000000 0 0 1
35.286161 -21.442827 -21.897425 46.737621 -0.546050 2.058409 0.019107 -0.007399 363852.000000 0 0 1
34.399177 -22.491727 -21.626125 46.442119 -0.579073 2.055174 0.014726 0.005752 -636213.000000 0 0 1
33.443517 -22.353227 -20.493225 45.145408 -0.589193 2.041977 0.009957 0.001566 -1058180.000000 0 0 1
32.307477 -21.650427 -20.857525 44.131059 -0.590401 2.063066 0.021859 0.006375 -932766.000000 0 0 1
31.272347 -21.752027 -19.901325 42.978752 -0.607745 2.052230 0.026039 0.004931 371042.000000 0 0 1
29.982787 -21.058527 -20.435925 41.953022 -0.612304 2.079579 0.018423 0.018520 -136718.000000 0 0 1
29.426557 -21.877727 -21.460625 42.486652 -0.639308 2.100311 0.019017 0.017678 816518.000000 0 0 1
28.195777 -21.375827 -22.036025 41.683500 -0.648679 2.127807 0.039990 0.015076 808056.000000 0 0 1
28.221027 -20.149927 -23.008225 41.615193 -0.620063 2.156613 0.032169 0.005601 -485851.000000 0 0 1
28.525107 -18.924127 -22.313925 40.862153 -0.585752 2.148472 0.031003 0.017969 169031.000000 0 0 1
28.527437 -17.879727 -23.238125 40.908553 -0.559861 2.174931 0.028016 0.013382 74800.800000 0 0 1
29.292117 -16.662527 -22.628825 40.592261 -0.517193 2.162127 0.023287 0.010390 -120585.000000 0 0 1
28.555717 -16.065527 -21.610125 39.249556 -0.512468 2.153858 0.005894 0.005906 566701.000000 0 0 1
29.401827 -15.345527 -20.694925 39.092615 -0.481033 2.128668 -0.006476 0.004724 257279.000000 0 0 1
30.308277 -16.052427 -19.685125 39.544610 -0.487076 2.091851 0.005829 0.002263 468399.000000 0 0 1
31.436577 -16.663027 -20.328325 40.977501 -0.487399 2.089880 0.012242 -0.001743 513726.000000 0 0 1
32.095227 -17.656527 -19.507925 41.501996 -0.502943 2.060141 0.011936 0.002740 -142900.000000 0 0 1
33.309417 -18.240727 -20.220525 43.024539 -0.501010 2.060061 0.025050 -0.009012 -189773.000000 0 0 1
34.314957 -17.264927 -20.499625 43.541114 -0.466149 2.061006 0.017126 -0.012468 -213515.000000 0 0 1
35.368338 -17.956727 -21.108525 44.932540 -0.469794 2.059841 0.021777 -0.018851 -494836.000000 0 0 1
-34.449741 -16.978027 -21.697825 44.111604 0.457899 2.085049 0.020943 -0.025745 -398034.000000 0 0 1
-33.521068 -16.428627 -20.816025 42.741884 0.455695 2.079467 0.028098 -0.033319 -341769.000000 0 0 1
-32.843718 -15.346227 -21.433825 42.114431 0.437106 2.104752 0.030278 -0.028761 -279766.000000 0 0 1
-31.604838 -14.877627 -20.598525 40.552543 0.439966 2.103596 0.034718 -0.023346 203631.000000 0 0 1
-30.422368 -15.625727 -20.514825 39.881598 0.474489 2.111096 0.036777 -0.029894 -33136.600000 0 0 1
-30.544238 -16.947627 -20.079725 40.291040 0.506563 2.092511 0.028312 -0.030956 -269506.000000 0 0 1
-29.308758 -17.871227 -20.365325 39.914039 0.547563 2.106248 0.025342 -0.037294 450503.000000 0 0 1
-29.590918 -19.131427 -19.773125 40.405574 0.573932 2.082159 0.031183 -0.042379 -163357.000000 0 0 1
-28.510768 -19.993827 -19.828925 40.072475 0.611580 2.088432 0.032399 -0.043406 -285969.000000 0 0 1
-29.025168 -21.429227 -19.409925 40.968492 0.635970 2.064371 0.026333 -0.022021 -83143.000000 0 0 1
-29.789788 -22.111527 -20.349025 42.313519 0.638524 2.072489 0.036979 -0.026404 -82067.600000 0 0 1
-30.246658 -23.328027 -19.794925 43.022043 0.656969 2.048917 0.028797 -0.008096 184912.000000 0 0 1
-31.383208 -24.026527 -20.625825 44.582557 0.653401 2.051771 0.014791 -0.008993 -6268.110000 0 0 1
-31.034778 -24.495927 -21.879525 45.187625 0.668186 2.076237 0.013029 -0.018237 58363.500000 0 0 1
-32.023718 -25.290867 -22.516325 46.606130 0.668462 2.075010 0.007390 -0.008692 -122707.000000 0 0 1
-31.740778 -25.406147 -24.059125 47.241833 0.675001 2.105139 0.002279 -0.006460 -376275.000000 0 0 1
-30.435248 -25.840187 -24.325825 46.752169 0.703926 2.118015 0.015776 -0.004822 -284508.000000 0 0 1
-30.369418 -25.878637 -25.749395 47.487227 0.705728 2.143895 0.010510 0.004773 676381.000000 0 0 1
-28.974948 -26.353297 -26.306245 47.181166 0.738050 2.162238 0.018275 -0.000017 912147.000000 0 0 1
-28.108238 -25.244517 -26.522625 46.160679 0.731774 2.182877 0.021728 -0.006778 -152819.000000 0 0 1
-26.750188 -25.565197 -26.686595 45.621554 0.762751 2.195622 0.021020 -0.009472 188174.000000 0 0 1
-25.855028 -24.348627 -26.982375 44.602541 0.755401 2.220501 0.032478 -0.007029 -120379.000000 0 0 1
-26.024598 -23.766927 -28.231635 45.157189 0.740087 2.246166 0.034063 -0.013075 -513657.000000 0 0 1
-25.184328 -22.686427 -28.382435 44.209580 0.733265 2.267897 0.033253 -0.017099 -280274.000000 0 0 1
-25.000888 -22.187427 -29.855185 44.818059 0.725847 2.299820 0.040065 -0.020076 -128302.000000 0 0 1
-24.332988 -23.102427 -30.641615 45.439245 0.759462 2.310870 0.042571 -0.011748 -248598.000000 0 0 1
-23.906588 -22.525927 -31.840645 45.746792 0.755672 2.340635 0.040646 -0.011016 -398451.000000 0 0 1
-23.544788 -23.517227 -32.953395 46.833142 0.784813 2.351295 0.040015 -0.017927 -97342.500000 0 0 1
-24.677388 -24.104227 -33.541505 48.114652 0.773649 2.342164 0.000791 -0.013439 -441278.000000 0 0 1
-24.380488 -25.424467 -33.975425 48.940180 0.806356 2.338137 0.037720 -0.012250 117996.000000 0 0 1
-19.561488 -14.796327 -11.781225 27.209931 0.647585 2.018587 -0.008478 0.021529 47954.900000 0 0 1
-19.689688 -14.190027 -10.565425 26.470151 0.624473 1.981380 0.000662 0.013116 73983.400000 0 0 1
-18.943688 -14.902427 -9.613625 25.949324 0.666560 1.950319 -0.017632 0.008107 -262102.000000 0 0 1
-19.155588 -14.316927 -8.187025 25.277229 0.641836 1.900634 0.001843 -0.007411 -857813.000000 0 0 1
-20.349188 -14.673827 -7.564225 26.203590 0.624748 1.863635 0.026657 -0.008421 -294644.000000 0 0 1
-20.610288 -14.096727 -6.290625 25.750216 0.599883 1.817588 0.016228 -0.016174 1103760.000000 0 0 1
-21.955888 -14.659627 -5.621525 26.991984 0.588708 1.780599 0.030121 -0.014775 919929.000000 0 0 1
-21.947988 -16.028627 -5.179725 27.666959 0.630774 1.759125 0.025029 -0.020691 224643.000000 0 0 1
-21.095788 -16.154127 -4.062425 26.879200 0.653506 1.722514 0.026045 -0.017394 -341615.000000 0 0 1
-20.932988 -17.603127 -3.521325 27.576435 0.699203 1.698839 0.005586 -0.012442 354109.000000 0 0 1
-22.162788 -18.258827 -3.203225 28.893504 0.689116 1.681888 0.008600 -0.014499 472177.000000 0 0 1
-21.941388 -19.351927 -2.309225 29.347131 0.722771 1.649564 -0.005892 -0.002062 310927.000000 0 0 1
-23.213888 -20.200027 -2.024225 30.838664 0.716088 1.636483 -0.018434 -0.015921 214511.000000 0 0 1
-23.353088 -21.257927 -2.988525 31.720616 0.738468 1.665150 -0.019017 -0.018106 -791430.000000 0 0 1
-24.427388 -22.072427 -2.708525 33.033701 0.734797 1.652881 -0.003528 -0.016030 -579065.000000 0 0 1
-24.652888 -23.177127 -3.806625 34.050470 0.754554 1.682824 0.007520 -0.013282 -479011.000000 0 0 1
-23.614888 -24.113427 -3.719325 33.955171 0.795843 1.680553 0.000566 -0.008264 -426888.000000 0 0 1
-23.383488 -24.817527 -4.921125 34.451627 0.815141 1.714128 -0.000432 -0.007328 117604.000000 0 0 1
-21.920988 -24.682227 -5.390825 33.448513 0.844579 1.732670 0.002196 -0.001422 276475.000000 0 0 1
-21.369088 -23.497927 -6.033925 32.329534 0.832810 1.758535 -0.008433 0.002381 311686.000000 0 0 1
-21.306488 -22.326227 -5.243225 31.303646 0.808765 1.739085 -0.020052 -0.000362 -533443.000000 0 0 1
-21.303288 -20.939527 -5.964325 30.460910 0.776787 1.767872 -0.007684 0.003096 58604.400000 0 0 1
-20.070888 -20.573227 -6.539925 29.476581 0.797757 1.794527 -0.023102 0.011340 -169354.000000 0 0 1
-20.241488 -19.397427 -7.289125 28.967384 0.764108 1.825163 -0.026216 0.011679 355204.000000 0 0 1
-18.942888 -19.043127 -8.050825 28.040854 0.788037 1.862005 -0.015469 0.010536 -89226.000000 0 0 1
-18.754588 -19.804927 -9.222825 28.792885 0.812631 1.896859 -0.023867 0.010978 319594.000000 0 0 1
-17.538188 -19.800727 -9.982725 28.272100 0.845919 1.931673 0.004919 0.012883 259554.000000 0 0 1
-17.216088 -18.439927 -10.690425 27.399083 0.819708 1.971617 0.005090 0.016716 -216782.000000 0 0 1
-16.888188 -17.361027 -9.848425 26.145891 0.799203 1.956997 0.002234 0.006508 -158077.000000 0 0 1
-15.619888 -17.357727 -9.248425 25.115831 0.838047 1.947902 0.028580 -0.001206 -451168.000000 0 0 1
-15.417688 -15.995027 -8.504225 23.787977 0.803775 1.936387 0.021690 -0.004025 -237609.000000 0 1 0
-16.204788 -16.098827 -7.354125 23.996886 0.782118 1.882270 0.011151 -0.003251 131651.000000 0 1 0
-16.177388 -14.936627 -6.494725 22.956310 0.745541 1.857630 0.012857 -0.006538 -587610.000000 0 1 0
-16.892488 -15.213727 -5.170725 23.314159 0.733158 1.794441 0.014683 -0.010767 -160869.000000 0 1 0
-17.136988 -14.120227 -4.317625 22.620766 0.689182 1.762845 0.011304 -0.010094 70718.200000 0 1 0
-17.682388 -14.529827 -3.120025 23.097993 0.687840 1.706288 0.014759 -0.006967 -483405.000000 0 1 0
-18.530088 -13.511127 -2.367625 23.054725 0.630020 1.673674 0.018585 0.000240 -368968.000000 0 1 0
-19.849988 -13.434627 -2.831325 24.135609 0.594991 1.688376 0.026396 -0.008577 617883.000000 0 1 0
-20.721788 -12.623727 -1.989425 24.345611 0.547157 1.652603 0.031753 -0.005664 870069.000000 0 1 0
-22.206188 -12.539627 -2.445425 25.619077 0.514052 1.666395 0.020745 -0.005035 319633.000000 0 0 1
-22.359288 -11.864927 -3.648725 25.573960 0.487865 1.713958 0.020893 -0.006282 -11.552200 0 0 1
-23.711788 -11.952527 -4.017325 26.856111 0.466903 1.720947 0.014776 -0.001714 -327421.000000 0 0 1
-24.075288 -11.211427 -5.313125 27.084034 0.435818 1.768249 0.022081 -0.007543 -109077.000000 0 0 1
-23.711488 -11.864527 -6.518125 27.303619 0.463944 1.811852 0.029799 -0.016657 120.952000 0 0 1
-24.215988 -11.231027 -7.631925 27.763219 0.434259 1.849275 0.038658 -0.019880 -456875.000000 0 0 1
-23.445588 -11.547427 -8.909925 27.612052 0.457646 1.899359 0.051685 -0.027922 216901.000000 0 0 1
-22.246888 -10.794327 -9.130325 26.359142 0.451743 1.924508 0.028802 -0.014323 221984.000000 0 0 1
-21.601888 -11.241227 -10.286125 26.435036 0.479820 1.970461 0.016477 -0.008180 -669011.000000 0 0 1
-20.185188 -10.681827 -10.350225 25.073300 0.486727 1.996321 -0.005233 0.003517 -817391.000000 0 0 1
-20.199588 -9.280427 -10.560125 24.610281 0.430674 2.014286 0.001003 -0.008459 382638.000000 0 1 0
-19.043888 -8.563427 -10.153425 23.218397 0.422578 2.023391 -0.002498 -0.001458 -148404.000000 0 1 0
-18.866488 -7.148527 -10.826125 22.896523 0.362186 2.063294 -0.027067 -0.008310 -67172.400000 0 1 0
-18.618788 -7.284727 -12.241925 23.443362 0.372946 2.120215 0.005816 -0.006454 427420.000000 0 1 0
-18.556888 -6.016127 -12.827425 23.347263 0.313507 2.152465 0.015463 -0.017572 -216172.000000 0 1 0
-18.049988 -6.013027 -14.292225 23.795509 0.321569 2.215081 0.037335 -0.012415 -351981.000000 0 1 0
-18.957888 -6.442127 -15.264625 25.177595 0.327570 2.222168 0.033094 -0.020969 150962.000000 0 0 1
-18.375188 -6.430327 -16.572225 25.566292 0.336627 2.276022 0.044004 -0.028090 217491.000000 0 0 1
-19.102688 -7.416927 -17.542225 26.975047 0.370350 2.278793 0.038427 -0.021168 539284.000000 0 0 1
-20.426488 -7.060227 -17.934225 28.084242 0.332786 2.263457 0.046471 -0.028330 719299.000000 0 0 1
-20.900388 -7.870227 -19.015525 29.331841 0.360137 2.276132 0.044033 -0.021903 1050030.000000 0 0 1
-22.450888 -7.673127 -19.266525 30.563348 0.329328 2.252839 0.052264 -0.018407 712955.000000 0 0 1
-22.689188 -6.489027 -20.067525 30.977609 0.278561 2.275499 0.047523 -0.020449 -530102.000000 0 0 1
-24.019088 -6.338427 -20.436225 32.167243 0.258009 2.259208 0.043454 -0.021332 -11871.600000 0 0 1
-25.041188 -5.712527 -19.413825 32.196128 0.224287 2.218036 0.035463 -0.013127 58483.200000 0 0 1
-24.811088 -4.364727 -19.171125 31.657115 0.174137 2.221299 0.034057 -0.013316 -193270.000000 0 0 1
-25.777308 -3.972127 -18.265225 31.841260 0.152891 2.181732 0.052399 -0.001561 -607252.000000 0 0 1
-25.678598 -2.499227 -17.922425 31.414166 0.097022 2.177936 0.028769 -0.001345 -9662.570000 0 0 1
-26.031038 -1.650927 -18.994725 32.266702 0.063337 2.200220 0.039484 -0.003349 -598477.000000 0 0 1
-27.379918 -1.470227 -19.261825 33.508795 0.053646 2.183191 0.034887 0.003762 -955871.000000 0 0 1
-27.639768 -0.327927 -20.279625 34.283049 0.011864 2.203758 0.033196 0.006701 -208436.000000 0 0 1
-27.122748 -0.480227 -21.602025 34.677392 0.017704 2.243295 0.034682 0.000907 189193.000000 0 0 1
-27.611628 -1.604027 -22.354925 35.562868 0.058027 2.250552 0.032811 0.007008 11129.900000 0 0 1
-27.055798 -1.609827 -23.793125 36.065503 0.059430 2.291242 0.025268 0.003360 -388814.000000 0 0 1
-27.339298 -0.460427 -24.639525 36.807002 0.016840 2.304231 0.026568 0.009524 -40446.400000 0 0 1
-26.943488 0.870373 -24.320325 36.306849 -0.032292 2.304810 0.039564 0.005635 657769.000000 0 0 1
-25.426008 1.058773 -23.958025 34.951249 -0.041617 2.326045 0.039556 0.005443 472851.000000 0 0 1
-24.505688 0.701573 -24.951325 34.979845 -0.028621 2.365000 0.032342 0.002566 -1479130.000000 0 0 1
-23.238888 0.718873 -24.425425 33.721863 -0.030924 2.380844 0.036656 -0.000449 -433616.000000 0 0 1
-22.138188 0.252873 -25.465225 33.743755 -0.011422 2.425939 0.021667 0.001459 206241.000000 0 0 1
-22.009288 1.109473 -26.599485 34.542326 -0.050367 2.449723 0.000509 0.001744 348273.000000 0 0 1
-20.959588 0.584073 -27.410585 34.510659 -0.027859 2.488592 -0.012254 0.001859 205877.000000 0 0 1
-20.758288 1.244873 -28.828265 35.546098 -0.059898 2.516674 -0.013652 0.006297 122597.000000 0 0 1
-19.967488 2.454373 -28.752175 35.091481 -0.122305 2.531071 -0.011662 0.006106 605731.000000 0 0 1
-19.952188 3.271573 -29.978505 36.159421 -0.162524 2.548229 -0.015877 0.009403 280620.000000 0 0 1
-19.217488 2.652273 -31.266405 36.795848 -0.137147 2.586263 -0.022423 0.009626 1424210.000000 0 0 1
-17.785688 2.524073 -31.084475 35.901897 -0.140975 2.617577 -0.026735 0.012819 875480.000000 0 0 1
-17.335488 1.717873 -32.142065 36.559302 -0.098773 2.644927 -0.028078 0.017526 576594.000000 0 0 1
-15.779988 1.661273 -32.295255 35.982653 -0.104891 2.684916 -0.016548 0.004941 542654.000000 0 0 1
-15.195088 2.941973 -32.548215 36.040702 -0.191247 2.697722 -0.009732 0.004138 1406590.000000 0 0 1
-13.787888 2.790673 -32.898465 35.779920 -0.199702 2.737520 -0.011105 0.004226 1099170.000000 0 0 1
-13.180088 4.070073 -33.376875 36.115038 -0.299515 2.749685 0.002987 0.013381 -467107.000000 0 0 1
-13.018088 5.013473 -32.343955 35.224096 -0.367610 2.734394 0.015666 -0.002381 180672.000000 0 0 1
-12.502588 6.215473 -32.843125 35.687780 -0.461353 2.739619 0.014027 0.001800 -302868.000000 0 0 1
-12.140288 7.250673 -31.770885 34.775681 -0.538388 2.722835 0.018960 -0.002652 -67529.800000 0 0 1
-10.997588 6.947273 -30.962095 33.583669 -0.563409 2.743853 0.036651 -0.012660 650559.000000 0 0 1
-11.229088 6.035073 -29.927675 32.529682 -0.493157 2.738906 0.029916 -0.017104 180621.000000 0 0 1
-9.921588 5.225373 -29.660025 31.708981 -0.484753 2.780135 0.047018 -0.025530 216194.000000 0 0 1
-9.378888 4.333373 -30.624095 32.319914 -0.432817 2.816215 0.040529 -0.022331 379870.000000 0 0 1
-10.152488 3.184073 -30.958815 32.736211 -0.303909 2.810555 0.038600 -0.017773 -285860.000000 0 0 1
-9.476488 2.365273 -32.031685 33.487717 -0.244596 2.845625 0.039665 -0.017805 -193266.000000 0 0 1
-10.336988 1.303073 -32.413665 34.046982 -0.125398 2.830591 0.038812 -0.016835 267408.000000 0 0 1
-9.965088 0.563173 -33.514625 34.969275 -0.056455 2.852146 0.029526 -0.011341 -524152.000000 0 0 1
-10.521988 1.168273 34.096683 35.702393 -0.110579 0.301052 0.024414 -0.005199 575778.000000 0 0 1
-11.945488 1.121173 33.954491 36.011931 -0.093583 0.339661 -0.010409 0.000177 346760.000000 0 0 1
-12.133288 1.478673 32.620957 34.835757 -0.121271 0.358507 -0.016468 0.011262 -446217.000000 0 0 1
-13.528588 1.317773 32.037747 34.801960 -0.097100 0.401251 -0.018177 0.015863 -793020.000000 0 0 1
-14.412988 2.339673 32.262097 35.412585 -0.160927 0.425010 -0.016532 0.022670 320125.000000 0 0 1
-15.671088 2.210773 31.583557 35.326924 -0.140148 0.464521 -0.015515 0.018025 1098130.000000 0 0 1
-16.488488 3.546773 31.385377 35.629927 -0.211877 0.493097 -0.005114 0.017092 135755.000000 0 0 1
-17.148388 4.024273 32.540847 37.002280 -0.230503 0.496137 -0.008967 0.012795 334455.000000 0 0 1
-16.375388 4.959973 33.300570 37.439052 -0.294108 0.474632 -0.008722 0.017641 234351.000000 0 0 1
-17.168888 5.347473 -34.331409 38.755797 -0.301940 2.659096 -0.007683 0.016864 758710.000000 0 0 1
-18.396988 6.015073 34.299243 39.383605 -0.316003 0.513763 -0.016687 0.013908 527970.000000 0 0 1
-19.423088 5.699373 -33.647895 39.267289 -0.285421 2.600010 -0.016636 0.018929 867356.000000 0 0 1
-20.662088 6.645973 -33.827925 40.192279 -0.311199 2.571132 -0.017549 0.012965 -3831.120000 0 0 1
-20.544788 8.013973 -33.453525 40.068072 -0.371920 2.558779 -0.022299 0.012097 197990.000000 0 0 1
-19.837488 8.736773 34.434664 40.689104 -0.414856 0.561820 -0.023644 0.010175 -142931.000000 0 0 1
-19.560188 10.170773 -33.992455 40.515831 -0.479498 2.566224 -0.020716 0.005232 -393581.000000 0 0 1
-18.358088 10.318473 -33.255775 39.362886 -0.512060 2.577083 -0.014223 0.009193 296240.000000 0 0 1
-17.947388 11.693873 -33.063345 39.395941 -0.577474 2.566713 0.004283 0.002126 33428.100000 0 0 1
-17.312988 12.421273 -34.288944 40.370277 -0.622344 2.585570 0.003683 -0.009573 -797344.000000 0 0 1
-18.210488 12.693873 33.562697 40.239420 -0.608753 0.584342 -0.001530 -0.005055 -260547.000000 0 0 1
-17.652388 12.884873 32.306827 39.004587 -0.630527 0.594760 0.006688 0.001533 -802729.000000 0 0 1
-18.492988 12.319773 31.199037 38.303359 -0.587670 0.618887 0.001899 -0.003267 -402587.000000 0 0 1
-18.779288 10.878473 31.198817 38.004855 -0.525045 0.607782 -0.006557 -0.001189 -148455.000000 0 0 1
-17.680788 10.028573 30.977737 37.051352 -0.515954 0.580706 -0.010648 -0.004629 -114490.000000 0 0 1
-18.038588 8.556173 31.031907 36.899566 -0.442898 0.571699 -0.009657 0.006023 174812.000000 0 0 1
-18.865088 8.002073 30.007637 36.337075 -0.401170 0.599154 -0.005562 0.002072 250496.000000 0 0 1
-18.848488 6.564773 30.155197 36.162102 -0.335152 0.584679 0.007189 0.007877 -345578.000000 0 0 1
-19.510388 5.851773 29.007427 35.444736 -0.291394 0.612202 0.010490 0.006992 -418156.000000 0 0 1
-20.902088 5.983373 28.914687 36.176749 -0.278802 0.644731 0.016571 -0.000291 -455960.000000 0 0 1
-21.526988 4.989973 28.166577 35.800378 -0.227778 0.665242 0.011825 0.003771 498639.000000 0 0 1
-23.054488 5.211173 27.940007 36.596581 -0.222301 0.702144 -0.007516 0.013864 385959.000000 0 0 1
-23.357688 6.055973 26.836937 36.089854 -0.253685 0.732336 -0.019221 0.009255 1659980.000000 0 0 1
-24.760288 6.414273 26.675677 36.956819 -0.253483 0.764387 -0.002000 0.008866 1086090.000000 0 0 1
-25.068688 7.155473 25.338717 36.355061 -0.278041 0.799620 -0.005082 0.005107 -374077.000000 0 0 1
-24.864188 6.451173 24.080057 35.209297 -0.253859 0.817685 0.002717 0.008815 516976.000000 0 0 1
-25.639418 5.282773 23.943957 35.476760 -0.203197 0.829941 -0.000034 0.010323 -346942.000000 0 0 1
-25.532638 4.726973 22.530887 34.378783 -0.183062 0.856121 0.010517 0.017955 -371120.000000 0 0 1
-26.306658 5.480973 21.651787 34.509146 -0.205411 0.892559 0.013695 0.012320 -71974.900000 0 0 1
-26.377498 4.877273 20.336287 33.661918 -0.182838 0.922118 0.018340 0.003858 -270419.000000 0 0 1
-27.434858 5.481773 19.399787 34.045161 -0.197213 0.964503 0.024720 -0.001511 715323.000000 0 0 1
-28.791378 5.127073 19.695787 35.258394 -0.176229 0.978084 0.028310 0.001221 760262.000000 0 0 1
-29.660378 5.403573 18.594287 35.421521 -0.180205 1.018148 0.032611 0.002563 387891.000000 0 0 1
-31.143518 5.538173 19.017687 36.908840 -0.175988 1.029484 0.031775 0.002828 16577.700000 0 0 1
-31.430818 6.742573 19.640087 37.670832 -0.211318 1.022352 0.038447 0.004277 533990.000000 0 0 1
-32.675628 6.667273 20.343787 39.064291 -0.201281 1.023035 0.035929 0.000953 526778.000000 0 0 1
-33.054808 7.886773 21.231987 40.070173 -0.234218 1.012349 0.039667 -0.001696 -119910.000000 0 0 1
-32.381108 8.003173 22.502187 40.235995 -0.242300 0.977309 0.034138 0.000936 454979.000000 0 0 1
-32.822438 9.143373 23.257687 41.253287 -0.271683 0.971844 0.046715 0.006638 92542.900000 0 0 1
-0.070288 32.660273 12.022375 34.802814 -1.568644 1.218086 0.032318 -0.002570 -99660.000000 0 0 1
-0.419488 33.021573 13.317475 35.608361 -1.558094 1.187480 0.031677 -0.002382 10769.200000 0 0 1
-0.330588 34.359473 13.591775 36.951577 -1.561175 1.194126 0.030833 -0.005686 -185003.000000 0 0 1
-0.297188 -34.398942 15.072675 37.557436 1.562157 1.157835 0.026081 0.001108 390164.000000 0 0 1
-1.515988 34.546473 15.766975 38.004664 -1.526942 1.142997 0.018794 0.008833 -47874.000000 0 0 1
-1.189788 -34.263542 17.126175 38.323775 1.536086 1.107520 0.012858 0.000817 -211673.000000 0 0 1
-2.303988 -34.062242 18.142675 38.661367 1.503259 1.082331 0.012071 0.001678 -519690.000000 0 0 1
-3.059688 33.879273 18.427675 38.687802 -1.480729 1.074335 -0.000576 0.003831 133323.000000 0 0 1
-3.905588 34.180373 19.536575 39.562979 -1.457026 1.054331 0.001422 -0.000801 294782.000000 0 0 1
-4.911088 33.035873 19.859775 38.857410 -1.423218 1.034340 0.007007 -0.004498 860586.000000 0 0 1
-5.888688 32.723573 18.848675 38.220170 -1.392749 1.055077 0.006730 -0.005503 -89097.100000 0 0 1
-6.989288 32.029973 19.314175 38.050055 -1.355953 1.038400 0.020030 -0.018498 -202497.000000 0 0 1
-8.056288 31.948073 18.156575 37.619733 -1.323778 1.067136 0.010270 -0.018360 -168675.000000 0 0 1
-8.633088 33.165373 17.839975 38.635953 -1.316143 1.090834 0.017164 -0.018613 -102801.000000 0 0 1
-9.485888 33.080973 16.707075 38.255185 -1.291542 1.118839 0.026455 -0.006491 102097.000000 0 0 1
-10.474988 34.251673 16.530875 39.448350 -1.274005 1.138396 0.054464 -0.021293 -89486.200000 0 0 1
-11.510888 34.267573 17.477875 40.152748 -1.246727 1.120442 0.047548 -0.019256 -31953.000000 0 0 1
-12.371088 -33.735342 17.321875 39.889403 1.219313 1.121594 0.032441 -0.017909 -235116.000000 0 0 1
-13.718588 -33.815542 18.059775 40.716655 1.185395 1.111243 0.047734 -0.023051 -85811.900000 0 0 1
-13.724788 -33.480842 19.440975 41.076612 1.181759 1.077779 0.046618 -0.016691 -45728.100000 0 0 1
-14.929788 -33.915142 20.019175 42.117725 1.156113 1.075475 0.040117 -0.021037 -147412.000000 0 0 1
-15.008988 -33.555142 21.523875 42.596883 1.150196 1.041076 0.040638 -0.029555 -386350.000000 0 0 1
-15.022788 -32.133842 21.656175 41.560292 1.133480 1.022682 0.048659 -0.026299 65004.100000 0 0 1
-14.854388 -31.741542 23.017675 41.928411 1.133092 0.989658 0.036492 -0.017426 185325.000000 0 0 1
-14.621088 -30.173342 23.185275 40.764736 1.119569 0.965801 0.046066 -0.022178 17988.700000 0 0 1
-14.648788 -29.853042 24.556875 41.338011 1.114619 0.934711 0.030658 -0.028564 -268503.000000 0 0 1
-14.471688 -28.426942 24.814175 40.413662 1.099908 0.909672 0.020963 -0.003562 -96897.100000 0 0 1
-15.571488 -27.442042 24.361475 39.862493 1.054668 0.913299 0.040951 -0.004350 -635590.000000 0 0 1
-16.788788 -27.607142 24.990975 40.848090 1.024419 0.912459 0.052065 -0.005891 -464005.000000 0 0 1
-17.791688 -26.763742 24.430275 40.369300 0.984109 0.920817 0.057927 0.001312 -1043720.000000 0 0 1
-18.913188 -26.471442 25.405475 41.278130 0.950421 0.907813 0.054898 -0.007433 -550822.000000 0 0 1
-19.720388 -27.567042 25.801175 42.597372 0.949835 0.920153 0.057348 -0.013256 233334.000000 0 0 1
-20.513688 -28.165142 24.783775 42.758883 0.941305 0.952538 0.048278 -0.010994 -1010850.000000 0 0 1
-21.934188 -27.627442 24.643175 43.031038 0.899769 0.961020 0.044240 -0.008895 -906207.000000 0 0 1
-21.972588 -26.283742 24.135375 41.906396 0.874500 0.957048 0.061704 -0.007967 512373.000000 0 0 1
-23.328588 -26.044542 23.755775 42.271480 0.840352 0.974017 0.058462 -0.008301 367320.000000 0 0 1
-23.836288 -24.629642 23.465175 41.537962 0.801766 0.970473 0.049634 0.002792 -84996.600000 0 0 1
-24.145788 -23.825442 24.582675 41.892465 0.778720 0.943690 0.038154 -0.001840 -201113.000000 0 0 1
-24.839788 -22.722142 24.111575 41.408681 0.740904 0.949262 0.026391 0.003252 -43147.300000 0 0 1
-25.362878 -21.879442 25.317875 41.987859 0.711796 0.923564 0.028918 0.004568 471639.000000 0 0 1
-26.487238 -22.496442 25.959575 43.376989 0.704106 0.929214 0.022882 0.005066 566413.000000 0 0 1
-26.708538 -21.910042 27.241775 43.994434 0.687020 0.903061 0.006685 0.003925 -1055260.000000 0 0 1
-27.975468 -22.375242 27.977575 45.453525 0.674629 0.907750 -0.001300 0.001950 -35840.200000 0 0 1
-29.207288 -21.725242 27.667875 45.722676 0.639540 0.920875 0.002083 0.000449 942741.000000 0 0 1
-29.810598 -21.943742 26.372575 45.450107 0.634549 0.951757 0.010036 0.000459 -471377.000000 0 0 1
-30.575748 -23.244142 26.198075 46.491995 0.650007 0.972184 -0.007168 0.005091 -264650.000000 0 0 1
-31.212048 -23.332542 24.914175 46.252736 0.641931 1.001959 -0.023737 0.002154 295205.000000 0 0 1
-30.791458 -24.576342 24.437975 46.360814 0.673615 1.015582 -0.024543 0.001694 -252715.000000 0 0 1
-31.487438 -25.093042 23.177675 46.457767 0.672861 1.048470 -0.022591 0.000912 351807.000000 0 0 1
-32.780308 -25.673942 23.393575 47.759389 0.664420 1.058911 -0.019104 0.005180 356860.000000 0 0 1
-33.210538 -26.163442 22.167375 47.737386 0.667261 1.087883 -0.008078 0.002708 -373299.000000 0 0 1
-34.426859 -27.109642 22.210975 49.127067 0.667045 1.101664 0.009894 -0.002935 -589851.000000 0 0 1
-34.386173 -28.334342 22.953475 50.120912 0.689207 1.095095 0.015734 -0.004785 -691195.000000 0 0 1
-33.296578 -29.172542 22.858975 49.822003 0.719477 1.094138 0.008754 -0.002372 -1488500.000000 0 0 1
-33.483718 -30.312542 21.831075 50.165779 0.735731 1.120560 0.014891 -0.002618 -281826.000000 0 0 1
-33.533408 -29.832342 20.459475 49.325938 0.727056 1.143094 -0.006678 0.003742 677215.000000 0 0 1
-34.073038 -30.853742 19.574075 49.960681 0.735855 1.168220 0.000499 0.001691 -175548.000000 0 0 1
-34.609173 -30.375942 18.239875 49.529645 0.720349 1.193658 -0.005724 0.001755 -640290.000000 0 0 1
-33.617838 -29.964142 17.347475 48.259131 0.727997 1.203102 0.006653 0.001382 200877.000000 0 0 1
-34.159238 -29.631142 16.054675 47.985526 0.714533 1.229644 0.006842 0.012585 257827.000000 0 0 1
-34.610229 -30.775742 15.119075 48.719612 0.726821 1.255258 0.001384 0.009298 -50285.700000 0 0 1
-33.504928 -31.394842 14.515975 48.155268 0.752897 1.264593 0.008263 0.005937 -4063.910000 0 0 1
-33.864128 -32.159942 13.339375 48.569331 0.759592 1.292575 0.020667 -0.000923 140316.000000 0 0 1
-34.182198 -31.438442 11.983575 47.962530 0.743610 1.318268 0.014589 0.001264 68151.700000 0 0 1
-35.327781 -30.625342 11.909875 48.247371 0.714219 1.321368 0.011303 0.002727 70082.700000 0 0 1
35.396431 -29.940742 10.724375 47.585371 -0.702091 1.343472 0.011918 0.008294 -290394.000000 0 0 1
34.180727 -29.018442 10.795375 46.118675 -0.703896 1.334526 0.037904 0.016973 -312138.000000 0 0 1
34.143317 -28.229342 9.673875 45.345845 -0.690864 1.355809 0.042870 -0.017473 892665.000000 0 0 1
33.064447 -27.262242 9.764975 43.952727 -0.689513 1.346757 0.049222 -0.016001 549959.000000 0 0 1
33.143127 -26.226342 8.609275 43.132441 -0.669417 1.369846 0.053454 -0.016564 -176042.000000 0 0 1
34.250407 -25.377042 8.705175 43.507065 -0.637669 1.369350 0.049312 -0.017707 -219402.000000 0 0 1
34.455197 -24.557042 7.573175 42.983274 -0.619215 1.393683 0.057129 -0.025779 -38394.100000 0 0 1
35.117429 -23.243242 7.952075 42.856943 -0.584676 1.384166 0.065270 -0.026373 -567493.000000 0 0 1
34.243467 -22.258742 8.401375 41.697118 -0.576385 1.367922 0.057494 -0.019919 -285599.000000 0 0 1
34.788620 -20.950242 8.247075 41.438809 -0.542047 1.370440 0.065521 -0.020596 -10822.300000 0 0 1
33.895227 -19.908242 8.899175 40.304091 -0.531063 1.348161 0.068035 -0.011946 -83468.800000 0 0 1
33.978737 -19.950742 10.319475 40.731784 -0.530920 1.314653 0.060145 -0.014217 148121.000000 0 0 1
33.247567 -18.932342 11.040775 39.821263 -0.517642 1.289857 0.072561 -0.003203 91912.000000 0 0 1
33.637067 -18.849742 12.496075 40.532911 -0.510782 1.257397 0.061064 -0.017272 -126432.000000 0 0 1
34.840716 -18.182142 12.785275 41.327098 -0.480986 1.256268 0.022594 -0.007730 -13769.900000 0 0 1
35.182208 -18.553242 14.094875 42.198057 -0.485285 1.230234 0.018707 -0.001725 -665209.000000 0 0 1
-34.428460 -17.892442 14.659275 41.477134 0.479282 1.209561 0.023149 -0.010658 -704344.000000 0 0 1
-33.250028 -18.104842 13.937975 40.343733 0.498615 1.218046 0.008396 -0.005146 -255873.000000 0 0 1
-32.135278 -17.511742 14.533975 39.377323 0.498949 1.192761 -0.001528 -0.009734 -424013.000000 0 0 1
-30.779928 -17.528042 13.841575 38.029270 0.517663 1.198268 0.012697 -0.007213 -193208.000000 0 0 1
-30.260678 -18.849542 13.607775 38.159997 0.557092 1.206172 0.001054 -0.008022 236236.000000 0 0 1
-29.147748 -18.789942 12.737775 36.944607 0.572601 1.218792 -0.031433 0.004598 -260958.000000 0 0 1
-28.587708 -20.147742 12.357375 37.093035 0.613920 1.231159 -0.041259 0.001583 -563425.000000 0 0 1
-29.288118 -20.890542 11.403775 37.739299 0.619581 1.263826 -0.033676 0.006479 -668498.000000 0 0 1
-28.430508 -21.726042 10.648975 37.332497 0.652515 1.281532 -0.033267 0.009172 -117977.000000 0 0 1
-29.215978 -22.673142 9.651375 38.220332 0.659967 1.315513 -0.029722 0.003979 287169.000000 0 0 1
-29.728428 -23.875642 10.159175 39.459277 0.676643 1.310404 -0.023526 0.003128 -983910.000000 0 0 1
-30.969828 -23.687842 10.739575 40.442336 0.652949 1.302019 -0.008637 -0.004969 -1208660.000000 0 0 1
-31.686838 -25.068042 10.882175 41.843567 0.669302 1.307704 0.007453 -0.011113 -58103.500000 0 0 1
-31.985318 -25.634542 9.636275 42.107577 0.675623 1.339901 0.007006 -0.008555 -95695.900000 0 0 1
-32.526718 -26.941142 9.812775 43.360155 0.691747 1.342510 0.016891 -0.003000 151754.000000 0 0 1
-32.766668 -27.759042 8.556575 43.788513 0.702851 1.374124 0.021892 -0.001856 1005210.000000 0 0 1
-31.555068 -27.923942 7.782575 42.849006 0.724425 1.388155 0.004394 -0.010300 585203.000000 0 0 1
-31.800678 -28.599042 6.592775 43.274160 0.732440 1.417852 0.008518 -0.009468 36110.400000 0 0 1
-30.515088 -28.932942 5.792675 42.448095 0.758791 1.433904 0.012638 -0.007174 559121.000000 0 0 1
-29.840418 -27.843742 5.158175 41.137954 0.750798 1.445078 0.018614 -0.004298 407667.000000 0 0 1
-28.731978 -28.258642 4.352875 40.534243 0.777093 1.463201 0.019941 -0.009359 486600.000000 0 0 1
-27.942678 -27.107942 3.633775 39.100359 0.770236 1.477727 0.015454 -0.008371 -38333.400000 0 0 1
-28.514308 -26.547942 2.499875 39.039830 0.749702 1.506719 0.023179 -0.009184 -988166.000000 0 0 1
-27.706958 -25.594542 1.955075 37.770073 0.745787 1.519011 0.017013 -0.018049 -884553.000000 0 0 1
-28.131648 -25.024342 0.614375 37.656138 0.727008 1.554480 0.017460 -0.015741 -259959.000000 0 0 1
-27.838048 -25.882342 -0.452525 38.013909 0.749009 1.582701 0.020384 -0.016297 -323595.000000 0 0 1
-27.944928 -25.312842 -1.767325 37.746289 0.736017 1.617635 0.027104 -0.020400 954050.000000 0 0 1
-29.362158 -25.088942 -2.447525 38.698600 0.707081 1.634084 0.037262 -0.016106 844582.000000 0 0 1
-30.001028 -23.913742 -2.039325 38.419885 0.672969 1.623901 0.032276 -0.011059 -1408920.000000 0 0 1
-31.271328 -23.954542 -2.572325 39.475725 0.653677 1.636005 0.043535 -0.011667 -788001.000000 0 0 1
-32.093108 -22.686442 -2.211425 39.364103 0.615338 1.627005 0.041468 -0.021379 7912.410000 0 0 1
-32.360858 -22.452242 -0.862025 39.396337 0.606559 1.592679 0.051927 -0.022820 231928.000000 0 0 1
-33.254858 -21.365542 -0.643325 39.532086 0.571070 1.587071 0.049544 -0.013556 54103.500000 0 0 1
-33.319768 -20.825942 0.829875 39.301596 0.558623 1.549679 0.046645 -0.020795 -315393.000000 0 0 1
-33.935848 -21.823142 1.618375 40.379579 0.571488 1.530707 0.051204 -0.025068 33884.500000 0 0 1
-34.156794 -21.326742 2.871075 40.370280 0.558152 1.499618 0.049428 -0.025704 -653582.000000 0 0 1
-35.157220 -22.103842 3.796075 41.701560 0.561266 1.479641 0.068451 -0.014127 2048100.000000 0 0 1
34.299617 -22.000142 3.339675 40.885491 -0.570313 1.489022 0.051744 -0.012833 1366540.000000 0 0 1
33.666827 -20.778442 3.656575 39.731214 -0.552955 1.478633 0.046595 -0.018772 260303.000000 0 0 1
32.239137 -20.675942 2.997075 38.416649 -0.570257 1.492702 0.037831 -0.009686 942332.000000 0 0 1
31.322737 -21.689742 3.371775 38.248236 -0.605648 1.482527 0.039350 -0.006239 -8865.510000 0 0 1
30.038567 -21.281642 2.923975 36.929303 -0.616393 1.491536 0.025097 -0.001276 -81404.700000 0 0 1
28.840307 -22.166942 3.150575 36.511131 -0.655305 1.484398 0.013306 0.015415 -598143.000000 0 0 1
28.836967 -23.283842 2.326575 37.136517 -0.679255 1.508106 0.008242 0.008389 204668.000000 0 0 1
27.633347 -24.031542 2.470775 36.704517 -0.715796 1.503430 0.003448 0.013234 279256.000000 0 0 1
27.440027 -25.110742 1.414075 37.222359 -0.741103 1.532797 0.009118 0.014664 5523.330000 0 0 1
27.129117 -24.584742 0.093375 36.611572 -0.736237 1.568246 0.008967 0.002286 6311.380000 0 0 1
26.608837 -25.619442 -0.727825 36.944766 -0.766457 1.590498 0.011947 0.001128 93021.200000 0 0 1
25.724347 -25.031642 -1.864625 35.941646 -0.771751 1.622699 0.016904 -0.005781 -3451.890000 0 0 1
26.480787 -24.478042 -2.926925 36.179738 -0.746117 1.651784 0.010531 -0.020649 82241.900000 0 0 1
26.873217 -25.407142 -3.913325 37.188798 -0.757363 1.676220 0.017962 -0.019121 -764733.000000 0 0 1
25.770847 -26.018642 -4.816525 36.936502 -0.790183 1.701569 0.019080 -0.024800 105624.000000 0 0 1
25.253447 -25.074142 -5.808125 36.058057 -0.781835 1.732578 0.016145 -0.039131 388659.000000 0 0 1
24.095247 -24.481142 -5.256225 34.749606 -0.793342 1.722639 0.034721 -0.041869 -628638.000000 0 0 1
23.376547 -23.410542 -6.139525 33.648331 -0.786125 1.754286 0.037328 -0.053025 200493.000000 0 0 1
22.742047 -24.080942 -7.296525 33.916540 -0.813985 1.787623 0.037382 -0.050876 332804.000000 0 0 1
21.579847 -23.403542 -7.724525 32.757958 -0.825917 1.808844 0.043349 -0.050593 -351319.000000 0 0 1
21.647847 -22.019142 -8.428425 32.007971 -0.793901 1.837261 0.029484 -0.049870 -881254.000000 0 0 1
22.191947 -22.007042 -9.702225 32.724999 -0.781215 1.871798 0.031517 -0.042392 -111643.000000 0 0 1
22.043747 -20.716242 -10.338925 31.968466 -0.754363 1.900127 0.029771 -0.037949 -303532.000000 0 0 1
22.914047 -20.599842 -11.599825 32.923592 -0.732265 1.930851 0.024267 -0.023173 -66901.700000 0 0 1
24.283647 -20.422342 -11.306325 33.683832 -0.699241 1.913102 0.030804 -0.027187 -391863.000000 0 0 1
24.968447 -20.174742 -12.489525 34.444619 -0.679606 1.941850 0.021404 -0.031566 -348627.000000 0 0 1
26.491667 -20.344042 -12.471825 35.654380 -0.654885 1.928152 0.005050 -0.019257 -72017.000000 0 0 1
26.906117 -21.665142 -12.856725 36.859366 -0.677911 1.927092 0.002434 -0.024985 171752.000000 0 0 1
27.390227 -22.483842 -11.847625 37.364607 -0.687338 1.893447 0.016350 -0.026617 -358142.000000 0 0 1
27.675507 -23.946642 -12.374125 38.632813 -0.713290 1.896843 0.011783 -0.031979 -179347.000000 0 0 1
28.830397 -24.124442 -13.192725 39.840036 -0.696764 1.908310 0.012781 -0.033693 425370.000000 0 0 1
28.926517 -25.386342 -13.770825 40.875975 -0.720309 1.914411 0.011224 -0.026805 -39961.700000 0 0 1
-4.349988 -9.211227 -27.498665 29.324830 1.129595 2.786822 0.030441 0.001312 335044.000000 0 0 1
-3.711888 -7.982427 -27.172665 28.563105 1.135533 2.828288 0.011942 0.006597 473154.000000 0 0 1
-4.429388 -6.965327 -27.888095 29.084035 1.004383 2.853825 0.013587 0.002996 252175.000000 0 0 1
-4.321988 -5.579127 -27.227665 28.127424 0.911692 2.887976 0.013370 -0.005968 -118870.000000 0 0 1
-4.926788 -5.536327 -25.962665 26.999706 0.843588 2.863536 0.017836 -0.008910 174205.000000 0 0 1
-4.624488 -4.348327 -25.212085 25.998905 0.754630 2.894945 0.024048 -0.012045 -127620.000000 0 0 1
-5.291288 -4.281227 -23.849825 24.802032 0.680270 2.863598 0.020501 -0.010193 -150188.000000 0 1 0
-4.566588 -4.987027 -22.844125 23.823900 0.829378 2.853805 0.013602 -0.022841 261576.000000 0 1 0
-5.196688 -4.941227 -21.605325 22.764256 0.760205 2.821130 0.013059 -0.012858 -370301.000000 0 1 0
-4.696088 -5.946327 -20.589525 21.939475 0.902339 2.788968 0.014668 -0.019034 -724538.000000 0 1 0
-5.167788 -7.203427 -20.850325 22.656819 0.948483 2.739559 0.011716 -0.012180 330591.000000 0 1 0
-4.361088 -8.237827 -20.268725 22.309238 1.083908 2.710561 0.017269 -0.014035 -769699.000000 0 1 0
-5.023188 -9.611027 -20.165925 22.896916 1.089195 2.648191 0.027105 -0.015011 -154095.000000 0 1 0
-6.060888 -9.708327 -19.208125 22.359294 1.012702 2.604240 0.022191 -0.015444 -282354.000000 0 1 0
-7.308688 -9.314227 -19.710025 22.992538 0.905467 2.600673 0.020279 -0.012851 -1067380.000000 0 1 0
-8.385688 -9.246627 -18.619925 22.416991 0.834187 2.551010 0.012228 -0.009248 -597517.000000 0 1 0
-9.055888 -10.477027 -18.515525 23.121459 0.858026 2.499416 0.032935 -0.009733 384630.000000 0 1 0
-9.865188 -10.605227 -17.325125 22.582133 0.821534 2.445268 0.026863 -0.005209 174510.000000 0 1 0
-10.593688 -11.963527 -17.211525 23.485927 0.846051 2.393289 0.024883 -0.001440 498602.000000 0 1 0
-11.749488 -12.146027 -18.073625 24.743329 0.801991 2.389769 0.025527 -0.011784 881265.000000 0 1 0
-11.506588 -12.210927 -19.468025 25.700434 0.815086 2.430268 0.029338 -0.011521 -1019280.000000 0 0 1
-12.704288 -11.848127 -20.401525 26.795508 0.750542 2.436233 0.020864 -0.012338 745500.000000 0 0 1
-13.670288 -12.872327 -20.648725 27.909558 0.755344 2.403635 0.015152 -0.002772 300310.000000 0 0 1
-14.473488 -13.258227 -19.536025 27.693297 0.741604 2.353843 0.010233 0.004530 -1235600.000000 0 0 1
-15.496988 -14.239627 -20.004625 29.036333 0.743140 2.330838 0.006106 0.007546 -329966.000000 0 0 1
-14.920588 -15.515027 -20.323725 29.603949 0.804927 2.327489 0.013175 0.020268 780038.000000 0 0 1
-15.921488 -16.172027 -21.114425 30.997535 0.793205 2.320149 0.020321 0.011879 566112.000000 0 0 1
-15.430988 -17.580527 -21.486325 31.762438 0.850421 2.313755 0.011418 0.013154 -72141.700000 0 0 1
-15.533788 -18.506927 -20.459625 31.660720 0.872518 2.273410 0.014063 0.018673 179394.000000 0 0 1
-15.171888 -19.775927 -21.008425 32.597966 0.916384 2.271127 0.012971 0.012566 90684.400000 0 0 1
-15.838388 -20.984027 -20.249125 33.184499 0.924241 2.227107 0.014955 0.005277 -3596.600000 0 0 1
-15.467388 -22.212727 -20.780125 34.124169 0.962538 2.225540 0.013922 0.007435 278040.000000 0 0 1
-16.224688 -23.277527 -20.223525 34.843575 0.962079 2.190027 0.017884 0.006723 44974.300000 0 0 1
-15.753788 -24.685927 -20.685925 35.853651 1.002783 2.185791 0.015899 0.000402 -289449.000000 0 0 1
-15.798388 -24.868827 -22.099825 36.830013 1.004847 2.214359 0.011840 0.005808 321815.000000 0 0 1
-15.272188 -26.199097 -22.273225 37.626174 1.043024 2.204286 0.010714 0.006150 -235140.000000 0 0 1
-15.283788 -26.687047 -23.706925 38.830541 1.050689 2.227517 0.025091 0.005058 -790583.000000 0 0 1
-16.487488 -27.055007 -24.294225 39.925180 1.023489 2.224958 0.030232 0.009776 -729359.000000 0 0 1
-16.796388 -28.437187 -24.089925 40.879295 1.037281 2.200981 0.028848 0.013989 92476.400000 0 0 1
-17.816688 -29.174287 -25.024625 42.365142 1.022548 2.202709 0.037987 0.008908 71423.300000 0 0 1
-17.572488 -29.251337 -26.427715 43.160829 1.029832 2.229773 0.040609 0.010287 -252796.000000 0 0 1
-17.597788 -27.961907 -27.066415 42.709966 1.009076 2.257157 0.058248 -0.000704 8027.000000 0 0 1
-16.505988 -27.711187 -28.142245 42.805881 1.033586 2.288211 0.059416 -0.001050 -268692.000000 0 0 1
-16.452088 -28.466467 -29.293245 44.035272 1.046751 2.298588 0.071200 0.002121 64679.700000 0 0 1
-15.450088 -28.016737 -30.190565 43.989919 1.066833 2.327195 0.029952 0.006949 40969.100000 0 0 1
-15.810888 -28.242017 -31.669255 45.282860 1.060433 2.345305 0.044537 -0.002782 -19905.300000 0 0 1
-15.464588 -29.497387 -32.095375 46.253242 1.087922 2.337695 0.016380 0.001501 897965.000000 0 0 1
-16.431388 -29.874267 -33.114685 47.529409 1.067939 2.341611 0.022787 -0.001289 688027.000000 0 0 1
-16.277788 -31.378297 -33.594995 48.766665 1.092254 2.330757 0.003373 0.000861 -47787.800000 0 0 1
-14.999588 -31.681077 -34.106475 48.907360 1.128609 2.342516 0.004248 -0.001191 -123163.000000 0 0 1
-15.102388 -32.771257 33.888823 49.502422 1.138962 0.816756 -0.007732 0.003853 204436.000000 0 0 1
-13.732588 -33.329317 33.417388 49.154340 1.179965 0.823244 -0.016477 0.003339 396901.000000 0 0 1
-13.070488 -34.186465 34.374142 50.210892 1.205615 0.816748 -0.007137 0.005636 -108677.000000 0 0 1
-12.111288 34.165526 33.668738 49.472724 -1.230128 0.822281 -0.012415 0.003627 -200591.000000 0 0 1
-11.220688 33.386635 -34.254535 49.131908 -1.246573 2.342274 -0.000820 0.004810 -315387.000000 0 0 1
-10.463088 34.237320 -33.431285 48.982865 -1.274206 2.321987 -0.002345 0.007057 -289025.000000 0 0 1
-9.619288 33.561535 -32.527885 47.717613 -1.291663 2.320845 0.007144 -0.000711 -148499.000000 0 0 1
-8.812188 34.524355 -31.700195 47.691594 -1.320887 2.297877 -0.001538 0.000382 -526781.000000 0 0 1
-9.680888 -33.958807 -30.832575 46.878224 1.293086 2.288579 0.007616 0.001625 -297268.000000 0 0 1
-9.131488 -32.776277 -30.272495 45.542204 1.299086 2.297906 0.002299 0.001348 199555.000000 0 0 1
-10.144788 -32.099377 -29.291945 44.624038 1.264687 2.286855 0.007055 0.007508 448279.000000 0 0 1
-10.168888 -32.522837 -27.898475 44.039370 1.267757 2.256851 0.033388 0.006815 -127341.000000 0 0 1
-10.426388 -33.898347 -27.623605 44.954099 1.272402 2.232529 0.038390 0.003371 -6235.580000 0 0 1
-10.692688 -34.337592 -26.188075 44.488415 1.268915 2.200183 0.035001 -0.002467 680315.000000 0 0 1
-9.523288 -34.270253 -25.358245 43.682764 1.299747 2.190150 0.038842 -0.003878 47545.800000 0 0 1
-9.771688 34.485637 -24.007025 43.140263 -1.294679 2.160949 0.037695 -0.005072 -653455.000000 0 0 1
-8.610588 34.283725 -23.073625 42.212654 -1.324729 2.149100 0.053992 -0.001326 -897128.000000 0 0 1
-7.813788 33.164969 -23.253425 41.251572 -1.339412 2.169652 0.044103 -0.013033 -378331.000000 0 0 1
-6.970888 33.049857 -22.124825 40.378140 -1.362923 2.150697 0.046891 -0.010188 -82522.700000 0 0 1
-6.095888 31.765287 -22.032125 39.135762 -1.381197 2.168767 0.039283 -0.017597 -393394.000000 0 0 1
-5.096288 31.849487 -22.993725 39.611531 -1.412130 2.190115 0.023906 -0.023002 -644438.000000 0 0 1
-4.254188 30.696417 -22.852225 38.504445 -1.433084 2.206192 0.019172 -0.014210 -280648.000000 0 0 1
-2.837588 30.962797 -23.370225 38.896197 -1.479407 2.215343 0.013861 -0.019461 -697443.000000 0 0 1
-2.534188 31.179177 -24.723225 39.872309 -1.489696 2.239616 0.018480 -0.022995 -208975.000000 0 0 1
-3.158488 32.288217 -25.349985 41.171917 -1.473285 2.234084 0.019369 -0.023375 -38854.300000 0 0 1
-2.385088 32.690237 -26.687885 42.267995 -1.497965 2.254150 0.013601 -0.012082 -280385.000000 0 0 1
-1.278288 33.496396 -26.423125 42.682831 -1.532653 2.238338 0.010482 -0.018764 -638476.000000 0 0 1
-1.502688 -34.235111 -26.640305 43.405147 1.526931 2.231610 -0.004609 -0.007943 -531026.000000 0 0 1
-0.329288 -33.397587 -27.150145 43.042277 1.560937 2.253352 -0.018782 0.000444 -595870.000000 0 0 1
0.655812 -33.227587 -26.136295 42.280120 -1.551062 2.237209 -0.026167 -0.000549 -215676.000000 0 0 1
1.472012 -32.157977 -26.567715 41.739020 -1.525054 2.260774 -0.028838 0.009588 -605244.000000 0 0 1
2.626412 -31.910897 -25.605435 40.998069 -1.488677 2.245354 -0.031689 0.004821 -1048490.000000 0 0 1
2.311312 -31.216947 -24.408225 39.693846 -1.496891 2.233071 -0.024947 0.000090 276156.000000 0 0 1
3.427512 -30.736707 -23.664925 38.942543 -1.459743 2.223943 -0.026916 0.006125 -137009.000000 0 0 1
3.094612 -30.084287 -22.269925 37.557829 -1.468292 2.205514 -0.015085 0.000400 -437107.000000 0 0 1
3.016812 -31.024887 -21.221225 37.709219 -1.473863 2.168517 -0.013368 0.001009 342885.000000 0 0 1
3.009112 -30.360927 -19.931525 36.443193 -1.472008 2.149478 -0.001383 -0.005244 -580860.000000 0 0 1
2.892412 -31.340007 -18.766225 36.643325 -1.478766 2.108462 -0.001332 -0.001328 -515303.000000 0 0 1
1.667912 -32.021227 -18.701825 37.120064 -1.518756 2.098812 0.009950 -0.005999 -60036.000000 0 0 1
1.503912 -33.174277 -19.499325 38.509974 -1.525494 2.101737 0.006014 0.003085 -699200.000000 0 0 1
2.047912 -34.480616 -18.886825 39.367740 -1.511473 2.071170 -0.002987 -0.010054 -105421.000000 0 0 1
3.461112 -34.473477 -18.851925 39.443567 -1.470732 2.069112 0.005210 -0.010650 -218324.000000 0 0 1
3.782412 33.593197 -18.027725 38.311988 1.458674 2.060711 0.027047 -0.020385 229048.000000 0 0 1
4.964112 32.715697 -18.577525 37.948434 1.420210 2.082366 0.036967 -0.017776 1601260.000000 0 0 1
6.225812 33.425753 -18.646325 38.777921 1.386649 2.072419 0.056787 -0.025563 277889.000000 0 0 1
7.192912 32.790907 -19.402225 38.774062 1.354859 2.094848 0.057490 -0.026811 -1005780.000000 0 0 1
8.508512 33.496919 -19.515225 39.689827 1.322048 2.084830 0.048657 -0.025124 -600040.000000 0 0 1
9.262112 33.618270 -18.302725 39.382287 1.301958 2.054143 0.051831 -0.024756 -195226.000000 0 0 1
10.461812 34.300839 -18.552125 40.375468 1.274757 2.048217 0.057817 -0.010950 -449172.000000 0 0 1
11.377912 34.479018 -17.328325 40.230963 1.252053 2.016088 0.034217 -0.007892 -434878.000000 0 0 1
12.068112 33.312221 -16.984325 39.291357 1.223230 2.017801 0.023865 -0.012588 -660552.000000 0 0 1
12.791712 33.527895 -15.832425 39.222612 1.206318 1.986305 0.011230 -0.011002 -867428.000000 0 0 1
13.976412 32.604267 -15.769325 38.820741 1.165823 1.989098 0.006531 -0.005661 -698058.000000 0 0 1
13.665712 31.370127 -15.183225 37.434835 1.159958 1.988421 0.022589 -0.008420 349877.000000 0 0 1
14.760312 30.442447 -15.349425 37.151235 1.119334 1.996718 0.013817 -0.003340 379808.000000 0 0 1
14.698612 29.152157 -14.487925 35.718307 1.103792 1.988449 0.029463 -0.006918 -341691.000000 0 0 1
15.220312 29.301777 -13.182625 35.553251 1.091723 1.950651 0.038470 -0.015750 151341.000000 0 0 1
14.190412 29.505847 -12.210025 34.943490 1.122516 1.927750 0.020324 -0.013775 356827.000000 0 0 1
13.466212 28.208987 -11.788325 33.407341 1.125414 1.931429 0.014692 -0.008965 -331017.000000 0 0 1
12.456512 27.883657 -12.720125 33.082693 1.150664 1.965457 0.024798 0.001054 -123239.000000 0 0 1
11.921312 26.535077 -12.685525 31.735635 1.148553 1.982013 0.040053 0.001023 43474.800000 0 0 1
11.062612 26.123217 -11.461625 30.596939 1.170215 1.954762 0.025100 0.006256 -262431.000000 0 0 1
9.871712 26.883867 -11.543025 30.877734 1.218883 1.953931 0.025415 0.007913 171539.000000 0 0 1
9.204312 27.028237 -10.278325 30.346152 1.242570 1.916334 0.012782 0.015166 525476.000000 0 0 1
7.968112 27.965177 -10.251125 30.832248 1.293222 1.909729 0.018154 0.018998 484592.000000 0 0 1
8.423912 29.277517 -10.600725 32.256948 1.290637 1.905653 0.022611 0.014377 45840.100000 0 0 1
7.361512 30.203437 -10.636825 32.856986 1.331727 1.900467 0.030586 0.017343 -56557.400000 0 0 1
7.810412 31.600147 -11.064725 34.380226 1.328489 1.898462 0.052528 0.004501 181087.000000 0 0 1
8.687112 32.172857 -10.104925 34.823385 1.307072 1.865207 0.043751 0.001902 -22828.700000 0 0 1
9.160912 33.512753 -10.369825 36.256864 1.303959 1.860857 0.058685 -0.004264 252124.000000 0 0 1
10.192712 33.797584 -11.488725 37.123562 1.277890 1.885435 0.050578 -0.008998 -106519.000000 0 0 1
11.471212 33.289342 -11.207725 36.951077 1.238948 1.878963 0.032272 -0.005462 -20756.300000 0 0 1
12.449012 33.676137 -12.182825 37.914131 1.216708 1.897927 0.035268 -0.011645 988661.000000 0 0 1
13.907112 33.413358 -11.705225 38.037778 1.176391 1.883599 0.027809 -0.007493 560512.000000 0 0 1
14.497612 34.274608 -10.745825 38.735026 1.170634 1.851903 0.036138 -0.004069 -868749.000000 0 0 1
15.880412 34.233523 -10.815025 39.256673 1.136456 1.849901 0.014610 -0.006255 -513566.000000 0 0 1
16.551812 -33.980400 -9.711125 39.024813 -1.117523 1.822284 0.029418 -0.005295 68145.200000 0 0 1
16.396512 -34.469291 -8.388825 39.081326 -1.126790 1.787130 0.030667 -0.002954 145469.000000 0 0 1
16.777912 -33.433007 -7.436725 38.138815 -1.105680 1.767045 0.028239 -0.002338 -699435.000000 0 0 1
16.887912 -33.972597 -5.984825 38.407774 -1.109468 1.727257 0.032247 0.000670 564090.000000 0 0 1
17.860712 34.098056 -5.685325 38.910222 1.088287 1.717435 0.027029 -0.010809 1191390.000000 0 0 1
19.220112 34.473633 -5.976225 39.919411 1.062190 1.721068 0.031305 -0.010265 246066.000000 0 0 1
20.013112 33.531363 -6.983225 39.669162 1.032698 1.747755 0.028725 -0.006804 544676.000000 0 0 1
20.490212 32.300977 -6.460125 38.793493 1.005500 1.738102 0.041903 -0.001338 11743.400000 0 0 1
21.388112 32.332387 -5.369425 39.136496 0.986374 1.708428 0.019321 0.006037 -401238.000000 0 0 1
21.755012 30.882877 -4.871925 38.088953 0.957099 1.699057 0.012242 0.008015 -95976.800000 0 0 1
22.460912 30.065097 -5.763525 37.968683 0.929169 1.723182 0.005140 0.008805 -75459.200000 0 0 1
22.833512 28.830767 -5.199625 37.143216 0.900962 1.711246 0.000655 0.017202 68168.900000 0 0 1
23.838612 28.036387 -6.078825 37.299739 0.866143 1.734499 -0.005952 0.022172 -307770.000000 0 0 1
25.156212 28.520267 -6.073225 38.511358 0.847989 1.729157 -0.008151 0.017390 -556482.000000 0 0 1
26.010812 27.637437 -6.760825 38.549955 0.815709 1.747086 -0.018139 0.021127 124710.000000 0 0 1
26.873512 26.741747 -5.815625 38.355289 0.782941 1.723009 -0.015282 0.019556 -1208050.000000 0 0 1
27.973612 27.336167 -5.278125 39.467045 0.773874 1.704933 -0.018581 0.014901 -1316790.000000 0 0 1
28.688212 26.382357 -4.543425 39.238820 0.743552 1.686846 -0.012321 0.023922 -575265.000000 0 0 1
29.914412 26.954087 -3.856925 40.450844 0.733389 1.666290 -0.011295 0.017192 -684183.000000 0 0 1
29.626312 27.986447 -2.934125 40.860356 0.756942 1.642667 0.006583 0.001625 -484008.000000 0 0 1
30.555412 28.087907 -1.907525 41.547592 0.743346 1.616724 0.012838 -0.001781 -293594.000000 0 0 1
30.287212 29.302557 -0.993125 42.153782 0.768876 1.594358 0.006704 -0.004030 38456.800000 0 0 1
30.586912 30.498717 -1.714425 43.228118 0.783954 1.610467 -0.012414 0.003146 -281723.000000 0 0 1
29.751812 31.549547 -1.383825 43.387316 0.814716 1.602696 0.006417 -0.008237 -1061690.000000 0 0 1
32.797627 22.788973 19.198587 44.312609 0.607252 1.122697 0.028369 -0.002180 127017.000000 0 0 1
32.885587 22.637673 20.591687 44.921527 0.602882 1.094611 0.010673 0.002662 69031.000000 0 0 1
33.524197 23.828073 21.053587 46.205003 0.617919 1.097687 0.015711 0.001518 -146809.000000 0 0 1
33.614417 24.056773 22.553087 47.088205 0.621164 1.071333 0.010603 0.008382 189029.000000 0 0 1
32.378177 24.318373 23.207787 46.672593 0.644187 1.050374 -0.003941 0.011860 421442.000000 0 0 1
32.597057 24.794173 24.517877 47.733064 0.650267 1.031368 -0.006077 0.009498 -150029.000000 0 0 1
31.280157 25.175673 25.208597 47.410295 0.677688 1.010176 0.009934 0.007617 -176705.000000 0 0 1
30.711647 26.352373 24.755407 47.439256 0.709154 1.021797 -0.007480 0.011754 -132228.000000 0 0 1
29.430287 26.674073 25.210077 47.044616 0.736311 1.005251 0.002092 0.001068 -256569.000000 0 0 1
29.227057 28.218773 25.428897 47.928580 0.767848 1.011537 -0.006581 0.004388 -165983.000000 0 0 1
29.444047 29.071373 24.276177 47.973215 0.779029 1.040214 -0.012999 -0.002952 433501.000000 0 0 1
29.130367 30.445473 24.565867 48.774859 0.807469 1.042968 -0.011750 0.006754 -68362.500000 0 0 1
29.336097 31.311973 23.305387 48.828140 0.817966 1.073223 -0.020741 0.001909 648610.000000 0 0 1
30.691257 31.660073 22.989187 49.727419 0.800935 1.090204 -0.028116 0.006229 488911.000000 0 0 1
30.775847 32.444573 21.832187 49.763917 0.811787 1.116628 -0.027788 0.008623 483397.000000 0 0 1
32.194827 33.053373 21.595187 50.944916 0.798556 1.133057 -0.014260 -0.004365 566802.000000 0 0 1
32.520227 33.929173 22.666787 52.177937 0.806598 1.121410 -0.002229 0.002568 107773.000000 0 0 1
33.868237 34.341773 22.516987 53.229968 0.792340 1.134028 0.002779 0.000082 372225.000000 0 0 1
34.340247 -33.583942 23.386787 53.423548 -0.774264 1.117689 0.014002 -0.000243 36215.600000 0 0 1
33.656587 -32.383142 22.996187 52.060141 -0.766118 1.113277 -0.005733 0.006608 558562.000000 0 0 1
34.166777 -31.199942 23.668487 51.971168 -0.740042 1.097957 0.008935 0.007734 -398025.000000 0 0 1
33.176847 -30.004642 23.563687 50.559164 -0.735232 1.085962 0.001530 -0.003128 292246.000000 0 0 1
31.874127 -30.298542 24.023897 50.110969 -0.760061 1.070810 0.000937 0.003547 -88733.700000 0 0 1
30.949327 -30.614242 23.038987 49.253300 -0.779955 1.084036 0.003457 0.009293 -638829.000000 0 0 1
30.229117 -31.959442 23.197687 49.732666 -0.813215 1.085526 0.003928 0.018312 -418547.000000 0 0 1
29.327987 -32.151642 24.236687 49.812407 -0.831294 1.062649 -0.009483 0.012531 -98497.900000 0 0 1
28.840767 -33.470142 24.308407 50.427560 -0.859557 1.067808 -0.013524 0.017218 -668310.000000 0 0 1
27.783267 -33.629342 25.370437 50.462873 -0.880306 1.044014 -0.012467 0.017080 -550666.000000 0 0 1
27.621617 34.093573 25.703827 50.852848 0.889884 1.040887 -0.016833 0.011487 22355.100000 0 0 1
26.618027 33.969573 26.677077 50.735763 0.906145 1.017136 -0.015895 0.005683 -488352.000000 0 0 1
26.472947 32.486273 27.086307 49.898325 0.887038 0.996993 -0.013476 0.011075 142269.000000 0 0 1
26.032087 31.583373 26.091417 48.538037 0.881452 1.003272 -0.017899 0.016726 1332120.000000 0 0 1
24.609647 31.719273 25.805857 47.725143 0.910951 0.999506 -0.007596 0.012681 1052300.000000 0 0 1
24.076547 31.308873 24.448957 46.450803 0.915245 1.016505 0.011895 -0.007337 -162222.000000 0 0 1
24.177547 32.291173 23.378287 46.624220 0.928105 1.045558 0.020322 -0.007345 298668.000000 0 0 1
25.497347 32.556573 22.925687 47.282473 0.906402 1.064586 -0.002826 -0.001899 -27600.100000 0 0 1
25.727847 33.529573 21.724787 47.519688 0.916303 1.095981 0.001884 -0.000287 916879.000000 0 0 1
27.125757 33.657573 21.392787 48.231631 0.892448 1.111249 0.002689 0.002347 1163320.000000 0 0 1
27.112327 34.328673 20.123787 48.150834 0.902314 1.139628 -0.008791 -0.005809 -152248.000000 0 0 1
28.498107 -34.378842 19.592287 48.763763 -0.878655 1.157337 0.000462 -0.011302 -258996.000000 0 0 1
29.186237 33.696473 18.950687 48.439831 0.857000 1.168838 0.010735 -0.021191 -528023.000000 0 0 1
30.194357 34.222773 18.146487 49.114075 0.847853 1.192351 0.016545 -0.009142 -896957.000000 0 0 1
31.079907 33.185673 17.509587 48.722019 0.818153 1.203196 0.012879 -0.015365 -647660.000000 0 0 1
31.807067 32.410573 18.447087 49.014587 0.794796 1.184933 0.012103 -0.008632 237851.000000 0 0 1
32.580987 31.371373 17.857487 48.626881 0.766486 1.194762 0.025609 -0.021706 469252.000000 0 0 1
33.586167 30.646573 18.807487 49.203299 0.739665 1.178577 0.021389 -0.024696 58363.500000 0 0 1
34.698317 31.397373 19.194587 50.578655 0.735498 1.181541 0.033481 -0.016686 102820.000000 0 0 1
-35.403394 30.699173 20.203787 51.029722 -0.714352 1.163725 0.031018 -0.013787 182581.000000 0 0 1
-34.290632 31.512473 20.925587 51.056474 -0.743204 1.148505 0.052721 -0.011606 342489.000000 0 0 1
-33.361338 31.958373 19.911687 50.306975 -0.763923 1.163853 0.048568 -0.016949 1262800.000000 0 0 1
-32.151178 32.544573 20.481387 50.123195 -0.791479 1.149854 0.038685 -0.013847 1065490.000000 0 0 1
-32.190858 33.951773 21.128787 51.336146 -0.812015 1.146612 0.036872 -0.007312 -486175.000000 0 0 1
-32.689238 34.077873 22.428587 52.277425 -0.806193 1.127378 0.047381 -0.011453 233975.000000 0 0 1
-32.445508 -33.739642 22.985587 52.147978 0.804949 1.114333 0.043333 -0.007275 -128179.000000 0 0 1
-32.428498 -33.774042 24.516057 52.851967 0.805720 1.088446 0.056230 -0.016339 496270.000000 0 0 1
-33.697068 -34.130642 25.082777 54.125214 0.791790 1.088944 0.050772 -0.009331 416553.000000 0 0 1
-33.604738 -34.444442 26.429537 54.901898 0.797737 1.068550 0.060049 -0.008576 -541186.000000 0 0 1
-34.957050 34.325073 27.003607 55.941047 -0.776277 1.067044 0.050962 -0.010486 -495235.000000 0 0 1
-34.877276 33.704273 28.281037 56.144629 -0.768296 1.042900 0.067253 -0.005237 -319797.000000 0 0 1
34.694437 33.519573 28.855177 56.212872 0.768177 1.031748 0.063175 -0.013916 -134328.000000 0 0 1
34.726687 32.459073 29.975217 56.196511 0.751660 1.008181 0.061516 -0.004165 -75018.000000 0 0 1
34.623557 31.085173 29.524717 55.107055 0.731601 1.005377 0.053177 -0.002391 93381.500000 0 0 1
-35.079712 30.524273 28.913497 54.756805 -0.716071 1.014512 0.048189 0.000210 -66302.900000 0 0 1
-35.376719 29.056773 28.634687 53.997718 -0.687626 1.011849 0.047537 0.003641 -188770.000000 0 0 1
34.493327 28.921673 27.611127 52.807453 0.697763 1.020589 0.037207 0.003195 237388.000000 0 0 1
34.437327 27.635073 27.008707 51.759994 0.676248 1.021829 0.034734 -0.001862 82270.000000 0 0 1
33.848247 26.460673 27.862567 51.207359 0.663510 0.995465 0.026404 -0.000114 294450.000000 0 0 1
34.777562 25.982573 28.879817 52.140356 0.641647 0.983772 0.023476 -0.001439 601411.000000 0 0 1
34.464207 24.696773 29.390437 51.589824 0.621775 0.964662 0.020910 -0.003554 -114121.000000 0 0 1
34.846908 23.531773 28.464527 50.776772 0.593949 0.975708 0.016000 -0.000140 250763.000000 0 0 1
34.005287 23.384473 27.306997 49.486010 0.602404 0.986260 0.016210 0.003185 305142.000000 0 0 1
34.481747 22.366373 26.438327 48.869527 0.575421 0.999173 0.004571 0.002609 -112428.000000 0 0 1
34.536767 20.925073 26.960837 48.554440 0.544730 0.982108 0.008649 -0.008625 179893.000000 0 0 1
33.214367 20.379673 26.996597 47.406133 0.550345 0.964930 0.019937 -0.007544 676919.000000 0 0 1
33.046727 19.125773 27.676657 47.158018 0.524647 0.943582 0.024276 -0.004977 -254988.000000 0 0 1
33.039607 19.343573 29.214227 48.158701 0.529664 0.918989 0.018114 -0.019434 -176009.000000 0 0 1
31.901597 19.980173 29.762407 47.986665 0.559538 0.901770 0.028194 -0.015960 233656.000000 0 0 1
31.918887 21.399473 29.585667 48.498087 0.590605 0.914688 0.026424 -0.011609 -411638.000000 0 0 1
30.599537 22.084173 30.025107 48.223950 0.625152 0.898712 0.043529 -0.022846 488276.000000 0 0 1
29.389307 21.717573 29.351967 46.871338 0.636399 0.894096 0.060739 -0.029070 720255.000000 0 0 1
29.125197 22.486673 28.142547 46.324189 0.657477 0.917871 0.045858 -0.019705 -55553.900000 0 0 1
28.787987 24.015973 28.266897 46.952450 0.695271 0.924752 0.042959 -0.014122 241014.000000 0 0 1
29.983597 24.805573 28.357807 48.150781 0.691170 0.941053 0.039198 -0.013039 427293.000000 0 0 1
29.922177 26.066773 29.053187 49.182324 0.716647 0.938840 0.017132 -0.005148 -233956.000000 0 0 1
30.135077 25.986773 30.568997 50.178669 0.711616 0.915741 0.022726 -0.015212 520602.000000 0 0 1
31.447577 25.542473 30.933727 50.973164 0.682150 0.918689 0.023362 -0.001110 378796.000000 0 0 1
31.618337 25.553173 32.320437 51.935484 0.679706 0.899095 0.030317 -0.002824 14707.200000 0 0 1
31.451147 24.221273 33.138969 51.711082 0.656256 0.875193 0.036731 -0.005948 -122963.000000 0 0 1
31.478327 24.372473 -34.365696 52.591858 0.658849 2.282918 0.024380 -0.013578 243765.000000 0 0 1
31.211407 23.138673 -33.733515 51.453864 0.637944 2.285783 0.019421 -0.014914 -340280.000000 0 0 1
31.770047 23.170373 -32.291035 50.881362 0.630131 2.258331 0.010456 -0.016493 -395542.000000 0 0 1
31.166507 24.022473 -31.350475 50.311854 0.656667 2.243526 -0.002785 -0.016497 -140305.000000 0 0 1
31.489757 23.804173 -30.002565 49.582228 0.647288 2.220697 0.011914 -0.022165 -98913.300000 0 0 1
32.848277 24.394773 -29.477675 50.428638 0.638780 2.195112 0.010770 -0.002670 732051.000000 0 0 1
33.198627 23.812973 -28.239385 49.665575 0.622235 2.175588 0.015208 -0.006488 672311.000000 0 0 1
34.368487 24.375073 -27.589375 50.363783 0.616892 2.150531 0.020593 -0.004632 982070.000000 0 0 1
34.962411 23.473273 -26.477925 49.743796 0.591263 2.132095 0.022308 -0.004941 -49210.000000 0 0 1
-35.105294 22.393973 -26.980135 49.616523 -0.567828 2.145723 0.016743 -0.003763 73905.600000 0 0 1
-35.167898 21.236673 -26.192295 48.721798 -0.543257 2.138371 0.007431 0.005418 182625.000000 0 0 1
-34.065998 20.200173 -26.600895 47.708980 -0.535236 2.162247 0.010896 0.012949 377028.000000 0 0 1
-32.764248 20.377273 -26.085635 46.574559 -0.556393 2.165283 0.014886 0.011365 -502410.000000 0 0 1
-32.052038 19.177473 -26.134705 45.586526 -0.539186 2.181323 -0.007407 0.004734 738489.000000 0 0 1
-30.614728 19.463873 -25.553535 44.374396 -0.566305 2.184455 -0.004037 0.005112 529240.000000 0 0 1
-30.658328 19.646773 -24.107725 43.670484 -0.569902 2.155602 0.002357 0.001505 -1080870.000000 0 0 1
-29.456348 19.719173 -23.467325 42.511616 -0.589918 2.155583 0.012960 0.007069 -1158850.000000 0 0 1
-29.726048 20.087473 -21.979025 42.074006 -0.594267 2.120447 0.004451 0.005178 -172792.000000 0 0 1
-30.351838 19.130773 -21.202025 41.674289 -0.562402 2.104535 -0.015211 0.003817 -82555.200000 0 0 1
-30.742238 19.652073 -19.945725 41.582702 -0.568783 2.071068 -0.016167 0.007427 -420384.000000 0 0 1
-31.707138 18.783073 -19.104725 41.510684 -0.534807 2.049058 -0.019826 -0.004388 120229.000000 0 0 1
-32.426408 19.328273 -18.004325 41.823555 -0.537522 2.015824 -0.014108 -0.007621 803660.000000 0 0 1
-33.459518 20.250273 -18.392125 43.219014 -0.544247 2.010373 -0.014868 -0.009298 -324610.000000 0 0 1
-34.559727 20.473473 -17.346125 43.754152 -0.534819 1.978438 0.008012 -0.011483 -653242.000000 0 0 1
-34.190618 21.271973 -16.243625 43.420623 -0.556553 1.954222 0.014174 -0.024701 44110.500000 0 0 1
-35.130170 21.088773 -15.220325 43.709535 -0.540643 1.926463 0.017443 -0.013659 -751830.000000 0 0 1
-34.889624 21.896873 -13.927225 43.482485 -0.560470 1.896837 0.021488 -0.013049 -191409.000000 0 0 1
-35.296442 23.265673 -13.929625 44.510277 -0.582781 1.889097 0.028614 -0.018898 -471796.000000 0 0 1
34.192697 23.523673 -14.001925 43.801342 0.602609 1.896176 0.035617 -0.015769 -966197.000000 0 0 1
33.895407 24.930273 -14.539125 44.517449 0.634160 1.903494 0.028800 -0.011767 -99529.500000 0 0 1
34.283947 26.006073 -13.687925 45.155997 0.648950 1.878767 0.026407 -0.005158 198387.000000 0 0 1
34.109797 27.306373 -14.234425 45.953619 0.675072 1.885733 0.010255 0.002180 -394874.000000 0 0 1
-35.377581 27.742673 -14.783925 47.326457 -0.665025 1.888496 0.026346 -0.000117 -77770.700000 0 0 1
-35.149117 27.288773 -16.115925 47.327166 -0.660166 1.918268 0.022880 0.001543 -562829.000000 0 0 1
-33.902758 27.782973 -16.476425 46.826949 -0.686513 1.930351 0.022218 -0.002119 -991464.000000 0 0 1
-33.556748 27.720173 -17.993425 47.098053 -0.690435 1.962801 0.001801 0.000556 7781.050000 0 0 1
-33.275868 26.382073 -18.502325 46.320980 -0.670353 1.981699 0.006289 -0.002725 602650.000000 0 0 1
-32.028508 25.848573 -18.031425 44.934467 -0.679024 1.983713 0.009261 -0.004605 344501.000000 0 0 1
-31.699438 24.542873 -18.811825 44.284215 -0.658833 2.009535 0.010485 0.000768 -475094.000000 0 0 1
-31.429418 24.727373 -20.183325 44.795288 -0.666615 2.038198 0.007506 0.001765 122215.000000 0 0 1
-31.015018 23.535573 -20.820125 44.151241 -0.649138 2.061860 0.006770 0.002545 -267775.000000 0 0 1
-30.706638 23.719073 -22.368025 44.786388 -0.657709 2.093746 -0.001145 0.010941 1237230.000000 0 0 1
-31.914498 24.162373 -23.055625 46.194342 -0.648028 2.093357 0.007678 0.010343 1290500.000000 0 0 1
-31.741338 23.924673 -24.459625 46.670930 -0.645890 2.122439 0.008487 0.012793 -275442.000000 0 0 1
-32.603858 24.810473 -25.332765 48.169701 -0.650483 2.124577 -0.011883 0.012051 -442661.000000 0 0 1
-32.196528 26.142873 -25.410995 48.639334 -0.682002 2.120503 -0.023098 0.025375 -432663.000000 0 0 1
-33.007558 26.788573 -26.359225 50.019349 -0.681768 2.125840 -0.014273 0.017434 32962.900000 0 0 1
-32.381558 28.160173 -26.743675 50.564659 -0.715784 2.128101 -0.024890 0.022923 74814.400000 0 0 1
-31.177808 28.000073 -27.455665 50.098636 -0.731752 2.150806 -0.027579 0.022584 -526236.000000 0 0 1
-30.805238 29.291973 -27.893575 50.843228 -0.760223 2.151508 -0.013216 0.014213 -642595.000000 0 0 1
-29.377238 29.430373 -28.383405 50.346664 -0.786302 2.169727 0.004947 0.006812 -690076.000000 0 0 1
-28.407608 29.339473 -27.372385 49.163445 -0.801534 2.161280 -0.005071 0.007491 -836699.000000 0 0 1
-27.098748 29.225673 -27.810085 48.599207 -0.823142 2.180023 0.018438 0.007176 19394.300000 0 0 1
-26.226778 30.545773 -27.752285 48.898644 -0.861327 2.174320 0.024103 -0.004824 -164572.000000 0 0 1
-25.577538 30.937973 -26.543295 48.123956 -0.879964 2.155031 0.025955 -0.001966 -100372.000000 0 0 1
-26.392718 31.265473 -25.398195 48.157799 -0.869709 2.126328 0.010694 0.013071 502082.000000 0 0 1
-25.462478 31.838473 -24.276025 47.448409 -0.896214 2.107877 -0.013424 0.009347 457347.000000 0 0 1
-24.991488 33.147873 -24.516125 48.211993 -0.924779 2.104246 -0.003865 0.003923 -357990.000000 0 0 1
-24.067588 33.521973 -23.531425 47.504730 -0.948115 2.089033 0.027452 0.003894 -84547.100000 0 0 1
-23.769388 -34.054342 -23.592725 47.762942 0.961425 2.087428 0.029126 0.017107 496969.000000 0 0 1
-24.847688 -33.323042 -23.008025 47.510019 0.930078 2.076333 0.005688 0.002838 330764.000000 0 0 1
-24.643388 -31.928942 -23.271325 46.565099 0.913476 2.094117 0.018909 0.002886 -220785.000000 0 0 1
16.334012 8.554973 -25.469335 31.443195 0.482468 2.514967 0.029684 -0.019722 -1151010.000000 0 0 1
15.036112 8.123173 -25.390175 30.606071 0.495322 2.549151 0.024639 -0.021341 -1073760.000000 0 0 1
14.943112 6.735773 -25.482775 30.299159 0.423487 2.569997 0.017153 -0.017123 -853225.000000 0 0 1
13.506912 6.272473 -25.483305 29.515749 0.434756 2.612727 0.011990 -0.019966 -892410.000000 0 0 1
12.948612 6.381773 -24.211725 28.188672 0.457914 2.603947 0.031383 -0.027916 -185530.000000 0 0 1
11.659312 5.831373 -24.194925 27.483429 0.463765 2.647387 0.027451 -0.026128 -415822.000000 0 0 1
10.826812 5.919573 -22.931225 26.040397 0.500346 2.647927 0.034800 -0.030225 -382997.000000 0 0 1
11.407712 5.036873 -21.967825 25.260469 0.415790 2.625294 0.027605 -0.020521 352383.000000 0 0 1
10.947112 5.249173 -20.619625 23.928268 0.447116 2.609459 0.033046 -0.018014 -494846.000000 0 1 0
11.184112 6.654173 -20.026325 23.883385 0.536710 2.565329 0.026067 -0.019030 -87305.800000 0 1 0
10.941412 6.769573 -18.614125 22.628019 0.554064 2.536789 0.018303 -0.010392 -272825.000000 0 1 0
11.160412 8.069273 -18.090825 22.736444 0.626013 2.490918 0.017816 -0.010536 -125793.000000 0 1 0
12.621812 8.529673 -17.937525 23.533386 0.594291 2.437526 0.017652 -0.005824 -345531.000000 0 1 0
13.149712 7.969173 -16.738525 22.728855 0.544844 2.398595 0.018737 -0.002233 -101834.000000 0 1 0
14.368312 8.583073 -16.423925 23.449154 0.538477 2.346762 0.005075 0.007702 -504223.000000 0 1 0
14.868112 8.264273 -15.000825 22.680029 0.507315 2.293495 0.006306 -0.004332 -33161.200000 0 1 0
16.222512 7.863773 -14.826525 23.341694 0.451369 2.259057 0.003680 -0.013458 1031320.000000 0 1 0
16.842312 8.306873 -13.600225 23.186930 0.458204 2.197585 0.010056 -0.009561 234748.000000 0 1 0
17.140512 9.837573 -13.380225 23.866408 0.521035 2.165943 0.020775 -0.016497 -1172180.000000 0 1 0
15.965612 10.516073 -13.056525 23.150840 0.582446 2.169989 0.021148 -0.018537 -160221.000000 0 1 0
16.184112 11.929273 -13.067725 23.979126 0.635192 2.147141 0.033045 -0.020634 -790504.000000 0 1 0
14.934912 12.770473 -12.930825 23.523240 0.707433 2.152806 0.028239 -0.014878 -608275.000000 0 1 0
14.399812 12.740173 -11.594725 22.452266 0.724323 2.113458 0.032092 -0.012758 599033.000000 0 1 0
15.143012 13.547973 -10.642225 22.937204 0.729862 2.053270 0.053688 -0.010486 30286.500000 0 1 0
14.746112 15.035073 -10.717425 23.629736 0.795101 2.041548 0.046946 -0.008254 -318000.000000 0 1 0
13.518212 15.335073 -10.114425 22.808071 0.848284 2.030250 0.056051 -0.012610 -251533.000000 0 1 0
13.230212 16.679773 -10.404025 23.695929 0.900222 2.025353 0.048223 -0.014684 -322117.000000 0 1 0
12.023712 17.090873 -9.576925 22.986628 0.957714 2.000532 0.034824 -0.012191 -406162.000000 0 1 0
12.381112 17.114973 -8.256325 22.679972 0.944532 1.943394 0.041369 -0.009080 728499.000000 0 1 0
11.250412 17.210373 -7.365625 21.840814 0.991825 1.914781 0.034422 -0.010614 528243.000000 0 1 0
11.679512 16.979773 -5.871025 21.428780 0.968272 1.848324 0.033615 -0.013142 413028.000000 0 1 0
12.505512 18.031573 -5.384225 22.594586 0.964423 1.811408 0.032218 -0.010943 -42206.900000 0 1 0
13.069212 17.693873 -4.170025 22.388983 0.934612 1.758144 0.040320 -0.011333 -243509.000000 0 1 0
14.211812 18.680573 -3.826225 23.781913 0.920431 1.732387 0.051490 -0.014291 -1008390.000000 0 1 0
15.218112 18.649973 -4.764825 24.538052 0.886384 1.766219 0.053099 -0.019842 -248978.000000 0 1 0
16.069112 19.790873 -4.470825 25.882104 0.888814 1.744405 0.059531 -0.017791 699102.000000 0 0 1
17.460812 19.769373 -5.183625 26.880812 0.847327 1.764849 0.050093 -0.011490 438956.000000 0 0 1
18.473912 19.044873 -4.523725 26.915733 0.800615 1.739668 0.045375 -0.022443 93091.700000 0 0 1
18.856712 17.873173 -5.241725 26.504746 0.758627 1.769874 0.048419 -0.022094 -218043.000000 0 0 1
19.886812 17.014273 -4.482325 26.553004 0.707711 1.740415 0.052193 -0.020785 -829719.000000 0 0 1
21.178112 17.343173 -4.844225 27.798644 0.686171 1.745952 0.038874 -0.022450 -477294.000000 0 0 1
22.129812 16.426773 -4.283925 27.891208 0.638549 1.725001 0.038885 -0.021374 715283.000000 0 0 1
23.631612 16.648173 -4.633125 29.275939 0.613731 1.729722 0.033817 -0.016822 283036.000000 0 0 1
24.022412 17.858073 -4.124925 30.215924 0.639259 1.707739 0.046366 -0.019328 -258073.000000 0 0 1
25.426812 17.901173 -4.154925 31.372570 0.613424 1.703625 0.034983 -0.009369 -362958.000000 0 0 1
26.081712 19.142373 -3.550025 32.546718 0.633142 1.680089 0.041005 -0.013589 -298665.000000 0 0 1
25.985412 20.328973 -4.302125 33.271866 0.663869 1.700462 0.039045 -0.013847 105147.000000 0 0 1
26.267112 21.410773 -3.452725 34.063231 0.683891 1.672333 0.045036 0.006692 -157165.000000 0 0 1
26.036112 22.734073 -4.186625 34.817309 0.717795 1.691334 0.017805 0.008760 376962.000000 0 0 1
27.143912 23.167473 -4.995225 36.034373 0.706526 1.709868 0.005515 0.017221 711202.000000 0 0 1
27.447112 22.418073 -6.178825 35.973488 0.684885 1.743413 0.020755 0.007013 -122315.000000 0 0 1
28.415812 23.126273 -7.126025 37.323761 0.683131 1.762900 0.001770 0.010145 143066.000000 0 0 1
27.776412 24.104573 -7.976625 37.632247 0.714742 1.784379 -0.007647 0.007017 898284.000000 0 0 1
28.735612 24.955673 -8.643925 39.028688 0.715113 1.794124 -0.026194 0.013853 600278.000000 0 0 1
29.707312 24.369073 -9.721225 39.634307 0.687000 1.818598 -0.014537 0.005216 322082.000000 0 0 1
29.089912 24.053373 -10.974925 39.309499 0.690908 1.853750 -0.010324 0.005796 428215.000000 0 0 1
30.037212 23.418873 -11.830625 39.882846 0.662216 1.871963 -0.010106 0.000961 427175.000000 0 0 1
29.406312 23.070673 -13.236125 39.650752 0.665248 1.911147 0.005141 0.000655 152802.000000 0 0 1
29.303812 24.110973 -14.127325 40.492391 0.688485 1.927181 0.000730 -0.003358 115085.000000 0 0 1
29.092312 23.538873 -15.386825 40.462273 0.680271 1.960891 0.011619 -0.007952 -234292.000000 0 0 1
29.120212 24.456773 -16.590625 41.489388 0.698575 1.982178 0.013140 -0.006121 -1021580.000000 0 0 1
30.325812 25.126873 -16.832325 42.829216 0.691917 1.974699 0.011987 -0.005802 -338355.000000 0 0 1
30.503612 25.440473 -18.184825 43.684962 0.695140 2.000138 0.013125 -0.008317 578518.000000 0 0 1
31.925212 26.031373 -18.479625 45.148068 0.684053 1.992496 0.003070 -0.007904 673256.000000 0 0 1
32.884912 25.012673 -18.599125 45.309808 0.650259 1.993785 0.010571 -0.001570 983733.000000 0 0 1
34.281612 25.426073 -18.501725 46.519114 0.638157 1.979830 0.016034 -0.002907 1209350.000000 0 0 1
35.157412 24.166173 -18.318025 46.428413 0.602199 1.976367 0.017402 -0.011435 -375534.000000 0 0 1
35.215812 23.423673 -19.524525 46.583570 0.586949 2.003282 0.015488 -0.008522 28999.800000 0 0 1
-34.739322 23.927673 -20.493825 46.897237 -0.603154 2.023051 0.018895 0.003710 -821407.000000 0 0 1
-34.741922 23.080873 -21.775625 47.052159 -0.586399 2.051945 0.027851 -0.004320 -111959.000000 0 0 1
-34.387322 21.715673 -21.568325 46.035323 -0.563261 2.058408 0.016762 -0.007694 258966.000000 0 0 1
-34.177822 21.049073 -22.802725 46.164394 -0.552006 2.087419 0.005431 -0.006320 67488.600000 0 0 1
-33.859122 19.514173 -22.709425 45.199127 -0.522836 2.097204 -0.008188 -0.002236 313361.000000 0 0 1
-34.976722 18.698673 -22.413925 45.556509 -0.490946 2.085185 -0.007207 -0.005579 78913.300000 0 0 1
-34.596822 17.412973 -22.790725 44.939613 -0.466293 2.102661 -0.015018 -0.006863 -69300.700000 0 0 1
35.285612 16.191673 -22.679925 44.962470 0.430210 2.099505 -0.025000 -0.009101 -1255610.000000 0 0 1
34.127612 16.390873 -23.359325 44.486095 0.447749 2.123620 0.017088 -0.009762 -550978.000000 0 0 1
33.091112 15.411673 -23.349925 43.333132 0.435861 2.139864 0.029646 -0.006844 354938.000000 0 0 1
33.441212 14.054573 -24.026125 43.509773 0.397863 2.155798 -0.008182 -0.006921 -633246.000000 0 0 1
33.362412 14.084773 -25.443985 44.258646 0.399475 2.183270 -0.004435 -0.000282 161190.000000 0 0 1
33.569012 12.754473 -25.943595 44.301527 0.363101 2.196434 -0.002848 0.004836 -452953.000000 0 0 1
33.378412 12.536673 -27.443635 44.993774 0.359290 2.226785 0.011168 0.006612 -375928.000000 0 0 1
32.045712 12.647273 -27.885725 44.322622 0.375897 2.251260 0.002214 0.008301 -79004.700000 0 0 1
31.578212 13.921273 -28.292755 44.625837 0.415219 2.257510 0.006634 0.007747 -345003.000000 0 0 1
31.943312 14.301073 -29.739885 45.927733 0.420941 2.275144 0.015133 0.000462 14184.900000 0 0 1
33.339812 14.540973 -29.813065 47.029797 0.411272 2.257406 0.019258 -0.001295 93131.400000 0 0 1
33.697112 14.461973 -31.195485 48.143559 0.405402 2.275710 0.028854 -0.004475 343287.000000 0 0 1
35.246912 14.519573 -31.468935 49.431333 0.390756 2.260903 0.035141 -0.002208 1019500.000000 0 0 1
-34.849822 13.369573 -31.117325 48.595715 -0.366319 2.265725 0.042176 -0.002618 107929.000000 0 0 1
-34.622222 13.232273 -29.726855 47.512916 -0.365059 2.246772 0.022721 0.001294 178948.000000 0 0 1
-33.401522 12.205173 -29.561295 46.243898 -0.350335 2.264316 0.030002 -0.012309 907735.000000 0 0 1
-33.702022 10.814673 -29.891105 46.327763 -0.310511 2.272094 0.037455 -0.012419 -183429.000000 0 0 1
-32.637922 9.912573 -29.760225 45.267693 -0.294860 2.288196 0.037313 -0.013809 -317472.000000 0 0 1
-32.972022 8.483773 -30.268545 45.555608 -0.251839 2.297528 0.036248 -0.005591 -623008.000000 0 0 1
-33.186122 8.474073 -31.685205 46.659199 -0.250007 2.317301 0.041613 -0.011342 -50892.000000 0 0 1
-33.513322 7.210273 -32.258535 47.071689 -0.211916 2.325821 0.027804 -0.009777 -287113.000000 0 0 1
-34.829522 6.545573 -31.834715 47.638107 -0.185765 2.302666 0.031413 0.001403 -635253.000000 0 0 1
-34.780022 6.066073 -30.535585 46.678358 -0.172676 2.283881 0.028442 -0.000081 6383.930000 0 0 1
34.937612 5.325973 -30.143355 46.450238 0.151278 2.276985 0.019615 0.011156 -341384.000000 0 0 1
35.125412 4.738473 -28.748965 45.637163 0.134092 2.252280 0.015286 0.017780 -826797.000000 0 0 1
-34.705522 3.839773 -28.712995 45.206783 -0.110191 2.258996 0.005346 0.024325 -483955.000000 0 0 1
-35.242822 2.550873 -28.487985 45.388641 -0.072254 2.249322 -0.001693 0.029592 -66405.300000 0 0 1
-34.185322 1.414173 -28.395605 44.462867 -0.041344 2.263521 0.016297 0.028555 -181919.000000 0 0 1
-33.383422 1.625073 -27.268625 43.135503 -0.048641 2.255137 0.031933 0.013428 -141509.000000 0 0 1
-32.496022 0.539473 -27.009535 42.258697 -0.016600 2.264185 0.038609 0.014007 -97356.500000 0 0 1
-31.471222 0.897873 -25.948125 40.798887 -0.028522 2.260101 0.037287 0.014618 -191015.000000 0 0 1
-32.012322 0.957273 -24.634425 40.404950 -0.029894 2.226464 0.033062 0.014183 -334504.000000 0 0 1
-30.945322 1.099973 -23.764825 39.033188 -0.035531 2.225389 0.051105 0.015060 -305484.000000 0 0 1
-31.276622 0.648673 -22.303625 38.420041 -0.020737 2.190164 0.038697 0.018635 -246891.000000 0 0 1
-31.357222 -0.794527 -22.187425 38.421198 0.025333 2.186433 0.049143 0.006605 74834.300000 0 0 1
-31.676022 -1.226027 -20.907225 37.973485 0.038686 2.153848 0.036580 0.006597 -280032.000000 0 0 1
-33.161122 -1.163727 -20.523825 39.015916 0.035079 2.124731 0.031382 0.010999 -449184.000000 0 0 1
-33.945022 -2.284227 -20.916525 39.937241 0.067191 2.122026 0.032470 0.002801 278935.000000 0 0 1
-35.254922 -2.109727 -20.372125 40.772343 0.059771 2.093997 0.027998 0.008554 390683.000000 0 0 1
34.991312 -3.556727 -20.196925 40.558082 -0.101298 2.092059 0.043077 0.008833 -155411.000000 0 0 1
34.467212 -4.310227 -21.284625 40.738213 -0.124407 2.120545 0.030289 0.011195 288098.000000 0 0 1
-35.421622 -4.722127 -22.220625 42.080232 0.132531 2.127103 0.023483 -0.001319 -439307.000000 0 0 1
34.743112 -5.591427 -23.289925 42.199153 -0.159568 2.155443 0.025480 -0.007381 -510055.000000 0 0 1
34.531712 -6.932027 -22.892925 42.006882 -0.198111 2.147162 0.040237 -0.009179 261028.000000 0 0 1
34.050912 -7.769527 -23.963725 42.356703 -0.224333 2.172151 0.031305 -0.003226 237309.000000 0 0 1
32.594112 -7.582027 -24.451125 41.445395 -0.228555 2.201806 0.012534 0.005586 -315227.000000 0 0 1
32.339212 -6.368727 -25.098445 41.428460 -0.194447 2.221600 0.022125 -0.000902 -473044.000000 0 0 1
30.992612 -6.221327 -25.442445 40.577887 -0.198103 2.248496 0.019736 -0.000923 -284421.000000 0 0 1
30.622412 -4.883127 -26.202975 40.597696 -0.158131 2.272383 0.026343 -0.014810 36639.200000 0 0 1
31.125512 -4.890127 -27.487335 41.812252 -0.155836 2.288158 0.038317 -0.018577 392992.000000 0 0 1
30.608912 -3.730227 -28.198455 41.784841 -0.121269 2.311556 0.039470 -0.013146 255589.000000 0 0 1
30.844912 -3.822927 -29.741205 43.018167 -0.123311 2.334171 0.052263 -0.009839 253822.000000 0 0 1
30.179112 -2.796427 -30.501455 42.999274 -0.092397 2.359369 0.036694 -0.005842 216448.000000 0 0 1
29.610612 -3.278227 -31.676695 43.485033 -0.110262 2.386854 0.038612 -0.010516 -562810.000000 0 0 1
29.105712 -2.124727 -32.587615 43.744824 -0.072871 2.411253 0.053490 -0.012312 -469249.000000 0 0 1
28.016512 -1.372527 -32.144075 42.662048 -0.048951 2.424103 0.037113 -0.009051 573098.000000 0 0 1
26.710512 -1.968427 -32.204635 41.886330 -0.073562 2.447849 0.039495 -0.013400 658611.000000 0 0 1
26.023212 -2.184027 -33.592995 42.549581 -0.083730 2.480794 0.040436 -0.016715 -789110.000000 0 0 1
26.588712 -3.297727 -34.256339 43.489440 -0.123397 2.477852 0.034905 -0.020141 302214.000000 0 0 1
25.794112 -3.657927 33.521511 42.454780 -0.140873 0.660670 0.020440 -0.015881 -365634.000000 0 0 1
26.183412 -4.954227 32.719507 42.198123 -0.187002 0.683482 0.014912 -0.017034 -91290.200000 0 0 1
27.365912 -5.084327 31.938167 42.364963 -0.183696 0.716846 0.020048 -0.016219 136081.000000 0 0 1
27.548612 -4.288527 30.769217 41.521828 -0.154432 0.736183 0.023867 -0.014066 -572084.000000 0 0 1
28.173412 -2.903327 31.008957 41.996737 -0.102690 0.740152 0.027391 -0.015614 253604.000000 0 0 1
29.499912 -2.987227 31.546687 43.293900 -0.100918 0.754428 0.042293 -0.013850 472937.000000 0 0 1
29.728712 -1.790727 32.280177 43.920529 -0.060163 0.745177 0.042603 -0.013480 -341649.000000 0 0 1
31.087412 -1.617127 32.958669 45.335595 -0.051972 0.756864 0.047194 -0.010337 -70842.600000 0 0 1
32.187512 -1.679727 32.072697 45.469939 -0.052138 0.787865 0.047616 -0.009999 62736.900000 0 0 1
33.438812 -1.460627 32.706577 46.797519 -0.043653 0.796944 0.051612 -0.008433 715939.000000 0 0 1
34.617312 -2.162427 31.941107 47.151551 -0.062386 0.826555 0.047175 0.001100 459551.000000 0 0 1
35.031712 -1.466527 30.752967 46.638145 -0.041838 0.850782 0.029074 0.000751 426210.000000 0 0 1
-34.636022 -2.011427 30.163547 45.973247 0.058008 0.855143 0.033015 -0.003616 406728.000000 0 0 1
-34.259022 -1.464827 28.779537 44.767042 0.042731 0.872553 0.031816 -0.004440 66173.400000 0 0 1
-35.093022 -1.987127 27.753717 44.785463 0.056564 0.902431 0.042547 -0.010881 -108233.000000 0 0 1
-34.866322 -1.293627 26.523357 43.827187 0.037085 0.920804 0.032938 -0.003883 -163525.000000 0 0 1
-25.855108 15.271473 12.170875 32.401152 -0.533521 1.185719 0.031736 -0.004098 337762.000000 0 0 1
-27.056738 14.589273 12.554975 33.204538 -0.494522 1.183042 0.016053 0.010271 760422.000000 0 0 1
-27.926288 15.492973 13.236775 34.570536 -0.506506 1.177872 0.019372 0.000676 -634125.000000 0 0 1
-29.072798 14.697873 13.793775 35.376875 -0.468081 1.170263 0.024819 0.004773 -288845.000000 0 0 1
-30.157718 15.515773 14.247275 36.786030 -0.475170 1.173094 0.032204 -0.001425 351932.000000 0 0 1
-31.178748 14.763473 14.890675 37.574016 -0.442233 1.163310 0.039864 -0.003873 299784.000000 0 0 1
-32.226808 15.665373 15.597475 39.080075 -0.452464 1.160244 0.037958 -0.007783 48328.100000 0 0 1
-31.680078 16.281873 16.776775 39.372413 -0.474743 1.130614 0.028570 -0.003032 -87509.700000 0 0 1
-32.623588 16.594673 17.777975 40.690761 -0.470560 1.118642 0.036178 -0.015297 192190.000000 0 0 1
-31.876298 16.950873 19.111475 40.849467 -0.488740 1.083938 0.029984 -0.010546 254277.000000 0 0 1
-31.349428 15.831273 19.800775 40.317323 -0.467635 1.057418 0.031761 -0.004913 506609.000000 0 0 1
-30.211438 16.143973 20.625775 39.984765 -0.490761 1.028807 0.020454 -0.002630 598189.000000 0 0 1
-30.544688 16.698773 22.024775 41.193661 -0.500306 1.006686 0.030127 -0.011445 -406751.000000 0 0 1
-31.219228 17.934573 22.026275 42.207178 -0.521437 1.021765 0.029746 -0.003946 72956.700000 0 0 1
-31.401658 18.502573 23.359875 43.290797 -0.532457 1.000830 0.027140 -0.007814 -925163.000000 0 0 1
-32.207758 17.686873 24.426875 44.122980 -0.502190 0.984105 0.014710 -0.004439 946854.000000 0 0 1
-33.494678 17.174173 24.002075 44.642415 -0.473790 1.003147 0.033580 -0.003797 568655.000000 0 0 1
-34.472665 18.150073 23.844375 45.676515 -0.484627 1.021571 0.019565 -0.006491 -994098.000000 0 0 1
35.046750 17.460773 23.396575 45.613079 0.462218 1.032195 -0.001843 -0.006540 424505.000000 0 0 1
34.523447 16.765873 24.589975 45.581024 0.452092 1.000979 0.009640 -0.003877 -729731.000000 0 0 1
33.433487 15.988073 24.277575 44.303692 0.446060 0.990848 0.017435 0.000246 -670311.000000 0 0 1
33.050407 15.231273 25.541075 44.459730 0.431840 0.958832 0.026394 -0.009455 -281695.000000 0 0 1
32.274027 15.924673 26.486475 44.684912 0.458370 0.936341 0.020814 -0.016951 -27878.800000 0 0 1
32.026357 15.304973 27.719075 45.036395 0.445801 0.907799 0.023783 -0.013595 -319245.000000 0 0 1
30.983687 14.214173 27.916175 44.060690 0.430117 0.884619 0.019216 -0.004870 -294525.000000 0 0 1
31.427147 13.038573 27.290075 43.616718 0.393270 0.894794 0.019943 -0.008023 31113.600000 0 0 1
30.543127 11.993773 27.563175 42.853959 0.374183 0.872141 0.022742 -0.008351 -289998.000000 0 0 1
31.192067 10.651073 27.146875 42.700623 0.329053 0.881818 0.029516 -0.007985 -12960.300000 0 0 1
32.324277 10.311873 27.902375 43.928762 0.308808 0.882563 0.041036 -0.011271 -23423.100000 0 0 1
32.723677 8.950673 27.579075 43.721379 0.266992 0.888223 0.039053 -0.009088 -292849.000000 0 0 1
33.834577 8.344773 28.414275 44.964262 0.241809 0.886755 0.047828 -0.010640 614671.000000 0 0 1
35.137242 8.953373 28.313075 46.004553 0.249502 0.907851 0.049165 -0.007066 1165980.000000 0 0 1
-34.711017 8.096073 28.867675 45.866586 -0.229145 0.890037 0.055034 -0.006854 316812.000000 0 0 1
-33.317658 8.733373 29.041275 45.052567 -0.256357 0.870285 0.069713 -0.006532 92779.500000 0 0 1
-32.719958 9.273173 27.882075 43.977238 -0.276168 0.884067 0.059858 -0.007838 162220.000000 0 0 1
-31.530398 9.970473 28.205375 43.464002 -0.306268 0.864611 0.053720 -0.006181 258144.000000 0 0 1
-30.846318 10.575173 26.948475 42.303072 -0.330277 0.880153 0.038467 -0.003623 18928.200000 0 0 1
-30.413278 9.658173 25.973475 41.144491 -0.307492 0.887601 0.023978 -0.000905 -189977.000000 0 0 1
-29.453188 10.198473 25.134275 40.040366 -0.333339 0.892171 0.029523 0.007883 -597218.000000 0 0 1
-28.654878 9.084673 24.425175 38.732706 -0.307013 0.888459 0.010779 0.005261 294129.000000 0 0 1
-27.673978 9.612373 23.525475 37.572526 -0.334306 0.894210 0.015893 0.005157 153639.000000 0 0 1
-27.141098 8.653473 22.703475 36.427593 -0.308644 0.897905 -0.009234 0.010948 -475783.000000 0 0 1
-26.276808 9.202273 21.565575 35.216849 -0.336858 0.911747 -0.006114 0.013424 -492710.000000 0 0 1
-25.024788 9.679973 22.090275 34.755174 -0.369089 0.882015 -0.004066 0.003513 654174.000000 0 0 1
-24.247788 10.331273 21.127675 33.779714 -0.402777 0.895082 0.000158 0.001334 -133407.000000 0 0 1
-23.573588 9.540573 19.999675 32.353108 -0.384564 0.904386 0.009647 -0.004810 -508938.000000 0 0 1
-24.450188 9.061373 18.967175 32.243974 -0.354912 0.941916 0.002919 0.001632 484818.000000 0 0 1
-23.740088 8.281573 18.058075 30.955941 -0.335644 0.947952 0.015390 -0.001898 -519271.000000 0 0 1
-23.617088 6.713273 18.357575 30.656735 -0.276950 0.928781 0.019681 -0.004469 -511700.000000 0 0 1
-22.520788 6.330173 19.163075 30.240377 -0.274011 0.884480 0.011814 -0.001144 535189.000000 0 0 1
-22.596188 5.000473 19.653575 30.362072 -0.217787 0.866751 0.017738 -0.006518 -336362.000000 0 0 1
-22.616588 3.827473 18.617675 29.542807 -0.167645 0.888994 0.028614 -0.006994 -965154.000000 0 0 1
-23.935988 3.563873 18.253375 30.312017 -0.147806 0.924564 0.041605 -0.010979 -176341.000000 0 0 1
-24.203388 2.436473 17.407675 29.912665 -0.100329 0.949672 0.052955 -0.012164 -151780.000000 0 0 1
-23.902288 0.988373 17.950975 29.908757 -0.041327 0.927056 0.049767 -0.011489 -495226.000000 0 0 1
-22.549388 0.654973 18.079975 28.910022 -0.029038 0.895168 0.033780 -0.008462 -49408.100000 0 0 1
-22.356988 -0.690727 18.449875 28.994998 0.030886 0.881088 0.035050 -0.004841 -971874.000000 0 0 1
-20.916388 -1.029727 18.810675 28.149549 0.049191 0.838955 0.037214 -0.004149 -523567.000000 0 0 1
-20.432788 -0.440627 20.005575 28.599231 0.021561 0.796079 0.015906 0.001435 -416712.000000 0 0 1
-19.187088 -1.017427 20.257775 27.920547 0.052977 0.758962 -0.009225 0.005389 304391.000000 0 0 1
-18.286488 -0.484327 21.478275 28.212524 0.026479 0.705476 -0.004181 0.003875 724303.000000 0 0 1
-18.733488 -0.890327 22.744775 29.479841 0.047490 0.689543 -0.006033 0.007248 -344805.000000 0 0 1
-17.813688 -0.548327 23.741475 29.686458 0.030772 0.643933 -0.012428 0.012420 -972057.000000 0 0 1
-18.389788 -0.634427 25.190275 31.195140 0.034485 0.630884 -0.008378 0.018376 463740.000000 0 0 1
-19.248088 0.422973 25.604775 32.035485 -0.021971 0.644729 0.003436 0.009895 -1227810.000000 0 0 1
-20.582488 0.276173 25.317775 32.629815 -0.013417 0.682641 0.023051 0.000866 -1719610.000000 0 0 1
-21.272888 1.486073 25.890575 33.542004 -0.069744 0.688995 0.027011 -0.005448 -831312.000000 0 0 1
-20.949988 2.658673 25.124475 32.820874 -0.126231 0.698974 0.023623 0.004323 212022.000000 0 0 1
-22.085288 3.325473 24.615075 33.237338 -0.149451 0.736856 0.015258 -0.000720 -713708.000000 0 0 1
-21.809988 4.322373 23.506375 32.355960 -0.195648 0.757592 0.018279 0.008386 -400282.000000 0 0 1
-21.346688 3.734573 22.332675 31.118748 -0.173196 0.770360 0.017788 0.005022 617815.000000 0 0 1
-19.937688 3.558673 22.308275 30.130295 -0.176630 0.737141 0.008730 0.005499 -437878.000000 0 0 1
-19.322988 2.774673 21.190275 28.811533 -0.142619 0.744423 -0.001315 -0.001831 -500077.000000 0 0 1
-19.336488 3.474673 19.965075 28.010308 -0.177798 0.777348 0.002346 -0.002141 301058.000000 0 0 1
-18.933388 2.637973 18.835075 26.836396 -0.138438 0.792808 0.006994 -0.010372 54695.800000 0 0 1
-18.405388 3.417573 17.617875 25.706568 -0.183592 0.815719 0.001823 -0.011155 -23235.500000 0 0 1
-17.041688 3.792173 17.593175 24.785470 -0.218956 0.781556 0.000492 -0.012606 -53402.200000 0 1 0
-16.826888 4.626073 16.518475 24.029247 -0.268293 0.812849 0.006172 -0.015786 590751.000000 0 1 0
-15.313988 5.057173 16.374275 22.982822 -0.318957 0.777803 0.018722 -0.015963 660401.000000 0 1 0
-14.807888 5.846873 17.381975 23.571010 -0.376058 0.741539 0.011030 -0.019342 -62663.300000 0 1 0
-15.370288 7.161573 17.526675 24.386845 -0.436027 0.768874 0.013932 -0.026817 -754906.000000 0 1 0
-14.917388 8.186573 16.523375 23.718566 -0.501917 0.800089 0.015919 -0.015529 -286258.000000 0 1 0
-15.290688 8.091873 15.136575 22.986941 -0.486736 0.851991 0.008889 -0.010756 -628617.000000 0 1 0
-16.620588 8.358873 14.865175 23.813612 -0.465983 0.896651 0.007813 -0.007218 -811557.000000 0 1 0
-17.110688 7.642573 13.577275 23.141455 -0.420069 0.943809 0.002838 -0.005343 -94940.700000 0 1 0
-16.888588 6.238373 13.532475 22.522646 -0.353838 0.926247 0.000574 -0.011367 575360.000000 0 1 0
-17.487888 5.654373 12.343475 22.139547 -0.312721 0.979388 -0.001836 -0.005024 192959.000000 0 1 0
-17.271088 4.118473 12.281575 21.589103 -0.234089 0.965655 0.000380 -0.008727 -258580.000000 0 1 0
-17.660288 3.559273 13.464775 22.491206 -0.198877 0.928959 -0.004680 -0.002345 -20789.100000 0 1 0
-17.461088 2.160573 13.569575 22.219159 -0.123111 0.913833 -0.005138 -0.008552 -717149.000000 0 1 0
-18.324588 1.365873 14.549875 23.438323 -0.074400 0.901068 0.004003 -0.013100 -1542540.000000 0 1 0
-19.644088 1.386973 14.214375 24.287082 -0.070488 0.945590 0.018850 -0.007619 -1297020.000000 0 1 0
-20.461288 0.699473 15.178475 25.486068 -0.034172 0.932834 0.020819 -0.013859 753950.000000 0 0 1
-21.887088 0.572173 14.536775 26.280978 -0.026136 0.984681 0.036787 -0.020215 116028.000000 0 0 1
-21.958888 -0.552727 13.664475 25.869212 0.025166 1.014301 0.036099 -0.018533 -94663.400000 0 0 1
-23.230988 -0.852027 13.184475 26.725178 0.036660 1.054876 0.060515 -0.028768 -685653.000000 0 0 1
-23.279588 -2.035327 12.257875 26.388203 0.087208 1.087703 0.047757 -0.024096 -417075.000000 0 0 1
-22.906388 -3.248627 12.892975 26.485562 0.140882 1.062382 0.050705 -0.018445 258862.000000 0 0 1
-22.865088 -4.359627 12.057975 26.214754 0.188406 1.092836 0.047417 -0.014610 -93389.300000 0 0 1
-22.559388 -5.725327 12.694875 26.511605 0.248542 1.071461 0.044875 -0.010066 -24823.300000 0 0 1
-23.714788 -6.140027 13.355775 27.901036 0.253348 1.071641 0.044213 -0.009225 159484.000000 0 0 1
-23.530288 -7.481927 13.568675 28.173793 0.307860 1.068310 0.044880 -0.011189 572.273000 0 0 1
-24.495088 -8.030827 14.653875 29.651974 0.316812 1.053887 0.050912 -0.003411 898892.000000 0 0 1
-25.879538 -8.062527 14.264875 30.630728 0.302011 1.086366 0.043954 -0.015673 675532.000000 0 0 1
-26.680688 -8.393727 15.350975 31.905582 0.304796 1.068844 0.044583 -0.002124 747376.000000 0 0 1
-28.216658 -8.044227 15.236675 33.061241 0.277720 1.091830 0.041451 -0.016982 1522550.000000 0 0 1
-29.169698 -8.649127 14.319975 33.626483 0.288253 1.130891 0.038101 -0.015442 1119500.000000 0 0 1
-29.342088 -10.063827 14.364375 34.184412 0.330410 1.137128 0.036323 -0.014963 -721042.000000 0 0 1
-29.772588 -10.681727 15.725775 35.324302 0.344473 1.109418 0.039779 -0.008487 -502804.000000 0 0 1
-28.890198 -10.525727 16.835575 35.055257 0.349388 1.069847 0.043816 -0.007419 62035.000000 0 0 1
-29.127318 -11.440527 17.866175 36.034518 0.374264 1.052032 0.048923 -0.002021 -139164.000000 0 0 1
-27.975678 -11.402027 18.890475 35.629971 0.387015 1.011978 0.046654 0.007955 177511.000000 0 0 1
-26.839278 -12.128927 18.461875 34.760589 0.424441 1.010880 0.039233 0.009666 -31858.100000 0 0 1
-25.825668 -12.028527 19.456875 34.499574 0.435881 0.971606 0.032929 0.009762 92136.200000 0 0 1
-24.614188 -12.941627 19.167175 33.774614 0.484058 0.967327 0.035734 0.008604 -69644.500000 0 0 1
-24.055088 -12.572627 17.910875 32.519496 0.481611 0.987506 0.030990 0.011856 189099.000000 0 0 1
-23.170088 -13.538427 17.374975 31.969231 0.528800 0.996206 0.028890 -0.001329 -193253.000000 0 0 1
-22.865188 -13.454127 15.888775 30.923834 0.531855 1.031184 0.031289 -0.001147 -286864.000000 0 0 1
-22.115388 -12.264927 15.653075 29.741176 0.506359 1.016541 0.031676 -0.005350 107138.000000 0 0 1
-21.786288 -12.114927 14.267475 28.722372 0.507499 1.050961 0.035967 -0.000714 518632.000000 0 0 1
-20.392988 -11.488327 13.963575 27.255037 0.513033 1.032901 0.024054 -0.000449 152873.000000 0 0 1
-20.473388 -10.066327 14.191175 26.867825 0.456968 1.014335 0.024377 -0.001014 1091510.000000 0 0 1
-19.233588 -9.354627 13.917775 25.517531 0.452684 0.993906 0.018275 0.002967 690935.000000 0 0 1
-18.948188 -9.113027 12.394275 24.406949 0.448287 1.038147 0.007988 0.009868 -309805.000000 0 1 0
-18.332388 -10.242627 11.823975 24.099673 0.509512 1.057986 -0.008076 -0.000526 121313.000000 0 1 0
-18.202188 -10.170527 10.435075 23.316305 0.509539 1.106779 0.000230 0.003629 -661832.000000 0 1 0
-17.519488 -11.436227 9.860175 23.128830 0.578321 1.130381 -0.013708 -0.005020 -813221.000000 0 1 0
-16.140588 -11.509527 9.941475 22.177031 0.619451 1.105958 -0.006398 -0.009093 -530455.000000 0 1 0
-15.676088 -11.941027 11.197775 22.665349 0.650969 1.054057 0.001605 -0.007189 -1220530.000000 0 1 0
-14.204088 -12.322227 11.173675 21.873372 0.714574 1.034641 0.007188 -0.008901 -654296.000000 0 1 0
-14.025788 -13.550227 10.630075 22.211031 0.768154 1.071743 0.011216 -0.016695 -141311.000000 0 1 0
-12.675988 -13.859227 10.854275 21.692721 0.829960 1.046776 0.025379 -0.013538 -241491.000000 0 1 0
-12.298588 -15.351627 10.716175 22.400092 0.895369 1.071966 0.028601 -0.014333 -208595.000000 0 1 0
-12.581588 -15.938727 9.504875 22.420572 0.902569 1.133010 0.016624 -0.016466 44955.900000 0 1 0
-12.339988 -17.323527 9.574875 23.325054 0.951846 1.147797 0.013592 -0.011101 131500.000000 0 1 0
-12.812288 -18.075127 8.255575 23.643592 0.954165 1.214114 0.000128 -0.005098 -481089.000000 0 1 0
-11.931788 -18.088427 7.189075 22.830715 0.987677 1.250460 0.009481 -0.005640 -714103.000000 0 1 0
-12.401288 -18.849227 6.105875 23.374495 0.988873 1.306511 0.005308 0.004218 -412393.000000 0 1 0
-11.567888 -18.487027 4.901875 22.352060 1.011672 1.349696 0.013329 0.000302 -85880.700000 0 1 0
-12.081388 -18.960027 3.637575 22.774427 1.003470 1.410387 0.018745 -0.000601 -103364.000000 0 1 0
-11.158088 -18.852227 2.606575 22.061360 1.036375 1.452369 0.023007 -0.010409 -315108.000000 0 1 0
-11.415588 -19.823827 1.412475 22.919312 1.048322 1.509129 0.030886 -0.006577 28538.800000 0 1 0
-11.355388 -21.225127 1.680975 24.130407 1.079544 1.501078 0.022063 -0.004754 -327422.000000 0 1 0
-11.675188 -22.229427 0.701375 25.118706 1.087182 1.542870 0.024374 -0.000757 -97333.800000 0 0 1
-10.815488 -22.333527 -0.596625 24.821708 1.119811 1.594835 0.039616 0.000649 -29481.100000 0 1 0
-10.874888 -21.285927 -1.518325 23.951183 1.098470 1.634231 0.045968 -0.018025 -152471.000000 0 1 0
-11.967588 -21.332827 -2.425325 24.580376 1.059552 1.669626 0.061304 -0.011296 615348.000000 0 1 0
-13.074488 -20.273027 -2.071425 24.212159 0.998000 1.656454 0.069044 -0.008460 307468.000000 0 1 0
-13.799288 -20.526727 -0.883625 24.749700 0.978932 1.606506 0.061276 -0.000612 -567196.000000 0 1 0
-14.730688 -19.520327 -0.742125 24.466039 0.924337 1.601134 0.058383 0.005755 -600980.000000 0 1 0
25.873112 -20.974927 -4.535525 33.614528 -0.681222 1.706137 0.037868 -0.010999 -176700.000000 0 0 1
24.708212 -20.770327 -3.781525 32.499264 -0.699026 1.687418 0.048970 -0.023135 -128889.000000 0 0 1
24.738212 -21.844727 -2.853425 33.125719 -0.723363 1.657042 0.035547 -0.021437 -96416.200000 0 0 1
23.414612 -21.942127 -2.078525 32.156201 -0.752945 1.635480 0.027604 -0.025228 -97634.400000 0 0 1
22.266112 -22.173427 -2.882925 31.555537 -0.783313 1.662284 0.038398 -0.032680 -263367.000000 0 0 1
21.238612 -22.529127 -1.982025 31.025290 -0.814875 1.634724 0.043067 -0.033398 188535.000000 0 0 1
20.118212 -23.311227 -2.781625 30.917523 -0.858788 1.660887 0.045225 -0.039151 611710.000000 0 0 1
19.375112 -22.461627 -3.668825 29.889462 -0.859040 1.693853 0.042562 -0.043364 308119.000000 0 0 1
18.400812 -23.129927 -4.481325 29.894242 -0.898780 1.721269 0.046045 -0.036510 331887.000000 0 0 1
17.515912 -22.167327 -5.248425 28.735754 -0.902079 1.754472 0.031903 -0.019336 -731367.000000 0 0 1
16.478112 -21.452627 -4.655725 27.448482 -0.915801 1.741237 0.026294 -0.011996 -38590.900000 0 0 1
16.825112 -20.447027 -3.738425 26.742123 -0.882269 1.711051 0.022040 -0.018234 -781762.000000 0 0 1
15.600912 -20.045227 -2.934625 25.569740 -0.909437 1.685819 0.019529 -0.006872 -464999.000000 0 0 1
15.251112 -20.979427 -1.939625 26.009516 -0.942207 1.645439 0.028469 -0.011794 -119052.000000 0 0 1
14.641512 -20.385627 -0.837225 25.112718 -0.947942 1.604141 0.034684 -0.000005 -196049.000000 0 0 1
14.334512 -21.403727 0.299975 25.762138 -0.980683 1.559152 0.032541 -0.000304 -575422.000000 0 0 1
13.390612 -22.393027 0.113275 26.091550 -1.031862 1.566455 0.027209 -0.002313 -544520.000000 0 0 1
12.898312 -22.658727 1.461875 26.113626 -1.053300 1.514786 0.033470 0.002853 328087.000000 0 0 1
11.852712 -23.830927 1.552075 26.660998 -1.109257 1.512548 0.031019 -0.003464 301570.000000 0 0 1
12.363812 -25.130647 1.527275 28.048990 -1.113584 1.516319 0.034152 -0.000600 -380921.000000 0 0 1
11.358812 -26.080107 1.337375 28.477766 -1.160036 1.523817 0.038737 -0.000055 -176713.000000 0 0 1
11.680512 -27.524897 1.884475 29.960066 -1.169466 1.507855 0.042037 -0.002325 50062.700000 0 0 1
11.636112 -27.606097 3.322275 30.141885 -1.171890 1.460351 0.044710 -0.009373 122237.000000 0 0 1
11.688112 -28.924297 3.887775 31.437903 -1.186766 1.446814 0.042519 -0.010475 -167217.000000 0 0 1
11.491612 -28.926267 5.427475 31.594993 -1.192643 1.398157 0.040357 -0.014049 -66633.300000 0 0 1
11.646812 -30.203777 5.935775 32.911242 -1.202758 1.389447 0.027285 -0.013936 -108093.000000 0 0 1
11.466012 -30.187807 7.335575 33.114707 -1.207804 1.347423 0.025452 -0.011588 -39216.400000 0 0 1
11.799812 -31.599587 7.946575 34.654257 -1.213415 1.339427 0.026384 -0.010195 -60497.400000 0 0 1
11.650212 -31.674077 9.308875 35.008996 -1.218339 1.301659 0.018591 -0.003629 200794.000000 0 0 1
10.859012 -32.812477 9.704975 35.899350 -1.251200 1.297052 0.010375 -0.004479 262377.000000 0 0 1
10.852912 -33.092427 11.247675 36.597878 -1.253892 1.258409 -0.000504 0.000750 868758.000000 0 0 1
12.050312 -33.811657 11.671975 37.744843 -1.228436 1.256409 0.010724 -0.000271 936697.000000 0 0 1
12.072012 -34.169741 12.995175 38.499081 -1.231189 1.226489 0.003560 0.002625 224731.000000 0 0 1
11.053612 33.854396 13.475675 38.077504 1.255204 1.209057 -0.002554 0.005468 186259.000000 0 0 1
11.207912 32.657977 12.810175 36.827454 1.240201 1.215527 0.007738 0.006541 591338.000000 0 0 1
10.085812 31.799217 13.085375 35.834911 1.263661 1.196995 -0.003335 0.015140 469237.000000 0 0 1
9.986112 30.568017 12.112775 34.363432 1.255041 1.210565 0.008855 0.016532 -404889.000000 0 0 1
9.551212 30.913987 10.841075 34.123733 1.271139 1.247495 -0.001689 0.008419 -125427.000000 0 0 1
10.484712 31.561977 9.985075 34.724477 1.250071 1.279127 -0.004098 0.008443 -202180.000000 0 0 1
10.002212 31.847627 8.580275 34.466458 1.266487 1.319205 0.002483 0.000690 -731393.000000 0 0 1
8.958612 32.752827 8.608575 35.030158 1.303805 1.322506 0.000626 0.001127 -719586.000000 0 0 1
8.402012 32.903557 7.318175 34.738934 1.320786 1.358544 -0.002215 -0.001706 -234407.000000 0 0 1
8.810312 34.182883 6.533775 35.899600 1.318546 1.387775 0.013252 -0.004303 -158824.000000 0 0 1
8.280812 -33.713057 7.023875 35.418595 -1.329938 1.371163 0.008038 -0.003896 2823.980000 0 0 1
8.715812 -32.614257 6.267275 34.335607 -1.309659 1.387237 0.020618 -0.016646 -422635.000000 0 0 1
7.894712 -31.359267 6.507075 32.985939 -1.324171 1.372226 0.004611 -0.012295 -270897.000000 0 0 1
8.010812 -30.809967 7.783575 32.772111 -1.316422 1.330999 0.019568 -0.010057 -180721.000000 0 0 1
7.261112 -29.631557 7.929175 31.521814 -1.330485 1.316519 0.021231 -0.005728 -178910.000000 0 0 1
8.020412 -28.345307 7.494675 30.396605 -1.295051 1.321664 0.040255 -0.008589 -285482.000000 0 0 1
8.740612 -27.721767 8.543375 30.296599 -1.265365 1.284927 0.033297 -0.014443 217452.000000 0 0 1
9.483812 -26.546767 8.182775 29.353558 -1.227678 1.288287 0.039147 -0.013673 261704.000000 0 0 1
8.852012 -25.436737 7.287975 27.901618 -1.235903 1.306528 0.039809 -0.010729 -80305.900000 0 0 1
8.499412 -25.887657 5.977175 27.895115 -1.253565 1.354849 0.041447 -0.006417 23024.600000 0 0 1
7.794112 -24.946027 5.145075 26.636897 -1.267967 1.376419 0.051620 0.002831 477915.000000 0 0 1
7.751312 -25.552187 3.713875 26.959043 -1.276267 1.432597 0.052355 0.001799 -7852.770000 0 0 1
6.927712 -26.703667 3.578675 27.818806 -1.316963 1.441797 0.031835 -0.001119 -428883.000000 0 0 1
7.504212 -27.968457 3.856975 29.213423 -1.308660 1.438382 0.034850 -0.001102 -375813.000000 0 0 1
6.626712 -29.188197 3.574775 30.143709 -1.347547 1.451925 0.030658 -0.005604 365497.000000 0 0 1
5.486712 -29.283497 4.453975 30.124162 -1.385578 1.422398 0.013707 -0.010353 746601.000000 0 0 1
4.393912 -30.133447 4.137775 30.731943 -1.426002 1.435745 0.009354 -0.007175 428430.000000 0 0 1
4.582512 -31.671307 4.144375 32.268359 -1.427104 1.442006 0.009608 -0.004536 244602.000000 0 0 1
5.719112 -32.161467 3.407275 32.843230 -1.394811 1.466866 0.017381 -0.002924 577022.000000 0 0 1
5.675412 -33.564537 3.424075 34.212757 -1.403291 1.470547 0.012493 -0.007566 -993258.000000 0 0 1
6.950012 -34.151379 2.934075 34.974679 -1.370032 1.486806 0.010985 -0.006582 -1098820.000000 0 0 1
6.901412 -34.172549 1.521775 34.895679 -1.371519 1.527173 0.023979 -0.005088 256582.000000 0 0 1
7.866312 33.981165 1.078375 34.896437 1.343313 1.539889 0.026052 -0.007901 -141632.000000 0 0 1
7.442912 33.297197 -0.238325 34.119746 1.350882 1.577781 0.034564 -0.006000 590028.000000 0 0 1
6.235612 32.545867 -0.250625 33.138786 1.381496 1.578359 0.022677 -0.004451 438944.000000 0 0 1
5.028312 33.302601 -0.379025 33.682203 1.420940 1.582050 0.023752 -0.007706 81919.800000 0 0 1
3.787812 32.428167 -0.127225 32.648886 1.454517 1.574693 0.026765 -0.010686 -111385.000000 0 0 1
3.497212 31.486817 -1.146425 31.701174 1.460181 1.606968 0.032991 -0.009788 289843.000000 0 0 1
2.544912 30.479857 -0.755325 30.595241 1.487495 1.595486 0.031150 -0.013219 409736.000000 0 0 1
2.444812 29.341797 -1.804625 29.498726 1.487667 1.632011 0.034546 -0.008434 333497.000000 0 0 1
1.711212 29.768557 -2.964025 29.964657 1.513376 1.669876 0.038012 -0.009040 185531.000000 0 0 1
1.748912 28.869117 -4.041925 29.203112 1.510290 1.709649 0.043377 -0.018498 -109896.000000 0 0 1
1.367112 29.559977 -5.370925 30.075041 1.524580 1.750344 0.049008 -0.020052 -443290.000000 0 0 1
0.023912 29.825967 -5.627025 30.352138 1.569995 1.757266 0.046145 -0.015354 -530224.000000 0 0 1
-0.094888 30.644887 -6.788325 31.387887 -1.567700 1.788791 0.039455 -0.007358 17506.300000 0 0 1
0.037812 29.985147 -8.233525 31.095038 1.569535 1.838778 0.039042 -0.006928 269341.000000 0 0 1
-1.204388 29.372647 -8.594925 30.628021 -1.529816 1.855239 0.037959 -0.007029 591352.000000 0 0 1
-1.251688 29.029347 -9.963925 30.717251 -1.527705 1.901148 0.032331 -0.007124 -145273.000000 0 0 1
-1.369688 30.184447 -11.033225 32.166892 -1.525450 1.920904 0.020926 -0.011057 261340.000000 0 0 1
-0.181388 30.970467 -11.264625 32.955948 -1.564940 1.919637 0.020293 -0.000063 451656.000000 0 0 1
-0.433388 32.273657 -11.773625 34.356877 -1.557369 1.920571 0.005957 -0.004083 -73874.700000 0 0 1
-0.752388 33.334010 -10.682425 35.011948 -1.548229 1.880848 0.006339 0.000897 360601.000000 0 0 1
0.348112 33.631258 -9.834625 35.041440 1.560446 1.855275 0.009659 -0.004968 14575.200000 0 0 1
-0.089088 34.357317 -8.703525 35.442693 -1.568203 1.818900 0.011453 0.005648 143157.000000 0 0 1
1.044812 -34.303811 -7.750925 35.184086 -1.540348 1.792915 0.014584 0.004322 418102.000000 0 0 1
1.874012 -33.244727 -8.234625 34.300625 -1.514486 1.813237 0.014044 0.010909 -280458.000000 0 0 1
2.760212 -32.795687 -7.277225 33.706585 -1.486830 1.788409 0.023919 0.005483 -1537790.000000 0 0 1
4.054712 -32.178297 -7.814425 33.360886 -1.445449 1.807232 0.002072 0.009507 -42714.400000 0 0 1
4.923612 -33.029207 -8.522825 34.464605 -1.422818 1.820681 0.015105 0.014127 124180.000000 0 0 1
5.541612 -33.994112 -7.693225 35.291569 -1.409201 1.790551 0.030940 0.014947 -1510330.000000 0 0 1
5.934812 33.726978 -8.227225 35.219572 1.396613 1.806573 0.031817 0.010346 -102056.000000 0 0 1
4.937912 32.762847 -8.462125 34.196413 1.421205 1.820851 0.024820 0.011395 -483072.000000 0 0 1
4.100212 33.023447 -9.564625 34.624296 1.447268 1.850676 0.031397 0.006848 109921.000000 0 0 1
3.270912 31.773887 -9.940925 33.452963 1.468214 1.872515 0.037327 0.005378 -171416.000000 0 0 1
4.052012 30.790687 -10.547225 32.798310 1.439950 1.898192 0.034031 0.001240 -181985.000000 0 0 1
3.366612 29.571737 -10.751125 31.645037 1.457439 1.917438 0.025435 0.004561 177458.000000 0 0 1
4.107412 28.813537 -11.869225 31.431978 1.429199 1.958017 0.023519 0.004437 249249.000000 0 0 1
3.878012 29.377767 -13.129525 32.411057 1.439550 1.987878 0.025091 0.004529 -296231.000000 0 0 1
4.873112 28.932567 -13.985325 32.502769 1.403932 2.015600 0.022133 -0.004361 -236243.000000 0 0 1
4.704612 29.524047 -15.396425 33.628152 1.412776 2.046364 0.029555 -0.001218 392297.000000 0 0 1
3.642112 28.886137 -16.107725 33.273604 1.445373 2.076130 0.007880 -0.002774 281750.000000 0 0 1
3.611012 29.264307 -17.464425 34.270180 1.448024 2.105528 0.036264 -0.005566 426996.000000 0 0 1
2.491012 28.501627 -18.243825 33.932065 1.483619 2.138453 0.029733 -0.013167 112239.000000 0 0 1
2.819712 27.150807 -18.482225 32.965281 1.467314 2.165976 0.042469 0.002603 11939.700000 0 0 1
1.973712 26.449967 -19.337225 32.824146 1.496314 2.200761 0.015723 -0.011202 145563.000000 0 0 1
2.904212 25.406617 -20.031825 32.483914 1.456981 2.235301 0.029513 -0.012317 599298.000000 0 0 1
3.171612 24.310447 -19.203225 31.141946 1.441066 2.235258 0.025979 -0.013317 307364.000000 0 0 1
4.223112 23.538387 -19.805125 31.050496 1.393271 2.262482 0.027721 -0.012104 240145.000000 0 0 1
4.593512 22.370987 -18.878825 29.630583 1.368278 2.261578 0.027092 -0.008410 -536965.000000 0 0 1
3.788512 21.212787 -18.865625 28.639954 1.394064 2.289909 0.054812 -0.011427 -416751.000000 0 0 1
4.286612 20.320787 -17.899625 27.417257 1.362897 2.282150 0.043413 -0.005061 -233003.000000 0 0 1
3.463912 19.058587 -17.608425 26.177950 1.391008 2.308572 0.045707 -0.012730 208687.000000 0 0 1
2.338412 19.337587 -16.769225 25.702477 1.450455 2.281591 0.039694 -0.009269 263216.000000 0 0 1
1.595812 18.227787 -16.283525 24.493918 1.483471 2.298021 0.032167 -0.007588 453998.000000 0 1 0
2.440412 17.141087 -15.490025 23.231731 1.429375 2.300651 0.014695 0.004768 -100402.000000 0 1 0
3.398312 16.332087 -16.074525 23.166267 1.365648 2.337655 0.017591 -0.007535 -310169.000000 0 1 0
2.883612 15.406687 -17.056925 23.165058 1.385771 2.398414 0.020874 -0.009764 21776.300000 0 1 0
2.874512 15.864487 -18.472125 24.518649 1.391549 2.424000 0.028057 -0.011951 839838.000000 0 1 0
4.147412 15.854087 -19.157125 25.210088 1.314931 2.433954 0.028499 -0.008995 448029.000000 0 0 1
4.017512 16.426087 -20.484625 26.562692 1.330924 2.451489 0.035515 -0.011525 -656854.000000 0 0 1
4.345312 15.354987 -21.583725 26.842402 1.295017 2.504941 0.022085 -0.019936 274465.000000 0 0 1
3.452712 14.273687 -21.857625 26.332777 1.333462 2.550001 0.022406 -0.014157 -575749.000000 0 0 1
2.172012 14.654387 -22.241225 26.723413 1.423652 2.553995 0.032655 -0.018486 -156927.000000 0 0 1
1.276312 13.423087 -22.740825 26.437726 1.475998 2.606391 0.032475 -0.014450 497271.000000 0 0 1
0.809912 12.589487 -21.693025 25.094590 1.506552 2.614852 0.027070 -0.008793 -101357.000000 0 0 1
0.140712 11.491087 -22.202025 24.999896 1.558552 2.663958 0.027791 -0.005977 -486649.000000 0 1 0
-0.417588 10.548487 -21.133125 23.623165 -1.531230 2.678317 0.018932 -0.008093 -1293200.000000 0 1 0
-1.381388 11.176787 -20.308125 23.221730 -1.447826 2.635264 0.013165 -0.006568 83426.100000 0 1 0
-1.842488 10.272887 -19.270225 21.915030 -1.393329 2.645219 -0.000250 -0.003805 135109.000000 0 1 0
-2.905288 9.282487 -19.776425 22.038880 -1.267469 2.684507 -0.009012 -0.005139 -880456.000000 0 1 0
-2.379688 8.236087 -20.582625 22.296647 -1.289522 2.746930 -0.003884 -0.006563 -407689.000000 0 1 0
-3.374488 7.384687 -21.126625 22.633052 -1.142172 2.774685 -0.001916 0.002482 -182445.000000 0 1 0
-2.796588 6.253787 -21.950925 22.995083 -1.150287 2.839084 0.000307 -0.006602 59374.400000 0 1 0
-2.111988 5.238787 -21.177125 21.917482 -1.187582 2.880935 0.009495 -0.003037 271937.000000 0 1 0
-2.002488 4.025087 -21.860725 22.318212 -1.109149 2.938769 0.019172 -0.015334 -549660.000000 0 1 0
-1.170988 2.889987 -21.164825 21.393294 -1.185826 2.995315 0.021432 -0.009747 581624.000000 0 1 0
0.230612 3.123487 -21.119125 21.350100 1.497098 2.994365 0.017123 -0.003898 -45040.200000 0 1 0
0.817312 2.287987 -20.171325 20.317117 1.227705 3.021723 0.018577 -0.004401 -673512.000000 0 1 0
2.331112 2.275887 -20.263025 20.523253 0.773411 2.982178 0.018862 -0.006913 -494440.000000 0 1 0
2.919112 1.718787 -21.426825 21.692954 0.532147 2.984792 0.032901 -0.005700 155400.000000 0 1 0
4.334412 1.809187 -21.387125 21.896790 0.395416 2.925414 0.047038 -0.001591 160394.000000 0 1 0
5.065712 1.047487 -22.508025 23.094801 0.203906 2.915692 0.048630 -0.004977 -581590.000000 0 1 0
6.449512 1.204687 -22.463525 23.402082 0.184659 2.857421 0.036441 -0.006633 -594294.000000 0 1 0
7.067712 0.385887 -23.438825 24.484280 0.054544 2.848313 0.035109 -0.013481 18291.700000 0 1 0
8.614712 0.412487 -23.397125 24.936096 0.047845 2.788430 0.029312 -0.016896 368413.000000 0 1 0
9.122812 1.687387 -23.798425 25.542866 0.182896 2.769876 0.021946 -0.019075 -1549010.000000 0 0 1
10.472912 1.828587 -23.765625 26.035179 0.172859 2.720952 0.008784 -0.012415 -2120040.000000 0 0 1
13.613812 -21.142327 22.096587 33.475260 -0.998712 0.849862 0.060046 0.010379 -956038.000000 0 0 1
12.610112 -21.973027 22.646487 33.980763 -1.049796 0.841359 0.048558 0.018733 294366.000000 0 0 1
11.310412 -21.457627 22.377487 33.001623 -1.085701 0.825660 0.034371 0.013049 745474.000000 0 0 1
10.742512 -21.333627 20.910087 31.745188 -1.104314 0.851726 0.045403 -0.005244 -707934.000000 0 0 1
11.195412 -20.125027 20.341687 30.726832 -1.063134 0.847290 0.049702 -0.010694 -63942.600000 0 0 1
11.010312 -20.125127 18.921287 29.736557 -1.070188 0.881107 0.060865 -0.017908 -62219.500000 0 0 1
11.305312 -18.787227 18.237787 28.519938 -1.029087 0.876981 0.062428 -0.020372 135597.000000 0 0 1
10.448812 -17.694527 18.589787 27.710181 -1.037383 0.835422 0.085905 -0.024456 41154.900000 0 0 1
10.846112 -16.524927 17.927487 26.685317 -0.989971 0.834145 0.074493 -0.020451 36592.500000 0 0 1
9.995912 -15.315127 18.366187 25.918877 -0.992538 0.783280 0.060411 -0.008892 357001.000000 0 0 1
8.630712 -15.364827 18.021487 25.205974 -1.059000 0.774217 0.050374 -0.012973 -273227.000000 0 0 1
7.796512 -14.457727 18.700587 24.890228 -1.076234 0.720733 0.037201 -0.005013 -104361.000000 0 1 0
6.309812 -14.709227 18.438187 24.416016 -1.165568 0.714886 0.017695 0.000194 -256088.000000 0 1 0
5.928112 -14.662027 17.066587 23.267702 -1.186574 0.747356 0.013553 -0.006873 496536.000000 0 1 0
4.532112 -14.891627 16.849187 22.938956 -1.275363 0.745833 -0.000112 -0.002842 428668.000000 0 1 0
3.953412 -16.268627 16.633087 23.599942 -1.332409 0.788664 -0.010095 -0.005149 -328012.000000 0 1 0
2.587812 -16.259827 16.293287 23.163548 -1.412966 0.790624 0.006178 -0.004536 -408438.000000 0 1 0
2.128312 -17.590427 16.238287 24.034034 -1.450389 0.828968 0.007196 -0.010186 81428.300000 0 1 0
0.605912 -17.731627 16.058487 23.930164 -1.536638 0.835164 0.014178 0.002660 -26912.400000 0 1 0
0.224912 -17.385327 14.734587 22.790530 -1.557860 0.867779 0.022126 -0.004711 -414453.000000 0 1 0
-1.149488 -17.549927 14.507187 22.798679 1.505392 0.881082 0.016034 0.001866 -340569.000000 0 1 0
-1.537788 -17.932427 13.047787 22.230193 1.485251 0.943522 0.012149 -0.011495 -302763.000000 0 1 0
-2.888588 -18.268827 12.887887 22.543106 1.413979 0.962220 0.004627 -0.011391 -416205.000000 0 1 0
-3.041188 -19.577227 12.383687 23.363911 1.416685 1.012155 0.009694 -0.009430 757358.000000 0 1 0
-4.543988 -19.945027 12.070687 23.751914 1.346794 1.037705 0.006320 -0.011383 773290.000000 0 1 0
-5.236488 -20.234227 13.265087 24.754945 1.317559 1.005275 0.002805 -0.009413 -193502.000000 0 1 0
-5.363088 -21.655827 13.393687 26.021691 1.328030 1.030124 -0.034269 0.001654 413596.000000 0 0 1
-6.381188 -22.131427 14.508087 27.221393 1.290079 1.008694 -0.008781 0.002648 711321.000000 0 0 1
-7.768988 -21.883127 14.399187 27.323342 1.229655 1.015739 0.001880 0.000617 83973.800000 0 0 1
-8.487988 -22.681027 15.319187 28.655757 1.212698 1.006769 0.010219 -0.002717 -101576.000000 0 0 1
-9.926688 -22.150227 15.403187 28.747693 1.149480 1.005334 0.016534 -0.002003 -258505.000000 0 0 1
-10.030788 -20.934327 16.128587 28.266483 1.123963 0.963572 0.009047 -0.001917 272000.000000 0 0 1
-11.341388 -20.348727 16.060387 28.295473 1.062327 0.967214 0.027390 -0.006986 661097.000000 0 0 1
-11.607388 -19.179927 17.058487 28.170783 1.026574 0.920354 0.023554 -0.002916 -311506.000000 0 0 1
-11.933088 -19.582827 18.376387 29.386686 1.023519 0.895242 0.017275 0.000655 -25152.700000 0 0 1
-12.254988 -18.500327 19.229887 29.363845 0.985739 0.856768 0.017954 -0.004273 -123694.000000 0 0 1
-12.607288 -18.909827 20.632787 30.695882 0.982767 0.833663 0.016905 -0.006421 -12996.100000 0 0 1
-13.841088 -19.601227 20.642587 31.652807 0.955966 0.860371 0.030858 -0.008888 103576.000000 0 0 1
-13.909288 -20.339627 21.838787 32.925694 0.970991 0.845610 0.029088 0.003918 -343635.000000 0 0 1
-15.166088 -21.208227 21.944387 34.078663 0.950005 0.871168 0.035285 -0.001650 -828128.000000 0 0 1
-15.347488 -22.108127 20.870287 34.057063 0.963973 0.911193 0.028685 -0.009561 527410.000000 0 0 1
-16.657688 -22.248327 20.310987 34.423870 0.928117 0.939705 0.038819 -0.008363 648301.000000 0 0 1
-17.650588 -23.045027 21.195487 35.942526 0.917186 0.940103 0.047142 -0.011926 -669794.000000 0 0 1
-18.178188 -22.230027 22.201887 36.297995 0.885337 0.912644 0.047688 -0.003682 -153642.000000 0 0 1
-19.131688 -22.894427 23.007087 37.676283 0.874693 0.913913 0.060404 -0.009911 -85259.800000 0 0 1
-19.868388 -21.993427 23.973517 38.120771 0.836118 0.890680 0.061379 -0.002953 -10129.300000 0 0 1
-20.901588 -21.188527 23.426187 37.876329 0.792215 0.903975 0.054822 -0.001361 309912.000000 0 0 1
-21.068188 -20.008727 24.271327 37.859147 0.759612 0.874872 0.050817 -0.003945 -153341.000000 0 0 1
-22.034988 -19.010927 23.652687 37.502075 0.711856 0.888337 0.047503 0.000766 -266068.000000 0 0 1
-21.512188 -18.214727 22.591087 36.123506 0.702585 0.895172 0.056438 -0.000589 116354.000000 0 0 1
-22.458588 -17.251027 22.164587 35.961855 0.655001 0.906715 0.041179 0.002490 -143326.000000 0 0 1
-22.039388 -16.740327 20.780487 34.609273 0.649594 0.926756 0.042238 0.000887 -263862.000000 0 0 1
-21.046588 -15.762727 20.799287 33.526598 0.642825 0.901567 0.041124 0.005406 -664019.000000 0 0 1
-20.830788 -15.243227 19.530787 32.368647 0.631728 0.923056 0.033435 0.000512 178.418000 0 0 1
-19.567288 -14.380027 19.298487 31.017665 0.633768 0.899276 0.031838 -0.009291 52272.400000 0 0 1
-19.300288 -14.136227 17.921387 29.891640 0.632165 0.927864 0.029359 -0.006424 -82934.700000 0 0 1
-18.447188 -13.051427 17.657187 28.677774 0.615743 0.907510 0.030353 -0.014253 -387385.000000 0 0 1
-17.970888 -13.035327 16.154587 27.456206 0.627543 0.941747 0.012317 -0.009993 201476.000000 0 0 1
-17.396888 -11.917927 15.471787 26.154634 0.600629 0.937816 0.008183 -0.005815 571451.000000 0 0 1
-16.168188 -11.403727 15.973387 25.428417 0.614287 0.891596 -0.011607 -0.014243 79707.900000 0 0 1
-15.708888 -10.038127 15.351187 24.149370 0.568610 0.881912 -0.002621 -0.014258 -138720.000000 0 1 0
-16.441388 -8.894027 15.670587 24.392422 0.495871 0.873123 -0.001390 -0.011395 -55083.600000 0 1 0
-15.973188 -7.831527 14.869787 23.185903 0.455851 0.874567 -0.016573 -0.005317 -745066.000000 0 1 0
-16.138888 -6.383427 15.449287 23.235583 0.376648 0.843439 -0.005653 -0.000037 145988.000000 0 1 0
-15.407088 -6.005727 16.610487 23.438332 0.371685 0.783158 -0.020018 -0.000514 115425.000000 0 1 0
-13.996788 -6.040827 16.531687 22.487737 0.407436 0.744920 -0.018175 -0.001586 -313794.000000 0 1 0
-13.305988 -6.063027 17.906987 23.118603 0.427552 0.684761 -0.007630 0.007511 -142597.000000 0 1 0
-13.555688 -7.182527 18.651187 24.149786 0.487244 0.688322 -0.005971 -0.006857 -52747.400000 0 1 0
-12.963788 -8.367127 18.174587 23.840810 0.573151 0.703889 -0.008377 -0.008543 -489726.000000 0 1 0
-12.969288 -9.547827 19.192887 25.054547 0.634602 0.698132 -0.003431 -0.009321 -71249.500000 0 0 1
-14.195988 -10.148327 19.504987 26.171724 0.620638 0.729857 -0.001405 -0.009075 -245661.000000 0 0 1
-15.031488 -9.419227 20.382787 27.020834 0.559773 0.716154 -0.006216 -0.003914 -774249.000000 0 0 1
-16.443288 -9.991327 20.628487 28.208914 0.546006 0.750606 0.003292 0.001703 333689.000000 0 0 1
-17.327088 -10.013327 19.512987 27.950874 0.524011 0.798032 0.012151 -0.005549 337286.000000 0 0 1
-17.776888 -8.750127 19.008587 27.457401 0.457404 0.806133 0.002746 -0.001803 -1695030.000000 0 0 1
-18.863488 -8.868927 18.031387 27.561204 0.439495 0.857631 0.023109 -0.002716 -1033520.000000 0 0 1
-20.140588 -9.076127 18.594387 28.875086 0.423385 0.871134 0.018619 -0.003044 -463562.000000 0 0 1
-21.076188 -9.241227 17.574687 28.956443 0.413222 0.918598 0.030962 0.000971 -66581.500000 0 0 1
-22.466488 -9.654427 18.140587 30.447199 0.405867 0.932529 0.038307 0.008696 237274.000000 0 0 1
-23.151088 -8.537427 18.683387 30.950436 0.353298 0.922719 0.036825 0.010128 628592.000000 0 0 1
-24.495488 -8.784927 19.072887 32.264204 0.344346 0.938316 0.035392 0.011195 113370.000000 0 0 1
-25.169718 -7.576727 19.648587 32.817502 0.292397 0.928891 0.040912 0.008321 -323986.000000 0 0 1
-24.745088 -7.322827 20.990087 33.264499 0.287719 0.887947 0.028542 0.007220 413337.000000 0 0 1
-25.372078 -6.171927 21.520187 33.837161 0.238622 0.881502 0.037688 0.006145 -894286.000000 0 0 1
-25.422138 -5.983727 23.025087 34.817305 0.231167 0.848230 0.029598 -0.000958 414699.000000 0 0 1
-24.253788 -5.697927 23.821087 34.469650 0.230745 0.807822 0.005575 -0.006350 901122.000000 0 0 1
-23.228388 -6.705427 23.775387 33.908550 0.281034 0.793770 -0.000432 0.000462 -266017.000000 0 0 1
-22.197288 -6.535127 24.880777 33.977648 0.286321 0.749149 -0.005788 0.001339 -277258.000000 0 0 1
-21.445388 -5.330027 24.710027 33.149650 0.243604 0.729649 -0.005423 -0.000770 102033.000000 0 0 1
-20.734788 -5.131527 25.927087 33.592824 0.242609 0.689122 -0.004765 -0.000991 -116798.000000 0 0 1
-20.232888 -3.681527 25.981407 33.135433 0.179988 0.669556 -0.005385 -0.003598 448250.000000 0 0 1
-19.169088 -3.519827 26.953867 33.261901 0.181597 0.626043 -0.008744 -0.000176 469687.000000 0 0 1
-19.521888 -3.481827 28.380257 34.621759 0.176499 0.609869 -0.000212 0.000366 -391822.000000 0 0 1
-20.364288 -2.342627 28.906647 35.437076 0.114533 0.616828 0.014289 -0.010632 517985.000000 0 0 1
-21.711888 -2.310327 28.445087 35.858983 0.106009 0.654671 0.018488 -0.013186 -60911.300000 0 0 1
-22.401088 -1.183927 28.848207 36.543528 0.052802 0.660932 0.036311 -0.012965 299279.000000 0 0 1
-23.730088 -0.824327 28.144647 36.822788 0.034724 0.700800 0.025496 -0.007538 -191858.000000 0 0 1
-23.534188 -0.385327 26.807777 35.674408 0.016372 0.720529 0.012355 -0.011087 -137110.000000 0 0 1
-24.744288 -0.046027 26.171137 36.016806 0.001860 0.757382 0.026761 -0.015315 121306.000000 0 0 1
-25.584708 -1.270727 25.586047 36.205494 0.049627 0.785988 0.022825 -0.012586 161230.000000 0 0 1
-26.277678 -1.936227 26.639797 37.469242 0.073550 0.779909 0.023418 -0.016206 -15196.600000 0 0 1
-26.682038 -3.237627 26.337497 37.630800 0.120751 0.795550 0.014956 -0.014878 -133182.000000 0 0 1
-25.585278 -4.327927 26.401857 37.018853 0.167571 0.776743 0.018595 -0.015502 -242442.000000 0 0 1
-25.087958 -4.368827 27.689697 37.619298 0.172411 0.743579 0.012762 -0.015421 -498516.000000 0 0 1
-24.176288 -5.415027 27.828157 37.258848 0.220344 0.727428 0.019281 -0.014596 -297417.000000 0 0 1
-23.899888 -5.840227 29.277347 38.242332 0.239665 0.698863 0.006356 -0.011731 122248.000000 0 0 1
-25.049588 -6.467027 29.833217 39.488291 0.252652 0.714387 0.010131 -0.010819 392170.000000 0 0 1
-24.855788 -7.118827 31.073107 40.423086 0.278938 0.693995 0.009409 -0.005310 -552491.000000 0 0 1
-26.215418 -7.452527 31.691197 41.798568 0.276973 0.710266 -0.004320 -0.007094 -365743.000000 0 0 1
-26.792768 -8.598227 31.144047 41.973010 0.310534 0.734745 0.004625 -0.005489 -726358.000000 0 0 1
-28.145408 -8.654027 31.471347 43.098745 0.298301 0.752160 0.003607 -0.002819 -305084.000000 0 0 1
-28.969318 -9.592627 30.523977 43.161940 0.319767 0.785271 0.004449 -0.018159 94627.000000 0 0 1
-28.673328 -10.981227 30.621607 43.363924 0.365746 0.786745 0.018063 -0.013340 1093060.000000 0 0 1
-29.625248 -11.739327 29.780117 43.615622 0.377279 0.819228 0.013801 -0.011429 960094.000000 0 0 1
-28.945778 -13.016327 29.195177 43.123557 0.422587 0.827101 0.024701 -0.013658 222700.000000 0 0 1
-28.127008 -12.530427 28.117597 41.698195 0.419101 0.830764 0.028320 -0.010734 238846.000000 0 0 1
-27.123158 -13.497127 27.811157 41.125401 0.461745 0.828133 0.027305 -0.011933 114227.000000 0 0 1
-25.772948 -12.834527 27.465697 39.791135 0.462034 0.808966 0.025777 -0.011641 -134801.000000 0 0 1
-25.121308 -11.913427 28.397557 39.742057 0.442825 0.774820 0.016728 -0.007712 358234.000000 0 0 1
-25.673138 -10.639827 28.688587 39.941845 0.392887 0.769500 0.020025 -0.005253 -875990.000000 0 0 1
-25.679468 -9.645327 27.482967 38.830154 0.359301 0.784454 0.021545 -0.011639 123122.000000 0 0 1
-24.435288 -9.112727 27.028017 37.558472 0.356957 0.767534 0.004602 -0.009634 274735.000000 0 0 1
-23.622788 -9.971027 26.278127 36.715085 0.399406 0.773126 -0.000591 -0.003360 -459630.000000 0 0 1
-23.992688 -10.172627 24.811297 35.982383 0.401014 0.809942 0.017060 0.005048 473438.000000 0 0 1
-25.191858 -10.983827 24.717727 36.962686 0.411157 0.838309 0.030650 -0.004595 762658.000000 0 0 1
-25.749258 -10.925227 23.445987 36.497934 0.401272 0.873181 0.025249 0.002612 -403835.000000 0 0 1
-27.119418 -11.612527 23.262387 37.569299 0.404578 0.903091 0.040851 -0.002557 302431.000000 0 0 1
-28.292628 -11.001727 23.751987 38.544360 0.370862 0.906856 0.049961 -0.009920 42662.400000 0 0 1
-28.473958 -11.101027 25.177477 39.596773 0.371740 0.881691 0.046056 -0.011398 -821756.000000 0 0 1
-29.911808 -10.792127 25.598397 40.822349 0.346262 0.893013 0.033262 -0.006208 -447708.000000 0 0 1
-30.332008 -9.385427 25.453517 40.693961 0.300079 0.895042 0.041118 -0.018684 667346.000000 0 0 1
-31.706288 -9.082327 25.729387 41.830356 0.278981 0.908298 0.042314 -0.011526 1005340.000000 0 0 1
-32.220638 -9.284827 27.212507 43.184465 0.280563 0.889055 0.027067 -0.011372 -375044.000000 0 0 1
-32.625608 -10.518327 27.602227 44.010776 0.311874 0.892882 0.025754 -0.018281 -215201.000000 0 0 1
-33.259378 -10.332827 28.850347 45.224949 0.301221 0.878989 0.026801 -0.016334 -796520.000000 0 0 1
-33.724778 -11.704827 29.500247 46.310131 0.334061 0.880177 0.029047 -0.005330 -409177.000000 0 0 1
-34.959321 -12.138827 29.071487 47.060138 0.334202 0.904916 0.017832 0.002223 -509165.000000 0 0 1
34.711887 -11.474427 29.491657 46.971645 -0.319254 0.891995 0.026331 0.000896 -311883.000000 0 0 1
33.449617 -12.064427 28.844157 45.786599 -0.346153 0.889282 0.022320 0.003630 -146380.000000 0 0 1
33.346077 -11.796427 27.490747 44.797965 -0.340018 0.910108 0.021126 0.003046 100630.000000 0 0 1
32.185847 -12.380927 26.902717 43.737538 -0.367221 0.908291 0.019588 0.008804 180984.000000 0 0 1
32.130347 -11.990527 25.460257 42.712488 -0.357177 0.932181 0.019105 -0.003625 209237.000000 0 0 1
31.650757 -10.632827 25.257507 41.866085 -0.324097 0.923173 0.026591 -0.012884 206849.000000 0 0 1
31.765137 -10.399627 23.893787 41.086363 -0.316393 0.950163 0.025228 -0.014457 -422963.000000 0 0 1
31.563257 -8.926627 23.573087 40.393245 -0.275619 0.947654 0.025431 0.008152 -8095.030000 0 0 1
30.212467 -8.533027 23.747887 39.364550 -0.275264 0.923188 0.029674 -0.002085 -14370.500000 0 0 1
30.048507 -7.196227 23.309187 38.704220 -0.235060 0.924494 0.030194 0.010457 -233576.000000 0 0 1
28.572297 -6.805427 23.421587 37.566750 -0.233826 0.897628 0.027804 0.013125 -81201.100000 0 0 1
27.769647 -7.499327 22.480087 36.506814 -0.263763 0.907424 0.016717 0.019261 10461.800000 0 0 1
26.436797 -7.023427 22.437587 35.379062 -0.259670 0.883816 0.020985 0.001455 69225.100000 0 0 1
14.359612 -17.173927 25.980467 34.294707 -0.874411 0.711222 0.032391 0.012762 -224566.000000 0 0 1
13.595212 -18.324527 26.188617 34.734158 -0.932491 0.716707 0.032396 0.012821 -175260.000000 0 0 1
14.364312 -19.450027 26.111347 35.587069 -0.934680 0.746999 0.036204 0.008762 -1055020.000000 0 0 1
13.520012 -20.709027 25.984787 35.872882 -0.992416 0.760695 0.024414 -0.000041 -169877.000000 0 0 1
12.917612 -21.254727 27.119887 36.798321 -1.024696 0.742194 0.031639 0.002375 382600.000000 0 0 1
11.673012 -20.649827 27.447557 36.277307 -1.056295 0.712693 0.032076 0.011071 -182120.000000 0 0 1
11.129712 -21.363127 28.717587 37.482709 -1.090508 0.697959 0.017936 0.016219 -248350.000000 0 0 1
11.626612 -20.768127 29.887557 38.206796 -1.060438 0.672515 0.017640 0.008359 -186663.000000 0 0 1
10.832112 -19.802027 30.530247 37.967762 -1.070244 0.636620 0.017678 0.008150 -314232.000000 0 0 1
10.763612 -18.368227 29.943937 36.740801 -1.040741 0.618058 0.018679 0.008492 471608.000000 0 0 1
11.952612 -17.576627 30.012017 36.776676 -0.973600 0.616233 0.011308 0.015891 189286.000000 0 0 1
11.807812 -16.366727 29.301637 35.579209 -0.945817 0.603136 0.009800 0.019031 1054990.000000 0 0 1
12.947612 -15.269127 29.618887 35.750040 -0.867488 0.594374 0.003840 0.013050 858344.000000 0 0 1
12.657812 -13.979827 29.320397 34.861748 -0.834987 0.571579 0.017678 0.009374 -541769.000000 0 0 1
13.415712 -13.107927 30.048407 35.421827 -0.773795 0.558026 0.015730 0.010579 -551717.000000 0 0 1
12.869112 -11.669827 29.935097 34.610821 -0.736564 0.525834 0.013763 0.008047 -59342.200000 0 0 1
12.935412 -10.937427 28.719187 33.342824 -0.701900 0.532914 0.032226 0.007347 -559178.000000 0 0 1
14.208612 -10.561527 28.308257 33.388440 -0.639211 0.558887 0.033853 0.001271 -777381.000000 0 0 1
14.141212 -9.542627 27.107097 32.028586 -0.593619 0.561719 0.036780 0.000063 -848.288000 0 0 1
14.376512 -8.149027 27.499777 32.083150 -0.515672 0.541103 0.042185 -0.005470 1423750.000000 0 0 1
15.711912 -7.810027 27.985547 33.031070 -0.461306 0.560011 0.041732 -0.009695 782385.000000 0 0 1
16.169812 -6.382927 27.876477 32.852741 -0.375967 0.557599 0.042980 -0.012540 1877330.000000 0 0 1
17.619012 -6.267827 28.137277 33.784932 -0.341781 0.586586 0.042317 -0.017024 1909430.000000 0 0 1
18.112112 -4.957627 27.943957 33.667364 -0.267175 0.591686 0.036234 -0.014135 479341.000000 0 0 1
19.665712 -4.943627 27.818217 34.424307 -0.246280 0.629880 0.034411 -0.011128 -692435.000000 0 0 1
20.087912 -5.621727 26.670277 33.858998 -0.272875 0.663752 0.036690 -0.005773 778998.000000 0 0 1
21.433312 -5.467827 26.190587 34.281640 -0.249781 0.701333 0.030178 -0.003759 1379430.000000 0 0 1
22.616712 -5.743027 27.199287 35.837121 -0.248673 0.709067 0.029285 -0.008077 -432682.000000 0 0 1
22.717312 -4.586127 28.010907 36.355464 -0.199201 0.691213 0.035770 -0.011181 -361846.000000 0 0 1
23.691212 -4.750127 29.005937 37.751578 -0.197878 0.694557 0.040449 -0.019517 -289392.000000 0 0 1
24.253812 -3.376427 29.429497 38.285023 -0.138323 0.693998 0.044594 -0.016464 -449281.000000 0 0 1
25.130812 -2.797127 28.489387 38.092346 -0.110846 0.725899 0.040340 -0.012928 142612.000000 0 0 1
25.230612 -1.398427 28.635477 38.190705 -0.055369 0.723033 0.035778 -0.015296 -499509.000000 0 0 1
26.382612 -0.740227 27.861017 38.377421 -0.028050 0.758346 0.046695 -0.013512 -462360.000000 0 0 1
27.642312 -1.039827 28.381237 39.631721 -0.037600 0.772563 0.058480 -0.013661 -698204.000000 0 0 1
28.639512 -0.597427 27.500127 39.709389 -0.020857 0.805800 0.053456 -0.001339 85735.200000 0 0 1
30.097212 -0.659927 28.008427 41.118727 -0.021923 0.821451 0.039774 -0.006452 36728.200000 0 0 1
30.373812 0.288473 28.981977 41.983410 0.009497 0.808865 0.040809 -0.004530 -531085.000000 0 0 1
31.596012 0.102273 29.616527 43.306548 0.003237 0.817727 0.040842 0.000338 -608440.000000 0 0 1
31.938612 1.274773 30.510197 44.187918 0.039892 0.808665 0.040747 -0.012012 -270382.000000 0 0 1
32.207312 2.477373 29.782787 43.937032 0.076768 0.825960 0.034342 -0.006021 247176.000000 0 0 1
32.254112 3.528173 30.673097 44.649912 0.108954 0.813487 0.049315 -0.016310 -310495.000000 0 0 1
32.401612 4.834173 29.853067 44.321996 0.148103 0.831796 0.040750 -0.012370 -15890.500000 0 0 1
32.245612 6.055273 30.562087 44.838455 0.185624 0.820843 0.055706 -0.015431 928536.000000 0 0 1
30.867912 6.372773 30.797797 44.067500 0.203593 0.796969 0.055915 -0.022632 527434.000000 0 0 1
30.874512 7.478173 31.789767 44.941605 0.237635 0.785044 0.041334 -0.023632 -72684.300000 0 0 1
31.283512 6.997973 33.049181 46.042134 0.220072 0.770155 0.042682 -0.011886 167145.000000 0 0 1
31.190212 8.093973 33.929955 46.792986 0.253903 0.759606 0.051397 -0.007919 -108039.000000 0 0 1
31.763712 7.629673 -33.622515 46.878767 0.235735 2.370605 0.042606 0.001263 179633.000000 0 0 1
30.898812 6.745873 -32.881135 45.622499 0.214949 2.375639 0.027882 -0.008566 218399.000000 0 0 1
30.954812 5.331173 -33.186195 45.694040 0.170551 2.383676 0.041936 -0.006474 -425439.000000 0 0 1
32.144612 4.549773 -32.651195 46.044294 0.140607 2.359054 0.041350 -0.003348 -458121.000000 0 0 1
31.989512 3.195073 -32.874655 45.981304 0.099549 2.367359 0.047163 -0.011575 649873.000000 0 0 1
32.859112 2.534773 -31.923135 45.882817 0.076988 2.340265 0.040538 0.000575 63183.900000 0 0 1
32.882812 1.006073 -31.879415 45.810355 0.030586 2.340468 0.033575 0.000155 -443889.000000 0 0 1
33.735212 0.363573 -32.821065 47.068238 0.010777 2.342431 0.053377 -0.004922 -40826.000000 0 0 1
33.789612 -1.036927 -32.657455 47.003430 -0.030678 2.338922 0.046736 -0.007302 227890.000000 0 0 1
34.527112 -1.475527 -31.368095 46.671791 -0.042709 2.307837 0.034045 0.002139 -545884.000000 0 0 1
33.773912 -1.319027 -30.214145 45.335544 -0.039035 2.300241 0.027298 0.001281 -493913.000000 0 0 1
34.520212 -1.524327 -29.058985 45.148568 -0.044129 2.270029 0.022165 0.003056 -214490.000000 0 0 1
33.711412 -1.206427 -27.789395 43.705437 -0.035772 2.259885 0.026241 0.004242 -26000.200000 0 0 1
33.626712 0.166473 -27.543035 43.467255 0.004951 2.257059 0.002739 0.009214 -137511.000000 0 0 1
32.712312 0.435673 -26.501005 42.102119 0.013318 2.251636 0.013153 0.009279 -174345.000000 0 0 1
32.250812 1.922173 -26.497835 41.784505 0.059530 2.257711 0.000046 0.011686 -142074.000000 0 0 1
31.306912 2.004473 -27.540555 41.744734 0.063939 2.291265 0.013125 0.006879 -36961.800000 0 0 1
30.549512 3.164673 -27.439035 41.184809 0.103223 2.299954 -0.006461 0.017397 -56505.500000 0 0 1
30.022112 3.713273 -28.804455 41.770950 0.123060 2.331707 0.007129 0.009877 -30985.600000 0 0 1
28.967212 4.602773 -28.559355 40.938022 0.157579 2.342872 -0.003828 0.010175 105640.000000 0 0 1
28.284012 5.016773 -29.725905 41.337426 0.175546 2.373308 0.019900 0.005793 -515256.000000 0 0 1
27.100212 5.938473 -29.459265 40.466471 0.215720 2.386185 0.019533 -0.001742 -695911.000000 0 0 1
25.918612 5.272073 -29.132015 39.347725 0.200671 2.404422 0.019670 0.003343 -318968.000000 0 0 1
25.136212 6.036173 -28.251535 38.293782 0.235676 2.400539 0.022112 -0.009829 -681963.000000 0 0 1
23.816012 5.414573 -27.817295 37.017860 0.223550 2.421063 0.029396 -0.003282 -678009.000000 0 0 1
22.840412 5.324373 -28.802515 37.143213 0.229022 2.458216 0.046556 -0.007235 -783073.000000 0 0 1
21.630012 4.925773 -28.261615 35.928255 0.223910 2.476100 0.051525 -0.007947 -457250.000000 0 0 1
20.561712 4.501973 -29.312285 36.086865 0.215548 2.518830 0.044141 -0.008606 -148765.000000 0 0 1
20.834812 3.247973 -29.912125 36.597458 0.154647 2.527554 0.044478 -0.009568 224672.000000 0 0 1
19.938712 2.869373 -30.958105 36.934940 0.142928 2.564733 0.028317 -0.011315 79012.600000 0 0 1
20.092712 3.558073 -32.374755 38.268809 0.175266 2.579202 0.033191 -0.007618 -157323.000000 0 0 1
21.305212 3.303273 -33.052685 39.462687 0.153821 2.563613 0.021177 -0.008247 -190223.000000 0 0 1
21.373012 3.833873 -34.390218 40.671751 0.177492 2.578401 0.018493 -0.012718 499834.000000 0 0 1
22.714712 3.588473 33.735759 40.828136 0.156685 0.598313 0.027319 -0.007209 618066.000000 0 0 1
22.963112 2.211273 33.503566 40.677797 0.096001 0.603009 0.027850 -0.007888 -153120.000000 0 0 1
24.228312 2.005473 32.920287 40.924056 0.082586 0.636091 0.033031 -0.012319 -438371.000000 0 0 1
24.660112 0.534773 32.817937 41.053917 0.021682 0.644523 0.033069 -0.015322 -753720.000000 0 0 1
24.250312 -0.203927 31.691327 39.905632 -0.008409 0.653178 0.025686 -0.015629 563675.000000 0 0 1
22.852512 -0.348227 31.446457 38.874648 -0.015237 0.628485 0.025316 -0.020014 40294.400000 0 0 1
22.194512 -1.390827 32.364087 39.267861 -0.062584 0.602030 0.026262 -0.021736 -968779.000000 0 0 1
22.623212 -2.773627 32.200637 39.451030 -0.121992 0.615962 0.031525 -0.027004 191891.000000 0 0 1
22.073912 -3.610027 33.168212 40.005252 -0.162108 0.593307 0.038030 -0.021859 -495951.000000 0 0 1
21.995712 -5.099227 32.802397 39.822239 -0.227804 0.602854 0.043698 -0.020335 420224.000000 0 0 1
23.198612 -5.876227 32.782207 40.587914 -0.248083 0.630583 0.034212 -0.014648 198060.000000 0 0 1
22.843812 -7.135527 32.211407 40.128920 -0.302759 0.638991 0.053279 -0.024842 -208628.000000 0 0 1
24.016512 -8.048027 31.856557 40.698941 -0.323343 0.671745 0.037971 -0.022485 -237568.000000 0 0 1
24.662512 -7.499327 30.735057 40.113877 -0.295194 0.697897 0.044532 -0.020937 -298895.000000 0 0 1
25.917312 -8.104527 30.490447 40.829619 -0.303074 0.727600 0.035166 -0.008264 211399.000000 0 0 1
26.419412 -7.840127 29.033727 40.030117 -0.288478 0.759330 0.032694 -0.013854 -223724.000000 0 0 1
25.650412 -8.405327 28.029777 38.913514 -0.316661 0.766548 0.029662 -0.012427 -369197.000000 0 0 1
26.077612 -7.996327 26.696277 38.166403 -0.297533 0.796140 0.037571 -0.011375 -198212.000000 0 0 1
25.409512 -8.787127 25.588367 37.116323 -0.332946 0.810122 0.019833 -0.002775 240398.000000 0 0 1
23.993812 -8.655627 25.572307 36.118773 -0.346214 0.784126 0.019273 -0.005287 -140198.000000 0 0 1
23.488412 -9.566327 24.643647 35.362826 -0.386765 0.799758 0.020579 -0.005310 708694.000000 0 0 1
22.048312 -9.080727 24.233377 33.997709 -0.390685 0.777322 0.017112 0.001083 622219.000000 0 0 1
21.103112 -9.089427 25.274657 34.157976 -0.406701 0.737824 0.014460 -0.001563 -820040.000000 0 0 1
19.887012 -8.596227 24.796897 32.928323 -0.407998 0.718101 0.015327 0.008330 126158.000000 0 0 1
18.789812 -8.541727 25.927347 33.139787 -0.426667 0.672345 0.025539 -0.001377 329855.000000 0 0 1
18.161212 -9.785427 26.292817 33.420001 -0.494211 0.665288 0.026190 0.003329 111342.000000 0 0 1
18.986712 -10.624827 27.033847 34.701745 -0.510178 0.677672 0.015164 -0.001309 -128278.000000 0 0 1
18.179812 -11.792527 27.740967 35.201286 -0.575433 0.663134 0.022994 -0.004926 890638.000000 0 0 1
17.316912 -12.661527 26.975307 34.465300 -0.631338 0.671836 0.020801 0.001520 624249.000000 0 0 1
16.542712 -13.535227 27.775447 35.047670 -0.685740 0.655891 0.014399 0.004785 -112935.000000 0 0 1
17.207312 -14.867227 28.213917 36.237428 -0.712569 0.678389 0.023215 0.009696 -492915.000000 0 0 1
16.315512 -15.712627 28.893437 36.713939 -0.766577 0.664884 0.023428 0.009738 -52835.800000 0 0 1
16.837512 -16.944027 29.383517 37.868099 -0.788551 0.682586 0.028400 0.012390 -253199.000000 0 0 1
17.336412 -17.942927 28.309297 37.734813 -0.802588 0.722406 0.021274 0.012117 -770147.000000 0 0 1
18.532212 -17.623727 27.707647 37.706132 -0.760277 0.745378 0.032507 0.005959 -606599.000000 0 0 1
18.799912 -18.625727 26.778937 37.649248 -0.780744 0.779487 0.023606 0.013566 -291549.000000 0 0 1
19.964112 -18.209327 25.833537 37.383379 -0.739462 0.807865 0.015036 0.008279 -77599.000000 0 0 1
21.102512 -18.157627 26.679687 38.559320 -0.710529 0.806661 0.022447 0.008622 -662438.000000 0 0 1
22.119812 -17.411427 26.114497 38.398058 -0.666851 0.822898 0.010168 0.008524 -1750960.000000 0 0 1
23.424312 -17.486327 26.815447 39.667849 -0.641259 0.828476 0.013822 0.002063 -1324420.000000 0 0 1
23.994912 -18.772627 26.697877 40.508567 -0.663891 0.851218 0.017267 0.001743 611486.000000 0 0 1
25.409812 -18.658127 26.881867 41.429688 -0.633370 0.864717 0.013441 -0.006437 510068.000000 0 0 1
26.187112 -19.967227 26.892067 42.516330 -0.651442 0.886005 0.010217 -0.011744 -300301.000000 0 0 1
25.701912 -20.702627 27.947117 43.246138 -0.678079 0.868157 0.017414 0.001611 -49788.000000 0 0 1
26.506012 -21.815927 28.279427 44.477290 -0.688642 0.881729 0.024294 -0.016436 185860.000000 0 0 1
25.727912 -22.810627 29.214287 45.119007 -0.725368 0.866505 0.025704 -0.009940 138364.000000 0 0 1
25.513112 -22.421327 30.527927 45.668251 -0.720987 0.838645 0.029458 -0.010458 -133891.000000 0 0 1
24.967012 -23.498527 31.240967 46.384593 -0.755108 0.831835 0.033548 -0.004629 -437078.000000 0 0 1
24.497112 -23.174327 32.647277 46.936155 -0.757657 0.801586 0.030353 -0.007399 -284498.000000 0 0 1
24.158812 -24.281727 33.373255 47.822846 -0.787936 0.798403 0.023571 -0.006063 -88335.300000 0 0 1
23.806912 -24.025027 -34.178612 48.084805 -0.789958 2.361429 0.022422 -0.003549 -293481.000000 0 0 1
23.681012 -25.329747 -33.372955 48.126298 -0.819026 2.337056 0.024239 -0.000925 436036.000000 0 0 1
22.530312 -26.151727 -33.622875 48.187400 -0.859651 2.343051 0.038852 -0.007480 73286.400000 0 0 1
22.399812 -26.653567 33.965028 48.639360 -0.871899 0.797772 0.031181 -0.009188 -412041.000000 0 0 1
21.044512 -27.295987 33.662285 48.177711 -0.914006 0.797203 0.025650 -0.008585 -148188.000000 0 0 1
20.958412 -28.641857 34.063826 49.193041 -0.939084 0.805914 0.018866 -0.006405 187590.000000 0 0 1
19.681112 -29.270847 33.982367 48.978872 -0.978849 0.804021 0.015098 -0.008016 274912.000000 0 0 1
19.786312 -30.832157 34.141515 50.077571 -1.000248 0.820613 -0.000132 -0.005838 -131981.000000 0 0 1
20.179512 -31.296177 -33.470085 50.069052 -0.998091 2.302957 -0.002159 -0.009633 -93114.100000 0 0 1
21.158112 -32.286857 -33.549695 51.143806 -0.990693 2.286286 -0.007048 -0.005885 -243636.000000 0 0 1
21.877112 -32.611867 -32.199265 50.783212 -0.979915 2.257580 0.004861 -0.001048 103201.000000 0 0 1
22.836712 -33.700137 -32.353505 51.999653 -0.975232 2.242329 -0.003470 -0.001806 727807.000000 0 0 1
23.457812 -34.056736 -31.147705 51.771708 -0.967636 2.216344 0.008983 0.007918 942795.000000 0 0 1
24.651312 -33.109757 -30.663715 51.421850 -0.930803 2.209701 0.014286 0.008200 334122.000000 0 0 1
25.031312 -33.448897 -29.387685 51.078678 -0.928355 2.183818 0.022888 0.016326 -125296.000000 0 0 1
26.244912 -32.818357 -29.022465 51.069986 -0.896237 2.175220 0.018289 0.018705 -10301.100000 0 0 1
26.741012 -33.066907 -27.599955 50.697728 -0.890777 2.146473 0.013118 0.012858 -449629.000000 0 0 1
27.450612 -34.184184 -27.342005 51.668944 -0.894216 2.128426 0.017644 0.019947 -985497.000000 0 0 1
28.442212 -33.900207 -26.410555 51.533493 -0.872724 2.108882 0.015696 0.014609 -182668.000000 0 0 1
-25.882348 -30.781742 9.329175 41.284925 0.871647 1.342857 0.004434 0.003125 -276472.000000 0 0 1
-26.095378 -31.996142 10.014175 42.485356 0.886628 1.332848 0.006100 -0.002100 -209828.000000 0 0 1
-24.962988 -32.264342 10.782575 42.194815 0.912298 1.312387 0.002329 -0.000356 -101141.000000 0 0 1
-25.074778 -33.595142 11.628175 43.503936 0.929615 1.300217 0.008558 -0.005824 71339.600000 0 0 1
-25.163758 34.360873 10.820175 43.942695 -0.938695 1.322004 0.007415 -0.003594 96985.700000 0 0 1
-25.446828 33.229373 11.648775 43.444519 -0.917264 1.299345 0.009485 -0.004368 57671.900000 0 0 1
-25.484308 31.913073 10.952875 42.283089 -0.896938 1.308772 0.009987 -0.007166 -367623.000000 0 0 1
-26.542018 31.777973 10.064775 42.610069 -0.874938 1.332336 0.017990 -0.008800 -399820.000000 0 0 1
-26.476278 30.558773 9.331275 41.495838 -0.856855 1.343984 0.026226 -0.008293 476045.000000 0 0 1
-25.488598 30.460773 8.065475 40.528745 -0.874034 1.370453 0.022165 -0.003347 115878.000000 0 0 1
-24.190188 30.047973 8.337375 39.465905 -0.892982 1.357937 0.019461 -0.001486 -441359.000000 0 0 1
-23.393588 30.087173 7.136575 38.774071 -0.909909 1.385686 0.009027 0.003087 739308.000000 0 0 1
-22.047988 29.285773 7.307975 37.378828 -0.925469 1.374018 0.031250 0.001991 357929.000000 0 0 1
-22.058688 27.884673 7.515375 36.340357 -0.901525 1.362488 0.021497 -0.006006 22120.100000 0 0 1
-22.568188 27.155573 6.405475 35.885629 -0.877395 1.391338 0.018432 -0.010926 -391725.000000 0 0 1
-22.774188 25.666973 6.746375 34.970998 -0.845045 1.376666 0.014636 -0.003403 -692531.000000 0 0 1
-23.801188 25.331573 7.652175 35.591304 -0.816536 1.354103 0.033760 -0.005846 156601.000000 0 0 1
-24.039088 23.946673 7.792175 34.814349 -0.783472 1.345063 0.038244 -0.002943 -364311.000000 0 0 1
-24.474588 23.156573 6.540675 34.322190 -0.757734 1.379057 0.031876 -0.015821 350821.000000 0 0 1
-25.830778 23.563973 6.190175 35.507861 -0.739539 1.395568 0.034389 -0.021395 1197370.000000 0 0 1
-26.279698 22.753173 5.155575 35.141277 -0.713600 1.423555 0.033411 -0.017343 -124097.000000 0 0 1
-26.139278 23.445873 3.801575 35.318873 -0.731133 1.462952 0.029083 -0.020570 825670.000000 0 0 1
-24.755088 23.662973 3.431375 34.416929 -0.762846 1.470930 0.030870 -0.016756 1229080.000000 0 0 1
-24.574888 24.536673 2.334075 34.805478 -0.784620 1.503685 0.025735 -0.006011 -226519.000000 0 0 1
-23.119388 25.026073 2.357275 34.152118 -0.824980 1.501719 0.031035 0.001462 -309661.000000 0 0 1
-22.791988 25.935073 1.321375 34.552116 -0.849813 1.532544 0.018617 -0.003127 -157828.000000 0 0 1
-21.436188 26.304673 1.464475 33.964550 -0.887024 1.527665 0.015193 -0.006837 -573284.000000 0 0 1
-20.932588 27.149673 0.249475 34.283235 -0.913986 1.563519 0.029032 -0.008676 93403.800000 0 0 1
-20.640988 26.373973 -0.895325 33.502812 -0.906739 1.597523 0.032955 -0.005370 -588710.000000 0 0 1
-19.583988 25.492573 -0.843225 32.157656 -0.915734 1.597021 0.031798 -0.009516 -946077.000000 0 0 1
-19.345188 24.893173 -2.248825 31.606385 -0.910158 1.642007 0.035342 -0.019216 424572.000000 0 0 1
-20.443788 24.024573 -2.539725 31.647729 -0.865749 1.651133 0.027505 -0.020901 485674.000000 0 0 1
-20.038688 22.924073 -3.344125 30.630790 -0.852458 1.680190 0.027431 -0.018370 -56342.800000 0 0 1
-21.304988 22.265673 -3.905225 31.063056 -0.807443 1.696849 0.020766 -0.008266 -77789.900000 0 0 1
-21.725288 22.955073 -5.040525 32.005162 -0.812915 1.728946 0.024916 0.001983 -528355.000000 0 0 1
-23.015388 22.605273 -5.439125 32.715295 -0.776409 1.737828 0.024721 0.001148 -424020.000000 0 0 1
-23.294088 23.182873 -6.836825 33.567876 -0.783005 1.775903 0.013030 0.009255 -177495.000000 0 0 1
-22.490088 22.587873 -7.829325 32.822467 -0.787567 1.811654 0.006698 0.004889 40970.300000 0 0 1
-21.961888 23.485773 -8.757125 33.325565 -0.818916 1.836693 0.011424 -0.005966 -320786.000000 0 0 1
-21.043988 22.830773 -9.797125 32.558828 -0.826100 1.876438 0.004417 -0.013710 -598694.000000 0 0 1
-21.701688 22.143273 -10.824325 32.839820 -0.795469 1.906687 0.000586 -0.004964 -129560.000000 0 0 1
-20.940288 21.839173 -11.990525 32.545626 -0.806407 1.948107 -0.008498 0.007431 -126171.000000 0 0 1
-21.795188 21.696673 -13.268725 33.493804 -0.783133 1.978121 -0.016345 0.004451 542464.000000 0 0 1
-22.715688 20.557173 -13.215825 33.365519 -0.735558 1.978053 -0.016062 0.005102 869986.000000 0 0 1
-23.563988 20.653373 -14.352925 34.464906 -0.719668 2.000334 -0.004885 -0.004075 -265878.000000 0 0 1
-24.517688 19.497273 -14.569325 34.547444 -0.671827 2.006137 0.011129 -0.010229 -474538.000000 0 0 1
-23.949888 18.442273 -15.258125 33.860374 -0.656201 2.038255 0.006599 -0.011565 348591.000000 0 0 1
-24.948288 17.427973 -15.292325 34.058868 -0.609761 2.036439 0.042655 -0.012645 362233.000000 0 0 1
-24.785488 16.426073 -16.450525 33.981701 -0.585272 2.076130 0.052961 -0.013843 641401.000000 0 0 1
-23.672088 15.521073 -16.305925 32.667333 -0.580351 2.093415 0.066795 -0.013578 713502.000000 0 0 1
-23.438488 14.884873 -17.558825 32.851704 -0.565802 2.134698 0.073499 -0.021422 196713.000000 0 0 1
-22.512388 13.625673 -17.398825 31.546563 -0.544272 2.154992 0.069251 -0.018334 601958.000000 0 0 1
-21.121988 13.919973 -17.325625 30.660745 -0.582695 2.171321 0.066689 -0.020916 26174.100000 0 0 1
-20.384588 12.790273 -17.063725 29.500732 -0.560358 2.187583 0.062087 -0.007606 -599776.000000 0 0 1
-19.245888 13.050873 -16.067425 28.264671 -0.595885 2.175433 0.049167 -0.007012 267933.000000 0 0 1
-18.067288 13.625973 -16.625525 28.080279 -0.646170 2.204423 0.045328 0.001489 738438.000000 0 0 1
-17.089888 13.987773 -15.650025 27.067422 -0.685910 2.187301 0.051611 0.016379 203530.000000 0 0 1
-16.147688 15.123873 -16.055125 27.335808 -0.752670 2.198552 0.028523 0.019029 -438140.000000 0 0 1
-15.348988 14.781473 -17.159525 27.359325 -0.766565 2.248738 0.039955 0.004769 280712.000000 0 0 1
-14.423288 15.819573 -17.477425 27.636036 -0.831534 2.255462 0.032872 0.003335 -98036.600000 0 0 1
-13.587188 15.577073 -18.721125 27.887943 -0.853523 2.306755 0.018144 0.001445 178766.000000 0 0 1
-12.802088 14.379973 -18.567025 26.747177 -0.843382 2.338059 0.012983 0.007325 20663.300000 0 0 1
-11.655388 14.422773 -19.386825 26.827475 -0.891121 2.378422 0.001659 0.006753 260716.000000 0 0 1
-10.866788 13.060873 -19.365725 25.762468 -0.876839 2.421437 0.002683 -0.001739 164919.000000 0 0 1
-11.450388 11.975273 -20.079325 26.032630 -0.807801 2.451699 0.018623 0.004357 70851.800000 0 0 1
-10.801288 10.762773 -19.778025 24.973493 -0.783612 2.484810 0.008482 0.008270 -319888.000000 0 1 0
-11.303888 9.724873 -20.722925 25.530191 -0.710450 2.517858 0.017305 0.008331 -234021.000000 0 0 1
-10.851988 9.897873 -22.024925 26.473210 -0.739449 2.553446 0.014240 0.009825 -292684.000000 0 0 1
-11.447888 9.006073 -22.936125 27.170375 -0.666579 2.575791 0.019126 0.021695 -53355.600000 0 0 1
-11.172588 9.230273 -24.458525 28.429634 -0.690486 2.606689 0.018349 0.007328 260220.000000 0 0 1
-9.804588 8.911773 -24.758525 28.080851 -0.737732 2.650222 0.003920 0.011284 527057.000000 0 0 1
-9.577988 8.492673 -26.102415 29.072313 -0.725411 2.685646 -0.007934 -0.001601 -356258.000000 0 0 1
-9.435688 9.536773 -27.270075 30.391433 -0.790726 2.684399 0.008870 0.000128 -1106450.000000 0 0 1
-8.251988 10.191273 -27.446715 30.418407 -0.890162 2.695886 0.005518 -0.002554 -1026600.000000 0 0 1
-7.871088 11.189073 -26.519155 29.839821 -0.957751 2.665335 -0.006631 0.006348 281248.000000 0 0 1
-6.364488 11.587773 -26.532845 29.644140 -1.068536 2.679329 0.005230 0.002343 120385.000000 0 0 1
-5.939788 12.181073 -27.716465 30.852261 -1.117098 2.686820 0.008740 -0.002223 65046.300000 0 0 1
-4.576488 12.539973 -27.656975 30.709989 -1.220864 2.691911 0.025978 -0.008272 -97698.500000 0 0 1
-4.055088 12.997673 -29.060555 32.092041 -1.268380 2.703442 0.029383 -0.008337 577950.000000 0 0 1
-2.627088 12.922273 -29.083205 31.933048 -1.370230 2.715907 0.039221 -0.013727 445569.000000 0 0 1
-2.085188 12.878173 -30.369945 33.053425 -1.410273 2.735861 0.041025 -0.011398 314752.000000 0 0 1
-0.542388 12.708173 -30.407045 32.960282 -1.528142 2.745397 0.046391 -0.012577 56106.800000 0 0 1
-0.196888 11.494573 -29.812925 31.952691 -1.553669 2.773550 0.040713 -0.001317 -456671.000000 0 0 1
1.120812 11.084673 -30.059495 32.057751 1.470025 2.786652 0.044554 -0.007855 -156078.000000 0 0 1
1.417512 10.416673 -31.443965 33.154778 1.435546 2.818945 0.050581 -0.010970 -364105.000000 0 0 1
1.601112 11.361073 -32.497995 34.463854 1.430789 2.802205 0.054275 -0.016558 252708.000000 0 0 1
1.658212 10.714373 -33.755245 35.453688 1.417249 2.830808 0.058440 -0.017982 -107713.000000 0 0 1
1.785712 11.656673 33.950077 35.939874 1.418786 0.334315 0.050456 -0.018849 -981281.000000 0 0 1
3.063512 12.093673 33.643034 35.881691 1.322700 0.355105 0.053930 -0.029100 -703634.000000 0 0 1
2.962312 12.970673 32.579137 35.191104 1.346262 0.387709 0.051482 -0.014006 -118811.000000 0 0 1
4.383012 13.397973 32.193567 35.144590 1.254630 0.412723 0.050877 -0.014680 -97696.600000 0 0 1
5.108112 12.313773 31.666967 34.358676 1.177572 0.398463 0.038497 -0.017005 492530.000000 0 0 1
6.529612 12.468473 31.691327 34.676200 1.088377 0.417953 0.039141 -0.008072 587387.000000 0 0 1
7.257112 11.174673 31.407967 34.117435 0.994825 0.401223 0.020246 -0.002186 -387605.000000 0 0 1
7.114112 10.807673 30.024027 32.693403 0.988646 0.406902 0.018970 -0.008836 164580.000000 0 0 1
7.856312 9.636473 29.680497 32.179421 0.886814 0.396692 0.018735 -0.005558 23096.700000 0 0 1
7.314112 8.897173 28.438057 30.681900 0.882741 0.384816 0.014377 -0.010467 -125423.000000 0 0 1
6.250212 8.054973 28.792367 30.544200 0.910896 0.340326 0.018230 -0.016100 -225338.000000 0 0 1
5.888012 7.256973 27.708097 29.241597 0.889167 0.325292 0.044180 -0.015484 -513816.000000 0 0 1
5.068012 6.002773 28.028197 29.108381 0.869633 0.273280 0.053074 -0.026964 -205967.000000 0 0 1
5.818012 4.963373 28.617337 29.621552 0.706294 0.261131 0.030883 -0.019604 180600.000000 0 0 1
5.031012 4.422973 29.641017 30.388545 0.721171 0.222263 0.036232 -0.021012 -305797.000000 0 0 1
5.727312 3.244673 30.410737 31.114995 0.515443 0.213166 0.038983 -0.017344 181578.000000 0 0 1
5.841412 2.037073 29.619307 30.258472 0.335543 0.205904 0.033004 -0.013779 455814.000000 0 0 1
7.086312 2.002073 28.920897 29.843633 0.275350 0.249318 0.032815 -0.009005 160324.000000 0 0 1
7.245912 0.638173 28.105707 29.031729 0.087847 0.253251 0.027285 -0.009740 17616.500000 0 0 1
7.256412 -0.478627 28.983327 29.881731 -0.065864 0.245834 0.010850 -0.001632 121491.000000 0 0 1
7.453612 -1.670127 28.229567 29.244728 -0.220429 0.264255 0.008018 0.004842 -367327.000000 0 0 1
7.907212 -2.928827 29.000787 30.201783 -0.354731 0.282956 0.009048 0.009859 -703831.000000 0 0 1
9.263412 -2.730227 29.230347 30.784381 -0.286617 0.319098 0.012229 0.002792 -1102540.000000 0 0 1
10.018312 -3.830227 28.864157 30.792479 -0.365175 0.355775 0.015708 0.005387 -510307.000000 0 0 1
11.551612 -3.575327 28.855907 31.287155 -0.300158 0.396826 0.022240 -0.002205 563227.000000 0 0 1
12.259812 -4.752527 28.418357 31.312817 -0.369815 0.433353 0.031165 -0.004625 263428.000000 0 0 1
12.425212 -5.849127 29.296527 32.355597 -0.439972 0.438347 0.039705 -0.002124 -650806.000000 0 0 1
11.630712 -7.079127 28.804027 31.859998 -0.546761 0.441571 0.034761 0.003438 -197272.000000 0 0 1
10.248012 -6.946627 29.032817 31.562349 -0.595706 0.403083 0.017770 0.009794 -490029.000000 0 0 1
9.538612 -8.076527 28.554677 31.170258 -0.702586 0.412585 0.007233 0.006336 656556.000000 0 0 1
8.013812 -7.742827 28.604547 30.698415 -0.768202 0.371477 0.007845 0.007120 402109.000000 0 0 1
7.428412 -7.494727 29.857767 31.667625 -0.789842 0.339719 0.011292 0.010337 811135.000000 0 0 1
5.995812 -7.628727 29.826417 31.364987 -0.904680 0.314516 0.002774 0.013098 997644.000000 0 0 1
5.326612 -6.966627 31.081737 32.295217 -0.918023 0.274999 -0.002423 0.010422 -52876.300000 0 0 1
5.464912 -7.639627 32.318657 33.655977 -0.949851 0.282846 0.000552 0.018058 10065.500000 0 0 1
5.042712 -6.988327 33.510424 34.600783 -0.945726 0.251712 -0.001926 0.007207 238390.000000 0 0 1
5.840712 -5.676427 33.909688 34.874097 -0.771135 0.235722 0.007972 0.001947 170290.000000 0 0 1
5.586212 -4.602527 33.055493 33.838656 -0.689150 0.215564 0.007333 0.009489 -66192.800000 0 0 1
6.087812 -3.367227 33.583525 34.296543 -0.505227 0.204266 0.014880 0.004508 -101873.000000 0 0 1
6.207512 -2.316627 32.449907 33.119427 -0.357189 0.201414 0.017988 0.004066 186143.000000 0 0 1
4.939112 -1.934227 31.961407 32.398574 -0.373257 0.164462 0.017941 0.001326 52619.700000 0 0 1
5.112912 -0.598427 31.491757 31.909728 -0.116512 0.162032 0.019364 -0.005797 794792.000000 0 0 1
3.752012 0.111173 31.115467 31.341063 0.029622 0.120056 0.025677 -0.002053 758064.000000 0 0 1
3.003112 0.400373 32.254187 32.396166 0.132538 0.093657 0.028123 -0.008546 -539643.000000 0 0 1
1.762612 1.013273 32.092477 32.156813 0.521737 0.063267 0.038747 -0.015628 40713.800000 0 0 1
0.872112 1.065273 33.366609 33.394999 0.884771 0.041237 0.035371 -0.018232 173599.000000 0 0 1
1.396012 1.997273 34.288902 34.375380 0.960769 0.070947 0.031108 -0.010467 288312.000000 0 0 1
0.453512 2.281673 -33.599745 33.680180 1.374590 3.072467 0.025434 -0.012549 -220476.000000 0 0 1
1.003512 3.385673 -32.620585 32.811162 1.282646 3.033760 0.029917 -0.009334 -44906.000000 0 0 1
2.066412 2.872473 -31.862465 32.058350 0.947179 3.030990 0.021192 -0.006070 -146362.000000 0 0 1
2.591012 3.908773 -31.017045 31.369554 0.985426 2.991537 0.031183 -0.005198 3020.290000 0 0 1
3.768312 3.503773 -30.093875 30.530606 0.749037 2.972247 0.038011 -0.001627 -80051.700000 0 0 1
3.449312 2.687273 -29.015575 29.343190 0.661851 2.992021 0.043821 -0.005955 -337394.000000 0 0 1
4.298812 2.927573 -27.955475 28.435173 0.597873 2.957650 0.051142 -0.008637 -361341.000000 0 0 1
3.892012 2.160273 -26.705365 27.073807 0.506714 2.976427 0.046643 -0.012644 66688.500000 0 0 1
4.235412 0.760773 -26.834545 27.177386 0.177727 2.982586 0.053755 -0.016468 174887.000000 0 0 1
3.710212 0.096173 -25.708455 25.974980 0.025915 2.998216 0.061784 -0.018761 -249103.000000 0 0 1
4.151812 -1.365727 -25.547605 25.918774 -0.317798 2.972154 0.057373 -0.017013 263671.000000 0 0 1
5.490312 -1.575127 -25.127255 25.768265 -0.279388 2.918076 0.050960 -0.019584 13365.900000 0 0 1
5.737312 -2.958527 -25.052625 25.870903 -0.476100 2.889412 0.049316 -0.016567 196848.000000 0 0 1
7.161912 -3.280127 -24.531825 25.765532 -0.429483 2.830887 0.049224 -0.023026 877196.000000 0 0 1
8.271512 -3.135727 -25.397935 26.894345 -0.362360 2.806439 0.038006 -0.014815 624427.000000 0 0 1
9.542612 -3.361627 -24.774525 26.760775 -0.338700 2.753883 0.025639 -0.012746 910845.000000 0 0 1
-28.881288 -4.879927 18.324087 34.550176 0.167384 1.011769 0.063679 -0.003937 892951.000000 0 0 1
-30.293058 -4.690627 18.458687 35.782600 0.153622 1.028789 0.048353 -0.001398 389208.000000 0 0 1
-30.839828 -5.463327 19.479187 36.883352 0.175333 1.014400 0.042437 -0.002155 831786.000000 0 0 1
-32.307108 -5.022127 19.870487 38.259734 0.154215 1.024697 0.044373 0.005045 865969.000000 0 0 1
-33.163648 -5.193427 18.761187 38.454926 0.155338 1.061143 0.038040 0.002891 -175864.000000 0 0 1
-34.506478 -5.274427 19.183987 39.831419 0.151679 1.068283 0.033802 0.005478 -37686.000000 0 0 1
35.323557 -5.175727 18.021587 39.991492 -0.145488 1.103319 0.034655 0.003832 744284.000000 0 0 1
33.966617 -5.433727 18.425087 39.022305 -0.158629 1.079048 0.018294 0.005685 723194.000000 0 0 1
33.102187 -4.928127 17.382187 37.711823 -0.147791 1.091763 0.023297 0.001048 525648.000000 0 0 1
31.624447 -5.263927 17.724087 36.632742 -0.164939 1.065768 0.030342 0.005437 170161.000000 0 0 1
31.050747 -4.456127 18.765787 36.553532 -0.142538 1.031680 0.031978 0.008468 -120701.000000 0 0 1
29.770287 -4.972627 19.007087 35.668843 -0.165505 1.008800 0.033167 0.004900 -112020.000000 0 0 1
28.944577 -4.377427 20.183987 35.557611 -0.150097 0.967158 0.029615 0.009148 171928.000000 0 0 1
28.311307 -3.125927 19.894587 34.743289 -0.109967 0.961102 0.041001 0.003445 205042.000000 0 0 1
29.164077 -1.992827 19.787587 35.299622 -0.068226 0.975733 0.041916 0.005530 -26975.400000 0 0 1
28.345157 -0.683927 19.900887 34.640453 -0.024124 0.958805 0.060607 -0.002452 219769.000000 0 0 1
29.085547 0.493673 19.704187 35.134993 0.016972 0.975428 0.056370 -0.006376 203965.000000 0 0 1
28.107227 1.518173 19.664787 34.336932 0.053961 0.961000 0.069933 -0.012609 386241.000000 0 0 1
28.533217 2.800373 18.977287 34.382030 0.097831 0.986091 0.057990 -0.018141 -267092.000000 0 0 1
28.471857 2.673773 17.601287 33.579771 0.093635 1.019064 0.059741 -0.019626 103220.000000 0 0 1
28.224267 3.898473 16.963487 33.159723 0.137256 1.033786 0.059357 -0.023587 98128.200000 0 0 1
27.975357 3.727073 15.421087 32.160870 0.132447 1.070713 0.062309 -0.023236 -100.387000 0 0 1
27.520517 4.966173 14.872087 31.673659 0.178532 1.082025 0.067482 -0.022465 68566.000000 0 0 1
27.043837 4.787373 13.592687 30.643909 0.175208 1.111219 0.064043 -0.019109 -488500.000000 0 0 1
26.392187 6.000373 13.024987 30.036682 0.223554 1.122272 0.067644 -0.012348 32702.600000 0 0 1
25.200147 6.405673 13.692887 29.386650 0.248920 1.086082 0.047500 -0.019456 432167.000000 0 0 1
24.806147 7.736373 13.498987 29.281718 0.302314 1.091670 0.059111 -0.021147 132328.000000 0 0 1
23.520747 8.246473 14.241587 28.706317 0.337213 1.051680 0.052729 -0.020367 144914.000000 0 0 1
22.282347 7.661973 14.007787 27.412167 0.331193 1.034441 0.049861 -0.015206 4146.320000 0 0 1
22.051647 6.333473 14.483887 27.132471 0.279683 1.007683 0.046517 -0.017183 268760.000000 0 0 1
20.638447 5.652873 14.230387 25.698334 0.267343 0.983938 0.045532 -0.017143 770257.000000 0 0 1
20.460147 5.463273 12.837787 24.764364 0.260932 1.025820 0.037212 -0.014489 850197.000000 0 1 0
19.454847 4.532473 12.416787 23.520437 0.228891 1.014653 0.039645 -0.015492 -162704.000000 0 1 0
19.117947 4.430373 10.930687 22.463393 0.227719 1.062603 0.039181 -0.011856 -106099.000000 0 1 0
20.227747 3.939173 10.190687 22.989757 0.192334 1.111552 0.038889 -0.017041 677994.000000 0 1 0
19.901047 3.613473 8.851787 22.078564 0.179615 1.158273 0.040586 -0.014888 154556.000000 0 1 0
21.070747 2.864873 8.129287 22.765526 0.135136 1.205648 0.053055 -0.015084 -557983.000000 0 1 0
21.240547 1.538673 8.550587 22.948657 0.072314 1.188991 0.050896 -0.017101 950931.000000 0 1 0
22.220547 0.826273 7.785487 23.559483 0.037168 1.234004 0.051215 -0.013466 -71455.000000 0 1 0
23.709247 1.106773 8.020687 25.053637 0.046647 1.244918 0.057846 -0.012779 -505726.000000 0 0 1
24.292347 0.508773 9.245287 25.997159 0.020941 1.207212 0.054887 -0.013145 768290.000000 0 0 1
24.021647 1.270373 10.412087 26.211923 0.052835 1.162303 0.048309 -0.008958 -841077.000000 0 0 1
24.852147 0.857273 11.628787 27.451645 0.034481 1.133370 0.049202 -0.013013 939913.000000 0 0 1
26.294097 0.896073 11.454587 28.694774 0.034066 1.160166 0.061344 -0.013879 1379050.000000 0 0 1
26.967857 0.278773 12.535287 29.740148 0.010337 1.135704 0.045497 -0.016710 -271755.000000 0 0 1
28.493237 0.359173 12.406587 31.079204 0.012605 1.160160 0.061428 -0.012950 -229802.000000 0 0 1
29.010087 1.635073 12.767587 31.737515 0.056303 1.156783 0.058623 -0.012200 300381.000000 0 0 1
30.419087 1.602273 12.587987 32.959756 0.052625 1.178924 0.046914 -0.004946 194870.000000 0 0 1
31.134377 2.847573 13.185687 33.931113 0.091207 1.171683 0.047079 -0.009567 -315108.000000 0 0 1
31.017107 4.055573 12.419087 33.656237 0.130015 1.192866 0.044533 -0.007615 463140.000000 0 0 1
31.845297 5.125573 12.891987 34.736116 0.159584 1.190559 0.033521 -0.015820 467329.000000 0 0 1
33.292617 5.181273 12.342087 35.882740 0.154390 1.219670 0.030135 -0.007239 -75930.800000 0 0 1
34.074127 4.131273 12.837187 36.645694 0.120655 1.212899 0.029755 -0.007059 246394.000000 0 0 1
-35.417426 4.182273 12.411487 37.761494 -0.117541 1.235890 0.027149 -0.002434 642424.000000 0 0 1
-34.473999 3.093673 13.048287 36.990339 -0.089500 1.210290 0.031077 0.003206 -183604.000000 0 0 1
-34.631870 1.714073 12.668187 36.915951 -0.049454 1.220514 0.028703 0.002511 549763.000000 0 0 1
35.015477 1.050273 13.079087 37.393170 0.029986 1.213469 0.031996 0.006698 202414.000000 0 0 1
34.827153 0.819973 14.632187 37.784968 0.023540 1.173151 0.030779 0.007661 355113.000000 0 0 1
-35.065488 -0.078827 15.240787 38.234490 0.002248 1.160792 0.016401 0.010036 735881.000000 0 0 1
35.420491 -0.084827 16.605587 39.119865 -0.002395 1.132409 0.018570 0.002856 -315577.000000 0 0 1
-34.779565 -1.131727 17.491587 38.946817 0.032529 1.105022 0.014247 0.006574 -221986.000000 0 0 1
-33.397168 -0.841627 17.631887 37.775158 0.025195 1.085174 0.026022 0.000677 82599.900000 0 0 1
-32.695028 -1.669027 18.533587 37.619733 0.051004 1.055657 0.016184 -0.001797 -10935.100000 0 0 1
-32.735618 -1.374027 20.024087 38.398863 0.041949 1.022216 0.027050 -0.003045 -74660.700000 0 0 1
-33.973608 -1.793827 20.568387 39.755281 0.052752 1.027016 0.027428 -0.011394 203557.000000 0 0 1
-33.876528 -1.738627 21.983287 40.421614 0.051277 0.995778 0.030001 -0.006401 209262.000000 0 0 1
-34.409634 -2.934227 22.800387 41.382245 0.085068 0.987270 0.030407 -0.001679 -28490.700000 0 0 1
-33.560328 -4.073127 22.601987 40.666150 0.120777 0.981479 0.044445 -0.011769 310362.000000 0 0 1
-33.818908 -5.255727 23.346487 41.429454 0.154175 0.972151 0.054888 -0.018466 -214735.000000 0 0 1
-33.716318 -5.073027 24.927897 42.236545 0.149342 0.939493 0.049093 -0.015941 -1152220.000000 0 0 1
-32.465278 -4.944827 25.460947 41.553645 0.151150 0.911293 0.054432 -0.016473 -1504730.000000 0 0 1
-32.400818 -4.826527 26.836067 42.347170 0.147876 0.884449 0.060374 -0.022054 443580.000000 0 0 1
-31.212648 -3.913827 27.244067 41.614740 0.124741 0.857046 0.039900 -0.017516 459875.000000 0 0 1
-31.536918 -2.532727 27.096137 41.655642 0.080138 0.862581 0.035134 -0.009289 52735.900000 0 0 1
-30.702858 -1.946727 26.096567 40.342112 0.063321 0.867308 0.038572 -0.019566 251998.000000 0 0 1
-30.950738 -0.452427 25.924917 40.376406 0.014617 0.873587 0.027726 -0.010251 336654.000000 0 0 1
-32.255068 -0.101127 25.453087 41.088432 0.003135 0.902728 0.034719 -0.017408 322596.000000 0 0 1
-32.458528 1.328273 25.325727 41.191174 -0.040899 0.908621 0.025780 -0.001871 123460.000000 0 0 1
-33.841968 1.864773 24.859707 42.032858 -0.055047 0.937959 0.008269 -0.003001 300146.000000 0 0 1
-34.203863 1.504473 23.534187 41.545465 -0.043957 0.968582 -0.004361 0.004579 552692.000000 0 0 1
-35.334308 2.207073 22.969787 42.201843 -0.062382 0.995261 0.000840 0.011079 815636.000000 0 0 1
-34.946175 3.534373 22.166187 41.533923 -0.100795 1.007840 -0.001545 0.005572 -146681.000000 0 0 1
-34.098476 3.278973 21.084587 40.224588 -0.095867 1.019054 0.001703 -0.000047 -396851.000000 0 0 1
-34.829373 3.083073 19.894687 40.229207 -0.088289 1.053498 0.006029 0.000638 -293253.000000 0 0 1
-34.073058 2.331073 18.841387 39.005192 -0.068308 1.066664 0.000277 0.002930 -242519.000000 0 0 1
-33.115788 3.118073 18.153287 37.893530 -0.093880 1.071212 0.015682 -0.001846 229550.000000 0 0 1
-32.653288 2.485573 16.976487 36.886534 -0.075974 1.092536 0.030767 0.003770 -419270.000000 0 0 1
-31.590828 3.136273 16.129287 35.608573 -0.098954 1.100713 0.031565 0.002243 -15459.900000 0 0 1
-32.240918 4.206873 15.441387 35.994597 -0.129749 1.127420 0.031901 -0.001029 953728.000000 0 0 1
-31.297838 4.934673 14.654587 34.909348 -0.156381 1.137583 0.033201 0.000877 -86381.900000 0 0 1
-31.978208 6.240973 14.214087 35.547092 -0.192741 1.159425 0.044901 0.001957 184916.000000 0 0 1
-31.374478 7.004873 13.137387 34.727756 -0.219664 1.182841 0.044465 0.007741 212454.000000 0 0 1
-31.852058 8.293073 13.108987 35.428437 -0.254707 1.191773 0.050735 0.002137 -211921.000000 0 0 1
-31.101708 9.141573 12.060087 34.588008 -0.285874 1.214636 0.049098 0.001829 -128302.000000 0 0 1
-31.589678 10.429773 11.873387 35.322305 -0.318895 1.227976 0.047583 0.009088 453244.000000 0 0 1
-30.759848 11.159173 10.917987 34.494895 -0.348018 1.248748 0.045812 0.000784 182485.000000 0 0 1
-30.899658 12.718473 10.933987 35.158221 -0.390471 1.254558 0.042743 0.003389 80616.300000 0 0 1
-30.262088 13.355273 9.811787 34.502586 -0.415612 1.282438 0.029466 0.001602 162350.000000 0 0 1
-30.237458 14.780873 9.980787 35.105472 -0.454669 1.282511 0.027576 0.002305 -152930.000000 0 0 1
-29.496398 15.623973 8.928487 34.552335 -0.487117 1.309426 0.029436 -0.004033 -308800.000000 0 0 1
-28.123248 15.781673 9.222487 33.541505 -0.511372 1.292251 0.037768 -0.000517 -316937.000000 0 0 1
-27.658868 16.731373 8.323787 33.380192 -0.544029 1.318774 0.036961 -0.015223 -15855.000000 0 0 1
-26.142628 16.989673 8.563787 32.333024 -0.576294 1.302736 0.044027 -0.008596 172432.000000 0 0 1
-25.754168 17.444473 9.857287 32.630552 -0.595359 1.263914 0.039387 -0.005399 -19539.000000 0 0 1
-26.236918 18.655773 10.336887 33.812201 -0.618104 1.260107 0.041531 -0.012459 -388871.000000 0 0 1
-26.110328 18.847273 11.822487 34.303646 -0.625229 1.218939 0.045299 -0.009684 -218896.000000 0 0 1
-24.792988 19.016173 12.300687 33.579964 -0.654291 1.195756 0.036016 0.001924 21512.700000 0 0 1
-24.701288 19.450473 13.657687 34.278374 -0.667028 1.160987 0.042897 -0.005856 28801.400000 0 0 1
-25.181088 18.441373 14.798087 34.542073 -0.632109 1.128067 0.032599 -0.003795 296166.000000 0 0 1
-24.363188 17.276573 14.983087 33.414634 -0.616825 1.105823 0.040652 -0.007112 403849.000000 0 0 1
-24.805388 16.667473 16.183687 33.985639 -0.591637 1.074477 0.035966 0.001114 -365742.000000 0 0 1
-23.857088 15.617073 16.741787 33.065708 -0.579609 1.039886 0.042603 0.002625 145698.000000 0 0 1
-22.641788 16.180973 17.272487 32.753828 -0.620491 1.015326 0.044807 0.001681 -20023.400000 0 0 1
-21.710288 15.269973 17.712887 31.910109 -0.612972 0.982329 0.035576 0.004885 -574766.000000 0 0 1
-22.077288 14.264873 18.782287 32.305844 -0.573652 0.950361 0.043447 0.001419 -831001.000000 0 0 1
-22.056488 14.791573 20.108987 33.311419 -0.590736 0.922704 0.046162 -0.005953 114879.000000 0 0 1
-22.323988 13.736773 21.048187 33.616745 -0.551620 0.894227 0.036536 -0.006728 -540268.000000 0 0 1
-22.087388 13.964673 22.542887 34.511542 -0.563793 0.858995 0.041211 0.000867 1705930.000000 0 0 1
-20.640988 14.009873 22.773187 33.777877 -0.596315 0.830910 0.051589 -0.004185 1782630.000000 0 0 1
-20.096288 15.357373 22.714887 33.995232 -0.652521 0.839038 0.046841 -0.001434 -110503.000000 0 0 1
-18.558188 15.412473 22.849187 33.227037 -0.693061 0.812523 0.049673 -0.003812 338430.000000 0 0 1
-17.847688 14.772073 21.786887 31.802870 -0.691389 0.816110 0.036744 -0.005955 102699.000000 0 0 1
-17.484988 15.614473 20.691687 31.267914 -0.728946 0.847640 0.036629 0.005268 -9613.900000 0 0 1
-16.319388 15.064873 19.713587 29.696773 -0.745447 0.844869 0.038542 0.009210 1862430.000000 0 0 1
-14.985188 14.916873 20.188487 29.234294 -0.783114 0.808512 0.033689 0.009433 516963.000000 0 0 1
-14.435288 16.126373 20.665187 29.924695 -0.840675 0.808515 0.013807 0.005248 -1366970.000000 0 0 1
-13.302088 15.910373 21.680287 30.002006 -0.874449 0.763200 -0.017337 0.010959 -250418.000000 0 0 1
-12.201288 15.232573 21.102687 28.744149 -0.895446 0.746374 -0.004009 0.015038 -289422.000000 0 0 1
-11.474288 14.632773 22.156787 28.925776 -0.905795 0.698220 0.010051 0.011752 -981538.000000 0 0 1
-10.258188 13.910673 21.691987 27.735889 -0.935387 0.672782 0.006038 0.012360 -2504890.000000 0 0 1
-9.879888 12.907573 22.642887 27.873248 -0.917491 0.622622 0.014347 0.008615 -105153.000000 0 0 1
-8.748488 12.168773 22.246387 26.823810 -0.947479 0.592849 0.014566 0.018488 573795.000000 0 0 1
-7.400688 12.975973 22.296287 26.837855 -1.052473 0.590293 0.004581 0.021110 -657601.000000 0 0 1
-7.214988 13.903373 21.250387 26.399598 -1.092113 0.635203 0.001797 0.021436 -64474.700000 0 0 1
-6.288388 14.951773 21.582287 26.998045 -1.172677 0.644497 0.001728 0.024832 212022.000000 0 0 1
-6.923988 16.059173 22.392887 28.412674 -1.163724 0.663031 0.009638 0.007142 538916.000000 0 0 1
-7.976888 16.784673 21.741687 28.601695 -1.127145 0.707247 -0.010161 0.006567 -92816.600000 0 0 1
-7.496188 17.809573 20.889087 28.455714 -1.172397 0.746469 0.001583 0.012520 -1457030.000000 0 0 1
-8.460288 18.268173 19.791587 28.231357 -1.137089 0.793928 0.007389 0.020086 691893.000000 0 0 1
-9.568488 19.081073 20.189887 29.381539 -1.105978 0.813220 -0.000096 0.014854 247973.000000 0 0 1
-10.479988 18.436473 21.076087 29.898748 -1.053908 0.788492 -0.002238 0.015716 -1167060.000000 0 0 1
-11.781888 19.271773 21.248887 31.011761 -1.022070 0.815935 -0.012500 0.010978 373375.000000 0 0 1
-12.579488 19.171973 20.071287 30.473999 -0.990117 0.851791 -0.015139 0.017897 747444.000000 0 0 1
-13.846488 19.840873 20.119987 31.467433 -0.961497 0.877091 -0.023601 0.010405 812592.000000 0 0 1
-14.743188 19.763773 18.865287 31.046213 -0.929879 0.917696 -0.002424 0.013786 -160129.000000 0 0 1
-15.289888 18.528373 18.541387 30.345746 -0.880868 0.913467 0.012465 0.011130 -179428.000000 0 0 1
-15.878988 18.641273 17.297787 29.980873 -0.865247 0.955794 0.033093 0.002980 -1225510.000000 0 0 1
-16.658288 17.412873 16.847087 29.402909 -0.807542 0.960667 0.035565 -0.002007 1302560.000000 0 0 1
-17.779188 17.027473 17.721787 30.333086 -0.763805 0.946854 0.040647 -0.001650 1620320.000000 0 0 1
-18.914388 17.903573 17.787487 31.538654 -0.757951 0.971587 0.038491 0.000135 66608.600000 0 0 1
33.544327 -9.688227 12.145175 36.967403 -0.281167 1.236042 0.045684 -0.018339 676143.000000 0 0 1
32.181827 -10.003927 11.814475 35.711768 -0.301387 1.233615 0.038431 -0.013278 802149.000000 0 0 1
31.701577 -11.188427 12.410375 35.835573 -0.339282 1.217157 0.051103 -0.009429 1370110.000000 0 0 1
30.145827 -11.460527 12.246275 34.497620 -0.363295 1.207894 0.030821 -0.000410 1352360.000000 0 0 1
29.249677 -10.524427 12.852675 33.637753 -0.345390 1.178739 0.030597 -0.001440 368333.000000 0 0 1
27.925047 -10.953927 13.036275 32.706899 -0.373818 1.160830 0.019958 0.000563 15727.100000 0 0 1
27.584127 -11.915427 14.175475 33.223569 -0.407757 1.129990 -0.002475 0.006135 -1258050.000000 0 0 1
27.771397 -11.314127 15.405575 33.713376 -0.386871 1.096225 0.001183 0.009785 100555.000000 0 0 1
27.176437 -11.891227 16.558475 33.972682 -0.412458 1.061680 -0.000929 0.006947 990948.000000 0 0 1
25.596947 -11.816027 16.670375 32.752459 -0.432474 1.036796 -0.004700 -0.003545 1076510.000000 0 0 1
25.121147 -10.458727 16.828275 31.994497 -0.394506 1.016936 -0.002946 -0.001385 -53463.000000 0 0 1
24.777747 -9.753927 15.706475 30.915517 -0.375026 1.037883 0.003900 -0.003782 -270618.000000 0 0 1
24.375547 -8.304727 16.107275 30.374003 -0.328365 1.011844 0.011377 -0.006844 568494.000000 0 0 1
25.524247 -7.467527 16.320175 31.202552 -0.284623 1.020383 0.009149 -0.002796 627185.000000 0 0 1
25.102747 -6.135827 16.511975 30.666620 -0.239728 1.002218 0.013778 -0.001676 -461629.000000 0 0 1
26.304437 -5.233227 16.442375 31.458890 -0.196384 1.020826 0.025922 -0.002217 -489294.000000 0 0 1
26.676777 -4.915127 15.134275 31.062118 -0.182204 1.061886 0.035144 -0.002947 -248832.000000 0 0 1
27.941787 -4.329927 15.036475 32.024792 -0.153740 1.082042 0.036453 -0.000580 -382406.000000 0 0 1
28.237027 -3.542827 13.724875 31.595150 -0.124815 1.121426 0.049691 -0.005096 -131851.000000 0 0 1
28.630767 -4.463027 12.686875 31.632202 -0.154638 1.158107 0.036990 -0.005885 461318.000000 0 0 1
28.957707 -3.724927 11.477375 31.371229 -0.127931 1.196243 0.044785 -0.011813 -174638.000000 0 0 1
29.568497 -4.554127 10.382875 31.667652 -0.152819 1.236748 0.049457 -0.011534 -107720.000000 0 0 1
30.902807 -4.981327 10.561275 33.035399 -0.159819 1.245388 0.056563 -0.010292 132529.000000 0 0 1
31.308927 -5.478127 9.281775 33.112084 -0.173217 1.286675 0.059376 -0.018396 235470.000000 0 0 1
32.656937 -6.273327 9.173475 34.496127 -0.189786 1.301630 0.050271 -0.014624 682767.000000 0 0 1
33.745297 -5.335227 9.234075 35.390364 -0.156805 1.306821 0.051029 -0.011228 200382.000000 0 0 1
34.922455 -6.089527 8.957475 36.563596 -0.172637 1.323294 0.049665 -0.020277 -20071.300000 0 0 1
-34.749747 -5.263127 8.441375 36.145570 0.150316 1.335081 0.036949 -0.014254 -240750.000000 0 0 1
-34.910461 -4.661827 7.156475 35.940062 0.132751 1.370334 0.033895 -0.017827 -296245.000000 0 0 1
-33.751988 -3.985827 6.771275 34.654490 0.117547 1.374137 0.024180 -0.003560 -583180.000000 0 0 1
-33.855318 -3.221927 5.449075 34.442064 0.094882 1.411919 0.029950 -0.013888 -253303.000000 0 0 1
-33.389448 -4.013227 4.343075 33.909048 0.119621 1.442363 0.031371 -0.014228 219510.000000 0 0 1
-33.357958 -3.188427 3.190275 33.661510 0.095293 1.475879 0.028721 -0.011061 -46409.600000 0 0 1
-32.645498 -3.966227 2.031275 32.948225 0.120901 1.509107 0.032820 -0.015946 80528.200000 0 0 1
-33.291408 -5.105927 1.469875 33.712740 0.152185 1.527183 0.040852 -0.005995 -407409.000000 0 0 1
-34.265127 -4.793227 0.518475 34.602641 0.138985 1.555812 0.036974 -0.008175 -733702.000000 0 0 1
-33.814498 -4.970727 -0.936925 34.190733 0.145955 1.598203 0.056656 -0.008455 -623537.000000 0 0 1
-33.833858 -6.341827 -1.327825 34.448684 0.185290 1.609351 0.060462 -0.015046 175877.000000 0 0 1
-33.167858 -6.626427 -2.535925 33.918243 0.197188 1.645632 0.052627 -0.013951 276782.000000 0 0 1
-31.612218 -6.615127 -2.543625 32.396948 0.206282 1.649392 0.037354 -0.013013 160876.000000 0 0 1
-30.978438 -7.463327 -1.615725 31.905727 0.236415 1.621459 0.040370 -0.013931 298770.000000 0 0 1
-29.859848 -6.803627 -1.003725 30.641594 0.224027 1.603559 0.036491 -0.019161 402966.000000 0 0 1
-29.278078 -7.702427 0.102275 30.274472 0.257249 1.567418 0.022394 -0.011300 -254828.000000 0 0 1
-28.845458 -8.913827 -0.398625 30.193967 0.299711 1.583999 0.029998 -0.010130 81665.400000 0 0 1
-28.232678 -9.721527 0.536075 29.864353 0.331620 1.552845 0.030950 -0.009231 -463758.000000 0 0 1
-27.849788 -11.091127 0.047375 29.977092 0.378995 1.569216 0.021306 -0.008596 -522027.000000 0 0 1
-26.764998 -10.999627 -0.834925 28.949162 0.389928 1.599641 0.019653 -0.006536 289808.000000 0 0 1
-26.169368 -12.306927 -1.144725 28.941435 0.439590 1.610360 0.019335 -0.000060 142933.000000 0 0 1
-26.963498 -13.286227 -2.065625 30.130066 0.457830 1.639407 0.014611 -0.001887 -125263.000000 0 0 1
-27.913798 -14.098427 -1.400225 31.303456 0.467696 1.615542 0.025790 -0.008793 320420.000000 0 0 1
-28.496878 -15.070627 -2.259525 32.315651 0.486462 1.640774 0.024783 -0.006061 -239292.000000 0 0 1
-29.322408 -16.095327 -1.494425 33.482779 0.502005 1.615444 0.033643 -0.012637 -390669.000000 0 0 1
-28.537228 -17.016927 -0.777925 33.234836 0.537699 1.594205 0.017942 -0.008033 55640.800000 0 0 1
-29.235038 -17.704827 0.284175 34.179366 0.544529 1.562482 0.005976 -0.001732 172028.000000 0 0 1
-29.766438 -19.110627 -0.083225 35.373208 0.570744 1.573149 0.014103 -0.008845 47405.900000 0 0 1
-28.735158 -20.083627 0.008075 35.057973 0.610002 1.570566 0.017452 -0.014125 365573.000000 0 0 1
-29.139858 -21.450127 -0.017025 36.183415 0.634552 1.571267 0.028148 -0.019663 -196862.000000 0 0 1
-29.905938 -22.001227 1.186575 37.146024 0.634274 1.538847 0.035449 -0.015822 -344277.000000 0 0 1
-29.083308 -22.149427 2.318375 36.630735 0.650875 1.507464 0.030010 -0.018121 47403.500000 0 0 1
-29.872628 -22.604227 3.385175 37.613620 0.647767 1.480676 0.027181 -0.015714 -142878.000000 0 0 1
-29.056968 -22.848427 4.654475 37.256169 0.666351 1.445537 0.011103 -0.013832 -427096.000000 0 0 1
-28.618798 -21.624527 5.151475 36.238011 0.647079 1.428156 -0.000328 -0.011733 -291037.000000 0 0 1
-27.814918 -21.703327 6.282275 35.835332 0.662598 1.394576 -0.009149 -0.009050 -233978.000000 0 0 1
-27.655118 -20.330727 6.913775 35.013487 0.633931 1.372030 -0.008876 -0.003916 -273114.000000 0 0 1
-26.606178 -20.223427 7.825275 34.323616 0.649936 1.340788 -0.001004 0.001000 -424559.000000 0 0 1
-26.516118 -19.000427 8.510475 33.712741 0.621755 1.315594 -0.001115 -0.002742 -207265.000000 0 0 1
-25.443258 -18.996527 9.580475 33.166443 0.641336 1.277760 0.009679 0.004488 -375785.000000 0 0 1
-25.773818 -19.882627 10.634775 34.244810 0.657074 1.255023 -0.001258 -0.002029 -95788.400000 0 0 1
-24.779888 -20.099127 11.630775 33.960163 0.681477 1.221238 0.019683 -0.000068 -127934.000000 0 0 1
-24.547088 -18.961127 12.688375 33.512367 0.657708 1.182494 0.014580 -0.003924 -48096.500000 0 0 1
-23.620388 -18.000127 12.145575 32.084923 0.651174 1.182573 0.008250 -0.004612 381852.000000 0 0 1
-23.387188 -16.851827 12.976875 31.612401 0.624391 1.147795 0.016393 -0.001468 163469.000000 0 0 1
-22.572188 -17.032127 14.296775 31.685877 0.646415 1.102683 0.029106 -0.006632 -123822.000000 0 0 1
-23.282388 -17.796927 15.241175 33.031706 0.652650 1.091212 0.020099 -0.009868 121335.000000 0 0 1
-22.535488 -17.857527 16.439075 33.120729 0.670101 1.051421 0.033967 -0.012091 -148219.000000 0 0 1
-23.340288 -18.519727 17.546675 34.577957 0.670744 1.038570 0.032650 0.002944 312272.000000 0 0 1
-24.326688 -17.677427 18.141875 35.119892 0.628401 1.027956 0.033085 -0.002091 397888.000000 0 0 1
-25.206368 -18.397427 18.998975 36.534742 0.630494 1.023916 0.021423 0.006121 151675.000000 0 0 1
-26.079998 -17.437827 19.853675 37.126978 0.589359 1.006584 0.019579 0.006701 -61394.000000 0 0 1
-25.382898 -16.670027 20.834975 36.827673 0.581101 0.969463 0.027050 0.004632 103009.000000 0 0 1
-26.177088 -15.606427 21.296875 37.180067 0.537611 0.960874 0.034653 0.002370 -203172.000000 0 0 1
-25.425288 -14.902627 22.441075 37.042346 0.530162 0.919997 0.030931 0.003808 351716.000000 0 0 1
-24.198888 -14.313427 22.040875 35.724789 0.534139 0.905918 0.033096 0.004449 206663.000000 0 0 1
-23.495188 -13.742927 23.111075 35.707334 0.529261 0.866843 0.025062 0.009959 69847.000000 0 0 1
-22.314288 -12.837827 22.630275 34.276327 0.522074 0.849671 0.020142 0.013883 244931.000000 0 0 1
-22.733488 -11.623727 22.023375 33.718712 0.472650 0.859059 0.025375 0.015008 852250.000000 0 0 1
-21.600488 -10.949127 21.461975 32.358628 0.469146 0.845639 0.014358 0.013212 10082.800000 0 0 1
-21.380288 -9.539127 21.995775 32.123602 0.419660 0.816572 0.011631 0.015507 -106349.000000 0 0 1
-20.826088 -9.531627 23.284775 32.661271 0.429220 0.777147 0.005255 0.010669 -93972.000000 0 0 1
-19.421388 -9.522427 23.309275 31.799202 0.455863 0.748053 0.003736 0.013735 -584437.000000 0 0 1
-18.803088 -9.575327 24.700375 32.486174 0.471014 0.706968 -0.005457 0.012925 -132996.000000 0 0 1
-19.004988 -10.883027 25.312375 33.471573 0.520059 0.713257 0.006633 0.013799 401110.000000 0 0 1
-18.284288 -10.942427 26.573275 34.061574 0.539287 0.675884 0.005532 0.008942 -405034.000000 0 0 1
-18.542188 -12.204827 27.485575 35.330261 0.582132 0.679382 0.017431 -0.000270 580045.000000 0 0 1
-19.865288 -12.354727 28.011875 36.495672 0.556385 0.695802 0.013055 0.005476 288756.000000 0 0 1
-20.719388 -12.986027 27.081875 36.487777 0.559862 0.734423 0.007035 0.005778 -287224.000000 0 0 1
-21.954988 -13.604127 27.779375 37.931352 0.554734 0.749016 0.003343 0.002260 -244379.000000 0 0 1
-21.777488 -14.799127 28.539275 38.829929 0.596876 0.745157 0.003534 0.001295 -120496.000000 0 0 1
-21.244488 -14.590627 29.813075 39.408554 0.601809 0.712832 0.003731 0.005718 -95502.500000 0 0 1
-21.781788 -15.617127 30.846875 40.864051 0.622032 0.715347 0.005473 0.000616 -705561.000000 0 0 1
-21.442688 -16.945927 30.642175 41.059666 0.668792 0.728334 0.010493 0.000082 -139274.000000 0 0 1
-21.595688 -17.908927 31.715575 42.343608 0.692343 0.724237 0.015983 -0.003144 367916.000000 0 0 1
-23.043388 -18.139827 32.289375 43.619431 0.666889 0.737351 0.021648 -0.006146 586631.000000 0 0 1
-23.605088 -17.051727 32.999275 44.010382 0.625585 0.723027 0.022019 -0.006545 -292227.000000 0 0 1
-24.901188 -17.379927 33.441475 45.171487 0.609353 0.737246 0.031442 -0.015888 -214554.000000 0 0 1
-25.579198 -16.319927 34.345675 45.828602 0.567904 0.723584 0.031741 -0.007821 -36511.700000 0 0 1
-25.033088 -16.214827 -33.274337 44.685094 0.574782 2.410793 0.036499 -0.008117 -11109.300000 0 0 1
-25.774718 -15.215327 -32.624837 44.274397 0.533271 2.399237 0.054621 -0.011678 77643.200000 0 0 1
-25.203578 -14.736427 -31.228637 42.750560 0.529090 2.389828 0.049039 -0.003820 -72060.800000 0 0 1
-25.567618 -15.568727 -30.151237 42.487474 0.546955 2.359798 0.052269 0.002755 -197069.000000 0 0 1
-24.887988 -15.387927 -28.956137 41.166225 0.553758 2.350960 0.053349 0.008154 -467692.000000 0 0 1
-25.560978 -16.114627 -27.775037 41.042630 0.562501 2.314117 0.042725 0.007385 11247.200000 0 0 1
-26.664428 -15.466227 -27.158437 41.082558 0.525608 2.293040 0.045141 0.003339 -37124.100000 0 0 1
-26.570478 -14.211227 -26.498437 40.126256 0.491138 2.292116 0.044086 0.005539 -652381.000000 0 0 1
-25.671338 -14.104627 -25.253437 38.674205 0.502406 2.282307 0.028508 0.001800 422075.000000 0 0 1
-24.280088 -13.991127 -25.608937 37.961717 0.522765 2.311218 0.005478 0.010531 999542.000000 0 0 1
-23.376388 -14.228727 -24.549637 36.764070 0.546777 2.301994 0.011018 0.012037 5051.160000 0 0 1
-22.954788 -15.698327 -24.610037 37.135073 0.599825 2.295237 0.004443 0.014374 -911740.000000 0 0 1
-22.241688 -16.096527 -25.735537 37.631220 0.626462 2.323875 -0.008946 0.021339 64660.700000 0 0 1
-22.025088 -17.506727 -25.835037 38.197370 0.671595 2.313601 0.008427 0.012248 -25637.600000 0 0 1
-21.079588 -17.886527 -27.022137 38.658411 0.703636 2.344791 0.000929 0.010403 85107.600000 0 0 1
-21.583588 -17.810727 -28.351937 39.835983 0.689918 2.362735 0.007871 0.003581 931191.000000 0 0 1
-22.696588 -18.697927 -28.644737 41.052022 0.689098 2.343071 0.029969 -0.001951 579215.000000 0 0 1
-23.259788 -18.537127 -30.086837 42.306744 0.672885 2.361942 0.024480 -0.006656 -353666.000000 0 0 1
-22.414788 -18.932027 -31.130237 42.777751 0.701364 2.385789 0.031582 -0.015203 52125.900000 0 0 1
-23.006388 -18.766827 -32.402937 43.948128 0.684255 2.399861 0.028370 -0.012370 81805.700000 0 0 1
-22.004388 -19.138027 -33.551237 44.453826 0.715841 2.426059 0.032263 -0.013220 697798.000000 0 0 1
-20.784888 -18.342027 -33.627137 43.580108 0.723045 2.452175 0.023682 -0.008296 1904940.000000 0 0 1
-19.599388 -19.010627 -33.143337 42.942062 0.770150 2.452487 0.024171 -0.017508 648807.000000 0 0 1
-19.119888 -20.257027 -33.959837 43.922520 0.814268 2.454630 0.024251 -0.017378 -1270520.000000 0 0 1
-18.731688 -19.936727 33.633475 43.353891 0.816551 0.682832 0.022542 -0.016861 30386.900000 0 0 1
-18.850288 -20.913427 32.634275 43.101052 0.837237 0.711846 0.023539 -0.020250 820478.000000 0 0 1
-20.249588 -21.493927 32.170275 43.668768 0.815199 0.742636 0.024576 -0.015515 918110.000000 0 0 1
-21.058688 -22.148127 33.135975 45.077719 0.810607 0.745004 0.026495 -0.017784 196034.000000 0 0 1
-22.243488 -22.781827 32.684675 45.629731 0.797354 0.772308 0.033747 -0.014330 106095.000000 0 0 1
-22.165488 -23.965227 31.683875 45.491855 0.824392 0.800325 0.039049 -0.007161 -754576.000000 0 0 1
-21.626088 -25.152497 32.196575 46.227213 0.860641 0.800309 0.037899 -0.005002 -75143.000000 0 0 1
-21.789888 -26.232787 31.301575 46.289815 0.877652 0.828192 0.036522 -0.002811 -212561.000000 0 0 1
-21.114888 -27.522487 31.873375 47.108787 0.916386 0.827673 0.041492 -0.011766 -69679.400000 0 0 1
-21.774188 -27.996267 32.992575 48.439821 0.909768 0.821526 0.032031 -0.013826 226272.000000 0 0 1
-21.175988 -29.225637 33.480375 49.229014 0.943771 0.822905 0.032368 -0.017095 179476.000000 0 0 1
-22.255288 -29.861767 34.404575 50.702049 0.930325 0.824991 0.035786 -0.015556 711337.000000 0 0 1
-23.384288 -30.414537 33.731775 51.085239 0.915339 0.849573 0.025773 -0.015760 854519.000000 0 0 1
-24.468788 -29.584297 33.332975 50.843283 0.879756 0.855816 0.023068 -0.012208 24911.800000 0 0 1
-25.549238 -29.267597 34.382075 51.879504 0.853127 0.846339 0.005673 -0.004651 -138518.000000 0 0 1
-26.558888 -28.366877 33.952475 51.602566 0.818303 0.852688 0.009007 -0.002014 478983.000000 0 0 1
-27.564138 -28.198757 -33.948437 52.033143 0.796778 2.281594 0.002907 0.006227 580499.000000 0 0 1
-28.778638 -27.284337 -34.294337 52.428490 0.758751 2.283810 -0.000464 -0.000610 23740.700000 0 0 1
-29.513338 -27.880447 33.596675 52.698131 0.756955 0.879507 0.000700 -0.003767 -320881.000000 0 0 1
-30.530178 -26.976667 33.144975 52.520679 0.723684 0.887846 0.001677 -0.002896 200183.000000 0 0 1
