# x y z rho theta phi s1 s2 stress_xx np intf bulk
-0.760517 -10.583288 -14.369223 17.862221 1.499059 2.505541 0.006715 -0.003903 -1198230.000000 1 0 0
2.068283 -13.360188 -13.063723 18.799821 -1.417206 2.339057 0.014795 0.004352 481611.000000 1 0 0
2.138783 -11.145688 -14.671423 18.548623 -1.381208 2.483191 0.012070 0.000259 368364.000000 1 0 0
-5.612817 -6.191888 -16.232823 18.257813 0.834413 2.666148 0.016845 -0.008987 -44940.600000 1 0 0
4.366483 -14.066388 -11.485323 18.677315 -1.269808 2.233099 0.006872 0.001642 1132920.000000 1 0 0
14.141383 -10.652588 -7.955123 19.409800 -0.645605 1.993087 0.060290 -0.016151 648770.000000 1 0 0
7.021883 10.800412 -10.908423 16.880445 0.994316 2.273413 0.032110 -0.014910 1123470.000000 1 0 0
5.790983 -4.191588 -12.622823 14.506569 -0.626530 2.626293 0.009968 -0.003196 2263200.000000 1 0 0
13.697983 0.518312 -10.028523 16.984542 0.037820 2.202413 0.028059 0.001072 -81836.200000 1 0 0
14.164683 5.052712 -10.483023 18.331991 0.342642 2.179547 0.030519 -0.002883 -405267.000000 1 0 0
4.058883 4.311312 -13.481023 14.724127 0.815547 2.727728 0.012003 -0.002410 2620660.000000 1 0 0
10.341383 -5.016688 -13.657123 17.850164 -0.451663 2.441990 0.032602 -0.005300 -811407.000000 1 0 0
2.608383 -7.500588 -11.994323 14.384932 -1.236121 2.556773 0.005285 -0.001873 2942010.000000 1 0 0
-5.571417 -2.052888 -15.167223 16.288023 0.353032 2.768457 0.010397 -0.005665 163582.000000 1 0 0
10.702483 0.049512 -9.656323 14.414929 0.004626 2.304848 0.012521 0.002753 2402160.000000 1 0 0
-1.715817 -9.523688 -16.850023 19.431107 1.392545 2.620282 0.011974 -0.006884 1490140.000000 1 0 0
8.590083 1.695612 -17.903423 19.929806 0.194886 2.686736 0.042684 -0.016826 -662102.000000 1 0 0
16.491983 -5.870988 -8.788323 19.587972 -0.342002 2.036061 0.066981 -0.008561 -752333.000000 1 0 0
10.166383 7.603012 -10.012023 16.167923 0.642129 2.238586 0.029602 -0.008009 3032080.000000 1 0 0
13.907483 -2.264988 -10.681023 17.681417 -0.161444 2.219410 0.039243 -0.001397 -1287340.000000 1 0 0
7.302983 -1.809088 -13.715023 15.643152 -0.242831 2.639844 0.017657 -0.006890 1685890.000000 1 0 0
-2.808717 6.603912 -13.862523 15.609935 -1.168662 2.663899 0.003793 -0.001500 1087970.000000 1 0 0
11.173883 1.809712 -13.992723 17.997972 0.160565 2.461415 0.030530 -0.005139 236390.000000 1 0 0
-2.390317 10.632812 -12.871423 16.865462 -1.349667 2.439020 0.002727 -0.006672 -1856570.000000 1 0 0
2.901683 -1.159388 -15.231923 15.549129 -0.380125 2.939256 0.011396 -0.008534 1733900.000000 1 0 0
-9.134917 0.470412 -15.178023 17.721184 -0.051451 2.599228 0.019010 -0.007907 112474.000000 1 0 0
2.291683 -1.802588 -18.030723 18.264942 -0.666503 2.981275 0.029157 -0.015528 1322810.000000 1 0 0
1.058683 7.874312 -13.197923 15.404894 1.437150 2.599703 0.005499 -0.002535 -741804.000000 1 0 0
9.418583 -9.088388 -9.870723 16.393282 -0.767558 2.216950 0.025710 -0.006425 -734443.000000 1 0 0
3.939383 7.266312 -13.521223 15.847444 1.074005 2.592909 0.007350 -0.004743 458588.000000 1 0 0
-2.719417 9.079712 -15.509623 18.176490 -1.279794 2.593038 -0.002459 -0.003927 711868.000000 1 0 0
5.525783 -7.554188 -15.133723 17.794089 -0.939250 2.587715 0.034891 -0.014172 236833.000000 1 0 0
4.222483 7.254312 -16.420323 18.441296 1.043668 2.669042 0.017639 -0.006861 908741.000000 1 0 0
-0.216217 5.039212 -13.555623 14.463586 -1.527916 2.785380 0.009498 -0.005243 3150370.000000 1 0 0
8.787583 4.296312 -16.580823 19.251067 0.454734 2.608607 0.036604 -0.014564 347835.000000 1 0 0
5.320583 0.362112 -14.429823 15.383742 0.067954 2.787587 0.006945 -0.002379 165268.000000 1 0 0
6.266783 7.872312 -11.650123 15.393870 0.898466 2.429204 0.011829 -0.004888 -221643.000000 1 0 0
2.771983 -8.310988 -14.985523 17.358638 -1.248867 2.612547 0.022086 -0.009822 -1059330.000000 1 0 0
3.962083 11.457712 -13.859523 18.413681 1.237868 2.422912 0.023205 -0.013870 -1900440.000000 1 0 0
0.574083 -4.614488 -13.742523 14.507929 -1.447023 2.815316 0.009420 -0.005718 2110100.000000 1 0 0
8.549483 -0.053588 -11.696123 14.487782 -0.006268 2.510375 0.005048 0.001084 134641.000000 1 0 0
-1.093117 -5.073388 -16.288923 17.095706 1.358580 2.833151 0.011133 -0.010663 826194.000000 1 0 0
4.456983 0.808512 -11.746423 12.589553 0.179452 2.773539 0.004719 -0.002855 9760.040000 1 0 0
-2.960017 -7.211188 -15.476023 17.328307 1.181292 2.675000 0.001548 -0.002707 3075110.000000 1 0 0
11.380183 -3.780788 -11.330023 16.497647 -0.320753 2.327827 0.024331 -0.006476 1239500.000000 1 0 0
6.589083 -7.069288 -12.474723 15.780037 -0.820542 2.482484 0.024775 -0.004615 -294781.000000 1 0 0
3.445183 -4.078388 -14.641323 15.584315 -0.869363 2.791938 0.018944 -0.008449 3271160.000000 1 0 0
-0.625617 -1.618788 -18.309923 18.391986 1.202006 3.047092 0.031762 -0.019074 792264.000000 1 0 0
14.923383 2.982812 -8.619723 17.490116 0.197275 2.086140 0.020554 0.004637 1127470.000000 1 0 0
6.914383 4.427512 -14.306223 16.494834 0.569550 2.620580 0.011119 -0.005650 3577340.000000 1 0 0
10.177583 -9.664888 -14.039823 19.852201 -0.759566 2.356351 0.054641 -0.013417 -345537.000000 1 0 0
9.068583 -3.280388 -15.600423 18.340484 -0.347087 2.587922 0.037237 -0.013138 638023.000000 1 0 0
-5.325117 -2.046488 -18.073123 18.952117 0.366907 2.835839 0.004987 0.001291 -945200.000000 1 0 0
5.063483 -9.033188 -11.054223 15.147052 -1.059895 2.388816 0.006316 -0.000847 1436310.000000 1 0 0
-2.479217 3.932012 -17.101723 17.722194 -1.008237 2.876198 0.012628 -0.001969 680551.000000 1 0 0
9.452683 9.428612 -14.567523 19.760179 0.784123 2.399737 0.060101 -0.014972 -424744.000000 1 0 0
9.856383 10.061112 -11.680823 18.297975 0.795677 2.263171 0.041916 -0.017547 110725.000000 1 0 0
12.064583 -5.944288 -9.653723 16.555455 -0.457795 2.193353 0.029737 -0.006324 -238016.000000 1 0 0
8.153583 6.981112 -13.790323 17.475407 0.708083 2.480183 0.024502 -0.005607 85922.600000 1 0 0
4.080283 -4.149688 -17.569323 18.508099 -0.793831 2.821727 0.040724 -0.018466 883539.000000 1 0 0
9.454883 -7.479788 -12.379523 17.279891 -0.669292 2.369442 0.033116 -0.007044 -578078.000000 1 0 0
12.067983 -8.727088 -8.849823 17.323904 -0.626101 2.106963 0.040562 -0.013710 603783.000000 1 0 0
-2.929117 -2.531088 -13.839423 14.370656 0.712631 2.868842 0.006676 -0.006830 -2644300.000000 1 0 0
-0.447617 6.092012 -17.523023 18.557190 -1.497452 2.806170 0.012729 -0.007419 1538340.000000 1 0 0
1.057783 -8.400788 -17.406223 19.356362 -1.445541 2.688850 0.015365 -0.008517 952781.000000 1 0 0
0.039383 8.670612 -15.993323 18.192510 1.566254 2.644800 0.004033 0.000945 276880.000000 1 0 0
1.775583 3.311712 -14.977823 15.441998 1.078647 2.895783 0.016016 -0.006821 -49967.500000 1 0 0
-1.974017 -0.542188 -15.803323 15.935361 0.268052 3.012773 0.014864 -0.010419 1401780.000000 1 0 0
14.205583 -4.297988 -8.520123 17.113264 -0.293800 2.091933 0.041052 -0.003619 324792.000000 1 0 0
0.594083 0.573412 -14.609323 14.632636 0.767694 3.085136 0.011068 -0.007539 1110170.000000 1 0 0
8.808883 2.784712 -12.582523 15.609962 0.306184 2.508256 0.015279 -0.000738 3323840.000000 1 0 0
5.886983 1.053912 -17.152623 18.165345 0.177147 2.806105 0.031335 -0.007284 989790.000000 1 0 0
15.308483 1.479712 -12.477323 19.804615 0.096360 2.252377 0.049139 -0.008370 -928782.000000 1 0 0
8.743083 -11.209588 -11.986623 18.595040 -0.908392 2.271315 0.041215 -0.005410 557173.000000 1 0 0
-4.620717 0.705512 -15.075323 15.783350 -0.151514 2.840932 0.014517 -0.007730 293649.000000 1 0 0
2.335783 5.063612 -17.247923 18.126966 1.138595 2.828892 0.020465 -0.009113 1038840.000000 1 0 0
5.906583 -11.652988 -12.362623 17.986503 -1.101666 2.328600 0.021602 -0.002008 454027.000000 1 0 0
12.880583 7.208112 -8.763023 17.165572 0.510192 2.106562 0.021653 -0.006333 391372.000000 1 0 0
-5.007717 3.563512 -15.564423 16.734010 -0.618472 2.765501 0.007279 -0.002672 2100840.000000 1 0 0
-0.666017 -4.453988 -19.038923 19.564309 1.422363 2.909320 0.026154 -0.016137 -1330130.000000 1 0 0
9.801783 4.507912 -10.259523 14.888050 0.431062 2.331058 0.009432 0.001319 -172035.000000 1 0 0
13.356683 3.630412 -12.945323 18.951577 0.265393 2.322759 0.044339 -0.008209 -422835.000000 1 0 0
-6.139817 5.772112 -17.122323 19.083725 -0.754539 2.684232 0.009924 -0.003466 -563007.000000 1 0 0
-10.298217 3.141912 -15.405223 18.794833 -0.296122 2.531600 0.036571 -0.005730 429840.000000 1 0 0
10.485683 13.390512 -8.240323 18.898632 0.906465 2.021976 0.064496 -0.019927 -912538.000000 1 0 0
7.353883 13.396112 -12.392623 19.675175 1.068755 2.252170 0.051049 -0.016489 144628.000000 1 0 0
5.251583 15.064112 -11.206023 19.495680 1.235355 2.183150 0.020661 -0.013374 204242.000000 1 0 0
14.467983 9.463512 -9.681523 19.814451 0.579252 2.081291 0.089647 -0.019327 835151.000000 1 0 0
8.272183 -17.239088 -2.173023 19.244147 -1.123398 1.683956 0.026914 0.000867 478126.000000 1 0 0
0.704883 -15.964688 0.048677 15.980316 -1.526672 1.567750 0.009423 -0.006898 2891710.000000 1 0 0
-9.091017 -11.737788 7.650377 16.701812 0.911793 1.094988 0.019558 -0.006615 948722.000000 1 0 0
2.010083 -15.881888 -2.551223 16.210600 -1.444901 1.728833 0.011693 -0.003522 2569030.000000 1 0 0
-1.308217 -11.023788 -9.380523 14.533738 1.452677 2.272384 0.005333 -0.001879 215947.000000 1 0 0
-4.854317 -12.641988 -13.086923 18.832201 1.204173 2.339109 0.033081 -0.004673 157634.000000 1 0 0
-8.444217 -17.742888 -1.726723 19.725528 1.126597 1.658446 0.031821 -0.018344 -376704.000000 1 0 0
-11.475817 -6.988988 -8.864723 16.097318 0.547025 2.153994 0.018856 -0.011040 2125620.000000 1 0 0
-13.547917 -11.580788 -4.657623 18.421568 0.707275 1.826406 0.007114 -0.006229 -162790.000000 1 0 0
-5.676717 -13.428888 9.722677 17.524001 1.170855 0.982649 0.017134 -0.014433 -351453.000000 1 0 0
0.195983 -13.978988 -3.654223 14.450047 -1.556777 1.826459 0.009916 -0.001749 -217445.000000 1 0 0
-14.787117 -11.639288 1.871577 18.911231 0.666840 1.471668 0.016007 -0.006407 1375650.000000 1 0 0
-3.999717 -16.407688 -7.547023 18.497771 1.331689 1.991055 0.014997 -0.007591 -31603.600000 1 0 0
0.520783 -15.261188 -9.229223 17.842467 -1.536685 2.114444 0.012895 0.000387 423387.000000 1 0 0
4.544783 -14.129188 -2.545123 15.058774 -1.259589 1.740624 0.003586 0.002935 -663852.000000 1 0 0
-3.533717 -18.048388 -2.366423 18.542692 1.377451 1.698766 0.014384 -0.009743 1168370.000000 1 0 0
-0.961817 -13.507788 0.668177 13.558462 1.499712 1.521495 0.009782 -0.004401 2964250.000000 1 0 0
-8.642117 -11.375788 -10.602923 17.790917 0.921120 2.209274 0.026739 -0.005334 2970330.000000 1 0 0
-3.735617 -14.149088 -0.389023 14.639087 1.312668 1.597374 0.008523 -0.003991 5301000.000000 1 0 0
-1.520217 -14.879288 -7.270723 16.630324 1.468980 2.023276 0.003032 -0.001967 -234003.000000 1 0 0
-14.168717 -8.002388 -1.751123 16.366343 0.514129 1.677997 0.006354 -0.004044 255793.000000 1 0 0
-10.720417 -7.255088 -11.696023 17.445933 0.594954 2.305565 0.026366 -0.012201 -1421110.000000 1 0 0
-9.437817 -14.702288 6.889577 18.780201 1.000116 1.195172 0.013395 -0.009703 -1223780.000000 1 0 0
-2.555117 -14.329088 -12.284223 19.046089 1.394334 2.271785 0.020950 -0.001769 -255208.000000 1 0 0
2.342983 -17.716088 -4.755123 18.492175 -1.439308 1.830860 0.015732 -0.006094 1051530.000000 1 0 0
-6.715217 -9.760488 -9.293723 15.057707 0.968169 2.235984 0.021574 -0.005799 292777.000000 1 0 0
-11.090917 -15.350488 0.513377 18.944907 0.945121 1.543695 0.019114 -0.008434 1471860.000000 1 0 0
-12.669517 -11.080588 3.986877 17.297147 0.718596 1.338212 0.027145 -0.005437 1671910.000000 1 0 0
-17.037717 -8.842588 -1.661623 19.267490 0.478732 1.657143 0.010577 -0.009764 -164153.000000 1 0 0
-1.446417 -19.225688 -3.985423 19.687631 1.495704 1.774638 0.015138 -0.003987 -692997.000000 1 0 0
3.242183 -14.228288 -8.733723 17.006877 -1.346753 2.110102 0.008035 -0.000097 1195390.000000 1 0 0
-4.298917 -8.035588 -12.935723 15.823536 1.079554 2.527851 0.009233 -0.003608 1504510.000000 1 0 0
5.603983 -16.578088 1.309077 17.548542 -1.244820 1.496129 0.022632 -0.005396 4030430.000000 1 0 0
-2.777217 -13.834188 -3.224823 14.474017 1.372679 1.795483 0.005911 -0.005345 -695309.000000 1 0 0
-0.411217 -13.982288 3.584377 14.440265 1.541395 1.319953 0.008457 -0.001993 -3226850.000000 1 0 0
1.184283 -16.188088 7.031577 17.688974 -1.497769 1.161993 0.025487 -0.009915 1873710.000000 1 0 0
-5.541517 -10.298688 -14.572023 18.684626 1.077151 2.465292 0.029330 -0.007865 740771.000000 1 0 0
-0.368317 -17.201588 -5.888523 18.185296 1.549388 1.900547 0.012584 -0.004883 425163.000000 1 0 0
-6.544717 -13.450388 -1.211323 15.007117 1.117941 1.651601 0.008117 -0.004434 2788950.000000 1 0 0
-1.722817 -17.757288 -0.094823 17.840919 1.474079 1.576111 0.013728 -0.007375 2817080.000000 1 0 0
-9.500217 -9.833688 -4.864623 14.512756 0.802644 1.912610 0.012958 -0.003387 2737770.000000 1 0 0
-0.761117 -16.706688 4.840277 17.410371 1.525270 1.289073 0.023958 -0.012982 2284540.000000 1 0 0
-6.803717 -9.914988 -6.366023 13.606021 0.969389 2.057690 0.015901 -0.005836 2714120.000000 1 0 0
-6.090117 -14.547688 -8.576423 17.952153 1.174332 2.068874 0.022935 -0.005912 -484935.000000 1 0 0
-5.862317 -12.218388 -10.396623 17.080560 1.123443 2.225194 0.032086 -0.004863 994569.000000 1 0 0
-10.895217 -12.078688 -8.732323 18.462230 0.836866 2.063470 0.034106 -0.014598 -336928.000000 1 0 0
3.946983 -17.109688 6.634877 18.770767 -1.344076 1.209520 0.031303 -0.009672 831487.000000 1 0 0
-6.679617 -14.408688 -4.079023 16.397134 1.136705 1.822201 0.013014 -0.011013 -366196.000000 1 0 0
-2.845917 -12.192488 -7.113823 14.400086 1.341486 2.087495 0.009876 -0.005782 2985480.000000 1 0 0
-7.069717 -12.884388 4.402677 15.341836 1.068949 1.279732 0.004171 -0.003026 1638120.000000 1 0 0
2.659183 -16.381288 2.439477 16.774055 -1.409870 1.424847 0.016621 -0.009000 4292720.000000 1 0 0
-6.191117 -12.016988 7.203977 15.317807 1.095065 1.081165 0.005110 -0.005670 845664.000000 1 0 0
-11.313617 -12.870488 -0.997123 17.165129 0.849685 1.628919 0.013250 -0.005784 15166.100000 1 0 0
-14.307117 -8.722488 4.610277 17.379012 0.547493 1.302304 0.025554 -0.006076 -85937.900000 1 0 0
-8.014717 -15.600688 4.467477 18.099047 1.096216 1.321384 0.014640 -0.005093 -348283.000000 1 0 0
-16.621217 -9.257788 1.065677 19.055371 0.508191 1.514842 0.011472 -0.001308 -1411260.000000 1 0 0
-6.731517 -17.093688 2.377877 18.524627 1.195645 1.442078 0.015099 -0.005872 1709560.000000 1 0 0
-11.511317 -14.995788 -4.760523 19.494785 0.916103 1.817485 0.031159 -0.004360 -884105.000000 1 0 0
-10.239317 -9.920188 -12.658623 19.065531 0.769569 2.296890 0.031190 -0.006226 116520.000000 1 0 0
-4.417917 -16.046988 -4.544423 17.253278 1.302141 1.837336 0.008942 -0.006533 -1124310.000000 1 0 0
-11.819217 -8.288488 0.101177 14.436175 0.611579 1.563788 0.003654 -0.000520 1764700.000000 1 0 0
-9.661717 -11.252588 3.532577 15.246266 0.861318 1.336970 0.010120 0.000267 2369990.000000 1 0 0
-14.263417 -13.075988 -0.660423 19.361371 0.741993 1.604913 0.015476 -0.000199 199906.000000 1 0 0
5.581083 -14.866288 -7.115023 17.400534 -1.211659 1.992041 0.006386 -0.004810 536883.000000 1 0 0
-7.516917 -10.648388 -1.296423 13.098585 0.956108 1.669933 0.005313 -0.002759 1098980.000000 1 0 0
-11.684517 -8.221988 -6.081423 15.527805 0.613182 1.973218 0.013460 -0.006019 -834801.000000 1 0 0
-14.485017 -6.582488 -9.213723 18.385798 0.426535 2.095703 0.028631 -0.018445 1838860.000000 1 0 0
-3.984217 -16.452288 1.426577 16.987846 1.333202 1.486721 0.010331 -0.011353 2352570.000000 1 0 0
-8.051817 -15.560488 0.195777 17.521384 1.093284 1.559622 0.019413 -0.006737 956127.000000 1 0 0
1.077983 -18.546088 3.686377 18.939610 -1.512737 1.374907 0.022249 -0.012851 134134.000000 1 0 0
-14.044617 -8.774288 -4.535423 17.170016 0.558415 1.838117 0.008409 -0.010625 -234434.000000 1 0 0
-3.331217 -14.482688 11.128377 18.565722 1.344715 0.928039 0.009568 -0.017922 -279868.000000 1 0 0
-10.866617 -12.221588 -3.864923 16.804410 0.844018 1.802868 0.013847 -0.007131 1451120.000000 1 0 0
-9.971417 -10.721788 0.508877 14.650763 0.821644 1.536055 0.009013 -0.000325 1223020.000000 1 0 0
-0.105517 -13.138688 -11.175023 17.248693 1.562765 2.275590 0.010406 -0.002937 1038080.000000 1 0 0
-5.875917 -12.653588 -6.291123 15.304180 1.136059 1.994426 0.011777 -0.009445 1590370.000000 1 0 0
1.784183 -15.729388 9.888477 18.664912 -1.457849 1.012444 0.020142 -0.012985 551369.000000 1 0 0
-8.943717 -15.747888 -5.521423 18.933361 1.054291 1.866721 0.039979 -0.013248 599286.000000 1 0 0
-3.293017 -15.624488 5.907977 17.025651 1.363076 1.216421 0.006202 -0.004698 81768.800000 1 0 0
-17.608217 -5.563088 -6.613723 19.614754 0.306013 1.914717 0.041501 -0.016112 24342.900000 1 0 0
19.050883 5.635112 -2.829323 20.067279 0.287592 1.712260 0.027532 0.011158 -664077.000000 1 0 0
12.809883 -12.390488 -5.867023 18.762709 -0.768757 1.888826 0.049515 -0.008183 416371.000000 1 0 0
10.954983 -13.420888 -1.621723 17.400054 -0.886217 1.664134 0.035899 -0.006502 2475250.000000 1 0 0
18.799183 -2.922688 4.520177 19.554626 -0.154234 1.337530 0.063539 -0.017376 -876463.000000 1 0 0
8.913483 -16.659788 5.001177 19.545089 -1.079519 1.312039 0.047259 -0.020288 -291109.000000 1 0 0
18.302783 -1.144688 6.702077 19.524857 -0.062460 1.220412 0.082513 -0.018329 -520300.000000 1 0 0
18.034883 -4.281888 -5.121423 19.230719 -0.233107 1.840364 0.073108 -0.008502 691142.000000 1 0 0
5.412583 -11.725688 14.737577 19.595510 -1.138337 0.719570 0.012284 -0.003695 -790024.000000 1 0 0
16.034183 -8.884388 -0.842023 18.350378 -0.505978 1.616698 0.050281 -0.004072 1107680.000000 1 0 0
13.803483 -12.604188 -1.481623 18.750918 -0.740015 1.649895 0.045201 -0.006210 -464149.000000 1 0 0
11.169683 -1.855188 13.875677 17.909159 -0.164589 0.684428 0.040402 -0.006021 -539379.000000 1 0 0
17.005383 -6.079788 -1.365523 18.111089 -0.343360 1.646265 0.051716 -0.004604 -1553740.000000 1 0 0
17.688983 3.622112 -1.072823 18.087862 0.201975 1.630143 0.004033 0.000856 -814808.000000 1 0 0
9.744383 -11.056588 9.608777 17.593458 -0.848399 0.993028 0.024094 -0.000603 -341738.000000 1 0 0
9.093383 -11.084888 4.243977 14.952448 -0.883775 1.283009 0.009316 -0.005184 -146613.000000 1 0 0
14.066483 -10.169088 6.879277 18.670853 -0.625950 1.193455 0.038895 -0.007829 1421010.000000 1 0 0
16.293183 -0.492888 -4.790823 16.990078 -0.030242 1.856651 0.018725 0.001308 -1847310.000000 1 0 0
15.769983 -0.428188 -1.704023 15.867558 -0.027145 1.678394 0.012644 0.001715 343419.000000 1 0 0
12.954683 -5.119888 -0.270123 13.932338 -0.376375 1.590186 0.013542 -0.004015 1391830.000000 1 0 0
14.355583 -7.525588 1.104277 16.246128 -0.482841 1.502772 0.031587 -0.001184 2969440.000000 1 0 0
15.559783 2.403212 3.700877 16.173397 0.153239 1.339926 0.022752 -0.009254 1759250.000000 1 0 0
15.946183 -7.097588 5.080677 18.178828 -0.418769 1.287541 0.058020 -0.014182 -745622.000000 1 0 0
13.739783 -12.084088 3.336377 18.599415 -0.721371 1.390439 0.027699 -0.006501 406267.000000 1 0 0
14.066083 -0.937388 9.254277 16.863423 -0.066543 0.989894 0.041934 -0.010432 871201.000000 1 0 0
14.243483 -2.762388 -1.604223 14.597299 -0.191562 1.680917 0.007784 -0.000842 1283070.000000 1 0 0
15.110683 1.846112 9.008977 17.689052 0.121570 1.036429 0.041336 -0.014059 -184979.000000 1 0 0
14.380083 -10.073688 -3.055523 17.821398 -0.611082 1.743100 0.051664 -0.008722 877493.000000 1 0 0
7.362183 -12.540588 6.118277 15.776610 -1.039940 1.172545 0.006882 -0.005658 -352571.000000 1 0 0
12.464683 -4.690788 7.028477 15.058928 -0.359933 1.085205 0.021507 -0.007207 2039270.000000 1 0 0
14.944283 -8.965888 -5.690623 18.333083 -0.540386 1.886412 0.067353 -0.013016 50276.300000 1 0 0
14.396783 -4.581288 4.760577 15.840412 -0.308084 1.265544 0.027435 -0.010347 1315880.000000 1 0 0
17.216483 -4.261688 1.050377 17.767177 -0.242658 1.511643 0.030985 -0.007801 -1201800.000000 1 0 0
10.275783 -14.455688 1.148077 17.772921 -0.952828 1.506154 0.033338 -0.004728 -234508.000000 1 0 0
16.509683 -2.495288 8.632277 18.796604 -0.150006 1.093649 0.068270 -0.016445 1666700.000000 1 0 0
16.090783 -2.603088 3.281377 16.626990 -0.160386 1.372140 0.025015 -0.007340 1889710.000000 1 0 0
7.880883 -15.141888 2.662177 17.276351 -1.090908 1.416086 0.019783 -0.008606 3282480.000000 1 0 0
16.746983 -7.076688 7.976277 19.853513 -0.399806 1.157362 0.074267 -0.013875 557116.000000 1 0 0
10.251983 -8.527688 5.109577 14.280490 -0.693838 1.204884 0.011027 -0.005521 1736320.000000 1 0 0
11.010883 -11.803388 2.102377 16.278191 -0.820121 1.441282 0.022923 -0.004071 1237670.000000 1 0 0
12.406783 -7.267388 11.951277 18.696958 -0.529883 0.877326 0.055997 -0.013220 93937.200000 1 0 0
15.265283 -9.797088 4.314977 18.644861 -0.570581 1.337249 0.034151 -0.009349 -480926.000000 1 0 0
7.425683 -10.243588 7.844177 14.886336 -0.943547 1.015802 0.006245 -0.001610 1295990.000000 1 0 0
15.285383 -3.293588 -4.437923 16.253794 -0.212228 1.847347 0.035953 -0.003204 321190.000000 1 0 0
11.827083 -9.019788 9.802277 17.813509 -0.651541 0.988106 0.038421 -0.003361 -3095010.000000 1 0 0
17.024683 -6.688488 2.482877 18.459155 -0.374345 1.435881 0.053194 -0.009831 1284630.000000 1 0 0
17.574983 3.957712 2.003377 18.126142 0.221495 1.460046 0.016379 0.000633 1656930.000000 1 0 0
14.796483 -4.912288 8.861377 17.932945 -0.320541 1.053951 0.066247 -0.012051 1088100.000000 1 0 0
12.746083 -12.604788 6.148177 18.951079 -0.779825 1.240394 0.018978 -0.005567 -1630400.000000 1 0 0
18.159683 0.729012 -0.831223 18.193309 0.040123 1.616501 0.016226 -0.000841 195292.000000 1 0 0
11.714283 -2.070588 11.043077 16.231492 -0.174951 0.822558 0.025822 -0.005309 2669220.000000 1 0 0
5.806483 -12.499988 10.494377 17.323305 -1.135934 0.920031 0.008433 0.003068 -1582240.000000 1 0 0
10.819683 -4.974888 11.111177 16.287213 -0.430974 0.820026 0.032395 -0.005079 -623663.000000 1 0 0
17.927283 1.220512 5.029777 18.659469 0.067976 1.297864 0.049767 -0.010869 -661954.000000 1 0 0
12.302983 -7.765788 7.163877 16.217028 -0.563054 1.113248 0.025404 -0.009663 -1305350.000000 1 0 0
10.844583 -7.710988 14.403577 19.609369 -0.618100 0.745830 0.066008 -0.009107 280730.000000 1 0 0
14.159583 -0.322088 3.796077 14.663142 -0.022743 1.308928 0.008217 -0.003968 1759270.000000 1 0 0
11.633883 -7.655488 2.522077 14.153255 -0.582002 1.391642 0.014772 -0.001020 1556900.000000 1 0 0
9.318983 6.045012 3.461877 11.634870 0.575445 1.268678 0.007068 -0.004426 1848380.000000 1 0 0
-3.882117 14.751512 -10.018223 18.249458 -1.313464 2.151916 0.003171 -0.006760 1822740.000000 1 0 0
8.874883 -6.433688 9.287177 14.366891 -0.627264 0.867901 0.007281 -0.001021 -405473.000000 1 0 0
5.896083 -10.570988 -8.458123 14.766497 -1.062014 2.180704 0.002454 -0.001444 1167510.000000 1 0 0
5.319283 1.058312 0.565277 5.452920 0.196393 1.466945 0.004482 -0.000198 3647480.000000 1 0 0
-0.596217 9.940612 10.940877 14.794392 -1.510890 0.738426 0.004536 0.004129 -60114.100000 1 0 0
-6.323317 -5.278188 1.122177 8.312815 0.695555 1.435389 0.009336 -0.000040 4599380.000000 1 0 0
-1.038217 3.911012 -10.878123 11.606354 -1.311321 2.785470 0.011264 -0.006436 2810640.000000 1 0 0
11.006883 5.801612 1.191577 12.499201 0.485084 1.475319 0.006990 -0.001104 510780.000000 1 0 0
-10.114517 -1.790588 -13.522123 16.981091 0.175216 2.491958 0.018228 -0.013667 3082720.000000 1 0 0
7.461883 10.902412 -6.053623 14.532330 0.970600 2.000457 0.012057 -0.004785 851642.000000 1 0 0
-12.585017 -2.877088 -9.594423 16.084565 0.224750 2.209928 0.015802 -0.006910 2503260.000000 1 0 0
-3.887017 -8.713788 2.398377 9.838253 1.151210 1.324534 0.009460 0.001026 -1225870.000000 1 0 0
8.081683 -6.564488 -5.799623 11.918126 -0.682176 2.079015 0.002771 -0.007111 1747080.000000 1 0 0
14.416383 3.150812 -4.267523 15.361363 0.215174 1.852309 0.009913 0.005763 1183000.000000 1 0 0
-2.539417 -4.951888 9.803077 11.272540 1.096947 0.516319 0.005581 -0.003168 1872290.000000 1 0 0
3.509483 -1.910388 -4.578623 6.076993 -0.498495 2.424068 0.000819 -0.002611 -2502560.000000 1 0 0
-3.946317 8.447112 -3.467623 9.947438 -1.133748 1.926868 0.002352 -0.001130 -37089.200000 1 0 0
5.815983 0.158212 11.739277 13.101959 0.027196 0.460132 0.002968 -0.001501 1090470.000000 1 0 0
7.219083 4.841112 12.349077 15.101365 0.590720 0.613313 0.012435 -0.005688 1410350.000000 1 0 0
1.194783 -14.488988 12.492177 19.168015 -1.488521 0.860946 0.008311 -0.003837 -826878.000000 1 0 0
2.956883 8.709712 -9.135323 12.963655 1.243513 2.352779 0.004326 -0.003194 2075340.000000 1 0 0
-4.457517 -8.888088 -4.537223 10.929500 1.105937 1.998888 0.015613 -0.003335 1153980.000000 1 0 0
5.681983 -6.513988 -4.070623 9.554420 -0.853512 2.010914 0.001092 -0.006718 1964480.000000 1 0 0
-3.010417 3.421412 8.663677 9.789176 -0.849212 0.484246 0.000037 -0.001602 2898400.000000 1 0 0
-3.809817 3.115512 -11.067523 12.112439 -0.685476 2.723172 0.007829 -0.007328 54783.700000 1 0 0
3.051983 -6.118688 8.547077 10.945569 -1.108112 0.674737 -0.000230 0.000364 101237.000000 1 0 0
-5.190717 -8.786388 10.516277 14.653882 1.037193 0.770382 0.011763 -0.003416 1450830.000000 1 0 0
-13.248417 -2.504588 6.568977 14.998166 0.186843 1.117440 0.014276 -0.000378 889277.000000 1 0 0
3.958083 -5.914988 -8.348223 10.970248 -0.981068 2.435630 0.003204 -0.004312 2894310.000000 1 0 0
2.983783 -0.511588 12.441477 12.804493 -0.169805 0.238687 0.004853 -0.003489 1424340.000000 1 0 0
1.466683 -1.387488 -7.558023 7.823042 -0.757658 2.880557 0.007354 -0.004659 -491130.000000 1 0 0
3.606083 -3.520388 3.442877 6.103308 -0.773374 0.971453 0.003429 0.000426 1660020.000000 1 0 0
1.545483 0.382112 -11.824823 11.931511 0.242383 3.007764 0.010062 -0.007472 401687.000000 1 0 0
4.073083 3.528812 -10.628123 11.916355 0.713923 2.672312 0.002011 -0.001065 713876.000000 1 0 0
2.800683 3.334812 3.409677 5.530885 0.872235 0.906533 -0.002704 0.002677 587428.000000 1 0 0
-5.399417 0.822512 2.664677 6.077066 -0.151171 1.116889 0.002476 -0.000969 2601450.000000 1 0 0
-9.525017 -9.369088 5.765177 14.551393 0.777146 1.163428 0.012656 0.000112 -693618.000000 1 0 0
-3.096017 3.789912 -0.493723 4.918588 -0.885829 1.671345 0.001595 -0.002033 73123.200000 1 0 0
-15.910517 -6.523588 5.006877 17.910069 0.389112 1.287464 0.038452 -0.011636 25660.700000 1 0 0
0.982683 6.729812 -8.070123 10.553810 1.425802 2.441317 0.004814 -0.001938 1350090.000000 1 0 0
-1.676417 6.499112 -9.456023 11.595913 -1.318354 2.524323 0.006143 -0.002281 1144540.000000 1 0 0
2.049883 -0.314288 5.266077 5.659714 -0.152135 0.375159 0.003433 0.000616 3116060.000000 1 0 0
-3.432817 -0.595388 -6.272823 7.175446 0.171732 2.634596 0.014688 -0.009391 1326570.000000 1 0 0
1.847483 -1.125888 -2.497123 3.304004 -0.547315 2.427651 0.005933 -0.000076 2212170.000000 1 0 0
2.402683 -8.546188 -7.671423 11.732900 -1.296730 2.283443 0.000794 -0.001527 1863180.000000 1 0 0
-2.477417 13.995612 -5.583323 15.270502 -1.395597 1.945104 -0.001782 0.002937 3367780.000000 1 0 0
6.891583 -5.096088 -8.092923 11.788106 -0.636725 2.327506 0.003005 -0.005961 3292260.000000 1 0 0
-14.318717 -5.110188 -2.150523 15.354622 0.342799 1.711315 0.010640 -0.003899 392957.000000 1 0 0
-2.771617 6.843012 -6.801223 10.038192 -1.185962 2.315202 0.004176 -0.001227 -2299370.000000 1 0 0
-5.734317 -1.138188 -8.069623 9.964772 0.195941 2.514633 0.016939 -0.011031 -518711.000000 1 0 0
-5.751517 -10.624688 3.435577 12.560539 1.074630 1.293744 0.004712 -0.000235 -1600580.000000 1 0 0
8.110883 -7.546788 6.693577 12.943895 -0.749387 1.027311 0.005214 -0.003899 2181290.000000 1 0 0
8.923083 -5.944188 13.161477 16.975844 -0.587651 0.683597 0.030177 -0.004494 389618.000000 1 0 0
-4.726017 9.517112 -0.793123 10.655501 -1.109888 1.645298 0.002676 -0.000267 645384.000000 1 0 0
2.810183 6.653612 12.117877 14.107113 1.171169 0.537501 0.006386 -0.002573 1696540.000000 1 0 0
6.119983 -2.772688 10.872777 12.781208 -0.425391 0.553510 0.002790 -0.000173 -217776.000000 1 0 0
-9.697917 -6.593788 -1.094023 11.778137 0.597121 1.663816 0.010750 -0.001143 1141690.000000 1 0 0
0.881483 -13.371788 6.197377 14.764458 -1.504970 1.137627 0.007510 -0.004806 931485.000000 1 0 0
-0.515717 -3.141088 8.778877 9.338152 1.408064 0.347848 0.004332 -0.002364 2761160.000000 1 0 0
4.186883 0.839312 3.431777 5.478278 0.197840 0.893827 0.000362 0.002933 1971220.000000 1 0 0
-10.187417 5.560612 8.201577 14.211606 -0.499637 0.955618 -0.003596 -0.001977 38026.400000 1 0 0
9.404883 7.954412 -0.040923 12.317718 0.702036 1.574119 0.002395 -0.000939 111279.000000 1 0 0
4.324983 2.857512 8.245577 9.739630 0.583860 0.561231 0.000541 -0.001182 3014800.000000 1 0 0
1.378783 2.657912 -9.777123 10.225344 1.092264 2.844411 0.011519 -0.005082 1290750.000000 1 0 0
-1.384117 -10.309688 3.034977 10.835891 1.437340 1.286913 0.009986 -0.002846 -1256390.000000 1 0 0
-9.891417 9.603012 8.994877 16.461038 -0.770605 0.992695 0.002258 -0.001981 2116010.000000 1 0 0
9.791383 -1.991588 -7.606923 12.557981 -0.200665 2.221497 0.011733 0.000509 1621210.000000 1 0 0
-5.259717 -1.883788 6.701377 8.724777 0.343920 0.694950 0.001708 -0.001740 1576270.000000 1 0 0
3.165483 -7.814288 -4.950723 9.777169 -1.185910 2.101749 -0.001397 -0.005013 2528000.000000 1 0 0
-5.092217 4.922312 -13.020723 14.822248 -0.768434 2.643422 0.004355 -0.008910 2923640.000000 1 0 0
-5.619717 9.646612 5.461777 12.428570 -1.043300 1.115806 0.003221 -0.001126 1140070.000000 1 0 0
-0.447017 -1.760688 -9.395423 9.569421 1.322162 2.950605 0.011287 -0.007437 1156500.000000 1 0 0
-16.838117 -0.037988 6.475577 18.040419 0.002256 1.203656 0.030853 -0.008637 -884358.000000 1 0 0
-6.035417 -2.915988 4.129977 7.873116 0.450074 1.018590 -0.001602 0.000922 1070840.000000 1 0 0
1.005883 -5.671188 -5.092423 7.688104 -1.395255 2.294783 0.007785 -0.004813 620068.000000 1 0 0
-6.993017 1.374512 -8.503023 11.094727 -0.194081 2.444018 0.011245 -0.007027 -825838.000000 1 0 0
8.032483 1.931812 4.733477 9.521475 0.236018 1.050500 0.001689 -0.001573 389691.000000 1 0 0
0.488383 -8.019788 -0.470623 8.048417 -1.509974 1.629304 0.005541 -0.000886 1242000.000000 1 0 0
5.345783 5.571812 -3.400823 8.437303 0.806098 1.985665 0.002647 0.000988 1739040.000000 1 0 0
-0.778417 -0.331088 -1.266823 1.523283 0.402155 2.552850 0.007157 -0.001517 -88665.000000 1 0 0
9.087683 6.398212 -6.347623 12.799040 0.613441 2.089719 0.011471 -0.004859 2545610.000000 1 0 0
-15.131617 -7.170988 2.405777 16.916757 0.442557 1.428100 0.015300 -0.003435 2162480.000000 1 0 0
-6.363117 6.867112 8.932677 12.939830 -0.823474 0.808859 -0.001066 -0.001202 3446.540000 1 0 0
-9.550717 -3.147488 -9.619323 13.915971 0.318346 2.334005 0.015090 -0.008524 342426.000000 1 0 0
14.891183 3.443712 -1.318523 15.340958 0.227263 1.656850 0.003807 0.000970 2132510.000000 1 0 0
12.071883 1.701712 -5.756923 13.482149 0.140042 2.011973 0.010342 0.003685 1520200.000000 1 0 0
1.716183 -9.385588 12.719777 15.900544 -1.389941 0.643570 -0.002900 -0.003068 258821.000000 1 0 0
-3.609517 6.361912 7.875677 10.748434 -1.054720 0.748474 0.000525 -0.000262 1537600.000000 1 0 0
-4.024917 13.060912 -12.365923 18.431045 -1.271866 2.306257 0.003754 -0.011012 793526.000000 1 0 0
-10.336417 7.815812 6.388277 14.447786 -0.647421 1.112787 -0.002096 -0.004059 1687240.000000 1 0 0
8.102783 -9.224688 -7.117223 14.191717 -0.850055 2.096134 0.006597 -0.005064 947163.000000 1 0 0
5.806283 -3.807588 -0.390423 6.954357 -0.580421 1.626967 0.006231 -0.003573 -1113140.000000 1 0 0
-1.656217 -4.442688 4.207077 6.338772 1.213959 0.845035 0.006071 0.001407 604436.000000 1 0 0
9.898283 -2.033488 -2.563823 10.425175 -0.202619 1.819271 0.009478 -0.003487 -1824220.000000 1 0 0
13.613283 7.087112 1.445777 15.415541 0.479994 1.476871 0.008015 -0.003477 237316.000000 1 0 0
5.384883 -3.668588 -3.345423 7.324436 -0.598048 2.045133 0.003967 -0.005501 -3431580.000000 1 0 0
-12.392417 -6.011188 1.993177 13.916865 0.451632 1.427082 0.007272 0.001251 1741840.000000 1 0 0
3.759283 -5.701388 -0.264323 6.834318 -0.987867 1.609482 0.004301 -0.002668 -1887660.000000 1 0 0
-5.272517 3.707512 -8.660123 10.795499 -0.612855 2.501763 0.006052 -0.005629 169929.000000 1 0 0
-1.712517 -9.281888 7.236577 11.893453 1.388347 0.916690 0.006100 -0.001894 3556490.000000 1 0 0
-7.449017 -7.500088 2.668177 10.902218 0.788815 1.323548 0.010465 -0.000012 -3085480.000000 1 0 0
-5.807117 13.043512 -8.614223 16.675150 -1.151932 2.113660 0.004221 -0.006617 2308070.000000 1 0 0
9.163783 -13.865488 -4.145323 17.129226 -0.986793 1.815226 0.024078 0.000416 -74425.500000 1 0 0
-6.625217 -5.203888 -6.682023 10.752831 0.665816 2.241350 0.017308 -0.005402 1940450.000000 1 0 0
3.426283 0.391212 -6.291523 7.174658 0.113687 2.640190 0.002100 -0.003740 689573.000000 1 0 0
-3.646717 5.769312 4.969877 8.442937 -1.007116 0.941417 0.002235 0.000760 1287100.000000 1 0 0
-2.699417 -10.823588 -2.896623 11.525074 1.326381 1.824853 0.013955 -0.003849 1414390.000000 1 0 0
-12.617217 -0.539288 1.785477 12.754330 0.042716 1.430345 0.003530 -0.000208 1597990.000000 1 0 0
8.360383 -11.909488 -5.995123 15.737643 -0.958734 1.961611 0.014285 -0.005087 -114205.000000 1 0 0
6.050383 3.937112 1.014377 7.289509 0.576882 1.431187 0.005139 -0.001052 -637824.000000 1 0 0
3.454383 -4.777088 -10.973123 12.456434 -0.944725 2.648599 0.004407 -0.004258 1228630.000000 1 0 0
-7.598617 4.288512 8.591177 12.244943 -0.513817 0.793142 -0.002712 -0.000731 1977780.000000 1 0 0
8.240283 8.762112 3.987177 12.671797 0.816080 1.250709 0.009277 -0.003609 664845.000000 1 0 0
0.296383 10.519112 -6.384323 12.308498 1.542628 2.116117 0.001062 0.001708 904157.000000 1 0 0
5.464883 8.060712 3.300577 10.282696 0.975012 1.244028 0.003533 -0.001970 2101930.000000 1 0 0
8.098783 6.691312 -3.748623 11.154197 0.690521 1.913540 0.004020 -0.001631 931438.000000 1 0 0
10.542383 2.518312 -8.312523 13.659494 0.234481 2.225032 0.008318 0.003482 2237510.000000 1 0 0
3.318083 -12.427988 -0.283723 12.866432 -1.309897 1.592850 0.001471 -0.002747 -2460360.000000 1 0 0
0.559083 2.182512 5.289377 5.749212 1.320024 0.402671 0.001398 0.002730 19654.200000 1 0 0
-4.907417 13.332512 1.464877 14.282313 -1.218107 1.468050 0.001403 -0.000638 2945540.000000 1 0 0
8.192783 4.058912 -8.058623 12.187611 0.459981 2.293233 0.003731 0.004382 80596.200000 1 0 0
-14.019717 -0.683088 -3.657123 14.504951 0.048685 1.825676 0.010095 -0.000131 334052.000000 1 0 0
-8.592217 -0.059088 -0.449123 8.604150 0.006877 1.623018 0.003845 -0.001016 545767.000000 1 0 0
1.826083 -3.796488 -1.155923 4.368531 -1.122470 1.838588 0.004674 -0.001172 -662606.000000 1 0 0
8.047483 -5.550388 -0.271323 9.779694 -0.603783 1.598543 0.007022 -0.005227 1966370.000000 1 0 0
-2.348517 -1.254188 7.292577 7.763389 0.490503 0.350052 0.005539 -0.001854 1322570.000000 1 0 0
-5.885417 8.733912 -11.675923 15.724074 -0.977832 2.407667 0.000469 -0.006084 -1604410.000000 1 0 0
-6.135317 9.125512 -8.806623 14.088069 -0.978886 2.246072 -0.001402 -0.000087 378.600000 1 0 0
-1.538917 14.014212 -8.390123 16.406113 -1.461423 2.107612 0.007265 -0.003835 1153950.000000 1 0 0
-1.513617 7.266312 9.776177 12.274525 -1.365427 0.649377 -0.000126 -0.001013 1199770.000000 1 0 0
10.061283 2.367912 -4.014023 11.088228 0.231143 1.941217 0.008978 -0.000117 -1184510.000000 1 0 0
-2.978117 -7.523588 -6.814323 10.578684 1.193884 2.270716 0.016026 -0.004243 1667470.000000 1 0 0
-5.679217 -5.009788 -1.641623 7.748962 0.722852 1.784265 0.010041 0.000040 1291020.000000 1 0 0
5.688283 7.429712 -8.875923 12.897255 0.917378 2.329805 0.002805 -0.002189 617717.000000 1 0 0
-9.601617 5.219012 -7.464223 13.234189 -0.497882 2.170031 0.002948 -0.002827 62106.600000 1 0 0
-0.464117 6.135612 -5.329523 8.140328 -1.495297 2.284590 0.005957 -0.000903 -384883.000000 1 0 0
-8.212117 2.752612 -6.342623 10.735204 -0.323420 2.202877 0.009036 -0.003683 2027840.000000 1 0 0
3.661183 1.385512 -1.985623 4.389374 0.361777 2.040218 0.000847 0.000074 2223870.000000 1 0 0
-6.639517 12.428212 -3.496623 14.517920 -1.080142 1.814037 0.002648 0.001834 158698.000000 1 0 0
-6.660117 3.145612 -2.244823 7.700082 -0.441248 1.866625 0.006562 -0.003599 -523012.000000 1 0 0
12.079783 4.093812 -0.890423 12.785668 0.326750 1.640495 0.006878 -0.003489 -608690.000000 1 0 0
2.214783 12.297012 -5.578623 13.683669 1.392599 1.990713 0.006841 -0.002573 1492260.000000 1 0 0
-9.240317 -1.413888 -4.209923 10.252121 0.151835 1.993951 0.009184 -0.001541 427495.000000 1 0 0
-1.164617 5.781612 3.484677 6.850280 -1.372022 1.037132 0.001527 0.000563 1512620.000000 1 0 0
11.721683 2.727512 11.973477 16.976494 0.228621 0.787954 0.025480 -0.004858 133272.000000 1 0 0
-7.146717 -2.300288 -5.711923 9.433607 0.311395 2.221173 0.014579 -0.006392 -1067470.000000 1 0 0
7.540783 -7.361888 10.857077 15.130662 -0.773395 0.770511 0.005811 0.000556 -47702.900000 1 0 0
-5.480917 -1.986588 -10.857923 12.324020 0.347728 2.648847 0.015081 -0.008067 -1023690.000000 1 0 0
0.691983 -6.203788 4.490477 7.689617 -1.459713 0.947190 0.001967 0.001892 473589.000000 1 0 0
-4.814717 -9.367388 7.432977 12.891028 1.096022 0.956234 0.003877 -0.002184 1207150.000000 1 0 0
-8.848717 9.276412 1.517077 12.909420 -0.808991 1.453007 0.009116 -0.009108 660402.000000 1 0 0
-8.134317 7.190712 -9.061923 14.141849 -0.723903 2.266320 0.001158 -0.000898 60389.700000 1 0 0
-1.283317 -10.630288 -0.097523 10.707915 1.450655 1.579904 0.010408 -0.002796 -75896.000000 1 0 0
-3.949617 10.331812 7.805277 13.537657 -1.205661 0.956284 0.004071 0.001004 2047480.000000 1 0 0
-7.505717 11.941912 1.967877 14.241404 -1.009671 1.432173 0.006971 -0.009729 3215380.000000 1 0 0
-8.173817 -8.326088 -2.888223 12.019853 0.794627 1.813459 0.015207 -0.004027 783322.000000 1 0 0
5.415983 4.634712 -8.100123 10.790061 0.707821 2.419921 0.003557 0.002259 1837490.000000 1 0 0
-8.968017 -0.187988 -10.191923 13.577038 0.020959 2.419877 0.012777 -0.007375 -365029.000000 1 0 0
-15.288317 -2.324288 -1.567423 15.543222 0.150875 1.671811 0.012853 -0.004165 -70089.200000 1 0 0
-7.160517 -5.867988 8.838677 12.799551 0.686514 0.808553 0.006437 -0.000021 -1599020.000000 1 0 0
8.081083 3.462312 -0.932123 8.840835 0.404786 1.676426 0.004934 0.000027 1082140.000000 1 0 0
11.993683 7.247612 -5.960823 15.228517 0.543565 1.972976 0.015602 -0.005253 1334870.000000 1 0 0
3.653783 13.268612 -9.446323 16.692489 1.302086 2.172324 0.001564 -0.009816 560103.000000 1 0 0
-9.742017 5.383212 -0.555423 11.144252 -0.504819 1.620656 0.005091 -0.003277 1449960.000000 1 0 0
11.306183 -1.274788 -5.113123 12.473928 -0.112277 1.993146 0.014661 -0.002674 -463022.000000 1 0 0
10.564383 1.730112 -1.264823 10.779576 0.162327 1.688402 0.008957 -0.001427 719802.000000 1 0 0
14.643483 4.990112 4.794677 16.196350 0.328432 1.270258 0.016304 -0.009285 1378800.000000 1 0 0
0.895383 -0.783888 10.341477 10.409724 -0.719101 0.114570 0.005534 -0.003103 2063020.000000 1 0 0
-7.937017 1.348412 -12.489523 14.859429 -0.168282 2.569023 0.009645 -0.008799 -876497.000000 1 0 0
3.109983 -11.472788 -7.851323 14.245706 -1.306083 2.154522 0.000075 -0.000661 -268800.000000 1 0 0
2.880883 5.055112 -6.743423 8.906593 1.052807 2.429700 0.004418 0.000817 371064.000000 1 0 0
6.497983 8.073512 0.553477 10.378425 0.893104 1.517441 0.005200 -0.001887 88418.600000 1 0 0
-9.071417 -5.435488 6.803877 12.574891 0.539823 0.999089 0.005937 0.003091 -1008980.000000 1 0 0
-0.313217 -6.888988 -11.758323 13.631376 1.525361 2.611168 0.004493 -0.002620 3163680.000000 1 0 0
6.372283 -13.334888 -4.628123 15.486922 -1.125013 1.874274 0.002513 0.000571 2466880.000000 1 0 0
-3.262617 -0.390688 10.045777 10.569529 0.119179 0.316126 0.005313 -0.001707 -40436.900000 1 0 0
8.661383 8.485712 6.939377 13.970749 0.775154 1.050995 0.005134 -0.003813 -1082460.000000 1 0 0
-7.960417 5.745112 -2.703423 10.182487 -0.625148 1.839516 0.006702 -0.005033 664059.000000 1 0 0
-5.385517 5.747712 -6.410123 10.155277 -0.817919 2.253910 0.002542 -0.001800 -1237840.000000 1 0 0
3.365283 -13.605588 2.637477 14.261608 -1.328317 1.384790 0.013492 -0.008372 -3214330.000000 1 0 0
-11.297917 -7.113988 6.596777 14.891918 0.561952 1.111880 0.015677 -0.000431 -496488.000000 1 0 0
-13.088017 -3.748388 -6.777223 15.207805 0.278932 2.032687 0.019862 -0.006785 -1127260.000000 1 0 0
6.075783 0.386612 -7.325023 9.524735 0.063546 2.448154 0.000127 0.001542 -85085.100000 1 0 0
-1.520017 2.225212 -2.558523 3.715919 -0.971511 2.330257 0.005736 -0.002961 4027060.000000 1 0 0
7.589683 0.948212 -4.968723 9.120888 0.124290 2.146903 0.005586 -0.000019 985692.000000 1 0 0
3.720183 -4.424988 10.840077 12.285258 -0.871714 0.489932 0.000815 -0.000865 -192857.000000 1 0 0
5.922283 -2.512188 2.062677 6.755677 -0.401187 1.260517 0.005654 -0.002488 -1406550.000000 1 0 0
-6.287617 7.755812 1.093077 10.043981 -0.889566 1.461751 0.005873 -0.003579 2788240.000000 1 0 0
6.091383 -3.418388 7.940277 10.575364 -0.511389 0.721482 0.004534 -0.001868 -152450.000000 1 0 0
6.741383 -2.277688 -7.833623 10.582994 -0.325825 2.404177 0.003833 -0.001816 521162.000000 1 0 0
12.059883 -8.115088 -5.892923 15.685088 -0.592305 1.955951 0.035364 -0.012373 -1637400.000000 1 0 0
5.624483 -9.593588 9.967377 14.933866 -1.040530 0.840038 0.002549 0.003383 2619250.000000 1 0 0
-6.548217 7.527512 -4.457823 10.927706 -0.854860 1.990990 0.001557 -0.002076 1145200.000000 1 0 0
-1.291117 -7.541088 9.668277 12.329257 1.401229 0.669433 0.006784 -0.003102 309979.000000 1 0 0
10.084683 -9.198988 0.775177 13.671983 -0.739501 1.514068 0.010687 -0.003619 2134230.000000 1 0 0
11.156283 6.068012 9.733377 16.000689 0.498155 0.916867 0.012860 -0.011380 688118.000000 1 0 0
-15.431617 -4.422988 -4.992623 16.811422 0.279136 1.872323 0.018137 -0.012019 3136520.000000 1 0 0
-4.760117 -4.587488 7.901077 10.301980 0.766933 0.696726 0.005728 -0.002746 -5262.360000 1 0 0
2.814583 10.973312 -11.065823 15.836284 1.319716 2.344464 0.001357 -0.001150 -1807410.000000 1 0 0
9.940283 -1.370088 1.484177 10.143429 -0.136969 1.423950 0.007424 -0.002216 1619270.000000 1 0 0
-1.615017 -2.638888 0.613277 3.154064 1.021595 1.375109 0.005491 -0.001580 -693058.000000 1 0 0
1.521983 3.037912 0.829677 3.497671 1.106352 1.331305 0.000155 0.002544 441373.000000 1 0 0
-8.983417 -2.426188 4.359677 10.275941 0.263781 1.132651 -0.000858 0.000883 2204540.000000 1 0 0
9.859583 4.902112 -2.685823 11.333831 0.461399 1.810046 0.005919 -0.000550 1626680.000000 1 0 0
2.600183 8.509712 2.601777 9.270674 1.274251 1.286329 -0.000810 -0.001145 2043390.000000 1 0 0
-8.200317 -0.145588 2.511577 8.577553 0.017752 1.273634 0.000642 -0.001566 1123450.000000 1 0 0
6.966083 2.205912 13.683177 15.511986 0.306674 0.490487 0.009124 -0.006164 -764897.000000 1 0 0
6.850283 4.390212 3.761977 8.963973 0.569937 1.137706 0.004143 -0.001158 285777.000000 1 0 0
-0.202617 3.393712 7.851477 8.555935 -1.511164 0.408634 0.000751 0.000480 471331.000000 1 0 0
2.727483 -10.208488 9.294977 14.072988 -1.309717 0.849334 -0.000396 -0.003470 452113.000000 1 0 0
1.346083 -4.561688 6.897277 8.378149 -1.283855 0.603691 0.002581 0.000114 -513063.000000 1 0 0
-0.073217 10.840812 -1.960223 11.016852 -1.564043 1.749678 0.003523 0.000036 3375510.000000 1 0 0
8.847483 5.521612 7.914977 13.092479 0.557944 0.921603 0.004434 -0.003943 -1272600.000000 1 0 0
2.711983 11.435312 -2.967923 12.121459 1.337940 1.818160 0.006839 -0.004426 2556860.000000 1 0 0
1.515883 2.473912 -6.725423 7.324579 1.021056 2.734307 0.006952 -0.002484 1692260.000000 1 0 0
-13.654917 -2.321788 3.642877 14.321942 0.168422 1.313614 0.007218 0.000798 954457.000000 1 0 0
-0.946317 -10.694488 -5.283323 11.965830 1.482540 2.028104 0.008322 -0.002943 890965.000000 1 0 0
-5.782417 2.805412 0.567077 6.451996 -0.451707 1.482791 0.006229 -0.000744 2234940.000000 1 0 0
3.774683 7.316012 -5.018223 9.641308 1.094472 2.118223 0.003416 -0.000385 -2533070.000000 1 0 0
2.996283 9.761112 -6.546023 12.128785 1.272965 2.140889 0.004431 0.000285 939777.000000 1 0 0
-12.315017 1.620412 -2.632323 12.697027 -0.130829 1.779629 0.006667 -0.000739 1680790.000000 1 0 0
-2.518117 9.604912 -5.753023 11.475736 -1.314397 2.095921 -0.001827 0.001530 695525.000000 1 0 0
-1.387617 3.342012 1.773277 4.029769 -1.177252 1.115148 0.001294 0.000153 -32832.000000 1 0 0
12.907483 3.769412 9.473577 16.448716 0.284132 0.957035 0.027190 -0.009647 -411599.000000 1 0 0
-2.505317 -9.612488 11.437077 15.148706 1.315837 0.715162 0.001666 -0.007918 1550790.000000 1 0 0
-0.457917 -8.908788 -7.511723 11.661997 1.519441 2.270668 0.008943 -0.002541 1812130.000000 1 0 0
2.362283 7.666012 -0.443823 8.033996 1.271879 1.626068 0.000626 0.001265 2530220.000000 1 0 0
-11.893517 -1.304088 -5.610223 13.214802 0.109211 2.009251 0.009647 0.001905 -457497.000000 1 0 0
-6.241317 -7.250788 -10.849923 14.465434 0.860078 2.418947 0.014824 -0.005455 2198230.000000 1 0 0
-4.791917 -2.245988 -1.348023 5.461144 0.438298 1.820213 0.006830 -0.002104 -1995970.000000 1 0 0
-10.450917 3.706012 4.419377 11.936795 -0.340777 1.191538 -0.000138 -0.000521 3739300.000000 1 0 0
6.766383 9.334612 -3.602923 12.078906 0.943573 1.873689 0.003189 -0.000608 1020920.000000 1 0 0
1.286083 -2.722188 -11.527023 11.913714 -1.129435 2.886114 0.009527 -0.005848 -807480.000000 1 0 0
1.220683 8.800312 7.607077 11.696289 1.432967 0.862707 0.000682 0.003271 1253070.000000 1 0 0
10.367383 0.504412 10.464877 14.739427 0.048615 0.781309 0.012055 -0.003005 1111090.000000 1 0 0
-5.348717 -0.797788 -3.893923 6.663923 0.148064 2.194849 0.010183 -0.005818 91370.100000 1 0 0
11.798483 5.633212 5.290877 14.104278 0.445447 1.186264 0.003798 -0.003912 2599040.000000 1 0 0
9.998083 -3.437788 3.639477 11.181496 -0.331181 1.239265 0.011830 -0.005282 -1215330.000000 1 0 0
7.296983 -1.699088 -3.444823 8.246191 -0.228772 2.001761 0.005303 -0.002125 -3420110.000000 1 0 0
2.338383 9.286112 10.481977 14.197597 1.324110 0.740261 0.006174 0.002678 2186380.000000 1 0 0
2.378383 -10.873888 6.376877 12.828200 -1.355463 1.050545 -0.001493 -0.003388 1947510.000000 1 0 0
5.884983 -7.524688 -1.272423 9.637065 -0.907072 1.703217 0.002377 -0.005350 1741380.000000 1 0 0
-0.298817 -5.553188 -2.277123 6.009366 1.517038 1.959435 0.008153 -0.000609 2624950.000000 1 0 0
7.761283 -4.969588 2.704977 9.604750 -0.569530 1.285305 0.009348 -0.004000 1423950.000000 1 0 0
-2.707517 -12.573788 4.682977 13.687990 1.358705 1.221621 0.007767 -0.001930 -27546.900000 1 0 0
4.875183 -10.256188 -1.129623 11.411961 -1.127070 1.669945 0.001485 -0.004761 1517730.000000 1 0 0
0.917483 0.237112 1.125677 1.471444 0.252904 0.699731 0.001225 0.001547 -608674.000000 1 0 0
-1.571617 8.629712 2.511977 9.124250 -1.390654 1.291886 0.001418 0.000731 646817.000000 1 0 0
-7.567217 0.646312 -3.043923 8.182051 -0.085203 1.951985 0.005497 -0.001390 -976116.000000 1 0 0
4.445883 -6.261488 12.888377 15.002746 -0.953366 0.537350 0.006189 -0.005015 -1237370.000000 1 0 0
-5.107617 13.090012 8.434077 16.388100 -1.198774 1.030201 0.012783 -0.007028 3900340.000000 1 0 0
0.663883 6.174112 8.349077 10.405166 1.463681 0.639495 0.000822 0.000599 853265.000000 1 0 0
7.907983 -0.498588 -0.784523 7.962428 -0.062965 1.669485 0.006594 -0.001674 3098670.000000 1 0 0
2.400983 -9.158988 -2.374023 9.761546 -1.314420 1.816461 0.000087 -0.002923 1591010.000000 1 0 0
-7.083417 12.167212 4.866177 14.896158 -1.043588 1.238015 0.001607 -0.007732 -68590.700000 1 0 0
-15.012217 0.204412 0.149577 15.014354 -0.013616 1.560834 0.007073 -0.003139 1377530.000000 1 0 0
6.831283 -0.453688 3.930577 7.894409 -0.066316 1.049628 0.004845 -0.000300 2161340.000000 1 0 0
-4.225817 -5.069888 5.124677 8.356052 0.875952 0.910578 0.003820 0.000841 1884250.000000 1 0 0
2.918283 5.125812 6.944377 9.111240 1.053233 0.704127 0.000152 0.000120 -1074680.000000 1 0 0
2.053983 -7.120588 1.830077 7.633532 -1.289963 1.328696 0.001711 0.000435 3362700.000000 1 0 0
-2.484417 6.391612 -1.655623 7.054510 -1.200069 1.807696 0.004501 -0.000431 2522360.000000 1 0 0
2.693583 -3.780188 -6.545723 8.024444 -0.951695 2.524774 0.003408 -0.005697 -1308040.000000 1 0 0
-5.148217 0.816812 -12.162323 13.232287 -0.157348 2.736688 0.011575 -0.004685 -254729.000000 1 0 0
-7.509117 6.337812 -11.885523 15.421425 -0.701010 2.450759 0.002765 -0.006002 2113710.000000 1 0 0
-1.002017 11.227712 -9.069323 14.467832 -1.481787 2.248314 0.002372 0.001508 2691110.000000 1 0 0
4.632883 5.915612 -0.583623 7.536490 0.906407 1.648314 0.002212 0.000502 928925.000000 1 0 0
-2.606917 13.361412 3.563277 14.071968 -1.378109 1.314791 0.004620 -0.001450 874438.000000 1 0 0
1.511383 -7.831788 10.282977 13.013870 -1.380159 0.659734 0.000329 -0.003754 -914187.000000 1 0 0
12.966583 -0.207688 -1.031923 13.009238 -0.016016 1.650202 0.007733 -0.000115 134930.000000 1 0 0
-1.023417 3.139312 -5.491923 6.408110 -1.255660 2.600268 0.007019 -0.004571 1810490.000000 1 0 0
6.577883 1.101312 7.254577 9.854457 0.165888 0.743399 0.004002 -0.000590 2228280.000000 1 0 0
5.495883 -6.149388 6.848677 10.720265 -0.841457 0.877789 0.000503 -0.001239 1016500.000000 1 0 0
12.334683 -4.887588 2.674177 13.534554 -0.377267 1.371906 0.012971 -0.003292 383699.000000 1 0 0
4.419783 -9.133188 13.809977 17.136659 -1.120091 0.633647 0.005774 -0.002856 -854459.000000 1 0 0
-2.861517 -4.304988 -1.405023 5.356799 0.984158 1.836189 0.012826 -0.002671 3450820.000000 1 0 0
-9.421617 -5.085988 -7.481523 13.061674 0.494995 2.180695 0.014281 -0.006130 -241608.000000 1 0 0
-10.579917 -3.115788 7.937177 13.588288 0.286404 0.947002 0.007398 0.002004 -229294.000000 1 0 0
12.134483 -0.597988 1.649877 12.260725 -0.049240 1.435821 0.006937 -0.003915 947375.000000 1 0 0
-7.586617 4.765912 4.376077 9.970994 -0.560897 1.116444 0.003183 -0.002716 2517330.000000 1 0 0
-1.097217 10.713512 6.968977 12.827699 -1.468738 0.996462 0.000757 0.004404 2122890.000000 1 0 0
7.407883 -10.000288 1.884877 12.587107 -0.933231 1.420484 0.005712 -0.005209 3556900.000000 1 0 0
-4.334617 -1.756588 1.689277 4.972742 0.385021 1.224191 0.000972 0.000843 1819920.000000 1 0 0
6.723583 -14.995388 -0.997423 16.463994 -1.149293 1.631416 0.018724 -0.001596 -1354700.000000 1 0 0
-10.514817 1.639612 2.409177 10.911179 -0.154688 1.348163 -0.000337 0.001113 -514806.000000 1 0 0
-3.055317 8.193212 -11.399823 14.367311 -1.213861 2.487262 0.000045 -0.001678 444582.000000 1 0 0
-1.318517 -5.164288 -6.816423 8.652860 1.320822 2.477969 0.009278 -0.005261 1011930.000000 1 0 0
12.889383 -0.524788 6.493877 14.442370 -0.040692 1.104433 0.014816 -0.009496 2216880.000000 1 0 0
5.961183 -13.234088 3.808177 15.005966 -1.147575 1.314213 0.009681 -0.006057 809639.000000 1 0 0
-5.597317 3.478612 -4.926123 8.227842 -0.556063 2.212691 0.006445 -0.005321 1475150.000000 1 0 0
-4.373817 8.113712 3.406277 9.826765 -1.076387 1.216818 0.004666 -0.000607 749512.000000 1 0 0
14.036283 6.127812 -4.046123 15.841036 0.411629 1.829079 0.016168 -0.000682 988365.000000 1 0 0
-6.780517 -8.566888 5.321877 12.152751 0.901272 1.117518 0.007877 0.000279 1467200.000000 1 0 0
1.717083 11.375312 2.739377 11.825831 1.420979 1.337029 0.003523 -0.002406 25428.700000 1 0 0
-7.380817 7.346712 6.020777 12.029147 -0.783082 1.046602 0.000454 -0.003940 352311.000000 1 0 0
-17.446017 -4.072388 5.194477 18.652894 0.229322 1.288584 0.034102 -0.011359 166786.000000 1 0 0
7.572083 -13.028888 -8.517823 17.310161 -1.044333 2.085263 0.020599 -0.002248 -197021.000000 1 0 0
-2.338117 12.798512 -2.813023 13.310965 -1.390102 1.783733 -0.000003 0.002873 2166130.000000 1 0 0
-5.529417 13.867712 -5.832523 16.028294 -1.191389 1.943236 0.002596 0.003609 1957260.000000 1 0 0
-5.599917 2.447812 7.429577 9.620263 -0.412088 0.688367 0.002609 -0.002271 2258400.000000 1 0 0
-7.487317 5.135712 1.484377 9.199936 -0.601215 1.408741 0.005404 -0.002837 1284200.000000 1 0 0
10.822483 -5.602388 -5.045723 13.189853 -0.477677 1.963346 0.013834 -0.007652 3174330.000000 1 0 0
-9.496117 -0.759188 6.919877 11.774434 0.079778 0.942579 0.000770 0.000543 1069550.000000 1 0 0
-11.365917 -4.567288 -2.495123 12.500793 0.382092 1.771743 0.007051 -0.002019 1693720.000000 1 0 0
6.663183 -4.264888 13.466877 15.618709 -0.569361 0.531146 0.011712 -0.007789 -488168.000000 1 0 0
0.198583 10.178712 -11.732423 15.533684 1.551289 2.426891 0.000285 -0.001683 -463073.000000 1 0 0
-11.783417 -3.286388 1.488477 12.323345 0.271988 1.449716 0.002955 0.000307 3840450.000000 1 0 0
5.234783 5.986012 5.447877 9.639225 0.852248 0.970147 0.002272 -0.001355 -3577040.000000 1 0 0
-7.111317 0.051712 8.232777 10.878976 -0.007272 0.712454 0.000761 -0.002017 1322760.000000 1 0 0
1.829383 2.059912 9.674277 10.058902 0.844601 0.277429 0.004875 -0.000720 2137660.000000 1 0 0
10.497083 -4.927688 -2.024023 11.771471 -0.438897 1.743598 0.011230 -0.004623 2541630.000000 1 0 0
-9.713317 -2.402088 -1.542023 10.124050 0.242434 1.723704 0.005278 0.000131 -419164.000000 1 0 0
-2.062317 -5.217088 -9.851223 11.336567 1.194348 2.623929 0.013938 -0.006818 555853.000000 1 0 0
7.671583 -1.593288 6.499377 10.180062 -0.204776 0.878324 0.006969 -0.002539 1877800.000000 1 0 0
1.557783 -11.796288 -2.561223 12.171235 -1.439499 1.782814 0.001795 -0.000843 -4101830.000000 1 0 0
-0.714517 -1.504688 4.775777 5.057931 1.127462 0.335592 0.003698 -0.000185 3197630.000000 1 0 0
7.654683 1.598912 9.931477 12.640607 0.205919 0.667001 0.005364 -0.001909 532623.000000 1 0 0
-3.844017 10.710012 -8.033623 13.929103 -1.226199 2.185542 0.000196 0.001962 2667190.000000 1 0 0
-9.501517 12.662012 6.358877 17.059914 -0.927042 1.188838 0.006837 -0.006353 118784.000000 1 0 0
-2.579317 -2.452488 -11.008123 11.569198 0.760198 2.828880 0.014407 -0.008602 -1944750.000000 1 0 0
1.192583 -11.882988 11.151977 16.339959 -1.470771 0.819622 -0.001057 -0.000779 1882700.000000 1 0 0
1.361783 3.482512 -1.953123 4.218653 1.198042 2.052143 0.001751 0.001082 3843600.000000 1 0 0
-1.870317 -9.426288 -11.963523 15.345321 1.374925 2.464856 0.002999 -0.002286 2044590.000000 1 0 0
1.303683 -2.658188 1.572177 3.352208 -1.114826 1.082641 0.007594 -0.000521 5279840.000000 1 0 0
-1.064217 -2.236388 -6.598523 7.048013 1.126643 2.782524 0.011425 -0.008746 1699750.000000 1 0 0
1.826483 5.894412 4.165177 7.445054 1.270312 0.977067 -0.003593 -0.000050 -51060.900000 1 0 0
-10.970917 8.537812 3.517477 14.339731 -0.661320 1.322971 0.000093 -0.006832 2116430.000000 1 0 0
-16.384417 -1.603688 3.984277 16.937987 0.097568 1.333344 0.018532 -0.004136 -593229.000000 1 0 0
-12.251417 0.252412 6.834477 14.031073 -0.020600 1.062035 0.001483 0.002290 932633.000000 1 0 0
-5.106517 3.023012 4.685277 7.560882 -0.534510 0.902470 0.001815 0.000269 2302090.000000 1 0 0
5.267283 -5.969688 3.948477 8.886615 -0.847825 1.110384 0.000305 -0.001743 1318610.000000 1 0 0
9.966183 3.382512 6.183277 12.206519 0.327200 1.039611 -0.001089 -0.002188 1298690.000000 1 0 0
-12.266817 5.786412 3.043577 13.900385 -0.440763 1.350052 -0.002026 -0.000550 2162700.000000 1 0 0
-4.836617 12.303712 -1.292523 13.283253 -1.196250 1.668255 -0.004979 0.003204 884983.000000 1 0 0
-1.678117 -12.264688 10.284777 16.093952 1.434816 0.877539 0.006730 -0.008560 1111360.000000 1 0 0
5.271383 6.446012 13.891677 16.196211 0.885311 0.539994 0.012150 -0.006980 492335.000000 1 0 0
13.020683 -3.600888 -6.007723 14.785037 -0.269808 1.989239 0.013139 -0.004709 1169840.000000 1 0 0
3.583483 -2.541588 6.403977 7.766077 -0.616908 0.601286 0.001380 0.001207 1671090.000000 1 0 0
7.273883 -11.826088 -0.722523 13.902798 -1.019369 1.622789 0.006739 -0.002124 -2670210.000000 1 0 0
-6.117717 -6.583688 -4.077623 9.869064 0.822068 1.996731 0.016479 -0.003070 91735.700000 1 0 0
0.264283 -8.959488 5.013477 10.270211 -1.541307 1.060819 0.005849 -0.002302 2041720.000000 1 0 0
-10.290017 2.416612 -0.435123 10.578931 -0.230670 1.611939 0.004006 -0.000630 -1576080.000000 1 0 0
-1.828117 8.996912 -0.344423 9.187222 -1.370332 1.608294 0.005802 0.000116 1103330.000000 1 0 0
-3.483717 2.267012 -6.627723 7.823192 -0.576899 2.581468 0.011936 -0.008757 1188360.000000 1 0 0
-12.684417 3.042312 6.339077 14.502896 -0.235400 1.118435 0.000794 -0.000134 -289830.000000 1 0 0
11.377583 1.627412 7.922677 13.959466 0.142073 0.967271 0.014574 -0.008958 -1780460.000000 1 0 0
5.975083 2.708912 -3.228723 7.311940 0.425651 2.028142 0.001789 0.001180 2778570.000000 1 0 0
10.538683 -2.419488 6.437077 12.583868 -0.225671 1.033827 0.011790 -0.008152 2991720.000000 1 0 0
-0.896117 11.038812 4.123977 11.818019 -1.489795 1.214339 0.005770 0.000310 1348150.000000 1 0 0
-1.587217 -12.262488 7.361877 14.390452 1.442075 1.033773 0.006070 -0.003491 -1677190.000000 1 0 0
8.082483 8.653712 -7.880123 14.223558 0.819516 2.157981 0.015292 -0.006274 2001020.000000 1 0 0
-4.702717 -6.056188 -8.606523 11.526717 0.910541 2.413821 0.016303 -0.006148 1190200.000000 1 0 0
-8.536417 -5.279988 -11.584523 15.328074 0.553930 2.427628 0.014221 -0.008702 2040370.000000 1 0 0
6.175783 -0.626688 -10.017123 11.784557 -0.101129 2.586822 0.000997 0.002531 -902859.000000 1 0 0
-11.304617 -5.453688 -5.319523 13.632109 0.449493 1.971667 0.007574 -0.006795 -746200.000000 1 0 0
3.956383 8.929912 -2.722323 10.139395 1.153738 1.842621 0.005606 -0.001903 -1307090.000000 1 0 0
11.677383 -10.283988 -4.017123 16.070438 -0.722036 1.823445 0.028015 -0.009145 603445.000000 1 0 0
3.965083 -11.253088 3.975877 12.576227 -1.232025 1.249136 0.004873 -0.004724 258690.000000 1 0 0
-1.053617 0.895212 3.265877 3.546472 -0.704294 0.400463 0.003033 0.000365 -1042580.000000 1 0 0
-10.614417 -5.164388 4.614277 12.673922 0.452826 1.198155 0.009525 0.000153 4819610.000000 1 0 0
4.557583 -8.646988 2.767777 10.158866 -1.085727 1.294858 0.001914 -0.001877 4927920.000000 1 0 0
-3.713317 -5.710788 2.671677 7.317082 0.994261 1.197025 0.006696 0.000612 2219280.000000 1 0 0
10.125683 5.129612 12.313577 16.747136 0.468909 0.744739 0.025531 -0.005523 1076010.000000 1 0 0
1.682083 -12.329288 -5.267023 13.512301 -1.435204 1.971205 0.002702 -0.001389 450807.000000 1 0 0
9.831883 -10.632688 -1.730723 14.584766 -0.824510 1.689743 0.012982 -0.006399 563219.000000 1 0 0
9.643383 -4.518188 -9.118123 14.019594 -0.438154 2.278886 0.014956 -0.007098 1985410.000000 1 0 0
-7.388517 -3.078688 -12.980723 15.250169 0.394807 2.589036 0.010230 -0.008490 1601810.000000 1 0 0
0.462483 6.214112 -2.510023 6.717834 1.496509 1.953722 0.002008 0.000457 3058440.000000 1 0 0
-5.976917 -9.521388 0.915277 11.279100 1.010232 1.489559 0.008011 0.000356 1373450.000000 1 0 0
-8.992917 -4.250888 0.642977 9.967749 0.441564 1.506246 0.002125 0.000383 2225790.000000 1 0 0
1.950983 3.834712 12.132077 12.872399 1.100158 0.340800 0.004960 -0.004550 807727.000000 1 0 0
6.768583 4.376012 9.551577 12.497833 0.573924 0.700905 0.006356 -0.002213 2453050.000000 1 0 0
-8.181617 9.825312 -3.629623 13.290965 -0.876427 1.847399 0.003914 -0.001985 3377450.000000 1 0 0
16.495583 2.205512 -6.119123 17.731672 0.132915 1.923137 0.032773 0.004870 -1353600.000000 1 0 0
-10.937317 2.536712 -5.155323 12.354641 -0.227902 2.001245 0.008045 -0.000887 1733890.000000 1 0 0
-13.854917 3.960612 1.441477 14.481817 -0.278437 1.471094 0.002857 0.004940 424788.000000 1 0 0
-17.435717 10.392812 3.542577 20.604966 -0.537521 1.398010 0.040332 -0.013470 -1084030.000000 1 0 0
-14.399117 2.783312 -1.240823 14.718051 -0.190943 1.655203 0.010537 0.001179 470167.000000 1 0 0
-14.407217 5.078412 5.104377 16.106298 -0.338892 1.248318 -0.001544 -0.000179 330722.000000 1 0 0
-17.455617 7.532212 3.067577 19.257279 -0.407369 1.410820 0.029517 -0.006006 -2372070.000000 1 0 0
-15.190317 12.688912 -3.347623 20.073883 -0.695915 1.738344 0.059010 -0.013782 -195454.000000 1 0 0
-8.604717 12.452512 -9.650123 17.950796 -0.966135 2.138370 0.013955 -0.016883 2329490.000000 1 0 0
-12.363917 8.896712 -9.898723 18.165974 -0.623740 2.147072 0.024188 -0.007757 -1416240.000000 1 0 0
-13.931617 -3.590288 -12.253623 18.897920 0.252220 2.276292 0.026323 -0.006433 -1398130.000000 1 0 0
-14.761017 5.809712 -7.674223 17.621977 -0.374964 2.021381 0.040083 -0.000952 1192810.000000 1 0 0
-11.055317 13.580512 -8.476623 19.455165 -0.887542 2.021613 0.034233 -0.015810 1365340.000000 1 0 0
-10.884517 13.445612 3.893077 17.731701 -0.890276 1.349438 0.008016 -0.010659 -470624.000000 1 0 0
-15.205717 3.142712 3.046277 15.823093 -0.203810 1.377066 0.002761 0.003372 891529.000000 1 0 0
-11.087117 9.451412 -12.523123 19.211506 -0.705925 2.280825 0.024766 -0.016742 -218379.000000 1 0 0
-13.152717 11.580012 -8.961123 19.682285 -0.721896 2.043493 0.042610 -0.025851 -209400.000000 1 0 0
-8.793317 14.537212 -3.492423 17.345027 -1.026794 1.773532 0.007780 -0.003899 -656499.000000 1 0 0
-16.843217 8.174812 -4.172423 19.181517 -0.451857 1.790072 0.048783 -0.009707 -117967.000000 1 0 0
-17.010817 6.619612 0.303377 18.255936 -0.371111 1.554178 0.029898 0.002320 -240157.000000 1 0 0
-10.477417 2.884112 -12.486823 16.553402 -0.268617 2.425438 0.011516 -0.008128 1231980.000000 1 0 0
-16.885217 0.808912 2.366177 17.069378 -0.047870 1.431727 0.011614 -0.003144 20869.600000 1 0 0
-12.723617 1.210912 -7.041723 14.592553 -0.094885 2.074367 0.011645 -0.001140 2209330.000000 1 0 0
-12.229617 9.001112 -5.399323 16.116334 -0.634487 1.912425 0.032035 -0.005911 547061.000000 1 0 0
-9.671517 13.836312 1.159677 16.921188 -0.960745 1.502209 0.018629 -0.009231 -75957.600000 1 0 0
-12.244417 11.035212 2.667877 16.697880 -0.733502 1.410335 0.006620 -0.010028 -89742.100000 1 0 0
-12.747217 6.790912 -3.718723 14.914319 -0.489493 1.822794 0.016433 -0.002907 319194.000000 1 0 0
-15.876817 3.749512 -9.433323 18.844621 -0.231914 2.095070 0.045342 -0.005175 -1443630.000000 1 0 0
-15.251817 5.842412 -4.749723 17.009161 -0.365821 1.853804 0.037650 -0.003150 812573.000000 1 0 0
-17.768217 5.268112 7.568377 20.018563 -0.288234 1.183088 0.014986 -0.006423 -1677580.000000 1 0 0
-15.902317 10.084612 -2.105723 18.947748 -0.565159 1.682160 0.045366 -0.004807 -387735.000000 1 0 0
-8.780017 9.955312 -8.336823 15.674806 -0.848048 2.131593 0.006819 -0.008585 623409.000000 1 0 0
-17.022317 4.069312 -1.260723 17.547307 -0.234654 1.642705 0.018432 -0.000555 524942.000000 1 0 0
-10.268417 5.314512 -4.539223 12.421311 -0.477596 1.944900 0.004757 -0.002233 1315030.000000 1 0 0
-18.069817 2.686912 6.297477 19.323457 -0.147615 1.238835 0.030375 -0.010294 -1903770.000000 1 0 0
-10.279317 10.083912 -5.692623 15.484043 -0.775802 1.947271 0.011708 -0.007063 400478.000000 1 0 0
-15.440517 0.400612 -5.984623 16.564594 -0.025940 1.940447 0.019199 -0.001072 313024.000000 1 0 0
-16.546917 -4.143388 -8.895123 19.237758 0.245357 2.051472 0.037328 -0.019442 -309959.000000 1 0 0
-10.023317 9.473612 -1.200423 13.844032 -0.757211 1.657616 0.010769 -0.007095 965315.000000 1 0 0
-17.521317 -3.106488 -3.250023 18.088932 0.175474 1.751446 0.030172 -0.009764 -1381940.000000 1 0 0
-12.005417 5.120912 -11.583423 17.450772 -0.403183 2.296654 0.026756 -0.004666 -1904100.000000 1 0 0
-16.329817 7.054112 5.782777 18.704650 -0.407766 1.256484 0.020897 -0.001321 862656.000000 1 0 0
-12.110117 6.067512 -8.867823 16.189747 -0.464470 2.150461 0.020878 -0.001340 1972750.000000 1 0 0
-14.651017 8.292812 -0.189223 16.836235 -0.515062 1.582036 0.030053 -0.005839 2487600.000000 1 0 0
-14.847317 11.796712 3.896077 19.359355 -0.671400 1.368162 0.016047 -0.013555 1853730.000000 1 0 0
-17.339417 3.986712 -4.111723 18.260764 -0.225994 1.797911 0.031985 -0.006640 399946.000000 1 0 0
-13.937717 13.222312 -0.702523 19.224542 -0.759064 1.607347 0.036023 -0.014876 -199444.000000 1 0 0
-10.065617 6.857312 -13.089823 17.879676 -0.598038 2.392205 0.008075 -0.011970 353529.000000 1 0 0
-16.012417 -1.077988 -8.469223 18.146275 0.067221 2.056374 0.027466 -0.006655 -656052.000000 1 0 0
-11.461717 11.769412 -0.199923 16.429546 -0.798642 1.582965 0.018637 -0.012464 1170430.000000 1 0 0
-12.061317 7.302712 -1.009923 14.135944 -0.544429 1.642301 0.006985 -0.001974 1924050.000000 1 0 0
-11.487317 0.201612 -11.664023 16.372187 -0.017549 2.363750 0.013847 -0.009763 1140810.000000 1 0 0
-19.227617 -1.295288 -4.733323 19.843976 0.067264 1.811645 0.034322 -0.006359 -383166.000000 1 0 0
-17.999117 1.371912 -5.140723 18.769054 -0.076074 1.848235 0.024116 -0.002864 -721569.000000 1 0 0
-13.468617 -0.038088 -9.590623 16.534362 0.002828 2.189576 0.018900 -0.002968 737778.000000 1 0 0
-6.132117 11.215412 -13.182323 18.361970 -1.070446 2.371598 -0.000773 -0.013414 -1065280.000000 1 0 0
16.396183 5.707612 7.034177 18.732093 0.334987 1.185844 0.037985 -0.016016 687013.000000 1 0 0
14.927683 10.092912 -5.341823 18.794618 0.594519 1.858990 0.059494 -0.016403 968304.000000 1 0 0
2.477983 16.861012 4.309777 17.578632 1.424876 1.323100 0.017946 -0.007263 1452510.000000 1 0 0
-4.048617 18.115912 -5.998323 19.507881 -1.350925 1.883342 0.004962 -0.005325 2275790.000000 1 0 0
5.468283 14.480212 5.683877 16.488939 1.209715 1.218868 0.011074 -0.007436 174456.000000 1 0 0
10.026783 6.187812 15.024777 19.093699 0.552919 0.665032 0.044225 -0.010533 -240436.000000 1 0 0
4.766383 12.786712 -1.181623 13.697249 1.213990 1.657171 0.007104 -0.005962 1432160.000000 1 0 0
3.655283 13.717112 13.078177 19.301787 1.310372 0.826352 0.027424 -0.004622 -1242530.000000 1 0 0
-0.739017 12.424012 9.251577 15.507866 -1.511383 0.931572 0.009552 0.001970 1639380.000000 1 0 0
-7.781317 14.015412 8.323177 18.062556 -1.063972 1.091903 0.016741 -0.013884 1224820.000000 1 0 0
11.561983 12.785912 -4.179023 17.737622 0.835624 1.808634 0.044479 -0.013479 2198090.000000 1 0 0
-5.821617 16.033012 0.850077 17.078387 -1.222497 1.521001 0.000842 0.001598 509236.000000 1 0 0
3.278583 10.568612 6.789877 12.982569 1.269991 1.020430 0.001807 0.003121 1805510.000000 1 0 0
-1.148717 15.540812 2.458077 15.775884 -1.497014 1.414347 0.004029 -0.005448 -1202070.000000 1 0 0
9.963583 8.781712 9.488677 16.322575 0.722433 0.950443 0.021117 -0.011395 2982140.000000 1 0 0
7.273183 12.245112 6.251177 15.553751 1.034825 1.157197 0.009428 -0.007828 -166183.000000 1 0 0
11.786983 14.013212 -1.612423 18.382138 0.871472 1.658626 0.028360 -0.009546 416773.000000 1 0 0
9.681483 16.000112 -1.242323 18.742413 1.026644 1.637129 0.015139 -0.004500 315298.000000 1 0 0
10.169583 13.716912 2.992177 17.335721 0.932828 1.397326 0.014567 -0.006274 1402250.000000 1 0 0
-5.990417 14.614012 6.210277 16.971210 -1.181777 1.196164 -0.001244 -0.008034 1283820.000000 1 0 0
-1.090217 18.205212 -6.293723 19.293244 -1.510983 1.903092 0.014231 0.001212 3236000.000000 1 0 0
-3.481917 15.766112 5.384877 17.020309 -1.353437 1.248886 -0.000228 -0.005315 429156.000000 1 0 0
7.064283 12.153612 10.624277 17.620716 1.044278 0.923612 0.016875 -0.007420 3869560.000000 1 0 0
1.516083 14.596012 6.247977 15.949272 1.467298 1.168274 0.008186 -0.001612 855167.000000 1 0 0
17.499883 7.610612 -1.276723 19.125829 0.410222 1.637600 0.016796 0.006055 1654850.000000 1 0 0
2.038783 16.311612 -3.370823 16.780577 1.446451 1.773049 0.008386 -0.005495 2295060.000000 1 0 0
6.781883 11.265912 0.557777 13.161528 1.028920 1.528404 0.007153 -0.003682 215502.000000 1 0 0
12.779483 9.287012 3.186077 16.115671 0.628430 1.371785 0.012411 -0.002771 -440287.000000 1 0 0
6.081083 14.328412 -3.508023 15.955851 1.169428 1.792465 0.005051 -0.005779 27881.500000 1 0 0
3.096883 16.481812 1.536377 16.840465 1.385065 1.479438 0.017484 -0.016608 -1190570.000000 1 0 0
2.688683 18.957712 -2.556923 19.317394 1.429911 1.703550 0.015677 -0.014191 5395.330000 1 0 0
3.975883 11.945912 10.644777 16.487078 1.249504 0.868930 0.015323 -0.003113 2560780.000000 1 0 0
8.074883 11.590612 3.337877 14.515076 0.962306 1.338760 0.004889 -0.000638 593352.000000 1 0 0
0.828883 12.495212 0.186777 12.524067 1.504557 1.555882 0.005913 -0.002963 -1182300.000000 1 0 0
12.044883 9.824912 -4.640123 16.221555 0.684236 1.860895 0.034313 -0.009673 1272570.000000 1 0 0
-1.304417 16.557912 9.847777 19.309186 -1.492180 1.035606 0.018708 -0.002898 228920.000000 1 0 0
8.045183 14.782412 -7.940923 18.609216 1.072386 2.011659 0.030707 -0.006481 83254.900000 1 0 0
14.549183 7.612812 -1.383623 16.478715 0.482072 1.654860 0.021409 -0.002065 -128477.000000 1 0 0
12.565183 8.222312 6.000977 16.171022 0.579443 1.190609 0.009818 -0.006507 -1532190.000000 1 0 0
-3.003317 14.305812 10.228877 17.841135 -1.363865 0.960231 0.020300 -0.009477 2287380.000000 1 0 0
-4.615417 17.205412 -3.182123 18.095695 -1.308713 1.747565 0.002329 0.004277 2222150.000000 1 0 0
-7.114617 16.440312 -1.806823 18.004617 -1.162376 1.671319 0.003512 0.002344 188847.000000 1 0 0
8.345083 11.229012 -1.890523 14.117549 0.931680 1.705113 0.007385 -0.006413 79201.200000 1 0 0
8.608783 12.944312 -4.260423 16.118857 0.983905 1.838288 0.028280 -0.007534 3711430.000000 1 0 0
2.524283 14.846812 -7.264623 16.720483 1.402385 2.020251 0.000534 -0.007864 -155018.000000 1 0 0
11.418283 11.306412 9.746677 18.793878 0.780475 1.025573 0.029784 -0.012656 340377.000000 1 0 0
8.618183 15.737712 1.457777 18.002049 1.069787 1.489729 0.008026 -0.007020 1529840.000000 1 0 0
6.096383 9.872012 7.685577 13.917277 1.017578 0.985756 0.008156 0.001793 3027680.000000 1 0 0
14.482983 11.406712 2.407077 18.592038 0.667130 1.440964 0.028847 -0.003458 1915040.000000 1 0 0
12.140383 12.629712 1.087677 17.552252 0.805150 1.508789 0.024428 -0.003243 1958660.000000 1 0 0
5.244883 15.797412 8.287477 18.594335 1.250238 1.108841 0.024818 -0.009993 -996292.000000 1 0 0
11.553983 14.914212 5.162177 19.559558 0.911676 1.303711 0.032855 -0.010317 -208405.000000 1 0 0
5.975183 16.747512 1.836777 17.876121 1.228094 1.467864 0.007478 -0.016895 884940.000000 1 0 0
-0.777017 16.240512 -4.197223 16.792101 -1.522988 1.823427 0.004192 0.000785 1709440.000000 1 0 0
16.114283 6.438012 2.574777 17.542736 0.380094 1.423492 0.017542 -0.005583 -769719.000000 1 0 0
7.532483 16.781012 -3.160723 18.663623 1.148883 1.740969 0.009130 -0.008146 -747305.000000 1 0 0
14.914483 8.046612 7.411077 18.496319 0.494759 1.158539 0.033842 -0.011763 -1297800.000000 1 0 0
2.208483 12.884512 8.601877 15.648653 1.401040 0.988806 0.009398 -0.001251 1091870.000000 1 0 0
16.033483 7.413212 -5.823823 18.599602 0.433083 1.889268 0.027144 0.000898 -207502.000000 1 0 0
-3.032217 16.952112 0.747677 17.237385 -1.393799 1.527407 -0.000741 -0.004205 1337430.000000 1 0 0
-2.861717 18.617612 4.497977 19.365864 -1.418280 1.336392 -0.000477 -0.009204 1795870.000000 1 0 0
-0.887817 19.014812 0.749577 19.050279 -1.524139 1.531439 0.009750 -0.013669 69712.600000 1 0 0
6.915583 16.864712 -6.028823 19.198711 1.181646 1.890223 0.010170 -0.001461 220499.000000 1 0 0
11.036783 10.036612 0.765377 14.937535 0.737972 1.519535 0.008081 -0.001927 -1349740.000000 1 0 0
9.193283 8.932312 14.235877 19.156274 0.771001 0.733039 0.042971 -0.013735 101303.000000 1 0 0
6.321083 12.365812 -8.325123 16.191882 1.098249 2.110817 0.016886 -0.009670 3585930.000000 1 0 0
6.364883 9.139712 13.293177 17.342279 0.962491 0.697394 0.022704 -0.013335 1187630.000000 1 0 0
16.736783 9.478212 2.840277 19.442829 0.515279 1.424188 0.036624 -0.007212 -1149440.000000 1 0 0
2.626983 14.728512 -0.829123 14.983909 1.394292 1.626159 0.010827 -0.007918 733546.000000 1 0 0
9.167083 12.802712 8.320177 17.809273 0.949395 1.084695 0.021812 -0.015205 1336700.000000 1 0 0
7.253383 9.242312 10.472877 15.738902 0.905392 0.842749 0.010481 -0.008517 2205440.000000 1 0 0
4.306683 15.764712 -5.305423 17.182001 1.304118 1.884704 0.014511 -0.008029 948706.000000 1 0 0
0.238883 16.357012 -8.121323 18.263756 1.556193 2.031601 0.005597 -0.004649 531302.000000 1 0 0
-2.532017 15.643212 -1.980223 15.970049 -1.410328 1.695112 -0.000008 0.000427 -102452.000000 1 0 0
13.393783 10.393712 7.644077 18.597166 0.659941 1.147208 0.033309 -0.011166 2086940.000000 1 0 0
-0.975717 15.912712 7.025777 17.422054 -1.509556 1.155710 0.012230 -0.007667 3465150.000000 1 0 0
13.328883 13.232512 6.637977 19.920372 0.781770 1.231074 0.037380 -0.015473 -615084.000000 1 0 0
5.382183 17.267512 4.606977 18.664380 1.268646 1.321386 0.015278 -0.020757 789198.000000 1 0 0
10.805483 9.466312 -1.896623 14.490228 0.719433 1.702063 0.010780 -0.002800 -569104.000000 1 0 0
3.258483 12.671012 4.778777 13.928710 1.319090 1.220594 0.004793 0.001903 1379540.000000 1 0 0
-0.125917 18.039812 3.444477 18.366140 -1.563816 1.382134 0.004769 -0.011035 2294310.000000 1 0 0
-7.655217 15.901112 -5.869523 18.598360 -1.122118 1.891878 0.020244 -0.007218 77846.400000 1 0 0
-12.502217 -9.231688 8.288877 17.613489 0.636038 1.080828 0.029379 -0.002855 -1347170.000000 1 0 0
-13.247417 -11.808688 6.820977 19.012230 0.728041 1.203849 0.042402 -0.006215 -1695270.000000 1 0 0
-6.662217 -12.392588 12.261677 18.663068 1.077526 0.853961 0.028427 -0.010476 -805250.000000 1 0 0
-1.780417 -10.612188 14.264077 17.867633 1.404573 0.646297 0.004955 -0.007987 806605.000000 1 0 0
-8.786517 2.816612 10.943977 14.314567 -0.310211 0.700478 -0.000334 -0.001052 1351650.000000 1 0 0
0.470983 10.080112 15.141777 18.196260 1.524106 0.587847 -0.000759 -0.005679 -466454.000000 1 0 0
1.070583 -6.814488 16.602577 17.978570 -1.414966 0.393781 0.006300 -0.013875 1680220.000000 1 0 0
6.187483 2.388712 17.824877 19.018863 0.368428 0.356222 0.022900 -0.011073 1524960.000000 1 0 0
-4.988017 -2.999888 17.543077 18.483485 0.541462 0.320361 0.025584 -0.017208 89191.400000 1 0 0
-4.352617 8.261512 12.985677 15.994551 -1.085896 0.623429 0.006299 0.000822 1205290.000000 1 0 0
0.174683 -4.842188 18.521877 19.145162 -1.534737 0.255867 0.016371 -0.021184 -535232.000000 1 0 0
-11.625017 2.039212 11.139777 16.229419 -0.173649 0.814277 0.020299 -0.001854 1900160.000000 1 0 0
-3.278717 -6.162188 14.275677 15.890800 1.081823 0.454772 0.015018 -0.010976 2522600.000000 1 0 0
-7.447317 -2.271388 14.666677 16.605215 0.296032 0.488032 0.021080 -0.003869 2619390.000000 1 0 0
-6.146817 -1.113988 10.706677 12.395857 0.179284 0.528171 0.006584 -0.004634 1253780.000000 1 0 0
-3.918417 2.337112 11.137877 12.036129 -0.537800 0.388785 0.002710 -0.000413 -215578.000000 1 0 0
-6.431517 6.219412 13.429377 16.136718 -0.768634 0.587688 -0.004347 0.000496 519763.000000 1 0 0
-9.006117 5.453812 12.384077 16.254832 -0.544503 0.704600 -0.000180 -0.002663 -85954.200000 1 0 0
-12.254117 -2.206688 15.841977 20.149469 0.178168 0.666123 0.038334 -0.001121 566266.000000 1 0 0
-3.391117 -7.656188 16.918377 18.877192 1.153842 0.459591 0.015672 -0.009869 851454.000000 1 0 0
-0.408617 -5.320988 14.358777 15.318432 1.494153 0.355844 0.010188 -0.008496 1148030.000000 1 0 0
-14.198217 -2.235788 13.645277 19.818721 0.156187 0.811371 0.057999 -0.012044 -1199890.000000 1 0 0
-6.441417 1.421912 12.144377 13.820260 -0.217261 0.497586 0.007374 -0.002590 1364500.000000 1 0 0
2.250783 -2.229088 14.614777 14.954149 -0.780555 0.213450 0.006801 -0.005114 1274610.000000 1 0 0
-12.580017 4.008712 9.171477 16.076150 -0.308484 0.963679 0.004440 -0.000918 -817606.000000 1 0 0
-9.109717 -3.075188 12.690277 15.921271 0.325561 0.648378 0.007907 0.001354 1745580.000000 1 0 0
-7.056817 -7.254388 15.243977 18.297641 0.799203 0.586087 0.032379 -0.012127 -275195.000000 1 0 0
-3.258317 6.110412 19.386977 20.586613 -1.080912 0.343067 0.051880 -0.017363 -124983.000000 1 0 0
0.661983 5.464812 16.134877 17.048069 1.450248 0.328788 0.007253 -0.008908 1033370.000000 1 0 0
3.530783 1.506112 16.843277 17.275150 0.403196 0.224074 0.009035 -0.008372 1094760.000000 1 0 0
-11.667017 11.540512 7.858577 18.195052 -0.779947 1.124190 0.008038 -0.005397 -136350.000000 1 0 0
0.619183 -9.430688 15.459177 18.119256 -1.505234 0.548724 -0.007200 -0.001090 1391330.000000 1 0 0
-2.379217 -3.474888 18.841777 19.306685 0.970420 0.219897 0.027906 -0.018693 1823260.000000 1 0 0
-12.797917 2.470012 13.821077 18.997626 -0.190657 0.756102 0.026344 -0.011392 449204.000000 1 0 0
-5.279917 -0.600088 15.750677 16.622920 0.113169 0.325385 0.022788 -0.005226 2431220.000000 1 0 0
-4.491617 -6.039588 11.670377 13.887007 0.931342 0.572810 0.012265 -0.004233 990320.000000 1 0 0
2.573583 1.812412 14.008977 14.358259 0.613564 0.221023 0.006103 -0.006445 1018800.000000 1 0 0
0.137183 3.277512 14.290677 14.662345 1.528965 0.225638 0.013807 -0.008139 957211.000000 1 0 0
-12.911317 7.121112 12.177177 19.123179 -0.504025 0.880487 0.015553 0.003712 256434.000000 1 0 0
0.941683 1.371812 18.175077 18.251084 0.969221 0.091295 0.022869 -0.013161 1963330.000000 1 0 0
-2.050017 6.418012 12.508877 14.207936 -1.261623 0.494060 0.001134 -0.001256 1344880.000000 1 0 0
-13.539417 -2.767088 10.835977 17.561065 0.201597 0.905814 0.046162 -0.007498 336701.000000 1 0 0
-2.500617 3.586212 13.475177 14.166665 -0.961894 0.313730 0.005949 -0.002848 265663.000000 1 0 0
3.531483 6.129312 16.284877 17.754917 1.048088 0.409792 0.006794 -0.008631 -89387.400000 1 0 0
-3.799717 12.431912 12.284177 17.885505 -1.274171 0.813687 0.025706 -0.005465 2159020.000000 1 0 0
3.863383 -1.446488 16.981677 17.475566 -0.358253 0.238310 0.021043 -0.015195 -1030750.000000 1 0 0
-15.936217 0.357812 9.288177 18.448883 -0.022449 1.043204 0.052851 -0.007035 595809.000000 1 0 0
-4.722117 4.548912 15.066777 16.431639 -0.766718 0.410461 0.016604 -0.003490 1938620.000000 1 0 0
-8.035417 -8.258188 10.559677 15.629216 0.799070 0.828968 0.017347 -0.006024 3027710.000000 1 0 0
-2.631617 -0.463388 14.688477 14.929551 0.174298 0.179950 0.021060 -0.004442 724657.000000 1 0 0
-1.866217 1.045612 17.181677 17.314332 -0.510705 0.123866 0.033385 -0.012388 1439490.000000 1 0 0
-0.664517 -2.483188 14.439977 14.666995 1.309317 0.176172 0.011465 -0.006601 855400.000000 1 0 0
5.212283 -8.229388 16.477377 19.141439 -1.006198 0.533913 0.017630 -0.011399 572078.000000 1 0 0
-4.545417 10.051712 10.627177 15.317788 -1.146112 0.804072 0.005596 -0.000789 -2381200.000000 1 0 0
-6.244917 2.085012 15.194177 16.559266 -0.322237 0.408888 0.015307 -0.000967 -663094.000000 1 0 0
-4.886817 6.779312 17.137177 19.066276 -0.946219 0.453723 0.028590 -0.008990 -795273.000000 1 0 0
-4.195017 9.144212 15.684577 18.633860 -1.140680 0.570327 0.020749 -0.008601 24046.300000 1 0 0
-4.559917 -9.877288 18.380577 21.358822 1.138291 0.534426 0.031303 -0.010212 1439770.000000 1 0 0
-6.898217 -4.162588 11.171877 13.774011 0.542937 0.624794 0.012127 -0.001660 1475310.000000 1 0 0
-2.320017 -0.722888 19.528677 19.679286 0.302053 0.123798 0.035545 -0.013825 1511130.000000 1 0 0
-5.629617 -4.539588 15.177277 16.812204 0.678617 0.444668 0.018009 -0.009103 1157090.000000 1 0 0
-13.021117 -0.010688 9.705677 16.240375 0.000821 0.930259 0.025308 -0.002676 1148050.000000 1 0 0
-14.474217 8.935612 10.375377 19.924773 -0.553077 1.023093 0.021664 0.001440 -1451910.000000 1 0 0
-8.621017 10.574712 12.815777 18.718723 -0.886826 0.816673 0.014978 -0.007774 510340.000000 1 0 0
-10.442017 7.219212 10.640877 16.564450 -0.604905 0.873180 0.005498 0.001410 -1515120.000000 1 0 0
-9.833217 -6.542688 14.939577 19.044419 0.587102 0.668972 0.037374 -0.009459 321305.000000 1 0 0
-0.710217 -13.452388 14.494777 19.788121 1.518050 0.748811 0.004771 -0.009878 -921739.000000 1 0 0
3.901383 -5.682588 16.879177 18.232368 -0.969154 0.387700 0.024395 -0.017717 2877080.000000 1 0 0
-7.346817 9.325512 10.442577 15.811018 -0.903527 0.849362 0.003270 -0.001329 640947.000000 1 0 0
-10.306417 -6.738488 11.884677 17.113591 0.579052 0.803129 0.028375 -0.008651 1935710.000000 1 0 0
-10.926517 -3.990688 10.745277 15.835888 0.350178 0.825024 0.018312 0.003073 -612659.000000 1 0 0
-10.154517 -10.286188 9.921777 17.531730 0.791840 0.969232 0.022254 -0.006024 1059220.000000 1 0 0
-9.888817 -3.636188 15.344777 18.613779 0.352362 0.601695 0.033926 -0.012836 1958500.000000 1 0 0
5.674183 -3.362188 15.981677 17.289149 -0.534917 0.391399 0.020195 -0.016770 334364.000000 1 0 0
-11.230917 0.526812 15.277377 18.968639 -0.046873 0.634443 0.026135 -0.008457 -913706.000000 1 0 0
-3.092717 3.271312 18.660777 19.196119 -0.813454 0.236722 0.041343 -0.017425 -240558.000000 1 0 0
0.498383 7.388612 13.895277 15.745434 1.503445 0.489654 0.001571 -0.006849 1034050.000000 1 0 0
-13.132617 -7.395488 12.252177 19.423561 0.512875 0.888226 0.033710 -0.007149 296134.000000 1 0 0
-1.488117 -1.152188 12.138477 12.283512 0.658847 0.153822 0.010263 -0.005886 736032.000000 1 0 0
2.123383 -4.786388 13.156377 14.160104 -1.153253 0.378782 0.003868 -0.005914 -207944.000000 1 0 0
-14.625217 -4.150688 8.591477 17.462493 0.276532 1.056415 0.032232 -0.006452 -2031960.000000 1 0 0
8.124383 1.021412 16.082977 18.047466 0.125066 0.470925 0.034024 -0.009012 761812.000000 1 0 0
-1.334317 11.394012 13.407077 17.645215 -1.454220 0.707770 0.017814 -0.002433 1544500.000000 1 0 0
2.870583 -12.191488 -13.761923 18.608148 -1.339550 2.403219 0.016332 0.004264 -886562.000000 1 0 0
0.769383 -10.572988 -14.043823 17.595709 -1.498156 2.494996 0.004356 0.001472 -2432460.000000 1 0 0
3.032983 -14.369788 -12.302323 19.158208 -1.362783 2.268088 0.013245 0.002645 -794191.000000 1 0 0
-5.195417 -10.152888 -16.152923 19.773477 1.097818 2.526809 0.031320 -0.008772 -57847.600000 1 0 0
-1.010317 -12.056088 -15.002823 19.273160 1.487190 2.462959 0.015491 -0.000923 -334037.000000 1 0 0
5.533883 -15.076788 -12.007223 20.052601 -1.219017 2.212781 0.026548 0.003948 644123.000000 1 0 0
1.933483 -11.938488 -16.049223 20.095856 -1.410237 2.495817 0.013476 0.003307 -704862.000000 1 0 0
1.185683 -14.240288 -14.065523 20.050700 -1.487725 2.348293 0.024488 0.011079 -569375.000000 1 0 0
-1.173017 -10.740488 -15.940523 19.257059 1.462013 2.545928 0.008476 -0.003588 -55287.900000 1 0 0
-5.819817 -5.577988 -14.807123 16.859274 0.764184 2.643044 0.013404 -0.008041 -303141.000000 1 0 0
-6.555817 -7.533688 -16.288223 19.106056 0.854691 2.591577 0.021700 -0.011025 891109.000000 1 0 0
4.908783 -12.543188 -11.464723 17.688064 -1.197769 2.275964 0.010298 0.004510 159039.000000 1 0 0
-1.799617 -15.487888 -13.119123 20.377063 1.455120 2.270274 0.024840 0.000507 389855.000000 1 0 0
15.676683 -7.269988 -8.901123 19.438136 -0.434226 2.046451 0.047505 -0.004858 316680.000000 1 0 0
19.257183 -3.576188 -4.325823 20.058439 -0.183615 1.788165 0.081143 -0.016337 748961.000000 1 0 0
14.992483 -11.592888 -8.861923 20.921360 -0.658214 2.008193 0.067742 -0.022087 -226267.000000 1 0 0
17.905583 -3.620188 -6.570423 19.413555 -0.199493 1.916060 0.078302 -0.005766 253022.000000 1 0 0
9.756283 -9.126488 -15.504623 20.466343 -0.752058 2.430374 0.075502 -0.020010 266709.000000 1 0 0
1.336183 1.823112 -15.225023 15.391895 0.938321 2.994207 0.014721 -0.009285 -493317.000000 1 0 0
4.861783 -4.340288 -13.916323 15.366817 -0.728787 2.703609 0.015175 -0.006882 356070.000000 1 0 0
13.232383 -5.517188 -8.648323 16.743023 -0.395029 2.113593 0.037604 -0.005069 -1198150.000000 1 0 0
2.970483 0.892012 -12.253923 12.640335 0.291724 2.893694 0.006496 -0.005454 -3422440.000000 1 0 0
0.640783 6.304112 -13.044323 14.501958 1.469499 2.689390 0.011692 -0.003649 123529.000000 1 0 0
3.086283 -1.111488 -16.815423 17.132396 -0.345678 2.948934 0.025083 -0.012235 209265.000000 1 0 0
13.205383 4.336012 -11.526623 18.056749 0.317261 2.263156 0.029643 -0.006746 459513.000000 1 0 0
-3.959017 9.353812 -16.479523 19.358261 -1.170407 2.589238 0.003643 -0.007345 -140601.000000 1 0 0
-0.334917 -5.226588 -17.680623 18.440006 1.506804 2.853610 0.016618 -0.012864 129065.000000 1 0 0
-0.498017 -8.682488 -17.487123 19.530312 1.513500 2.680088 0.012732 -0.005385 -1189540.000000 1 0 0
5.619083 -10.069688 -12.102323 16.716427 -1.061817 2.380348 0.019779 -0.004088 137482.000000 1 0 0
1.790483 -9.726888 -17.973923 20.515362 -1.388758 2.638551 0.030531 -0.012393 -290969.000000 1 0 0
10.954683 8.846912 -14.764223 20.402333 0.679353 2.379878 0.073022 -0.023895 252818.000000 1 0 0
11.023183 -3.818488 -12.882423 17.379535 -0.333469 2.405714 0.027718 -0.007620 379673.000000 1 0 0
5.013983 7.281512 -12.389423 15.220323 0.967769 2.521811 0.002975 -0.002537 -1623790.000000 1 0 0
9.655583 -5.958488 -12.573923 16.936275 -0.552900 2.407480 0.027838 -0.007645 -1331800.000000 1 0 0
-3.319617 0.283712 -15.853123 16.199440 -0.085258 2.934446 0.015167 -0.007882 -2438230.000000 1 0 0
-0.816517 10.642412 -12.898523 16.742148 -1.494223 2.450299 -0.002303 -0.003129 -1836850.000000 1 0 0
6.737683 -5.477688 -12.388623 15.128761 -0.682613 2.530251 0.015000 -0.006104 269832.000000 1 0 0
17.898583 -6.213388 -8.075923 20.595776 -0.334128 1.973726 0.066716 -0.009598 829974.000000 1 0 0
13.216083 4.759512 -14.075723 19.885768 0.345671 2.357216 0.051698 -0.014704 298723.000000 1 0 0
14.230183 0.828912 -11.510623 18.321562 0.058184 2.250105 0.035533 -0.003128 189455.000000 1 0 0
15.127783 6.047112 -11.310423 19.832878 0.380278 2.177651 0.050139 -0.007059 276846.000000 1 0 0
8.269383 1.525712 -11.742523 14.442899 0.182449 2.520135 0.001003 0.004467 624402.000000 1 0 0
9.891983 1.252612 -9.028823 13.451394 0.125959 2.306648 0.005605 0.003562 706533.000000 1 0 0
-0.169317 -5.869488 -13.030223 14.292175 1.541957 2.718207 0.006136 -0.006574 392473.000000 1 0 0
10.644983 -5.771088 -8.994123 15.083613 -0.496790 2.209661 0.017482 -0.008658 -1054300.000000 1 0 0
10.302983 8.573012 -11.307223 17.535714 0.694004 2.271572 0.040746 -0.019575 791644.000000 1 0 0
8.428883 8.240812 -14.710423 18.850825 0.774116 2.466037 0.046692 -0.012549 18329.000000 1 0 0
8.610283 10.534312 -10.809223 17.376651 0.885562 2.242160 0.047709 -0.015486 -151029.000000 1 0 0
7.018083 1.896712 -17.984923 19.398671 0.263955 2.757453 0.034282 -0.008088 -769350.000000 1 0 0
12.176483 2.587812 -13.018323 18.012225 0.209410 2.378569 0.035273 -0.006287 -1135260.000000 1 0 0
2.573883 -0.847988 -19.249223 19.439047 -0.318259 3.001728 0.039754 -0.018972 -527899.000000 1 0 0
10.370483 -2.308288 -15.588523 18.864707 -0.219012 2.543361 0.043819 -0.007164 702223.000000 1 0 0
8.368683 -0.710088 -13.138523 15.593584 -0.084648 2.572814 0.010294 -0.002659 736113.000000 1 0 0
0.568583 4.295712 -14.755323 15.378426 1.439201 2.855954 0.010478 -0.005900 -941422.000000 1 0 0
4.011383 -7.548788 -15.552823 17.747273 -1.082350 2.639028 0.038053 -0.017746 -2649000.000000 1 0 0
11.491283 -5.801688 -14.420123 19.330006 -0.467542 2.412827 0.050134 -0.010002 -861070.000000 1 0 0
-5.897317 4.278012 -16.676423 18.198429 -0.627581 2.729703 0.013428 -0.005758 135931.000000 1 0 0
11.499583 7.875412 -9.177623 16.688058 0.600481 2.153103 0.034013 -0.010351 -540579.000000 1 0 0
9.537583 6.254612 -13.412323 17.606137 0.580432 2.436881 0.026849 -0.007307 -537861.000000 1 0 0
12.146283 0.488312 -10.220623 15.881806 0.040181 2.269914 0.014529 0.003966 -2069810.000000 1 0 0
5.508883 -7.297888 -13.637923 16.419498 -0.924192 2.550968 0.028912 -0.007580 -308466.000000 1 0 0
8.670783 -10.240488 -10.714823 17.171415 -0.868212 2.244637 0.027005 -0.004166 208154.000000 1 0 0
10.124883 4.861812 -15.851923 19.427659 0.447670 2.525160 0.051839 -0.015672 499269.000000 1 0 0
9.927383 -0.400088 -11.006523 14.827560 -0.040280 2.407295 0.008478 0.002280 -964043.000000 1 0 0
-1.733417 5.413612 -14.010323 15.119559 -1.260916 2.756159 0.006794 -0.002923 1057000.000000 1 0 0
1.361983 -0.823288 -14.883423 14.968269 -0.543705 3.035068 0.012980 -0.010142 66393.400000 1 0 0
11.491783 -10.561388 -14.181223 21.088174 -0.743234 2.308341 0.077118 -0.022223 -178718.000000 1 0 0
9.516583 -7.811388 -10.826923 16.395286 -0.687307 2.292105 0.026559 -0.006655 -316184.000000 1 0 0
14.142983 -0.992688 -9.721123 17.190394 -0.070075 2.171833 0.028817 0.003179 816297.000000 1 0 0
3.898583 11.159112 -12.238923 17.015168 1.234689 2.373583 0.014154 -0.011186 -302103.000000 1 0 0
-1.369417 2.785812 -17.028223 17.308854 -1.113917 2.961275 0.016062 -0.007972 34052.900000 1 0 0
5.906983 -0.450888 -17.715223 18.679531 -0.076184 2.818872 0.022700 -0.006552 132077.000000 1 0 0
6.395583 -6.397888 -15.851923 18.251573 -0.785578 2.623012 0.037243 -0.015283 341957.000000 1 0 0
-1.816317 -5.190888 -19.841323 20.589376 1.234206 2.871207 0.030424 -0.017555 -913736.000000 1 0 0
-0.053617 -4.382088 -15.246123 15.863475 1.558561 2.861694 0.009744 -0.009553 630156.000000 1 0 0
0.545783 0.722612 -13.041423 13.072825 0.923917 3.072266 0.010333 -0.008390 624418.000000 1 0 0
15.575483 0.545412 -13.737823 20.775489 0.035003 2.293282 0.060472 -0.014506 672132.000000 1 0 0
-0.074217 7.101612 -16.380223 17.853574 -1.560346 2.732484 0.007573 -0.001079 -427471.000000 1 0 0
-4.784317 -0.519588 -18.335723 18.956750 0.108178 2.884919 0.007112 -0.002583 -7053.840000 1 0 0
10.521883 -8.336988 -13.166823 18.803740 -0.670057 2.346507 0.036462 -0.011579 287074.000000 1 0 0
3.954683 8.548112 -17.351923 19.743327 1.137482 2.644296 0.028528 -0.013563 30971.000000 1 0 0
9.049883 0.531012 -16.923323 19.198469 0.058609 2.649812 0.032704 -0.012475 -737959.000000 1 0 0
3.390583 4.857512 -18.440323 19.368453 0.961408 2.830764 0.030526 -0.012497 -255844.000000 1 0 0
1.518183 -8.038088 -15.909523 17.889345 -1.384122 2.666673 0.010381 -0.006290 -119232.000000 1 0 0
4.554283 7.769312 -14.924823 17.431409 1.040594 2.598671 0.012949 -0.006951 1006990.000000 1 0 0
-5.698417 -0.477888 -15.097523 16.144210 0.083668 2.779525 0.010138 -0.007738 -212786.000000 1 0 0
2.852983 3.339512 -13.859723 14.539043 0.863805 2.834698 0.010841 -0.004380 -1027940.000000 1 0 0
-2.539617 -10.262788 -18.051123 20.919310 1.328211 2.611762 0.019341 -0.003365 -41415.200000 1 0 0
6.233683 -8.994388 -15.323623 18.830062 -0.964741 2.521432 0.038680 -0.017858 250903.000000 1 0 0
-1.784117 5.344012 -17.138123 18.040421 -1.248578 2.823983 0.007850 -0.009566 -469424.000000 1 0 0
10.046183 -12.117688 -11.772023 19.655653 -0.878591 2.212939 0.056608 -0.010408 166288.000000 1 0 0
10.930483 3.697712 -9.393823 14.879262 0.326208 2.254072 0.007570 0.001993 -210373.000000 1 0 0
4.964683 -0.503888 -11.008723 12.086933 -0.101148 2.716003 0.003165 -0.002637 -230190.000000 1 0 0
6.326283 9.486012 -11.525223 16.212250 0.982628 2.361568 0.020833 -0.012901 287154.000000 1 0 0
10.858383 -9.578988 -9.454023 17.292774 -0.722879 2.149219 0.039629 -0.010316 -1204230.000000 1 0 0
3.303883 -2.530988 -14.534023 15.118180 -0.653704 2.862699 0.011448 -0.006442 -26787.300000 1 0 0
9.200183 -4.598388 -14.692023 17.934438 -0.463499 2.530824 0.032384 -0.009966 456104.000000 1 0 0
-4.091617 -6.602488 -16.439923 18.182553 1.016011 2.700204 0.007609 -0.004753 -969574.000000 1 0 0
5.980983 -7.789688 -11.182523 14.882883 -0.915995 2.420929 0.012844 -0.003679 -96543.400000 1 0 0
5.502583 6.405012 -16.858823 18.855304 0.861040 2.677249 0.025001 -0.016468 -1126200.000000 1 0 0
9.042483 1.360512 -19.397723 21.445026 0.149338 2.701078 0.067290 -0.020330 356225.000000 1 0 0
13.184883 5.836712 -9.510323 17.272944 0.416752 2.153868 0.016823 -0.004887 446305.000000 1 0 0
-1.714917 -0.944388 -17.371223 17.481195 0.503373 3.029365 0.020924 -0.010027 305455.000000 1 0 0
-0.586917 -0.557188 -19.545923 19.562669 0.759420 3.100212 0.035295 -0.020640 -202032.000000 1 0 0
2.851383 6.380512 -16.472323 17.893539 1.150532 2.740343 0.014685 -0.008199 718546.000000 1 0 0
7.626783 3.840612 -15.565523 17.753975 0.466499 2.639827 0.023633 -0.007414 -138606.000000 1 0 0
3.030983 -9.865188 -14.858523 18.091006 -1.272710 2.534519 0.023133 -0.004949 -93658.600000 1 0 0
8.924383 -10.453388 -13.404323 19.198797 -0.864140 2.343656 0.047187 -0.011590 420290.000000 1 0 0
3.804483 0.091512 -14.805123 15.286403 0.024049 2.889994 0.011990 -0.006338 -2035940.000000 1 0 0
-1.221517 -2.952088 -18.887423 19.155722 1.178467 2.974028 0.037965 -0.013766 332851.000000 1 0 0
9.331783 10.284412 -13.171123 19.139743 0.833923 2.329740 0.057471 -0.019674 305672.000000 1 0 0
4.577183 2.070312 -10.773223 11.886931 0.424774 2.705261 0.001154 0.001093 -143013.000000 1 0 0
-0.738917 6.922912 -18.878223 20.121133 -1.464464 2.788271 0.018450 -0.010512 220533.000000 1 0 0
0.771783 -1.884888 -17.597523 17.715001 -1.182163 3.026363 0.030673 -0.017443 -2067240.000000 1 0 0
-4.442117 -2.325988 -14.081723 14.947827 0.482366 2.799510 0.011218 -0.007032 -4034430.000000 1 0 0
10.096683 6.060812 -10.494223 15.773559 0.540624 2.298698 0.016213 0.000659 91698.900000 1 0 0
8.195483 5.488912 -17.497323 20.086075 0.590133 2.628269 0.052059 -0.023443 -488044.000000 1 0 0
11.425283 0.238612 -13.800223 17.917594 0.020881 2.449959 0.030349 0.008492 448137.000000 1 0 0
6.803683 11.990812 -11.918523 18.224183 1.054686 2.283650 0.039121 -0.016715 -458911.000000 1 0 0
-0.834017 0.454212 -15.281123 15.310604 -0.498694 3.079525 0.011088 -0.011213 -792971.000000 1 0 0
-4.349917 -2.943688 -18.943423 19.658086 0.594932 2.871122 0.017611 -0.003066 -58523.100000 1 0 0
5.826683 -12.012788 -13.921023 19.288655 -1.119188 2.377081 0.030729 -0.001064 -71205.500000 1 0 0
2.149583 -4.848288 -14.064723 15.031402 -1.153470 2.781004 0.009766 -0.004721 704049.000000 1 0 0
11.656983 2.035312 -15.517223 19.514404 0.172858 2.490080 0.053019 -0.008948 555331.000000 1 0 0
9.690983 2.350112 -13.815923 17.038718 0.237912 2.516407 0.020440 -0.006160 -832843.000000 1 0 0
-2.362817 -4.105488 -16.383023 17.054072 1.048567 2.860135 0.009750 -0.009775 -1142460.000000 1 0 0
-2.960217 9.992212 -14.209323 17.621352 -1.282781 2.508784 0.002243 -0.010790 8322.850000 1 0 0
3.441483 5.768612 -13.672123 15.233110 1.032890 2.684925 0.010548 -0.002768 -193886.000000 1 0 0
-5.123117 -2.628788 -16.564223 17.536543 0.474091 2.807032 0.010379 -0.002093 287894.000000 1 0 0
-4.304417 6.125312 -13.637823 15.557559 -0.958243 2.639556 -0.000816 -0.002185 -873874.000000 1 0 0
6.019683 -0.996288 -14.207023 15.461846 -0.164018 2.735937 0.009488 -0.000015 -1046050.000000 1 0 0
6.769483 -2.909888 -12.690623 14.674647 -0.405975 2.615547 0.011887 -0.006817 1032960.000000 1 0 0
2.939883 -3.237588 -18.219923 18.737408 -0.833553 2.906026 0.037713 -0.021582 241734.000000 1 0 0
7.396583 -12.037588 -11.978523 18.522904 -1.019814 2.274029 0.029609 -0.002019 -1515610.000000 1 0 0
-6.144417 -5.256588 -17.373523 19.163112 0.707682 2.705983 0.028621 -0.011510 198460.000000 1 0 0
0.527783 8.617112 -11.901423 14.702960 1.509624 2.514024 0.004182 -0.003857 -9443.800000 1 0 0
0.517283 8.645312 -14.459723 16.855046 1.511034 2.601939 0.005046 -0.000493 203266.000000 1 0 0
7.780283 -2.491288 -15.079523 17.150257 -0.309889 2.645101 0.025161 -0.013561 151523.000000 1 0 0
14.223783 1.582212 -8.948823 16.879006 0.110782 2.129603 0.017786 0.005079 331710.000000 1 0 0
2.754683 10.748412 -14.678823 18.400665 1.319909 2.494323 0.011279 -0.003644 68856.000000 1 0 0
6.157583 1.093912 -15.583723 16.791810 0.175818 2.759952 0.018403 -0.005001 672441.000000 1 0 0
16.889383 -5.307588 -10.261023 20.462413 -0.304484 2.096078 0.092411 -0.019115 388344.000000 1 0 0
4.944083 -4.175288 -11.251323 12.979571 -0.701294 2.619643 0.004219 -0.002056 320076.000000 1 0 0
8.716483 -3.648188 -17.112423 19.547925 -0.396385 2.637077 0.033259 -0.016274 406431.000000 1 0 0
13.400683 -9.593088 -8.891323 18.725952 -0.621295 2.065548 0.061931 -0.017600 -170217.000000 1 0 0
2.272983 -7.821088 -13.562623 15.820260 -1.287965 2.600788 0.009409 -0.003870 413368.000000 1 0 0
-6.840617 -2.270688 -18.495123 19.849928 0.320498 2.769993 0.012016 -0.004484 -928258.000000 1 0 0
-1.515617 -6.481888 -15.714323 17.066104 1.341100 2.740901 0.001943 -0.005474 1091510.000000 1 0 0
1.433283 -7.202488 -18.423923 19.833584 -1.374364 2.762297 0.040176 -0.017351 -457925.000000 1 0 0
5.330883 10.960312 -14.453123 18.906071 1.118103 2.441015 0.035323 -0.024526 -1337360.000000 1 0 0
5.499483 -3.424288 -17.309623 18.482238 -0.556912 2.783464 0.041845 -0.020575 -81065.600000 1 0 0
3.863783 13.055212 -14.022123 19.544495 1.283053 2.370926 0.026869 -0.017443 -333517.000000 1 0 0
9.138783 10.405012 -15.765723 20.984271 0.850097 2.420843 0.074455 -0.025467 52285.100000 1 0 0
2.452783 3.804512 -16.307823 16.924407 0.998153 2.870834 0.018409 -0.007741 51414.100000 1 0 0
16.731483 1.626512 -11.789023 20.532149 0.096908 2.182391 0.066652 -0.002041 -288049.000000 1 0 0
10.035583 -3.714288 -10.446923 14.954834 -0.354478 2.344186 0.018449 -0.004358 117323.000000 1 0 0
14.690283 -2.032388 -12.015823 19.087038 -0.137476 2.251742 0.058178 -0.004572 -109994.000000 1 0 0
-2.679917 -8.678688 -15.941023 18.347147 1.271292 2.623682 0.004541 -0.001358 -850198.000000 1 0 0
14.123583 8.183112 -8.812923 18.550108 0.525130 2.065860 0.059458 -0.011796 -239032.000000 1 0 0
-8.371917 -0.001288 -16.510823 18.512057 0.000154 2.672316 0.008085 -0.007469 -177119.000000 1 0 0
-3.439717 3.928512 -15.809523 16.649500 -0.851639 2.822592 0.008097 -0.003873 559318.000000 1 0 0
15.119183 3.937612 -9.861123 18.475287 0.254778 2.133821 0.028773 0.001510 249910.000000 1 0 0
5.407983 1.057312 -13.005323 14.124539 0.193074 2.740823 0.003736 -0.000412 298367.000000 1 0 0
7.969283 -7.791188 -12.775723 16.953796 -0.774099 2.424259 0.037886 -0.006615 -2832780.000000 1 0 0
3.325183 -6.098488 -11.858923 13.743451 -1.071609 2.611733 0.007901 -0.003882 -972700.000000 1 0 0
-3.388517 3.714412 -18.379723 19.055002 -0.831248 2.874573 0.018748 -0.005893 -524853.000000 1 0 0
0.856283 5.182712 -17.785523 18.545041 1.407056 2.854406 0.021999 -0.012323 -615955.000000 1 0 0
6.386683 7.140612 -10.268923 14.043818 0.841074 2.390884 0.007091 -0.001719 -138074.000000 1 0 0
9.753583 3.707512 -11.639123 15.631609 0.363250 2.410715 0.019292 -0.001024 485791.000000 1 0 0
4.450183 1.703412 -17.522823 18.159159 0.365568 2.876079 0.022669 -0.009652 12437.800000 1 0 0
2.627483 8.068812 -13.180423 15.675871 1.255991 2.569573 0.005373 -0.005467 -1657920.000000 1 0 0
14.517883 -3.544288 -9.908523 17.930693 -0.239449 2.156278 0.045345 -0.000148 233933.000000 1 0 0
-1.341617 9.422412 -16.221523 18.807434 -1.429361 2.610997 0.002867 -0.000017 -1840370.000000 1 0 0
-5.199717 2.003612 -15.741923 16.699091 -0.367797 2.801373 0.011038 -0.006122 269050.000000 1 0 0
4.565183 4.211612 -11.966523 13.482442 0.745135 2.662825 0.003322 -0.000906 560759.000000 1 0 0
9.266883 3.060212 -17.460623 20.002834 0.318956 2.631927 0.048396 -0.018401 692180.000000 1 0 0
-4.311217 14.233612 -13.429123 20.038054 -1.276690 2.305249 0.019584 -0.017764 -355331.000000 1 0 0
15.606983 -4.838988 -7.928123 18.161742 -0.300654 2.022533 0.054391 -0.005729 307643.000000 1 0 0
1.119483 9.504612 -16.857823 19.384970 1.453553 2.625256 0.008754 0.005295 -251032.000000 1 0 0
0.537383 -3.283588 -12.824823 13.249408 -1.408577 2.887749 0.007644 -0.006175 92605.000000 1 0 0
7.486783 3.705812 -13.002123 15.454454 0.459624 2.570515 0.005507 -0.002752 1734510.000000 1 0 0
-2.961517 7.522412 -15.143123 17.165996 -1.195739 2.651221 0.000188 -0.001798 418943.000000 1 0 0
12.121783 -5.159888 -11.025523 17.179180 -0.402439 2.267634 0.033656 -0.008503 -945009.000000 1 0 0
0.571783 -4.520188 -20.057123 20.568112 -1.444969 2.918222 0.046787 -0.015611 -672872.000000 1 0 0
3.458683 -4.573888 -16.146323 17.134371 -0.923352 2.800337 0.031744 -0.018017 679383.000000 1 0 0
-5.665317 4.025712 -14.192123 15.802485 -0.617797 2.686214 0.005186 -0.005167 684170.000000 1 0 0
12.323283 -7.514488 -9.860423 17.480240 -0.547579 2.170127 0.034395 -0.008627 2614.870000 1 0 0
-1.984517 -1.832088 -14.899523 15.142346 0.745481 2.962266 0.012882 -0.006370 346843.000000 1 0 0
7.045183 5.981912 -14.335223 17.056274 0.703959 2.568939 0.017161 -0.004950 -338743.000000 1 0 0
4.243883 -5.423088 -18.546423 19.783585 -0.906781 2.786072 0.056643 -0.017249 193744.000000 1 0 0
7.643483 7.532912 -12.372723 16.378396 0.778113 2.427106 0.019694 -0.009829 -402188.000000 1 0 0
12.369983 -2.566388 -10.947423 16.716725 -0.204567 2.284818 0.023628 -0.004050 -712022.000000 1 0 0
7.594083 -0.832888 -10.675223 13.127231 -0.109239 2.520447 0.003532 -0.000306 -1567810.000000 1 0 0
5.319783 4.076812 -14.477323 15.953475 0.653883 2.708022 0.007144 -0.003784 1832780.000000 1 0 0
14.746283 2.877012 -12.967623 19.846645 0.192680 2.282852 0.044385 -0.016001 -388305.000000 1 0 0
-6.398017 6.712712 -15.834923 18.350474 -0.809396 2.611809 0.006175 -0.001308 394638.000000 1 0 0
-11.616017 3.607012 -16.173923 20.237049 -0.301080 2.496798 0.079472 -0.024061 -269907.000000 1 0 0
-4.885417 6.333112 -18.001223 19.698214 -0.913734 2.723464 0.009285 0.005536 422180.000000 1 0 0
-10.217417 1.589612 -15.523723 18.652304 -0.154341 2.553983 0.044228 -0.017267 -59534.000000 1 0 0
-7.481317 5.794312 -17.985123 20.322618 -0.659000 2.657249 0.015925 -0.004978 -396808.000000 1 0 0
-8.969817 3.869312 -16.001823 18.748000 -0.407254 2.593503 0.021269 0.009014 5966.120000 1 0 0
8.940583 13.348412 -12.221023 20.185825 0.980637 2.221097 0.081893 -0.025800 -1217590.000000 1 0 0
14.274083 9.208012 -11.293023 20.397777 0.572913 2.157525 0.085428 -0.019785 369306.000000 1 0 0
8.435183 15.925412 -8.979823 20.134753 1.083697 2.033072 0.047098 -0.010211 -286308.000000 1 0 0
7.065283 13.763512 -13.927923 20.816808 1.096538 2.303754 0.059392 -0.014367 -384907.000000 1 0 0
4.608083 15.692112 -12.536023 20.606520 1.285170 2.224779 0.041259 -0.022161 -92161.200000 1 0 0
11.082783 11.050412 -11.416323 19.371941 0.783936 2.201016 0.079852 -0.027285 -269838.000000 1 0 0
15.952883 10.008112 -9.291523 20.999742 0.560291 2.029135 0.096475 -0.014611 909487.000000 1 0 0
13.434583 10.716912 -9.368023 19.572942 0.673344 2.069880 0.098527 -0.018969 552207.000000 1 0 0
10.357083 11.810912 -8.102623 17.675387 0.850887 2.047005 0.047220 -0.012588 251076.000000 1 0 0
5.199383 16.152212 -9.984123 19.687819 1.259372 2.102638 0.019832 -0.013679 -199195.000000 1 0 0
6.739483 14.544112 -11.474323 19.713242 1.136870 2.192058 0.034389 -0.009648 -558241.000000 1 0 0
10.429583 13.818012 -9.774223 19.880872 0.924242 2.084768 0.071884 -0.021833 -895226.000000 1 0 0
8.181583 -18.655488 -1.363223 20.416266 -1.157495 1.637617 0.051470 0.000446 14774.400000 1 0 0
7.296983 -17.394688 -3.431023 19.172717 -1.173598 1.750719 0.030227 -0.000696 -242012.000000 1 0 0
4.537183 -18.457688 6.004977 19.933189 -1.329760 1.264788 0.030501 0.006002 174641.000000 1 0 0
9.791183 -16.969688 -2.706623 19.777851 -1.047475 1.708078 0.052693 -0.007517 561121.000000 1 0 0
-9.833817 -12.149888 -9.916923 18.511323 0.890365 2.136159 0.031096 -0.008483 -609795.000000 1 0 0
-5.132217 -7.009988 -12.016323 14.828068 0.938831 2.515591 0.011287 -0.006028 758615.000000 1 0 0
-10.834017 -9.506888 -5.710523 15.503771 0.720246 1.948010 0.010397 -0.005225 137312.000000 1 0 0
-4.520917 -11.405388 -14.041223 18.646112 1.193411 2.423463 0.023124 -0.007212 301261.000000 1 0 0
-2.778017 -15.631388 7.402577 17.517301 1.394912 1.134499 0.001563 -0.003611 -40219.500000 1 0 0
-4.901517 -12.040688 -11.649623 17.456138 1.184202 2.301462 0.031494 -0.006076 179616.000000 1 0 0
-14.375017 -12.926288 -4.189123 19.780768 0.732383 1.784190 0.022660 -0.013591 275428.000000 1 0 0
-3.253717 -12.272288 -3.269923 13.110611 1.311632 1.822868 0.011015 -0.005363 649434.000000 1 0 0
-2.430417 -17.337488 -1.486523 17.570008 1.431521 1.655503 0.007593 -0.006552 -408267.000000 1 0 0
-5.883917 -12.181388 3.634877 14.007820 1.120821 1.308303 0.001267 -0.001737 -22738.000000 1 0 0
-9.053417 -10.889788 -12.060623 18.601357 0.877219 2.276242 0.032434 -0.000602 1335120.000000 1 0 0
-10.197317 -12.051188 -7.278423 17.383666 0.868532 2.002802 0.029742 -0.009372 117456.000000 1 0 0
-10.851117 -14.976388 6.226577 19.514333 0.943784 1.246041 0.051864 -0.021446 -1146010.000000 1 0 0
-9.526517 -15.673088 0.779977 18.357794 1.024642 1.528296 0.022779 -0.002994 -414693.000000 1 0 0
-14.840617 -7.370488 -7.876823 18.346998 0.460958 2.014541 0.017319 -0.022010 -238550.000000 1 0 0
-2.358017 -16.592588 5.042277 17.501394 1.429629 1.278547 0.012955 -0.008294 338763.000000 1 0 0
4.449283 -15.832288 5.834377 17.449855 -1.296837 1.229880 0.024422 -0.006668 -195079.000000 1 0 0
4.148083 -14.531488 -9.985023 18.112742 -1.292737 2.154683 0.009108 -0.002265 -441774.000000 1 0 0
-7.558917 -14.075788 -0.106223 15.977369 1.077977 1.577445 0.008903 -0.002355 1165530.000000 1 0 0
2.928283 -14.622788 9.536577 17.701613 -1.373156 1.001855 0.015834 -0.013097 -55571.800000 1 0 0
2.541883 -17.037288 10.427377 20.136051 -1.422693 1.026465 0.040856 -0.015396 -251681.000000 1 0 0
-8.114617 -17.113988 -5.831323 19.817667 1.128041 1.869466 0.036340 -0.011832 341710.000000 1 0 0
-6.550317 -9.221788 -7.755623 13.714872 0.953185 2.171824 0.017020 -0.006418 327269.000000 1 0 0
-6.020817 -13.124388 -4.772523 15.207787 1.140690 1.890011 0.008679 -0.008679 280121.000000 1 0 0
2.322483 -19.280788 -5.087923 20.075599 -1.450918 1.827029 0.017461 -0.008314 397800.000000 1 0 0
-5.400617 -12.874588 8.267377 16.225634 1.173611 1.036163 0.009174 -0.008067 1028020.000000 1 0 0
2.247083 -17.472488 3.492677 17.959288 -1.442891 1.375072 0.018528 -0.011692 125999.000000 1 0 0
-17.609417 -9.974588 -2.614523 20.406364 0.515374 1.699272 0.031989 -0.018363 642740.000000 1 0 0
-3.681117 -15.404588 2.587077 16.048207 1.336233 1.408883 0.007765 -0.006957 -167565.000000 1 0 0
-10.218117 -10.088288 -14.273123 20.246123 0.779005 2.353192 0.040157 -0.013276 -2696.140000 1 0 0
6.028683 -14.492888 -5.654323 16.684130 -1.176594 1.916548 0.002150 -0.001448 320379.000000 1 0 0
-7.392717 -12.392488 -10.825723 18.039465 1.032919 2.214439 0.033683 -0.007629 -387524.000000 1 0 0
-7.200717 -14.381888 3.923777 16.555515 1.106605 1.331512 0.005543 -0.002843 626438.000000 1 0 0
3.226083 -14.882088 -2.982623 15.517094 -1.357323 1.764215 0.006391 -0.000995 -582050.000000 1 0 0
-7.527017 -11.457188 7.839677 15.791887 0.989538 1.051307 0.011025 -0.007614 -1636180.000000 1 0 0
-12.842417 -12.457788 -1.016123 17.920844 0.770197 1.627527 0.008643 -0.000336 -1365870.000000 1 0 0
-1.924217 -13.754288 3.922477 14.431524 1.431799 1.295534 0.004511 -0.000345 -2812870.000000 1 0 0
-3.109517 -14.079588 5.273477 15.352963 1.353433 1.220174 0.002631 -0.004285 128744.000000 1 0 0
-14.426817 -10.315788 -4.440123 18.282867 0.620750 1.816106 0.011049 -0.010738 364923.000000 1 0 0
-6.312117 -8.776988 -10.449223 15.035445 0.947322 2.339178 0.020719 -0.005497 -15653.500000 1 0 0
0.961483 -19.571688 2.447277 19.747521 -1.521710 1.446549 0.019521 -0.009418 107547.000000 1 0 0
6.431183 -14.052188 -8.195023 17.492356 -1.141587 2.058379 0.015259 -0.001897 -1748040.000000 1 0 0
-4.114117 -16.679788 -5.973823 18.188674 1.328970 1.905444 0.011915 -0.007429 -36346.000000 1 0 0
-3.703617 -13.729088 -13.192623 19.397163 1.307304 2.318738 0.035301 -0.003444 -1168390.000000 1 0 0
-8.198017 -14.817988 -4.428823 17.504135 1.065463 1.826593 0.021802 -0.009983 71424.600000 1 0 0
-4.456417 -14.382488 10.037277 18.095927 1.270327 0.982829 0.016054 -0.013961 -1564490.000000 1 0 0
-0.326417 -12.126288 -9.956123 15.693240 1.543885 2.258056 0.005144 -0.002718 175490.000000 1 0 0
2.351183 -17.223088 6.697477 18.628447 -1.435122 1.203033 0.025559 -0.013796 -1091200.000000 1 0 0
-2.855317 -19.155888 -3.283523 19.643890 1.422829 1.738737 0.014715 -0.008866 -1323180.000000 1 0 0
0.597783 -15.344788 -3.018223 15.650225 -1.531859 1.764867 0.006451 -0.003115 -601697.000000 1 0 0
6.135183 -17.938388 0.687277 18.970994 -1.241253 1.534561 0.026438 -0.002846 -194360.000000 1 0 0
-7.067417 -16.808488 3.920977 18.650676 1.172771 1.358984 0.012920 -0.002053 869856.000000 1 0 0
-5.418617 -13.495288 -9.577823 17.413182 1.188981 2.153200 0.028455 -0.006990 -5359.550000 1 0 0
5.610483 -15.215988 -2.145923 16.358753 -1.217540 1.702354 0.011878 0.002025 -671352.000000 1 0 0
-8.916617 -10.303188 -0.597423 13.638866 0.857416 1.614613 0.007323 -0.001326 -883395.000000 1 0 0
-7.523017 -18.292088 -2.955223 19.998240 1.180611 1.719114 0.031523 -0.020686 399070.000000 1 0 0
7.928683 -15.966388 -1.232123 17.869183 -1.109884 1.639803 0.019223 0.000650 -803264.000000 1 0 0
-8.212717 -10.138988 -9.661623 16.235602 0.889979 2.208172 0.023757 -0.005802 -909221.000000 1 0 0
-9.143017 -14.926688 -6.886723 18.810309 1.021216 1.945626 0.042659 -0.016049 -636654.000000 1 0 0
-11.674017 -10.433688 -12.193223 19.844878 0.729353 2.232455 0.041867 0.002837 -711542.000000 1 0 0
6.600483 -16.172488 2.550077 17.652724 -1.183301 1.425831 0.027570 -0.009308 2039480.000000 1 0 0
-2.248317 -11.147488 -6.081923 12.896170 1.371778 2.061908 0.010411 -0.003720 -395288.000000 1 0 0
-12.131617 -15.409988 -3.381623 19.901740 0.903874 1.741541 0.014001 -0.009426 -528421.000000 1 0 0
-0.338817 -19.614188 -2.887823 19.828533 1.553524 1.716956 0.026273 -0.007782 47187.300000 1 0 0
-5.905917 -15.626888 -4.595023 17.326100 1.209457 1.839216 0.007480 -0.012052 -4183850.000000 1 0 0
1.948083 -15.866888 -0.970723 16.015476 -1.448631 1.631445 0.013477 -0.007898 833185.000000 1 0 0
-13.286817 -11.951088 5.217177 18.616846 0.732522 1.286753 0.038307 -0.007317 466944.000000 1 0 0
2.048483 -15.267788 -8.872923 17.777244 -1.437423 2.093376 0.016261 0.001349 -2196070.000000 1 0 0
-11.880017 -16.720288 0.244877 20.512504 0.953048 1.558858 0.053167 -0.018429 158622.000000 1 0 0
-7.699717 -16.550888 -0.985223 18.280815 1.135362 1.624716 0.022681 -0.008258 394089.000000 1 0 0
-2.976017 -14.478188 -1.751223 14.884267 1.368068 1.688725 0.007257 -0.005120 222854.000000 1 0 0
-1.775617 -10.462788 -13.124923 16.878577 1.402690 2.461649 0.007012 -0.002814 132171.000000 1 0 0
1.431583 -19.402488 5.011377 20.090293 -1.497146 1.318692 0.031843 -0.017474 -28138.800000 1 0 0
-17.478817 -9.402888 2.381077 19.989819 0.493552 1.451398 0.036116 -0.011527 -1124280.000000 1 0 0
-2.719417 -15.623788 -7.975523 17.751252 1.398467 2.036771 0.000796 -0.004935 -1674880.000000 1 0 0
-10.504217 -12.120688 0.090077 16.039257 0.856724 1.565180 0.007778 -0.003242 -71737.200000 1 0 0
-6.927817 -11.525588 -6.517123 14.943451 1.029582 2.022078 0.016431 -0.005942 -154994.000000 1 0 0
-2.142117 -13.556388 -6.657523 15.254079 1.414077 2.022437 0.002652 -0.001918 734899.000000 1 0 0
-14.342317 -14.609088 -1.129123 20.503718 0.794612 1.625893 0.034950 -0.004746 314477.000000 1 0 0
-9.603917 -11.406988 -4.494723 15.574246 0.871004 1.863560 0.012785 -0.004149 1594330.000000 1 0 0
9.450583 -15.117988 -5.156423 18.559520 -1.012109 1.852333 0.033854 -0.004254 416827.000000 1 0 0
-5.678117 -10.985688 -9.404523 15.536132 1.093748 2.220980 0.026170 -0.006517 236689.000000 1 0 0
-10.442217 -16.107488 -5.053523 19.850168 0.995629 1.828213 0.041885 -0.006519 -1169840.000000 1 0 0
2.209683 -17.343688 -3.159723 17.767107 -1.444073 1.749589 0.012009 -0.004473 454120.000000 1 0 0
-0.330317 -14.462188 -8.169223 16.613254 1.547960 2.084871 0.009422 -0.002665 -1303730.000000 1 0 0
-0.786817 -18.257088 -7.046823 19.585660 1.527726 1.938845 0.009476 -0.006202 28740.100000 1 0 0
-1.804417 -9.980988 -10.469823 14.577148 1.391943 2.372059 0.005279 -0.002717 272057.000000 1 0 0
-5.192917 -17.383888 2.011877 18.254140 1.280514 1.460357 0.014923 -0.008376 343209.000000 1 0 0
0.328683 -12.767188 -2.648923 13.043233 -1.545058 1.775307 0.007338 -0.003316 -2123330.000000 1 0 0
2.605583 -14.915988 3.065577 15.449063 -1.397857 1.371039 0.017795 -0.006982 -1324690.000000 1 0 0
-9.311217 -13.119488 6.876077 17.495719 0.953574 1.166888 0.011635 -0.007269 -799574.000000 1 0 0
-1.029417 -17.780188 -4.561323 18.384789 1.512964 1.821518 0.012464 -0.007698 174776.000000 1 0 0
-9.912817 -17.328988 -2.210423 20.085909 1.051192 1.681068 0.047106 -0.031078 -337522.000000 1 0 0
1.333183 -16.105788 1.514677 16.231699 -1.488208 1.477344 0.011052 -0.012153 1212020.000000 1 0 0
-0.385417 -18.003388 4.007377 18.448025 1.549392 1.351825 0.020315 -0.017106 -208502.000000 1 0 0
-17.515817 -9.186188 -0.220123 19.779746 0.483017 1.581925 0.017087 -0.008132 285325.000000 1 0 0
-14.885117 -7.350388 -10.566223 19.678414 0.458682 2.137608 0.040686 -0.020744 534629.000000 1 0 0
2.732583 -12.648988 -8.879123 15.694035 -1.358034 2.172156 0.001020 -0.000248 756755.000000 1 0 0
-11.635017 -14.504788 1.770777 18.678816 0.894746 1.475852 0.027903 -0.012789 -81651.200000 1 0 0
-2.365717 -15.689288 10.726877 19.152448 1.421138 0.976316 0.023884 -0.006134 -179025.000000 1 0 0
-7.148617 -15.893888 1.426877 17.485834 1.148133 1.489104 0.011346 -0.006264 -1449810.000000 1 0 0
-12.622317 -15.237488 -5.959623 20.664487 0.878993 1.863351 0.033021 -0.005939 959012.000000 1 0 0
1.099383 -13.798688 -5.010123 14.721202 -1.491291 1.918068 0.009295 -0.002949 809722.000000 1 0 0
5.971883 -16.418688 -7.263323 18.920692 -1.221947 1.964794 0.033353 -0.014576 159556.000000 1 0 0
-6.526217 -12.889288 5.887777 15.600999 1.102099 1.183812 0.008837 -0.005929 -50108.200000 1 0 0
-2.599517 -13.556588 0.644777 13.818622 1.381343 1.524119 0.010513 -0.004226 2314610.000000 1 0 0
-4.337017 -15.526188 0.160577 16.121353 1.298404 1.560836 0.009059 -0.006108 143724.000000 1 0 0
-17.690517 -7.546288 -2.240923 19.362918 0.403202 1.686789 0.008927 -0.012366 444890.000000 1 0 0
1.122683 -12.604688 -12.017123 17.451356 -1.481962 2.330362 0.008366 0.000706 -582835.000000 1 0 0
1.211783 -17.068688 -5.707523 18.038413 -1.499921 1.892738 0.015444 -0.003645 -408518.000000 1 0 0
-12.895817 -6.315588 -9.152923 17.028351 0.455405 2.138279 0.022778 -0.011614 178534.000000 1 0 0
-11.774417 -13.422288 -8.772023 19.893293 0.850705 2.027457 0.046326 -0.014650 15006.300000 1 0 0
-4.287617 -9.921288 3.375877 11.323081 1.162874 1.268052 0.007446 0.002290 -3317060.000000 1 0 0
-6.919517 -14.421388 9.513177 18.610661 1.123431 1.034253 0.016491 -0.013514 -1287510.000000 1 0 0
-5.333717 -15.904388 -8.277423 18.705984 1.247222 2.029182 0.018398 -0.004564 -700929.000000 1 0 0
-0.290017 -13.413588 2.099577 13.580011 1.549179 1.415566 0.008575 -0.006176 263297.000000 1 0 0
-11.047117 -13.500688 -4.829823 18.100679 0.885018 1.840900 0.027971 -0.006489 -1299780.000000 1 0 0
-9.780217 -10.595088 6.740977 15.916950 0.825370 1.133481 0.022626 -0.002801 -270239.000000 1 0 0
-15.486817 -8.099588 -4.755423 18.112396 0.481877 1.836461 0.021688 -0.013365 113967.000000 1 0 0
-14.558117 -7.326188 5.379677 17.162539 0.466234 1.251967 0.029571 -0.008146 -352848.000000 1 0 0
-1.558817 -19.338088 -0.061623 19.400912 1.490362 1.573973 0.024297 -0.011053 -100105.000000 1 0 0
-15.426817 -12.311088 -1.469123 19.791612 0.673540 1.645094 0.018721 0.000498 214598.000000 1 0 0
-4.420717 -12.148388 -6.772323 14.594192 1.221798 2.053350 0.012133 -0.006679 203787.000000 1 0 0
-7.614617 -18.414088 2.079477 20.034602 1.178688 1.466815 0.029210 -0.007850 256629.000000 1 0 0
-2.509617 -11.816788 -8.647223 14.856282 1.361528 2.192054 0.008167 -0.003741 401390.000000 1 0 0
-1.393817 -20.334388 -5.169623 21.027484 1.502359 1.819194 0.027869 -0.005600 -86594.800000 1 0 0
-5.359917 -8.876588 -13.805823 17.266247 1.027568 2.497399 0.017893 -0.004073 627110.000000 1 0 0
-8.646517 -19.004188 -0.739323 20.891817 1.143809 1.606192 0.039523 -0.013840 443628.000000 1 0 0
-17.078317 -7.383388 5.702577 19.460286 0.408059 1.273395 0.049963 -0.013878 -531851.000000 1 0 0
-3.561717 -14.722388 -4.257123 15.733965 1.333432 1.844780 0.005662 -0.003810 -2231050.000000 1 0 0
-3.063917 -14.875588 -10.885823 18.686141 1.367668 2.192673 0.020333 -0.004747 -174907.000000 1 0 0
-0.108817 -16.743888 6.282877 17.884188 1.564298 1.211827 0.031140 -0.012725 -1357160.000000 1 0 0
-11.192117 -11.637388 3.673277 16.558540 0.804900 1.347100 0.020724 -0.004005 -749135.000000 1 0 0
-0.249217 -14.694088 -0.169223 14.697176 1.553838 1.582311 0.006352 -0.002750 565626.000000 1 0 0
-7.349017 -9.629288 -2.542523 12.377224 0.918904 1.777689 0.010825 -0.002121 -436164.000000 1 0 0
-11.107117 -14.432388 -0.791223 18.228766 0.914871 1.614215 0.015795 -0.011213 434747.000000 1 0 0
0.292383 -14.612388 -10.669023 18.095177 -1.550790 2.201367 0.010917 0.001025 -93108.400000 1 0 0
-1.359017 -13.989588 -3.843223 14.571406 1.473955 1.837705 0.004149 -0.001512 -3621490.000000 1 0 0
-11.469817 -8.067588 -7.662823 15.980035 0.612988 2.070909 0.015234 -0.006772 642342.000000 1 0 0
-0.196217 -17.264288 -0.122323 17.265837 1.559431 1.577881 0.012584 -0.011389 322398.000000 1 0 0
-12.888617 -9.513188 4.418777 16.617545 0.635847 1.301648 0.023691 -0.005696 425211.000000 1 0 0
4.031283 -16.756488 1.634677 17.311941 -1.334703 1.476231 0.020694 -0.012306 1494650.000000 1 0 0
-3.793017 -17.830388 -8.141923 19.964985 1.361193 1.990851 0.029510 -0.013466 -143367.000000 1 0 0
-13.405717 -11.234588 2.596477 17.682503 0.697512 1.423425 0.015569 -0.005101 88472.300000 1 0 0
-8.579517 -12.333788 4.161777 15.590088 0.963022 1.300569 0.012667 -0.005392 1745770.000000 1 0 0
-8.263217 -9.477088 -5.868223 13.875590 0.853716 2.007458 0.014582 -0.004346 530988.000000 1 0 0
3.820683 -17.239488 -5.171723 18.399573 -1.352698 1.855714 0.006026 -0.003747 -303001.000000 1 0 0
-2.477617 -13.138288 11.365077 17.547598 1.384405 0.866272 0.004783 -0.011566 668039.000000 1 0 0
-0.053517 -16.753188 -9.359223 19.190290 1.567602 2.080257 0.015092 -0.002960 -232797.000000 1 0 0
-7.095817 -10.756888 -14.425123 19.342839 0.987665 2.412472 0.037458 -0.004255 68384.300000 1 0 0
-4.655617 -18.784188 -1.437123 19.405819 1.327844 1.644920 0.027152 -0.016197 408438.000000 1 0 0
-2.591717 -17.202888 1.145377 17.434685 1.421265 1.505054 0.015423 -0.012738 652294.000000 1 0 0
4.031383 -14.601188 -7.373123 16.846652 -1.301408 2.023792 0.006746 -0.002658 -320188.000000 1 0 0
-1.005417 -15.765388 -6.081523 16.927588 1.507109 1.938279 0.003615 -0.003574 -303030.000000 1 0 0
-9.449917 -15.262288 8.421277 19.828169 1.016402 1.132152 0.027868 -0.010932 -528106.000000 1 0 0
-7.350417 -12.162388 -1.785823 14.322761 1.027180 1.695806 0.005072 -0.004879 1059590.000000 1 0 0
-7.443017 -15.086288 -9.255623 19.200551 1.112472 2.073789 0.035927 -0.010280 -255388.000000 1 0 0
-5.070917 -13.206388 -0.593823 14.158938 1.204181 1.612748 0.010125 -0.004318 2180960.000000 1 0 0
-6.442517 -13.836888 -7.219323 16.884434 1.135042 2.012602 0.017596 -0.008580 366337.000000 1 0 0
5.866583 -15.402588 0.283977 16.484452 -1.206878 1.553568 0.012514 -0.002230 -173336.000000 1 0 0
-14.504417 -12.893188 0.896877 19.427218 0.726657 1.524614 0.013372 -0.007494 958579.000000 1 0 0
0.868883 -15.162288 11.072677 18.795056 -1.513553 0.940818 0.019339 -0.013715 191524.000000 1 0 0
-9.376917 -10.888288 1.997777 14.507671 0.859840 1.432652 0.008674 0.001045 101874.000000 1 0 0
-9.535517 -8.894388 -3.562423 13.517658 0.750625 1.837485 0.010283 -0.004860 586472.000000 1 0 0
-12.159017 -7.108588 -12.341323 18.726504 0.529045 2.290324 0.034392 -0.016741 -1023820.000000 1 0 0
-13.296317 -8.452888 -0.514623 15.764143 0.566279 1.603447 0.003321 -0.003791 -130280.000000 1 0 0
-11.213217 -9.692588 0.621877 14.834731 0.712789 1.528864 0.003815 0.000482 1101070.000000 1 0 0
-15.886617 -12.084488 2.952377 20.177611 0.650296 1.423950 0.047429 -0.009766 380466.000000 1 0 0
-10.509017 -12.601688 -2.344223 16.575203 0.875702 1.712702 0.019629 -0.010218 892732.000000 1 0 0
-3.373917 -8.825488 -11.918923 15.209644 1.205648 2.471304 0.008374 -0.003703 112930.000000 1 0 0
-0.240117 -15.538288 3.858877 16.012089 1.555344 1.327403 0.019841 -0.011171 -995295.000000 1 0 0
-15.915417 -7.840388 1.163677 17.779942 0.457733 1.505301 0.013961 -0.002809 3875.070000 1 0 0
-6.168717 -13.462688 -13.497023 20.036633 1.141137 2.309889 0.044833 -0.006194 -738783.000000 1 0 0
-15.504417 -10.438188 1.074477 18.721571 0.592539 1.513372 0.014553 -0.002516 955477.000000 1 0 0
-9.926817 -8.396688 -12.422723 17.982494 0.702085 2.333423 0.021670 -0.010805 80406.700000 1 0 0
-13.208317 -11.634788 -6.206723 18.664173 0.722144 1.909800 0.019158 -0.010596 -511316.000000 1 0 0
-12.215917 -11.374288 -3.778923 17.113834 0.749736 1.793442 0.008114 -0.005573 -1036370.000000 1 0 0
-11.857117 -10.821588 -9.078023 18.442031 0.739769 2.085465 0.030428 -0.014271 540593.000000 1 0 0
-13.207017 -8.361488 -5.791323 16.669709 0.564410 1.925610 0.011964 -0.011477 -2988950.000000 1 0 0
-13.406117 -8.254388 -3.162723 16.058073 0.551897 1.769048 0.005664 -0.007566 556629.000000 1 0 0
-4.340217 -17.115788 -3.357723 17.973925 1.322451 1.758711 0.009677 -0.007858 254192.000000 1 0 0
-15.430417 -8.902788 -1.755323 17.900798 0.523309 1.669013 0.010582 -0.005386 -1971030.000000 1 0 0
-9.384317 -15.726788 3.710277 18.685915 1.032800 1.370908 0.018969 -0.007829 -2100520.000000 1 0 0
4.590583 -17.048088 8.103577 19.426238 -1.307763 1.140494 0.039192 -0.023818 180656.000000 1 0 0
-8.317217 -15.476588 6.055977 18.584288 1.077673 1.238869 0.014902 -0.004384 -279383.000000 1 0 0
0.884183 -15.957688 8.588677 18.143731 -1.515445 1.077685 0.020705 -0.009003 193500.000000 1 0 0
-10.892617 -7.686688 -10.180723 16.774427 0.614527 2.222975 0.025188 -0.012269 1000300.000000 1 0 0
-4.828017 -16.118688 5.938477 17.843413 1.279772 1.231514 0.008474 -0.007869 -77921.500000 1 0 0
-1.410517 -13.279388 -12.083123 18.009263 1.464975 2.306271 0.013816 0.000750 -818554.000000 1 0 0
-6.386017 -14.355888 -2.506023 15.910779 1.152245 1.728960 0.011808 -0.008953 369461.000000 1 0 0
-17.868617 -6.957588 -7.381223 20.546969 0.371313 1.938246 0.051721 -0.021831 243324.000000 1 0 0
-17.551717 -4.057388 -10.131323 20.668064 0.227177 2.083107 0.065899 -0.023510 491165.000000 1 0 0
-15.347817 -5.231788 -9.139523 18.613381 0.328529 2.084055 0.024393 -0.021186 967085.000000 1 0 0
-16.253517 -5.578788 -5.742023 18.118237 0.330636 1.893276 0.028439 -0.014726 576412.000000 1 0 0
-15.252017 -4.462188 -12.397723 20.155363 0.284621 2.233319 0.047514 -0.020728 -462879.000000 1 0 0
-18.834117 -5.211188 -5.641923 20.339905 0.269936 1.851864 0.051303 -0.019066 -451290.000000 1 0 0
-17.519417 -4.441188 -7.675223 19.635762 0.248271 1.972384 0.042022 -0.020558 939954.000000 1 0 0
12.138783 -7.841888 8.763277 16.900896 -0.573572 1.025689 0.037780 -0.005803 270890.000000 1 0 0
16.112383 -3.396588 1.867777 16.572094 -0.207764 1.457850 0.024387 -0.009239 588482.000000 1 0 0
12.061883 -2.068988 12.603977 17.567868 -0.169878 0.770669 0.044077 -0.004681 166605.000000 1 0 0
9.702183 -9.999988 5.212277 14.876154 -0.800512 1.212822 0.010286 -0.007806 53356.400000 1 0 0
17.029583 -1.948688 7.261977 18.615596 -0.113934 1.170054 0.061997 -0.020339 787137.000000 1 0 0
5.178383 -12.759588 9.010577 16.456405 -1.185263 0.991372 0.011855 0.001272 -197384.000000 1 0 0
15.258483 -9.005188 -2.218323 17.855970 -0.533165 1.695352 0.045328 -0.007493 543404.000000 1 0 0
11.165483 -8.534188 6.422477 15.451492 -0.652614 1.142134 0.013645 -0.007807 -2243060.000000 1 0 0
20.004683 -3.136088 3.484277 20.546596 -0.155502 1.400394 0.090973 -0.021027 278090.000000 1 0 0
13.604183 -8.620888 6.846777 17.500625 -0.564827 1.168828 0.039321 -0.010521 -1308740.000000 1 0 0
8.392783 -11.065588 8.823877 16.454387 -0.921904 1.004793 0.012106 -0.000748 -1858390.000000 1 0 0
16.720483 0.089012 -0.597423 16.731390 0.005323 1.606511 0.018537 0.000588 -1762460.000000 1 0 0
12.517683 -12.326388 2.356477 17.725271 -0.777698 1.437457 0.025052 -0.007003 -476042.000000 1 0 0
10.339383 -11.641188 3.503477 15.959150 -0.844554 1.349466 0.011589 -0.004554 -1115980.000000 1 0 0
16.332183 2.940412 2.377177 16.764164 0.178130 1.428516 0.016489 -0.004956 1088920.000000 1 0 0
18.362983 -3.272588 0.534477 18.659975 -0.176365 1.542149 0.050035 -0.008406 75618.200000 1 0 0
13.500583 -11.669488 -0.213723 17.846243 -0.712777 1.582772 0.041684 -0.004665 -418034.000000 1 0 0
16.979283 -7.585688 -0.787523 18.613407 -0.420157 1.613118 0.056021 -0.005599 225443.000000 1 0 0
10.147983 -5.638288 9.801177 15.193253 -0.507138 0.869641 0.023480 -0.005887 -364778.000000 1 0 0
11.360883 -13.356988 6.153877 18.583568 -0.865979 1.233278 0.024182 -0.004053 -1604550.000000 1 0 0
13.079383 -1.620488 10.316177 16.736779 -0.123268 0.906662 0.037700 -0.005594 384298.000000 1 0 0
15.650683 -2.006588 -1.444023 15.844730 -0.127515 1.662059 0.014266 -0.001755 293469.000000 1 0 0
10.536783 -12.403888 9.192777 18.691907 -0.866608 1.056635 0.035790 -0.008797 78883.800000 1 0 0
14.503183 1.211812 3.423777 14.951022 0.083361 1.339747 0.010249 -0.006639 1309150.000000 1 0 0
15.006783 -5.859788 5.436877 17.002950 -0.372269 1.245319 0.046597 -0.012236 -903650.000000 1 0 0
14.424483 -3.294588 -3.092423 15.115658 -0.224551 1.776835 0.014608 -0.000691 963184.000000 1 0 0
14.218883 0.655712 9.629077 17.185044 0.046083 0.976027 0.037698 -0.008792 409260.000000 1 0 0
15.515283 -3.467288 4.514577 16.526570 -0.219863 1.294109 0.032031 -0.011104 -537018.000000 1 0 0
18.867683 5.007112 -4.326323 19.994442 0.259401 1.788898 0.033056 0.012059 552298.000000 1 0 0
18.305983 -5.853988 -5.158923 19.899565 -0.309508 1.833040 0.087615 -0.009076 599088.000000 1 0 0
17.551383 0.002912 5.952177 18.533199 0.000166 1.243839 0.061211 -0.013986 733923.000000 1 0 0
17.027983 -6.623088 4.026277 18.709046 -0.370947 1.353895 0.058552 -0.017158 -80564.800000 1 0 0
9.794483 -6.525788 14.338877 18.550504 -0.587729 0.687296 0.043746 -0.005573 -971212.000000 1 0 0
8.616583 -12.298688 5.228677 15.901016 -0.959661 1.235735 0.010408 -0.006168 -2112640.000000 1 0 0
17.026983 -10.144688 -0.656523 19.830882 -0.537326 1.603908 0.069739 -0.004989 513125.000000 1 0 0
14.961583 -8.819888 0.370477 17.371720 -0.532665 1.549468 0.045360 -0.004881 592412.000000 1 0 0
10.097483 -12.879088 1.426177 16.427540 -0.905875 1.483871 0.022728 -0.005759 -21829.600000 1 0 0
16.836483 -8.325788 8.959277 20.809963 -0.459245 1.125718 0.064126 -0.011751 349392.000000 1 0 0
19.082583 -0.260588 -1.719823 19.161698 -0.013655 1.660670 0.049382 -0.005275 -178791.000000 1 0 0
13.451383 -1.229788 7.784177 15.589917 -0.091171 1.047996 0.021429 -0.010615 12770.600000 1 0 0
12.828483 -9.681188 -3.065423 16.361302 -0.646479 1.759268 0.031930 -0.007266 -840454.000000 1 0 0
8.847283 -15.106788 1.420477 17.564374 -1.040995 1.489835 0.030655 -0.003928 -931211.000000 1 0 0
11.504383 -8.328588 11.194377 18.083979 -0.626619 0.903300 0.053461 -0.005730 -30245.500000 1 0 0
13.985983 -3.946988 -0.545023 14.542472 -0.275057 1.608283 0.009679 -0.004670 -676971.000000 1 0 0
7.144183 -13.356688 10.690077 18.539639 -1.079638 0.956227 0.016820 0.004443 -512190.000000 1 0 0
15.503183 -6.772388 1.928577 17.027429 -0.411855 1.457290 0.034149 -0.007130 -48595.800000 1 0 0
15.902383 -5.967988 -2.482823 17.165870 -0.359024 1.715943 0.055338 -0.003552 -541609.000000 1 0 0
11.223583 -8.427088 3.832377 14.548943 -0.644037 1.304238 0.016771 -0.006200 489103.000000 1 0 0
10.659883 -14.448688 -0.436123 17.960732 -0.935165 1.595081 0.041195 -0.006932 599852.000000 1 0 0
13.443383 -12.827788 4.722677 19.172386 -0.761970 1.321908 0.022186 -0.004564 367070.000000 1 0 0
12.735083 -11.091688 6.603677 18.133297 -0.716535 1.198050 0.021842 -0.009679 1406140.000000 1 0 0
10.936083 -10.435688 1.350077 15.176436 -0.761989 1.481720 0.015978 -0.003467 266921.000000 1 0 0
13.996783 -7.498688 11.696077 19.721524 -0.491832 0.935940 0.069855 -0.020395 649610.000000 1 0 0
15.404183 -1.802988 -4.992723 16.293155 -0.116515 1.882237 0.027204 -0.001544 -606414.000000 1 0 0
12.980883 -11.397288 -7.061323 18.661827 -0.720530 1.958845 0.062321 -0.009244 1425900.000000 1 0 0
17.781883 -5.394088 1.998477 18.689181 -0.294525 1.463659 0.070122 -0.010898 386723.000000 1 0 0
10.588883 -9.769888 9.232877 17.112019 -0.745192 1.000888 0.026373 -0.001361 -2122440.000000 1 0 0
16.563983 1.779612 9.710477 19.282788 0.107028 1.043056 0.065823 -0.016178 535172.000000 1 0 0
18.068483 3.756412 0.497977 18.461546 0.204979 1.543819 -0.000000 -0.000047 779291.000000 1 0 0
13.305983 -4.078088 5.824877 15.086722 -0.297396 1.174404 0.023443 -0.012739 -1151940.000000 1 0 0
12.139083 -6.231788 6.688677 15.196412 -0.474283 1.115032 0.019463 -0.010640 -21438.300000 1 0 0
16.636783 -10.089288 3.588777 19.785237 -0.545145 1.388400 0.035282 -0.010992 -898412.000000 1 0 0
16.195083 -8.011088 -5.397223 18.857048 -0.459368 1.861073 0.067041 -0.014216 191838.000000 1 0 0
14.064083 -0.498688 5.371177 15.063090 -0.035443 1.206193 0.014671 -0.007167 917349.000000 1 0 0
18.380583 -4.326188 5.198277 19.585296 -0.231160 1.302160 0.079436 -0.017696 50253.300000 1 0 0
13.539683 -13.378588 7.290177 20.382746 -0.779414 1.205031 0.035194 -0.005825 -321727.000000 1 0 0
14.901283 -13.673288 -1.000923 20.248677 -0.742449 1.620248 0.044207 -0.001336 372289.000000 1 0 0
17.983383 -6.059288 8.122977 20.642185 -0.324991 1.166346 0.091096 -0.015318 -188537.000000 1 0 0
14.335883 3.276312 9.051577 17.267971 0.224681 1.019041 0.027246 -0.015071 -1036920.000000 1 0 0
18.878383 3.662412 2.907077 19.448849 0.191620 1.420761 0.042963 -0.008075 355412.000000 1 0 0
14.847283 -10.673388 8.199777 20.039945 -0.623284 1.149250 0.034566 -0.009350 -347010.000000 1 0 0
14.700783 -4.625188 10.426277 18.606790 -0.304817 0.975990 0.068174 -0.014789 231030.000000 1 0 0
17.895883 -7.906188 2.020477 19.668573 -0.416004 1.467889 0.089910 -0.011703 -111260.000000 1 0 0
18.446483 -5.740688 -2.003423 19.422717 -0.301707 1.674129 0.061233 -0.008748 305663.000000 1 0 0
14.321683 -12.872788 -5.470823 20.018721 -0.732169 1.847603 0.076665 -0.016366 921827.000000 1 0 0
15.518383 -1.509388 9.423577 18.218185 -0.096960 1.027148 0.073955 -0.015589 -871572.000000 1 0 0
13.005483 -10.038788 10.055477 19.262204 -0.657363 1.021565 0.036906 -0.018613 -2283970.000000 1 0 0
16.606083 2.079212 4.836077 17.420470 0.124560 1.289492 0.033653 -0.009337 -1263710.000000 1 0 0
14.994383 2.458212 -0.068123 15.194702 0.162497 1.575280 0.009817 -0.000022 -1711720.000000 1 0 0
15.139383 -9.785088 -7.051123 19.356322 -0.573793 1.943656 0.071254 -0.016512 987252.000000 1 0 0
16.181683 -0.067988 -3.226923 16.500440 -0.004202 1.767631 0.015733 0.003218 69817.600000 1 0 0
12.393083 2.647012 13.410177 18.450692 0.210426 0.757128 0.044586 -0.010118 -373940.000000 1 0 0
17.747983 -3.020488 9.556177 20.382217 -0.168573 1.082809 0.074253 -0.019533 768229.000000 1 0 0
8.051683 -17.914088 4.568677 20.164746 -1.148391 1.342244 0.059351 -0.021872 -578431.000000 1 0 0
6.849883 -11.105888 6.620677 14.631986 -1.018130 1.101252 0.008731 -0.004988 429050.000000 1 0 0
17.966583 2.100912 -1.541323 18.154548 0.116406 1.655799 0.009053 0.005345 291578.000000 1 0 0
17.593383 -2.276388 3.693677 18.120495 -0.128674 1.365518 0.032849 -0.010371 -1269950.000000 1 0 0
12.533883 -13.348988 -2.007723 18.420767 -0.816880 1.680006 0.046742 -0.002992 -562180.000000 1 0 0
14.997783 -8.233588 4.488477 17.688185 -0.502065 1.314235 0.034691 -0.008286 -172036.000000 1 0 0
11.766983 -2.709788 15.117777 19.348179 -0.226341 0.673964 0.077099 -0.011720 248877.000000 1 0 0
11.958983 -13.620888 -6.358023 19.208600 -0.850276 1.908158 0.033154 -0.016227 -242515.000000 1 0 0
10.606783 -11.926388 -1.274623 16.011473 -0.843894 1.650487 0.026373 -0.008317 -1371170.000000 1 0 0
13.134883 -8.003088 2.073977 15.520179 -0.547230 1.436764 0.026595 -0.001190 412871.000000 1 0 0
8.810783 -7.850588 10.033377 15.489684 -0.727832 0.866174 0.012125 0.000862 -1641790.000000 1 0 0
15.734583 -3.804488 8.184377 18.139329 -0.237238 1.102692 0.071217 -0.017656 20463.800000 1 0 0
10.417883 -17.120288 5.306977 20.731632 -1.024142 1.311930 0.058514 -0.015152 -579352.000000 1 0 0
15.385883 -6.306188 8.449477 18.651731 -0.388985 1.100654 0.073519 -0.010148 982100.000000 1 0 0
16.627983 -4.966388 -0.278323 17.356045 -0.290242 1.586833 0.033942 -0.004656 -408620.000000 1 0 0
14.050183 -10.501688 3.508677 17.888653 -0.641862 1.373377 0.032846 -0.008210 838685.000000 1 0 0
14.890983 -10.069988 -4.545123 18.541957 -0.594606 1.818446 0.062820 -0.015407 -129883.000000 1 0 0
13.728883 -6.518888 0.012677 15.197970 -0.443310 1.569962 0.023256 -0.004368 428684.000000 1 0 0
17.816283 -0.882388 -4.926123 18.505816 -0.049487 1.840238 0.049852 -0.001751 -1198850.000000 1 0 0
14.352683 0.297012 -1.536023 14.437697 0.020691 1.677388 0.008090 0.003581 -2208980.000000 1 0 0
4.848883 -12.960888 11.676777 18.106447 -1.212800 0.869909 0.007317 0.003998 -858176.000000 1 0 0
12.109583 -7.302388 13.511377 19.558226 -0.542641 0.808162 0.070623 -0.014220 416417.000000 1 0 0
12.073783 -5.801788 11.484777 17.644747 -0.447949 0.862041 0.048644 -0.011093 -1047910.000000 1 0 0
13.289383 -4.656888 8.424877 16.409536 -0.337050 1.031638 0.041714 -0.011621 -591659.000000 1 0 0
15.389083 -1.171588 3.215777 15.765079 -0.075985 1.365374 0.017070 -0.004090 164002.000000 1 0 0
15.159883 -10.352688 5.753677 19.238114 -0.599157 1.267071 0.032852 -0.010838 -142777.000000 1 0 0
13.603683 -8.077188 -5.733723 16.827856 -0.535811 1.918488 0.050722 -0.012463 -2563650.000000 1 0 0
9.601683 -2.134388 13.638877 16.815674 -0.218737 0.624798 0.015286 -0.005071 -193677.000000 1 0 0
10.154183 -9.127088 13.884277 19.472656 -0.732179 0.777009 0.066196 0.003822 357444.000000 1 0 0
20.563183 6.116112 -2.604123 21.610941 0.289098 1.691590 0.086494 0.006883 -285094.000000 1 0 0
11.329883 -3.502588 10.591477 15.900119 -0.299826 0.841794 0.027485 -0.004183 801007.000000 1 0 0
10.188083 -13.997788 -2.919023 17.557215 -0.941632 1.737830 0.030424 -0.003348 633374.000000 1 0 0
14.997983 -12.762088 2.643377 19.869520 -0.705028 1.437364 0.032324 -0.000920 -287256.000000 1 0 0
11.383283 -0.302788 14.335077 18.307519 -0.026593 0.671297 0.054028 -0.009169 418758.000000 1 0 0
19.172883 -2.016288 5.722777 20.110073 -0.104778 1.282236 0.091942 -0.020429 381898.000000 1 0 0
19.228383 -0.549888 7.859477 20.779906 -0.028590 1.182918 0.100859 -0.021123 -122807.000000 1 0 0
18.840883 0.819312 0.643877 18.869677 0.043458 1.536667 0.028650 -0.008736 394926.000000 1 0 0
18.439583 0.633612 3.629077 18.803986 0.034348 1.376583 0.036236 -0.012064 52083.400000 1 0 0
16.720083 -3.960088 -4.233823 17.696574 -0.232561 1.812385 0.045359 -0.003865 -100267.000000 1 0 0
11.285983 -7.866788 15.913677 21.035800 -0.608737 0.712845 0.092728 -0.016676 182382.000000 1 0 0
16.654983 -7.530888 6.459477 19.386273 -0.424657 1.231102 0.063631 -0.013634 494505.000000 1 0 0
18.970283 2.207912 5.747477 19.944423 0.115867 1.278476 0.060600 -0.014861 77979.800000 1 0 0
15.369483 1.688812 7.433177 17.155909 0.109442 1.122676 0.035680 -0.013962 -102677.000000 1 0 0
8.863083 -15.533288 3.865777 18.297036 -1.052285 1.357913 0.031144 -0.016025 525642.000000 1 0 0
11.409283 -15.115488 2.039977 19.047605 -0.924226 1.463492 0.039754 0.000344 -503973.000000 1 0 0
8.227483 -15.887588 6.284877 18.963297 -1.092966 1.232985 0.035681 -0.013576 243337.000000 1 0 0
14.550383 -11.546088 -2.483823 18.740202 -0.670780 1.703727 0.054421 -0.010003 995607.000000 1 0 0
13.785883 -4.915688 3.314477 15.006676 -0.342519 1.348093 0.019354 -0.004746 -1596410.000000 1 0 0
-1.034117 10.095112 -5.662823 11.621026 -1.468715 2.079781 -0.002726 0.005232 -2269010.000000 1 0 0
8.249283 -1.734788 -7.901223 11.553765 -0.207275 2.323844 0.004322 0.000300 -2457720.000000 1 0 0
2.959683 -10.224988 7.729077 13.154799 -1.289041 0.942771 -0.002385 -0.004595 788601.000000 1 0 0
-6.111917 1.299212 8.366877 10.442610 -0.209453 0.641457 0.000239 -0.002038 111735.000000 1 0 0
7.183083 -6.178488 -6.995223 11.777247 -0.710354 2.206770 0.002312 -0.006313 -499134.000000 1 0 0
-11.440917 -4.486888 -4.084723 12.950355 0.373746 1.891689 0.009862 -0.004885 482958.000000 1 0 0
2.129383 -3.148788 2.897577 4.779654 -0.976185 0.919483 0.004421 0.000637 827970.000000 1 0 0
-3.623517 -4.204088 8.935377 10.518802 0.859432 0.555822 0.003726 -0.003070 -1838660.000000 1 0 0
-4.855517 -1.034888 -2.402123 5.515182 0.209994 2.021443 0.007085 -0.002397 -200718.000000 1 0 0
4.990383 -5.152588 -3.714423 8.077749 -0.801389 2.048604 0.004229 -0.005240 -139223.000000 1 0 0
2.728683 14.357412 -8.791023 17.054708 1.382982 2.112341 0.007855 -0.008388 -525695.000000 1 0 0
5.572583 -5.436088 13.624477 15.691753 -0.773000 0.519118 0.008811 -0.008051 -519118.000000 1 0 0
-4.749117 -0.896788 9.992877 11.100267 0.186635 0.450482 0.008075 -0.003066 -3428980.000000 1 0 0
-0.940917 12.018212 -2.579023 12.327777 -1.492665 1.781557 -0.000530 0.001737 732618.000000 1 0 0
3.051983 9.451712 -10.538223 14.481146 1.258463 2.385788 0.006005 -0.003144 -312362.000000 1 0 0
-10.646717 2.596712 1.129477 11.016860 -0.239227 1.468093 -0.000631 0.000888 236983.000000 1 0 0
5.753383 -8.974388 -0.720323 10.684565 -1.000711 1.638265 0.001308 -0.004365 914318.000000 1 0 0
-6.924617 5.445612 9.368277 12.859612 -0.666401 0.754661 -0.002807 -0.000653 -135631.000000 1 0 0
-5.743517 -1.844188 5.190177 7.957824 0.310692 0.860299 0.000164 -0.001058 213365.000000 1 0 0
6.606183 -3.746488 -7.269623 10.513099 -0.515891 2.334335 0.003057 -0.005016 465074.000000 1 0 0
6.374183 4.853412 11.015277 13.620652 0.650768 0.628826 0.007653 -0.003013 186016.000000 1 0 0
3.723483 -9.847888 3.330177 11.042432 -1.209311 1.264447 -0.000447 -0.001981 814710.000000 1 0 0
-6.602217 6.531212 -5.711123 10.902427 -0.779992 2.122149 0.000108 -0.003609 -308803.000000 1 0 0
-11.124517 8.399312 5.104477 14.844494 -0.646711 1.219768 -0.002204 -0.007508 411171.000000 1 0 0
-9.122017 -5.561888 5.199377 11.881890 0.547537 1.117881 0.004739 0.001952 813565.000000 1 0 0
3.353583 9.819212 -8.051623 13.133623 1.241684 2.230717 0.002674 -0.002775 632018.000000 1 0 0
-8.186017 -8.573588 6.067777 13.316727 0.808519 1.097693 0.008314 0.000573 -1853210.000000 1 0 0
-7.934917 -5.584988 -7.541623 12.289470 0.613305 2.231491 0.011659 -0.007619 -1311320.000000 1 0 0
9.245183 -1.563788 6.924977 11.656507 -0.167560 0.934666 0.006778 -0.006652 1973530.000000 1 0 0
-4.090217 -0.467888 -4.793923 6.319058 0.113897 2.432027 0.013620 -0.008376 -304773.000000 1 0 0
9.074783 1.179612 -4.445123 10.173608 0.129263 2.022976 0.005935 0.000068 -2084680.000000 1 0 0
-2.016217 -10.727488 10.424977 15.093849 1.385015 0.808371 0.003087 -0.005786 319585.000000 1 0 0
-13.042317 0.209212 -2.745423 13.329784 -0.016040 1.778243 0.007176 -0.001046 -237935.000000 1 0 0
-9.957517 -5.033588 -6.004323 12.670479 0.468043 2.064491 0.010501 -0.007128 -1310180.000000 1 0 0
-5.538617 8.310212 -0.171023 9.988250 -0.982921 1.587920 0.004233 -0.002016 -86041.000000 1 0 0
6.295183 9.715912 0.436877 11.585298 0.995881 1.533078 0.006751 -0.003315 530655.000000 1 0 0
-0.689117 -12.102988 -0.087223 12.122905 1.513920 1.577991 0.011956 -0.001098 -558874.000000 1 0 0
6.104483 4.715612 2.390577 8.075678 0.657736 1.270271 0.005109 -0.001480 323951.000000 1 0 0
3.434883 -7.463888 -8.336623 11.705013 -1.139492 2.363462 0.001299 -0.005732 936643.000000 1 0 0
-6.543917 -9.926088 4.593777 12.745700 0.987936 1.202081 0.006845 0.000091 -1897490.000000 1 0 0
-0.115417 6.571612 -9.194923 11.302478 -1.553235 2.520996 0.006684 -0.002232 -1545080.000000 1 0 0
-17.281317 -2.863988 4.211177 18.016114 0.164235 1.334869 0.029454 -0.009158 -46711.100000 1 0 0
-8.367917 0.847112 -9.120223 12.406373 -0.100890 2.396646 0.009838 -0.005844 619367.000000 1 0 0
-10.025217 -5.812888 -11.881023 16.596787 0.525454 2.368655 0.017154 -0.006269 -285085.000000 1 0 0
2.200583 9.399812 6.472977 11.623186 1.340829 0.980145 0.000964 0.002687 584205.000000 1 0 0
-11.391617 1.591212 -1.288723 11.574182 -0.138785 1.682372 0.003478 0.000414 -369486.000000 1 0 0
-6.198217 -5.325088 -3.109423 8.743167 0.709772 1.934395 0.015746 -0.002636 408851.000000 1 0 0
-6.964617 -8.346288 1.367477 10.956113 0.875395 1.445656 0.009045 0.000733 -223893.000000 1 0 0
0.067883 10.949912 -7.872723 13.486472 1.564597 2.194135 0.002780 0.001002 1067440.000000 1 0 0
-2.826417 9.256212 -4.214623 10.556000 -1.274435 1.981509 0.001535 -0.000268 -453765.000000 1 0 0
3.395983 -4.761388 9.314877 10.998657 -0.951244 0.560649 0.003603 -0.001827 -1020250.000000 1 0 0
-9.032017 1.509212 -0.451323 9.168355 -0.165566 1.620042 0.001253 -0.001294 -2819200.000000 1 0 0
2.491883 3.539612 -10.455523 11.316196 0.957391 2.749060 0.006938 -0.002154 -1397820.000000 1 0 0
-13.710217 0.420512 1.087277 13.759689 -0.030662 1.491695 0.005317 -0.000521 310722.000000 1 0 0
9.389383 -12.483588 -4.925423 16.378653 -0.925928 1.876246 0.027789 -0.005826 -1962300.000000 1 0 0
-4.631517 9.372912 -8.439123 13.435818 -1.111849 2.249914 0.000936 -0.000580 -1725440.000000 1 0 0
-2.327417 7.205912 8.357577 11.277904 -1.258386 0.736152 0.001740 0.000350 -487355.000000 1 0 0
-10.815017 -1.374788 -4.435723 11.769888 0.126440 1.957212 0.007747 -0.002067 -1636580.000000 1 0 0
2.759783 -7.116488 9.711277 12.351911 -1.200850 0.666134 -0.000950 -0.002222 -1804210.000000 1 0 0
-16.224617 -6.556788 3.430577 17.832513 0.384058 1.377212 0.028907 -0.006925 7283.970000 1 0 0
-10.787417 -0.080088 6.258777 12.471851 0.007424 1.045081 0.002787 0.000466 -524768.000000 1 0 0
-8.335417 9.926112 9.326277 15.968291 -0.872285 0.947087 0.001260 -0.004755 575804.000000 1 0 0
0.264883 -5.993788 -3.719223 7.058915 -1.526632 2.125725 0.006070 -0.002961 437520.000000 1 0 0
4.855983 1.577112 -2.998423 5.921013 0.314030 2.101805 0.000060 0.000823 -203259.000000 1 0 0
0.317983 5.371412 3.901677 6.646523 1.511666 0.943417 -0.000606 0.001854 -652198.000000 1 0 0
6.031983 -11.286088 -1.530323 12.888076 -1.079961 1.689817 -0.000177 -0.004218 -2051910.000000 1 0 0
6.225183 -13.397088 5.316677 15.700380 -1.135813 1.225332 0.009407 -0.009196 497225.000000 1 0 0
8.248383 -8.111588 -5.964723 13.015821 -0.777037 2.046841 0.004658 -0.007563 676996.000000 1 0 0
-13.193617 -1.295088 -4.788023 14.095174 0.097847 1.917386 0.009563 -0.000737 -4529270.000000 1 0 0
-6.822317 -1.451788 -7.008823 9.888139 0.209672 2.358608 0.014866 -0.008526 -1241630.000000 1 0 0
-5.655317 12.774512 -4.720123 14.746197 -1.154027 1.896622 0.000909 0.003328 432268.000000 1 0 0
-4.338317 6.831012 -6.733323 10.527172 -1.004973 2.264792 0.004116 -0.001267 -3477220.000000 1 0 0
-9.518417 -3.631588 -8.112123 13.022873 0.364486 2.243258 0.012940 -0.005662 726125.000000 1 0 0
-2.173817 -6.368288 9.115277 11.329998 1.241848 0.635919 0.006575 -0.001247 -508159.000000 1 0 0
7.483683 -6.012988 9.984177 13.850824 -0.676859 0.765788 0.004304 0.000379 153267.000000 1 0 0
9.773683 -4.942188 12.278977 16.453674 -0.468168 0.728347 0.027725 -0.002792 -1124940.000000 1 0 0
-6.536417 2.796212 -9.070023 11.524273 -0.404231 2.476787 0.006436 -0.007059 -456348.000000 1 0 0
7.519183 5.517512 8.774477 12.805175 0.633047 0.815878 0.005831 -0.005075 -1001390.000000 1 0 0
12.742683 3.534312 11.029277 17.219532 0.270559 0.875635 0.028499 -0.008244 -46335.100000 1 0 0
-7.447117 -7.434488 -3.974423 11.248431 0.784550 1.931926 0.016180 -0.005241 -1362960.000000 1 0 0
2.300583 1.377112 -5.877023 6.459761 0.539384 2.713573 0.003834 -0.000398 -741065.000000 1 0 0
12.796183 6.857612 -7.275623 16.238960 0.491962 2.035363 0.012597 -0.003224 217748.000000 1 0 0
0.821683 -7.757888 1.060477 7.873030 -1.465274 1.435688 0.002439 0.000032 292232.000000 1 0 0
-10.304117 -5.977088 -8.478423 14.621356 0.525635 2.189360 0.016281 -0.006488 99461.100000 1 0 0
-6.845117 0.338712 3.257477 7.588248 -0.049442 1.127102 0.002653 -0.000463 1113600.000000 1 0 0
10.751583 -7.806388 1.206277 13.341340 -0.628008 1.480256 0.011456 -0.004685 -340325.000000 1 0 0
6.283283 1.175712 10.587577 12.367649 0.184978 0.543178 0.004971 -0.001380 -769092.000000 1 0 0
-13.125517 5.339912 1.765277 14.279708 -0.386384 1.446858 -0.001498 0.002426 -59647.100000 1 0 0
2.001483 7.484512 3.722777 8.595517 1.309494 1.122860 -0.002272 0.000932 380101.000000 1 0 0
9.969183 -9.375688 -0.791723 13.708208 -0.754728 1.628584 0.009100 -0.005674 754947.000000 1 0 0
6.943283 -11.642988 -9.000023 16.271717 -1.033066 2.156887 0.007168 -0.002363 -459656.000000 1 0 0
10.406683 3.586712 12.015577 16.295326 0.331905 0.741638 0.015599 -0.003371 -1614880.000000 1 0 0
-11.097117 -3.084388 -1.955823 11.682666 0.271102 1.739001 0.003835 0.000112 -250606.000000 1 0 0
12.501883 0.995812 6.925577 14.326631 0.079485 1.066255 0.011700 -0.007953 -32397.300000 1 0 0
-9.469217 8.939612 2.995877 13.362560 -0.756637 1.344675 0.001519 -0.006711 1775570.000000 1 0 0
-6.604517 7.595112 -8.833823 13.391855 -0.855047 2.291138 -0.000339 -0.001178 -721514.000000 1 0 0
8.601783 5.589712 12.113277 15.873470 0.576257 0.702677 0.021845 -0.006479 -1252790.000000 1 0 0
1.369083 4.911212 -2.695823 5.767309 1.298931 2.057180 0.001083 0.000784 356441.000000 1 0 0
1.301683 0.526412 9.478377 9.581812 0.384301 0.147067 0.005306 -0.001979 651986.000000 1 0 0
2.686783 12.600512 -4.074723 13.512774 1.360714 1.877110 0.005729 -0.003126 464112.000000 1 0 0
2.112783 0.697312 13.055377 13.243601 0.318787 0.168797 0.006474 -0.006507 313129.000000 1 0 0
-12.247217 -1.850588 0.847077 12.415174 0.149968 1.502514 0.002031 0.001454 215549.000000 1 0 0
3.251183 8.787512 -1.270023 9.455343 1.216436 1.705522 0.004236 0.000100 627103.000000 1 0 0
3.716783 -2.870588 -5.838523 7.492870 -0.657641 2.464201 0.002603 -0.003833 -1579660.000000 1 0 0
-7.699617 -7.313388 9.313877 14.125086 0.759678 0.850795 0.008205 -0.000233 -518496.000000 1 0 0
-6.928217 10.840112 -3.531123 13.340803 -1.002102 1.838675 0.007099 0.000519 645573.000000 1 0 0
0.305083 0.543212 2.534377 2.609832 1.059069 0.241048 0.002855 0.000681 -2307230.000000 1 0 0
-7.117317 4.621612 -2.003423 8.719472 -0.575916 1.802632 0.007050 -0.003671 -1371820.000000 1 0 0
-6.905317 -3.885788 -5.850623 9.849494 0.512560 2.206821 0.013845 -0.005581 172488.000000 1 0 0
2.995683 -6.073788 13.415477 15.027976 -1.112591 0.467494 0.001148 -0.005260 -2619470.000000 1 0 0
-5.470817 -0.650088 -11.732323 12.961476 0.118274 2.702573 0.014016 -0.008484 -1059110.000000 1 0 0
11.818483 2.509912 -0.684923 12.101459 0.209263 1.627425 0.003526 -0.001805 -1127980.000000 1 0 0
6.064583 -10.955788 10.754577 16.506647 -1.065231 0.861197 0.007742 0.001731 124444.000000 1 0 0
-8.251617 6.370612 -10.455323 14.764405 -0.657461 2.357662 0.003394 -0.003506 705187.000000 1 0 0
2.849183 7.842612 11.016377 13.819731 1.222327 0.648239 0.007952 0.000935 852282.000000 1 0 0
-6.273817 -10.319188 -0.384023 12.082794 1.024533 1.602584 0.012010 -0.001623 -364194.000000 1 0 0
11.337383 4.242812 5.991977 13.507091 0.358097 1.111166 0.005350 -0.006663 907717.000000 1 0 0
-8.098317 10.672612 1.299877 13.460203 -0.921691 1.474074 0.006301 -0.004785 439693.000000 1 0 0
4.293083 -2.610188 -3.484823 6.114543 -0.546280 2.177209 0.003827 -0.004916 -5814000.000000 1 0 0
6.498283 6.385712 6.249077 11.047894 0.776661 0.969593 0.004912 -0.002824 -5384780.000000 1 0 0
-0.379717 10.368912 -10.249323 14.584483 -1.534192 2.350059 0.001399 -0.001951 -327872.000000 1 0 0
14.099783 6.555312 -2.514323 15.751121 0.435194 1.731110 0.016021 -0.000637 611636.000000 1 0 0
1.448083 9.447812 -6.260223 11.425781 1.418708 2.150652 0.003328 -0.000523 -1246860.000000 1 0 0
0.645083 7.374212 7.292777 10.391330 1.483540 0.792856 -0.001305 -0.000256 -200747.000000 1 0 0
12.285683 6.336912 1.878177 13.950699 0.476205 1.435757 0.004727 -0.004122 -2108380.000000 1 0 0
-6.822417 6.744812 -3.115423 10.086809 -0.779678 1.884792 0.001164 -0.003945 -33233.600000 1 0 0
0.986783 9.830012 11.105577 14.863940 1.470747 0.727034 0.004195 0.001764 -907624.000000 1 0 0
-3.497717 13.599912 -11.004523 17.840716 -1.319065 2.235493 0.002891 -0.006475 -504298.000000 1 0 0
-10.160517 -5.556288 -2.202723 11.788148 0.500422 1.758760 0.005649 -0.003015 -192524.000000 1 0 0
-4.012417 3.877212 -12.424823 13.620150 -0.768263 2.719511 0.005546 -0.007678 -145302.000000 1 0 0
-3.162417 8.583012 2.563377 9.499467 -1.217780 1.297565 0.001836 0.002695 -2684380.000000 1 0 0
7.148983 8.894012 7.075677 13.426713 0.893744 1.015747 0.007161 -0.000807 -2063790.000000 1 0 0
-1.330417 -2.198488 -8.155223 8.550498 1.026598 2.836342 0.012703 -0.008740 -1902480.000000 1 0 0
0.892283 -1.306788 4.771677 5.027203 -0.971703 0.320203 0.005368 -0.000331 -245727.000000 1 0 0
2.764483 -8.779888 -6.102423 11.043929 -1.265758 2.156228 -0.000843 -0.003720 268550.000000 1 0 0
5.395983 3.971112 8.774577 11.039908 0.634441 0.652110 0.003241 -0.001726 1202290.000000 1 0 0
5.919183 -7.441188 -2.851023 9.926547 -0.898829 1.862111 -0.000655 -0.007196 604165.000000 1 0 0
1.820683 2.319912 -8.292723 8.801484 0.905388 2.799921 0.007677 -0.003900 94474.100000 1 0 0
-5.435917 10.907612 -0.692823 12.206768 -1.108462 1.627584 0.001585 -0.001099 410816.000000 1 0 0
-5.477917 3.257012 -3.358323 7.203751 -0.536418 2.055777 0.003564 -0.002162 667633.000000 1 0 0
1.948583 13.607012 -6.454023 15.185590 1.428559 2.009769 0.000198 -0.003502 387416.000000 1 0 0
-5.270217 -2.592488 2.680977 6.456301 0.457157 1.142579 -0.001170 0.000644 848534.000000 1 0 0
10.477783 -3.357088 -1.858723 11.158353 -0.310066 1.738153 0.008122 -0.003060 177768.000000 1 0 0
2.368683 -3.358488 7.024377 8.138303 -0.956534 0.529370 0.002322 -0.000265 -1136910.000000 1 0 0
-2.956317 9.758812 -11.689723 15.512054 -1.276646 2.424302 0.000893 -0.003925 -2608410.000000 1 0 0
0.602183 -2.036088 9.358577 9.596419 -1.283239 0.223103 0.004652 -0.002654 1581900.000000 1 0 0
9.455383 2.673812 4.874177 10.968644 0.275587 1.110321 0.003956 -0.004552 -355215.000000 1 0 0
13.521283 2.032412 -5.042923 14.573499 0.149195 1.924137 0.008783 0.003628 245458.000000 1 0 0
-6.416517 3.823312 7.658277 10.697598 -0.537366 0.772902 0.000316 -0.002085 -367925.000000 1 0 0
10.645183 0.042912 1.796877 10.795857 0.004031 1.403577 0.005718 -0.000867 1856480.000000 1 0 0
15.482983 6.534612 -4.627823 17.431026 0.399370 1.839512 0.021057 -0.002477 601334.000000 1 0 0
8.107183 -4.953288 -9.142223 13.184905 -0.548450 2.336973 0.008427 -0.002098 91761.400000 1 0 0
4.356383 5.659612 -2.134023 7.454082 0.914786 1.861148 0.003074 -0.000148 258756.000000 1 0 0
-1.705217 -10.580688 1.501777 10.821925 1.411007 1.431575 0.011025 -0.001708 -1222110.000000 1 0 0
-2.833517 12.135112 -12.918923 17.949605 -1.341409 2.374214 0.001127 -0.010207 -84161.800000 1 0 0
8.402083 4.356312 -9.585323 13.470370 0.478322 2.362549 0.006800 0.002539 -2236540.000000 1 0 0
4.110783 7.564712 -9.106023 12.531682 1.073022 2.384215 0.006007 -0.003992 -148323.000000 1 0 0
-1.794117 -4.943388 -2.472723 5.811222 1.222647 2.010320 0.011436 -0.001850 1442040.000000 1 0 0
-3.324617 -9.011588 7.176677 11.990267 1.217361 0.929117 0.005844 0.000983 -744477.000000 1 0 0
1.047283 7.235712 -1.346523 7.434073 1.427056 1.752930 0.001484 0.000574 1617320.000000 1 0 0
0.384283 -0.541788 -2.268923 2.364153 -0.953865 2.856797 0.006387 -0.001837 -2220520.000000 1 0 0
4.140983 -6.680588 7.533977 10.887553 -1.015907 0.806567 0.001189 -0.000637 -659402.000000 1 0 0
-13.948417 3.864812 5.921277 15.638306 -0.270298 1.182471 0.000985 0.003104 -1390460.000000 1 0 0
4.317883 6.447112 12.630177 14.823317 0.980670 0.550911 0.009369 -0.004590 -942700.000000 1 0 0
8.274283 10.061612 -7.176823 14.873015 0.882568 2.074349 0.026691 -0.008806 93971.000000 1 0 0
12.499883 5.324312 9.260177 16.442210 0.402674 0.972549 0.023133 -0.011599 96800.100000 1 0 0
7.491483 4.059512 0.388177 8.529516 0.496590 1.525271 0.007040 -0.000562 -1595970.000000 1 0 0
-10.870417 -7.719688 -1.010523 13.370890 0.617509 1.646445 0.009729 -0.003349 -651503.000000 1 0 0
10.491383 6.813012 0.108577 12.509918 0.575947 1.562117 0.006815 -0.002442 -504176.000000 1 0 0
14.609283 3.538312 4.219077 15.612540 0.237620 1.297158 0.015774 -0.009316 446599.000000 1 0 0
2.194383 5.658212 8.287977 10.272353 1.200831 0.632041 0.000078 0.000237 315473.000000 1 0 0
4.243983 0.153012 11.787877 12.529519 0.036038 0.345789 0.004194 -0.001914 -2810060.000000 1 0 0
-1.380817 -1.657288 -0.675623 2.260470 0.876150 1.874321 0.007790 -0.003671 -1308710.000000 1 0 0
3.133083 -5.215388 -9.481523 11.265689 -1.029834 2.571087 0.002232 -0.005069 158550.000000 1 0 0
-4.100417 -5.370088 -1.434623 6.907200 0.918669 1.780019 0.012005 -0.002713 1106920.000000 1 0 0
-1.110317 -8.642288 8.540377 12.200819 1.443021 0.795421 0.006206 -0.001238 -326757.000000 1 0 0
3.951583 8.567012 -6.011023 11.186648 1.138622 2.138075 0.005460 -0.000515 283632.000000 1 0 0
-14.390717 -1.937888 -2.778823 14.784113 0.133857 1.759881 0.009610 -0.003477 -1113280.000000 1 0 0
8.899883 -10.564388 -6.589823 15.304901 -0.870707 2.015920 0.005144 -0.004989 776910.000000 1 0 0
14.875483 6.135812 1.626477 16.173238 0.391217 1.470060 0.009375 -0.004283 -921787.000000 1 0 0
-5.799817 0.360712 -8.571423 10.355543 -0.062114 2.545817 0.013770 -0.011194 -935096.000000 1 0 0
-8.053617 -4.567588 -12.929923 15.903035 0.515913 2.520164 0.014141 -0.008662 630184.000000 1 0 0
0.854983 -10.581988 12.029777 16.044470 -1.490175 0.723071 0.000966 -0.003206 -175893.000000 1 0 0
0.312883 11.762012 3.395477 12.246309 1.544201 1.289850 0.004410 -0.000902 -1221030.000000 1 0 0
5.139483 -13.144188 -3.638623 14.574757 -1.198066 1.823118 -0.001385 0.001268 -43718.600000 1 0 0
-7.423917 1.533412 -6.987723 10.309906 -0.203686 2.315519 0.010093 -0.005443 635772.000000 1 0 0
1.421083 2.812512 4.121577 5.188169 1.102940 0.652747 -0.001836 0.002632 -344188.000000 1 0 0
17.304883 5.478612 2.256777 18.291179 0.306610 1.447100 0.020902 -0.003768 -608196.000000 1 0 0
2.610183 -8.094088 -3.505423 9.198658 -1.258845 1.961760 -0.000818 -0.002543 303542.000000 1 0 0
-0.206717 -9.481588 -0.488823 9.496431 1.548998 1.622293 0.011770 -0.000984 -338824.000000 1 0 0
0.703083 11.740412 -5.520623 12.992647 1.510982 2.009652 0.001419 -0.000978 -68637.200000 1 0 0
6.010783 -5.020888 7.843177 11.083964 -0.695906 0.784679 0.002449 -0.000084 -1153540.000000 1 0 0
-6.080317 -1.997788 -9.383923 11.358671 0.317454 2.543030 0.017574 -0.008917 -188084.000000 1 0 0
2.113883 -1.195788 11.302377 11.560370 -0.514804 0.211662 0.003683 -0.004730 -473031.000000 1 0 0
18.054883 2.302812 -5.936223 19.144725 0.126860 1.886064 0.037556 0.006834 -1857230.000000 1 0 0
-8.867917 4.844212 7.734477 12.725112 -0.499969 0.917494 -0.000240 -0.004478 -740692.000000 1 0 0
11.487283 -7.004588 -4.908023 14.321684 -0.547572 1.920584 0.017004 -0.010505 -131637.000000 1 0 0
10.879183 0.547612 8.958577 14.103638 0.050293 0.882534 0.009498 -0.005063 92850.800000 1 0 0
-8.449017 -7.488688 -1.556023 11.396822 0.725216 1.707755 0.011853 -0.003197 -293518.000000 1 0 0
10.255483 -10.317888 -3.253323 14.906974 -0.788431 1.790809 0.019696 -0.005290 936206.000000 1 0 0
7.638883 -13.871288 -3.768123 16.277713 -1.067418 1.804405 0.013243 -0.001767 -2032370.000000 1 0 0
1.809683 -1.203688 -11.730923 11.930564 -0.586943 2.958396 0.008837 -0.006403 405322.000000 1 0 0
-11.958317 -2.676288 -6.423623 13.835707 0.220173 2.053616 0.013236 -0.004591 213075.000000 1 0 0
2.760383 -11.989288 -6.388423 13.862709 -1.344502 2.049732 0.001723 -0.001094 535011.000000 1 0 0
-5.702617 1.361012 1.164877 5.977385 -0.234282 1.374660 0.002482 -0.002272 192111.000000 1 0 0
0.120483 6.811712 -3.961523 7.880837 1.553111 2.097490 0.005656 -0.000528 1130480.000000 1 0 0
5.454883 -11.738988 3.664877 13.453287 -1.135801 1.294894 0.002628 -0.007388 -2847490.000000 1 0 0
-4.390617 -9.222588 1.022977 10.265483 1.126474 1.470979 0.011067 0.000137 251449.000000 1 0 0
7.162083 -6.211788 -4.574523 10.526538 -0.714461 2.020358 0.004964 -0.007085 -196263.000000 1 0 0
-7.022517 -6.061088 2.296977 9.556602 0.712047 1.328065 0.007336 0.000215 -3556.070000 1 0 0
-6.152917 -0.688988 7.245277 9.530327 0.111513 0.707123 0.001124 -0.001575 -243967.000000 1 0 0
4.148583 -5.028288 3.329077 7.319644 -0.880967 1.098633 0.000988 0.001254 -817462.000000 1 0 0
-2.454817 10.569712 -8.796123 13.968418 -1.342592 2.251983 -0.001249 -0.000300 -202353.000000 1 0 0
-2.373917 -4.753888 2.798777 6.005671 1.107658 1.086007 0.005689 0.001974 652140.000000 1 0 0
15.122683 4.989712 6.323577 17.134188 0.318701 1.192797 0.028364 -0.012347 646655.000000 1 0 0
6.736383 0.295812 0.045777 6.743030 0.043884 1.564007 0.004367 -0.000373 4393070.000000 1 0 0
-9.873717 9.081312 0.337577 13.419183 -0.743618 1.545637 0.005631 -0.008717 -2251290.000000 1 0 0
7.136583 10.444512 -2.581223 12.910513 0.971376 1.772085 0.001736 -0.002783 -55784.800000 1 0 0
1.605883 -4.249788 -5.452623 7.097229 -1.209509 2.446938 0.005787 -0.005189 -405726.000000 1 0 0
0.874183 -8.138988 -7.902323 11.377787 -1.463800 2.338576 0.002967 -0.002362 -572729.000000 1 0 0
-10.467617 0.288512 -10.412623 14.767429 -0.027555 2.353371 0.012309 -0.008435 -2043160.000000 1 0 0
5.831983 -2.457088 0.445277 6.344098 -0.398743 1.500551 0.005831 -0.001499 -81763.700000 1 0 0
-3.335217 5.271212 -0.878223 6.299255 -1.006663 1.710669 0.004522 -0.003297 882686.000000 1 0 0
-0.409217 4.572012 -5.158423 6.905076 -1.481529 2.414407 0.005566 -0.002061 -784226.000000 1 0 0
4.016883 -9.672188 10.061277 14.522943 -1.177168 0.805452 0.000434 -0.000059 -1344290.000000 1 0 0
7.310083 -13.471588 -0.818723 15.348984 -1.073629 1.624162 0.012803 -0.005788 405867.000000 1 0 0
13.080483 0.004212 0.556377 13.092311 0.000322 1.528287 0.005997 -0.004130 69978.000000 1 0 0
9.283783 2.479112 -0.615723 9.628797 0.260948 1.634786 0.008234 -0.001246 115777.000000 1 0 0
-0.843817 -5.815988 4.527977 7.418917 1.426716 0.914321 0.003366 0.002592 -940032.000000 1 0 0
11.517583 -3.695288 3.393977 12.563000 -0.310464 1.297241 0.013150 -0.005188 -1665070.000000 1 0 0
1.696383 -8.118888 11.818277 14.438343 -1.364817 0.611942 -0.001614 -0.002478 191912.000000 1 0 0
9.489383 -5.795788 -5.946223 12.609406 -0.548298 2.061867 0.005988 -0.008877 380328.000000 1 0 0
3.245583 6.409712 0.014577 7.184596 1.102078 1.568767 -0.000193 0.001407 -844050.000000 1 0 0
6.383783 -1.287288 11.365577 13.099089 -0.198981 0.520317 0.001975 -0.001348 293273.000000 1 0 0
-4.881317 -7.562588 -3.837623 9.785057 0.997622 1.973810 0.017369 -0.003383 -200108.000000 1 0 0
-3.362817 -8.548788 -5.633523 10.776219 1.196021 2.120898 0.017442 -0.003866 -824507.000000 1 0 0
9.755183 5.417012 2.069577 11.348602 0.506900 1.387406 0.007031 -0.003805 -217981.000000 1 0 0
8.782983 -1.374988 0.286077 8.894562 -0.155291 1.538628 0.006672 -0.000893 1985690.000000 1 0 0
-4.095317 9.532112 9.195477 13.863245 -1.165007 0.845578 0.004745 0.000086 -244772.000000 1 0 0
-14.472117 -3.653088 -6.058023 16.108596 0.247257 1.956352 0.015538 -0.004409 -1085120.000000 1 0 0
10.668383 6.291112 -5.996823 13.760609 0.532809 2.021719 0.010966 -0.005081 962176.000000 1 0 0
-1.868017 4.526712 2.727877 5.605526 -1.179419 1.062556 0.002998 0.000493 302403.000000 1 0 0
6.890683 -3.636288 2.637277 8.225530 -0.485570 1.244411 0.007686 -0.004070 -1028140.000000 1 0 0
8.343183 -11.150888 -1.587823 14.016854 -0.928443 1.684320 0.010334 -0.006117 -3200000.000000 1 0 0
4.451883 0.496012 1.827577 4.837906 0.110959 1.183418 0.003934 0.001115 264537.000000 1 0 0
-10.626617 2.239412 3.851477 11.522753 -0.207697 1.229987 -0.003749 0.000525 346881.000000 1 0 0
-0.822917 -3.078488 4.398877 5.431796 1.309592 0.626920 0.005458 0.000602 204487.000000 1 0 0
8.599183 -8.684988 -8.543923 14.912196 -0.790363 2.180895 0.011333 -0.007947 -229065.000000 1 0 0
12.099883 -4.777688 1.058277 13.051951 -0.376062 1.489625 0.011085 -0.002906 612899.000000 1 0 0
2.869283 4.914712 3.460777 6.660642 1.042362 1.024430 -0.002648 0.000449 -545291.000000 1 0 0
6.066583 7.509912 1.979377 9.854955 0.891311 1.368570 0.003425 -0.001910 -282287.000000 1 0 0
-1.683017 -1.372688 -10.296523 10.523079 0.684188 2.933712 0.014195 -0.008475 486860.000000 1 0 0
-1.016517 -8.656988 5.951077 10.554244 1.453910 0.971749 0.000848 -0.001126 145652.000000 1 0 0
-4.341817 -0.328288 2.356377 4.950925 0.075467 1.074756 0.001581 -0.000021 523059.000000 1 0 0
-8.512217 6.233112 -7.859123 13.155810 -0.632047 2.211036 -0.000861 -0.002129 -1365210.000000 1 0 0
6.434083 11.195512 -9.449723 16.001068 1.049186 2.202559 0.017689 -0.009375 320984.000000 1 0 0
-11.282317 -5.791088 3.200777 13.079463 0.474222 1.323568 0.007063 0.002902 2182660.000000 1 0 0
1.510283 -6.248788 3.093577 7.134321 -1.333652 1.122291 0.000816 0.000214 805094.000000 1 0 0
10.164883 2.088612 7.106077 12.577102 0.202653 0.970362 0.005445 -0.004671 -2184250.000000 1 0 0
-4.054017 -2.514788 -10.501123 11.533984 0.555227 2.715168 0.013748 -0.009204 -3673020.000000 1 0 0
-8.253917 11.839312 5.886277 15.586684 -0.961978 1.183542 0.006386 -0.004247 -915565.000000 1 0 0
6.867883 5.965312 -2.993523 9.576740 0.715183 1.888707 0.006446 0.000689 -725688.000000 1 0 0
3.894583 -9.791588 -2.274823 10.780436 -1.192233 1.783409 -0.002270 -0.003554 -796052.000000 1 0 0
8.510583 -12.844188 -7.269123 17.036530 -0.985613 2.011613 0.018839 -0.005130 660045.000000 1 0 0
-1.030117 9.490912 3.728177 10.248797 -1.462682 1.198487 0.004246 0.000409 -173968.000000 1 0 0
0.441883 -13.197888 4.669777 14.006653 -1.537327 1.230892 0.008053 -0.004130 -1619900.000000 1 0 0
-11.205517 -7.029288 -5.134623 14.189392 0.560256 1.941062 0.010539 -0.007095 276832.000000 1 0 0
3.679583 10.318512 -3.415923 11.475171 1.228254 1.873057 0.008015 -0.002425 -1030460.000000 1 0 0
11.612083 -8.201388 -7.421323 16.036810 -0.614929 2.051911 0.038257 -0.012534 231810.000000 1 0 0
11.790283 -4.654188 -5.922023 13.990804 -0.375970 2.007859 0.014544 -0.008366 598488.000000 1 0 0
1.318583 -10.239088 -2.766523 10.687902 -1.442722 1.832624 0.000391 -0.000459 -1249650.000000 1 0 0
2.380283 -12.046588 -3.889723 12.880838 -1.375719 1.877563 0.001801 -0.000380 -2844550.000000 1 0 0
-7.635217 -5.659288 7.352677 12.016070 0.637851 0.912331 0.006241 0.003492 -3166620.000000 1 0 0
-7.290517 -0.782988 9.619877 12.095733 0.106988 0.651275 0.001266 -0.002773 439281.000000 1 0 0
16.229783 2.705612 -7.667723 18.152690 0.165188 2.006889 0.036840 0.006395 476417.000000 1 0 0
-2.052817 6.309912 -5.513023 8.626845 -1.256264 2.264064 0.003706 -0.000354 -342913.000000 1 0 0
7.626283 1.110212 8.429577 11.421495 0.144562 0.740628 0.004611 -0.002443 -312450.000000 1 0 0
7.932583 8.251712 -3.723423 12.036631 0.805114 1.885296 0.004712 -0.000389 -188702.000000 1 0 0
8.063883 0.567512 3.936877 8.991512 0.070261 1.117597 0.005680 -0.001967 561243.000000 1 0 0
-7.009217 5.919812 5.355177 10.623145 -0.701336 1.042451 0.002777 -0.004929 -58412.100000 1 0 0
-6.140417 -2.040588 -4.508023 7.886126 0.320839 2.179299 0.013229 -0.005896 -992466.000000 1 0 0
-15.151717 -2.171088 3.140177 15.625264 0.142321 1.368450 0.012532 -0.001663 -1725610.000000 1 0 0
1.165583 1.270812 -10.549523 10.689526 0.828562 2.979568 0.011226 -0.006827 277068.000000 1 0 0
1.579783 -9.176088 9.404177 13.233853 -1.400305 0.780424 0.000096 -0.003218 -1803650.000000 1 0 0
-0.332617 -6.801288 -1.215123 6.916985 1.521930 1.747385 0.006603 -0.000323 853900.000000 1 0 0
-0.430217 -10.261688 -8.338023 13.229133 1.528896 2.252707 0.006624 -0.002329 -777656.000000 1 0 0
-4.298217 6.555612 3.741877 8.686332 -0.990456 1.125442 0.002771 -0.000528 -559275.000000 1 0 0
10.765383 -1.143788 -8.616223 13.836221 -0.105850 2.243023 0.016223 0.001257 1065160.000000 1 0 0
3.086383 -1.043988 6.256477 7.054019 -0.326175 0.480123 0.001737 0.000657 591300.000000 1 0 0
1.905883 -12.309188 6.774177 14.178786 -1.417182 1.072684 0.005026 -0.003592 -265939.000000 1 0 0
2.927683 -4.957388 -1.372523 5.918686 -1.037340 1.804823 0.006334 -0.002304 -1569960.000000 1 0 0
-1.001217 9.560712 -1.603723 9.745849 -1.466455 1.736103 0.003775 0.000527 684727.000000 1 0 0
4.470683 -2.524088 2.568877 5.740833 -0.513973 1.106857 0.005620 0.000077 -3233170.000000 1 0 0
17.975883 6.786712 -2.557723 19.383854 0.361000 1.703133 0.014564 0.013502 488982.000000 1 0 0
-7.124217 3.460712 -5.417723 9.595974 -0.452197 2.170724 0.004479 -0.004824 -884161.000000 1 0 0
-13.977817 -6.028488 2.172377 15.376647 0.407186 1.429044 0.008606 0.000337 672007.000000 1 0 0
6.736283 -6.041288 3.277977 9.623919 -0.731060 1.223234 0.005533 -0.003933 548714.000000 1 0 0
-4.695017 1.991112 3.554477 6.216270 -0.401100 0.962095 0.002237 -0.001598 318498.000000 1 0 0
6.838983 -11.989288 -5.410123 14.825119 -1.052407 1.944353 0.005694 -0.000887 887055.000000 1 0 0
2.892683 -12.287588 3.413077 13.076756 -1.339591 1.306735 0.007139 -0.007308 -505982.000000 1 0 0
3.294883 11.230712 -6.132723 13.213456 1.285423 2.053445 0.002763 -0.000038 -611880.000000 1 0 0
-5.679217 -8.365988 6.499477 12.020252 0.974409 0.999515 0.008115 0.001087 340754.000000 1 0 0
-4.032717 6.506412 6.332877 9.934864 -1.015940 0.879626 0.002710 -0.001127 59890.700000 1 0 0
4.320983 4.360812 -6.975223 9.292002 0.789986 2.419871 0.003235 0.001434 -646018.000000 1 0 0
-0.351517 -2.877288 1.521677 3.273813 1.449229 1.087385 0.007115 0.001359 1247590.000000 1 0 0
-13.226017 -0.948688 6.577377 14.801670 0.071606 1.110329 0.008272 -0.000471 -314968.000000 1 0 0
-0.533717 -9.287788 -5.959723 11.048356 1.513395 2.140546 0.007168 -0.001126 -43540.600000 1 0 0
2.053083 -1.653788 -4.005723 4.795413 -0.678094 2.559518 0.003136 -0.001518 -1177760.000000 1 0 0
11.417683 -1.916888 1.055277 11.625470 -0.166336 1.479898 0.010020 -0.004318 1390960.000000 1 0 0
0.509383 -4.208988 -1.945523 4.664774 -1.450359 2.001012 0.005885 -0.001520 -1006790.000000 1 0 0
1.162683 -7.366188 -11.220123 13.472332 -1.414247 2.554992 0.000984 -0.003041 2205390.000000 1 0 0
-4.508517 4.064812 -9.955323 11.660097 -0.733690 2.594027 0.006101 -0.005221 -324246.000000 1 0 0
-1.039617 5.824212 -2.045423 6.259872 -1.394158 1.903661 0.003936 -0.000823 37973.200000 1 0 0
-11.418917 1.601912 -3.942923 12.186239 -0.139376 1.900281 0.007587 -0.000625 -159155.000000 1 0 0
-1.833917 -11.322188 4.175577 12.206172 1.410215 1.221659 0.011649 -0.003021 -628390.000000 1 0 0
-3.576717 -5.534188 -9.603423 11.646711 0.997030 2.540222 0.011859 -0.004168 -1963990.000000 1 0 0
-12.999217 -3.761988 -8.361923 15.907669 0.281705 2.124279 0.019775 -0.005156 -65850.500000 1 0 0
11.453283 4.494012 0.480777 12.312798 0.373918 1.531739 0.007636 -0.001199 7919.230000 1 0 0
-8.951017 -2.315788 -2.939423 9.701741 0.253167 1.878613 0.008461 -0.002636 -139794.000000 1 0 0
-2.559717 -6.067288 -6.273523 9.095121 1.171564 2.331965 0.012566 -0.003724 450405.000000 1 0 0
-0.137317 2.801012 -1.933223 3.406152 -1.521812 2.174345 0.003966 -0.000557 1231520.000000 1 0 0
8.076383 6.044812 -5.187923 11.343820 0.642512 2.045792 0.007938 -0.000452 -498624.000000 1 0 0
-9.838417 -0.961888 -0.885123 9.924874 0.097459 1.660097 0.002961 0.000234 -239133.000000 1 0 0
6.203683 0.512912 -8.923523 10.880166 0.082491 2.532494 0.000478 0.002593 407667.000000 1 0 0
-4.066117 2.542812 7.856677 9.204704 -0.558863 0.548034 -0.000454 -0.001370 -948373.000000 1 0 0
-10.170817 -3.598788 1.557777 10.900618 0.340087 1.427398 0.001006 0.001915 1844580.000000 1 0 0
-1.857217 -8.152288 -7.776923 11.418826 1.346804 2.320008 0.011512 -0.004354 90520.400000 1 0 0
-9.481217 -9.868888 4.286277 14.340872 0.805430 1.267272 0.008358 -0.001352 -319923.000000 1 0 0
-1.180917 -10.773088 7.257277 13.043085 1.461615 0.980740 0.005771 -0.001958 -194662.000000 1 0 0
9.444283 3.795112 -3.739423 10.843461 0.382093 1.922881 0.005582 0.000400 -988328.000000 1 0 0
12.828083 -0.856488 3.097077 13.224416 -0.066668 1.334407 0.009249 -0.004226 -344973.000000 1 0 0
6.533483 11.893912 -6.869023 15.209701 1.068481 2.039378 0.008322 -0.004994 -114018.000000 1 0 0
-11.927017 -0.114088 -6.624023 13.643475 0.009565 2.077741 0.010321 -0.000306 479625.000000 1 0 0
-7.613817 -6.588788 -11.377223 15.192878 0.713351 2.417125 0.017189 -0.008339 -812707.000000 1 0 0
4.099383 6.053112 6.576677 9.833503 0.975512 0.838199 0.001240 -0.000744 -2437700.000000 1 0 0
-4.367317 -1.419788 -7.285323 8.611921 0.314317 2.579155 0.014424 -0.010533 -567690.000000 1 0 0
9.646683 9.268312 0.838977 13.403879 0.765397 1.508163 0.008158 -0.002685 -1611040.000000 1 0 0
-8.912017 4.007612 4.851977 10.909935 -0.422593 1.109923 0.001218 -0.002620 950186.000000 1 0 0
-7.064617 7.824412 -12.170323 16.101149 -0.836384 2.427773 0.003134 -0.007866 -1322540.000000 1 0 0
11.189083 -3.716788 7.187177 13.808172 -0.320712 1.023358 0.012541 -0.005729 266534.000000 1 0 0
11.931483 6.840712 6.378077 15.160326 0.520580 1.136570 0.006882 -0.006207 -379270.000000 1 0 0
-9.943817 -0.832888 -14.733523 17.794659 0.083564 2.546282 0.012476 -0.006653 389653.000000 1 0 0
1.733483 -13.026688 12.157577 17.902689 -1.438502 0.824271 0.005769 0.000555 113309.000000 1 0 0
2.987283 3.076612 13.073077 13.758443 0.800128 0.316965 0.004503 -0.003489 -1259360.000000 1 0 0
-2.552717 -1.447488 11.026977 11.410776 0.515830 0.260096 0.008774 -0.004567 -755228.000000 1 0 0
2.539083 -10.041388 -8.307223 13.277288 -1.323126 2.246789 -0.001965 -0.000948 -716512.000000 1 0 0
13.991083 3.758112 -7.491823 16.309544 0.262414 2.048062 0.014590 0.003371 -1417700.000000 1 0 0
7.327783 -1.561688 4.922577 8.964767 -0.209977 0.989506 0.005666 -0.001286 367720.000000 1 0 0
-1.380217 8.841512 10.134777 13.520024 -1.415940 0.723320 0.002639 0.002508 -510024.000000 1 0 0
-12.333417 -4.726188 0.989777 13.244987 0.365942 1.495998 0.005063 0.000262 198299.000000 1 0 0
-4.853217 4.844112 -5.238523 8.629093 -0.784459 2.223173 0.004575 -0.004699 -180547.000000 1 0 0
-11.284617 0.287812 2.066877 11.475948 -0.025499 1.389703 -0.001058 0.002653 -1937140.000000 1 0 0
-1.449217 2.317512 -4.194423 5.006423 -1.011957 2.564053 0.007208 -0.004526 435237.000000 1 0 0
3.216283 -9.751788 13.064777 16.617168 -1.252216 0.666126 0.001850 -0.002747 -3342730.000000 1 0 0
8.888883 4.712912 -1.438423 10.163309 0.487517 1.712804 0.005623 -0.003747 -926393.000000 1 0 0
4.033283 2.415812 3.812877 6.053227 0.539661 0.889383 -0.001054 0.002884 -365194.000000 1 0 0
-5.606417 -3.253088 7.481477 9.898838 0.525766 0.713931 0.003842 -0.002020 434571.000000 1 0 0
1.750883 -5.864388 7.688677 9.827126 -1.280659 0.672297 0.001530 -0.000988 -995024.000000 1 0 0
-5.892817 -6.408188 -9.591523 12.953281 0.827270 2.404567 0.019374 -0.007350 -363157.000000 1 0 0
-11.698517 -5.880588 5.627377 14.251456 0.465788 1.164877 0.009776 -0.000524 -1693830.000000 1 0 0
10.599483 6.250612 4.408677 13.071175 0.532818 1.226768 -0.000664 -0.003902 -201583.000000 1 0 0
1.555583 -3.663788 0.375277 3.998002 -1.169279 1.476792 0.005907 -0.000449 -792355.000000 1 0 0
8.836383 4.313512 6.875177 11.998171 0.454126 0.960612 0.002981 -0.001801 220794.000000 1 0 0
-7.924417 12.034212 3.512577 14.830942 -0.988475 1.331683 0.006980 -0.008809 309368.000000 1 0 0
-6.228417 13.237312 -7.105123 16.263529 -1.131010 2.022918 0.002132 -0.004445 62149.600000 1 0 0
4.415083 -6.983888 -0.870923 8.308199 -1.007050 1.675816 0.003140 -0.004010 -23567.700000 1 0 0
-1.963817 -8.207488 10.980377 13.848759 1.335940 0.655279 0.004813 -0.004542 -487418.000000 1 0 0
11.745983 8.830512 -5.858523 15.819872 0.644646 1.950157 0.023310 -0.009638 140324.000000 1 0 0
-3.447017 -2.896288 -1.873523 4.876525 0.698795 1.965129 0.013309 -0.003168 -2953300.000000 1 0 0
-2.046717 6.021012 4.771777 7.950565 -1.243121 0.927069 0.001167 0.000705 427764.000000 1 0 0
0.394383 -11.509988 -5.594123 12.803499 -1.536545 2.022970 0.001672 -0.002680 -781734.000000 1 0 0
-8.911017 6.234512 -1.584823 10.990315 -0.610485 1.715503 0.007126 -0.004745 -1557410.000000 1 0 0
2.822383 0.169212 3.925177 4.837509 0.059882 0.624245 0.001876 0.003186 -622297.000000 1 0 0
-10.056717 3.867912 -1.072523 10.828139 -0.367169 1.670009 0.008761 -0.002796 68945.800000 1 0 0
6.507383 5.540712 13.598177 16.061007 0.705335 0.561123 0.018416 -0.005157 -1424460.000000 1 0 0
-8.863517 -1.608188 5.717377 10.669424 0.179487 1.005264 -0.000339 0.000218 -222394.000000 1 0 0
12.980983 -1.740888 -1.512223 13.184212 -0.133315 1.685749 0.008820 -0.000854 -1111140.000000 1 0 0
5.326483 -5.410888 5.446377 9.344098 -0.793259 0.948542 0.000734 -0.001691 -34720.200000 1 0 0
-9.056717 -1.315788 3.210077 9.698454 0.144274 1.233445 -0.000659 0.000670 190972.000000 1 0 0
1.982983 5.416012 5.675377 8.091682 1.219822 0.793459 -0.000138 0.000385 -1153800.000000 1 0 0
9.264683 3.037912 -7.470423 12.282934 0.316855 2.224581 0.006398 0.002539 -343000.000000 1 0 0
2.292783 -2.326788 -1.540823 3.611777 -0.792759 2.011538 0.004483 -0.001314 -13984.400000 1 0 0
-6.297417 0.452712 -3.938623 7.441448 -0.071765 2.128550 0.005652 -0.002568 -2465790.000000 1 0 0
-4.005617 4.198112 5.026777 7.677083 -0.808858 0.856909 0.001284 -0.000020 682539.000000 1 0 0
-6.441717 1.755312 -12.323923 14.016273 -0.266032 2.645099 0.009266 -0.006381 -2946600.000000 1 0 0
-0.126617 3.158112 6.287077 7.036835 -1.530725 0.465822 0.000732 0.000905 867822.000000 1 0 0
-8.831417 9.232112 -2.232123 12.969510 -0.807577 1.743763 0.006433 -0.004553 339348.000000 1 0 0
-1.376417 -3.727788 -6.120423 7.297294 1.217093 2.565734 0.010294 -0.005287 360314.000000 1 0 0
-3.332017 7.022412 -2.910623 8.299899 -1.127770 1.929095 0.005343 0.000780 1127120.000000 1 0 0
6.985883 -0.331588 -4.242823 8.180101 -0.047430 2.116098 0.003729 -0.000972 -265951.000000 1 0 0
-5.096317 -10.895788 6.914077 13.874261 1.133294 1.049115 0.001545 -0.000050 632096.000000 1 0 0
9.711583 8.440512 -1.523623 12.956794 0.715489 1.688662 0.005572 -0.001145 -990116.000000 1 0 0
13.773983 4.572612 -4.277823 15.130471 0.320527 1.857434 0.005827 -0.001411 206515.000000 1 0 0
4.735683 1.127612 -6.849323 8.403060 0.233757 2.523696 -0.001058 0.000586 -207316.000000 1 0 0
8.989383 -4.685488 3.629377 10.767320 -0.480483 1.226990 0.009966 -0.004573 -570740.000000 1 0 0
-8.801217 -3.387188 -0.725523 9.458374 0.367382 1.647579 0.003876 0.000531 41954.500000 1 0 0
-8.600217 -4.195688 -10.362323 14.104796 0.453887 2.395971 0.014555 -0.010452 -247048.000000 1 0 0
10.440583 -1.063988 10.732677 15.010936 -0.101558 0.774186 0.015790 -0.004148 1947270.000000 1 0 0
2.292283 -11.593988 10.025977 15.498237 -1.375601 0.867270 -0.001883 -0.001179 -92518.400000 1 0 0
-6.439617 -10.549588 2.014577 12.522819 1.022755 1.409222 0.008652 0.000714 -729728.000000 1 0 0
-3.718717 -1.523588 6.595577 7.723459 0.388847 0.547234 0.004664 -0.002065 -2309610.000000 1 0 0
4.764683 -7.500788 3.865577 9.690548 -1.004878 1.160477 0.000136 -0.000747 446796.000000 1 0 0
11.467783 -9.392788 -5.269923 15.732343 -0.686255 1.912374 0.023480 -0.009703 369739.000000 1 0 0
11.474383 1.240812 11.361777 16.195403 0.107719 0.793235 0.016796 -0.004480 247501.000000 1 0 0
-10.217517 -3.526488 4.462077 11.693755 0.332340 1.179294 0.008201 0.001786 1124700.000000 1 0 0
2.058483 8.782712 8.986277 12.732893 1.340573 0.787311 0.003109 0.004024 -320495.000000 1 0 0
6.640983 8.777412 4.071077 11.735386 0.923085 1.216526 0.004765 -0.002341 -1134810.000000 1 0 0
-4.287417 3.389612 0.508477 5.489076 -0.668980 1.478029 0.003788 -0.001071 -412804.000000 1 0 0
4.891283 6.927712 4.228377 9.476129 0.956024 1.108266 0.002319 -0.001201 -1266960.000000 1 0 0
-8.227917 13.185912 1.243077 15.592053 -1.012921 1.490987 0.007578 -0.004175 -397863.000000 1 0 0
8.800583 8.190912 -9.262923 15.177056 0.749533 2.227266 0.019861 -0.008133 691902.000000 1 0 0
7.150383 1.972612 6.076677 9.588805 0.269179 0.884436 0.005086 -0.001318 -1164300.000000 1 0 0
11.587683 -6.206888 3.097977 13.505455 -0.491756 1.339348 0.014852 -0.002906 115946.000000 1 0 0
11.391883 4.772812 -2.177123 12.541714 0.396749 1.745271 0.009375 -0.001790 324770.000000 1 0 0
-4.004217 14.270312 -6.037423 16.003938 -1.297233 1.957617 -0.000600 0.002744 -527412.000000 1 0 0
7.229283 -3.017288 6.966177 10.483043 -0.395391 0.843947 0.006326 -0.002871 -1555370.000000 1 0 0
-8.003217 -0.595788 0.965577 8.083241 0.074307 1.451056 0.003309 -0.000022 209500.000000 1 0 0
-3.155017 1.065312 10.642577 11.151389 -0.325636 0.303245 0.005679 0.000641 -210951.000000 1 0 0
7.081383 -1.248588 -1.923223 7.443369 -0.174526 1.832142 0.008858 -0.001863 -1799150.000000 1 0 0
-7.930317 5.447912 2.977377 10.071467 -0.601929 1.270687 0.003542 -0.002882 824505.000000 1 0 0
9.524683 -2.162488 2.824777 10.167365 -0.223256 1.289264 0.009127 -0.003943 -953853.000000 1 0 0
0.183883 3.412812 1.645777 3.793373 1.516968 1.122028 0.000484 0.001965 -2802580.000000 1 0 0
-7.585817 -3.087788 4.024477 9.125539 0.386567 1.114070 -0.000251 0.002236 -2391760.000000 1 0 0
-2.377417 8.405512 -6.794823 11.066813 -1.295156 2.231892 -0.001429 -0.001384 -462813.000000 1 0 0
4.516383 9.708312 7.373377 13.000605 1.135368 0.967747 0.004626 0.004017 809637.000000 1 0 0
-11.795117 -3.085288 6.939777 14.028695 0.255841 1.053325 0.014318 -0.001547 -1156190.000000 1 0 0
-4.693817 2.345312 -5.512323 7.610395 -0.463375 2.380837 0.010500 -0.007418 934437.000000 1 0 0
-2.820217 2.968912 -1.876923 4.504542 -0.811078 2.000579 0.003605 -0.001561 1660230.000000 1 0 0
2.405883 5.214012 11.538277 12.888213 1.138481 0.461786 0.005941 -0.003098 202248.000000 1 0 0
-0.745917 1.662412 4.608677 4.955796 -1.149028 0.376500 0.003543 0.000818 -813219.000000 1 0 0
5.088983 1.624612 7.660277 9.339002 0.309014 0.608956 0.001673 0.001046 739289.000000 1 0 0
3.397883 -8.116888 1.792877 8.980195 -1.174343 1.369798 0.001874 -0.000919 3340930.000000 1 0 0
5.062183 6.480512 -4.652623 9.448261 0.907662 2.085678 0.006353 -0.000013 -2626330.000000 1 0 0
-4.277117 2.738312 -7.904623 9.395485 -0.569472 2.570520 0.007626 -0.007840 -1267150.000000 1 0 0
-8.623017 -2.098488 -12.882423 15.643430 0.238719 2.538356 0.011927 -0.011645 1136370.000000 1 0 0
-7.832317 8.182412 1.114577 11.381535 -0.807255 1.472711 0.006665 -0.004285 -1503690.000000 1 0 0
7.371183 0.897112 -6.562423 9.909821 0.121110 2.294566 0.002672 0.000947 -154944.000000 1 0 0
8.922083 8.896712 5.417277 13.715026 0.783974 1.164741 0.006954 -0.001480 263504.000000 1 0 0
9.354383 -1.079488 -1.392923 9.518929 -0.114891 1.717656 0.008530 -0.001820 821726.000000 1 0 0
5.394383 0.210112 4.329277 6.919983 0.038930 0.894871 0.001304 0.001309 471020.000000 1 0 0
-4.237617 -7.324388 -7.810923 11.515840 1.046289 2.316211 0.019172 -0.006061 -49670.300000 1 0 0
-2.139517 7.464212 -0.557923 7.784810 -1.291644 1.642526 0.004703 -0.000517 237018.000000 1 0 0
13.549383 -3.342188 -7.443823 15.816653 -0.241839 2.060803 0.023662 -0.003175 717376.000000 1 0 0
-4.750217 -5.092588 1.582977 7.141767 0.820168 1.347289 0.008841 0.001239 2020920.000000 1 0 0
-9.002817 1.251412 2.463377 9.417270 -0.138117 1.306137 -0.000133 -0.000757 -2407650.000000 1 0 0
-1.096217 11.261912 10.273177 15.283014 -1.473764 0.833626 0.008954 0.000631 121900.000000 1 0 0
-8.496317 0.336912 7.467977 11.316872 -0.039633 0.850114 0.000870 -0.001560 -129355.000000 1 0 0
-6.027517 12.953912 -2.139923 14.446939 -1.135288 1.719466 -0.002576 0.002428 -40309.400000 1 0 0
-13.046717 -0.890588 3.302577 13.487660 0.068156 1.323422 0.004734 -0.000737 292828.000000 1 0 0
-6.724717 12.816612 8.674777 16.874214 -1.087594 1.030856 0.013064 -0.006650 2567280.000000 1 0 0
-8.081917 0.961412 -14.046623 16.234202 -0.118402 2.616443 0.009403 -0.008894 347634.000000 1 0 0
7.322683 2.857512 3.717577 8.695254 0.372053 1.129025 0.003712 0.000270 -661293.000000 1 0 0
-1.700317 0.695712 -2.065723 2.764471 -0.388383 2.414695 0.008570 -0.003991 193973.000000 1 0 0
-6.272517 9.550812 -10.351723 15.418192 -0.989689 2.306888 0.000086 -0.003469 -278436.000000 1 0 0
-9.980417 13.622112 5.182577 17.664364 -0.938484 1.273024 0.000751 -0.007635 -50837.800000 1 0 0
-5.676717 8.327712 2.467477 10.376143 -0.972481 1.330693 0.003683 -0.002419 167236.000000 1 0 0
-2.420717 -10.776788 -1.250323 11.115860 1.349841 1.683516 0.011136 -0.002198 432861.000000 1 0 0
-2.153017 -12.606488 8.828077 15.540077 1.401642 0.966620 0.005781 -0.003079 292107.000000 1 0 0
-14.688317 -6.521088 -1.545623 16.144974 0.417823 1.666677 0.011998 -0.005288 322597.000000 1 0 0
-2.700017 -9.439288 3.148577 10.310373 1.292195 1.260459 0.008466 0.000943 -692117.000000 1 0 0
4.762083 -2.644288 7.480577 9.253579 -0.506888 0.629370 0.003804 0.000706 -1390840.000000 1 0 0
-15.118717 -1.316888 -0.360723 15.180247 0.086884 1.594561 0.012374 -0.004679 298141.000000 1 0 0
5.478483 8.698712 -2.859423 10.670411 1.008750 1.842089 0.004742 -0.002110 -3044460.000000 1 0 0
-5.633417 -5.758488 8.565477 11.758528 0.796377 0.754742 0.006885 -0.000226 -3339000.000000 1 0 0
3.479883 3.606912 7.090577 8.683069 0.803321 0.615304 0.001222 -0.000646 -37729.600000 1 0 0
3.396183 2.294612 9.451577 10.302020 0.594192 0.409176 0.004045 -0.001625 -103826.000000 1 0 0
9.949583 -3.154288 5.167377 11.646696 -0.307004 1.111098 0.011407 -0.005100 -380548.000000 1 0 0
6.554983 9.991712 -5.033423 12.966783 0.990185 1.969450 0.003239 -0.002235 607548.000000 1 0 0
-4.532017 12.064612 -8.533323 15.456766 -1.211460 2.155649 0.000056 -0.003146 79012.400000 1 0 0
-3.377717 -7.198388 2.189577 8.247425 1.132064 1.302088 0.008490 -0.001060 967750.000000 1 0 0
-7.462217 -4.101688 1.137877 8.590884 0.502583 1.437954 0.005467 0.000806 2390550.000000 1 0 0
-2.044417 -3.972388 -10.812523 11.699152 1.095492 2.749769 0.014539 -0.007587 -573527.000000 1 0 0
-5.143717 8.247412 -4.442223 10.686953 -1.013149 1.999473 0.004638 -0.002315 -2524970.000000 1 0 0
-11.049417 -3.198788 -10.120723 15.321582 0.281795 2.292352 0.018896 -0.006121 848234.000000 1 0 0
4.674483 -11.432488 -7.893023 14.657844 -1.182661 2.139434 0.000240 0.001090 -2338300.000000 1 0 0
-9.385217 -3.955788 7.323277 12.544359 0.398895 0.947407 0.003183 0.000622 -524465.000000 1 0 0
-5.736017 -9.657688 -5.168323 12.364643 1.034850 2.002030 0.016455 -0.006375 722947.000000 1 0 0
4.930783 4.399912 -9.621523 11.672427 0.728564 2.539752 0.002606 0.002790 276909.000000 1 0 0
-3.387917 -7.183388 -13.947123 16.049962 1.130099 2.623937 0.004375 -0.002581 -172668.000000 1 0 0
0.727783 -0.776588 -8.823623 8.887580 -0.817829 3.021552 0.010036 -0.008884 985183.000000 1 0 0
-7.804217 2.217012 -2.824523 8.590627 -0.276787 1.905820 0.007292 -0.004121 -884236.000000 1 0 0
-2.350417 7.486312 -12.623423 14.863382 -1.266580 2.585448 0.001281 -0.003716 -61638.100000 1 0 0
-9.959117 8.918512 7.518777 15.338053 -0.730330 1.058472 -0.000553 -0.004121 -321771.000000 1 0 0
-10.677617 -3.153788 -14.212923 18.054502 0.287199 2.477089 0.021397 -0.010304 -434650.000000 1 0 0
-3.165817 4.835912 7.946377 9.826156 -0.991161 0.628864 0.001159 -0.001170 -383116.000000 1 0 0
8.705983 -2.351788 -3.512023 9.677776 -0.263837 1.942170 0.007651 -0.001981 -4913280.000000 1 0 0
1.900283 -8.293188 -1.149923 8.585474 -1.345547 1.705138 0.003327 -0.000662 -1276540.000000 1 0 0
-13.666617 -2.959288 5.094077 14.882319 0.213242 1.221443 0.018952 -0.004687 142128.000000 1 0 0
7.027183 2.836512 -1.978523 7.832091 0.383648 1.826181 0.004000 -0.001422 1140410.000000 1 0 0
-11.108717 4.438612 8.848377 14.879471 -0.380128 0.933941 0.000261 -0.001383 -2485570.000000 1 0 0
-1.666717 -2.556188 7.859777 8.431378 0.992994 0.370337 0.005814 -0.002465 -453643.000000 1 0 0
2.774383 12.016512 -9.863423 15.791797 1.343891 2.245405 0.000589 -0.007577 371923.000000 1 0 0
3.615183 -4.988488 -7.085223 9.389087 -0.943681 2.425876 0.002290 -0.005908 304896.000000 1 0 0
8.564983 -13.744588 -9.589723 18.821143 -1.013526 2.105422 0.029294 -0.001716 1053290.000000 1 0 0
-6.339217 -5.803288 -0.392723 8.603375 0.741290 1.616460 0.011193 -0.001216 -424455.000000 1 0 0
-1.277617 -3.953488 9.965177 10.796626 1.258228 0.395017 0.005574 -0.002706 837215.000000 1 0 0
2.713283 3.319412 1.824177 4.659187 0.885536 1.168511 -0.003283 0.003293 -622875.000000 1 0 0
-9.107117 13.461512 7.650077 17.963172 -0.975996 1.130867 0.009775 -0.014754 -715042.000000 1 0 0
4.064183 -11.042288 0.029277 11.766502 -1.218127 1.568308 -0.000447 -0.002805 72034.200000 1 0 0
-12.782717 -1.382188 -9.078623 15.739431 0.107711 2.185612 0.017265 -0.005781 -223896.000000 1 0 0
-4.289417 0.922712 -13.497223 14.192446 -0.211885 2.827298 0.011042 -0.008236 375260.000000 1 0 0
3.998083 -3.016588 4.926577 7.025357 -0.646380 0.793638 0.002236 0.002467 -12372.000000 1 0 0
1.694483 -1.185388 1.079077 2.332558 -0.610429 1.089853 0.005024 -0.000166 558333.000000 1 0 0
8.233083 -8.955488 7.378877 14.227869 -0.827402 1.025559 0.009952 -0.003542 -1080780.000000 1 0 0
-0.056217 2.318612 -6.460323 6.864029 -1.546555 2.796918 0.007899 -0.005303 -564690.000000 1 0 0
-3.801617 -9.728788 -3.318023 10.959511 1.198281 1.878376 0.016373 -0.002679 761927.000000 1 0 0
-9.415917 2.187112 -5.439023 11.091705 -0.228231 2.083309 0.006759 -0.001564 -807803.000000 1 0 0
8.938983 -7.591788 5.293177 12.866950 -0.704082 1.146831 0.007413 -0.004491 1569640.000000 1 0 0
-5.521717 -4.264688 4.692877 8.408330 0.657651 0.978675 0.003077 0.001848 -1045940.000000 1 0 0
-0.085817 -12.369588 10.298977 16.096056 1.563859 0.876500 0.005528 -0.005622 -749513.000000 1 0 0
-14.456817 -8.435388 3.090577 17.020781 0.528190 1.388207 0.021482 -0.005318 -1424600.000000 1 0 0
10.903683 -1.222088 -3.529723 11.525743 -0.111615 1.882044 0.014918 -0.000217 -181149.000000 1 0 0
-13.639017 2.941812 2.700577 14.211620 -0.212436 1.379608 -0.001460 0.004401 -892568.000000 1 0 0
-6.394917 6.160712 1.026577 8.938858 -0.766747 1.455698 0.005702 -0.003295 -141566.000000 1 0 0
7.098383 -6.818988 -0.513723 9.856447 -0.765326 1.622940 0.004260 -0.007039 -393224.000000 1 0 0
-6.897617 7.844612 10.058677 14.501450 -0.849547 0.804277 -0.004688 0.000537 248178.000000 1 0 0
-12.747517 -5.127988 -1.890023 13.869666 0.382465 1.707492 0.004702 -0.004351 -1024730.000000 1 0 0
-9.456917 -5.789388 0.283977 11.091931 0.549331 1.545191 0.006707 0.000172 -485396.000000 1 0 0
-1.868617 1.895512 2.316477 3.528563 -0.792543 0.854636 0.003350 0.000354 -113641.000000 1 0 0
-7.102717 7.382112 7.597277 12.753932 -0.804685 0.932683 -0.000770 -0.003266 229651.000000 1 0 0
5.603883 7.182212 -0.420923 9.119476 0.908218 1.616969 0.002819 -0.001075 -1485290.000000 1 0 0
0.018683 -4.138488 7.605577 8.658651 -1.566282 0.498336 0.004874 0.000218 -1591870.000000 1 0 0
6.465983 0.776312 13.059177 14.592934 0.119489 0.462595 0.004708 -0.003104 514587.000000 1 0 0
5.747883 6.198412 -7.918823 11.583014 0.823093 2.323560 0.001176 0.000621 -21225.400000 1 0 0
10.015683 5.303612 8.976977 14.457812 0.486992 0.900895 0.005778 -0.005985 -2602840.000000 1 0 0
-1.278017 -5.084888 -8.455323 9.948965 1.324560 2.586534 0.012307 -0.006042 634660.000000 1 0 0
9.961783 -3.577588 -7.857523 13.182448 -0.344786 2.209381 0.013869 -0.005792 373391.000000 1 0 0
8.389983 -5.422788 1.267477 10.070002 -0.573799 1.444595 0.008867 -0.004370 1113780.000000 1 0 0
15.842783 3.184812 -5.012923 16.919403 0.198382 1.871594 0.012386 0.005920 5246.220000 1 0 0
-6.982817 3.647612 1.261077 7.978416 -0.481383 1.412070 0.004710 -0.001559 949102.000000 1 0 0
-1.781417 3.666412 0.319477 4.088776 -1.118513 1.492581 0.003444 -0.002965 -2079120.000000 1 0 0
-2.601317 10.175212 6.948277 12.592869 -1.320505 0.986320 0.002515 0.003831 -245544.000000 1 0 0
5.527083 -5.694588 -8.695223 11.772166 -0.800324 2.401826 0.002757 -0.006676 495700.000000 1 0 0
-1.249017 -0.941188 6.201077 6.395251 0.645765 0.247051 0.005039 -0.001313 221820.000000 1 0 0
-5.738817 4.919012 -7.719323 10.803640 -0.708629 2.366722 0.002670 -0.003812 -171355.000000 1 0 0
6.658083 -1.180488 2.582977 7.238466 -0.175478 1.205913 0.004975 0.000902 -458778.000000 1 0 0
8.828783 7.526912 3.184077 12.030800 0.705968 1.302945 0.006949 -0.003975 -120551.000000 1 0 0
-5.368217 -4.906888 -7.664523 10.565993 0.740531 2.382405 0.016792 -0.008457 1567920.000000 1 0 0
-2.298917 7.858112 -10.064123 12.973878 -1.286185 2.458655 0.002748 -0.003417 34299.600000 1 0 0
-2.785517 -2.138688 1.563277 3.844077 0.654789 1.151988 0.003708 0.000505 -293555.000000 1 0 0
6.092783 -2.063888 -9.271023 11.284215 -0.326611 2.534995 0.001613 -0.000595 999109.000000 1 0 0
1.084983 -7.614588 5.128377 9.244425 -1.429262 0.982730 0.002167 -0.000641 420549.000000 1 0 0
1.865283 11.955512 1.238377 12.163351 1.416025 1.468807 0.006448 -0.003880 131181.000000 1 0 0
-1.076017 7.095312 2.585377 7.627938 -1.420291 1.225011 0.002640 0.000888 548259.000000 1 0 0
8.823183 7.857712 -6.733623 13.599039 0.727584 2.088809 0.017021 -0.005993 78643.200000 1 0 0
3.711383 -11.120288 5.507477 12.952509 -1.248672 1.131607 0.005771 -0.003091 886746.000000 1 0 0
8.070583 -7.014088 12.322677 16.315028 -0.715475 0.714690 0.019216 -0.000830 424344.000000 1 0 0
-8.760517 0.064312 -3.903223 9.590930 -0.007341 1.989931 0.007677 -0.002226 -1072870.000000 1 0 0
-3.315617 -5.060188 11.175577 12.707964 0.990749 0.496164 0.007380 -0.004280 482111.000000 1 0 0
-8.178017 0.122512 -11.544923 14.148506 -0.014979 2.525222 0.011418 -0.008207 -1832970.000000 1 0 0
1.332783 -5.029688 5.382477 7.486330 -1.311766 0.768471 0.002494 0.001522 -399781.000000 1 0 0
6.706583 3.771112 -7.708223 10.891108 0.512238 2.357110 0.002028 0.002695 -1895050.000000 1 0 0
16.264283 4.222412 -1.495523 16.869862 0.254005 1.659563 0.002549 0.003694 -1148420.000000 1 0 0
7.914283 7.528912 0.166377 10.924654 0.760449 1.555566 0.006180 -0.002840 -3103740.000000 1 0 0
5.469983 -10.336588 13.857877 18.133023 -1.084073 0.700943 0.010715 -0.004003 -39978.600000 1 0 0
-5.286817 -9.275188 8.990477 13.957372 1.052731 0.870900 0.006703 -0.003406 419144.000000 1 0 0
-12.578117 -3.245888 2.925477 13.315526 0.252549 1.349285 0.007492 -0.000671 275000.000000 1 0 0
-2.082117 -1.297788 -5.836923 6.331598 0.557378 2.743680 0.014879 -0.009140 -757332.000000 1 0 0
-2.510817 12.952812 -4.379623 13.901821 -1.379328 1.891295 -0.000260 0.005948 360881.000000 1 0 0
3.967283 -0.469788 -5.014223 6.411121 -0.117867 2.468846 0.000975 -0.000803 -76614.100000 1 0 0
-8.833717 3.805912 -7.392123 12.131076 -0.406806 2.226042 0.006360 -0.003883 429449.000000 1 0 0
-4.628517 7.844312 -11.290023 14.505896 -1.037727 2.462759 0.000407 -0.003569 -1123050.000000 1 0 0
-10.121417 -6.504088 7.479677 14.166574 0.571160 1.014575 0.004026 0.003826 -717659.000000 1 0 0
8.110283 5.299912 4.073477 10.509946 0.578818 1.172788 0.003524 -0.002135 -2237360.000000 1 0 0
-6.758717 -7.538688 4.119177 10.930677 0.839898 1.184408 0.009153 0.000761 -283003.000000 1 0 0
-4.155617 11.872312 8.187277 15.008412 -1.234098 0.993796 0.007792 -0.003072 -379553.000000 1 0 0
-7.212017 9.993512 -8.001423 14.693748 -0.945674 2.146644 0.001256 -0.004393 -837072.000000 1 0 0
13.132183 5.363712 4.491077 14.879295 0.387761 1.264181 0.001465 -0.007359 -1365060.000000 1 0 0
5.300283 4.058412 -3.764423 7.663849 0.653472 2.084254 0.003320 0.001564 691606.000000 1 0 0
-2.876217 -4.125988 5.161277 7.206607 0.962021 0.772473 0.004027 0.000969 48505.100000 1 0 0
12.452483 -2.313188 -5.321623 13.738080 -0.183668 1.968566 0.011560 -0.004416 -1973350.000000 1 0 0
-5.250017 9.843312 6.988677 13.164159 -1.080819 1.011150 0.003623 0.000078 264049.000000 1 0 0
1.644683 3.891312 -0.475123 4.251239 1.170913 1.682791 0.002519 0.002263 397861.000000 1 0 0
-0.099417 9.718312 7.726277 12.415749 -1.560567 0.899123 0.001653 0.002823 378178.000000 1 0 0
-5.564517 2.081312 5.892477 8.367616 -0.357922 0.789500 0.001566 -0.002081 514938.000000 1 0 0
8.890983 1.006912 10.725477 13.967796 0.112770 0.695284 0.014287 -0.001414 -1574520.000000 1 0 0
0.435383 -2.868488 -10.152123 10.558569 -1.420165 2.863226 0.010656 -0.005751 -1216240.000000 1 0 0
1.279183 10.659712 -2.829923 11.102893 1.451366 1.828522 0.004632 -0.001931 1007630.000000 1 0 0
2.429483 -4.124388 11.713177 12.653517 -1.038465 0.387953 0.002751 -0.002937 -756240.000000 1 0 0
6.612383 -2.971588 9.400477 11.871096 -0.422353 0.656916 0.002739 -0.001287 303897.000000 1 0 0
-10.728417 -8.319488 5.686677 14.719073 0.659599 1.174128 0.011682 0.000568 -909826.000000 1 0 0
-2.948817 0.786312 -6.913723 7.557339 -0.260590 2.725897 0.013808 -0.008257 797980.000000 1 0 0
11.031783 2.700612 -5.173323 12.480257 0.240081 1.998212 0.008527 -0.000435 -2451600.000000 1 0 0
-2.078417 -4.091988 -0.011023 4.589587 1.100830 1.573198 0.007207 -0.000601 1156840.000000 1 0 0
-1.291317 -6.440088 -10.596323 12.466928 1.372908 2.586695 0.009953 -0.005280 715273.000000 1 0 0
0.254983 6.857912 -6.563923 9.496370 1.533633 2.333949 0.005604 -0.000043 -2429150.000000 1 0 0
2.105783 3.804212 -6.124723 7.511230 1.065239 2.524231 0.003991 -0.000799 -1250580.000000 1 0 0
1.525583 -14.830588 6.309977 16.189181 -1.468290 1.170420 0.018597 -0.007102 -364063.000000 1 0 0
-1.714417 5.329912 -10.505723 11.904511 -1.259589 2.651946 0.006923 -0.003190 40915.800000 1 0 0
13.630083 4.385312 -0.924123 14.347966 0.311278 1.635249 0.007226 -0.004926 -611521.000000 1 0 0
-2.403817 3.350412 -6.299423 7.529032 -0.948442 2.561997 0.010723 -0.007232 -741207.000000 1 0 0
5.641283 7.999812 14.191277 17.239879 0.956604 0.603832 0.017528 -0.006496 748745.000000 1 0 0
15.956383 0.733612 -5.764023 16.981411 0.045944 1.917109 0.013614 0.003428 -236782.000000 1 0 0
6.188783 -8.225588 10.617877 14.788531 -0.925773 0.769900 0.003685 0.002724 929556.000000 1 0 0
0.027183 -5.922188 -6.340023 8.675768 -1.566206 2.390251 0.007154 -0.005033 48808.600000 1 0 0
8.671683 5.495612 -7.539423 12.737454 0.564861 2.204222 0.008824 0.000173 -96960.000000 1 0 0
-16.046817 -0.939988 5.416577 16.962406 0.058511 1.245776 0.019990 -0.009328 -552149.000000 1 0 0
-0.399517 3.949912 -12.405523 13.025299 -1.469993 2.831868 0.008387 -0.005701 1022200.000000 1 0 0
-11.378617 3.717512 5.725977 13.269500 -0.315778 1.124626 -0.000122 -0.000694 -781169.000000 1 0 0
5.275583 -9.566588 -9.586623 14.534604 -1.066833 2.291046 0.001814 -0.002177 457421.000000 1 0 0
1.460183 11.126412 -11.765523 16.259050 1.440306 2.379842 -0.001578 -0.001079 -3975990.000000 1 0 0
5.863483 2.368312 1.183477 6.433502 0.383871 1.385787 0.004611 0.000211 -494331.000000 1 0 0
5.731983 4.573412 4.876277 8.806237 0.673444 0.983959 0.003020 -0.001329 150063.000000 1 0 0
0.415583 -1.577288 -6.348323 6.554521 -1.313172 2.890096 0.008533 -0.005989 252566.000000 1 0 0
12.764083 6.843112 -4.638823 15.207520 0.492126 1.880771 0.013238 -0.006417 -760322.000000 1 0 0
7.578783 3.274612 12.692277 15.141167 0.407849 0.576707 0.010275 -0.002706 -563260.000000 1 0 0
-2.559517 -0.301788 8.572077 8.951129 0.117366 0.292059 0.004697 -0.001234 916943.000000 1 0 0
2.335783 -15.233888 13.299977 20.357226 -1.418653 0.858822 0.013613 -0.004379 -398106.000000 1 0 0
18.786183 4.444412 -1.788723 19.387444 0.232308 1.663190 0.003735 0.002213 -266971.000000 1 0 0
-0.420717 -13.304488 7.130777 15.100808 1.539185 1.078998 0.004988 -0.004939 -1651230.000000 1 0 0
4.297783 1.576612 -0.527723 4.608160 0.351600 1.685567 0.002814 0.000654 -381364.000000 1 0 0
2.783483 -0.497288 -7.419123 7.939676 -0.176792 2.777470 0.002784 -0.002931 117693.000000 1 0 0
7.278483 -11.267988 0.849977 13.441218 -0.997278 1.507517 0.003115 -0.000964 427193.000000 1 0 0
-11.876717 -7.402488 1.376477 14.062287 0.557360 1.472755 0.005640 0.002328 518069.000000 1 0 0
0.183483 -7.009688 9.990977 12.206106 -1.544627 0.611961 0.002575 -0.003113 -1072710.000000 1 0 0
-4.698817 -7.271888 10.633377 13.712328 0.997124 0.683351 0.009834 -0.000577 -899149.000000 1 0 0
11.805383 0.753012 -1.653523 11.944381 0.063699 1.709678 0.005591 -0.000466 768876.000000 1 0 0
6.567283 -9.647488 -7.307323 13.769539 -0.973124 2.130208 -0.001251 -0.004513 -157377.000000 1 0 0
-11.041617 4.790812 3.381177 12.502061 -0.409374 1.296936 -0.002165 -0.001370 526301.000000 1 0 0
5.963683 -9.151288 2.032177 11.110416 -0.993243 1.386853 0.001936 -0.003684 4672080.000000 1 0 0
11.623983 -1.361788 6.007777 13.155411 -0.116622 1.096540 0.015363 -0.008920 -1161910.000000 1 0 0
-6.439517 3.672112 4.101377 8.471899 -0.518255 1.065444 0.002891 -0.002143 -726693.000000 1 0 0
9.511483 6.336012 -3.156523 11.856517 0.587640 1.840273 0.008148 -0.003487 -735360.000000 1 0 0
-2.340717 6.603912 10.991377 13.034607 -1.230168 0.567503 0.000684 -0.001503 201027.000000 1 0 0
1.890883 9.816412 3.023177 10.443992 1.380502 1.277128 -0.000413 -0.001554 -597900.000000 1 0 0
2.854583 6.180112 -5.596223 8.812499 1.138092 2.258847 0.001610 0.000580 -2189930.000000 1 0 0
11.746183 0.161512 -5.778623 13.091653 0.013749 2.027952 0.008928 -0.000471 81749.700000 1 0 0
-2.662317 -12.553288 6.287377 14.290000 1.361812 1.115215 0.007878 -0.002778 -1126730.000000 1 0 0
10.926383 1.948112 -2.799523 11.446323 0.176440 1.817881 0.009348 -0.000522 -21253.100000 1 0 0
-8.909717 5.365912 0.783877 10.430270 -0.542075 1.495571 0.004570 -0.003395 -4206.760000 1 0 0
1.172083 -10.162288 5.593777 11.659169 -1.455967 1.070398 0.002074 -0.003701 3404.810000 1 0 0
9.315683 -5.681788 -1.256523 10.983784 -0.547679 1.685445 0.010847 -0.006584 397032.000000 1 0 0
-7.671917 8.671412 -4.570723 12.447618 -0.846478 1.946790 -0.000958 -0.002766 -321185.000000 1 0 0
-7.480517 -0.077588 -1.609023 7.652000 0.010372 1.782652 0.003822 -0.001160 -1479640.000000 1 0 0
4.182683 8.878412 2.815277 10.210133 1.130529 1.291443 0.002812 -0.002390 1095900.000000 1 0 0
-1.335017 -10.554888 -3.713323 11.268394 1.444981 1.906607 0.010987 -0.002149 -417857.000000 1 0 0
3.252283 7.919012 -3.672723 9.315416 1.181106 1.976062 0.004514 -0.000925 -847683.000000 1 0 0
-4.348317 1.643912 -11.098123 12.032399 -0.361448 2.744924 0.009225 -0.008062 -584447.000000 1 0 0
1.335683 2.860812 11.004277 11.448249 1.133986 0.279407 0.005234 -0.001915 728820.000000 1 0 0
2.084283 5.572612 -8.050223 10.010211 1.212883 2.505126 0.005141 0.000248 94665.000000 1 0 0
15.600083 6.017612 4.032577 17.199882 0.368155 1.334140 0.022551 -0.008522 86433.500000 1 0 0
-4.392317 9.013612 4.701377 11.074321 -1.117362 1.132354 0.004353 -0.001180 -483153.000000 1 0 0
-0.865317 -8.254488 -12.360523 14.888515 1.466348 2.550272 0.001946 -0.002997 -344278.000000 1 0 0
14.326583 -4.164288 -5.305723 15.834866 -0.282874 1.912471 0.028498 -0.001887 -315151.000000 1 0 0
-6.142617 -6.256488 -5.617223 10.412904 0.794582 2.140578 0.016490 -0.004860 553690.000000 1 0 0
-8.947417 2.549512 -12.176023 15.323570 -0.277587 2.489136 0.012315 -0.007868 -368673.000000 1 0 0
10.699383 5.516312 13.757777 18.280671 0.476028 0.718816 0.044378 -0.007154 948696.000000 1 0 0
-0.362317 11.030512 5.604477 12.377949 -1.537961 1.100916 0.002529 0.004534 874118.000000 1 0 0
0.526583 11.157612 -0.586423 11.185414 1.523636 1.623248 0.004600 -0.000782 -179619.000000 1 0 0
-1.536017 -0.543188 3.702177 4.044814 0.339909 0.414569 0.003883 0.000239 737881.000000 1 0 0
-4.809417 6.610512 8.881077 12.070745 -0.941825 0.744020 0.004293 -0.001877 -2212360.000000 1 0 0
3.493683 -8.719888 -11.349323 14.732597 -1.189724 2.450193 0.002479 0.000035 1483620.000000 1 0 0
6.851683 -3.715288 11.983677 14.295365 -0.496869 0.576655 0.008921 -0.001642 12700.800000 1 0 0
-2.513117 -1.912688 -12.487123 12.880309 0.650556 2.893872 0.010237 -0.008897 825778.000000 1 0 0
-16.091317 -4.988888 5.370377 17.682207 0.300639 1.262205 0.026193 -0.010000 1470160.000000 1 0 0
-8.947117 7.333912 5.759877 12.923364 -0.686636 1.108846 -0.004929 -0.003223 -2310770.000000 1 0 0
-12.873817 1.473812 6.031377 14.292823 -0.113985 1.135161 0.000004 -0.000441 381695.000000 1 0 0
-3.502017 3.542612 10.197477 11.349130 -0.791161 0.454399 0.002658 -0.001013 639551.000000 1 0 0
2.014783 -12.203988 -1.090923 12.417198 -1.407180 1.658766 0.004341 -0.001466 -3215040.000000 1 0 0
10.343883 -5.179088 -3.577323 12.108514 -0.464200 1.870711 0.013445 -0.004910 619980.000000 1 0 0
3.163983 -13.355488 1.020377 13.763031 -1.338180 1.496589 0.007441 -0.003293 459002.000000 1 0 0
10.053883 -1.610788 -6.060323 11.849165 -0.158865 2.107674 0.013723 -0.001220 90219.800000 1 0 0
11.995983 -5.295488 -1.540823 13.203028 -0.415711 1.687765 0.015438 -0.004753 407880.000000 1 0 0
1.386883 1.011012 5.956177 6.198519 0.629913 0.280550 0.002883 0.000027 138409.000000 1 0 0
-10.731717 11.693612 6.602077 17.190047 -0.828265 1.176603 0.005056 -0.004219 -682200.000000 1 0 0
4.750683 -14.043788 3.159077 15.158389 -1.244604 1.360853 0.013812 -0.008002 -4380600.000000 1 0 0
5.214883 -3.520588 -1.813823 6.548244 -0.593821 1.851460 0.006648 -0.002940 -1785900.000000 1 0 0
2.094183 -2.857188 -7.722423 8.496172 -0.938295 2.711506 0.002832 -0.004497 2746.860000 1 0 0
-2.836017 14.880812 -8.816823 17.527633 -1.382473 2.097891 0.006979 -0.005276 -915587.000000 1 0 0
-2.340517 5.996312 -8.092023 10.339952 -1.198657 2.469624 0.008404 -0.003036 -195196.000000 1 0 0
2.603683 -3.557288 -11.471023 12.288931 -0.938961 2.774692 0.005896 -0.004835 -2467140.000000 1 0 0
14.593783 2.753112 -2.759823 15.105454 0.186458 1.754532 0.004255 0.006543 642621.000000 1 0 0
-3.501517 13.151712 2.264377 13.796940 -1.310592 1.405929 0.000108 -0.000197 426543.000000 1 0 0
7.990783 -4.930688 13.980477 16.840963 -0.552860 0.591425 0.020780 -0.007839 -1566820.000000 1 0 0
-11.582417 7.227212 2.805677 13.937604 -0.557866 1.368109 -0.000236 -0.005078 1366860.000000 1 0 0
-2.278917 11.856512 4.057277 12.737026 -1.380904 1.246605 0.003823 -0.000323 391062.000000 1 0 0
1.753683 1.475712 0.596077 2.368214 0.699534 1.316361 -0.000002 0.002096 -1379310.000000 1 0 0
-6.880717 8.684812 5.305677 12.284968 -0.900787 1.124216 0.000671 -0.002496 -961049.000000 1 0 0
-1.128717 9.250112 1.090777 9.382343 -1.449375 1.454274 0.003518 0.000924 451943.000000 1 0 0
4.730783 12.770412 -8.418223 16.010315 1.216022 2.124452 0.009188 -0.018829 291644.000000 1 0 0
8.974383 6.912312 7.155377 13.398471 0.656321 1.007419 0.001053 -0.004285 -1418210.000000 1 0 0
7.214183 -13.685688 2.917077 15.743311 -1.085678 1.384429 0.015581 -0.007475 314846.000000 1 0 0
4.203383 -13.297788 -1.226523 14.000142 -1.264638 1.658517 -0.000010 0.003341 -2937250.000000 1 0 0
12.024283 -11.765788 -4.619423 17.445808 -0.774533 1.838779 0.034350 -0.006985 -928802.000000 1 0 0
3.021483 -0.057188 -2.058223 3.656352 -0.018925 2.168707 0.002189 0.000405 1754350.000000 1 0 0
-13.658417 -3.211888 -10.748123 17.674578 0.230962 2.224476 0.023116 -0.011588 495171.000000 1 0 0
-6.558517 13.693112 4.988277 15.981188 -1.124118 1.253358 0.009042 -0.008067 365326.000000 1 0 0
7.313583 -4.204688 -0.646923 8.460875 -0.521770 1.647332 0.005841 -0.003527 -1526060.000000 1 0 0
11.786583 2.167512 -7.317123 14.041436 0.181865 2.118946 0.010277 0.003840 89396.800000 1 0 0
-7.513017 -4.632088 9.781777 13.175160 0.552494 0.734090 0.010053 -0.001836 22102.400000 1 0 0
1.136783 2.867512 8.535877 9.076128 1.193367 0.346769 0.002313 -0.000964 -1933230.000000 1 0 0
1.547783 8.092912 -8.695123 11.978982 1.381827 2.383087 0.003970 -0.002317 -546844.000000 1 0 0
-8.672517 -2.064688 -5.504423 10.477316 0.233722 2.123941 0.015271 -0.004662 -2220510.000000 1 0 0
6.684583 -0.451588 7.033977 9.714135 -0.067454 0.761072 0.005259 -0.000663 108508.000000 1 0 0
-10.891517 6.486412 7.105977 14.532501 -0.537139 1.059886 -0.002486 -0.002164 205112.000000 1 0 0
-5.920417 11.106512 4.882877 13.499942 -1.081053 1.200710 0.001616 -0.003263 -428358.000000 1 0 0
5.975383 -1.188788 -6.983423 9.267503 -0.196383 2.424225 0.001406 -0.000722 -1156090.000000 1 0 0
4.542483 -5.643488 11.427777 13.530603 -0.893070 0.565002 0.003635 -0.002156 -1587910.000000 1 0 0
-9.028017 -7.416288 2.763177 12.005897 0.687699 1.338563 0.008434 0.001021 -1997430.000000 1 0 0
-1.245917 12.767912 -9.350223 15.874462 -1.473522 2.200630 0.005408 -0.002386 357976.000000 1 0 0
-4.642817 9.271712 -2.338623 10.629654 -1.106548 1.792620 0.000752 -0.002061 155050.000000 1 0 0
-3.261417 9.684312 -0.186323 10.220443 -1.245953 1.589028 0.005132 -0.001087 -1298140.000000 1 0 0
-3.504517 10.677512 -6.443823 12.954294 -1.253660 2.091427 0.000575 0.002944 752069.000000 1 0 0
4.941983 -4.928388 0.358977 6.988639 -0.784021 1.519408 0.004995 -0.002872 -2284420.000000 1 0 0
-2.266317 2.870712 -10.815223 11.416927 -0.902514 2.815487 0.011428 -0.005412 -754653.000000 1 0 0
-3.582417 12.013812 -2.211223 12.730078 -1.281000 1.745383 -0.002261 0.003262 -1639670.000000 1 0 0
-0.236817 0.300212 0.035277 0.383997 -0.902902 1.478798 0.001792 -0.000082 -1299720.000000 1 0 0
-4.907417 -1.697388 0.181877 5.195859 0.333002 1.535785 0.002162 -0.000925 274476.000000 1 0 0
2.476283 2.422212 -2.393923 4.210695 0.774360 2.175519 -0.002583 0.000421 1075380.000000 1 0 0
6.065083 -9.725588 8.464977 14.248794 -1.013189 0.934670 0.002933 0.001121 -373316.000000 1 0 0
-4.272617 -5.463288 6.659677 9.615304 0.907091 0.805692 0.005619 -0.000880 55248.500000 1 0 0
-6.309117 5.262712 -11.991523 14.536083 -0.695216 2.540908 0.002810 -0.005446 1164090.000000 1 0 0
-12.793917 3.073212 7.896777 15.345619 -0.235742 1.030261 0.005549 -0.000055 506513.000000 1 0 0
4.706083 -7.339188 -5.083023 10.091978 -1.000613 2.098638 -0.000918 -0.006433 953403.000000 1 0 0
-6.134317 2.475612 -0.916923 6.678266 -0.383578 1.708531 0.005564 -0.001619 -596963.000000 1 0 0
-6.793217 -2.746988 -14.447823 16.199794 0.384270 2.672220 0.009556 -0.007320 -664278.000000 1 0 0
2.817483 -6.091188 0.938777 6.776584 -1.137554 1.431817 0.001221 0.000546 -63529.500000 1 0 0
4.860883 -7.857888 13.021677 15.966799 -1.016813 0.617122 0.006477 -0.002401 -95991.500000 1 0 0
-10.010717 -1.654888 8.139577 13.007914 0.163830 0.894716 0.007002 0.001316 -23149.100000 1 0 0
-4.500317 13.318812 -0.079323 14.058801 -1.244949 1.576439 -0.002959 0.002314 252216.000000 1 0 0
6.865783 2.273812 -4.517323 8.527333 0.319812 2.129098 0.002551 0.001997 -712638.000000 1 0 0
4.990883 4.563412 0.063477 6.762963 0.740687 1.561410 0.001494 0.000801 -1361840.000000 1 0 0
-5.877517 12.059412 1.817577 13.538028 -1.117296 1.436133 0.002295 -0.005357 1804200.000000 1 0 0
6.520383 -7.274188 6.646177 11.815282 -0.839989 0.973382 0.001663 -0.002072 -1085890.000000 1 0 0
-0.274917 4.993812 7.878677 9.332057 -1.515800 0.565614 -0.000509 0.000085 -1485170.000000 1 0 0
-5.869017 -3.408688 -1.467323 6.943886 0.526178 1.783713 0.008941 -0.002634 -1228640.000000 1 0 0
2.335183 -6.454888 -5.139923 8.575399 -1.223675 2.213523 0.001959 -0.003329 -1596250.000000 1 0 0
-14.530117 -5.000088 -3.746523 15.816498 0.331426 1.809944 0.012725 -0.008534 639272.000000 1 0 0
-12.557917 -5.141788 -6.254823 14.941957 0.388623 2.002708 0.013834 -0.011094 -1059820.000000 1 0 0
-14.899917 -3.893888 -1.291723 15.454399 0.255619 1.654477 0.008485 -0.003251 344868.000000 1 0 0
11.787083 2.925912 8.736077 14.960459 0.243312 0.947217 0.013811 -0.005795 -1030700.000000 1 0 0
8.809683 -6.510588 7.683477 13.380363 -0.636441 0.959126 0.009227 -0.004428 141426.000000 1 0 0
-8.969817 -1.666888 -9.648423 13.278863 0.183737 2.384157 0.013628 -0.008426 86675.000000 1 0 0
-8.802117 5.106312 -3.946723 10.914591 -0.525676 1.940780 0.006896 -0.004081 -477229.000000 1 0 0
-4.021317 -6.315288 4.130077 8.550520 1.003786 1.066695 0.009897 0.000766 -1296320.000000 1 0 0
-0.160517 -9.340988 3.517277 9.982538 1.553614 1.210723 0.005720 -0.002748 994451.000000 1 0 0
7.889483 -10.517988 3.314177 13.559343 -0.927235 1.323875 0.005057 -0.004615 118732.000000 1 0 0
-0.022817 6.650212 9.707677 11.767108 -1.567365 0.600622 -0.000183 -0.003541 43598.800000 1 0 0
0.037583 3.537612 -9.750623 10.372596 1.560173 2.793535 0.012147 -0.005284 -261283.000000 1 0 0
4.576883 -3.082688 10.952677 12.264256 -0.592742 0.466703 0.003096 -0.002036 -2321580.000000 1 0 0
8.578983 -9.089188 1.367577 12.573089 -0.814267 1.461811 0.005898 -0.003131 -129210.000000 1 0 0
-0.240417 -0.422988 11.411677 11.422044 1.053954 0.042609 0.009505 -0.005000 -1092860.000000 1 0 0
11.043183 5.944812 11.323577 16.897221 0.493835 0.836393 0.026930 -0.011643 -115897.000000 1 0 0
-6.289017 -2.986588 -11.777223 13.681170 0.443358 2.607704 0.011348 -0.009025 326469.000000 1 0 0
-1.578117 2.742512 8.348377 8.927890 -1.048641 0.362285 0.003597 -0.000585 234670.000000 1 0 0
-1.637317 13.526612 -6.844623 15.247914 -1.450338 2.036318 0.003697 0.000073 375414.000000 1 0 0
7.796083 3.170912 9.734477 12.868319 0.386296 0.712900 0.007577 -0.001200 306356.000000 1 0 0
6.488383 8.442512 -7.969323 13.299820 0.915537 2.213304 0.009053 -0.006245 86156.400000 1 0 0
6.662483 -3.042788 -3.956223 8.324599 -0.428416 2.066039 0.005392 -0.003453 -2779430.000000 1 0 0
2.017983 8.244212 1.059877 8.553515 1.330741 1.446566 0.000227 0.002232 1074690.000000 1 0 0
-17.619117 6.288212 6.380977 19.765924 -0.342806 1.242081 0.029135 -0.003026 440237.000000 1 0 0
-14.691917 3.151612 -10.307623 18.221750 -0.211311 2.172050 0.042319 -0.003163 -513760.000000 1 0 0
-18.398017 -0.000188 -4.405223 18.918060 0.000010 1.805812 0.033802 -0.004385 121846.000000 1 0 0
-13.094517 7.864012 0.046477 15.274528 -0.540829 1.567754 0.009231 -0.002086 620226.000000 1 0 0
-12.690917 -4.385688 -12.862823 18.594242 0.332729 2.334725 0.029688 -0.006782 -1037750.000000 1 0 0
-17.530117 -0.588288 -8.593023 19.531798 0.033546 2.026340 0.050767 -0.010701 -511086.000000 1 0 0
-16.781217 -2.246288 -2.124223 17.063627 0.133066 1.695608 0.022560 -0.006405 -343414.000000 1 0 0
-15.453217 3.982612 1.672877 16.045611 -0.252232 1.466349 0.006590 0.003521 -823064.000000 1 0 0
-13.213817 5.802412 4.343677 15.071180 -0.413767 1.278438 -0.003086 0.000623 -438432.000000 1 0 0
-10.137117 14.121112 2.644077 17.582892 -0.948178 1.419846 0.019762 -0.011553 115376.000000 1 0 0
-11.824117 2.394312 -6.516023 13.711346 -0.199792 2.066020 0.008365 0.001092 337812.000000 1 0 0
-15.906017 10.554812 3.865977 19.476940 -0.585858 1.370979 0.018381 -0.008495 -809327.000000 1 0 0
-12.982517 1.133212 -8.625323 15.627735 -0.087067 2.155466 0.014540 -0.002245 498342.000000 1 0 0
-12.292517 14.237112 4.020777 19.234551 -0.858566 1.360204 0.030083 -0.018770 324086.000000 1 0 0
-10.494117 11.007412 -1.208823 15.256174 -0.809266 1.650114 0.013050 -0.008376 137969.000000 1 0 0
-16.959917 5.779512 8.825677 19.973335 -0.328433 1.113111 0.026744 -0.004787 -139242.000000 1 0 0
-11.909217 12.527912 -9.257523 19.608155 -0.810711 2.062497 0.038346 -0.016182 -767833.000000 1 0 0
-17.217917 -0.536088 3.137677 17.509685 0.031125 1.390626 0.020030 -0.003245 685275.000000 1 0 0
-13.361417 14.645112 -0.225523 19.825681 -0.831202 1.582172 0.046266 -0.018156 25167.800000 1 0 0
-16.767117 4.752612 -10.370723 20.279926 -0.276203 2.107585 0.082089 -0.010960 970920.000000 1 0 0
-11.839017 7.665412 -8.980923 16.720581 -0.574595 2.137813 0.016873 -0.003369 -146601.000000 1 0 0
-14.807117 13.447712 -2.015923 20.103622 -0.737323 1.671242 0.052126 -0.017018 462210.000000 1 0 0
-11.798517 10.581812 -5.484123 16.770669 -0.731087 1.903931 0.035945 -0.012738 633690.000000 1 0 0
-17.763117 2.734012 -0.849123 17.992336 -0.152717 1.618007 0.030135 -0.002015 -333566.000000 1 0 0
-9.510517 15.294812 0.502677 18.017599 -1.014492 1.542893 0.022316 -0.007181 155205.000000 1 0 0
-8.026317 13.135012 -3.557523 15.798932 -1.022282 1.797919 0.001292 -0.001480 -1902270.000000 1 0 0
-17.999817 11.565512 2.621477 21.555199 -0.571109 1.448878 0.080181 0.002662 -137463.000000 1 0 0
-8.033017 15.595012 -7.389123 19.035044 -1.095140 1.969458 0.038730 -0.025972 -177744.000000 1 0 0
-6.241017 15.263612 -5.421223 17.358508 -1.182657 1.888419 0.001566 0.000750 -510879.000000 1 0 0
-17.426017 5.139012 -0.115223 18.168346 -0.286776 1.577138 0.036767 0.002355 483490.000000 1 0 0
-5.346317 12.213912 -12.208623 18.077976 -1.158198 2.312210 -0.001728 -0.015226 -1158950.000000 1 0 0
-11.172117 3.795512 -11.377723 16.391299 -0.327497 2.338010 0.014722 -0.005801 -193282.000000 1 0 0
-11.900217 10.965312 1.097777 16.219073 -0.744534 1.503060 0.012057 -0.009359 250795.000000 1 0 0
-13.016517 0.172312 -11.119323 17.120127 -0.013237 2.277708 0.018560 -0.006883 1245520.000000 1 0 0
-14.079417 -2.189688 -13.089723 19.348528 0.154288 2.313827 0.037629 -0.010220 193619.000000 1 0 0
-18.831217 -2.425288 -3.717723 19.347305 0.128086 1.764156 0.030854 -0.007848 -768931.000000 1 0 0
-18.385817 4.691312 -5.081023 19.643407 -0.249829 1.832434 0.060639 -0.011310 -359448.000000 1 0 0
-8.234017 15.398712 -2.305723 17.613509 -1.079759 1.702080 0.013269 -0.001359 128233.000000 1 0 0
-16.218717 9.048112 -5.385423 19.336956 -0.508874 1.853033 0.049773 -0.010816 62533.000000 1 0 0
-18.232417 1.656912 2.126777 18.430669 -0.090628 1.455145 0.035500 -0.009155 -95452.300000 1 0 0
-15.868317 -2.664588 -8.800823 18.340065 0.166367 2.071301 0.025811 -0.008372 195280.000000 1 0 0
-9.604717 10.513412 -7.040623 15.885615 -0.830535 2.029970 0.016701 -0.011192 321416.000000 1 0 0
-13.881717 11.709212 -7.517223 19.654932 -0.700708 1.963253 0.053634 -0.032912 245042.000000 1 0 0
-11.201217 6.436012 -3.900523 13.494576 -0.521520 1.864024 0.006579 -0.003392 -497967.000000 1 0 0
-13.169017 4.883312 -12.573723 18.851213 -0.355099 2.300969 0.052994 -0.013712 -948867.000000 1 0 0
-17.674817 9.055812 2.705077 20.043062 -0.473484 1.435420 0.035888 -0.008260 868194.000000 1 0 0
-13.308417 8.764812 -6.507823 17.213008 -0.582391 1.958513 0.025048 -0.005239 -904693.000000 1 0 0
-15.941517 6.925312 -3.839323 17.799784 -0.409822 1.788200 0.038183 -0.002459 -1321800.000000 1 0 0
-15.059117 -0.246688 -9.427823 17.768559 0.016380 2.130093 0.036091 -0.006411 98882.600000 1 0 0
-10.164417 5.748212 -6.067323 13.159396 -0.514683 2.049990 0.004081 -0.003185 469522.000000 1 0 0
-12.799017 12.141012 -1.029423 17.671409 -0.759021 1.629083 0.026142 -0.012356 81880.400000 1 0 0
-10.436317 3.588612 -13.887123 17.738292 -0.331193 2.470093 0.012957 -0.009296 241545.000000 1 0 0
-11.166817 6.358012 -12.036723 17.606953 -0.517590 2.323528 0.020621 -0.006693 -619834.000000 1 0 0
-5.825017 11.622212 -14.718023 19.637383 -1.106192 2.418088 0.009129 -0.019920 -436573.000000 1 0 0
-15.586717 13.202812 3.552077 20.733481 -0.702782 1.398626 0.031401 -0.020072 308828.000000 1 0 0
-15.219117 11.119512 -3.061323 19.095464 -0.630987 1.731808 0.051676 -0.007654 578534.000000 1 0 0
-18.335317 7.764312 -4.685523 20.455378 -0.400567 1.801909 0.061216 -0.009890 882060.000000 1 0 0
-4.003917 16.129912 -10.878523 19.863224 -1.327485 2.150375 0.019430 -0.014322 -249635.000000 1 0 0
-15.825917 4.388512 -4.554823 17.043036 -0.270502 1.841339 0.035110 -0.000678 670297.000000 1 0 0
-18.858417 -1.783988 -6.189323 19.928126 0.094318 1.886602 0.046430 -0.009217 498273.000000 1 0 0
-10.669617 8.549112 -5.707323 14.815585 -0.675507 1.966247 0.013850 -0.003674 2003370.000000 1 0 0
-11.592417 13.705512 -6.960023 19.252717 -0.868733 1.940682 0.038300 -0.007175 119835.000000 1 0 0
-9.403217 10.551512 -4.411723 14.806018 -0.842880 1.873360 0.004019 -0.003892 495459.000000 1 0 0
-11.097817 6.226012 -0.296423 12.728418 -0.511259 1.594087 0.004685 -0.004619 191981.000000 1 0 0
-14.699017 9.319512 -1.415723 17.461920 -0.565061 1.651960 0.033182 -0.003686 286984.000000 1 0 0
-18.516317 3.239812 4.833477 19.409092 -0.173217 1.319116 0.032951 -0.013612 160721.000000 1 0 0
-14.920717 12.723012 0.481477 19.614654 -0.706064 1.546247 0.033648 -0.020561 178158.000000 1 0 0
-16.877917 2.605912 -9.029723 19.318145 -0.153188 2.057168 0.051435 -0.006101 -47612.600000 1 0 0
-9.116617 8.483312 -8.864823 15.286084 -0.749430 2.189436 0.007487 -0.001272 -1762620.000000 1 0 0
-17.654817 4.573512 -2.632723 18.426633 -0.253480 1.714163 0.029008 -0.001747 810541.000000 1 0 0
-13.675417 5.828912 -4.565623 15.551146 -0.402914 1.868774 0.021867 -0.000276 -1257150.000000 1 0 0
-12.129517 9.511412 3.088077 15.720316 -0.665004 1.373072 0.002501 -0.007233 589456.000000 1 0 0
-17.522517 2.417712 -4.050023 18.146256 -0.137112 1.795880 0.026458 -0.001954 813177.000000 1 0 0
-11.309617 1.497312 -12.572023 16.976605 -0.131627 2.404685 0.020478 -0.006654 402068.000000 1 0 0
-11.185217 11.925412 3.485277 16.717406 -0.817416 1.360774 0.007176 -0.010768 370933.000000 1 0 0
-16.603917 13.297712 -3.857423 21.619410 -0.675276 1.750181 0.067748 -0.012371 821055.000000 1 0 0
-11.107417 3.967412 -4.558023 12.644787 -0.343062 1.939564 0.005287 -0.001195 174231.000000 1 0 0
-11.264917 14.989112 -9.176523 20.875354 -0.926310 2.025935 0.050245 -0.024634 150606.000000 1 0 0
-15.637417 7.075212 -0.378523 17.167723 -0.424893 1.592847 0.033349 0.000923 -784884.000000 1 0 0
-12.839517 8.350212 -4.062023 15.845481 -0.576623 1.830043 0.024070 -0.006546 933735.000000 1 0 0
-19.293317 1.888112 -5.877123 20.256792 -0.097553 1.865160 0.063252 -0.010548 -399172.000000 1 0 0
-12.505417 10.129012 -8.915223 18.397378 -0.680791 2.076693 0.028925 -0.016732 637948.000000 1 0 0
-16.835117 10.843812 -1.006923 20.050519 -0.572230 1.621037 0.050994 -0.010797 741190.000000 1 0 0
-10.694117 6.448612 -14.504623 19.139823 -0.542627 2.430768 0.029786 -0.018793 50155.600000 1 0 0
-13.983117 12.994712 -4.377623 19.584526 -0.748777 1.796225 0.053202 -0.011954 423354.000000 1 0 0
-18.127717 7.640812 -0.241123 19.673695 -0.398901 1.583053 0.052197 -0.001929 202953.000000 1 0 0
-12.875017 6.562312 -2.158423 14.611255 -0.471372 1.719062 0.009105 -0.001318 366081.000000 1 0 0
-13.728817 8.475012 -10.621823 19.316556 -0.553054 2.153019 0.030032 -0.012015 -837405.000000 1 0 0
-15.119917 1.345712 -0.955923 15.209754 -0.088769 1.633687 0.009846 0.001181 -460849.000000 1 0 0
-13.419317 2.763812 -2.506223 13.928312 -0.203118 1.751719 0.009628 0.000856 -31229.700000 1 0 0
-11.275417 9.304712 -10.975223 18.280268 -0.689932 2.214780 0.022111 -0.014484 -335672.000000 1 0 0
-15.288117 4.368512 -8.094223 17.841717 -0.278329 2.041674 0.029590 -0.005444 704672.000000 1 0 0
-18.275217 10.288512 4.940577 21.546376 -0.512751 1.339438 0.067513 -0.028159 761756.000000 1 0 0
-15.390317 6.244712 -6.276123 17.755224 -0.385458 1.932085 0.039300 -0.000680 690078.000000 1 0 0
-7.718117 11.292112 -12.996023 18.867372 -0.971233 2.330642 0.003167 -0.015147 -787176.000000 1 0 0
-16.921817 9.093812 -2.894523 19.427392 -0.493119 1.720345 0.047814 -0.007427 1529960.000000 1 0 0
-20.816917 -0.986388 -4.618923 21.345993 0.047349 1.788905 0.062467 -0.014987 1124160.000000 1 0 0
-15.425317 4.290112 4.157777 16.541843 -0.271266 1.316722 0.008275 0.000070 -359857.000000 1 0 0
-7.004917 12.603412 -9.554923 17.297728 -1.063515 2.156013 0.004431 -0.008166 -168112.000000 1 0 0
-17.186317 1.389812 5.908177 18.226564 -0.080692 1.240681 0.026520 -0.012605 291967.000000 1 0 0
-10.269317 14.094112 -3.174223 17.725082 -0.941116 1.750848 0.029052 -0.015619 -1257210.000000 1 0 0
-9.990717 8.475312 -13.091423 18.521087 -0.703517 2.355816 0.003534 -0.011390 -475875.000000 1 0 0
-13.750317 11.518312 2.796777 18.153916 -0.697296 1.416121 0.020734 -0.011863 -997019.000000 1 0 0
-16.845617 6.651512 1.877077 18.208263 -0.376060 1.467524 0.020555 -0.000036 819062.000000 1 0 0
-9.478917 13.267812 -8.584323 18.427569 -0.950452 2.055381 0.030497 -0.019916 275085.000000 1 0 0
-5.655117 9.704912 -12.926723 17.125006 -1.043190 2.426214 0.002327 -0.009448 -677816.000000 1 0 0
-15.867917 1.695912 3.195977 16.275170 -0.106473 1.373140 0.003173 0.002440 -889869.000000 1 0 0
-18.657217 -4.920988 4.580777 19.831575 0.257885 1.337707 0.048715 -0.013842 -62846.400000 1 0 0
-5.245117 14.389112 -9.217323 17.875033 -1.221245 2.112566 0.005315 -0.008184 184227.000000 1 0 0
-15.501417 -0.862088 -6.966223 17.016621 0.055556 1.992568 0.018281 -0.004233 540941.000000 1 0 0
-8.979017 10.915912 -9.607623 17.090532 -0.882449 2.167792 0.006409 -0.015624 310559.000000 1 0 0
-16.770917 1.247912 -6.154023 17.907901 -0.074272 1.921596 0.021891 -0.000198 -581727.000000 1 0 0
-11.198817 8.510512 -1.649523 14.162035 -0.649837 1.687536 0.011216 -0.009231 -1029470.000000 1 0 0
-10.700317 10.956612 -12.802923 19.961437 -0.797232 2.267096 0.025833 -0.016290 -517095.000000 1 0 0
-14.189117 11.576212 -10.195323 20.959111 -0.684332 2.078805 0.065554 -0.030025 -241709.000000 1 0 0
-13.140017 5.784612 -7.680523 16.282267 -0.414698 2.062026 0.023054 0.000688 460791.000000 1 0 0
-8.757517 15.196512 -4.952923 18.225244 -1.047997 1.846019 0.020771 -0.012640 167923.000000 1 0 0
-8.673417 6.134812 -12.923423 16.729582 -0.615616 2.453548 0.007234 -0.008737 -1294750.000000 1 0 0
-16.423117 7.382212 4.232977 18.496862 -0.422439 1.339902 0.024694 -0.003230 -741932.000000 1 0 0
-12.720717 5.524112 -10.215423 17.224613 -0.409689 2.205664 0.025771 -0.003721 359528.000000 1 0 0
-12.500317 9.101312 -13.219823 20.343439 -0.629328 2.278160 0.048419 -0.025726 -385037.000000 1 0 0
-10.766817 5.223812 -8.527323 14.694481 -0.451719 2.189903 0.007026 -0.001653 -515999.000000 1 0 0
-17.864117 -4.485588 -2.529423 18.591534 0.246009 1.707272 0.025639 -0.011582 467418.000000 1 0 0
-8.975717 13.165512 -11.037723 19.383640 -0.972417 2.176615 0.034202 -0.020426 -90719.200000 1 0 0
-15.044717 6.147412 6.145177 17.375194 -0.387906 1.209299 0.010850 -0.002727 -428101.000000 1 0 0
-16.528617 -3.329488 -4.489723 17.448160 0.198778 1.831042 0.023927 -0.009332 283244.000000 1 0 0
-11.172617 -1.103788 -12.506023 16.806139 0.098475 2.410034 0.016213 -0.008110 523151.000000 1 0 0
-15.394917 6.956712 -8.604823 18.958963 -0.424419 2.041895 0.035850 0.001687 195380.000000 1 0 0
-15.003817 9.236012 1.038777 17.649291 -0.551795 1.511906 0.027598 -0.006694 -309298.000000 1 0 0
-19.300317 5.168212 8.010677 21.526346 -0.261640 1.189490 0.061076 -0.024468 -682969.000000 1 0 0
-16.348917 0.341912 0.967677 16.381098 -0.020910 1.511689 0.010685 -0.002404 -673189.000000 1 0 0
-17.295517 3.803912 7.158477 19.101006 -0.216490 1.186648 0.012971 -0.005130 539814.000000 1 0 0
-15.424717 3.946912 -1.470723 15.989466 -0.250507 1.662907 0.013791 -0.000110 -1002050.000000 1 0 0
-10.778017 13.109912 0.285177 16.974002 -0.882708 1.553995 0.021955 -0.017197 -696115.000000 1 0 0
-13.573217 3.306112 0.017277 13.970071 -0.238924 1.569560 0.007363 0.002405 -292452.000000 1 0 0
-15.208017 0.012812 -4.448323 15.845236 -0.000842 1.855357 0.017701 0.001022 -794250.000000 1 0 0
-18.800517 6.810512 3.544577 20.307795 -0.347547 1.395355 0.039681 -0.005231 -131316.000000 1 0 0
-14.167817 1.314712 -6.311223 15.565572 -0.092531 1.988279 0.017242 0.000293 507062.000000 1 0 0
-14.096617 11.891112 5.311177 19.191710 -0.700734 1.290393 0.016266 -0.018294 87909.600000 1 0 0
17.727483 5.364612 6.173177 19.523085 0.293855 1.249076 0.039731 -0.016967 368761.000000 1 0 0
18.478283 7.307312 -0.033723 19.870704 0.376581 1.572493 0.031176 -0.001973 447517.000000 1 0 0
16.533583 5.198912 8.556277 19.328682 0.304656 1.112219 0.040647 -0.012154 179473.000000 1 0 0
11.877383 12.219412 10.987477 20.275870 0.799591 0.998101 0.042435 -0.018234 727951.000000 1 0 0
-2.390217 16.228412 -0.521923 16.411791 -1.424562 1.602603 -0.000840 -0.003114 -21331.800000 1 0 0
15.103483 12.712412 3.078477 19.979931 0.699648 1.416102 0.042852 -0.008829 271056.000000 1 0 0
13.645983 11.661012 6.734277 19.171399 0.707123 1.211872 0.034902 -0.005377 742735.000000 1 0 0
-0.602117 15.888212 8.566577 18.060566 -1.532917 1.076599 0.013400 -0.005402 -180925.000000 1 0 0
0.801083 12.849812 9.363377 15.919555 1.508535 0.942004 0.008602 -0.000634 -658245.000000 1 0 0
0.697683 15.635512 -3.894523 16.128338 1.526204 1.814678 0.003739 -0.000528 202367.000000 1 0 0
5.490683 10.466212 13.444077 17.900626 1.087655 0.721161 0.027827 -0.013141 -337796.000000 1 0 0
-1.420417 16.413412 -2.785623 16.708601 -1.484471 1.738296 0.003452 0.000015 -1320640.000000 1 0 0
8.600583 10.117212 3.247877 13.670286 0.866248 1.330916 0.008462 -0.003514 299638.000000 1 0 0
12.792083 13.579712 -4.880723 19.283864 0.815256 1.826678 0.068884 -0.019515 850280.000000 1 0 0
2.546383 11.494812 7.857177 14.154504 1.352792 0.982312 0.009166 0.002370 36692.700000 1 0 0
-0.284517 14.966912 -8.652623 17.290381 -1.551789 2.094892 0.003520 -0.004353 -1327830.000000 1 0 0
2.433183 15.954612 0.206377 16.140403 1.419456 1.558010 0.016137 -0.011381 -574482.000000 1 0 0
1.899783 13.302012 5.368577 14.469772 1.428936 1.190689 0.007405 0.004954 634171.000000 1 0 0
17.627383 9.203312 -1.589523 19.948738 0.481173 1.650561 0.016940 0.001742 495207.000000 1 0 0
-7.155617 15.076112 7.247477 18.193898 -1.127648 1.161083 0.012639 -0.010767 -177271.000000 1 0 0
8.572683 15.906812 -0.143223 18.070364 1.076491 1.578722 0.007668 -0.008809 -514376.000000 1 0 0
15.733683 10.473512 2.021377 19.008661 0.587315 1.464255 0.033491 -0.004351 369445.000000 1 0 0
14.181183 7.402212 8.635777 18.178981 0.481072 1.075785 0.030143 -0.013743 -1898100.000000 1 0 0
4.015683 18.535012 -1.755823 19.046136 1.357440 1.663115 0.021468 -0.019322 -284871.000000 1 0 0
-0.666217 17.687112 -4.804623 18.340179 -1.533147 1.835862 0.010954 0.006310 527692.000000 1 0 0
1.365083 13.717212 -0.711723 13.803329 1.471607 1.622381 0.005379 -0.004171 325613.000000 1 0 0
10.274483 14.724512 4.235177 18.447574 0.961561 1.339151 0.017735 -0.011472 -161096.000000 1 0 0
-1.672417 15.316512 -5.152423 16.246229 -1.462037 1.893515 0.002048 0.000453 283754.000000 1 0 0
15.193383 8.721612 -6.103623 18.551539 0.521113 1.906050 0.045941 -0.011013 -153161.000000 1 0 0
-2.357717 18.403312 0.842777 18.572856 -1.443377 1.525404 0.003613 -0.008641 -420275.000000 1 0 0
-3.705317 19.401312 3.359177 20.035577 -1.382086 1.402340 0.007507 -0.014927 187776.000000 1 0 0
1.702583 17.730412 -2.773823 18.026657 1.475064 1.725283 0.009757 -0.007456 -521268.000000 1 0 0
2.899883 12.172312 3.319177 12.945711 1.336920 1.311509 0.003351 -0.000709 -860544.000000 1 0 0
-2.568517 16.132612 2.039777 16.462659 -1.412909 1.446574 0.001149 -0.006227 -880713.000000 1 0 0
11.845483 12.740112 -2.597323 17.588974 0.821770 1.719006 0.027416 -0.005074 318215.000000 1 0 0
7.280383 11.676712 4.738777 14.553542 1.013279 1.239140 0.002904 -0.000661 54546.100000 1 0 0
7.095583 15.608512 1.931377 17.254076 1.144126 1.458624 0.006156 -0.010495 -377635.000000 1 0 0
5.512583 12.116112 10.149477 16.739194 1.143809 0.919359 0.015798 -0.004221 1110960.000000 1 0 0
-1.312217 14.143512 3.115177 14.541842 -1.478282 1.354901 0.004319 -0.003994 -1017180.000000 1 0 0
4.605483 16.035012 1.502877 16.750842 1.291110 1.480956 0.010389 -0.015402 -2853160.000000 1 0 0
7.203883 12.954612 11.996577 19.069236 1.063292 0.890393 0.028543 -0.013552 183681.000000 1 0 0
0.752383 17.260512 -9.310223 19.625789 1.527234 2.065064 0.010006 -0.005247 212641.000000 1 0 0
9.789083 9.790312 15.424277 20.726425 0.785461 0.731484 0.053276 -0.019942 -335024.000000 1 0 0
13.594983 7.550812 -0.102023 15.551487 0.506989 1.577357 0.009015 -0.001062 -202187.000000 1 0 0
12.205183 13.718312 -0.113223 18.362227 0.843701 1.576962 0.024047 -0.006994 345568.000000 1 0 0
9.421783 12.402812 3.399177 15.942213 0.921148 1.355928 0.007923 0.003122 -867628.000000 1 0 0
-0.625117 12.816212 0.754677 12.853622 -1.522059 1.512049 0.005000 -0.001750 -535279.000000 1 0 0
15.981883 7.280712 -0.824923 17.581520 0.427468 1.617733 0.019923 0.002612 -1420090.000000 1 0 0
-4.125517 18.436912 -2.351123 19.038576 -1.350659 1.694605 0.003203 -0.001435 -331274.000000 1 0 0
11.536283 9.148112 -3.248223 15.077292 0.670449 1.787937 0.020752 -0.006881 145254.000000 1 0 0
14.814683 9.626512 7.699577 19.272469 0.576231 1.159812 0.037485 -0.010922 169160.000000 1 0 0
4.469683 13.684412 4.689477 15.140422 1.255095 1.255885 0.007200 0.002497 -250243.000000 1 0 0
2.144083 15.931912 5.584877 17.018042 1.437022 1.236427 0.007456 -0.000736 164968.000000 1 0 0
6.285883 18.233912 5.518077 20.060833 1.238819 1.292137 0.029281 -0.028621 220040.000000 1 0 0
10.742383 17.120712 -0.777023 20.226748 1.010437 1.609221 0.032934 -0.013905 -853624.000000 1 0 0
10.113183 13.492612 -4.501023 17.452400 0.927593 1.831647 0.036769 -0.011237 2020460.000000 1 0 0
16.633483 7.960612 2.322677 18.585987 0.446373 1.445499 0.025905 -0.004970 -44721.000000 1 0 0
3.983583 13.976812 -0.503223 14.542126 1.293144 1.605408 0.009085 -0.007902 -305271.000000 1 0 0
5.736483 13.195612 -2.428223 14.592041 1.160716 1.737981 0.007663 -0.005133 -175119.000000 1 0 0
-6.230817 16.957712 -3.030023 18.318518 -1.218677 1.736968 0.003358 0.004618 814350.000000 1 0 0
18.211183 10.001212 2.483377 20.924593 0.502213 1.451834 0.058167 -0.007822 58664.700000 1 0 0
8.032083 12.853912 9.478677 17.876877 1.012287 1.011936 0.024864 -0.011665 1529990.000000 1 0 0
-2.566317 15.812112 6.695977 17.362171 -1.409899 1.174868 0.007835 -0.005187 732555.000000 1 0 0
11.168483 15.832512 6.401077 20.405324 0.956446 1.251713 0.035821 -0.018772 -262823.000000 1 0 0
13.575783 11.934012 1.196477 18.115024 0.721128 1.504699 0.033975 -0.003767 -570649.000000 1 0 0
17.543483 7.907212 -5.503923 20.014769 0.423453 1.849379 0.014330 0.021439 -61744.200000 1 0 0
9.618583 9.255012 8.013777 15.568976 0.766137 1.030107 0.014494 -0.007405 39639.600000 1 0 0
-2.118217 14.107912 -1.982123 14.403084 -1.421766 1.708852 -0.000033 0.000502 442129.000000 1 0 0
10.976883 11.596312 0.692277 15.982667 0.812832 1.527469 0.011100 0.001352 190815.000000 1 0 0
11.789083 9.677812 -0.649723 15.266455 0.687363 1.613368 0.010989 -0.001060 -2111010.000000 1 0 0
-0.338017 16.513912 11.118477 19.910903 -1.550331 0.978327 0.021400 0.003494 -279359.000000 1 0 0
1.989483 20.301612 -1.924123 20.489405 1.473112 1.664843 0.026886 -0.007798 -162128.000000 1 0 0
9.434883 14.426312 1.773277 17.328589 0.991611 1.468284 0.009012 -0.004151 -628330.000000 1 0 0
8.554683 11.647012 -5.161823 15.345354 0.937292 1.913863 0.022199 -0.006675 -414630.000000 1 0 0
10.648283 10.026812 10.209877 17.837166 0.755348 0.961374 0.020098 -0.013223 61743.400000 1 0 0
-5.001317 15.843012 5.786777 17.592640 -1.265017 1.235624 -0.006363 -0.005104 -609577.000000 1 0 0
14.530283 9.122212 -1.894023 17.260684 0.560615 1.680748 0.033540 -0.003027 -654403.000000 1 0 0
12.249383 9.505712 6.890177 16.967041 0.659944 1.152623 0.014932 -0.008093 -652324.000000 1 0 0
3.183683 13.021912 9.784177 16.596269 1.331013 0.940306 0.013863 -0.002268 -1705520.000000 1 0 0
8.524783 12.586112 -2.659523 15.432278 0.975457 1.743996 0.014463 -0.005562 -1020770.000000 1 0 0
9.431483 16.995312 2.081577 19.548055 1.064164 1.464109 0.015481 -0.012197 90047.600000 1 0 0
9.374583 14.145412 -7.381723 18.505818 0.985524 1.981099 0.060917 -0.022204 -1255490.000000 1 0 0
6.456583 11.365412 7.289377 14.966465 1.054170 1.062090 0.007050 -0.003925 -1179350.000000 1 0 0
5.391683 16.900312 -5.567323 18.592629 1.261975 1.874899 0.021532 -0.005064 -1549050.000000 1 0 0
-4.069917 17.204412 -4.718823 18.298177 -1.338504 1.831629 -0.000933 0.003275 -112098.000000 1 0 0
-0.180017 18.611112 -0.589423 18.621313 -1.561124 1.602455 0.008512 -0.008347 -554920.000000 1 0 0
6.465183 15.690012 -2.795823 17.198595 1.179939 1.734082 0.011383 -0.005438 -284212.000000 1 0 0
-1.126617 20.591512 0.916177 20.642650 -1.516138 1.526399 0.010794 -0.013087 -184238.000000 1 0 0
-1.276717 18.852312 4.240577 19.365489 -1.503178 1.350031 0.001352 -0.010667 680647.000000 1 0 0
7.305683 13.888712 -4.445923 16.310596 1.086553 1.846869 0.012442 -0.000932 495067.000000 1 0 0
-1.109717 12.072812 7.743677 14.385715 -1.479135 1.002390 0.004245 0.005311 632606.000000 1 0 0
7.737083 10.732412 10.805977 17.082630 0.946175 0.885928 0.016117 -0.011450 96835.100000 1 0 0
1.521083 16.093612 -7.202523 17.697298 1.476562 1.989946 0.005656 -0.007991 -194738.000000 1 0 0
9.081783 7.438612 14.679077 18.795931 0.686261 0.674577 0.040960 -0.011640 471102.000000 1 0 0
11.478783 11.318912 -4.823923 16.827075 0.778386 1.861552 0.045486 -0.012554 -97944.000000 1 0 0
-3.414217 17.109812 4.459077 18.007940 -1.373836 1.320576 -0.000488 -0.004278 153523.000000 1 0 0
3.971283 15.230412 -6.722223 17.115046 1.315729 1.974435 0.013599 -0.011619 -393853.000000 1 0 0
-4.399317 14.128612 9.460177 17.563218 -1.268935 1.001979 0.023242 -0.010089 403011.000000 1 0 0
6.250583 17.815812 0.628477 18.890948 1.233369 1.537521 0.011311 -0.013792 -345830.000000 1 0 0
9.834183 10.692912 -2.113223 14.680437 0.827208 1.715246 0.013870 -0.002261 -238469.000000 1 0 0
7.058283 18.104312 -2.477423 19.588851 1.199055 1.697607 0.018055 -0.007325 17314.800000 1 0 0
3.524983 10.400912 10.507677 15.199202 1.244034 0.807467 0.010000 0.001319 1050840.000000 1 0 0
0.043883 18.560612 1.961677 18.664041 1.568432 1.465497 0.008073 -0.013814 242862.000000 1 0 0
-0.951017 17.071212 -7.364723 18.616386 -1.515145 1.977522 0.009857 -0.004533 -369755.000000 1 0 0
10.202083 8.906512 13.017077 18.784375 0.717701 0.805191 0.041176 -0.012658 -366205.000000 1 0 0
3.742483 11.373612 5.532077 13.189735 1.252906 1.137987 0.001570 0.002534 461889.000000 1 0 0
13.025283 13.835212 8.097077 20.655114 0.815542 1.167977 0.039294 -0.021085 -161486.000000 1 0 0
-0.450217 17.359412 6.591577 18.574196 -1.544867 1.208013 0.007011 -0.011218 -552697.000000 1 0 0
12.123883 13.504412 5.654077 19.008584 0.839214 1.268777 0.027730 -0.012456 -846789.000000 1 0 0
4.848083 14.561312 -4.423923 15.972063 1.249397 1.851445 0.009394 -0.005289 -1698180.000000 1 0 0
3.826783 17.560212 4.783177 18.597959 1.356227 1.310685 0.017063 -0.011595 -1439920.000000 1 0 0
7.088883 11.825712 2.059577 13.940645 1.030784 1.422515 0.008047 -0.001768 871308.000000 1 0 0
6.447883 8.667512 11.746877 15.959013 0.931202 0.743557 0.015901 -0.007931 594812.000000 1 0 0
-5.590317 14.723512 1.740777 15.844991 -1.207923 1.460711 0.006381 -0.002248 -154830.000000 1 0 0
6.836483 13.757612 6.046677 16.509745 1.109613 1.195822 0.008450 -0.005925 -471406.000000 1 0 0
5.911883 15.824112 4.964177 17.606701 1.213254 1.284972 0.006840 -0.015216 786457.000000 1 0 0
1.304483 17.955312 4.154377 18.475761 1.498272 1.344002 0.017424 -0.010867 -47991.700000 1 0 0
7.199583 18.160612 -6.922723 20.725972 1.193363 1.911353 0.014815 -0.000032 152691.000000 1 0 0
-2.584417 18.800412 -6.236823 19.975802 -1.434187 1.888324 0.016494 0.005442 469161.000000 1 0 0
13.614483 10.026012 -4.406123 17.472521 0.634755 1.825723 0.038028 -0.010168 -794992.000000 1 0 0
-1.776117 18.064012 9.527177 20.499517 -1.472788 1.087443 0.026549 -0.014105 -243411.000000 1 0 0
3.550183 11.858412 -1.622023 12.484257 1.279908 1.701090 0.006924 -0.005289 703813.000000 1 0 0
4.340383 13.869312 -10.756823 18.080541 1.267503 2.207986 0.009988 -0.019223 -649391.000000 1 0 0
11.599183 13.358312 2.406077 17.854264 0.855767 1.435623 0.024610 -0.006760 -821277.000000 1 0 0
15.931483 6.445612 -7.130723 18.606592 0.384451 1.964094 0.021687 0.004618 -92154.200000 1 0 0
2.499383 15.995212 2.967177 16.458975 1.415792 1.389528 0.014230 -0.011158 -190793.000000 1 0 0
13.561983 10.655412 3.508177 17.600355 0.665950 1.370128 0.022777 0.000168 51336.100000 1 0 0
-5.182017 19.274612 -6.007223 20.843480 -1.308155 1.863149 0.008243 -0.006921 333272.000000 1 0 0
5.549783 12.094512 -0.011423 13.307045 1.140592 1.571655 0.008423 -0.005726 -467853.000000 1 0 0
4.909483 15.272112 9.783677 18.789911 1.259763 1.023140 0.027148 -0.011099 -374132.000000 1 0 0
7.823183 9.573512 13.757677 18.496703 0.885673 0.732072 0.032627 -0.018073 -1446710.000000 1 0 0
-5.020517 13.676112 6.996077 16.161272 -1.218969 1.123098 0.003581 -0.004046 -1745420.000000 1 0 0
-4.603617 17.028512 0.710677 17.654137 -1.306761 1.530530 0.004058 -0.000566 -2492720.000000 1 0 0
-0.559917 16.515612 3.527477 16.897397 -1.536907 1.360491 0.004807 -0.008062 -1448220.000000 1 0 0
7.815783 16.889512 -4.717523 19.198883 1.137382 1.819057 0.014597 -0.007147 352276.000000 1 0 0
3.081483 16.471812 -4.618923 17.382479 1.385858 1.839750 0.009762 -0.005594 -145086.000000 1 0 0
9.434683 14.380612 8.172777 19.042309 0.990166 1.127200 0.021356 -0.016514 40474.100000 1 0 0
12.793083 10.866112 9.053977 19.071179 0.704130 1.076120 0.030840 -0.017953 367881.000000 1 0 0
3.735383 12.379812 12.160177 17.750570 1.277751 0.816112 0.020620 -0.005308 448753.000000 1 0 0
-3.265117 19.242812 5.923177 20.396833 -1.402717 1.276155 0.011222 -0.013141 -106541.000000 1 0 0
-2.677717 15.828312 10.254577 19.048936 -1.403210 1.002344 0.026112 -0.010562 293559.000000 1 0 0
2.173383 14.204112 7.652777 16.280214 1.418963 1.081431 0.008888 -0.000981 -461084.000000 1 0 0
4.368783 17.103312 8.009677 19.384645 1.320709 1.144834 0.021125 -0.012142 -172630.000000 1 0 0
-1.759417 13.601212 9.513377 16.691101 -1.442153 0.964331 0.015504 -0.001765 -418857.000000 1 0 0
5.875983 17.557812 3.150577 18.781109 1.247848 1.402247 0.009246 -0.022705 436394.000000 1 0 0
7.242483 15.528912 -6.810623 18.438689 1.134399 1.949123 0.014756 -0.000430 -637870.000000 1 0 0
11.077483 7.617012 9.322177 16.359477 0.602363 0.964493 0.014658 -0.011333 619416.000000 1 0 0
8.978283 16.440912 -2.580023 18.909512 1.070957 1.707664 0.021383 -0.008106 -249081.000000 1 0 0
14.897883 11.259912 -6.446323 19.755698 0.647207 1.903185 0.097784 -0.016195 340900.000000 1 0 0
11.245883 6.654812 15.991277 20.651328 0.534335 0.685115 0.070693 -0.027563 431774.000000 1 0 0
8.583283 8.308212 10.279077 15.759396 0.769115 0.860246 0.014903 -0.009234 2199860.000000 1 0 0
16.495683 9.462612 4.421277 19.524248 0.520813 1.342364 0.043988 -0.008306 69500.000000 1 0 0
-3.272817 14.342812 4.619377 15.419670 -1.346452 1.266547 -0.002535 -0.001073 -1094140.000000 1 0 0
4.930183 14.659412 13.018477 20.215979 1.246364 0.871121 0.033516 0.002809 -1566260.000000 1 0 0
16.213883 10.399412 -4.450423 19.769776 0.570298 1.797855 0.062067 -0.018335 44551.400000 1 0 0
14.624583 13.919512 5.977077 21.056037 0.760702 1.282974 0.047299 -0.016431 -572667.000000 1 0 0
6.251483 9.370112 9.229977 14.562710 0.982443 0.884328 0.009159 -0.003219 705462.000000 1 0 0
10.533683 12.078812 8.688677 18.230449 0.853623 1.074010 0.024368 -0.013137 -440421.000000 1 0 0
8.024183 11.527012 -0.348823 14.049242 0.962679 1.595627 0.004623 -0.004657 -1203690.000000 1 0 0
7.186683 13.665412 -8.710623 17.727573 1.086642 2.084447 0.028475 -0.007848 -691281.000000 1 0 0
2.721383 15.316712 -2.305923 15.726565 1.394957 1.717953 0.011434 -0.007750 578314.000000 1 0 0
11.923483 13.804712 -7.707323 19.802584 0.858388 1.970568 0.061392 -0.021553 -606188.000000 1 0 0
-8.204717 14.789412 9.716977 19.505479 -1.064299 1.049313 0.034338 -0.020819 500378.000000 1 0 0
11.580183 9.568612 2.166177 15.177328 0.690568 1.427583 0.014623 -0.000544 -1208360.000000 1 0 0
12.122883 8.657912 4.478877 15.555837 0.620179 1.278739 0.005981 -0.002859 522050.000000 1 0 0
14.110883 7.877212 6.035577 17.250962 0.509145 1.213365 0.016422 -0.007487 -2611690.000000 1 0 0
16.252783 7.278312 7.176777 19.199815 0.421039 1.187700 0.044013 -0.011834 -1143850.000000 1 0 0
13.738383 8.309612 2.423177 16.237752 0.543975 1.421006 0.010437 -0.002181 -2844030.000000 1 0 0
-4.408517 17.187912 -7.246523 19.166936 -1.319719 1.958511 0.008711 -0.013826 184639.000000 1 0 0
3.169783 19.488912 -4.015623 20.149204 1.409563 1.771434 0.028385 -0.010714 401300.000000 1 0 0
-0.074717 14.805712 6.288677 16.086085 -1.565750 1.169145 0.008892 -0.001312 165051.000000 1 0 0
6.789083 16.197912 8.211577 19.387986 1.173905 1.133447 0.034383 -0.010859 -927241.000000 1 0 0
12.783983 15.099812 -2.207523 19.907478 0.868261 1.681914 0.056547 -0.018248 -715027.000000 1 0 0
12.662283 15.629012 4.253477 20.559462 0.889880 1.362405 0.038600 -0.011193 -602258.000000 1 0 0
3.094083 18.086412 1.375777 18.400663 1.401364 1.495959 0.019489 -0.018948 -882469.000000 1 0 0
10.279883 14.593912 -1.638523 17.926043 0.957127 1.662329 0.024151 -0.005193 -387707.000000 1 0 0
-6.352017 15.751812 -0.613923 16.995428 -1.187486 1.606927 0.001002 0.000034 -566179.000000 1 0 0
-3.988317 15.865212 -2.593323 16.563120 -1.324512 1.728015 0.001792 0.002605 -1014980.000000 1 0 0
-6.893817 16.897912 1.663777 18.325727 -1.183439 1.479882 0.013899 -0.006344 -410315.000000 1 0 0
0.034583 19.360012 -6.641523 20.467561 1.569010 1.901269 0.029670 -0.003805 1080250.000000 1 0 0
4.879383 14.686512 7.168477 17.055470 1.250034 1.137016 0.018984 -0.006245 -894441.000000 1 0 0
8.701283 12.213212 6.923377 16.516901 0.951764 1.138266 0.019773 -0.009500 -1353990.000000 1 0 0
-7.683417 17.469412 -5.667723 19.908247 -1.156439 1.859482 0.032559 -0.010830 -87025.600000 1 0 0
-7.878717 17.731312 -1.263023 19.443992 -1.152660 1.635799 0.027146 -0.003615 87531.900000 1 0 0
-13.820117 -9.258688 9.133477 18.977338 0.590267 1.068678 0.049784 -0.010717 -1121390.000000 1 0 0
-12.443917 -13.031988 7.507777 19.520515 0.808478 1.176011 0.034627 -0.010293 -165294.000000 1 0 0
-3.989817 -14.956888 12.472077 19.879131 1.310112 0.892592 0.026257 -0.020025 -122589.000000 1 0 0
-1.964517 -14.190288 15.064277 20.788364 1.433230 0.760271 0.026456 -0.007753 -2279100.000000 1 0 0
-7.199217 -13.900488 12.481777 20.021165 1.092923 0.897676 0.036022 -0.015260 -37169.200000 1 0 0
-9.842617 -11.594488 9.071677 17.708885 0.866938 1.032974 0.018535 -0.004482 840415.000000 1 0 0
-10.651117 -10.580888 11.437877 18.873964 0.782091 0.919757 0.044421 -0.013284 228136.000000 1 0 0
-6.029617 -12.322488 10.796877 17.457736 1.115731 0.904017 0.020351 -0.009426 452416.000000 1 0 0
-12.535117 -10.489888 7.271177 17.889576 0.696804 1.152234 0.027069 -0.003770 -549824.000000 1 0 0
-7.811917 -11.333888 12.553277 18.629757 0.967320 0.831417 0.034764 -0.010209 -753234.000000 1 0 0
-14.768917 -11.826488 7.308977 20.283192 0.675210 1.202157 0.055899 -0.004689 -310283.000000 1 0 0
-11.176017 -9.308188 9.166477 17.192150 0.694466 1.008444 0.020058 -0.003496 -394294.000000 1 0 0
-5.539517 -12.052788 13.392677 18.849927 1.139984 0.780603 0.031383 -0.009637 -257218.000000 1 0 0
3.938783 -12.314588 14.672077 19.555893 -1.261232 0.722335 0.004895 -0.006712 -940734.000000 1 0 0
6.475883 -12.689688 14.059877 20.016129 -1.098922 0.791994 0.021907 -0.002622 -187500.000000 1 0 0
6.769883 -8.459188 16.097777 19.404320 -0.895873 0.592410 0.025565 -0.007875 415285.000000 1 0 0
0.731683 -1.724788 14.509477 14.629941 -1.169590 0.128417 0.008161 -0.006513 -1156430.000000 1 0 0
-0.006617 -6.301188 15.559777 16.787248 1.569746 0.384781 0.008142 -0.008922 -397351.000000 1 0 0
-1.346317 -4.583888 18.272877 18.887103 1.285124 0.255729 0.015053 -0.022716 -2005300.000000 1 0 0
-5.319217 12.658412 12.855077 18.809106 -1.172988 0.818318 0.027796 -0.011381 1264170.000000 1 0 0
-4.055017 8.901512 11.576077 15.155383 -1.143343 0.701576 0.004011 0.005906 -380902.000000 1 0 0
-0.540317 -3.929588 15.091577 15.604144 1.434154 0.257020 0.010000 -0.008220 -161523.000000 1 0 0
-4.549417 9.286512 14.170477 17.542489 -1.115265 0.630419 0.016966 -0.008059 331299.000000 1 0 0
-13.532117 -2.355288 16.747777 21.659954 0.172325 0.686903 0.059118 -0.004690 -897297.000000 1 0 0
-0.286417 0.834312 17.297777 17.320254 -1.240105 0.050951 0.027691 -0.009137 -602003.000000 1 0 0
-3.230917 -7.342188 15.355277 17.324292 1.156249 0.481408 0.016825 -0.011645 487234.000000 1 0 0
-7.433917 5.575612 12.374577 15.475165 -0.643516 0.644099 -0.007336 0.000878 -1758470.000000 1 0 0
-10.033617 10.092312 13.428277 19.566473 -0.788315 0.814420 0.026627 -0.008413 86759.600000 1 0 0
-5.481517 2.136612 11.064077 12.530999 -0.371669 0.488716 0.003784 -0.001712 -1840150.000000 1 0 0
-6.973317 -7.544788 16.811777 19.702458 0.824741 0.548547 0.033691 -0.014151 -232185.000000 1 0 0
-4.657917 3.045612 18.407477 19.230371 -0.579082 0.293599 0.029290 -0.013364 -733724.000000 1 0 0
0.940683 -8.353888 16.598077 18.605604 -1.458664 0.468822 0.004312 -0.006683 351595.000000 1 0 0
-14.973617 -3.616588 13.885377 20.738674 0.236992 0.837207 0.073424 -0.014423 282847.000000 1 0 0
-14.274617 2.453512 13.173577 19.578752 -0.170216 0.832741 0.040686 -0.004852 -48506.300000 1 0 0
-5.466517 0.974512 16.060477 16.993275 -0.176416 0.332872 0.026687 -0.007333 229742.000000 1 0 0
4.566783 5.829412 15.173277 16.883894 0.906257 0.454038 0.011795 -0.005074 -628394.000000 1 0 0
-1.012217 -11.994888 13.900177 18.387954 1.486608 0.713709 -0.000346 -0.008337 -80843.600000 1 0 0
-5.763117 -4.123788 16.714077 18.154325 0.621085 0.401012 0.027880 -0.014187 294762.000000 1 0 0
-12.977017 -1.601488 9.864577 16.379182 0.122789 0.924463 0.028461 -0.001141 -567275.000000 1 0 0
-14.542417 10.527412 10.397977 20.746716 -0.626594 1.045827 0.017724 0.009789 538180.000000 1 0 0
-3.432617 -3.254488 17.668877 18.291085 0.758767 0.261578 0.022558 -0.017329 -1873870.000000 1 0 0
-8.004117 9.409712 11.899277 17.152299 -0.865941 0.804124 -0.000865 0.000270 287264.000000 1 0 0
-4.344717 10.602612 16.357177 19.971209 -1.181889 0.611064 0.015983 -0.010265 326009.000000 1 0 0
-12.361817 12.931812 8.172177 19.668013 -0.807929 1.142297 0.019185 -0.013310 -62243.200000 1 0 0
-12.582117 3.159512 10.512677 16.697562 -0.246024 0.889766 0.015386 -0.001329 454862.000000 1 0 0
-10.181117 -3.527588 13.814977 17.520063 0.333539 0.662392 0.026448 -0.002961 -551153.000000 1 0 0
-3.938317 -6.344388 17.718777 19.228018 1.015255 0.398850 0.025824 -0.012574 -417602.000000 1 0 0
1.056883 -3.604688 17.942277 18.331287 -1.285593 0.206381 0.014563 -0.016499 -539521.000000 1 0 0
-5.999417 1.814812 13.601077 14.975842 -0.293747 0.431830 0.009022 0.001434 -738272.000000 1 0 0
-10.575717 8.733212 10.159177 17.068206 -0.690264 0.933269 0.004851 -0.004577 -71992.400000 1 0 0
4.644583 2.481612 17.379477 18.159757 0.490711 0.294207 0.014066 -0.011137 -764818.000000 1 0 0
0.632383 -5.276388 13.192677 14.222760 -1.451514 0.382927 0.006579 -0.006697 -2465350.000000 1 0 0
-4.322717 5.698912 20.548377 21.757741 -0.921867 0.334980 0.071851 -0.021574 251472.000000 1 0 0
-10.689617 10.969312 9.041577 17.786057 -0.798311 1.037526 0.006029 -0.007523 814152.000000 1 0 0
0.681483 4.139912 13.073477 13.730226 1.407646 0.310543 0.011079 -0.004534 -1893340.000000 1 0 0
-3.184917 7.171412 13.326677 15.465224 -1.152849 0.532148 0.006261 0.002859 -132340.000000 1 0 0
0.773383 8.953012 14.031577 16.662524 1.484628 0.569624 0.003175 -0.003941 345608.000000 1 0 0
-4.073917 -6.728988 13.049677 15.237131 1.026395 0.542464 0.015408 -0.007755 -218074.000000 1 0 0
-5.206617 8.167712 16.470577 19.107598 -1.003285 0.531612 0.029875 -0.006018 534486.000000 1 0 0
1.475883 -10.761288 15.758777 19.139556 -1.434499 0.603487 -0.003981 -0.000861 -193082.000000 1 0 0
-14.995417 -0.974188 14.234677 20.698734 0.064875 0.812470 0.059744 -0.009911 235317.000000 1 0 0
-13.490617 -5.256288 8.510677 16.794551 0.371531 1.039383 0.030640 -0.006357 -1251770.000000 1 0 0
-14.165517 -2.024088 12.105377 18.742971 0.141928 0.868644 0.055999 -0.010169 384639.000000 1 0 0
9.423283 1.377912 16.980477 19.468783 0.145195 0.511135 0.052305 -0.007155 -200830.000000 1 0 0
5.108183 -6.711888 16.769577 18.771300 -0.920251 0.466022 0.025647 -0.018535 129802.000000 1 0 0
-6.160317 -2.674888 11.086377 12.961956 0.409648 0.544664 0.007841 -0.003118 637593.000000 1 0 0
0.656083 -6.263588 18.037677 19.105517 -1.466431 0.335917 0.014110 -0.018068 -101239.000000 1 0 0
-8.799317 11.961612 12.076577 19.140320 -0.936556 0.888020 0.024690 -0.007224 347820.000000 1 0 0
-6.608817 -5.753088 14.829177 17.224372 0.716285 0.533679 0.028928 -0.011259 -514282.000000 1 0 0
-4.368717 -8.911488 17.117377 19.786483 1.114992 0.525437 0.024992 -0.010451 -30825.800000 1 0 0
2.544083 -6.291088 16.196677 17.560823 -1.186507 0.396758 0.008838 -0.014067 533812.000000 1 0 0
2.225183 5.225412 16.038477 17.014380 1.168215 0.340336 0.007538 -0.007998 -1691250.000000 1 0 0
1.023883 -8.836488 14.041177 16.621869 -1.455441 0.564715 -0.000969 -0.003952 -461779.000000 1 0 0
-10.040717 -2.800588 11.400477 15.447659 0.272010 0.740685 0.006006 0.001053 615018.000000 1 0 0
-1.270417 10.146012 12.374777 16.052745 -1.446231 0.690571 0.006150 -0.000755 -299551.000000 1 0 0
-12.384517 -3.791688 11.336777 17.212660 0.297102 0.851799 0.030283 0.000089 -1065520.000000 1 0 0
-1.929217 6.748712 19.993177 21.189481 -1.292358 0.337630 0.040500 -0.013686 -230545.000000 1 0 0
0.291883 -13.427788 15.739777 20.691334 -1.549062 0.706414 0.003696 -0.007030 -840472.000000 1 0 0
4.176183 -8.637288 15.342077 18.094822 -1.120431 0.558839 0.011104 -0.008616 -334946.000000 1 0 0
4.452183 -4.366688 16.139577 17.302481 -0.775704 0.368719 0.018487 -0.012309 -703050.000000 1 0 0
8.103883 1.889012 14.708377 16.899043 0.229010 0.514848 0.013979 -0.003540 -526145.000000 1 0 0
-6.296817 -0.165288 11.976477 13.531934 0.026243 0.484189 0.007396 -0.002996 175486.000000 1 0 0
-3.301717 -10.948788 18.446077 21.703342 1.277909 0.554965 0.031691 -0.008788 1224310.000000 1 0 0
3.338283 -1.482488 13.672977 14.152463 -0.417926 0.261048 0.005594 -0.003303 941653.000000 1 0 0
-2.677117 8.618912 15.851977 18.241101 -1.269635 0.517568 0.014992 -0.005813 -804056.000000 1 0 0
-3.273917 3.901512 14.804777 15.656365 -0.872641 0.331339 0.018297 -0.003460 104821.000000 1 0 0
-4.502217 -9.006788 19.696777 22.121375 1.107253 0.472583 0.036497 -0.014517 -45405.800000 1 0 0
-5.676117 -3.084788 18.996077 20.064525 0.497814 0.327811 0.032119 -0.022176 -756509.000000 1 0 0
-6.653417 -8.807488 11.174777 15.707178 0.923831 0.779245 0.019255 -0.006140 -389064.000000 1 0 0
-11.706917 2.472712 12.637777 17.403437 -0.208158 0.758068 0.029017 -0.010362 156666.000000 1 0 0
-11.634817 -7.602788 11.731977 18.188201 0.578798 0.869731 0.030526 -0.004229 -627096.000000 1 0 0
-11.028317 -7.255388 15.813777 20.599514 0.581900 0.695588 0.055824 -0.023516 1115110.000000 1 0 0
0.170383 5.664512 17.636977 18.525083 1.540726 0.310898 0.006265 -0.013807 -124529.000000 1 0 0
-2.205617 -0.194288 13.176177 13.360918 0.087861 0.166487 0.013518 -0.003269 -147464.000000 1 0 0
-6.006217 -10.623388 18.318177 22.011057 1.056224 0.587686 0.055412 -0.010873 761819.000000 1 0 0
0.473883 2.541812 19.192777 19.366158 1.386477 0.133912 0.042601 -0.016549 -296433.000000 1 0 0
-0.826717 10.946812 14.832377 18.453064 -1.495418 0.637159 0.017126 -0.003593 -581478.000000 1 0 0
-12.761217 -2.272288 14.326677 19.320084 0.176215 0.735429 0.042542 -0.007332 -923902.000000 1 0 0
-13.726017 8.420712 11.741277 19.929112 -0.550276 0.940787 0.026915 0.002120 586846.000000 1 0 0
-18.210717 -0.768488 6.869377 19.478427 0.042175 1.210378 0.066939 -0.017714 -309315.000000 1 0 0
-1.907017 -7.976088 17.553777 19.374979 1.336110 0.437054 0.011840 -0.011073 -170797.000000 1 0 0
5.795683 2.869112 14.535977 15.909632 0.459674 0.418600 0.008878 -0.006445 -2263180.000000 1 0 0
-14.099217 -6.826088 11.085477 19.190394 0.450885 0.954940 0.042843 -0.008076 702968.000000 1 0 0
3.219783 7.696412 16.394677 18.395304 1.174573 0.470719 0.010369 -0.012972 -149417.000000 1 0 0
1.137883 2.090612 14.627877 14.820264 1.072353 0.161304 0.012864 -0.010844 -1563210.000000 1 0 0
-14.474117 0.609412 9.885677 17.538474 -0.042079 0.971990 0.035387 -0.003979 -1306100.000000 1 0 0
-9.448617 -5.141488 15.574077 18.927840 0.498343 0.604453 0.032437 -0.009199 -303071.000000 1 0 0
-2.632617 -0.001988 18.113577 18.303889 0.000755 0.144329 0.037692 -0.013276 -80576.800000 1 0 0
6.890283 3.776712 17.587177 19.262616 0.501400 0.420166 0.036099 -0.010029 -953123.000000 1 0 0
-4.157517 -0.854988 14.615477 15.219334 0.202821 0.282638 0.021914 -0.004348 -1292100.000000 1 0 0
4.774583 -8.947988 17.820577 20.504539 -1.080637 0.517408 0.024699 -0.010245 -152813.000000 1 0 0
1.923183 6.913212 13.396977 15.197701 1.299467 0.491738 0.006002 -0.004648 -1418280.000000 1 0 0
-3.687317 -0.756288 20.454277 20.797734 0.202300 0.181988 0.043549 -0.012535 700837.000000 1 0 0
-10.578117 1.599012 16.234177 19.442271 -0.150026 0.582675 0.026377 -0.008276 -854010.000000 1 0 0
-3.929917 7.047812 18.336277 20.033346 -1.062131 0.414574 0.036769 -0.015085 -1016260.000000 1 0 0
-12.561317 1.146312 14.728577 19.391537 -0.091005 0.708196 0.037243 -0.011204 -914712.000000 1 0 0
-16.057417 -4.784888 8.398077 18.742025 0.289608 1.106171 0.053027 -0.013001 -1634640.000000 1 0 0
-2.302617 0.751412 15.651677 15.837982 -0.315434 0.153534 0.032027 -0.007479 -146814.000000 1 0 0
-13.734317 -8.856088 12.717777 20.707574 0.572721 0.909474 0.049388 -0.017283 688140.000000 1 0 0
6.179783 -3.198888 14.488477 16.072914 -0.477658 0.447754 0.013869 -0.010947 616310.000000 1 0 0
-15.887617 0.239712 7.716077 17.663852 -0.015087 1.118726 0.035611 -0.009847 364394.000000 1 0 0
-13.918217 5.912012 12.451477 19.588464 -0.401674 0.881941 0.033931 0.001268 -128818.000000 1 0 0
0.350783 9.521512 16.658177 19.190547 1.533972 0.519554 0.000232 -0.011269 -351910.000000 1 0 0
-10.333217 -5.457388 10.917677 15.992315 0.485906 0.819369 0.015283 -0.005312 -127994.000000 1 0 0
-3.265917 -10.953188 14.786877 18.689309 1.281019 0.658037 0.021029 -0.014034 -632237.000000 1 0 0
-3.456817 2.641712 12.614277 13.343471 -0.652530 0.332124 0.007923 -0.001594 -1154460.000000 1 0 0
-12.423317 -7.900888 7.407077 16.481130 0.566451 1.104672 0.026720 -0.004741 -118759.000000 1 0 0
-8.185617 -1.912988 13.296377 15.730782 0.229581 0.563771 0.009884 -0.001130 -270729.000000 1 0 0
-9.810917 6.497212 9.360077 15.035920 -0.584934 0.898845 -0.002385 0.000799 -742119.000000 1 0 0
-17.980117 -3.542988 6.619777 19.484836 0.194558 1.224156 0.053259 -0.014648 164380.000000 1 0 0
-1.206417 0.054212 20.433877 20.469532 -0.044906 0.059031 0.044205 -0.016170 -195377.000000 1 0 0
-2.718617 2.664212 20.094977 20.452311 -0.775291 0.187204 0.054095 -0.016758 -468800.000000 1 0 0
-3.821017 11.412612 11.070977 16.352811 -1.247720 0.827107 0.012958 -0.005472 -848553.000000 1 0 0
-4.103817 -4.902388 14.883777 16.198813 0.873836 0.405719 0.017421 -0.010504 258109.000000 1 0 0
-0.112917 -14.382388 13.385977 19.648161 1.562945 0.821281 0.006206 -0.007483 -886991.000000 1 0 0
-12.227017 0.460312 8.412977 14.848906 -0.037629 0.968456 0.007595 0.002291 -137178.000000 1 0 0
-7.785317 1.944412 15.535577 17.485596 -0.244747 0.476777 0.010455 0.005482 -1747360.000000 1 0 0
3.885083 -2.202188 18.390377 18.924838 -0.515674 0.238223 0.030843 -0.014025 -449582.000000 1 0 0
-2.101817 4.829512 12.629677 13.683953 -1.160316 0.395107 0.002045 -0.001170 -682611.000000 1 0 0
-10.312617 -6.262588 13.423277 18.048669 0.545751 0.732168 0.025499 -0.007630 -480559.000000 1 0 0
2.405283 -3.770988 14.337377 15.018859 -1.003018 0.302399 0.005413 -0.005592 -1141380.000000 1 0 0
6.803483 1.239912 16.947277 18.303961 0.180268 0.387437 0.021786 -0.010987 -1506270.000000 1 0 0
-1.791517 -5.807488 13.772277 15.053640 1.271574 0.415585 0.009368 -0.008390 -918814.000000 1 0 0
-12.639617 3.842912 14.641377 19.720492 -0.295156 0.734084 0.009780 0.000600 146389.000000 1 0 0
-13.219817 -6.393788 13.516177 19.958235 0.450484 0.826814 0.038017 -0.017269 -574549.000000 1 0 0
-9.561317 6.902812 11.924977 16.771186 -0.625307 0.779821 0.003282 0.003746 -909759.000000 1 0 0
-1.017017 -2.491288 12.874377 13.152583 1.183216 0.206044 0.009557 -0.005848 435908.000000 1 0 0
0.227283 6.759612 15.324877 16.750996 1.537185 0.415626 0.005476 -0.006177 210597.000000 1 0 0
-16.575917 -0.999788 9.931377 19.349234 0.060243 1.031806 0.068418 -0.006696 399517.000000 1 0 0
-1.228617 2.666612 13.766577 14.076184 -1.139046 0.210125 0.010287 -0.004061 -1547850.000000 1 0 0
-11.190517 -3.364288 16.248877 20.014298 0.292042 0.623460 0.036081 -0.008662 684505.000000 1 0 0
-5.143617 -1.466888 17.070877 17.889198 0.277811 0.303634 0.032033 -0.007718 192719.000000 1 0 0
-11.853817 6.684212 11.052477 17.531369 -0.513442 0.888676 0.020326 0.004654 -2286920.000000 1 0 0
-2.752817 4.834812 18.674677 19.485815 -1.053200 0.289548 0.048053 -0.014163 -121303.000000 1 0 0
5.186283 -1.889788 16.257477 17.168995 -0.349429 0.327315 0.017248 -0.013350 -1132930.000000 1 0 0
-8.072717 -4.188888 12.259477 15.264676 0.478649 0.638271 0.015992 -0.003276 -1675800.000000 1 0 0
-11.603617 -0.771788 16.131177 19.886037 0.066415 0.624627 0.039069 -0.006704 418563.000000 1 0 0
2.135283 2.052412 17.372377 17.623034 0.765611 0.168861 0.012797 -0.011921 -1271340.000000 1 0 0
-8.906017 -7.505788 11.676077 16.491961 0.700286 0.784154 0.019824 -0.009378 726666.000000 1 0 0
-7.222917 6.607812 14.764777 17.715314 -0.740954 0.585480 0.004503 -0.007346 -1151430.000000 1 0 0
-5.807317 3.533112 15.635677 17.049405 -0.546566 0.410101 0.014097 -0.003569 142232.000000 1 0 0
-9.276217 4.245512 11.392977 15.292890 -0.429220 0.730284 -0.004238 -0.004919 -268484.000000 1 0 0
-10.251817 0.173012 14.034977 17.381320 -0.016875 0.630938 0.015870 -0.004426 -138791.000000 1 0 0
8.242683 -0.526488 15.742277 17.777466 -0.063787 0.483187 0.030269 -0.009707 174859.000000 1 0 0
-8.569217 -7.438088 14.789377 18.640878 0.714852 0.654448 0.044592 -0.013660 -2522510.000000 1 0 0
-0.101117 4.182312 15.553177 16.106001 -1.546624 0.262763 0.013327 -0.011409 -210791.000000 1 0 0
-7.991317 3.096412 9.600677 12.869418 -0.369660 0.728750 -0.005711 0.000050 -784908.000000 1 0 0
-1.914117 -9.761088 12.928277 16.312052 1.377157 0.655801 -0.002142 -0.006736 325536.000000 1 0 0
-6.069117 10.246812 10.469777 15.857098 -1.036063 0.849634 0.014790 -0.003151 -3861120.000000 1 0 0
-8.589617 -2.765388 15.716477 18.122818 0.311467 0.521204 0.027217 -0.010725 985024.000000 1 0 0
4.170383 5.607612 17.633377 18.967694 0.931339 0.377326 0.010891 -0.013720 -111470.000000 1 0 0
-6.767517 -1.034688 15.293377 16.755812 0.151716 0.420902 0.021913 -0.001489 453878.000000 1 0 0
-0.959317 -9.798788 15.344177 18.231301 1.473206 0.570485 -0.001615 -0.007417 311512.000000 1 0 0
-4.258217 5.695612 16.057877 17.562113 -0.928813 0.416902 0.024333 -0.007940 676538.000000 1 0 0
3.923583 0.067812 17.401977 17.838944 0.017281 0.221792 0.019279 -0.011658 -721403.000000 1 0 0
1.504283 0.120212 19.064977 19.124609 0.079743 0.078990 0.022099 -0.017183 -503380.000000 1 0 0
-6.309517 6.228812 17.654177 19.755457 -0.778962 0.465415 0.023167 -0.013121 -224757.000000 1 0 0
-12.224517 0.530512 10.955977 16.424180 -0.043370 0.840536 0.028929 -0.004148 -72351.900000 1 0 0
-5.338317 5.140112 13.672077 15.551337 -0.766485 0.496705 0.003080 0.000164 -1172330.000000 1 0 0
-8.789817 -9.508088 10.049677 16.390871 0.824632 0.910784 0.022413 -0.004730 -1570720.000000 1 0 0
6.948583 -3.658388 16.984877 18.712367 -0.484618 0.433069 0.029125 -0.015677 649061.000000 1 0 0
-16.873017 1.542412 9.772877 19.559828 -0.091160 1.047613 0.065028 -0.011712 -39703.900000 1 0 0
-4.125717 -9.610988 11.381877 15.457677 1.165314 0.743173 0.010791 -0.006146 672379.000000 1 0 0
-11.117217 -3.912788 9.194977 14.948245 0.338418 0.908257 0.012856 0.002053 -735716.000000 1 0 0
3.754283 -5.338988 18.421477 19.543548 -0.957938 0.340505 0.020442 -0.021297 -175998.000000 1 0 0
2.621583 -1.852688 16.102777 16.419640 -0.615212 0.196775 0.011692 -0.008505 -1080920.000000 1 0 0
-2.970617 -4.038288 20.147377 20.761723 0.936567 0.243875 0.025312 -0.016968 -1495490.000000 1 0 0
-6.229417 -3.337788 14.355977 16.001267 0.491884 0.457459 0.017996 -0.005014 1235120.000000 1 0 0
-9.636217 5.130612 13.844077 17.630608 -0.489254 0.667729 0.013881 -0.003165 10265.000000 1 0 0
-5.892017 -5.263488 11.802977 14.203184 0.729115 0.589877 0.013081 -0.003757 188093.000000 1 0 0
6.269383 1.850512 19.349977 20.424279 0.287016 0.325782 0.047664 -0.021651 2128.720000 1 0 0
-2.858317 11.943312 13.497477 18.248139 -1.335891 0.738227 0.031485 -0.009936 254265.000000 1 0 0
3.574083 1.488212 15.239677 15.723759 0.394555 0.248781 0.010419 -0.006078 -353276.000000 1 0 0
-5.710117 7.457012 12.782177 15.861794 -0.917299 0.633692 -0.001769 -0.002515 -681134.000000 1 0 0
-1.859817 -1.740888 15.225977 15.437616 0.752381 0.165775 0.018391 -0.005857 366770.000000 1 0 0
-7.602317 10.689612 14.096377 19.255411 -0.952601 0.749435 0.040147 -0.014185 451039.000000 1 0 0
-10.130117 2.091412 10.548177 14.773534 -0.203594 0.775614 0.003876 0.000253 -817115.000000 1 0 0
-13.618917 5.215912 9.175877 17.230129 -0.365757 1.009188 0.011256 0.000186 -406968.000000 1 0 0
0.346483 -4.835288 20.108077 20.684169 -1.499261 0.236567 0.023534 -0.025156 -526203.000000 1 0 0
-14.409717 -2.953588 7.567377 16.541730 0.202172 1.095646 0.024235 -0.003157 484082.000000 1 0 0
-2.270117 2.570912 17.486077 17.819257 -0.847453 0.193682 0.032404 -0.013319 -41506.500000 1 0 0
-6.242717 -8.405088 14.471377 17.861629 0.931964 0.626314 0.022725 -0.012012 -45865.700000 1 0 0
-7.947217 1.899712 11.940177 14.468414 -0.234638 0.600137 -0.000741 0.000231 -479894.000000 1 0 0
-14.671617 -3.614388 10.119577 18.185873 0.241543 0.980686 0.044361 -0.004794 396222.000000 1 0 0
-0.600017 7.014112 12.828477 14.633100 -1.485460 0.501889 0.008044 -0.002369 -950614.000000 1 0 0
-1.648417 -2.094388 19.183977 19.368240 0.903993 0.138049 0.027409 -0.017272 151066.000000 1 0 0
-12.712917 10.403112 7.397977 18.015911 -0.685807 1.147645 0.004120 -0.009311 -398535.000000 1 0 0
-19.326217 2.178812 7.084477 20.698785 -0.112265 1.221469 0.054027 -0.018497 -758138.000000 1 0 0
-16.098117 8.415212 6.613377 19.331371 -0.481678 1.221639 0.021954 -0.001179 398783.000000 1 0 0
-12.183617 7.560912 13.515177 19.704515 -0.555415 0.814967 0.011463 0.008482 -238261.000000 1 0 0
-15.953317 8.408112 10.397977 20.816402 -0.485049 1.047765 0.031185 0.004881 -1487920.000000 1 0 0
1.699983 11.084612 15.035277 18.756815 1.418618 0.640846 0.003475 -0.010448 -1192810.000000 1 0 0
2.427783 14.683212 12.737077 19.588874 1.406935 0.862922 0.018383 0.003836 -735530.000000 1 0 0
-3.156017 13.806712 11.726477 18.387387 -1.346072 0.879228 0.013376 -0.006160 365663.000000 1 0 0
9.160483 5.076412 15.820877 18.973259 0.506035 0.584748 0.043396 -0.001843 155448.000000 1 0 0
-0.479817 12.628312 12.869477 18.036849 -1.532819 0.776301 0.014539 -0.006803 -640665.000000 1 0 0
3.618983 13.282912 14.612477 20.076286 1.304799 0.755618 0.029374 -0.009574 70638.600000 1 0 0
-2.793017 -4.107188 -13.749023 14.618672 0.973598 2.794928 0.004110 -0.006580 -518789.000000 1 0 0
5.861983 -11.469188 16.279377 20.758691 -1.098303 0.669359 0.021972 -0.005411 189456.000000 1 0 0
7.794483 -13.432288 7.353577 17.182998 -1.045003 1.128566 0.004898 -0.009046 -261861.000000 1 0 0
-0.127817 15.609612 1.251377 15.660213 -1.562608 1.490803 0.004970 -0.007130 -2284120.000000 1 0 0
-13.659817 8.407512 9.085077 18.434085 -0.551733 1.055444 0.005082 0.005635 482688.000000 1 0 0
-15.412417 -9.795888 5.005177 18.935517 0.566174 1.303290 0.036390 -0.005269 -1455730.000000 1 0 0
9.409183 -10.989988 11.201877 18.297394 -0.862737 0.911942 0.025707 0.000963 -34433.600000 1 0 0
-5.421217 -10.848788 -16.759023 20.686968 1.107383 2.515161 0.040201 -0.006244 49043.500000 1 0 0
-1.701917 -12.531088 -14.557223 19.283087 1.435807 2.426331 0.023338 -0.005904 -8755.180000 1 0 0
5.375683 -15.617188 -12.772323 20.878859 -1.239284 2.229048 0.037084 -0.002129 137371.000000 1 0 0
1.038483 -12.043088 -16.349923 20.333086 -1.484778 2.504964 0.022354 -0.000981 165409.000000 1 0 0
0.447283 -14.667288 -13.647123 20.039296 -1.540310 2.319948 0.027088 0.013436 97102.300000 1 0 0
-6.437717 -6.132288 -14.345123 16.876958 0.761105 2.586749 0.010434 -0.007868 -10479.700000 1 0 0
-6.304517 -8.079188 -17.024323 19.870777 0.908158 2.599734 0.023440 -0.010041 60818.700000 1 0 0
-2.324817 -16.268388 -13.250723 21.110350 1.428853 2.249377 0.024065 -0.002083 277305.000000 1 0 0
16.058283 -8.039188 -9.307523 20.226888 -0.464148 2.048967 0.061012 -0.010399 -106750.000000 1 0 0
19.075683 -2.873688 -3.712523 19.644913 -0.149522 1.760921 0.077371 -0.014557 83701.700000 1 0 0
15.622683 -12.181488 -8.463323 21.542626 -0.662259 1.974540 0.060976 -0.009015 41614.400000 1 0 0
18.259783 -4.157688 -7.269123 20.088459 -0.223880 1.941054 0.154162 -0.008192 -415314.000000 1 0 0
9.335983 -9.775288 -16.056923 20.989083 -0.808381 2.441858 0.081680 -0.005989 139247.000000 1 0 0
-4.654417 9.934612 -16.193823 19.560164 -1.132661 2.546146 0.002632 -0.003994 468017.000000 1 0 0
2.702383 -9.556688 -18.178723 20.714708 -1.295217 2.641578 0.044346 -0.009979 414182.000000 1 0 0
10.985483 7.963112 -15.111223 20.308644 0.627227 2.409951 0.078953 -0.045592 373575.000000 1 0 0
18.069883 -7.146288 -8.128723 21.063386 -0.376604 1.966998 0.046975 -0.005106 -63499.600000 1 0 0
12.421883 5.277312 -14.136523 19.544679 0.401735 2.379355 0.049798 -0.009632 106868.000000 1 0 0
15.872183 6.423912 -10.856223 20.274378 0.384575 2.135855 0.035548 -0.010431 179656.000000 1 0 0
3.129683 -0.138988 -18.947523 19.204761 -0.044381 2.977736 0.045329 -0.022483 164995.000000 1 0 0
10.176583 -1.391588 -15.432023 18.537710 -0.135901 2.554341 0.030583 0.009303 183569.000000 1 0 0
12.189583 -6.120588 -13.860423 19.446307 -0.465339 2.364212 0.043758 -0.005629 366314.000000 1 0 0
10.151683 6.900112 -13.082523 17.939359 0.596972 2.388041 0.042326 -0.009541 391181.000000 1 0 0
10.608183 5.380612 -16.484223 20.327669 0.469402 2.516528 0.058698 -0.022432 366335.000000 1 0 0
12.182583 -10.126488 -14.667123 21.589015 -0.693494 2.317712 0.095217 -0.024600 338940.000000 1 0 0
-1.465917 2.205112 -17.773923 17.970080 -0.984100 2.993703 0.011948 -0.006342 363917.000000 1 0 0
6.437483 -1.064188 -17.220323 18.415027 -0.163830 2.779404 0.031855 0.000719 23688.100000 1 0 0
6.844383 -5.799188 -15.266623 17.707228 -0.702920 2.610332 0.024312 -0.019634 255499.000000 1 0 0
-2.213717 -4.563088 -20.433323 21.053337 1.119111 2.898301 0.039829 -0.022377 370020.000000 1 0 0
16.165383 -0.165188 -13.515423 21.071629 -0.010218 2.267123 0.064654 -0.006461 68694.300000 1 0 0
-3.849217 -0.400288 -18.453123 18.854560 0.103620 2.934869 0.008065 -0.011818 -1798.500000 1 0 0
4.533283 8.601312 -18.103523 20.549228 1.085747 2.648732 0.047167 -0.013015 106734.000000 1 0 0
9.975383 0.381012 -17.076323 19.780148 0.038177 2.612581 0.054839 -0.021955 -99489.800000 1 0 0
4.260183 4.583312 -18.173423 19.220541 0.821920 2.809987 0.034230 -0.017717 509528.000000 1 0 0
-2.925517 -11.061088 -17.710023 21.084384 1.312230 2.568004 0.024982 -0.017338 192060.000000 1 0 0
5.863483 -9.591688 -15.962923 19.524237 -1.022103 2.528018 0.041355 -0.018093 149483.000000 1 0 0
10.161183 -12.534788 -10.926223 19.487250 -0.889602 2.166010 0.035403 0.003223 155049.000000 1 0 0
6.300383 6.907012 -16.977223 19.381118 0.831297 2.638234 0.043592 -0.022955 320535.000000 1 0 0
8.532583 1.692512 -20.127323 21.926666 0.195817 2.733648 0.075416 -0.025054 62148.400000 1 0 0
-1.203617 -0.825588 -20.216923 20.269540 0.601216 3.069523 0.041325 -0.019943 142321.000000 1 0 0
-0.965317 6.431012 -19.658723 20.706403 -1.421805 2.822126 0.016457 -0.015545 221996.000000 1 0 0
8.658483 6.103612 -18.054423 20.932883 0.614026 2.610968 0.069192 -0.030703 -90421.000000 1 0 0
12.272083 -0.012888 -13.450623 18.207785 -0.001050 2.401979 0.033191 0.005387 53248.600000 1 0 0
-4.572617 -2.813488 -19.857823 20.570796 0.551587 2.877541 0.025801 -0.008027 355769.000000 1 0 0
5.531783 -11.229188 -14.370023 19.057619 -1.113066 2.424973 0.028403 -0.009542 135216.000000 1 0 0
11.725283 2.961312 -15.718423 19.832308 0.247385 2.485803 0.063936 -0.010292 -136792.000000 1 0 0
-3.012617 -4.289288 -17.051223 17.838667 0.958489 2.843361 0.015385 -0.009985 317096.000000 1 0 0
-6.785217 -4.615988 -17.087923 18.956361 0.597382 2.693869 0.014327 -0.017961 52965.000000 1 0 0
2.979983 10.332412 -15.502623 18.867176 1.290005 2.535134 0.011405 -0.012333 120458.000000 1 0 0
17.625583 -5.723688 -10.694123 21.395935 -0.313994 2.094188 0.110939 -0.023605 37739.500000 1 0 0
9.533483 -3.869288 -17.543823 20.338250 -0.385550 2.611188 0.030614 -0.022863 104658.000000 1 0 0
-7.199017 -1.549488 -18.999023 20.376202 0.212002 2.771828 0.007373 0.001024 621281.000000 1 0 0
1.585583 -7.546588 -19.296223 20.780021 -1.363703 2.761405 0.051237 -0.022307 234433.000000 1 0 0
5.783283 10.318912 -13.917923 18.265675 1.059962 2.437148 0.036422 -0.021944 498374.000000 1 0 0
6.207983 -3.915088 -17.709223 19.169860 -0.562655 2.748700 0.050838 -0.029555 434024.000000 1 0 0
4.633683 13.449212 -14.415123 20.252113 1.239001 2.362831 0.033896 -0.023171 -18420.700000 1 0 0
9.840583 11.027312 -15.916123 21.720075 0.842206 2.393201 0.105778 -0.019765 -39839.400000 1 0 0
17.081883 0.807112 -11.459823 20.585667 0.047214 2.161192 0.075517 -0.005688 199657.000000 1 0 0
15.030983 -2.815788 -12.431323 19.707788 -0.185186 2.253357 0.065147 -0.006286 141790.000000 1 0 0
-8.919717 0.132012 -17.275423 19.442711 -0.014799 2.664927 0.030853 -0.014415 484715.000000 1 0 0
-3.326917 4.492512 -18.921223 19.729767 -0.933373 2.854316 0.021571 -0.008402 72824.800000 1 0 0
3.748083 1.457212 -16.932123 17.403114 0.370804 2.908412 0.017333 -0.010185 498960.000000 1 0 0
-4.985917 14.042812 -14.070123 20.494591 -1.229629 2.327500 0.017743 -0.022703 431223.000000 1 0 0
0.901483 9.709412 -17.759523 20.260454 1.478215 2.639466 0.012887 0.001468 277330.000000 1 0 0
0.990083 -5.372688 -20.085923 20.815627 -1.388560 2.876028 0.041419 -0.002170 508195.000000 1 0 0
3.605383 -6.091688 -18.327923 19.647397 -1.036389 2.773019 0.050565 -0.015569 26304.900000 1 0 0
-6.868317 7.493712 -16.102223 19.042349 -0.828916 2.578486 0.008605 -0.003529 8219.490000 1 0 0
-12.334117 3.007112 -16.337923 20.690599 -0.239139 2.481002 0.099825 -0.033308 533184.000000 1 0 0
-4.157617 6.616512 -17.460423 19.129306 -1.009777 2.720781 0.001689 0.007735 436200.000000 1 0 0
-8.084817 5.072912 -17.851523 20.242914 -0.560367 2.650600 0.017088 -0.005126 362821.000000 1 0 0
-8.636517 4.500412 -15.374823 18.199679 -0.480378 2.576960 0.007938 -0.010653 487473.000000 1 0 0
9.363983 13.229312 -13.063123 20.816917 0.954841 2.249166 0.083291 -0.039076 454108.000000 1 0 0
14.540783 9.918012 -11.865123 21.226928 0.598599 2.163934 0.119857 -0.030391 146984.000000 1 0 0
8.449283 15.583412 -9.866023 20.287225 1.073963 2.078666 0.054317 -0.015558 187364.000000 1 0 0
7.582883 13.279412 -14.560623 21.115270 1.051954 2.331702 0.082063 -0.030448 186682.000000 1 0 0
3.700283 15.439612 -12.657023 20.304530 1.335571 2.243828 0.037759 -0.028279 244151.000000 1 0 0
11.428183 10.780112 -10.573623 18.937151 0.756225 2.163196 0.095079 -0.057590 9882.460000 1 0 0
15.986083 10.899012 -8.963623 21.323458 0.598394 2.004643 0.092971 -0.041830 150741.000000 1 0 0
13.680883 11.170212 -8.570323 19.631368 0.684711 2.022571 0.119487 -0.027265 132201.000000 1 0 0
10.723883 11.458912 -7.300123 17.308961 0.818521 2.006175 0.055691 -0.019845 50770.800000 1 0 0
5.503183 17.007812 -10.263823 20.613024 1.257860 2.092005 0.036488 -0.003746 -74755.700000 1 0 0
10.931683 13.198312 -10.290323 19.989694 0.879057 2.111549 0.104230 -0.053054 60926.600000 1 0 0
8.131583 -19.505388 -1.784623 21.207727 -1.175816 1.655046 0.051091 -0.007950 95762.700000 1 0 0
7.481883 -16.881588 -4.208823 18.938870 -1.153613 1.794899 0.034346 -0.005906 247308.000000 1 0 0
4.028583 -18.680988 5.234277 19.814300 -1.358398 1.303457 0.038496 -0.019061 269507.000000 1 0 0
10.478383 -17.443188 -2.252823 20.472825 -1.029851 1.681059 0.062900 -0.021927 590814.000000 1 0 0
-3.089317 -14.905788 7.930877 17.164650 1.366434 1.090494 0.017882 -0.029964 174551.000000 1 0 0
-15.319117 -12.863488 -4.275023 20.455329 0.698485 1.781342 0.024772 -0.013947 91293.900000 1 0 0
-9.373417 -12.514288 -7.182623 17.206348 0.927925 2.001423 0.027507 -0.009669 155155.000000 1 0 0
-11.355817 -15.739488 6.482377 20.462338 0.945795 1.248447 0.047157 -0.009088 331441.000000 1 0 0
-14.586417 -6.961088 -7.058123 17.636253 0.445267 1.982537 0.033125 -0.037006 -352810.000000 1 0 0
4.687083 -15.134488 6.433577 17.100070 -1.270468 1.185071 0.023802 -0.016631 198750.000000 1 0 0
2.711783 -13.858288 9.015877 16.753864 -1.377559 1.002571 0.011254 -0.009501 317541.000000 1 0 0
3.483983 -17.053488 10.548677 20.352744 -1.369272 1.025943 0.044725 -0.016037 252820.000000 1 0 0
-7.810117 -17.587288 -5.065923 19.899101 1.152879 1.828210 0.007396 -0.016098 56351.500000 1 0 0
2.429783 -19.946788 -4.418923 20.574379 -1.449580 1.787261 0.028850 -0.001317 78525.300000 1 0 0
-17.019217 -10.672588 -2.873023 20.293155 0.560101 1.712850 -0.062395 -0.020611 -212514.000000 1 0 0
-4.494117 -15.071288 2.948277 16.001036 1.281000 1.385482 0.009660 -0.000639 157624.000000 1 0 0
-11.062117 -9.885888 -14.659523 20.856721 0.729307 2.350218 0.045547 -0.011348 42997.500000 1 0 0
0.678283 -20.425388 2.753077 20.621251 -1.537601 1.436890 0.024055 -0.009010 258812.000000 1 0 0
5.504383 -18.646688 0.741977 19.456304 -1.283755 1.532652 0.019086 0.005160 135686.000000 1 0 0
-6.680317 -18.658888 -2.714723 20.003761 1.226992 1.706927 -0.020779 -0.037191 -119214.000000 1 0 0
-9.446217 -15.542488 -7.543523 19.690218 1.024685 1.963957 0.051704 -0.013937 42761.500000 1 0 0
-12.070417 -11.122888 -12.713323 20.761555 0.744567 2.229825 0.046659 0.004499 223259.000000 1 0 0
-13.077017 -15.501988 -3.398523 20.563802 0.870047 1.736825 0.017484 0.002518 121244.000000 1 0 0
-0.363417 -20.522588 -2.611023 20.691209 1.553090 1.697324 0.036621 -0.006736 356508.000000 1 0 0
-12.008117 -16.791088 -0.693823 20.654707 0.949976 1.604394 0.040779 -0.012757 94833.100000 1 0 0
0.625283 -19.814088 5.299477 20.520076 -1.539249 1.309578 0.036529 -0.025070 157928.000000 1 0 0
-18.405117 -9.419488 2.170777 20.789116 0.473032 1.466187 0.059886 -0.001499 49102.700000 1 0 0
-15.177817 -15.044388 -1.007523 21.394271 0.780983 1.617907 0.052154 -0.009173 25450.600000 1 0 0
10.200783 -15.681188 -5.006523 19.365457 -0.994062 1.832295 0.038841 -0.001250 -76560.100000 1 0 0
-0.336017 -19.082788 -6.914523 20.299664 1.553190 1.918375 0.021233 -0.005824 126544.000000 1 0 0
-10.048917 -17.531288 -3.128623 20.447863 1.050317 1.724405 0.035169 0.004642 451633.000000 1 0 0
-14.754617 -6.833988 -11.352923 19.831565 0.433757 2.180308 0.042715 -0.020954 111892.000000 1 0 0
-12.568817 -14.626588 1.896177 19.378022 0.860920 1.472788 0.056167 -0.028569 255387.000000 1 0 0
-2.793917 -16.536988 10.749477 19.920573 1.403427 1.000814 0.023434 -0.011485 214047.000000 1 0 0
-12.378717 -14.689488 -6.696423 20.343446 0.870560 1.906219 0.026382 -0.002866 269858.000000 1 0 0
5.235083 -17.015888 -7.317023 19.247997 -1.272328 1.960749 0.025493 -0.008937 80886.400000 1 0 0
-17.652317 -7.496588 -3.188823 19.441495 0.401600 1.735562 0.007699 -0.015290 -21803.800000 1 0 0
-12.496917 -13.153188 -9.327023 20.400310 0.810978 2.045641 0.060957 -0.029186 11664.100000 1 0 0
-7.733017 -14.058088 9.842977 18.823220 1.067895 1.020527 0.031824 -0.014061 457495.000000 1 0 0
-15.852717 -8.325688 -5.602423 18.762006 0.483596 1.874027 0.032993 -0.007916 249986.000000 1 0 0
-0.666217 -19.631588 -0.201723 19.643925 1.536873 1.581065 0.019965 -0.009326 230313.000000 1 0 0
-15.125017 -11.539688 -1.934223 19.122546 0.651740 1.672118 0.013616 0.000959 72529.900000 1 0 0
-7.190317 -18.958588 1.426877 20.326453 1.208292 1.500541 0.037450 -0.019610 291421.000000 1 0 0
-2.176617 -20.869388 -5.228723 21.624259 1.466875 1.815016 0.030677 -0.005152 169990.000000 1 0 0
-9.283217 -19.665488 -0.983823 21.768727 1.129753 1.616006 0.051881 -0.015976 188647.000000 1 0 0
-17.630717 -7.816688 5.062577 19.939220 0.417315 1.314086 0.045822 -0.011574 68142.200000 1 0 0
-3.152717 -15.821388 -10.895223 19.466942 1.374103 2.164794 0.023704 0.001691 9972.770000 1 0 0
-3.214417 -18.368488 -7.614523 20.142363 1.397554 1.958469 0.015753 -0.004579 83557.000000 1 0 0
4.469683 -17.899788 -5.384323 19.219038 -1.326094 1.854753 0.019472 0.017931 701284.000000 1 0 0
0.592783 -17.332288 -9.745723 19.893183 -1.536609 2.082774 0.028543 0.001816 22227.500000 1 0 0
-7.792117 -10.165488 -14.685823 19.486601 0.916802 2.424374 0.036869 -0.010981 465974.000000 1 0 0
-4.420317 -19.704288 -1.462523 20.246905 1.350117 1.643094 0.017771 -0.007723 358680.000000 1 0 0
-9.275917 -16.194488 8.478777 20.498628 1.050630 1.144363 0.025272 -0.007204 253812.000000 1 0 0
-7.339317 -15.434588 -10.133323 19.868979 1.126931 2.105990 0.040354 -0.003466 258599.000000 1 0 0
-12.596317 -7.939588 -12.485123 19.431483 0.562409 2.268579 0.037456 -0.018019 183831.000000 1 0 0
-15.864617 -13.011188 3.160377 20.759698 0.686901 1.417966 0.055254 -0.011947 106989.000000 1 0 0
-6.352117 -14.272488 -13.035423 20.346389 1.152058 2.266173 0.034237 -0.006204 512935.000000 1 0 0
-13.891617 -11.394988 -6.821623 19.218671 0.686984 1.933654 0.027225 -0.020167 154045.000000 1 0 0
-12.109117 -10.246988 -8.364723 17.933211 0.702296 2.056055 0.034433 -0.009642 283644.000000 1 0 0
-9.895717 -14.939388 3.565177 18.270770 0.985760 1.374406 0.011799 -0.006029 512725.000000 1 0 0
4.954183 -17.900188 8.313677 20.348904 -1.300788 1.149924 0.049907 -0.023170 229315.000000 1 0 0
-4.909117 -17.045788 6.129177 18.767662 1.290389 1.238111 0.007107 0.021061 604816.000000 1 0 0
-18.050217 -7.711288 -6.832223 20.783493 0.403744 1.905758 0.033393 -0.024001 -14124.100000 1 0 0
-17.244817 -4.439388 -10.945223 20.901908 0.251962 2.121923 0.074462 -0.011558 -232575.000000 1 0 0
-15.630117 -4.502088 -13.268323 20.990897 0.280448 2.255055 0.049840 -0.019947 313382.000000 1 0 0
-19.579617 -5.793088 -5.731323 21.207766 0.287667 1.844445 0.078697 -0.016848 195466.000000 1 0 0
5.577383 -13.544488 8.653977 17.013280 -1.180174 1.037168 0.026377 -0.003722 237145.000000 1 0 0
19.827183 -3.299788 2.565477 20.262958 -0.164916 1.443846 0.068455 -0.019057 -217413.000000 1 0 0
17.981283 -2.573688 0.016377 18.164545 -0.142166 1.569895 0.033688 -0.008290 325213.000000 1 0 0
14.265983 -11.402988 0.281877 18.265428 -0.674322 1.555363 0.043293 0.000139 51187.900000 1 0 0
11.101183 -13.748088 5.327977 18.456260 -0.891516 1.277947 0.021068 -0.000218 532312.000000 1 0 0
10.359983 -12.749788 8.325877 18.417562 -0.888443 1.101721 0.037717 -0.024468 45456.600000 1 0 0
18.011583 4.603712 -4.408523 19.106186 0.250240 1.803632 0.016582 0.011237 20721.900000 1 0 0
18.934083 -6.082588 -4.483823 20.386320 -0.310837 1.792552 0.082915 -0.014346 -70428.900000 1 0 0
17.927783 -9.928488 -0.446023 20.498274 -0.505759 1.592557 0.084988 -0.010516 411704.000000 1 0 0
17.706683 -8.696288 8.869577 21.629181 -0.456527 1.148260 0.101554 -0.019632 20115.300000 1 0 0
19.441683 0.228712 -2.450623 19.596860 0.011763 1.696176 0.037296 -0.002495 67282.100000 1 0 0
7.296983 -13.551188 11.607277 19.277177 -1.076844 0.924636 0.015756 0.008601 364295.000000 1 0 0
16.239783 -6.429688 -3.241423 17.764523 -0.376986 1.754290 0.058584 -0.004770 350393.000000 1 0 0
14.507983 -6.740588 11.953877 19.970285 -0.434939 0.929065 0.086568 -0.026913 385255.000000 1 0 0
17.260383 2.123912 9.163677 19.657182 0.122436 1.085835 0.122653 -0.031162 393869.000000 1 0 0
16.562983 -10.093988 2.641677 19.575481 -0.547325 1.435435 0.024961 -0.009323 303462.000000 1 0 0
16.121383 -7.188188 -5.866023 18.600518 -0.419422 1.891642 0.064444 -0.007319 286949.000000 1 0 0
17.765583 -4.169888 5.905277 19.180099 -0.230544 1.257826 0.063131 -0.022522 6025.700000 1 0 0
13.199883 -13.189688 8.156977 20.365193 -0.785012 1.158695 0.038462 -0.015295 203315.000000 1 0 0
15.063283 -14.175988 -1.790623 20.762165 -0.755061 1.657148 0.048642 -0.007538 153324.000000 1 0 0
18.532083 -6.065388 7.347377 20.837730 -0.316303 1.210449 0.103902 -0.031908 197951.000000 1 0 0
19.720683 3.710012 2.470277 20.218106 0.185955 1.448309 0.051614 -0.005825 427489.000000 1 0 0
15.785983 -10.548488 8.275477 20.711142 -0.589076 1.159752 0.058939 -0.025079 323063.000000 1 0 0
14.031583 -4.006288 10.693677 18.091169 -0.278119 0.938375 0.060988 -0.014795 -226897.000000 1 0 0
18.804683 -7.724788 1.811777 20.410071 -0.389774 1.481911 0.095813 -0.014199 191674.000000 1 0 0
18.795883 -4.869188 -1.858923 19.505123 -0.253484 1.666246 0.061247 -0.007241 369053.000000 1 0 0
14.746083 -13.495888 -6.048923 20.884814 -0.741160 1.864639 0.092584 -0.023334 582129.000000 1 0 0
13.812283 -9.542288 10.127377 19.606076 -0.604562 1.027988 0.044338 -0.016362 358238.000000 1 0 0
14.129983 2.365112 0.314777 14.330013 0.165845 1.548828 0.001694 -0.004101 -232629.000000 1 0 0
13.327683 2.591812 13.571377 19.197055 0.192071 0.785618 0.053653 -0.012371 135702.000000 1 0 0
18.120783 -3.851888 9.287377 20.723301 -0.209450 1.106089 0.079290 -0.016936 125191.000000 1 0 0
7.456483 -18.298388 5.201577 20.432488 -1.183846 1.313389 0.056115 -0.023636 440657.000000 1 0 0
12.634983 -2.382388 15.322477 20.002422 -0.186367 0.698152 0.072373 0.000795 182594.000000 1 0 0
11.145383 -13.396188 -6.794023 18.703908 -0.876856 1.942540 0.031061 -0.017601 57614.400000 1 0 0
11.002783 -16.713888 4.678377 20.550000 -0.988607 1.341124 0.063211 -0.021453 463308.000000 1 0 0
18.282483 -0.490988 -5.655423 19.143512 -0.026849 1.870694 0.063416 -0.002634 178316.000000 1 0 0
4.048383 -13.439288 11.495877 18.142742 -1.278207 0.884553 0.004504 -0.004951 -77866.700000 1 0 0
9.166183 -2.339288 14.457977 17.277856 -0.249875 0.579398 0.018954 -0.005242 412413.000000 1 0 0
9.221583 -9.225188 14.036277 19.161388 -0.785594 0.748766 0.050762 -0.005202 382623.000000 1 0 0
21.134683 5.407512 -2.875823 22.004235 0.250486 1.701865 0.091906 0.005973 120149.000000 1 0 0
14.828783 -13.087188 1.766877 19.856716 -0.723092 1.481697 0.037058 -0.012059 95498.000000 1 0 0
10.946183 0.008112 15.119177 18.665704 0.000741 0.626648 0.044089 -0.010534 -124932.000000 1 0 0
20.118883 -0.490088 7.534077 21.488880 -0.024355 1.212581 0.150606 -0.029482 48589.700000 1 0 0
19.782883 0.865212 0.757977 19.816296 0.043708 1.532537 0.044285 -0.014514 256119.000000 1 0 0
17.738983 0.360212 3.048777 18.002675 0.020303 1.400625 0.027221 -0.005606 -101595.000000 1 0 0
10.598283 -8.056388 16.541077 21.232905 -0.649972 0.677679 0.086728 -0.009965 41639.700000 1 0 0
19.452783 2.820312 5.204777 20.333584 0.143979 1.311946 0.074593 -0.015230 207013.000000 1 0 0
14.958483 2.405012 6.963377 16.674199 0.159415 1.139979 0.024317 -0.015372 85700.200000 1 0 0
11.759683 -15.975888 1.841177 19.922577 -0.936258 1.478248 0.037864 0.003487 309505.000000 1 0 0
8.335883 -16.361788 7.100877 19.688005 -1.099599 1.201810 0.025917 0.000583 456039.000000 1 0 0
6.232983 6.759112 7.081377 11.605239 0.825872 0.914498 0.006368 -0.003037 -570410.000000 1 0 0
18.590683 2.604112 -6.660523 19.918772 0.139171 1.911748 0.052950 0.008743 396570.000000 1 0 0
14.464183 4.468112 -7.074023 16.709830 0.299610 2.007931 0.021165 -0.002224 273897.000000 1 0 0
-10.516117 -3.878588 -13.620423 17.639390 0.353344 2.453029 0.018448 -0.018761 -470231.000000 1 0 0
8.010383 -14.230888 -10.188423 19.248075 -1.058113 2.128597 0.030130 0.001624 279830.000000 1 0 0
2.094283 -15.758888 14.054077 21.218993 -1.438675 0.846866 0.013485 -0.007583 256319.000000 1 0 0
-9.450317 -8.152788 2.336977 12.697949 0.711821 1.385697 0.011863 0.001216 401412.000000 1 0 0
-13.793017 3.163912 -10.000423 17.328188 -0.225484 2.185993 0.031120 -0.002677 366060.000000 1 0 0
-12.782717 -4.489588 -13.802723 19.340874 0.337764 2.365499 0.026988 -0.008746 159333.000000 1 0 0
-18.174717 -1.278388 -8.696423 20.188670 0.070223 2.016128 0.086090 -0.022350 507567.000000 1 0 0
-12.296217 15.146112 4.296677 19.976563 -0.888878 1.354017 0.034426 -0.020502 458135.000000 1 0 0
-17.201817 6.653312 9.109177 20.570517 -0.369058 1.112047 0.028416 -0.001964 211765.000000 1 0 0
-14.012317 15.259512 0.092877 20.717296 -0.827980 1.566313 0.051385 -0.030649 107655.000000 1 0 0
-16.303817 5.510012 -10.708723 20.269470 -0.325907 2.127414 0.072873 -0.009599 76048.500000 1 0 0
-18.404617 2.766412 -0.149223 18.611964 -0.149194 1.578814 0.056064 -0.000198 -69542.200000 1 0 0
-9.761117 15.357512 -0.411523 18.201701 -1.004616 1.593407 0.018832 -0.008165 -25596.700000 1 0 0
-18.597117 12.159112 3.061277 22.429181 -0.579054 1.433883 0.104429 -0.019950 85397.000000 1 0 0
-8.332317 16.425912 -7.739223 19.978329 -1.101352 1.968585 0.051719 -0.029278 88257.200000 1 0 0
-14.912117 -1.767988 -12.912823 19.804999 0.118010 2.281013 0.046408 -0.028379 192151.000000 1 0 0
-19.211717 4.919312 -4.670723 20.374134 -0.250672 1.802101 0.084465 -0.012887 81290.800000 1 0 0
-16.733817 9.246412 -6.158623 20.085950 -0.504805 1.882429 0.052246 -0.003348 -37511.000000 1 0 0
-19.025617 1.198912 2.378877 19.211209 -0.062932 1.446650 0.048591 -0.017607 206915.000000 1 0 0
-13.325917 11.953112 -6.786423 19.144515 -0.731145 1.933158 0.043320 -0.017618 -175535.000000 1 0 0
-13.116317 5.455512 -13.330323 19.480705 -0.394166 2.324417 0.067536 -0.022243 15995.200000 1 0 0
-13.996617 9.419512 -6.527123 18.089660 -0.592364 1.939944 0.034919 -0.012733 229073.000000 1 0 0
-6.296217 11.227912 -15.442623 20.104302 -1.059726 2.446704 0.014062 -0.040007 9003.220000 1 0 0
-15.502317 13.464012 2.642577 20.702286 -0.715146 1.442800 0.070559 -0.039186 20299.600000 1 0 0
-18.821517 8.511912 -5.013023 21.256353 -0.424718 1.808876 0.074103 -0.017221 215217.000000 1 0 0
-4.725717 16.191212 -11.493123 20.410282 -1.286816 2.168934 0.017043 -0.008252 131317.000000 1 0 0
-19.084917 -2.670188 -6.445623 20.320187 0.139009 1.893575 0.023165 -0.014001 -73004.500000 1 0 0
-10.882117 14.013812 -6.409623 18.865064 -0.910532 1.917460 0.037608 -0.011832 291910.000000 1 0 0
-19.329617 2.765112 4.708177 20.085987 -0.142087 1.334194 0.059584 -0.016970 -11058.700000 1 0 0
-15.048517 11.789912 0.605377 19.126588 -0.664574 1.539140 0.023951 -0.021279 147874.000000 1 0 0
-17.360217 2.670812 -8.213823 19.390133 -0.152650 2.008221 0.038388 -0.011618 178714.000000 1 0 0
-16.639717 14.236012 -3.713123 22.211067 -0.707704 1.738759 0.049287 0.035450 300688.000000 1 0 0
-10.814817 15.703212 -8.740823 20.975059 -0.967694 2.000635 0.050217 -0.023998 237625.000000 1 0 0
-19.180817 1.968912 -6.816923 20.451180 -0.102292 1.910626 0.068992 -0.016459 291118.000000 1 0 0
-17.542317 10.299912 -0.680623 20.353975 -0.530915 1.604242 0.067401 -0.006617 30802.900000 1 0 0
-11.344717 7.115912 -14.688723 19.877056 -0.560212 2.402350 0.036730 -0.018573 153138.000000 1 0 0
-13.305617 12.332112 -4.310923 18.646835 -0.747445 1.804095 0.047353 -0.018292 255378.000000 1 0 0
-18.741517 7.283412 -0.872023 20.125928 -0.370662 1.614138 0.045914 0.000621 55857.200000 1 0 0
-14.541117 8.918712 -10.407923 19.982801 -0.550174 2.118636 0.038295 -0.008424 635351.000000 1 0 0
-18.620917 11.119412 5.244777 22.313394 -0.538319 1.333526 0.072453 -0.033072 26909.800000 1 0 0
-8.044817 12.160412 -13.200623 19.668531 -0.986339 2.306561 0.000487 -0.017062 453883.000000 1 0 0
-21.409517 -1.524988 -5.130123 22.068329 0.071109 1.805408 0.074826 -0.020086 420068.000000 1 0 0
-10.458817 13.184712 -3.373223 17.163977 -0.900183 1.768613 0.020381 -0.007434 312767.000000 1 0 0
-18.569517 -5.073688 3.647177 19.592631 0.266717 1.383554 0.032334 -0.014887 -25574.700000 1 0 0
-11.139217 11.306412 -13.569423 20.881722 -0.792847 2.278148 0.037130 -0.018882 276623.000000 1 0 0
-14.899317 10.983712 -9.978323 21.028516 -0.635256 2.065208 0.061249 -0.038853 177631.000000 1 0 0
-12.871217 9.721912 -13.835923 21.251272 -0.646898 2.279781 0.074365 -0.029024 293338.000000 1 0 0
-18.525517 -5.016588 -2.957323 19.419235 0.264451 1.723680 0.025061 -0.014813 -267070.000000 1 0 0
-9.656817 12.694912 -11.503623 19.665915 -0.920492 2.195618 0.035515 -0.020633 64174.100000 1 0 0
-15.886117 7.643912 -8.170023 19.430578 -0.448470 2.004762 0.043765 -0.002236 123007.000000 1 0 0
-14.538817 9.081512 1.852677 17.241910 -0.558340 1.463136 0.022880 -0.006061 -43506.400000 1 0 0
-19.818117 5.931612 7.783577 22.102621 -0.290817 1.210922 0.077795 -0.027548 291111.000000 1 0 0
-18.664717 5.941812 3.904277 19.972986 -0.308201 1.374052 0.030850 -0.002516 47774.900000 1 0 0
-14.532017 12.530312 5.862877 20.063937 -0.711566 1.274260 0.033521 -0.023502 20664.200000 1 0 0
17.839483 5.861712 5.371477 19.530991 0.317467 1.292182 0.030408 -0.018240 50930.500000 1 0 0
18.467883 8.069812 0.532877 20.161065 0.411961 1.544362 0.044013 0.007488 -17590.600000 1 0 0
15.711483 5.339912 9.010977 18.882878 0.327625 1.073326 0.009292 0.001199 -46448.600000 1 0 0
12.379783 12.992412 10.758277 20.923726 0.809539 1.030761 0.051993 -0.023837 150459.000000 1 0 0
15.632383 12.610812 3.861077 20.452674 0.678819 1.380876 0.048013 -0.004736 271649.000000 1 0 0
4.837483 10.390612 14.129777 18.193863 1.135076 0.681509 0.031221 -0.018469 264745.000000 1 0 0
12.545683 14.312512 -5.432823 19.792870 0.851087 1.848849 0.048967 0.019159 244592.000000 1 0 0
17.857083 9.321012 -2.503823 20.298419 0.481075 1.694462 0.018110 -0.003055 -131147.000000 1 0 0
14.318083 7.829012 9.473377 18.869176 0.500377 1.044822 0.026807 -0.013929 202517.000000 1 0 0
4.736183 19.153612 -1.728323 19.806044 1.328385 1.658170 0.020416 -0.016507 665223.000000 1 0 0
-4.417817 18.906812 2.971577 19.642172 -1.341252 1.418928 0.004981 -0.029066 332328.000000 1 0 0
6.803383 12.480412 12.715777 19.071908 1.071704 0.840986 0.041956 -0.016651 -35011.900000 1 0 0
0.417883 17.006312 -10.162223 19.815651 1.546229 2.109284 0.007924 0.000387 90260.200000 1 0 0
10.670683 10.100712 15.254177 21.179655 0.757965 0.766666 0.060418 -0.016571 184094.000000 1 0 0
-1.053617 12.115212 1.231677 12.223154 -1.484048 1.469859 0.003933 -0.000843 471378.000000 1 0 0
-4.448317 19.299912 -2.582523 19.973571 -1.344269 1.700456 0.003255 0.010229 75690.300000 1 0 0
5.751483 18.607512 6.208977 20.441880 1.271017 1.262183 0.035977 -0.018740 334405.000000 1 0 0
11.296283 17.263012 -1.535623 20.687574 0.991360 1.645094 0.038248 -0.013361 383390.000000 1 0 0
18.602183 10.467912 3.212577 21.585621 0.512560 1.421412 0.062798 -0.006358 256139.000000 1 0 0
11.695483 16.592012 6.619777 21.351830 0.956798 1.255568 0.045881 -0.005450 -4144.930000 1 0 0
18.303283 7.366012 -5.683323 20.532132 0.382610 1.851260 0.029109 0.021977 453566.000000 1 0 0
-0.760017 16.586712 11.966577 20.466939 -1.525008 0.946313 0.016886 0.061978 207031.000000 1 0 0
1.040683 20.344912 -1.941923 20.463859 1.519689 1.665835 0.023575 -0.005545 303897.000000 1 0 0
13.849383 9.631612 -1.470423 16.933266 0.607669 1.657742 0.020212 -0.010554 -1136210.000000 1 0 0
10.353383 17.062312 1.862277 20.044528 1.025393 1.477755 0.042980 -0.023609 346701.000000 1 0 0
-0.496917 17.834212 -1.034923 17.871125 -1.542940 1.628739 0.008197 -0.007556 -65184.900000 1 0 0
-0.426917 20.894712 1.482677 20.951601 -1.550367 1.499970 0.015339 -0.014449 410983.000000 1 0 0
5.993283 17.415012 -0.193623 18.418457 1.239347 1.581309 0.011813 -0.021727 -33273.100000 1 0 0
7.428683 18.251712 -1.615023 19.771662 1.184259 1.652571 0.016839 -0.016378 -25639.300000 1 0 0
10.612283 9.728612 12.775177 19.247639 0.741982 0.845006 0.049433 -0.013904 175978.000000 1 0 0
12.619683 14.687612 8.203177 21.030322 0.860982 1.170095 0.040714 -0.020983 242131.000000 1 0 0
0.279683 17.717112 7.083377 19.082675 1.555012 1.190502 0.008083 -0.001921 314182.000000 1 0 0
7.880183 18.062812 -7.578323 21.113821 1.159422 1.937914 0.038589 0.002720 87391.700000 1 0 0
-1.093917 18.615812 9.163177 20.777606 -1.512101 1.114070 0.040775 -0.016565 180999.000000 1 0 0
16.212083 6.876712 -7.929523 19.313160 0.401169 1.993882 0.060581 0.003298 -324768.000000 1 0 0
-5.189617 19.802312 -6.797023 21.569960 -1.314489 1.891374 0.008614 -0.004840 366418.000000 1 0 0
4.217383 15.833712 10.112377 19.254945 1.310485 1.017866 0.026821 -0.006691 237979.000000 1 0 0
8.934983 14.828212 7.500077 18.866927 1.028492 1.161978 0.020693 -0.012089 108593.000000 1 0 0
-2.562217 19.749512 6.312677 20.891579 -1.441781 1.263835 0.014583 -0.009630 61191.600000 1 0 0
4.754883 17.953612 8.184577 20.296019 1.311898 1.155720 0.025977 -0.019390 226548.000000 1 0 0
15.270883 12.075012 -6.131723 20.410875 0.669057 1.875924 0.094860 -0.011118 157403.000000 1 0 0
11.964883 7.020412 15.489477 20.793473 0.530621 0.730381 0.074233 -0.024236 262595.000000 1 0 0
17.108983 8.865112 4.832777 19.866133 0.478066 1.325064 0.044722 -0.011060 208813.000000 1 0 0
5.349783 14.697412 12.166977 19.815888 1.221709 0.909677 0.032206 -0.027973 376001.000000 1 0 0
15.947483 10.539712 -3.549423 19.442380 0.584001 1.754387 0.056587 -0.022011 301263.000000 1 0 0
15.307783 14.171912 6.586877 21.875974 0.746887 1.264949 0.056035 0.004773 209025.000000 1 0 0
12.580383 14.101112 -8.326323 20.650304 0.842332 1.985814 0.108484 -0.035928 411342.000000 1 0 0
-8.507817 15.655512 9.470877 20.178590 -1.073004 1.082239 0.041569 -0.020204 177009.000000 1 0 0
-3.952117 17.406712 -8.050423 19.581168 -1.347536 1.994491 -0.000788 0.031320 113035.000000 1 0 0
2.555483 19.422112 -4.737223 20.154161 1.439972 1.808066 0.027285 -0.018284 71170.800000 1 0 0
7.219983 16.590012 8.961977 20.190931 1.160317 1.110893 0.038340 -0.014603 518982.000000 1 0 0
13.479883 15.157612 -1.563323 20.344641 0.843916 1.647714 0.071989 -0.024369 123523.000000 1 0 0
13.111383 16.359812 4.661777 21.477523 0.895179 1.352001 0.053908 -0.023910 385889.000000 1 0 0
2.385883 18.384412 0.817077 18.556580 1.441740 1.526750 0.011192 -0.021469 60379.400000 1 0 0
-7.744717 16.529212 1.869977 18.349177 -1.132626 1.468708 0.024849 -0.015920 330998.000000 1 0 0
0.171183 19.888512 -5.864023 20.735693 1.562189 1.857507 0.032850 0.003347 293147.000000 1 0 0
-7.554517 17.873312 -6.517923 20.469717 -1.170901 1.894856 0.044026 -0.018516 179209.000000 1 0 0
-7.339817 18.510612 -1.194323 19.948485 -1.193294 1.630702 0.024108 -0.002007 98771.900000 1 0 0
-14.547717 -9.734788 8.750777 19.569831 0.589729 1.107213 0.061348 -0.004585 353827.000000 1 0 0
-12.928017 -13.812288 7.751577 20.445045 0.818455 1.181927 0.037665 -0.004889 96114.200000 1 0 0
-3.754217 -15.844388 12.715677 20.659798 1.338144 0.907802 0.039522 -0.012008 -4770.240000 1 0 0
-1.809117 -14.613088 15.900777 21.671409 1.447622 0.747013 0.023698 -0.000616 232931.000000 1 0 0
-7.045017 -14.340888 13.309277 20.794956 1.114170 0.876266 0.011582 -0.003059 63413.000000 1 0 0
-10.299517 -11.353388 11.864677 19.384273 0.834031 0.912111 0.056267 -0.004818 -12901.500000 1 0 0
-7.753317 -10.755188 13.304377 18.782823 0.946187 0.783671 0.043491 -0.000959 379046.000000 1 0 0
-15.366617 -11.980588 6.586777 20.568253 0.662209 1.244814 0.064549 -0.025795 165198.000000 1 0 0
-4.728417 -12.540688 13.311577 18.889809 1.210233 0.788801 0.030883 -0.014088 373698.000000 1 0 0
3.600283 -12.585288 13.826677 19.040182 -1.292167 0.758041 0.007619 0.001363 495688.000000 1 0 0
6.587983 -13.496588 14.548577 20.909819 -1.116696 0.801295 0.026202 -0.003114 194333.000000 1 0 0
7.338383 -8.915688 16.706877 20.309139 -0.882136 0.604778 0.053779 -0.011820 633684.000000 1 0 0
-5.439217 13.494912 13.289077 19.705261 -1.187657 0.830655 0.031763 -0.010655 449103.000000 1 0 0
-13.830717 -1.650888 17.310877 22.218925 0.118802 0.677559 0.067255 -0.019459 429397.000000 1 0 0
-10.684917 9.769312 12.816777 19.335891 -0.740664 0.846179 0.029777 0.001461 477709.000000 1 0 0
-7.212117 -8.427688 17.068777 20.356417 0.862965 0.576279 0.047028 -0.017831 170151.000000 1 0 0
-4.997717 2.199412 18.673877 19.455803 -0.414577 0.284471 0.037540 0.000511 626008.000000 1 0 0
-15.356517 -3.682888 14.752277 21.610552 0.235380 0.819424 0.079701 -0.011708 -39344.500000 1 0 0
-14.401517 3.233612 12.646577 19.436971 -0.220870 0.862362 0.039268 0.001172 364341.000000 1 0 0
-14.065117 10.892112 9.661977 20.243997 -0.658939 1.073244 -0.028341 0.015779 -141986.000000 1 0 0
-4.031317 11.340012 15.846777 19.898938 -1.229235 0.649539 0.001112 -0.005908 206305.000000 1 0 0
-12.678417 13.408712 7.413977 19.887254 -0.813385 1.188771 0.012160 -0.021904 72848.500000 1 0 0
-3.598617 -6.281788 18.603677 19.962658 1.050568 0.371114 0.021684 -0.011852 297620.000000 1 0 0
0.563283 -2.938188 17.479177 17.733355 -1.381383 0.169515 0.010789 -0.028008 167670.000000 1 0 0
-4.694017 6.428912 21.029777 22.485912 -0.940126 0.361853 0.063628 -0.020420 337804.000000 1 0 0
2.262483 -10.649788 16.279677 19.584808 -1.361465 0.589462 0.002855 -0.009369 306932.000000 1 0 0
-14.698117 -0.103288 13.998777 20.298056 0.007027 0.809776 0.029443 -0.002854 -112845.000000 1 0 0
-13.737917 -6.129888 8.790077 17.423299 0.419691 1.041992 0.030778 0.000257 206903.000000 1 0 0
10.218683 1.497812 16.475077 19.444616 0.145539 0.559949 0.052914 -0.001962 446046.000000 1 0 0
-7.923417 12.282512 11.896977 18.846185 -0.997875 0.887610 0.027993 -0.009917 217703.000000 1 0 0
-1.818817 7.645412 19.699677 21.209378 -1.337241 0.379583 0.048162 -0.030364 486159.000000 1 0 0
1.115383 -13.897588 15.679477 20.981731 -1.490711 0.726819 -0.004729 0.003289 530682.000000 1 0 0
-3.365117 -11.582988 17.741677 21.453595 1.288057 0.597083 0.033239 -0.019006 421598.000000 1 0 0
-2.184817 8.726712 16.657377 18.931380 -1.325479 0.495183 0.018632 -0.015376 545829.000000 1 0 0
-5.167817 -9.350188 20.281277 22.922970 1.065885 0.484822 0.077169 -0.022951 246843.000000 1 0 0
-6.563817 -2.746588 18.992777 20.281840 0.396304 0.358448 0.031670 -0.022877 53660.000000 1 0 0
-10.707617 -7.963088 16.360477 21.112296 0.639447 0.684198 0.069440 -0.022973 333095.000000 1 0 0
0.183383 6.557112 17.961777 19.122102 1.542837 0.350153 0.004164 -0.005647 273844.000000 1 0 0
-6.166417 -11.457288 18.744177 22.817501 1.077051 0.606790 0.071194 -0.021268 359395.000000 1 0 0
0.482783 3.395612 18.776377 19.087053 1.429564 0.180672 0.030255 -0.014830 134872.000000 1 0 0
-18.460017 -0.468688 7.735677 20.020804 0.025384 1.174091 0.059554 -0.022369 66429.600000 1 0 0
-1.614117 -8.873688 17.448477 19.641718 1.390864 0.477084 0.008367 -0.008538 287391.000000 1 0 0
6.082983 3.609612 15.057277 16.635912 0.535549 0.439166 0.010873 -0.006679 489717.000000 1 0 0
-14.737717 -7.456688 10.773677 19.719904 0.468404 0.992814 0.086599 0.013715 100034.000000 1 0 0
3.603983 8.068712 17.179777 19.319357 1.150722 0.475089 0.020756 -0.006804 9548.950000 1 0 0
6.349783 4.557612 17.567277 19.227605 0.622545 0.418625 0.036357 -0.030524 111646.000000 1 0 0
5.506383 -9.445588 18.166277 21.202666 -1.043002 0.541780 0.033105 -0.000952 432253.000000 1 0 0
-4.512417 -0.919188 20.012377 20.535385 0.200953 0.226175 0.041122 -0.006504 748714.000000 1 0 0
-11.129617 1.912312 16.941377 20.360147 -0.170160 0.587940 0.040331 -0.012715 196297.000000 1 0 0
-16.660117 -4.050588 8.393577 19.089759 0.238503 1.115543 0.052794 -0.023161 22056.100000 1 0 0
-13.074017 -9.534788 12.794377 20.628577 0.630116 0.901766 0.045844 -0.021464 8312.180000 1 0 0
-14.275317 5.840012 13.328877 20.385028 -0.388325 0.858126 0.034602 0.001853 386464.000000 1 0 0
1.124283 9.012412 16.870077 19.159517 1.446689 0.493867 0.003909 -0.027065 203264.000000 1 0 0
-3.725917 -10.140388 14.960377 18.453260 1.218676 0.625420 0.022667 -0.014779 658050.000000 1 0 0
-18.920817 -3.421088 6.567577 20.318322 0.178878 1.241651 0.134371 -0.018591 -262002.000000 1 0 0
-0.871717 -0.426488 21.181877 21.204096 0.455012 0.045783 0.042032 -0.012946 425683.000000 1 0 0
-1.800417 2.492512 20.268077 20.499977 -0.945240 0.150556 0.045168 -0.016762 134812.000000 1 0 0
-8.082317 2.478012 16.263277 18.329173 -0.297498 0.479362 0.009561 0.010365 557793.000000 1 0 0
3.013483 -2.383488 18.721777 19.111961 -0.669193 0.202413 0.024942 -0.014536 17783.600000 1 0 0
-11.727717 4.058112 14.798477 19.313274 -0.333131 0.697838 -0.012406 0.004917 80052.000000 1 0 0
-13.209417 -5.475488 13.272777 19.509902 0.392956 0.822611 0.034374 -0.011578 50832.100000 1 0 0
-17.515517 -0.925988 9.812377 20.098098 0.052818 1.060743 0.081204 -0.020340 87160.300000 1 0 0
-7.661917 7.438812 14.626577 18.110153 -0.770625 0.630649 0.016692 -0.016178 131921.000000 1 0 0
-9.431617 0.650512 13.992877 16.887249 -0.068862 0.594183 0.009524 -0.004080 303021.000000 1 0 0
7.569083 -0.729288 15.103877 16.910056 -0.096054 0.466408 0.020660 -0.007090 215367.000000 1 0 0
4.036383 6.187412 18.373977 19.803522 0.992768 0.382288 0.013752 -0.011078 -13868.100000 1 0 0
1.430983 0.220412 20.006877 20.059198 0.152827 0.072242 0.025399 -0.009879 225397.000000 1 0 0
-7.049617 6.781012 17.430977 19.987951 -0.765980 0.511371 0.022985 -0.016810 589395.000000 1 0 0
7.743383 -3.290188 16.617177 18.625679 -0.401789 0.468681 0.031916 -0.008929 388097.000000 1 0 0
-16.670517 2.393712 9.403077 19.288697 -0.142615 1.061582 0.058531 -0.009055 236891.000000 1 0 0
3.605883 -6.110788 18.955177 20.239636 -1.037699 0.358177 0.020530 -0.030913 185021.000000 1 0 0
-3.750017 -3.669888 20.546577 21.205955 0.774599 0.250026 0.027767 -0.017198 495849.000000 1 0 0
-9.803217 5.876612 14.408077 18.391039 -0.540020 0.670632 0.014424 0.000343 44873.600000 1 0 0
6.812183 2.439712 19.860577 21.137657 0.343908 0.349387 0.062627 -0.019952 199456.000000 1 0 0
-7.428117 11.613812 14.230577 19.813300 -1.001772 0.769536 0.044473 -0.021517 333206.000000 1 0 0
-14.521717 4.924812 9.227677 17.896482 -0.326962 1.029072 0.022575 -0.003944 284970.000000 1 0 0
1.269483 -4.952988 20.299677 20.933719 -1.319891 0.246748 0.037209 -0.029477 291508.000000 1 0 0
-6.192817 -8.328688 13.525777 17.048891 0.931434 0.654500 0.021943 -0.008988 298695.000000 1 0 0
-12.921717 10.323912 6.474677 17.761626 -0.674105 1.197666 -0.005158 -0.011031 8104.840000 1 0 0
-19.479917 2.575912 7.933777 21.190736 -0.131471 1.187048 0.046146 -0.023836 -49405.300000 1 0 0
-15.619717 9.120812 6.194077 19.118874 -0.528519 1.240866 0.016455 -0.011208 143997.000000 1 0 0
-12.758017 8.016812 14.119177 20.649151 -0.561022 0.817886 0.019730 0.006283 184602.000000 1 0 0
-16.607717 9.084712 10.270377 21.536687 -0.500550 1.073697 0.048041 -0.016633 392363.000000 1 0 0
2.455083 10.737412 15.495477 19.011293 1.346013 0.617952 0.007532 -0.011507 357404.000000 1 0 0
1.546583 14.390112 12.937077 19.412244 1.463732 0.841374 0.022715 -0.027787 532798.000000 1 0 0
8.501683 5.480012 16.373677 19.245946 0.572555 0.553367 0.032891 -0.019551 241198.000000 1 0 0
-0.432017 13.321112 13.517777 18.983386 -1.538377 0.778333 0.020531 0.005213 220306.000000 1 0 0
3.887383 13.906012 15.277577 21.021258 1.298208 0.757191 0.029616 0.019449 118707.000000 1 0 0
-3.621117 -4.542088 -13.582723 14.772725 0.897743 2.737466 0.002385 -0.008378 174129.000000 1 0 0
5.250183 -11.851388 16.897477 21.296586 -1.153778 0.654363 -0.013296 0.012697 329177.000000 1 0 0
8.661683 -13.818788 7.386977 17.903941 -1.010900 1.145501 0.014129 -0.004046 204329.000000 1 0 0
-0.372317 15.101312 0.486977 15.113748 -1.546147 1.538570 0.002874 -0.004641 -154838.000000 1 0 0
-14.000317 7.606712 8.703977 18.155720 -0.497703 1.070818 0.003322 0.001726 134357.000000 1 0 0
-16.236617 -9.745788 4.535277 19.472464 0.540592 1.335730 0.051505 -0.007650 347419.000000 1 0 0
8.510583 -10.720988 11.351977 17.783054 -0.899832 0.878431 -0.005812 0.007291 -7040.310000 1 0 0
-26.668547 5.759712 30.907424 41.226866 -0.212707 0.723201 0.069069 -0.028972 -469083.000000 0 0 1
-25.591387 4.895512 30.678154 40.249649 -0.189012 0.704096 0.059718 -0.027555 -449486.000000 0 0 1
-24.548717 5.280212 31.526604 40.304427 -0.211863 0.672588 0.043686 -0.019616 433699.000000 0 0 1
-23.157117 4.585912 31.261654 39.173634 -0.195505 0.646781 0.040812 -0.026836 647262.000000 0 0 1
-22.972717 3.225612 31.685814 39.270104 -0.139499 0.631964 0.034070 -0.023836 213188.000000 0 0 1
-21.714817 2.722912 31.263434 38.162151 -0.124743 0.610736 0.043007 -0.019180 75354.800000 0 0 1
-21.351417 1.420912 31.947914 38.452193 -0.066451 0.590167 0.028455 -0.022846 -360094.000000 0 0 1
-22.149117 0.320612 31.607594 38.596971 -0.014474 0.611280 0.030605 -0.018387 120977.000000 0 0 1
-21.830017 -0.662588 32.592970 39.233791 0.030343 0.590366 0.023966 -0.016833 129742.000000 0 0 1
-22.464017 -2.051488 32.452408 39.522138 0.091071 0.607426 0.036353 -0.041053 -314805.000000 0 0 1
-21.613017 -2.868688 31.695784 38.470438 0.131958 0.602538 0.059102 -0.045264 16478.900000 0 0 1
-21.588517 -4.235888 32.116451 38.929079 0.193749 0.600596 0.071134 -0.049825 296778.000000 0 0 1
-22.820417 -5.169988 31.688234 39.390917 0.222790 0.636038 0.063865 -0.039314 854790.000000 0 0 1
-24.036417 -4.862788 32.316124 40.567572 0.199615 0.649147 0.053824 -0.034037 -185740.000000 0 0 1
-24.143217 -5.111888 33.735285 41.798274 0.208650 0.631577 0.050520 -0.029539 -245863.000000 0 0 1
-25.357117 -4.388088 -33.424323 42.183220 0.171354 2.485465 0.050821 -0.025404 485632.000000 0 0 1
-25.442327 -4.745088 -32.078183 41.216958 0.184385 2.462712 0.050582 -0.021678 -178033.000000 0 0 1
-26.542887 -4.115588 -31.499293 41.396478 0.153829 2.435522 0.052995 -0.018316 -500835.000000 0 0 1
-26.876117 -4.609588 -30.058743 40.584504 0.169860 2.404827 0.038457 -0.013818 -494224.000000 0 0 1
-27.215497 -5.981588 -29.872173 40.851063 0.216346 2.390943 0.045106 -0.013885 447175.000000 0 0 1
-27.107687 -6.343888 -28.518103 39.854156 0.229888 2.368224 0.020751 -0.019233 -124694.000000 0 0 1
-27.049937 -7.873288 -28.376643 39.986518 0.283239 2.359805 0.033348 -0.014186 -411518.000000 0 0 1
-28.265687 -8.518388 -28.632633 41.125900 0.292712 2.340913 0.051062 -0.010054 -267282.000000 0 0 1
-28.282537 -9.858488 -28.247083 41.170249 0.335402 2.326917 0.057562 -0.011252 -1373120.000000 0 0 1
-29.716127 -10.160388 -28.041373 42.102260 0.329454 2.299670 0.100877 -0.010893 -1367170.000000 0 0 1
-30.072557 -11.240388 -27.231733 42.098364 0.357697 2.274256 0.111887 -0.023651 3246.650000 0 0 1
-31.436377 -11.234688 -26.827133 42.827083 0.343233 2.247730 0.114790 -0.020908 373168.000000 0 0 1
-31.562567 -11.983388 -25.482233 42.298244 0.362859 2.217353 0.130760 -0.031546 192329.000000 0 0 1
-30.771317 -11.380888 -24.459423 40.922633 0.354251 2.211424 0.137818 -0.023438 103985.000000 0 0 1
-30.857017 -12.085888 -23.200323 40.453420 0.373308 2.181577 0.152813 -0.031466 -71638.900000 0 0 1
-30.165887 -11.409588 -21.965923 39.021292 0.361598 2.168713 0.171932 -0.027757 -16908.600000 0 0 1
-30.249987 -12.102188 -20.729723 38.616655 0.380569 2.137445 0.175668 -0.030047 484074.000000 0 0 1
-29.109907 -12.939788 -20.556823 37.913161 0.418283 2.143859 0.169270 -0.033814 54675.400000 0 0 1
-28.808887 -13.289788 -19.078023 37.020824 0.432218 2.112192 0.168522 -0.037189 88051.500000 0 0 1
-28.178397 -12.222488 -18.368723 35.788563 0.409262 2.109772 0.162688 -0.037780 127868.000000 0 0 1
-27.937377 -12.599588 -17.050823 35.071031 0.423680 2.078509 0.166544 -0.029154 40336.800000 0 0 1
-27.646707 -11.470988 -16.063423 33.969950 0.393296 2.063343 0.164302 -0.030912 -248119.000000 0 0 1
-26.435537 -10.847788 -16.384123 32.938603 0.389396 2.091412 0.136241 -0.033667 -44926.900000 0 0 1
-26.272347 -9.617788 -15.668423 32.066143 0.350928 2.081313 0.129086 -0.034044 -949072.000000 0 0 1
-24.876517 -9.075988 -15.922723 30.898993 0.349835 2.112172 0.101404 -0.033064 -911724.000000 0 0 1
-23.914417 -9.461188 -14.989223 29.767268 0.376731 2.098496 0.079083 -0.033076 153700.000000 0 0 1
-22.738517 -8.670388 -15.221823 28.704001 0.364290 2.129754 0.096836 -0.056262 419666.000000 0 0 1
-21.629117 -8.986588 -14.178023 27.378711 0.393784 2.115130 0.086275 -0.027930 -97547.000000 0 0 1
-20.747717 -10.022188 -14.504123 27.226487 0.449996 2.132609 0.078309 -0.020872 674934.000000 0 0 1
-19.568217 -9.952988 -13.702623 25.879315 0.470528 2.128786 0.088824 -0.019431 1590940.000000 0 0 1
-18.367517 -10.985388 -14.004623 25.576823 0.539012 2.150231 0.084756 -0.009561 1198870.000000 0 0 1
-17.645717 -11.028588 -15.212523 25.776383 0.558600 2.202069 0.088138 -0.034559 30172.100000 0 0 1
-18.412017 -11.174188 -16.365423 27.049804 0.545475 2.220576 0.082773 -0.034435 -61276.100000 0 0 1
-17.652417 -10.720188 -17.656123 27.171105 0.545765 2.278134 0.085012 -0.036030 463924.000000 0 0 1
-18.581917 -10.996088 -18.685923 28.554602 0.534341 2.284176 0.071461 -0.028638 499414.000000 0 0 1
-18.133617 -10.510088 -19.939723 28.928923 0.525278 2.331272 0.078058 -0.035414 -278925.000000 0 0 1
-18.953417 -10.886688 -21.187323 30.441003 0.521377 2.340626 0.085203 -0.033845 -364865.000000 0 0 1
-20.140417 -10.136288 -21.304923 31.020646 0.466269 2.327871 0.076394 -0.051102 -230555.000000 0 0 1
-20.938617 -10.794988 -22.256423 32.408422 0.476013 2.327802 0.079814 -0.043467 154405.000000 0 0 1
-22.205417 -10.002288 -22.659523 33.265301 0.423223 2.320164 0.063284 -0.045103 212070.000000 0 0 1
-21.748217 -8.872788 -23.388823 33.147373 0.387365 2.354067 0.071450 -0.048611 -244795.000000 0 0 1
-22.740317 -8.220788 -24.093923 34.135326 0.346889 2.354398 0.057888 -0.044028 -846828.000000 0 0 1
-22.234217 -7.421288 -25.283373 34.477309 0.322151 2.394009 0.052306 -0.043256 -229645.000000 0 0 1
-21.670117 -8.341388 -26.196223 35.005925 0.367444 2.416347 0.068389 -0.042283 752041.000000 0 0 1
-20.873117 -7.679088 -27.229053 35.157883 0.352526 2.456688 0.069320 -0.048896 166553.000000 0 0 1
-19.644917 -8.400688 -27.759463 35.029732 0.404093 2.485619 0.100084 -0.046752 -324987.000000 0 0 1
-19.919917 -9.357388 -28.766053 36.219464 0.439156 2.488511 0.108570 -0.042125 -155417.000000 0 0 1
-18.745917 -9.897488 -29.276313 36.145154 0.485781 2.514889 0.079561 -0.030480 -404138.000000 0 0 1
-19.105517 -11.019788 -30.273503 37.455860 0.523175 2.511961 0.083642 -0.024762 88240.700000 0 0 1
-19.497217 -10.577488 -31.572523 38.585605 0.497077 2.529150 0.072997 -0.018567 138952.000000 0 0 1
-19.744517 -11.738588 -32.315473 39.647575 0.536383 2.523643 0.060711 -0.018727 75060.100000 0 0 1
-20.171717 -11.558088 -33.791263 41.016302 0.520319 2.538966 0.053974 -0.022524 -49950.900000 0 0 1
-19.284717 -10.774388 33.290367 39.952925 0.509499 0.585855 0.049150 -0.020557 -124987.000000 0 0 1
-19.648517 -10.784088 31.878394 38.969126 0.501960 0.612797 0.059414 -0.029223 -167284.000000 0 0 1
-19.157517 -11.965388 31.018564 38.370982 0.558297 0.629391 0.049322 -0.021843 -604343.000000 0 0 1
-17.762417 -11.971088 30.890364 37.590224 0.593032 0.606293 0.041447 -0.025653 -136521.000000 0 0 1
-17.249717 -12.902788 29.888464 36.842298 0.642220 0.624503 0.050549 -0.027440 60695.900000 0 0 1
-17.492017 -14.436088 30.079884 37.671882 0.689976 0.646046 0.057681 -0.018685 168521.000000 0 0 1
-18.866617 -14.851988 30.013444 38.436149 0.666893 0.674747 0.057011 -0.019120 641082.000000 0 0 1
-19.139017 -16.108988 30.738804 39.631749 0.699646 0.683114 0.067328 -0.019171 -657755.000000 0 0 1
-19.401717 -16.035788 32.254579 40.913701 0.690700 0.662663 0.032944 -0.022588 -1230400.000000 0 0 1
-18.313917 -15.668188 33.049305 40.904134 0.707698 0.630098 0.060115 -0.017893 -445557.000000 0 0 1
-18.507317 -15.722188 -33.423333 41.313765 0.704211 2.513266 0.053465 -0.021245 315052.000000 0 0 1
-17.183017 -15.257288 -32.759143 40.015027 0.726106 2.529889 0.052263 -0.019432 355732.000000 0 0 1
-16.796117 -13.936188 -33.045723 39.602357 0.692606 2.557909 0.048564 -0.011971 -838137.000000 0 0 1
-15.610417 -13.542888 -32.443233 38.466327 0.714598 2.574412 0.043830 -0.007013 -482607.000000 0 0 1
-15.627717 -13.158688 -30.912253 37.053259 0.699837 2.557595 0.077185 -0.017420 -205647.000000 0 0 1
-15.871217 -14.260688 -30.059823 36.862660 0.732000 2.524310 0.072620 -0.022683 -157422.000000 0 0 1
-16.067717 -13.891888 -28.675313 35.685146 0.712900 2.504056 0.074641 -0.026628 -287205.000000 0 0 1
-16.120417 -15.140588 -27.833403 35.550015 0.754065 2.470168 0.098557 -0.025083 443876.000000 0 0 1
-14.918317 -15.818388 -27.449173 35.017634 0.814673 2.471666 0.082303 -0.034745 320947.000000 0 0 1
-14.251217 -16.508488 -28.512123 35.896636 0.858651 2.488624 0.065325 -0.036614 -466975.000000 0 0 1
-12.905217 -17.118988 -28.123683 35.363059 0.924833 2.490273 0.068159 -0.032735 -342872.000000 0 0 1
-11.822517 -16.220888 -28.135233 34.561256 0.940972 2.521920 0.058218 -0.032086 -106091.000000 0 0 1
-10.846517 -16.561888 -27.152333 33.603456 0.990978 2.511583 0.076545 -0.040960 -277216.000000 0 0 1
-9.507317 -15.908988 -27.384673 33.066679 1.032139 2.546622 0.059413 -0.037917 -788095.000000 0 0 1
-9.541517 -14.562788 -27.035503 32.156395 0.990775 2.569464 0.062535 -0.026721 644072.000000 0 0 1
-8.241017 -13.958188 -27.188313 31.653590 1.037460 2.603979 0.078444 -0.023689 656947.000000 0 0 1
-8.123717 -12.469588 -27.603083 31.359458 0.993380 2.647113 0.046458 -0.024218 -185066.000000 0 0 1
-8.678717 -12.270488 -28.922893 32.594765 0.955199 2.662357 0.058398 -0.018042 345212.000000 0 0 1
-8.596317 -10.933388 -29.409843 32.532668 0.904499 2.699854 0.047779 -0.021701 -409929.000000 0 0 1
-7.419217 -10.639488 -30.328223 32.985521 0.961866 2.737452 0.047038 -0.007941 -531440.000000 0 0 1
-6.152817 -10.509488 -29.731883 32.129291 1.041141 2.752840 0.046673 -0.004983 66273.900000 0 0 1
-5.135617 -10.200788 -30.660543 32.718489 1.104390 2.785028 0.059517 -0.006039 -26827.100000 0 0 1
-4.913317 -8.776388 -31.223183 32.803244 1.060435 2.829953 0.047667 -0.004232 -1811890.000000 0 0 1
-3.628617 -8.479088 -31.696523 33.011079 1.166431 2.858436 0.071437 -0.016275 -235658.000000 0 0 1
-3.597717 -7.153388 -32.132553 33.115185 1.104800 2.897375 0.071207 -0.014732 349450.000000 0 0 1
-2.161617 -6.702888 -32.508333 33.262486 1.258836 2.928243 0.076188 -0.018418 409493.000000 0 0 1
-1.656417 -7.088188 -33.797393 34.572386 1.341229 2.929457 0.089816 -0.022629 599540.000000 0 0 1
-0.366417 -6.491988 33.796386 34.416215 1.514415 0.190074 0.112516 -0.025899 854259.000000 0 0 1
0.343483 -7.183088 32.624545 33.407718 -1.523014 0.216957 0.115955 -0.021074 -46756.400000 0 0 1
-0.205417 -6.776888 31.380624 32.104703 1.540494 0.212786 0.111521 -0.025268 127463.000000 0 0 1
0.186083 -7.625788 30.287554 31.233366 -1.546399 0.246723 0.092910 -0.028157 155944.000000 0 0 1
-0.308317 -7.114188 28.901324 29.765639 1.527485 0.241574 0.083953 -0.023827 114475.000000 0 0 1
0.360483 -5.908688 28.552154 29.159356 -1.509863 0.204432 0.099410 -0.031999 83107.700000 0 0 1
0.131083 -5.479988 27.234944 27.781102 -1.546881 0.198616 0.096108 -0.027107 -382578.000000 0 0 1
-1.085317 -4.552188 27.073364 27.474849 1.336749 0.171164 0.073404 -0.019199 396270.000000 0 0 1
-2.331717 -5.222988 27.217824 27.812343 1.150912 0.207136 0.044412 -0.004247 131342.000000 0 0 1
-3.390317 -4.268188 26.981844 27.526924 0.899527 0.199336 0.028713 -0.007674 2573.800000 0 0 1
-4.788917 -4.786788 27.270194 28.098230 0.785176 0.243373 0.020023 -0.002980 -525070.000000 0 0 1
-5.267217 -5.714388 26.358254 27.480090 0.826096 0.286721 0.019232 -0.003099 625714.000000 0 0 1
-6.648017 -6.019688 26.690574 28.157051 0.735838 0.324162 0.020364 -0.006176 1560630.000000 0 0 1
-6.945917 -7.513388 26.391084 28.305230 0.824624 0.369869 0.025490 -0.005996 250333.000000 0 0 1
-6.315417 -8.320888 27.385194 29.309904 0.921571 0.364415 0.030940 -0.008275 -99325.700000 0 0 1
-6.409717 -9.701988 27.169864 29.553588 0.986964 0.404391 0.043160 -0.012633 -174579.000000 0 0 1
-5.533717 -10.441688 28.161604 30.540576 1.083466 0.397312 0.032896 -0.015331 -192056.000000 0 0 1
-5.762017 -11.819188 28.226604 31.138966 1.117188 0.435943 0.054038 -0.020289 463695.000000 0 0 1
-4.953717 -12.408988 29.295384 32.198475 1.190976 0.427904 0.072878 -0.025162 575739.000000 0 0 1
-5.168017 -13.927588 29.441354 32.976953 1.215481 0.467305 0.086609 -0.036371 80402.200000 0 0 1
-6.495717 -14.378188 29.635224 33.573399 1.146467 0.489220 0.071813 -0.033336 -146752.000000 0 0 1
-6.581217 -15.791088 29.346484 33.968912 1.175919 0.527791 0.064304 -0.031731 8830.580000 0 0 1
-6.896217 -16.564988 30.635014 35.502968 1.176307 0.529844 0.078705 -0.029511 19003.800000 0 0 1
-8.108717 -16.290588 31.300664 36.205885 1.108947 0.526604 0.077500 -0.033015 -296635.000000 0 0 1
-8.056717 -16.785588 32.603593 37.545451 1.123294 0.518877 0.069463 -0.024145 265861.000000 0 0 1
-9.392917 -16.998388 33.431727 38.663322 1.065977 0.526267 0.066299 -0.015101 1332220.000000 0 0 1
-10.187817 -18.117488 32.950542 38.958609 1.058544 0.562765 0.077702 -0.020160 790509.000000 0 0 1
-10.886117 -18.029288 31.706364 38.063845 1.027586 0.586327 0.080302 -0.026439 -311188.000000 0 0 1
-11.706817 -19.289488 31.312194 38.595173 1.025318 0.624427 0.076063 -0.019344 -709743.000000 0 0 1
-12.841317 -19.570988 32.031396 39.672828 0.990117 0.631083 0.082025 -0.015035 -698011.000000 0 0 1
-13.252317 -20.924488 32.033487 40.492004 1.006222 0.658181 0.081784 -0.017620 -248431.000000 0 0 1
-12.528117 -21.777388 33.078026 41.537503 1.048751 0.649575 0.100099 -0.021997 113524.000000 0 0 1
-11.161217 -22.027588 32.769636 41.032140 1.101809 0.645775 0.078191 -0.027318 487897.000000 0 0 1
-10.338917 -22.577388 33.805214 41.945490 1.141365 0.633548 0.080503 -0.039369 510412.000000 0 0 1
-10.587817 -24.062688 -33.732763 42.766975 1.156281 2.479581 0.112875 -0.031104 -97330.900000 0 0 1
-10.117517 -25.018728 33.130939 42.731253 1.186505 0.683555 0.114726 -0.031440 -50645.500000 0 0 1
-10.042417 -26.341118 33.617163 43.872751 1.206562 0.697824 0.138846 -0.038062 -608151.000000 0 0 1
-9.386517 -27.296288 32.656601 43.584947 1.239588 0.723847 0.127769 -0.035350 241850.000000 0 0 1
-8.016317 -27.035008 32.412042 42.961535 1.282539 0.715991 0.117335 -0.043163 20858.600000 0 0 1
-7.117517 -27.838118 33.125804 43.851325 1.320483 0.714514 0.115609 -0.042440 715343.000000 0 0 1
-5.598317 -27.439538 33.193926 43.429323 1.369535 0.700809 0.103894 -0.048009 1106870.000000 0 0 1
-5.227017 -26.249948 33.902814 43.194702 1.374242 0.668288 0.103767 -0.043365 -56392.300000 0 0 1
-5.230617 -25.124408 33.076196 41.864424 1.365540 0.659859 0.123154 -0.044396 34399.800000 0 0 1
-4.609517 -23.874288 33.777736 41.619283 1.380069 0.623930 0.116636 -0.042670 -58400.200000 0 0 1
-3.272417 -24.107288 -33.690233 41.556009 1.435877 2.516175 0.103958 -0.049555 -340941.000000 0 0 1
-2.831017 -22.925188 -33.031423 40.306994 1.447929 2.531327 0.101114 -0.047311 104948.000000 0 0 1
35.225021 -16.006488 1.872677 38.736503 -0.426513 1.522433 0.196196 -0.038915 -110814.000000 0 0 1
35.873881 -15.576388 3.027777 39.226606 -0.409636 1.493533 0.198901 -0.041086 46866.800000 0 0 1
35.160041 -16.052388 4.129177 38.871040 -0.428289 1.464368 0.178296 -0.047988 -200001.000000 0 0 1
35.998551 -16.252288 5.397077 39.864282 -0.424076 1.434993 0.152490 -0.032635 -20255.600000 0 0 1
36.991591 -17.262088 5.277877 41.160824 -0.436613 1.442217 0.162632 -0.036715 170057.000000 0 0 1
-36.713427 -17.216788 6.406377 41.052834 0.438501 1.414104 0.144568 -0.021964 -371411.000000 0 0 1
-35.426842 -18.046688 6.413477 40.272531 0.471145 1.410863 0.121796 -0.022742 -136272.000000 0 0 1
-35.616210 -19.473588 6.458977 41.102961 0.500354 1.413001 0.121034 -0.031158 189994.000000 0 0 1
-34.432465 -20.056188 6.950577 40.449423 0.527437 1.398105 0.100996 -0.028174 98316.000000 0 0 1
-34.746399 -21.537488 7.229377 41.514329 0.554886 1.395762 0.107898 -0.023878 -2685.220000 0 0 1
-34.526644 -22.321688 6.073877 41.560064 0.573915 1.424124 0.117455 -0.030417 278130.000000 0 0 1
-34.615953 -23.677788 6.431877 42.429599 0.599916 1.418620 0.123822 -0.031152 -57438.200000 0 0 1
-34.018187 -24.684488 5.415777 42.377962 0.627719 1.442649 0.113681 -0.020608 -83730.400000 0 0 1
-34.594123 -24.590788 4.115477 42.642671 0.617962 1.474135 0.112894 -0.019116 -221304.000000 0 0 1
-33.966067 -25.278018 3.111577 42.454138 0.639788 1.497438 0.100616 -0.016026 -323939.000000 0 0 1
-34.506560 -24.917888 1.679877 42.596077 0.625418 1.531349 0.092293 -0.017380 619062.000000 0 0 1
-35.765947 -25.540278 1.366677 43.970178 0.620123 1.539709 0.087556 -0.018758 727340.000000 0 0 1
-36.313687 -25.059878 0.141277 44.121438 0.604047 1.567594 0.079494 -0.012357 145850.000000 0 0 1
37.203981 -23.887488 0.181177 44.212906 -0.570779 1.566698 0.099910 -0.019616 -1435950.000000 0 0 1
35.884361 -24.192688 0.394577 43.279663 -0.593189 1.561679 0.069002 -0.006116 -1057840.000000 0 0 1
35.183551 -22.963988 0.580677 42.018617 -0.578265 1.556976 0.093087 -0.021281 749312.000000 0 0 1
33.624221 -23.009688 0.478777 40.746327 -0.600124 1.559046 0.062469 -0.012100 741959.000000 0 0 1
33.150831 -23.038688 -0.866423 40.379567 -0.607339 1.592255 0.066159 -0.022216 57849.200000 0 0 1
31.782301 -22.724288 -0.982723 39.082908 -0.620721 1.595944 0.067474 -0.017879 55694.200000 0 0 1
31.265291 -22.721688 -2.410923 38.724748 -0.628447 1.633095 0.064809 -0.016471 62592.600000 0 0 1
31.799731 -21.583988 -3.117223 38.559156 -0.596320 1.651727 0.101754 -0.030269 345971.000000 0 0 1
31.299041 -21.459988 -4.435223 38.207751 -0.601026 1.687140 0.101632 -0.054119 63723.100000 0 0 1
31.193361 -20.018388 -4.883723 37.384654 -0.570555 1.701805 0.097868 -0.053327 310221.000000 0 0 1
30.131101 -19.364188 -4.206523 36.063137 -0.571201 1.687706 0.109987 -0.051663 208130.000000 0 0 1
30.220161 -17.953488 -4.328623 35.416420 -0.536062 1.693323 0.112690 -0.055876 423978.000000 0 0 1
29.344701 -17.295388 -3.162323 34.208803 -0.532579 1.663370 0.137230 -0.044193 453074.000000 0 0 1
29.944401 -17.166988 -1.852123 34.565922 -0.520552 1.624404 0.132584 -0.034647 157071.000000 0 0 1
30.502311 -18.336788 -1.189523 35.609602 -0.541272 1.604207 0.121781 -0.024683 405129.000000 0 0 1
29.581701 -19.611288 -0.892223 35.503179 -0.585427 1.595930 0.110040 -0.019913 1258420.000000 0 0 1
28.469601 -19.277388 -0.003623 34.382203 -0.595206 1.570902 0.101734 -0.003158 1366260.000000 0 0 1
27.582501 -20.404288 0.144377 34.309622 -0.636912 1.566588 0.075730 -0.004863 294971.000000 0 0 1
26.527301 -20.181588 1.274877 33.355951 -0.650368 1.532567 0.060725 -0.004720 -821516.000000 0 0 1
25.686901 -21.283888 1.444477 33.390227 -0.691932 1.527522 0.055607 0.002551 -244009.000000 0 0 1
24.686001 -21.109188 2.421677 32.570861 -0.707452 1.496377 0.043967 0.005795 635083.000000 0 0 1
23.400801 -20.386888 1.859277 31.091471 -0.716676 1.510960 0.022748 0.001889 -409571.000000 0 0 1
23.532501 -19.005688 1.545577 30.288341 -0.679380 1.519745 0.054901 -0.013720 173288.000000 0 0 1
23.647701 -18.212988 2.708477 29.971028 -0.656292 1.480303 0.077380 -0.016760 -402281.000000 0 0 1
23.385801 -16.729088 2.407477 28.854012 -0.620955 1.487263 0.073529 -0.007712 -502953.000000 0 0 1
22.020001 -16.576288 2.159577 27.646293 -0.645280 1.492602 0.070615 -0.008756 -582570.000000 0 0 1
21.841601 -15.198388 1.756477 26.667053 -0.607933 1.504882 0.089011 -0.026829 457768.000000 0 0 1
20.452601 -14.778288 1.184977 25.260856 -0.625709 1.523869 0.071619 -0.021350 -151117.000000 0 0 1
19.390401 -14.790188 2.097477 24.477269 -0.651617 1.485000 0.049419 -0.013390 -26522.500000 0 1 0
18.449601 -13.749488 1.956377 23.092501 -0.640452 1.485975 0.061827 -0.018522 -239092.000000 0 1 0
18.945601 -12.356488 2.441577 22.750382 -0.577926 1.463269 0.084916 -0.019221 -382355.000000 0 1 0
19.808101 -11.762788 1.473777 23.084542 -0.535876 1.506910 0.093129 -0.021711 501644.000000 0 1 0
20.413901 -10.621088 2.070477 23.104583 -0.479745 1.481063 0.118584 -0.020091 -335115.000000 0 1 0
21.187301 -9.811488 1.047877 23.372314 -0.433681 1.525947 0.129726 -0.023344 -425848.000000 0 1 0
20.394901 -9.398488 -0.039223 22.456293 -0.431820 1.572543 0.125068 -0.019795 130550.000000 0 1 0
21.183501 -8.725688 -0.930723 22.929121 -0.390731 1.611399 0.124783 -0.016130 -721554.000000 0 1 0
20.718101 -8.726888 -2.375123 22.606182 -0.398665 1.676056 0.135302 -0.012940 31511.800000 0 1 0
21.702501 -8.222388 -3.296223 23.440804 -0.362158 1.711883 0.158821 -0.018172 879070.000000 0 1 0
22.682601 -9.162088 -3.719423 24.744259 -0.383886 1.721683 0.149285 -0.016563 -553074.000000 0 1 0
22.187901 -10.311588 -4.624023 24.900068 -0.435043 1.757584 0.121552 -0.021222 -705270.000000 0 1 0
21.886301 -9.932688 -5.912823 24.751362 -0.426035 1.812018 0.120578 -0.020142 207282.000000 0 1 0
20.592101 -9.399088 -6.100523 23.443418 -0.428198 1.834050 0.124145 -0.021421 -427495.000000 0 1 0
20.254101 -9.146788 -7.599223 23.487029 -0.424185 1.900275 0.128228 -0.017952 -317118.000000 0 1 0
19.984601 -10.303888 -8.321423 23.974996 -0.476043 1.925260 0.118893 -0.018050 1323300.000000 0 1 0
21.168401 -10.833388 -8.981423 25.419076 -0.473021 1.931929 0.115563 -0.018799 696300.000000 0 0 1
20.941001 -12.155088 -9.679623 26.076173 -0.525916 1.951103 0.101611 -0.026199 -246591.000000 0 0 1
19.871901 -12.083688 -10.592323 25.555924 -0.546339 1.998164 0.119924 -0.029960 109172.000000 0 0 1
19.854101 -13.279288 -11.402723 26.467846 -0.589508 2.016191 0.126290 -0.034535 616472.000000 0 0 1
18.370901 -13.593088 -11.792923 25.716436 -0.637022 2.047188 0.124152 -0.038529 715029.000000 0 0 1
18.400001 -14.861388 -12.433523 26.721029 -0.679409 2.054779 0.120900 -0.043611 831090.000000 0 0 1
17.144901 -15.264288 -13.018723 26.390022 -0.727436 2.086699 0.123434 -0.047036 365558.000000 0 0 1
17.190301 -16.694388 -13.593723 27.549924 -0.770764 2.086815 0.102905 -0.041251 -282498.000000 0 0 1
16.832601 -17.638988 -12.654423 27.470070 -0.808787 2.049537 0.088318 -0.032687 185970.000000 0 0 1
16.750801 -18.955888 -13.146923 28.508886 -0.847075 2.050089 0.084982 -0.033435 -451203.000000 0 0 1
15.797901 -19.869688 -12.362323 28.234823 -0.899065 2.023991 0.079352 -0.029623 12524.400000 0 0 1
14.460501 -19.486288 -12.629923 27.355739 -0.932379 2.050698 0.076008 -0.029675 -428021.000000 0 0 1
13.578001 -20.184788 -11.785223 27.031079 -0.978639 2.021932 0.068671 -0.023817 313436.000000 0 0 1
12.104401 -19.827388 -12.112023 26.198148 -1.022700 2.051410 0.080447 -0.025673 701437.000000 0 0 1
11.123001 -20.432988 -11.269523 25.850151 -1.072290 2.021896 0.091166 -0.033116 686985.000000 0 0 1
9.781901 -20.379988 -11.766323 25.484816 -1.123296 2.050706 0.072176 -0.025385 834831.000000 0 0 1
8.816201 -21.052888 -10.742323 25.225919 -1.174219 2.010692 0.061767 -0.022644 -47399.400000 0 0 1
8.974401 -22.441988 -10.664423 26.418036 -1.190382 1.986332 0.091496 -0.025294 231635.000000 0 0 1
7.986401 -23.067188 -9.844923 26.321099 -1.237490 1.954149 0.078100 -0.028792 278516.000000 0 0 1
8.072401 -24.588788 -9.892323 27.706140 -1.253586 1.935898 0.082586 -0.025054 772468.000000 0 0 1
9.243501 -25.054878 -9.207323 28.248257 -1.217358 1.902805 0.072633 -0.023052 111266.000000 0 0 1
9.687601 -26.323868 -9.573123 29.638494 -1.218163 1.899690 0.071098 -0.017705 2039610.000000 0 0 1
11.269301 -26.469958 -9.296523 30.233775 -1.168300 1.883348 0.054472 -0.011228 1956850.000000 0 0 1
11.530501 -26.471228 -7.870223 29.926891 -1.159993 1.836908 0.053657 -0.021691 388460.000000 0 0 1
12.794601 -27.039838 -7.498923 30.839723 -1.128837 1.816416 0.059835 -0.012201 203261.000000 0 0 1
12.788601 -27.405428 -5.971123 30.826289 -1.134187 1.765731 0.067977 -0.018783 45827.500000 0 0 1
12.304701 -28.646188 -5.498123 31.658160 -1.165086 1.745353 0.065391 -0.016033 -954447.000000 0 0 1
10.934601 -28.771078 -5.636523 31.290747 -1.207601 1.751919 0.071124 -0.020732 -790616.000000 0 0 1
10.277301 -29.983648 -4.802623 32.057874 -1.240583 1.721173 0.070528 -0.022220 289509.000000 0 0 1
10.688801 -31.233398 -5.270423 33.429822 -1.241066 1.729113 0.073064 -0.018259 -286126.000000 0 0 1
9.831601 -31.660798 -6.293823 33.744314 -1.269708 1.758410 0.080332 -0.019205 77825.600000 0 0 1
9.993901 -33.204318 -6.599923 35.298212 -1.278439 1.758879 0.074853 -0.012593 -108299.000000 0 0 1
9.598201 -33.879788 -5.453623 35.632955 -1.294729 1.724450 0.072015 -0.012296 -170997.000000 0 0 1
9.971601 32.664929 -5.450423 34.585221 1.274512 1.729050 0.071452 -0.015068 -123813.000000 0 0 1
9.464001 31.731624 -4.327323 33.394445 1.280945 1.700744 0.066151 -0.013068 333385.000000 0 0 1
8.061001 31.521524 -4.335423 32.823499 1.320432 1.703266 0.059456 -0.012478 -241211.000000 0 0 1
7.777201 30.606514 -3.322923 31.753509 1.321960 1.675636 0.033732 -0.009667 -96114.800000 0 0 1
6.418101 29.967324 -3.655123 30.864096 1.359814 1.689501 0.038094 -0.017639 -145722.000000 0 0 1
6.296201 29.216574 -4.822123 30.273803 1.358541 1.730761 0.039438 -0.018211 48565.700000 0 0 1
5.851101 29.969514 -5.956423 31.110868 1.377987 1.763444 0.039281 -0.017995 -307731.000000 0 0 1
5.954901 29.194594 -7.309023 30.679096 1.369584 1.811351 0.057988 -0.029326 -64972.700000 0 0 1
4.991201 28.189594 -7.528823 29.601494 1.395554 1.827961 0.056148 -0.031410 112002.000000 0 0 1
5.572101 26.897584 -7.311123 28.425003 1.366526 1.830928 0.049503 -0.021246 -473661.000000 0 0 1
4.772401 25.700214 -7.843623 27.291010 1.387193 1.862315 0.047158 -0.025018 -46316.400000 0 0 1
3.500601 25.486974 -7.226323 26.721897 1.434302 1.844633 0.050767 -0.021483 620236.000000 0 0 1
2.384201 26.174794 -7.803623 27.417162 1.479959 1.859412 0.071586 -0.024474 533241.000000 0 0 1
1.804401 25.586634 -9.137523 27.229139 1.500392 1.913016 0.078467 -0.026070 -203889.000000 0 0 1
2.737701 25.629594 -10.222223 27.728413 1.464382 1.948358 0.058413 -0.029068 188363.000000 0 0 1
2.386501 24.851474 -11.350323 27.424824 1.475059 1.997498 0.073234 -0.028771 -615396.000000 0 0 1
2.177201 23.314534 -11.324523 26.010623 1.477683 2.021257 0.072564 -0.018383 -740941.000000 0 0 1
1.138501 22.855664 -10.544623 25.196559 1.521025 2.002583 0.095005 -0.020111 -655635.000000 0 0 1
1.094501 21.452564 -10.553023 23.932754 1.519821 2.027447 0.054889 -0.013958 -316928.000000 0 1 0
0.013101 20.778464 -9.691623 22.927544 1.570166 2.007226 0.055583 -0.010313 -131171.000000 0 1 0
-1.295599 20.852364 -10.197823 23.248553 -1.508744 2.024885 0.064555 -0.021101 -752929.000000 0 1 0
-2.182699 20.158664 -9.358523 22.331991 -1.462941 2.003210 0.044976 -0.013983 -132582.000000 0 1 0
-3.610699 20.279564 -9.910623 22.858659 -1.394597 2.019237 0.036400 -0.022167 258799.000000 0 1 0
-4.592499 19.447164 -9.270923 22.028010 -1.338892 2.005200 0.039802 -0.028376 357476.000000 0 1 0
-5.687499 19.258364 -10.163223 22.506073 -1.283633 2.039328 0.054932 -0.027163 -521689.000000 0 1 0
-6.580099 18.103664 -9.699623 21.566711 -1.222174 2.037281 0.051692 -0.032547 51538.700000 0 1 0
-7.681599 18.482364 -8.873023 21.893727 -1.176899 1.988078 0.068276 -0.025532 469574.000000 0 1 0
-8.901399 18.602164 -9.618823 22.755157 -1.124485 2.007229 0.078737 -0.033023 840777.000000 0 1 0
-10.057199 18.950664 -8.592223 23.110630 -1.082888 1.951729 0.090964 -0.039814 475896.000000 0 1 0
-10.248999 17.831064 -7.733023 21.972448 -1.049125 1.930441 0.072133 -0.037099 -679778.000000 0 1 0
-11.262699 18.095664 -6.822623 22.379670 -1.014071 1.880586 0.094573 -0.031177 -264381.000000 0 1 0
-11.651299 16.988364 -5.856723 21.416313 -0.969637 1.847795 0.061655 -0.032222 -7488.920000 0 1 0
-12.457899 17.370164 -4.762723 21.899894 -0.948619 1.790025 0.071723 -0.024890 -19310.700000 0 1 0
-12.916599 16.266464 -4.030823 21.158542 -0.899686 1.762474 0.055732 -0.023763 -6120.230000 0 1 0
-14.114099 16.568264 -3.118523 21.987277 -0.865214 1.713109 0.048637 -0.024924 182875.000000 0 1 0
-15.390799 16.702864 -3.708123 23.013312 -0.826258 1.732631 0.108821 -0.042555 1096930.000000 0 1 0
-16.461599 16.931764 -2.745923 23.774124 -0.799477 1.686555 0.104574 -0.037392 -237809.000000 0 1 0
-17.804899 16.985264 -3.386723 24.839153 -0.761843 1.707568 0.112785 -0.053996 -1295740.000000 0 1 0
-17.942099 18.027464 -4.367123 25.806591 -0.787771 1.740840 0.114270 -0.054163 228489.000000 0 0 1
-19.303999 18.256364 -4.691223 26.980489 -0.757513 1.745559 0.097530 -0.059272 375117.000000 0 0 1
-19.489199 19.099064 -5.997123 27.938658 -0.775288 1.787133 0.094263 -0.042332 -88478.300000 0 0 1
-19.239699 20.498864 -5.957223 28.737744 -0.817074 1.779607 0.108697 -0.048322 117132.000000 0 0 1
-19.653099 21.219464 -7.109123 29.783377 -0.823703 1.811817 0.092586 -0.027054 -177868.000000 0 0 1
-19.519199 22.723864 -6.904623 30.741616 -0.861116 1.797331 0.101988 -0.030461 -813485.000000 0 0 1
-18.205899 23.135114 -6.929623 30.244139 -0.904071 1.801973 0.117827 -0.038539 -883021.000000 0 0 1
-17.626599 23.272974 -5.633723 29.733266 -0.922586 1.761424 0.118949 -0.036070 -530533.000000 0 0 1
-16.245099 23.907104 -5.781023 29.476653 -0.973955 1.768198 0.108869 -0.032628 -629056.000000 0 0 1
-15.715299 24.361024 -4.520023 29.340428 -0.997873 1.725467 0.100475 -0.043358 -641382.000000 0 0 1
-14.558299 25.119454 -4.594023 29.394490 -1.045540 1.727728 0.123235 -0.054695 -679964.000000 0 0 1
-14.510399 26.550414 -5.209123 30.701972 -1.070627 1.741288 0.123429 -0.029540 -524026.000000 0 0 1
-15.110499 27.581064 -4.439823 31.760892 -1.069599 1.711045 0.140440 -0.027317 20778.300000 0 0 1
-14.828299 28.889724 -4.981823 32.852902 -1.096587 1.723024 0.103802 -0.028867 -263576.000000 0 0 1
-15.656299 30.020934 -4.359923 34.137737 -1.090087 1.698862 0.096850 -0.022337 -86100.000000 0 0 1
-16.925799 30.078524 -4.981223 34.871376 -1.058239 1.714132 0.131623 -0.024530 -147747.000000 0 0 1
-17.546599 31.301684 -4.641323 36.183151 -1.059879 1.699424 0.133764 -0.026431 -25292.900000 0 0 1
13.146983 -8.661188 18.718724 24.459149 -0.582534 0.699280 0.115745 -0.022054 374681.000000 0 1 0
13.970083 -9.709488 19.245824 25.687334 -0.607376 0.723892 0.119370 -0.024039 232022.000000 0 0 1
14.059483 -10.828288 18.406324 25.567824 -0.656290 0.767135 0.118302 -0.019422 177022.000000 0 0 1
14.667983 -12.065288 19.143124 26.966277 -0.688346 0.781453 0.135272 -0.036751 320790.000000 0 0 1
16.044783 -11.950788 19.540424 27.965775 -0.640190 0.797181 0.123223 -0.039825 917457.000000 0 0 1
16.434483 -13.159988 20.191724 29.171617 -0.675201 0.806305 0.109097 -0.038592 -148710.000000 0 0 1
16.944883 -14.242788 19.325424 29.384657 -0.698974 0.853074 0.098636 -0.035284 -100883.000000 0 0 1
15.884883 -14.706388 18.453924 28.445644 -0.746893 0.864864 0.111982 -0.039053 1132850.000000 0 0 1
16.322083 -15.842588 17.682324 28.810807 -0.770492 0.910008 0.118539 -0.035557 -28663.800000 0 0 1
15.369483 -16.069688 16.505924 27.692985 -0.807666 0.932245 0.112494 -0.033118 29296.800000 0 0 1
14.052783 -16.536588 16.731524 27.402251 -0.866419 0.913992 0.147672 -0.029606 112491.000000 0 0 1
13.300983 -16.340688 15.560524 26.192826 -0.887589 0.934680 0.158176 -0.032032 -243447.000000 0 0 1
12.848483 -17.624988 14.792124 26.353950 -0.940876 0.974857 0.119862 -0.020534 -478339.000000 0 0 1
13.901183 -18.354688 14.247424 27.076310 -0.922599 1.016676 0.116768 -0.026662 -94653.200000 0 0 1
13.434583 -19.541088 13.634424 27.353970 -0.968506 1.048993 0.096686 -0.020696 -61706.800000 0 0 1
14.521583 -20.348388 12.888224 28.125426 -0.950969 1.094781 0.091857 -0.016125 -46474.000000 0 0 1
15.513583 -20.933888 13.711924 29.443434 -0.933032 1.086366 0.085365 -0.010413 241829.000000 0 0 1
15.915983 -22.196288 13.268824 30.365365 -0.948715 1.118566 0.057189 -0.015991 -129226.000000 0 0 1
16.770783 -23.030688 14.275624 31.866365 -0.941398 1.106287 0.062802 -0.018791 207514.000000 0 0 1
18.092483 -22.526088 14.328124 32.249926 -0.894120 1.110422 0.041493 -0.018009 -354996.000000 0 0 1
18.696883 -23.076888 15.451124 33.479149 -0.889867 1.091094 0.048883 -0.024326 -342059.000000 0 0 1
20.103083 -22.527788 15.748724 34.053744 -0.842214 1.090021 0.024381 -0.017855 -368314.000000 0 0 1
21.084783 -22.980088 14.898024 34.563039 -0.828383 1.125152 0.023473 -0.019003 -107904.000000 0 0 1
22.375083 -22.438388 15.179624 35.136115 -0.786811 1.124061 0.020751 -0.014875 1372720.000000 0 0 1
23.650583 -23.206688 14.688524 36.244354 -0.775925 1.153529 0.013032 -0.020791 578743.000000 0 0 1
23.881683 -24.397688 15.422224 37.462341 -0.796086 1.146508 0.022059 -0.015161 313576.000000 0 0 1
25.057383 -24.975088 14.875024 38.378299 -0.783753 1.172781 0.030544 -0.016806 -29860.300000 0 0 1
25.420183 -26.223858 15.682724 39.747003 -0.800959 1.165203 0.035428 -0.010316 -311589.000000 0 0 1
26.190283 -25.898278 16.814324 40.489174 -0.779792 1.142546 0.038667 0.000383 75122.900000 0 0 1
26.540783 -27.093588 17.515924 41.776588 -0.795705 1.138149 0.072022 -0.003147 25610.700000 0 0 1
26.885683 -26.726528 18.987024 42.398754 -0.782430 1.106470 0.068660 0.002327 -597021.000000 0 0 1
25.759483 -26.326098 19.657224 41.749501 -0.796276 1.080557 0.079279 -0.003674 -519768.000000 0 0 1
26.146283 -25.830228 20.929624 42.295129 -0.779318 1.053137 0.082155 -0.005496 709420.000000 0 0 1
24.904583 -25.543828 21.857424 41.838647 -0.798069 1.021108 0.071097 -0.008952 593573.000000 0 0 1
24.456583 -26.750288 22.392824 42.604471 -0.830161 1.017378 0.076361 -0.004046 222169.000000 0 0 1
23.217883 -26.617908 23.087574 42.197384 -0.853517 0.991861 0.080665 -0.012329 255843.000000 0 0 1
22.588383 -28.025998 23.257494 42.855602 -0.892420 0.997155 0.103211 -0.021664 -127442.000000 0 0 1
23.487183 -28.947948 23.862204 44.261001 -0.889167 1.001399 0.101694 -0.024952 387658.000000 0 0 1
23.142683 -30.260338 23.393154 44.704714 -0.917899 1.020099 0.105825 -0.026637 -572868.000000 0 0 1
24.213383 -31.273828 23.695904 46.106790 -0.911963 1.031030 0.090986 -0.024789 -604097.000000 0 0 1
24.140883 -31.690558 25.029484 47.048366 -0.919806 1.009842 0.090158 -0.026502 582674.000000 0 0 1
25.270783 -32.463338 25.414294 48.356666 -0.909340 1.017424 0.102311 -0.039301 -289130.000000 0 0 1
25.124283 -32.708668 26.968054 49.278418 -0.915797 0.991711 0.092652 -0.040545 585428.000000 0 0 1
24.284283 -33.827638 27.355864 49.823476 -0.948169 0.989562 0.081887 -0.027396 1377040.000000 0 0 1
22.875083 -33.631568 27.165294 48.911195 -0.973505 0.981952 0.085661 -0.026181 256395.000000 0 0 1
21.974883 33.113030 27.567754 48.366820 0.984897 0.964324 0.093708 -0.038606 -230070.000000 0 0 1
21.727683 33.058657 28.968144 49.031830 0.989344 0.938743 0.062634 -0.028511 8704.060000 0 0 1
21.209083 31.803474 29.281324 48.152695 0.982646 0.917140 0.066202 -0.030456 -260786.000000 0 0 1
20.798883 31.857854 30.736834 48.910830 0.992410 0.891268 0.062463 -0.030103 825306.000000 0 0 1
21.977283 32.124306 31.548784 50.102871 0.970799 0.889655 0.058609 -0.027686 1003370.000000 0 0 1
21.716683 32.667361 32.861337 51.172632 0.984099 0.873475 0.051480 -0.023773 -258875.000000 0 0 1
22.996783 32.823641 33.692862 52.358881 0.959657 0.871736 0.040632 -0.021333 104983.000000 0 0 1
23.401783 31.582934 -33.526293 51.663696 0.933104 2.276978 0.030297 -0.017678 -162575.000000 0 0 1
24.688283 31.549634 -32.964193 51.879945 0.906804 2.259315 0.025695 -0.011721 -139651.000000 0 0 1
25.232483 30.113824 -32.732513 51.136464 0.873367 2.265426 0.034448 -0.008739 -73266.100000 0 0 1
25.624583 29.409974 33.918544 51.691715 0.854072 0.855065 0.039937 -0.013297 77892.200000 0 0 1
24.988483 28.179694 33.812124 50.614021 0.845347 0.839226 0.054231 -0.023000 -668375.000000 0 0 1
25.368083 27.376714 32.578202 49.541531 0.823462 0.853176 0.089024 -0.024990 -1394420.000000 0 0 1
26.594083 26.805594 32.669324 49.930650 0.789359 0.857548 0.075240 -0.026394 -1066510.000000 0 0 1
27.050883 26.240374 31.493284 49.113485 0.770190 0.874690 0.106414 -0.036080 -218723.000000 0 0 1
28.364783 25.435724 31.575034 49.482519 0.731009 0.878762 0.091276 -0.024439 -501110.000000 0 0 1
28.309983 24.256314 32.354303 49.362180 0.708435 0.856022 0.112568 -0.024251 -293170.000000 0 0 1
29.323083 24.196964 33.287001 50.530789 0.689910 0.851644 0.106583 -0.034863 -1523870.000000 0 0 1
29.002183 23.185724 -33.426593 49.960399 0.674404 2.303742 0.105335 -0.039758 -6304.910000 0 0 1
27.988183 23.610334 -32.516793 48.970686 0.700756 2.296959 0.114799 -0.036353 2861440.000000 0 0 1
26.592283 23.704564 -33.021593 48.574494 0.728048 2.318305 0.094008 -0.025484 1660460.000000 0 0 1
25.839183 22.382664 -33.272843 47.704602 0.713841 2.342666 0.083873 -0.025631 -751177.000000 0 0 1
25.686683 21.631964 -32.081223 46.443002 0.699917 2.333343 0.058969 -0.031684 276179.000000 0 0 1
25.213083 20.318464 -32.272133 45.716847 0.678310 2.354508 0.067355 -0.029362 -105728.000000 0 0 1
25.098083 19.543764 -30.933653 44.370749 0.661615 2.342229 0.067638 -0.032240 448438.000000 0 0 1
23.933883 19.890664 -30.152163 43.331538 0.693399 2.340396 0.051554 -0.016527 665388.000000 0 0 1
23.944583 19.114664 -28.983823 42.175531 0.673696 2.328450 0.050032 -0.009718 -453798.000000 0 0 1
22.605383 18.949964 -28.266253 40.854443 0.697659 2.334882 0.044883 0.001954 -467943.000000 0 0 1
22.622183 18.323364 -27.009123 39.711479 0.680793 2.318742 0.045134 0.003941 91429.300000 0 0 1
23.377683 18.941364 -25.966893 39.743815 0.680949 2.282806 0.041761 0.014869 70850.800000 0 0 1
23.405383 18.144564 -24.678923 38.549791 0.659454 2.265533 0.061657 0.015652 216457.000000 0 0 1
24.204483 16.957764 -24.720523 38.529560 0.611131 2.267377 0.066316 -0.009527 382612.000000 0 0 1
24.227683 16.292564 -23.479923 37.466452 0.592014 2.248097 0.070164 -0.010598 -265854.000000 0 0 1
25.243383 15.114764 -23.447123 37.622494 0.539508 2.243651 0.089162 -0.014494 -536709.000000 0 0 1
26.535983 15.632864 -23.291723 38.614106 0.532381 2.218294 0.109390 -0.021937 116744.000000 0 0 1
27.676783 14.779664 -23.263723 39.059488 0.490484 2.208805 0.109136 -0.031740 550390.000000 0 0 1
27.767083 13.902964 -22.001323 38.057345 0.464207 2.187207 0.101318 -0.027651 -181169.000000 0 0 1
26.626283 13.057464 -21.759723 36.782358 0.455936 2.203814 0.085430 -0.018058 512416.000000 0 0 1
26.466683 12.612364 -20.447723 35.744460 0.444702 2.179803 0.074592 -0.026472 -1136570.000000 0 0 1
25.209683 11.798564 -20.411323 34.516030 0.437736 2.203538 0.085647 -0.022205 -738443.000000 0 0 1
24.088883 12.621564 -20.207723 33.881119 0.482630 2.209843 0.091092 -0.021953 -242148.000000 0 0 1
22.922983 12.275864 -20.921123 33.374442 0.491663 2.248314 0.077204 -0.026860 271476.000000 0 0 1
21.736083 13.238764 -20.737123 32.829110 0.547061 2.254500 0.062635 -0.022255 -871364.000000 0 0 1
22.035583 14.519164 -21.172023 33.832345 0.582604 2.246943 0.062550 -0.013309 219610.000000 0 0 1
21.097583 15.611764 -21.051623 33.645297 0.637057 2.246816 0.049054 -0.004323 15396.600000 0 0 1
19.868183 15.441864 -21.986823 33.415808 0.660693 2.288925 0.054980 0.006975 -478409.000000 0 0 1
18.942483 14.524464 -21.508323 32.130759 0.654146 2.304197 0.051976 0.002328 -1131450.000000 0 0 1
17.956583 14.258364 -22.427123 32.073597 0.671100 2.345129 0.065108 -0.010061 -1128450.000000 0 0 1
16.732183 13.695764 -21.701823 30.635094 0.685937 2.358021 0.077346 -0.021922 -1082810.000000 0 0 1
15.627183 13.755664 -22.528023 30.674728 0.721790 2.395603 0.078190 -0.023856 -933510.000000 0 0 1
14.486683 13.312664 -21.829223 29.387173 0.743191 2.408061 0.089863 -0.036255 237657.000000 0 0 1
13.193183 13.206464 -22.705523 29.394073 0.785901 2.453490 0.078361 -0.041671 172014.000000 0 0 1
12.671983 14.495664 -22.901623 29.919688 0.852425 2.442516 0.100502 -0.028892 -83917.700000 0 0 1
11.891583 14.547264 -24.096523 30.556097 0.885509 2.479324 0.095434 -0.020874 -484217.000000 0 0 1
11.562783 16.075964 -24.370023 31.401155 0.947261 2.459233 0.096985 -0.027240 -151035.000000 0 0 1
12.573783 17.087464 -24.313623 32.268153 0.936414 2.424146 0.084432 -0.004799 185260.000000 0 0 1
13.729083 16.963364 -25.139523 33.290224 0.890388 2.426698 0.086033 -0.014242 69983.000000 0 0 1
13.565483 16.821064 -26.670663 34.326298 0.892130 2.460642 0.111593 -0.014794 -164621.000000 0 0 1
14.738683 16.928964 -27.484703 35.485595 0.854453 2.456770 0.096909 -0.012959 683332.000000 0 0 1
14.369183 16.844864 -28.849943 36.366771 0.864546 2.487015 0.123486 -0.025619 -552753.000000 0 0 1
15.552283 17.194464 -29.700993 37.678536 0.835504 2.478794 0.100862 -0.025518 -915540.000000 0 0 1
16.693683 16.419564 -29.522483 37.681005 0.777120 2.471050 0.072769 -0.025329 -859879.000000 0 0 1
17.627383 16.737664 -30.495873 38.998362 0.759514 2.468630 0.063825 -0.020943 -172465.000000 0 0 1
19.015883 16.090464 -30.176993 39.130010 0.702260 2.451518 0.065779 -0.015357 -402108.000000 0 0 1
19.935283 16.341064 -31.177223 40.453246 0.686642 2.450732 0.056524 -0.022474 -864058.000000 0 0 1
21.048083 15.520164 -30.893843 40.476250 0.635367 2.439138 0.060524 -0.021364 -70206.200000 0 0 1
22.381583 16.168564 -31.342223 41.769518 0.625605 2.419405 0.067723 -0.024778 -71211.600000 0 0 1
22.416583 16.298464 -32.758103 42.909631 0.628665 2.439389 0.071781 -0.023319 -199498.000000 0 0 1
23.450083 17.140864 -33.192333 44.107217 0.631198 2.422703 0.060854 -0.026640 -97867.200000 0 0 1
23.387083 17.461564 33.165765 44.179518 0.641343 0.721668 0.034551 -0.017569 58430.900000 0 0 1
24.463183 18.339864 32.948471 44.948856 0.643304 0.748043 0.056241 -0.019046 205.637000 0 0 1
24.261383 19.108564 31.805874 44.332443 0.667142 0.770676 0.074812 -0.014490 -703928.000000 0 0 1
25.226783 20.247964 31.685584 45.280756 0.676347 0.795737 0.089561 -0.009920 -579998.000000 0 0 1
26.561083 19.817864 31.596704 45.788541 0.641016 0.809229 0.081311 -0.011206 -546525.000000 0 0 1
27.408283 20.931464 31.470784 46.687797 0.652206 0.831093 0.085013 -0.018282 -131717.000000 0 0 1
28.889883 20.513964 31.355514 47.314018 0.617455 0.846363 0.097699 -0.016774 16580.400000 0 0 1
29.472683 20.150864 32.598336 48.346125 0.599711 0.830821 0.084202 -0.025859 307627.000000 0 0 1
30.889983 20.045964 32.515922 49.125522 0.575635 0.847453 0.077819 -0.018249 507532.000000 0 0 1
31.477383 19.191164 33.686054 49.938729 0.547508 0.830445 0.068325 -0.024406 -59359.400000 0 0 1
31.657083 19.856064 -32.924273 49.804035 0.560197 2.293049 0.068414 -0.036555 14744.100000 0 0 1
30.702383 19.453664 -31.967843 48.404797 0.564774 2.292184 0.077586 -0.037813 -226778.000000 0 0 1
30.987583 19.957664 -30.539103 47.866224 0.572184 2.262707 0.078827 -0.034415 68356.400000 0 0 1
32.111483 19.274364 -30.021663 47.999465 0.540591 2.246515 0.076540 -0.038934 -69168.300000 0 0 1
32.585483 19.939864 -28.830923 47.860568 0.549142 2.217293 0.091628 -0.048516 -173895.000000 0 0 1
34.044483 19.556764 -28.576573 48.560420 0.521419 2.199967 0.076591 -0.039056 -950416.000000 0 0 1
34.958283 19.968464 -29.504333 49.913192 0.518980 2.203234 0.069969 -0.033216 -567412.000000 0 0 1
36.230083 20.000164 -28.866193 50.456739 0.504402 2.179858 0.046116 -0.024330 528658.000000 0 0 1
-37.226334 20.850064 -29.640863 51.952920 -0.510556 2.177951 0.035354 -0.022769 366454.000000 0 0 1
-36.595934 20.166964 -30.726053 51.865780 -0.503665 2.204849 0.024182 -0.025428 88555.700000 0 0 1
-35.612834 21.103364 -31.157563 51.811385 -0.534944 2.216005 0.034845 -0.031132 -297462.000000 0 0 1
-34.736334 20.560064 -32.287063 51.689298 -0.534434 2.245463 0.035058 -0.032791 165837.000000 0 0 1
-33.814134 19.506864 -31.984213 50.466853 -0.523250 2.257209 0.035394 -0.023425 303592.000000 0 0 1
-33.028934 19.094164 -33.041493 50.470168 -0.524164 2.284547 0.039805 -0.013601 -407371.000000 0 0 1
-32.265634 17.833964 -32.624733 49.229002 -0.504932 2.295233 0.029791 -0.006595 113491.000000 0 0 1
-33.177234 16.743464 -32.543643 49.397987 -0.467374 2.290026 0.032373 -0.007946 421307.000000 0 0 1
-32.510134 15.544864 -32.713563 48.669588 -0.446019 2.307913 0.025607 0.000636 -394763.000000 0 0 1
-33.534634 14.431764 -32.859993 49.118496 -0.406397 2.303651 0.031629 0.004882 -62036.900000 0 0 1
-32.978034 13.119964 -32.943853 48.425010 -0.378642 2.318977 0.041143 -0.002568 112682.000000 0 0 1
-34.039034 12.224364 -33.147993 49.059967 -0.344783 2.312660 0.057890 -0.006484 -41291.300000 0 0 1
-33.592434 10.703464 -33.172833 48.409220 -0.308457 2.325755 0.062299 -0.010273 82112.900000 0 0 1
-33.076934 10.311764 33.386222 48.115027 -0.302202 0.803928 0.060256 -0.014504 265185.000000 0 0 1
-33.133934 8.906664 33.313715 47.822483 -0.262600 0.800132 0.083350 -0.020113 -294295.000000 0 0 1
-32.294234 8.396764 32.138530 46.328267 -0.254376 0.804165 0.094455 -0.023030 573796.000000 0 0 1
-31.020734 7.936264 32.627047 45.714269 -0.250465 0.776006 0.072780 -0.013626 770081.000000 0 0 1
-30.243534 7.355564 31.557144 44.324136 -0.238579 0.778507 0.071154 -0.021238 257969.000000 0 0 1
21.346083 -3.966488 -31.457853 38.222831 -0.183723 2.537490 0.059073 -0.045176 -1013940.000000 0 0 1
22.590183 -4.053188 -32.047663 39.418237 -0.177534 2.520110 0.046434 -0.042683 -1110340.000000 0 0 1
23.506383 -3.023088 -31.805613 39.664671 -0.127905 2.501202 0.039993 -0.039296 -47192.700000 0 0 1
23.187683 -1.503088 -32.097793 39.625702 -0.064732 2.514990 0.049637 -0.035942 348192.000000 0 0 1
24.310783 -0.667588 -31.708223 39.960871 -0.027454 2.487305 0.051084 -0.029138 954238.000000 0 0 1
24.221483 0.669212 -32.222193 40.316222 0.027622 2.496820 0.057211 -0.041702 -321253.000000 0 0 1
25.147783 1.783512 -31.640403 40.456236 0.070803 2.468808 0.061701 -0.031290 1074600.000000 0 0 1
26.548283 1.500912 -31.831063 41.476266 0.056475 2.445654 0.068568 -0.031689 1096760.000000 0 0 1
27.440683 2.365212 -31.082463 41.529565 0.085981 2.416506 0.074809 -0.030344 -227055.000000 0 0 1
28.889883 2.193212 -31.476363 42.780801 0.075771 2.397583 0.076176 -0.027893 -750443.000000 0 0 1
29.245083 2.597412 -32.796873 44.018818 0.088583 2.411428 0.091621 -0.035248 82560.100000 0 0 1
29.240483 1.516212 -33.697873 44.641364 0.051807 2.426233 0.075092 -0.029502 -156122.000000 0 0 1
30.000283 1.886312 32.794404 44.486494 0.062794 0.741914 0.066385 -0.040396 159679.000000 0 0 1
29.427383 2.874912 31.912980 43.504876 0.097386 0.747266 0.078829 -0.029747 183239.000000 0 0 1
29.574583 4.245912 32.334192 44.024808 0.142592 0.745935 0.091379 -0.028796 -393216.000000 0 0 1
28.797883 5.361912 31.655284 43.129168 0.184083 0.746655 0.106291 -0.027033 -332901.000000 0 0 1
29.164383 6.666212 32.085382 43.868797 0.224713 0.750432 0.120035 -0.032236 -173774.000000 0 0 1
28.340283 7.563712 31.436854 42.996013 0.260810 0.750779 0.106550 -0.033284 -285090.000000 0 0 1
28.756483 9.000712 31.667874 43.712725 0.303338 0.760554 0.093864 -0.023850 12682.500000 0 0 1
30.019483 9.289112 31.108374 44.217506 0.300091 0.790443 0.090395 -0.024432 -78136.000000 0 0 1
30.521183 10.539112 31.424704 45.056936 0.332486 0.798971 0.087930 -0.018943 -302302.000000 0 0 1
31.930283 10.905912 30.981684 45.807713 0.329131 0.828011 0.083001 -0.015160 -673133.000000 0 0 1
33.016183 10.337812 31.687074 46.914916 0.303444 0.829268 0.077692 -0.023728 877306.000000 0 0 1
34.342883 10.517212 31.198424 47.575067 0.297173 0.855591 0.080490 -0.019604 658660.000000 0 0 1
34.873683 11.953412 30.996564 48.164767 0.330213 0.871666 0.080560 -0.011254 -1056590.000000 0 0 1
35.323483 12.430712 32.271824 49.434215 0.338376 0.859490 0.077748 -0.019229 211449.000000 0 0 1
35.589883 13.827712 32.398230 50.074851 0.370579 0.867158 0.074905 -0.010681 687811.000000 0 0 1
34.333383 14.787412 32.248763 49.370350 0.406689 0.858992 0.078374 -0.012502 85152.000000 0 0 1
33.869483 14.963012 30.890064 48.220635 0.416001 0.875519 0.079055 -0.017154 -59010.300000 0 0 1
33.036683 16.084112 30.864174 47.986647 0.453077 0.872149 0.073895 -0.017327 301761.000000 0 0 1
31.528683 15.735712 31.091664 46.993213 0.462921 0.847819 0.079404 -0.015085 -27890.000000 0 0 1
30.971583 14.952712 30.033464 45.659955 0.449784 0.852950 0.087190 -0.015395 924319.000000 0 0 1
29.668083 14.465512 30.429514 44.893223 0.453661 0.826003 0.084855 -0.016193 1018800.000000 0 0 1
28.845983 13.799312 29.280874 43.357598 0.446202 0.829378 0.073587 -0.009911 468805.000000 0 0 1
29.324883 12.545712 28.747934 42.939345 0.404255 0.837260 0.079326 -0.011556 241656.000000 0 0 1
28.224883 12.125512 27.977344 41.550016 0.405763 0.832077 0.073871 -0.023857 284269.000000 0 0 1
28.036483 10.583612 27.920664 40.958768 0.360956 0.820744 0.074012 -0.012708 -286821.000000 0 0 1
28.877083 9.914912 27.034684 40.780700 0.330737 0.846073 0.087737 -0.016732 -310626.000000 0 0 1
28.581283 8.558412 26.973934 40.221005 0.290944 0.835721 0.097284 -0.021110 517967.000000 0 0 1
29.800583 7.628212 26.622414 40.681904 0.250594 0.857402 0.090864 -0.027521 518813.000000 0 0 1
30.326183 7.745912 25.311164 40.253342 0.250073 0.890792 0.086953 -0.023629 485907.000000 0 0 1
31.468883 6.899112 25.118184 40.851089 0.215821 0.908573 0.090249 -0.014752 580949.000000 0 0 1
32.060583 7.127112 23.700984 40.502016 0.218744 0.945694 0.098116 -0.012182 -20097.100000 0 0 1
32.653183 8.433212 23.492624 41.100521 0.252743 0.962355 0.087641 -0.022420 235789.000000 0 0 1
31.806683 9.541512 23.172994 40.493125 0.291443 0.961525 0.094422 -0.018950 -188342.000000 0 0 1
31.420883 9.766712 21.677324 39.402626 0.301367 0.988253 0.103314 -0.006113 142535.000000 0 0 1
32.526583 10.089612 20.862724 39.937853 0.300784 1.021157 0.097433 -0.014798 188067.000000 0 0 1
32.138383 9.810312 19.546124 38.873755 0.296268 1.043949 0.114193 -0.017782 -591290.000000 0 0 1
33.030483 10.359512 18.428024 39.216379 0.303918 1.081612 0.141665 -0.048551 521242.000000 0 0 1
34.289283 9.768712 18.135124 40.000817 0.277538 1.100255 0.141360 -0.038556 -85425.700000 0 0 1
35.330683 9.925112 19.022624 41.335520 0.273862 1.092575 0.143562 -0.027423 -1578450.000000 0 0 1
36.638883 9.466812 18.397124 42.077101 0.252851 1.118287 0.150395 -0.024116 -812106.000000 0 0 1
36.770383 8.065112 18.158324 41.795117 0.215918 1.121357 0.121263 -0.016759 -288473.000000 0 0 1
-36.865634 7.774412 17.154124 41.397831 -0.207840 1.143543 0.128773 -0.011027 -660943.000000 0 0 1
-36.778234 6.289512 16.719524 40.886904 -0.169373 1.149525 0.123456 -0.008719 9294.110000 0 0 1
36.530483 5.843512 16.153524 40.367798 0.158619 1.159106 0.104715 -0.011149 335258.000000 0 0 1
36.604383 4.535912 15.584324 40.041560 0.123289 1.171029 0.113772 -0.021236 538907.000000 0 0 1
35.176083 3.885412 15.690724 38.712428 0.110010 1.153473 0.086087 -0.023103 660413.000000 0 0 1
35.031483 3.352212 17.002824 39.083733 0.095401 1.120718 0.094298 -0.009054 552665.000000 0 0 1
33.869783 2.520812 17.093824 38.022566 0.074290 1.104512 0.082774 -0.013841 480298.000000 0 0 1
33.758183 1.698112 18.417124 38.492713 0.050260 1.071899 0.080982 -0.017182 317788.000000 0 0 1
34.638583 0.570712 18.352924 39.204425 0.016475 1.083618 0.091645 -0.020057 345651.000000 0 0 1
34.542283 -0.116388 19.617424 39.724378 -0.003369 1.054298 0.087548 -0.023146 308440.000000 0 0 1
34.860183 -1.636888 19.496324 39.975222 -0.046921 1.061331 0.096397 -0.020430 151821.000000 0 0 1
34.601283 -2.279788 20.768024 40.419760 -0.065792 1.031178 0.092662 -0.018159 30845.500000 0 0 1
35.060683 -3.606588 20.662424 40.855780 -0.102506 1.040556 0.086778 -0.024615 -266412.000000 0 0 1
34.632183 -4.446388 21.883024 41.207101 -0.127690 1.010957 0.071620 -0.021192 -153997.000000 0 0 1
35.028883 -3.954988 23.140094 42.167861 -0.112430 0.989914 0.069396 -0.026108 176212.000000 0 0 1
34.504483 -4.772788 24.152444 42.387255 -0.137452 0.964529 0.068841 -0.025895 173527.000000 0 0 1
34.879783 -4.232088 25.588654 43.465953 -0.120743 0.941340 0.048137 -0.018816 -15803.000000 0 0 1
34.073883 -4.788288 26.574664 43.476085 -0.139612 0.913160 0.060204 -0.020447 -313240.000000 0 0 1
34.279783 -4.074788 27.793014 44.318834 -0.118313 0.892952 0.065542 -0.013413 148502.000000 0 0 1
33.304083 -4.476088 28.935374 44.344708 -0.133600 0.859904 0.066676 -0.016157 115120.000000 0 0 1
33.391683 -5.870688 29.225314 44.761462 -0.174034 0.859373 0.060530 -0.022643 380576.000000 0 0 1
32.463983 -6.316488 30.233724 44.809444 -0.192168 0.830214 0.065314 -0.025220 432069.000000 0 0 1
32.815383 -7.768688 30.591864 45.530913 -0.232460 0.834036 0.073121 -0.019365 519161.000000 0 0 1
34.049883 -7.818088 31.308984 46.912360 -0.225695 0.840094 0.085261 -0.016889 -2545.410000 0 0 1
34.677983 -9.019088 31.023444 47.395786 -0.254444 0.857194 0.078418 -0.004726 38469.300000 0 0 1
35.806783 -9.287488 32.064767 48.954391 -0.253785 0.856623 0.088830 0.003511 395211.000000 0 0 1
35.358383 -9.558488 33.405310 49.573124 -0.264021 0.831377 0.078975 -0.005869 641085.000000 0 0 1
36.495383 -9.833088 -33.599303 50.571887 -0.263184 2.297470 0.084261 -0.009752 671585.000000 0 0 1
36.175283 -9.745688 -32.073853 49.318978 -0.263154 2.278822 0.094375 -0.007708 -276237.000000 0 0 1
35.668283 -8.530388 -31.539603 48.370864 -0.234750 2.281065 0.100250 -0.014440 294962.000000 0 0 1
36.478883 -7.370688 -31.670873 48.867987 -0.199369 2.275871 0.092090 -0.012195 -143017.000000 0 0 1
35.981183 -6.209388 -30.794593 47.765144 -0.170890 2.271438 0.106398 -0.013324 -195991.000000 0 0 1
36.189383 -6.357988 -29.417653 47.069032 -0.173912 2.245914 0.099970 -0.007275 61906.500000 0 0 1
35.756083 -5.210488 -28.709163 46.150436 -0.144705 2.242190 0.104724 -0.023943 -159909.000000 0 0 1
36.426683 -5.064288 -27.338513 45.825152 -0.138141 2.210033 0.103628 -0.019589 -245402.000000 0 0 1
-36.717034 -4.871288 -27.355893 46.045792 0.131901 2.206945 0.118204 -0.014871 -545688.000000 0 0 1
-36.235434 -4.510088 -26.090143 44.878092 0.123829 2.191190 0.119878 -0.012787 260581.000000 0 0 1
-34.721034 -4.189788 -26.017813 43.589346 0.120089 2.210409 0.119886 -0.001046 -525420.000000 0 0 1
-34.307634 -4.085688 -24.678123 42.458407 0.118532 2.191036 0.131471 -0.008669 -485101.000000 0 0 1
-32.954334 -4.175888 -24.381323 41.205280 0.126046 2.203967 0.139509 -0.008013 -147559.000000 0 0 1
-31.909234 -3.195688 -24.997523 40.660642 0.099816 2.232909 0.112745 -0.004726 -341833.000000 0 0 1
-31.663034 -3.408288 -26.380473 41.353277 0.107230 2.262603 0.110846 -0.005979 -454879.000000 0 0 1
-30.709434 -2.555788 -26.919053 40.917439 0.083034 2.288806 0.089810 0.000803 -428314.000000 0 0 1
-30.178634 -3.101888 -28.249543 41.453689 0.102425 2.320569 0.075660 -0.007510 -144746.000000 0 0 1
-31.055034 -3.090688 -29.388573 42.867887 0.099196 2.326171 0.123967 -0.013682 132788.000000 0 0 1
-30.607334 -3.924088 -30.450063 43.352205 0.127512 2.349543 0.113429 -0.002917 66156.400000 0 0 1
-31.832134 -4.375288 -31.317193 44.868636 0.136593 2.343362 0.112392 -0.011145 878158.000000 0 0 1
-32.804034 -5.264988 -30.720743 45.250291 0.159141 2.317069 0.112280 -0.013209 1063310.000000 0 0 1
-33.744534 -4.816988 -29.742363 45.238315 0.141791 2.288239 0.127801 -0.018241 939139.000000 0 0 1
-34.908134 -3.853588 -30.234583 46.341752 0.109947 2.281578 0.149357 -0.024150 446622.000000 0 0 1
-34.447834 -2.588188 -30.722413 46.230062 0.074993 2.297694 0.161021 -0.024181 -134009.000000 0 0 1
-34.158734 -1.660588 -29.710233 45.302038 0.048576 2.286072 0.151884 -0.016004 19331.100000 0 0 1
-33.907934 -0.260488 -30.326323 45.491776 0.007682 2.300479 0.137784 -0.020681 277543.000000 0 0 1
-35.086834 0.316412 -30.871133 46.735563 -0.009018 2.292346 0.164822 -0.020506 287483.000000 0 0 1
-34.832634 1.579412 -31.475213 46.973354 -0.045312 2.305093 0.164289 -0.011393 562402.000000 0 0 1
-36.176234 2.304812 -31.814273 48.230489 -0.063625 2.291123 0.139635 -0.010585 688017.000000 0 0 1
-36.703834 1.896112 -33.089753 49.454003 -0.051614 2.303796 0.127153 -0.006708 168149.000000 0 0 1
36.486083 2.333612 -33.248913 49.418319 0.063872 2.308791 0.098448 -0.013641 276408.000000 0 0 1
35.728983 1.641612 33.398343 48.935717 0.045914 0.819627 0.074798 -0.010718 197207.000000 0 0 1
36.206983 1.996312 32.103506 48.431043 0.055080 0.846150 0.069201 -0.000246 333364.000000 0 0 1
-37.180034 1.278912 31.662544 48.851891 -0.034384 0.865666 0.071186 -0.001414 -53172.300000 0 0 1
-36.863334 1.510712 30.189434 47.671685 -0.040958 0.885015 0.070885 -0.006722 -211875.000000 0 0 1
-36.303334 2.772312 29.902804 47.114705 -0.076217 0.883201 0.065616 -0.009609 242427.000000 0 0 1
-35.947434 2.893312 28.549014 45.996037 -0.080314 0.901181 0.050715 -0.011415 56236.700000 0 0 1
-35.591134 4.329412 28.114374 45.561943 -0.121048 0.905797 0.059084 -0.010101 16285.400000 0 0 1
-34.791934 4.418912 26.921154 44.212600 -0.126333 0.916120 0.061792 -0.010348 657698.000000 0 0 1
-34.530634 5.734412 26.456224 43.876873 -0.164566 0.923584 0.061805 -0.011564 -167280.000000 0 0 1
-33.705934 5.737612 25.146564 42.442430 -0.168609 0.936654 0.073700 -0.011865 355952.000000 0 0 1
-32.439134 5.071812 25.194634 41.385870 -0.155093 0.916282 0.067677 -0.013702 948007.000000 0 0 1
-31.630134 5.329312 24.046084 40.088416 -0.166921 0.927512 0.077597 -0.017134 152270.000000 0 0 1
-32.051234 4.647112 22.707824 39.554046 -0.143987 0.959297 0.083329 -0.011283 -213484.000000 0 0 1
-31.955434 3.210812 22.607924 39.275658 -0.100142 0.957432 0.090252 -0.013576 27615.600000 0 0 1
-32.624034 2.878612 21.408024 39.126941 -0.088008 0.991849 0.103913 -0.011945 -269370.000000 0 0 1
-32.256434 1.408712 21.056624 38.546639 -0.043645 0.992899 0.109674 -0.015528 -213531.000000 0 0 1
-30.972334 1.190612 20.543824 37.185370 -0.038422 0.985471 0.122403 -0.011685 -472658.000000 0 0 1
-30.865534 1.540912 19.174324 36.369084 -0.049882 1.015477 0.141294 -0.014092 -34808.300000 0 0 1
-29.566634 1.122812 18.421424 34.853915 -0.037957 1.013925 0.144853 -0.009481 124311.000000 0 0 1
-29.413334 -0.278088 18.266824 34.625112 0.009454 1.015071 0.148011 -0.011064 140457.000000 0 0 1
-28.420134 -0.820888 17.405124 33.336410 0.028876 1.021479 0.141499 -0.007595 -139704.000000 0 0 1
-28.525934 -0.517588 15.874924 32.649809 0.018142 1.063040 0.142077 -0.006815 -45718.600000 0 0 1
-27.946034 0.732512 15.520324 31.974957 -0.026206 1.063987 0.156012 -0.001844 329528.000000 0 0 1
-27.907934 0.897212 14.165624 31.310105 -0.032138 1.101308 0.159482 -0.007772 216563.000000 0 0 1
-27.240834 2.299512 13.828824 30.636370 -0.084214 1.102479 0.161100 -0.009796 -72545.700000 0 0 1
-25.850034 2.363312 13.956424 29.471873 -0.091170 1.077479 0.143481 -0.018691 -289166.000000 0 0 1
-25.368234 3.521112 13.267724 28.844029 -0.137919 1.092822 0.135396 -0.024916 305315.000000 0 0 1
-23.832334 3.568812 13.073324 27.415841 -0.148642 1.073725 0.124313 -0.030262 106278.000000 0 0 1
-23.106334 3.975612 14.211124 27.416495 -0.170389 1.025885 0.108273 -0.015236 260438.000000 0 0 1
-21.740934 4.225612 13.902824 26.149809 -0.191969 1.010236 0.088151 -0.018006 335899.000000 0 0 1
-21.061834 4.798312 15.190624 26.407948 -0.223997 0.957912 0.086558 -0.019286 -162277.000000 0 0 1
-21.573334 6.075212 15.538124 27.271785 -0.274499 0.964594 0.079588 -0.013149 340616.000000 0 0 1
-20.907134 6.563912 16.653224 27.523137 -0.304210 0.920952 0.064709 -0.007084 -191421.000000 0 0 1
-21.304134 8.042212 16.950824 28.387915 -0.360957 0.930898 0.068629 -0.015293 -312376.000000 0 0 1
-20.806234 8.884512 15.955924 27.684390 -0.403574 0.956540 0.068195 -0.018240 357453.000000 0 0 1
-21.109434 10.282512 16.081224 28.459515 -0.453279 0.970295 0.068260 -0.013973 -358582.000000 0 0 1
-20.396834 11.116812 17.151324 28.875288 -0.499017 0.934800 0.061874 -0.013234 -333303.000000 0 0 1
-20.936834 10.945012 18.439924 29.969569 -0.481692 0.908045 0.078272 -0.019662 92375.500000 0 0 1
-20.099034 11.464312 19.423924 30.210767 -0.518364 0.872456 0.082109 -0.013956 -454834.000000 0 0 1
-12.842017 -33.307840 -20.147423 40.990831 1.202804 2.084620 0.152234 -0.052176 396355.000000 0 0 1
-13.940717 -33.685240 -19.309323 41.253957 1.178406 2.057890 0.166512 -0.042344 948623.000000 0 0 1
-15.108617 -32.868140 -19.523723 41.106699 1.139927 2.065706 0.132093 -0.061401 666813.000000 0 0 1
-16.283517 -33.454440 -18.680223 41.632958 1.117815 2.036093 0.096940 -0.046920 -945112.000000 0 0 1
-17.008217 33.533112 -19.464223 42.339166 -1.101400 2.048478 0.085262 -0.046370 439371.000000 0 0 1
-17.877617 32.573212 -18.823123 41.652530 -1.068841 2.039700 0.073343 -0.029475 1433230.000000 0 0 1
-19.148617 33.196212 -18.085823 42.376349 -1.047587 2.011737 0.066636 -0.029855 31157.700000 0 0 1
-18.839217 -33.846940 -17.005323 42.304993 1.062900 1.984463 0.082861 -0.034214 581189.000000 0 0 1
-20.098417 -33.449040 -16.461223 42.352763 1.029740 1.969983 0.059084 -0.026941 602948.000000 0 0 1
-20.473117 33.914812 -15.063123 42.382315 -1.027688 1.934150 0.057681 -0.021390 -583700.000000 0 0 1
-20.638417 32.498812 -14.980023 41.310024 -1.005002 1.941879 0.059750 -0.028979 274062.000000 0 0 1
-21.071617 32.111512 -13.680423 40.771512 -0.990074 1.912973 0.072940 -0.021728 -236800.000000 0 0 1
-21.170117 30.569912 -13.498223 39.558758 -0.965112 1.919010 0.072438 -0.029192 82000.100000 0 0 1
-19.996017 29.902512 -13.096223 38.282005 -0.981383 1.919946 0.091147 -0.040434 40830.700000 0 0 1
-20.209217 28.565112 -13.348023 37.450604 -0.955069 1.935226 0.105833 -0.044569 18604.900000 0 0 1
-19.160217 27.644612 -12.643323 35.933161 -0.964723 1.930350 0.091737 -0.041802 -594840.000000 0 0 1
-17.952617 27.792512 -13.319523 35.666929 -0.997272 1.953513 0.127843 -0.046562 -1057400.000000 0 0 1
-17.118417 26.702112 -13.056123 34.300223 -1.000711 1.961287 0.140090 -0.054688 -20810.100000 0 0 1
-15.633017 26.981412 -13.382723 33.933539 -1.045662 1.976190 0.109869 -0.059323 136638.000000 0 0 1
-15.504717 27.324712 -14.774923 34.717927 -1.054674 2.010388 0.082538 -0.043478 336023.000000 0 0 1
-14.168117 27.712612 -15.081323 34.585700 -1.098188 2.022008 0.126530 -0.052204 191040.000000 0 0 1
-14.052717 28.077612 -16.618923 35.524917 -1.106752 2.057608 0.133762 -0.057339 -93587.900000 0 0 1
-14.121917 26.979312 -17.529023 35.136568 -1.088577 2.093105 0.118620 -0.061796 281037.000000 0 0 1
-14.399617 27.529812 -18.772723 36.299513 -1.088875 2.114328 0.088600 -0.053142 -94574.800000 0 0 1
-14.041217 26.539612 -19.927623 36.036328 -1.084167 2.156741 0.064239 -0.017699 -352518.000000 0 0 1
-12.663417 26.430212 -20.150123 35.566075 -1.123986 2.173115 0.062736 -0.016402 -288232.000000 0 0 1
-12.349917 25.379412 -21.099023 35.239236 -1.117917 2.212719 0.041966 -0.015894 -398471.000000 0 0 1
-11.030117 25.537712 -21.821423 35.355518 -1.163083 2.235975 0.079551 -0.027234 -572542.000000 0 0 1
-11.071217 26.336412 -22.990023 36.670418 -1.172848 2.248411 0.061962 -0.018304 1205260.000000 0 0 1
-9.754117 26.267312 -23.612823 36.642596 -1.215238 2.271047 0.071507 -0.029476 1199840.000000 0 0 1
-9.711917 27.044812 -24.921123 38.036897 -1.226034 2.285221 0.068024 -0.025978 -3685.560000 0 0 1
-10.543117 26.381712 -25.877573 38.429166 -1.190603 2.309573 0.042061 -0.012748 -27074.500000 0 0 1
-10.532317 27.060912 -27.128723 39.739027 -1.199628 2.322209 0.063119 -0.012220 -102568.000000 0 0 1
-11.812517 26.674912 -27.872083 40.347732 -1.153919 2.333387 0.031861 0.000144 -105732.000000 0 0 1
-12.034117 27.234712 -29.146713 41.666298 -1.154726 2.345532 0.048874 -0.002866 -495299.000000 0 0 1
-13.229717 26.731412 -29.697443 42.089570 -1.111227 2.354034 0.057325 0.003709 -166620.000000 0 0 1
-13.432217 27.159512 -31.132583 43.443080 -1.111504 2.369754 0.057219 -0.006572 -16529.200000 0 0 1
-12.662517 26.668612 -32.246333 43.719334 -1.127503 2.400270 0.068487 -0.003090 80045.500000 0 0 1
-12.735817 25.225812 -32.306263 42.921291 -1.103258 2.422929 0.074292 -0.001156 -78605.500000 0 0 1
-12.116517 24.629112 -33.542793 43.341920 -1.113602 2.455790 0.055980 -0.006813 -170067.000000 0 0 1
-12.802517 24.910812 33.105076 43.363568 -1.096064 0.702188 0.070836 -0.010317 103497.000000 0 0 1
-12.260817 24.124612 31.975567 41.889872 -1.100588 0.702353 0.067963 -0.015213 -494046.000000 0 0 1
-13.107817 24.110412 30.691454 41.171497 -1.072835 0.729581 0.085155 -0.013755 -979909.000000 0 0 1
-14.219217 23.317712 30.858994 41.208971 -1.023200 0.724484 0.092276 -0.015074 -1300690.000000 0 0 1
-14.921117 23.271012 29.696104 40.571397 -1.000640 0.749622 0.102262 -0.016016 -660604.000000 0 0 1
-16.005217 22.187512 29.658084 40.349158 -0.945877 0.745077 0.072433 -0.011932 -142132.000000 0 0 1
-15.547217 20.866812 29.833434 39.587543 -0.930458 0.717265 0.053901 -0.013599 331747.000000 0 0 1
-16.637217 19.962512 30.000754 39.690604 -0.876005 0.713821 0.041052 -0.014973 555422.000000 0 0 1
-16.042317 18.548612 30.142084 38.858102 -0.857727 0.682979 0.029528 -0.022623 -23131.000000 0 0 1
-15.589317 18.041412 28.941514 37.498407 -0.858182 0.689119 0.047842 -0.034143 -59531.000000 0 0 1
-15.059617 16.731412 29.054854 36.754819 -0.837937 0.659164 0.038996 -0.043653 87226.200000 0 0 1
-14.424817 16.178312 27.753224 35.214408 -0.842633 0.663046 0.046852 -0.034682 -240733.000000 0 0 1
-13.420417 16.945712 27.181604 34.729012 -0.900974 0.671841 0.013025 -0.034113 -487445.000000 0 0 1
-12.742117 16.196712 26.206884 33.339102 -0.904212 0.666370 -0.003208 -0.026714 -361197.000000 0 0 1
-11.860717 17.026312 25.289834 32.713110 -0.962348 0.687115 0.018824 -0.021661 -233375.000000 0 0 1
-12.509517 17.893312 24.368784 32.718439 -0.960663 0.730557 0.002304 -0.014557 -167860.000000 0 0 1
-13.077917 19.127312 24.888404 34.004685 -0.971073 0.749674 -0.002025 -0.019506 267010.000000 0 0 1
-12.165917 20.164712 25.639674 34.814049 -1.027934 0.742952 0.017391 -0.022321 242806.000000 0 0 1
-11.666617 19.820812 26.929724 35.414468 -1.038798 0.706843 0.042323 -0.027007 -323668.000000 0 0 1
-12.606817 19.994812 27.932594 36.591722 -1.008249 0.702300 0.054039 -0.023676 -421490.000000 0 0 1
-12.099417 19.522912 29.306844 37.234810 -1.015978 0.664732 0.060432 -0.026010 -659727.000000 0 0 1
-10.912817 20.112812 29.678024 37.475323 -1.073667 0.656825 0.062192 -0.027117 -817267.000000 0 0 1
-10.923817 20.116812 31.095674 38.612910 -1.073328 0.634585 0.056577 -0.024162 -157954.000000 0 0 1
-9.773517 20.938012 31.679554 39.211173 -1.134073 0.630180 0.041270 -0.017922 147509.000000 0 0 1
-8.496617 20.323912 31.572324 38.497604 -1.174818 0.609191 0.051995 -0.021442 177997.000000 0 0 1
-7.570417 21.110812 32.309806 39.330664 -1.226477 0.606775 0.062511 -0.020455 281817.000000 0 0 1
-6.277217 20.456312 32.827645 39.185691 -1.273058 0.577655 0.057408 -0.015259 -155066.000000 0 0 1
-6.605817 19.518712 33.859014 39.636470 -1.244461 0.546711 0.049188 -0.014207 206389.000000 0 0 1
-5.483017 19.151412 -33.200373 38.718275 -1.291957 2.601159 0.040519 -0.010832 573348.000000 0 0 1
-4.503617 18.145212 -33.908993 38.721455 -1.327514 2.637713 0.033293 -0.012694 -18035.900000 0 0 1
-5.061617 16.877112 -33.915313 38.219175 -1.279422 2.662449 0.035353 -0.014554 -7244.240000 0 0 1
-4.671317 16.175512 32.791867 36.861564 -1.289656 0.474338 0.029957 -0.014720 121187.000000 0 0 1
-5.438417 14.810912 32.625075 36.239964 -1.218890 0.450450 0.046282 -0.016271 97694.900000 0 0 1
-5.073217 13.886912 33.566938 36.678647 -1.220536 0.414884 0.056401 -0.016361 392501.000000 0 0 1
-5.665117 12.666112 33.095263 35.886214 -1.150219 0.396993 0.059359 -0.019446 154054.000000 0 0 1
-4.732917 11.572912 33.640080 35.888546 -1.182585 0.355856 0.074023 -0.026332 30032.700000 0 0 1
-4.774917 11.243512 -32.827573 35.026646 -1.169195 2.785359 0.081538 -0.038086 -334644.000000 0 0 1
-3.891417 10.190512 -32.564933 34.343333 -1.206019 2.818371 0.104481 -0.040511 -82028.400000 0 0 1
-3.871617 9.693812 -31.120293 32.824260 -1.190815 2.817965 0.104509 -0.043062 -511706.000000 0 0 1
-4.944017 8.916212 -30.731503 32.378502 -1.064507 2.821267 0.112019 -0.040966 -562490.000000 0 0 1
-5.276717 9.063712 -29.348163 31.165835 -1.043582 2.798377 0.130650 -0.039377 280394.000000 0 0 1
-6.313417 7.963612 -28.923253 30.656694 -0.900471 2.803703 0.127967 -0.035841 71224.800000 0 0 1
-5.794617 6.728412 -28.507663 29.858599 -0.859827 2.839633 0.137388 -0.029767 157308.000000 0 0 1
-6.828917 5.810212 -28.155853 29.549022 -0.704973 2.833298 0.135250 -0.042251 -42507.600000 0 0 1
-6.574817 5.160812 -26.757723 28.032801 -0.665488 2.838824 0.123657 -0.039413 -184951.000000 0 0 1
-6.691017 5.969512 -25.556383 27.083823 -0.728471 2.804146 0.101401 -0.027546 -270335.000000 0 0 1
-5.693917 6.913212 -25.308713 26.846678 -0.881813 2.801468 0.098668 -0.031693 -584546.000000 0 0 1
-6.080317 7.892612 -24.200423 26.171053 -0.914379 2.751048 0.062067 -0.015713 -60574.400000 0 0 1
-6.191017 7.324212 -22.909323 24.835656 -0.869048 2.745140 0.048845 -0.012025 -919916.000000 0 1 0
-7.382217 7.778012 -22.373523 24.810665 -0.811500 2.694645 0.048924 -0.012484 -601783.000000 0 1 0
-7.380617 7.705112 -20.825823 23.399939 -0.806905 2.668130 0.038565 -0.012790 140198.000000 0 1 0
-6.609917 8.851912 -20.406123 23.204680 -0.929396 2.645390 0.014349 -0.009001 195547.000000 0 1 0
-6.627717 9.119012 -19.021323 22.110941 -0.942308 2.606590 0.017226 -0.008473 360088.000000 0 1 0
-7.993217 9.467612 -18.323523 22.119644 -0.869638 2.547010 0.018268 -0.002607 180744.000000 0 1 0
-7.809117 9.366412 -16.943023 20.875296 -0.875820 2.517734 0.009176 -0.009053 26493.700000 0 1 0
-8.977517 9.608212 -16.184923 20.853423 -0.819320 2.459298 0.021846 -0.016115 146467.000000 0 1 0
-9.528717 11.088112 -16.281023 21.881827 -0.860891 2.409898 0.038803 -0.027701 453289.000000 0 1 0
-8.514117 12.058712 -15.917123 21.708466 -0.956018 2.393844 0.015371 -0.025656 865673.000000 0 1 0
-8.959917 13.367212 -16.268623 22.882975 -0.980289 2.361643 0.049294 -0.035175 341434.000000 0 1 0
-7.935717 14.364312 -15.691123 22.705074 -1.066066 2.333785 0.059339 -0.037893 -4981.070000 0 1 0
-7.579717 14.354212 -14.325023 21.649521 -1.084963 2.293852 0.061604 -0.041632 703128.000000 0 1 0
-8.451317 15.084412 -13.405423 21.878519 -1.060104 2.230295 0.061164 -0.051435 -37007.300000 0 1 0
-7.644617 15.992812 -12.441623 21.656504 -1.124900 2.182787 0.059265 -0.044669 240129.000000 0 1 0
-7.070017 17.177912 -12.970223 22.655959 -1.180351 2.180331 0.065283 -0.041569 660436.000000 0 1 0
-6.060817 17.056512 -14.009323 22.889282 -1.229375 2.229443 0.069270 -0.035399 233630.000000 0 1 0
-5.668417 18.428712 -14.576823 24.170894 -1.272394 2.218145 0.080568 -0.028609 73805.900000 0 1 0
-5.196517 19.292912 -13.574623 24.155550 -1.307692 2.167558 0.089516 -0.033797 -183362.000000 0 1 0
-5.207217 20.630712 -13.973223 25.455693 -1.323559 2.151872 0.086649 -0.027279 -131866.000000 0 0 1
-4.671917 21.612012 -12.932723 25.615643 -1.357900 2.100035 0.087741 -0.028567 -421085.000000 0 0 1
-4.923417 22.964512 -13.284823 26.983242 -1.359601 2.085568 0.092252 -0.032512 603063.000000 0 0 1
-6.234417 23.516012 -13.088923 27.625906 -1.311644 2.064388 0.091019 -0.030101 668397.000000 0 0 1
-6.907717 23.543912 -11.687223 27.177629 -1.285408 2.015323 0.065128 -0.025573 -98540.900000 0 0 1
-7.312217 22.234312 -11.295923 25.989055 -1.253067 2.020437 0.070288 -0.026306 -244445.000000 0 0 1
-8.070017 22.210512 -10.094623 25.696953 -1.222285 1.974507 0.075415 -0.026840 -117136.000000 0 0 1
-7.461517 22.631412 -8.732123 25.379224 -1.252322 1.922040 0.069864 -0.024636 -234210.000000 0 0 1
-7.340317 24.017112 -8.808123 26.613623 -1.274184 1.908120 0.065841 -0.016625 -208312.000000 0 0 1
-6.870817 24.553812 -7.578323 26.599413 -1.297948 1.859704 0.067296 -0.017142 216711.000000 0 0 1
-7.229917 26.066612 -7.490123 28.068521 -1.300234 1.840921 0.082676 -0.022265 223699.000000 0 0 1
-6.436917 27.016612 -8.211723 28.961416 -1.336899 1.858280 0.071983 -0.024516 -39886.400000 0 0 1
-6.470117 26.945912 -9.620123 29.334132 -1.335143 1.904929 0.072939 -0.022217 116775.000000 0 0 1
-5.837417 28.217312 -10.285523 30.595491 -1.366800 1.913652 0.070414 -0.022995 338594.000000 0 0 1
-6.641117 29.388612 -10.213823 31.813788 -1.348553 1.897635 0.070103 -0.017590 201814.000000 0 0 1
-7.606717 29.469112 -11.267023 32.453605 -1.318185 1.925351 0.091422 -0.020970 8595.280000 0 0 1
-8.726717 30.479712 -10.989123 33.554869 -1.291944 1.904450 0.093635 -0.019921 491223.000000 0 0 1
-9.729617 29.983712 -10.079423 33.095063 -1.257020 1.880272 0.093668 -0.015949 1179680.000000 0 0 1
-10.813317 30.907812 -9.826423 34.187413 -1.234249 1.862337 0.083240 -0.019226 1321680.000000 0 0 1
-11.983517 30.507212 -8.858523 33.952438 -1.196504 1.834761 0.092277 -0.022539 673752.000000 0 0 1
-12.666717 29.403612 -9.450323 33.381532 -1.164034 1.857821 0.102399 -0.033590 152711.000000 0 0 1
-13.707217 28.932112 -8.582623 33.145381 -1.128351 1.832720 0.123778 -0.030810 563623.000000 0 0 1
-14.681717 27.921512 -9.238723 32.871228 -1.086706 1.855693 0.131348 -0.033351 105934.000000 0 0 1
-14.289817 26.580212 -9.122623 31.526636 -1.077514 1.864357 0.120849 -0.041584 29040.100000 0 0 1
-15.144217 25.694312 -9.827523 31.402630 -1.038208 1.889096 0.142639 -0.048381 -269082.000000 0 0 1
-15.134917 24.281812 -9.264923 30.075087 -1.013419 1.883949 0.132942 -0.044936 350835.000000 0 0 1
-13.954317 23.492312 -9.395623 28.894453 -1.034804 1.901988 0.134556 -0.044956 399019.000000 0 0 1
-14.259617 22.205512 -8.941623 27.863489 -0.999948 1.897485 0.126373 -0.042230 169038.000000 0 0 1
-13.286317 21.112112 -9.459023 26.678092 -1.009095 1.933241 0.132979 -0.048166 -20546.600000 0 0 1
-13.372417 20.894512 -10.827923 27.067435 -1.001486 1.982351 0.128020 -0.036576 125347.000000 0 0 1
-13.029517 19.553912 -11.135823 26.002506 -0.983021 2.013362 0.122534 -0.030556 -129258.000000 0 0 1
-13.476017 19.100912 -12.551123 26.532594 -0.956377 2.063541 0.117870 -0.030546 25992.600000 0 0 1
-14.862117 18.933312 -12.712823 27.220740 -0.905286 2.056722 0.115970 -0.024070 -400779.000000 0 0 1
-15.140317 18.253312 -13.950023 27.513919 -0.878351 2.102517 0.114047 -0.028873 498541.000000 0 0 1
-16.659017 18.263012 -14.300023 28.557855 -0.831297 2.095248 0.099167 -0.011944 578055.000000 0 0 1
-17.106917 19.588012 -14.605123 29.826941 -0.852910 2.082499 0.073103 -0.017557 -4824.560000 0 0 1
-18.414817 19.515712 -15.142323 30.810038 -0.814414 2.084577 0.061679 -0.014390 -32374.400000 0 0 1
-18.992017 20.867912 -15.715923 32.297936 -0.832426 2.078981 0.061475 -0.025377 141039.000000 0 0 1
-19.362217 21.871512 -14.775523 32.734913 -0.846179 2.039095 0.060569 -0.035093 168190.000000 0 0 1
-19.602917 23.107012 -15.315323 33.952429 -0.867259 2.038773 0.057208 -0.027797 -556011.000000 0 0 1
-20.275417 24.138612 -14.471923 34.687197 -0.872161 2.001172 0.056711 -0.019983 -739720.000000 0 0 1
-21.648517 23.923812 -14.329023 35.303370 -0.835284 1.988741 0.071587 -0.018990 -403825.000000 0 0 1
-22.183317 24.855712 -13.425023 35.918480 -0.842149 1.953860 0.087496 -0.031567 -15589.200000 0 0 1
-25.891927 -0.503888 3.615877 26.148047 0.019459 1.432067 0.187700 -0.065002 316684.000000 0 0 1
-26.691317 -0.017888 4.713177 27.104257 0.000670 1.396017 0.225131 -0.058417 154108.000000 0 0 1
-28.040797 -0.424788 4.637877 28.424930 0.015148 1.406901 0.220999 -0.052329 -23674.700000 0 0 1
-28.697507 0.172112 5.902377 29.298713 -0.005997 1.367953 0.216256 -0.046436 -439049.000000 0 0 1
-29.043287 1.534312 5.786077 29.653757 -0.052779 1.374415 0.248192 -0.057244 116008.000000 0 0 1
-29.458467 2.199412 6.963177 30.350033 -0.074523 1.339305 0.253923 -0.039330 -28234.700000 0 0 1
-28.338737 2.861612 7.834777 29.540761 -0.100638 1.302365 0.263862 -0.044607 173848.000000 0 0 1
-27.676747 1.900712 8.652277 29.059885 -0.068568 1.268472 0.232201 -0.053365 362609.000000 0 0 1
-26.538367 2.434812 9.293577 28.223816 -0.091491 1.235254 0.210291 -0.057635 36867.200000 0 0 1
-25.590097 1.326312 9.823177 27.442794 -0.051783 1.204724 0.168521 -0.043594 -498201.000000 0 0 1
-24.712517 0.716012 8.937477 26.288774 -0.028966 1.223908 0.176106 -0.050064 -64585.900000 0 0 1
-25.094057 -0.551788 8.518677 26.506302 0.021985 1.243607 0.154091 -0.037370 -301226.000000 0 0 1
-23.971117 -1.353588 7.820577 25.250902 0.056408 1.255903 0.139007 -0.049258 116221.000000 0 0 1
-22.962017 -1.728688 8.743277 24.631027 0.075143 1.207914 0.127453 -0.054462 177922.000000 0 1 0
-21.825117 -2.288988 8.134577 23.403986 0.104497 1.215816 0.147231 -0.044441 601193.000000 0 1 0
-20.526817 -2.388688 9.016377 22.546643 0.115848 1.159390 0.116118 -0.031457 609295.000000 0 1 0
-19.979917 -1.109188 9.342577 22.084183 0.055458 1.133994 0.105315 -0.035404 549974.000000 0 1 0
-20.561017 -0.640288 10.533677 23.111117 0.031131 1.097544 0.118291 -0.035169 -737120.000000 0 1 0
-20.039517 0.740212 10.932477 22.839641 -0.036921 1.071666 0.089689 -0.025754 -491335.000000 0 1 0
-20.432017 1.932812 10.291677 22.959131 -0.094317 1.105978 0.092036 -0.015752 50975.600000 0 1 0
-21.805517 2.097412 10.051177 24.101989 -0.095892 1.140625 0.126205 -0.030297 -653190.000000 0 1 0
-22.182217 3.509512 9.542077 24.401202 -0.156912 1.169025 0.114713 -0.037918 -354645.000000 0 1 0
-22.090217 4.553112 10.564277 24.906073 -0.203268 1.132757 0.098105 -0.037341 345075.000000 0 1 0
-22.288517 5.801112 10.090777 25.144675 -0.254624 1.157851 0.074464 -0.036254 -262451.000000 0 0 1
-22.487117 6.867912 11.225077 26.054577 -0.296418 1.125385 0.081794 -0.040953 344407.000000 0 0 1
-23.729717 6.679212 11.903677 27.375333 -0.274372 1.120944 0.092788 -0.036327 565235.000000 0 0 1
-23.756717 7.515812 13.093977 28.148202 -0.306403 1.086959 0.093969 -0.029997 403023.000000 0 0 1
-24.799817 7.168212 14.218277 29.471572 -0.281374 1.067358 0.116494 -0.024990 827594.000000 0 0 1
-26.165197 7.130212 13.824677 30.439763 -0.266047 1.099361 0.132214 -0.034167 -36159.300000 0 0 1
-26.975857 6.577312 14.827277 31.477072 -0.239156 1.080315 0.132066 -0.029878 284432.000000 0 0 1
-28.431927 6.526612 14.272277 32.475668 -0.225643 1.115781 0.143218 -0.019534 114700.000000 0 0 1
-28.687267 5.533212 13.287177 32.095557 -0.190541 1.143965 0.168265 -0.012812 763292.000000 0 0 1
-29.936287 5.784612 12.610177 32.994842 -0.190878 1.178635 0.194193 -0.022770 420855.000000 0 0 1
-30.383577 4.674512 11.709777 32.895770 -0.152653 1.206849 0.218027 -0.029042 -196194.000000 0 0 1
-30.941837 3.584012 12.423277 33.534761 -0.115317 1.191292 0.192265 -0.027582 437070.000000 0 0 1
-31.539477 2.546012 11.613977 33.706160 -0.080550 1.219021 0.187035 -0.019015 -57418.100000 0 0 1
-32.770407 1.879712 12.219077 35.024830 -0.057297 1.214432 0.141405 -0.009200 -366040.000000 0 0 1
-32.441647 0.923112 13.172777 35.026199 -0.028447 1.185230 0.154218 -0.004868 343430.000000 0 0 1
-33.611817 0.160112 13.490177 36.218293 -0.004764 1.189129 0.128278 -0.014706 452005.000000 0 0 1
-33.430297 -1.121588 14.294377 36.375430 0.033537 1.166939 0.119693 -0.022226 -79446.800000 0 0 1
-32.963087 -2.305588 13.621477 35.741089 0.069831 1.179794 0.127815 -0.021609 272178.000000 0 0 1
-32.855447 -3.313488 14.592077 36.102470 0.100511 1.154709 0.128042 -0.017366 -88311.900000 0 0 1
-32.685937 -4.760188 14.028077 35.886165 0.144617 1.169182 0.119285 -0.021721 -677412.000000 0 0 1
-33.809627 -5.034188 13.275077 36.669628 0.147812 1.200364 0.105589 -0.034392 -289150.000000 0 0 1
-33.899317 -6.397088 12.957877 36.850957 0.186515 1.211485 0.110992 -0.035103 139470.000000 0 0 1
-35.238498 -6.670988 12.177277 37.875320 0.187096 1.243473 0.115638 -0.029863 1227450.000000 0 0 1
-36.411787 -6.776388 13.001377 39.252687 0.183999 1.233197 0.105109 -0.034903 446482.000000 0 0 1
-37.077747 -5.587888 13.222277 39.759432 0.149582 1.231783 0.109255 -0.032242 353476.000000 0 0 1
35.992201 -5.532788 12.616577 38.538659 -0.152528 1.237273 0.127950 -0.034521 1111870.000000 0 0 1
35.022541 -6.149388 13.443577 38.014775 -0.173812 1.209336 0.128256 -0.034375 1248290.000000 0 0 1
33.646121 -5.911588 13.048477 36.568717 -0.173924 1.205934 0.131065 -0.033274 1691420.000000 0 0 1
32.591011 -6.963988 13.474977 35.947825 -0.210512 1.186563 0.112401 -0.031285 -55249.000000 0 0 1
32.046691 -6.909488 14.766977 35.955459 -0.212356 1.147573 0.108738 -0.025016 459663.000000 0 0 1
31.167171 -8.066888 14.807977 35.436470 -0.253269 1.139692 0.096480 -0.025855 197363.000000 0 0 1
30.494721 -8.210588 16.186477 35.487234 -0.263009 1.097165 0.083164 -0.021772 141987.000000 0 0 1
31.466621 -8.381588 17.196377 36.825462 -0.260320 1.084935 0.071070 -0.018235 17543.600000 0 0 1
30.812481 -8.446588 18.421077 36.879397 -0.267556 1.047780 0.062726 -0.019382 -305994.000000 0 0 1
31.692901 -8.897188 19.631077 38.327263 -0.273687 1.033056 0.067868 -0.024308 1082760.000000 0 0 1
32.826991 -8.065488 19.963977 39.258423 -0.240925 1.037323 0.072496 -0.020598 1411440.000000 0 0 1
34.028521 -8.358688 19.221277 39.965803 -0.240869 1.069066 0.062604 -0.012220 50213.800000 0 0 1
35.352611 -7.914988 19.810277 41.290449 -0.220255 1.070394 0.051750 -0.020272 -338187.000000 0 0 1
35.574841 -8.377988 21.120177 42.211632 -0.231289 1.046805 0.057763 -0.021832 1208210.000000 0 0 1
36.984951 -8.258388 21.464877 43.552595 -0.219687 1.055435 0.056271 -0.021332 1316640.000000 0 0 1
-37.223107 -8.755688 22.941777 44.593126 0.231022 1.030408 0.058707 -0.018463 -123396.000000 0 0 1
36.774351 -7.923888 23.936777 44.588229 -0.212228 1.004108 0.059702 -0.020365 87565.500000 0 0 1
36.747421 -8.564988 25.194477 45.370625 -0.228989 0.982068 0.061895 -0.020860 47750.600000 0 0 1
36.349421 -7.701888 26.401277 45.580993 -0.208797 0.953029 0.070190 -0.016558 1375830.000000 0 0 1
-37.026777 -7.016688 26.986577 46.351823 0.187282 0.949350 0.045681 -0.027872 1072220.000000 0 0 1
37.073171 -6.479288 28.227777 47.044751 -0.173023 0.927271 0.053585 -0.030385 323660.000000 0 0 1
-36.252287 -6.156788 29.141677 46.918778 0.168227 0.900639 0.074635 -0.023958 394575.000000 0 0 1
-35.809365 -7.300088 29.831277 47.175280 0.201104 0.886214 0.076077 -0.021684 -382860.000000 0 0 1
-34.502093 -7.099288 30.312177 46.471738 0.202932 0.860219 0.083086 -0.027520 103858.000000 0 0 1
-34.137342 -7.894888 31.590377 47.176682 0.227273 0.837101 0.074954 -0.014228 41015.400000 0 0 1
-34.234256 -9.296288 31.406577 47.379092 0.265155 0.846140 0.078074 -0.012730 71656.400000 0 0 1
-33.647367 -10.006288 32.457777 47.809815 0.289058 0.824542 0.072710 -0.006659 -193511.000000 0 0 1
-33.921317 -11.531388 32.512477 48.380676 0.327689 0.833872 0.082990 -0.008242 1033220.000000 0 0 1
-35.324285 -11.720888 32.806877 49.613259 0.320377 0.848310 0.068983 -0.002505 991466.000000 0 0 1
-35.603714 -13.045088 33.156777 50.370335 0.351207 0.852291 0.065147 -0.017608 -530662.000000 0 0 1
-37.078997 -13.259888 33.456077 51.671905 0.343440 0.866535 0.068320 -0.015363 -556855.000000 0 0 1
37.145801 -14.590688 33.685377 52.224547 -0.374280 0.869759 0.068800 -0.022771 -887006.000000 0 0 1
35.796611 -14.776688 -33.916669 51.479008 -0.391488 2.290078 0.051975 -0.025818 -809154.000000 0 0 1
35.402261 -16.267888 -33.818269 51.591080 -0.430739 2.285649 0.039551 -0.011860 -23413.000000 0 0 1
36.093861 -16.755688 -32.691969 51.500337 -0.434621 2.258535 0.051281 -0.029574 23488.600000 0 0 1
36.003601 -18.151488 -32.683369 51.903164 -0.466968 2.251962 0.043657 -0.038983 -174908.000000 0 0 1
36.567241 -18.819788 -31.390369 51.736861 -0.475309 2.222738 0.052029 -0.039793 68949.200000 0 0 1
35.825381 -18.524488 -30.191769 50.380130 -0.477216 2.213397 0.056373 -0.032511 152559.000000 0 0 1
35.985171 -19.528988 -29.233669 50.308263 -0.497218 2.190865 0.058806 -0.029960 105804.000000 0 0 1
34.737051 -19.735988 -28.300969 48.960359 -0.516674 2.187119 0.058648 -0.024443 816781.000000 0 0 1
33.571691 -20.357488 -28.794669 48.689000 -0.545104 2.203590 0.065204 -0.018425 331349.000000 0 0 1
32.716771 -19.595388 -29.615969 48.285318 -0.539640 2.231096 0.051719 -0.015399 -1053540.000000 0 0 1
31.349001 -20.236388 -29.779969 47.740107 -0.573219 2.244383 0.050851 -0.008644 -486108.000000 0 0 1
30.544011 -19.509088 -30.728869 47.516360 -0.568405 2.274047 0.047081 -0.009349 276081.000000 0 0 1
29.235601 -20.045988 -30.699869 46.893965 -0.601044 2.284537 0.049666 -0.006533 -235443.000000 0 0 1
28.277401 -19.344488 -31.647969 46.641340 -0.599973 2.316568 0.040807 0.005439 -164535.000000 0 0 1
28.638301 -19.493988 -32.974469 47.827643 -0.597653 2.331517 0.033530 0.003839 6768.130000 0 0 1
27.520801 -19.158888 -33.768469 47.589568 -0.608144 2.359694 0.053530 -0.005455 30537.100000 0 0 1
27.727501 -19.455988 32.587677 47.003260 -0.611856 0.804729 0.047787 -0.005483 -193843.000000 0 0 1
28.628401 -18.508888 32.052977 46.792709 -0.573926 0.816193 0.029605 -0.008242 243404.000000 0 0 1
28.785401 -18.411088 30.660577 45.909024 -0.569028 0.839473 0.028050 -0.009988 -303061.000000 0 0 1
27.656201 -17.598288 30.020077 44.449637 -0.566701 0.829326 0.023865 -0.006112 -349500.000000 0 0 1
27.628001 -16.266388 30.378477 44.167337 -0.532117 0.812337 0.026795 -0.012429 -91703.400000 0 0 1
26.842801 -15.415888 29.615877 42.840235 -0.521310 0.807496 0.023657 -0.010104 -372693.000000 0 0 1
26.723401 -14.024988 30.270377 42.745014 -0.483306 0.783905 0.034417 -0.010550 -146595.000000 0 0 1
27.958101 -13.373988 30.392777 43.407832 -0.446185 0.795163 0.044688 0.006488 78158.500000 0 0 1
27.678701 -12.127688 30.923077 43.236882 -0.412964 0.773884 0.061955 -0.012237 317253.000000 0 0 1
28.978501 -11.279088 30.953077 43.875555 -0.371181 0.787704 0.067979 -0.015550 185627.000000 0 0 1
29.378901 -10.877888 29.630177 43.120710 -0.354610 0.813244 0.065666 -0.020227 164211.000000 0 0 1
30.786431 -11.030088 29.523177 44.057748 -0.344030 0.836450 0.074048 -0.009301 173269.000000 0 0 1
31.341251 -10.509888 28.178077 43.436572 -0.323553 0.864898 0.087014 -0.015470 -134157.000000 0 0 1
31.334431 -9.127988 28.064077 43.043689 -0.283464 0.860590 0.082096 -0.014559 -25042.000000 0 0 1
31.779781 -8.833988 26.740977 42.462615 -0.271130 0.889561 0.079425 -0.019084 -9397.110000 0 0 1
31.814541 -7.292088 26.454077 42.013781 -0.225314 0.889691 0.081751 -0.017791 100627.000000 0 0 1
30.579151 -6.614288 26.607677 41.070692 -0.213019 0.866037 0.093843 -0.021990 -329741.000000 0 0 1
30.599971 -5.222988 26.326077 40.702582 -0.169057 0.867427 0.088629 -0.026729 415454.000000 0 0 1
29.187401 -4.547588 26.276777 39.535477 -0.154564 0.843787 0.084514 -0.023464 522265.000000 0 0 1
28.502701 -4.905588 25.123077 38.309761 -0.170440 0.855571 0.083547 -0.018694 -83313.000000 0 0 1
27.131301 -4.550088 25.239977 37.334531 -0.166160 0.828409 0.090586 -0.019117 332368.000000 0 0 1
26.246901 -4.839188 24.003577 35.895533 -0.182324 0.838329 0.093645 -0.009675 -160687.000000 0 0 1
26.512301 -3.999788 22.929077 35.279498 -0.149736 0.863309 0.098194 -0.002913 300549.000000 0 0 1
25.710301 -4.456488 21.853677 34.036202 -0.171629 0.873599 0.090378 -0.012049 277378.000000 0 0 1
26.189601 -3.720688 20.582877 33.517063 -0.141123 0.909549 0.086503 -0.007450 220270.000000 0 0 1
25.653901 -2.417588 20.511177 32.934416 -0.093961 0.898495 0.075098 0.005029 -77453.200000 0 0 1
26.045601 -1.683188 19.391377 32.515103 -0.064535 0.931812 0.083063 0.007457 171354.000000 0 0 1
24.874501 -0.757988 18.935277 31.270754 -0.030463 0.920369 0.071560 0.004731 149120.000000 0 0 1
23.968201 -1.472188 18.159677 30.106741 -0.061345 0.923319 0.074225 0.000090 -506483.000000 0 0 1
22.867401 -0.690588 17.733177 28.945820 -0.030191 0.911408 0.087420 -0.004583 686389.000000 0 0 1
21.751201 -1.584488 17.092077 27.708563 -0.072718 0.906060 0.085957 -0.011411 292377.000000 0 0 1
22.063701 -1.936688 15.725677 27.163479 -0.087553 0.953384 0.108713 -0.017424 577503.000000 0 0 1
21.073101 -2.861288 15.270077 26.180867 -0.134954 0.948068 0.125616 -0.034129 -24285.100000 0 0 1
21.404601 -3.402588 13.932077 25.765041 -0.157646 0.999485 0.135699 -0.043412 -247181.000000 0 0 1
20.412801 -4.305988 13.481777 24.839128 -0.207898 0.997072 0.154752 -0.043725 610474.000000 0 1 0
20.579001 -4.657388 12.114877 24.330162 -0.222568 1.049579 0.147046 -0.044314 -1610960.000000 0 1 0
19.482901 -5.485588 11.654277 23.355883 -0.274454 1.048367 0.148680 -0.043416 -1498580.000000 0 1 0
19.565001 -6.707588 12.325277 24.076824 -0.330279 1.033384 0.142222 -0.046369 960503.000000 0 1 0
18.339601 -7.437988 12.305577 23.304331 -0.385299 1.014508 0.129762 -0.024071 135443.000000 0 1 0
18.465601 -8.939788 12.617977 24.085505 -0.450873 1.019394 0.129579 -0.038895 -240755.000000 0 1 0
19.115501 -9.659288 11.576677 24.345917 -0.467888 1.075255 0.121861 -0.045520 506264.000000 0 1 0
18.839201 -11.057788 11.583177 24.725698 -0.530773 1.083241 0.128290 -0.041576 -121191.000000 0 1 0
19.200501 -11.679288 10.234077 24.694156 -0.546486 1.143476 0.112599 -0.042783 -332865.000000 0 1 0
18.451301 -11.277788 9.147277 23.480027 -0.548628 1.170624 0.097904 -0.037219 63624.000000 0 1 0
18.906001 -11.873188 7.922777 23.689235 -0.560762 1.229779 0.089441 -0.047273 -95286.900000 0 1 0
18.435601 -11.066088 6.681177 22.515946 -0.540608 1.269529 0.078167 -0.035316 -150563.000000 0 1 0
18.919001 -9.702888 6.611577 22.266288 -0.473886 1.269318 0.086578 -0.030473 635592.000000 0 1 0
19.583001 -9.493288 5.386277 22.419376 -0.451391 1.328172 0.084590 -0.026126 -418648.000000 0 1 0
20.210801 -8.086288 5.323977 22.410026 -0.380590 1.330932 0.121733 -0.019362 -230279.000000 0 1 0
20.792401 -7.790788 4.070677 22.574116 -0.358502 1.389479 0.120713 -0.022234 687386.000000 0 1 0
21.521401 -6.569088 4.126477 22.876875 -0.296253 1.389426 0.159910 -0.020638 -44961.600000 0 1 0
21.993001 -6.080388 2.725877 22.980287 -0.269732 1.451898 0.165378 -0.027162 -131730.000000 0 1 0
20.931401 -5.992088 1.811977 21.847469 -0.278816 1.487763 0.113878 -0.034211 597873.000000 0 1 0
21.372301 -5.291388 0.623877 22.026422 -0.242701 1.542468 0.119368 -0.026698 226890.000000 0 1 0
-26.175987 -15.170788 -0.104423 30.254686 0.525261 1.574248 0.122790 -0.023192 185037.000000 0 0 1
-25.192777 -14.507688 -0.981323 29.088005 0.522486 1.604539 0.116388 -0.016493 2216920.000000 0 0 1
-23.828117 -14.967788 -0.758223 28.149400 0.560866 1.597735 0.105514 -0.014528 1427540.000000 0 0 1
-23.119817 -14.518388 0.558477 27.306069 0.560727 1.550342 0.122837 -0.035834 -660106.000000 0 0 1
-23.680917 -14.992688 1.790577 28.085097 0.564412 1.506998 0.103101 -0.018350 -38907.800000 0 0 1
-22.999817 -14.511188 2.931177 27.352476 0.562850 1.463427 0.120863 -0.014732 -182467.000000 0 0 1
-23.524517 -15.065288 4.234177 28.254098 0.569603 1.420369 0.125664 -0.009066 -214153.000000 0 0 1
-23.180717 -16.416888 4.290477 28.727479 0.616217 1.420884 0.147852 -0.025872 284061.000000 0 0 1
-23.627517 -17.001388 5.501777 29.623914 0.623732 1.383991 0.136343 -0.029381 -264697.000000 0 0 1
-24.019917 -18.437288 5.272577 30.735811 0.654660 1.398399 0.108460 -0.028332 18929.600000 0 0 1
-24.741117 -18.982588 6.391677 31.832610 0.654449 1.368632 0.107285 -0.031527 479187.000000 0 0 1
-25.208277 -20.285488 5.965077 32.901982 0.677610 1.388490 0.100967 -0.031067 138337.000000 0 0 1
-25.790087 -21.252488 7.052177 34.154503 0.689238 1.362822 0.093251 -0.025692 328100.000000 0 0 1
-24.852717 -21.502888 8.110877 33.849935 0.713260 1.328829 0.083876 -0.019345 289575.000000 0 0 1
-25.364957 -22.540888 8.913277 35.084458 0.726516 1.313929 0.079506 -0.010159 -100617.000000 0 0 1
-24.310317 -23.147588 9.852877 34.984018 0.760903 1.285294 0.056837 -0.016571 65677.900000 0 0 1
-23.857317 -22.206588 10.846177 34.350308 0.749578 1.249547 0.074359 -0.018135 45576.700000 0 0 1
-22.831417 -22.699088 11.663577 34.242682 0.782492 1.223225 0.075556 -0.020038 -142902.000000 0 0 1
-22.897817 -21.965488 13.050777 34.309117 0.764620 1.180580 0.057098 -0.007982 -348824.000000 0 0 1
-23.968917 -22.374088 13.849677 35.593853 0.750998 1.171139 0.059516 -0.017041 -186533.000000 0 0 1
-24.144217 -21.648188 15.055677 35.752772 0.730945 1.136133 0.049812 -0.003345 165218.000000 0 0 1
-25.396467 -22.133388 15.878877 37.242531 0.716852 1.130327 0.062093 -0.008026 1049390.000000 0 0 1
-26.664197 -21.844788 15.303077 37.714166 0.686372 1.152981 0.066748 -0.019771 472793.000000 0 0 1
-27.166317 -22.664888 14.243177 38.138878 0.695309 1.188065 0.056711 -0.027500 -118759.000000 0 0 1
-28.437817 -23.457488 14.689177 39.682932 0.689722 1.191611 0.044683 -0.022599 62515.300000 0 0 1
-28.291167 -24.398288 15.716177 40.529802 0.711649 1.172587 0.040545 -0.006709 -416066.000000 0 0 1
-29.396817 -25.249198 15.839077 41.863722 0.709644 1.182785 0.042189 -0.021146 -285257.000000 0 0 1
-29.275647 -26.561338 15.029577 42.290145 0.736825 1.207463 0.052174 -0.023471 85143.000000 0 0 1
-29.836157 -26.479108 13.713377 42.182889 0.725857 1.239686 0.069551 -0.039406 328441.000000 0 0 1
-31.171197 -26.986428 13.689077 43.443085 0.713566 1.250230 0.105456 -0.053925 96226.000000 0 0 1
-31.639727 -27.236988 12.206677 43.496308 0.710758 1.286339 0.151535 -0.059499 -190403.000000 0 0 1
-31.002847 -28.364688 11.573877 43.585395 0.740990 1.302027 0.126951 -0.059693 297395.000000 0 0 1
-31.610557 -28.680748 10.325477 43.913871 0.736842 1.333444 0.141286 -0.047680 93099.800000 0 0 1
-31.009047 -29.928858 9.687377 44.171742 0.767674 1.349687 0.104087 -0.054173 53310.900000 0 0 1
-31.227907 -31.000348 10.580177 45.256424 0.781741 1.334830 0.101310 -0.043703 -52229.300000 0 0 1
-30.683387 -32.179728 10.099477 45.596103 0.809197 1.347445 0.104735 -0.048923 -494651.000000 0 0 1
-30.864557 -33.350998 11.069877 46.770206 0.824099 1.331842 0.095025 -0.047315 204121.000000 0 0 1
-32.180197 -33.816038 11.357377 48.042476 0.810180 1.332134 0.090140 -0.038140 323542.000000 0 0 1
-32.092897 32.779622 11.814877 47.371394 -0.795984 1.318726 0.106668 -0.039370 -425748.000000 0 0 1
-33.398787 32.160143 12.417477 47.999453 -0.766507 1.309120 0.104115 -0.036828 171963.000000 0 0 1
-34.404245 31.822004 11.509177 48.257156 -0.746427 1.329979 0.063254 -0.037442 75875.800000 0 0 1
-35.142533 32.977848 11.084877 49.451092 -0.753632 1.344717 0.096193 -0.038278 -1052190.000000 0 0 1
-36.603467 32.716182 10.710677 50.248193 -0.729379 1.355993 0.081335 -0.022291 -378993.000000 0 0 1
-36.737147 32.265357 9.394277 49.788790 -0.720682 1.380976 0.053627 -0.018284 -1259500.000000 0 0 1
36.488151 32.096008 9.027177 49.427004 0.721445 1.387129 0.028375 -0.019129 -1430330.000000 0 0 1
36.164801 31.655824 7.589577 48.657843 0.719012 1.414178 0.028840 -0.025262 -250390.000000 0 0 1
36.143131 30.307384 7.378777 47.742117 0.697802 1.415619 0.055722 -0.026396 42021.500000 0 0 1
35.665891 30.044224 6.097777 47.030777 0.700053 1.440775 0.071983 -0.023076 24415.600000 0 0 1
35.947871 28.580784 5.761077 46.284993 0.671723 1.446003 0.087281 -0.017427 -170648.000000 0 0 1
35.127751 27.677504 6.442477 45.183056 0.667325 1.427723 0.078931 -0.013152 -188585.000000 0 0 1
35.648861 27.225824 7.684077 45.509689 0.652226 1.401139 0.059527 -0.012898 -265389.000000 0 0 1
34.799901 26.152274 8.398077 44.333985 0.644463 1.380217 0.056611 0.004380 -253923.000000 0 0 1
34.902251 24.974854 7.632777 43.590936 0.621097 1.394789 0.051530 -0.003269 529601.000000 0 0 1
33.809421 24.109504 7.972277 42.283594 0.619464 1.381118 0.047190 -0.002256 -49120.800000 0 0 1
33.688251 22.877764 7.014077 41.321757 0.596562 1.400227 0.068729 -0.003108 1113030.000000 0 0 1
34.647331 21.767064 7.160077 41.539250 0.560930 1.397562 0.075963 -0.001669 654588.000000 0 0 1
36.021061 22.078964 7.117177 42.844506 0.549884 1.403906 0.073985 -0.007129 -528200.000000 0 0 1
36.873231 20.794464 7.142477 42.930873 0.513486 1.403648 0.069310 -0.006848 -263200.000000 0 0 1
36.814061 20.036064 5.934077 42.331220 0.498418 1.430151 0.090502 -0.017587 116972.000000 0 0 1
-37.251617 18.710664 6.208977 42.146450 -0.465468 1.422939 0.102196 -0.022653 1765.130000 0 0 1
36.707391 17.646464 5.253177 41.066118 0.448116 1.442525 0.113901 -0.026980 -45121.500000 0 0 1
37.143981 17.765464 3.939277 41.361877 0.446126 1.475412 0.146590 -0.031357 41432.300000 0 0 1
36.495651 16.752464 3.233177 40.286859 0.430335 1.490456 0.127087 -0.033297 -304748.000000 0 0 1
-37.237127 16.264064 1.964277 40.681467 -0.411798 1.522493 0.171586 -0.032951 1462180.000000 0 0 1
-36.010385 15.521364 2.236077 39.276718 -0.406962 1.513834 0.183814 -0.046579 1025600.000000 0 0 1
-34.848469 16.306964 2.325577 38.545313 -0.437672 1.510426 0.182557 -0.048228 -740409.000000 0 0 1
-33.581207 15.468464 2.396277 37.050141 -0.431657 1.506075 0.190506 -0.046266 -716911.000000 0 0 1
-33.428947 14.823364 3.615977 36.746454 -0.417376 1.472233 0.185913 -0.047686 166534.000000 0 0 1
-32.087327 14.391564 3.743477 35.365623 -0.421616 1.464747 0.187433 -0.052779 141665.000000 0 0 1
-31.713697 13.593864 5.029977 34.869075 -0.404952 1.426038 0.191439 -0.042524 -44792.300000 0 0 1
-32.282747 12.309164 5.126877 34.928157 -0.364276 1.423481 0.216506 -0.046651 312447.000000 0 0 1
-31.816967 11.697564 6.347277 34.488263 -0.352313 1.385700 0.190962 -0.035288 117654.000000 0 0 1
-31.913537 10.189564 6.350377 34.097336 -0.309056 1.383460 0.216429 -0.042257 367947.000000 0 0 1
-33.221387 9.659564 6.559877 35.213629 -0.282961 1.383414 0.194821 -0.024939 384311.000000 0 0 1
-33.307737 8.276464 6.644577 34.957912 -0.243552 1.379559 0.209252 -0.030626 -274445.000000 0 0 1
-34.757851 7.779564 6.609977 36.225980 -0.220193 1.387303 0.171780 -0.015503 -262381.000000 0 0 1
-35.401049 7.664264 7.832677 37.058414 -0.213208 1.357830 0.153105 -0.017896 939073.000000 0 0 1
-36.696607 7.017764 7.734577 38.153816 -0.188956 1.366661 0.092498 -0.022651 1203910.000000 0 0 1
37.175841 6.446864 9.015477 38.792834 0.171708 1.336251 0.079085 -0.024882 84289.300000 0 0 1
36.693801 7.428364 9.955477 38.739219 0.199742 1.310893 0.080873 -0.026999 569593.000000 0 0 1
-36.814987 8.045364 10.741577 39.184852 -0.215153 1.293116 0.118670 -0.029221 213589.000000 0 0 1
37.059831 8.964864 11.804377 39.914197 0.237343 1.270562 0.103743 -0.032461 -157184.000000 0 0 1
36.314581 8.266464 12.753777 39.366763 0.223821 1.240870 0.092663 -0.031678 -46769.500000 0 0 1
35.637301 9.147864 13.546977 39.207413 0.251268 1.218003 0.123561 -0.035348 -799564.000000 0 0 1
34.975211 8.455864 14.722877 38.878401 0.237215 1.182415 0.114093 -0.035560 -421372.000000 0 0 1
33.652771 7.970264 14.600577 37.539458 0.232553 1.171316 0.111603 -0.039759 231915.000000 0 0 1
33.208351 7.578164 15.898177 37.589562 0.224359 1.134108 0.105638 -0.023398 -774181.000000 0 0 1
31.802241 7.013064 15.935377 36.256059 0.217047 1.115729 0.097744 -0.018424 -877560.000000 0 0 1
30.905961 8.127264 15.977677 35.728378 0.257146 1.107166 0.095719 -0.029337 383381.000000 0 0 1
29.509821 7.897464 15.906777 34.441617 0.261494 1.090719 0.108712 -0.027060 289053.000000 0 0 1
28.862001 7.329364 17.152677 34.364938 0.248688 1.048198 0.102243 -0.020478 -812923.000000 0 0 1
28.811101 8.296664 18.184677 35.065605 0.280382 1.025595 0.130761 -0.027302 202854.000000 0 0 1
28.000601 7.932164 19.290077 34.915039 0.276053 0.985452 0.120481 -0.021486 1293.590000 0 0 1
28.614901 6.958864 20.341877 35.791483 0.238559 0.966304 0.111173 -0.017525 -255972.000000 0 0 1
27.757601 6.768664 21.426177 35.712467 0.239181 0.927341 0.100643 -0.008883 -294356.000000 0 0 1
28.226101 5.843064 22.392377 36.500311 0.204126 0.910331 0.087133 -0.009906 -429408.000000 0 0 1
27.337501 5.714464 23.645777 36.593945 0.206067 0.868246 0.097088 -0.004049 189604.000000 0 0 1
26.056401 5.149464 23.441477 35.425356 0.195113 0.847693 0.065726 -0.009627 -71112.500000 0 0 1
25.079401 6.185964 23.497277 34.919400 0.241828 0.832674 0.088550 -0.004380 -1286870.000000 0 0 1
23.690001 5.672064 23.307477 33.713898 0.235005 0.807466 0.091172 -0.012902 -1856190.000000 0 0 1
23.503201 5.493164 21.943377 32.620348 0.229598 0.832958 0.086777 0.002595 802151.000000 0 0 1
22.173201 5.264164 21.439077 31.288916 0.233096 0.815922 0.082945 0.002048 135426.000000 0 0 1
21.377801 4.062464 22.049477 30.978919 0.187793 0.778799 0.082092 0.001682 510045.000000 0 0 1
20.165501 3.686764 21.375277 29.616585 0.180828 0.764493 0.093690 -0.009433 906190.000000 0 0 1
19.051101 4.531764 21.410677 29.015486 0.233534 0.740835 0.104346 -0.008240 499652.000000 0 0 1
17.825601 4.258464 20.422077 27.439894 0.234501 0.731389 0.143625 -0.019230 999781.000000 0 0 1
17.116301 3.110264 20.820677 27.131939 0.179752 0.696042 0.128233 -0.015568 447700.000000 0 0 1
15.982001 2.748464 20.016477 25.761168 0.170307 0.680907 0.143701 -0.026794 81637.400000 0 0 1
15.220401 1.580864 20.604877 25.665555 0.103494 0.638783 0.157158 -0.028333 -868138.000000 0 0 1
15.738401 0.302464 20.606477 25.930978 0.019216 0.652338 0.120132 -0.029250 -484456.000000 0 0 1
14.991601 -0.529036 21.440377 26.167112 -0.035274 0.610496 0.140420 -0.031413 -279557.000000 0 0 1
15.321401 -2.022536 21.290577 26.308262 -0.131248 0.627882 0.109773 -0.022963 -103352.000000 0 0 1
14.553701 -2.643136 20.293677 25.112342 -0.179655 0.629850 0.120496 -0.020398 11328.900000 0 0 1
14.817101 -4.040536 20.114277 25.307243 -0.266221 0.652113 0.108048 -0.018836 143104.000000 0 0 1
14.242001 -4.687136 18.789277 24.038319 -0.317942 0.673508 0.112972 -0.023368 170037.000000 0 1 0
12.840601 -4.747836 18.746077 23.212893 -0.354162 0.630773 0.115473 -0.025716 -376066.000000 0 1 0
12.329101 -5.218636 17.506277 22.038844 -0.400411 0.652880 0.114543 -0.022975 2213220.000000 0 1 0
10.721401 -5.086536 17.431377 21.087299 -0.442982 0.597705 0.096441 -0.016490 2038330.000000 0 1 0
10.076001 -6.045136 18.215277 21.676388 -0.540386 0.572908 0.094807 -0.017366 -694153.000000 0 1 0
8.703701 -6.050736 17.919977 20.820456 -0.607491 0.534171 0.071082 -0.030260 95161.700000 0 1 0
7.760301 -6.795236 18.930577 21.558392 -0.719193 0.498905 0.058523 -0.031690 -110862.000000 0 1 0
7.762801 -8.226136 18.885877 22.013786 -0.814369 0.539606 0.059184 -0.026387 645032.000000 0 1 0
8.948801 -8.761436 19.516177 23.188898 -0.774819 0.570525 0.090974 -0.028865 758476.000000 0 1 0
9.361401 -10.130836 18.987277 23.468838 -0.824852 0.628276 0.112643 -0.032130 -87480.800000 0 1 0
9.829301 -10.250036 17.683177 22.679796 -0.806349 0.676628 0.116099 -0.018727 63632.900000 0 1 0
10.004601 -11.627336 17.360377 23.166132 -0.860274 0.723662 0.110085 -0.019627 192616.000000 0 1 0
10.229301 -11.858636 15.871977 22.297657 -0.859031 0.778706 0.103182 -0.014302 265477.000000 0 1 0
10.643701 -13.146736 15.455677 22.912944 -0.890224 0.830456 0.091750 -0.004699 -139732.000000 0 1 0
10.237301 -13.414736 14.109277 21.996117 -0.918940 0.874417 0.064982 0.007035 -295196.000000 0 1 0
10.947001 -14.508036 13.291777 22.516467 -0.924391 0.939349 0.083041 -0.006919 594888.000000 0 1 0
12.249501 -14.229236 12.760577 22.701405 -0.860026 0.973867 0.064887 -0.009800 543895.000000 0 1 0
12.257001 -13.307136 11.699277 21.545000 -0.826454 0.996772 0.025586 -0.009895 -1584200.000000 0 1 0
13.667101 -13.042236 11.273277 21.999463 -0.762007 1.032779 0.049144 -0.016549 -956966.000000 0 1 0
14.328501 -14.149236 10.684977 22.796394 -0.779103 1.082963 0.051388 -0.016957 1050360.000000 0 1 0
15.630901 -13.685736 10.220277 23.153369 -0.719145 1.113620 0.044118 -0.028304 768229.000000 0 1 0
16.411401 -14.732836 9.475277 24.003571 -0.731554 1.165007 0.035794 -0.029702 -184292.000000 0 1 0
16.998101 -15.782536 10.255677 25.361443 -0.748333 1.154495 0.032866 -0.018434 92083.400000 0 0 1
16.117901 -16.803836 10.642577 25.601174 -0.806230 1.142077 0.078500 -0.021644 143717.000000 0 0 1
16.710101 -17.506936 11.918177 26.977087 -0.808682 1.113205 0.071697 -0.017502 692410.000000 0 0 1
17.907301 -18.273636 11.799577 28.174940 -0.795523 1.138676 0.096940 -0.022659 400512.000000 0 0 1
18.081801 -18.919436 13.048277 29.243018 -0.808032 1.108280 0.065189 -0.020530 -891352.000000 0 0 1
19.358201 -19.739536 13.133177 30.608325 -0.795151 1.127331 0.027086 -0.024468 -67090.000000 0 0 1
20.471601 -18.831036 13.141477 30.763498 -0.743681 1.129427 0.020616 -0.023473 112652.000000 0 0 1
21.686301 -19.501236 12.849277 31.870014 -0.732396 1.155810 0.004196 -0.023533 262902.000000 0 0 1
22.557301 -18.707936 11.866277 31.616882 -0.692384 1.186060 0.024941 -0.024472 -799429.000000 0 0 1
22.220001 -18.947536 10.467377 31.021018 -0.706074 1.226612 0.021111 -0.013760 1363330.000000 0 0 1
20.927101 -18.468636 9.976677 29.640651 -0.723075 1.227506 0.029712 -0.013763 1347370.000000 0 0 1
20.690901 -16.914336 9.986277 28.529526 -0.685307 1.213190 0.074264 -0.034819 -25435.700000 0 0 1
21.649401 -16.304736 9.132877 28.599833 -0.645499 1.245771 0.073106 -0.025924 188944.000000 0 0 1
21.529201 -14.897336 9.071877 27.708051 -0.605309 1.237236 0.085938 -0.038916 -154101.000000 0 0 1
-35.955973 24.722412 7.998177 44.362151 -0.602338 1.389512 0.084187 -0.016430 -175316.000000 0 0 1
-35.155775 24.261812 9.036477 43.660302 -0.604066 1.362317 0.083232 -0.014643 300002.000000 0 0 1
-34.074820 25.169312 9.373077 43.387120 -0.636196 1.353046 0.098661 -0.019487 271569.000000 0 0 1
-33.099327 24.341912 10.259377 42.347951 -0.634105 1.326098 0.110795 -0.025355 -288700.000000 0 0 1
-32.573307 23.311712 9.459577 41.157500 -0.621165 1.338885 0.120302 -0.032797 196076.000000 0 0 1
-31.787107 22.335912 10.150077 40.153919 -0.612517 1.315245 0.109857 -0.033021 145509.000000 0 0 1
-30.785207 21.544012 9.259477 38.698983 -0.610603 1.329183 0.092430 -0.041466 -197303.000000 0 0 1
-31.316607 20.663312 8.306177 38.427788 -0.583247 1.352927 0.104751 -0.043480 165472.000000 0 0 1
-30.355317 19.911512 7.563077 37.082525 -0.580545 1.365403 0.114413 -0.048647 218489.000000 0 0 1
-31.065867 19.032712 6.499677 37.007810 -0.549674 1.394251 0.126885 -0.047087 259619.000000 0 0 1
-31.878617 17.991712 7.028977 37.274045 -0.513818 1.381085 0.143575 -0.045651 327063.000000 0 0 1
-32.815927 17.530712 6.092877 37.700584 -0.490642 1.408472 0.135276 -0.045325 486165.000000 0 0 1
-33.731977 16.313612 6.532477 38.034898 -0.450462 1.398191 0.131738 -0.039158 380506.000000 0 0 1
-34.640372 16.428112 7.615077 39.087435 -0.442834 1.374721 0.096509 -0.031479 168093.000000 0 0 1
-35.478441 15.291912 7.623777 39.378729 -0.406958 1.375965 0.103121 -0.022441 844571.000000 0 0 1
-36.514527 15.438312 8.865877 40.623342 -0.400005 1.350780 0.095388 -0.022916 689541.000000 0 0 1
36.969741 16.357812 8.660977 41.344313 0.416570 1.359749 0.112356 -0.021822 -140490.000000 0 0 1
36.426201 16.764212 9.892577 41.300968 0.431324 1.328921 0.120745 -0.016053 -28551.600000 0 0 1
35.495081 17.982312 9.766177 40.971240 0.468925 1.330113 0.092831 -0.007888 67922.500000 0 0 1
34.312621 17.703412 9.023977 39.650963 0.476322 1.341199 0.085027 -0.008760 390834.000000 0 0 1
33.508581 18.891312 9.052177 39.517699 0.513358 1.339678 0.070789 0.001466 100574.000000 0 0 1
32.095721 18.805812 8.462577 38.149824 0.530009 1.347111 0.052948 0.000863 -454211.000000 0 0 1
31.224931 19.838312 8.918177 38.053762 0.565997 1.334239 0.058113 0.005078 -351511.000000 0 0 1
29.951701 19.884912 8.361477 36.911088 0.586084 1.342283 0.029427 0.004986 -458166.000000 0 0 1
29.814291 19.964712 6.796077 36.519424 0.590055 1.383610 0.016541 0.011037 -1133010.000000 0 0 1
29.936401 18.717912 6.138377 35.836127 0.558783 1.398657 0.035460 0.003949 83638.200000 0 0 1
29.541141 18.495612 4.792877 35.181505 0.559388 1.434139 0.041467 -0.006957 189430.000000 0 0 1
28.086001 18.904712 4.369677 34.136573 0.592444 1.442438 0.067127 -0.005090 -435413.000000 0 0 1
27.195401 17.980012 4.993377 32.981881 0.584168 1.418814 0.056256 -0.009286 877717.000000 0 0 1
25.796301 18.275612 4.871977 31.987236 0.616380 1.417891 0.090205 -0.010528 1001280.000000 0 0 1
25.189201 19.542312 5.532977 32.357559 0.659823 1.398957 0.103588 -0.001602 -684255.000000 0 0 1
25.787101 20.678712 4.888777 33.413827 0.675899 1.423959 0.077129 -0.008036 44275.700000 0 0 1
25.128801 21.912212 5.077577 33.725116 0.717126 1.419664 0.078302 -0.003090 -564343.000000 0 0 1
25.913701 23.142112 4.613577 35.048000 0.728959 1.438777 0.048998 0.005026 -86697.800000 0 0 1
27.156301 23.157112 5.290277 36.079129 0.706079 1.423636 0.059977 0.001717 399661.000000 0 0 1
28.040201 24.243512 4.940877 37.395360 0.712908 1.438283 0.074840 0.002544 -165069.000000 0 0 1
29.406001 24.139512 5.665077 38.464555 0.687358 1.422978 0.069334 0.000002 405226.000000 0 0 1
30.269451 23.049412 5.188477 38.398376 0.650804 1.435259 0.055745 0.003481 759744.000000 0 0 1
30.672251 23.011412 3.823577 38.534812 0.643652 1.471409 0.066903 -0.005692 -947123.000000 0 0 1
31.466431 24.141312 3.247777 39.793055 0.654424 1.489089 0.089673 -0.016927 -836787.000000 0 0 1
30.742991 25.338812 3.239177 39.970978 0.689332 1.489669 0.062199 -0.020004 -219727.000000 0 0 1
31.539381 26.320312 2.642377 41.163983 0.695439 1.506561 0.120651 -0.023257 -500996.000000 0 0 1
30.996291 27.764812 2.782977 41.706112 0.730460 1.504018 0.107805 -0.016101 1160240.000000 0 0 1
29.763671 28.168612 2.129477 41.035125 0.757872 1.518879 0.138599 -0.016030 2227080.000000 0 0 1
28.547201 27.564112 2.695977 39.774253 0.767880 1.502962 0.113038 -0.006807 1029290.000000 0 0 1
27.250801 28.188812 2.141977 39.265803 0.802316 1.516219 0.064730 0.001013 -83839.100000 0 0 1
27.107301 29.525312 2.613977 40.166935 0.828069 1.505672 0.056237 0.001636 470275.000000 0 0 1
25.800401 30.053312 2.380077 39.680310 0.861395 1.510779 0.042996 0.008109 543539.000000 0 0 1
25.611001 31.482312 3.001977 40.694854 0.887875 1.496961 0.069243 -0.004456 -257340.000000 0 0 1
25.441901 31.504212 4.401877 40.733060 0.891456 1.462518 0.061063 -0.024352 229982.000000 0 0 1
26.684501 31.416512 5.087177 41.532387 0.866663 1.448001 0.069842 -0.023939 296332.000000 0 0 1
26.485101 31.314812 6.616277 41.543388 0.868764 1.410853 0.080799 -0.034259 -16572.800000 0 0 1
26.146101 30.022212 7.159077 40.450020 0.854298 1.392873 0.085523 -0.034275 405287.000000 0 0 1
27.137501 29.003512 7.134277 40.355242 0.818624 1.393075 0.090459 -0.038563 335490.000000 0 0 1
26.473801 27.679312 7.628077 39.053732 0.807656 1.374210 0.103310 -0.034493 594386.000000 0 0 1
25.372901 27.268012 6.814077 37.865026 0.821383 1.389854 0.068562 -0.036559 315683.000000 0 0 1
24.821401 25.985612 7.127677 36.635471 0.808309 1.374991 0.086240 -0.030233 361653.000000 0 0 1
23.460001 25.820912 6.355177 35.460956 0.833269 1.390607 0.097977 -0.014185 447615.000000 0 0 1
23.490601 25.581712 4.954277 35.082434 0.827985 1.429105 0.053814 -0.014194 122139.000000 0 0 1
23.674001 26.870412 4.278077 36.066318 0.848554 1.451899 0.050702 -0.002407 -80398.200000 0 0 1
23.519701 26.719812 2.745477 35.702413 0.849009 1.493821 0.038571 0.007373 275890.000000 0 0 1
24.599701 25.909812 2.263977 35.799291 0.811330 1.507513 0.016737 0.020226 562674.000000 0 0 1
24.481901 25.802312 0.850677 35.578735 0.811651 1.546884 0.038845 0.015613 226794.000000 0 0 1
25.673101 25.090512 0.146477 35.897957 0.773922 1.566716 0.068148 0.010241 -730071.000000 0 0 1
26.871201 25.841912 -0.071423 37.280973 0.765874 1.572712 0.069986 0.011508 709462.000000 0 0 1
27.989601 25.169212 -0.592823 37.646492 0.732392 1.586544 0.084556 0.005650 373768.000000 0 0 1
28.526301 23.958112 0.257377 37.253284 0.698578 1.563887 0.074722 0.001773 -693388.000000 0 0 1
27.545901 22.919412 0.213977 35.834646 0.693977 1.564825 0.073547 -0.002554 329843.000000 0 0 1
27.904801 21.931412 1.157177 35.510615 0.666107 1.538204 0.076685 -0.005874 -689851.000000 0 0 1
26.857901 20.916312 1.531777 34.076169 0.661665 1.525830 0.073216 -0.008616 -804417.000000 0 0 1
26.583401 19.962112 0.511677 33.247931 0.644092 1.555406 0.107992 -0.024127 903508.000000 0 0 1
25.528601 19.115912 0.998077 31.908050 0.642735 1.539511 0.080654 -0.019775 472423.000000 0 0 1
24.810901 18.234512 -0.077223 30.790975 0.633793 1.573304 0.099904 -0.024400 780810.000000 0 0 1
23.553501 17.674512 0.353777 29.449633 0.643756 1.558783 0.087637 -0.020487 921886.000000 0 0 1
22.940101 16.978412 -0.751623 28.549599 0.637147 1.597126 0.114406 -0.042506 579436.000000 0 0 1
21.635201 16.276512 -0.254523 27.075294 0.644982 1.580197 0.091119 -0.028769 -448013.000000 0 0 1
21.035301 15.491312 -1.201323 26.151631 0.634768 1.616749 0.092687 -0.032310 300126.000000 0 0 1
19.668401 15.200812 -0.954723 24.876136 0.657968 1.609185 0.097364 -0.032745 591678.000000 0 1 0
18.614801 16.260212 -1.430823 24.757878 0.717985 1.628621 0.099261 -0.035030 -248836.000000 0 1 0
18.677701 17.493112 -0.689023 25.599613 0.752660 1.597715 0.091591 -0.027082 -106149.000000 0 0 1
17.734501 18.368012 -1.230623 25.561901 0.802944 1.618958 0.071746 -0.032861 -34352.400000 0 0 1
17.816201 19.845612 -0.761623 26.680431 0.839231 1.599346 0.072028 -0.016297 -151755.000000 0 0 1
17.798601 20.049012 0.640177 26.817212 0.844788 1.546922 0.080094 -0.015855 31724.000000 0 0 1
17.842401 21.386512 1.113777 27.874265 0.875498 1.530828 0.091032 -0.015296 -25800.600000 0 0 1
16.667901 22.321512 0.711677 27.867100 0.929398 1.545255 0.078216 -0.025426 535861.000000 0 0 1
15.431301 22.036412 1.356077 26.936359 0.959893 1.520431 0.070871 -0.022570 365197.000000 0 0 1
14.464401 23.045712 1.122977 27.232054 1.010301 1.529547 0.057280 -0.019402 -164077.000000 0 0 1
13.067301 22.796512 1.675077 26.329473 1.050305 1.507133 0.051298 -0.022546 -321963.000000 0 0 1
12.946001 23.179612 3.051377 26.724600 1.061444 1.456368 0.061894 -0.009814 -985613.000000 0 0 1
11.635601 23.086712 3.457577 26.083295 1.103957 1.437846 0.045118 -0.010935 -768537.000000 0 0 1
11.506201 23.341212 4.988577 26.496994 1.112799 1.381396 0.063255 -0.016623 394074.000000 0 0 1
12.258301 22.484912 5.831177 26.264802 1.071662 1.346916 0.061785 -0.038362 258686.000000 0 0 1
11.422501 22.253312 6.956277 25.962920 1.096570 1.299551 0.051190 -0.034462 -122932.000000 0 0 1
11.975201 21.146012 7.946377 25.567639 1.055517 1.254764 0.061254 -0.038657 780350.000000 0 0 1
13.198501 21.392712 8.656077 26.585263 1.017998 1.239153 0.080439 -0.039964 448341.000000 0 0 1
14.345801 21.356112 7.832877 26.893112 0.979288 1.275253 0.092431 -0.030949 326734.000000 0 0 1
15.691801 21.597212 8.640277 28.059340 0.942462 1.257781 0.105100 -0.035358 640097.000000 0 0 1
15.974601 20.498912 9.475177 27.661747 0.908812 1.221180 0.106712 -0.048058 710858.000000 0 0 1
17.315901 20.562012 9.992377 28.678988 0.870889 1.214910 0.102170 -0.047332 792760.000000 0 0 1
17.405401 21.373012 11.288377 29.785585 0.887358 1.182094 0.079296 -0.039421 -351178.000000 0 0 1
16.788001 20.607712 12.296977 29.287035 0.887188 1.137486 0.074771 -0.042453 -139208.000000 0 0 1
16.917101 21.076212 13.594377 30.252307 0.894434 1.104740 0.072075 -0.032691 -283772.000000 0 0 1
18.186601 20.735012 14.422577 31.124008 0.850780 1.088979 0.078680 -0.030012 1211380.000000 0 0 1
19.434501 21.282712 13.899777 31.997772 0.830758 1.121426 0.095246 -0.031607 704806.000000 0 0 1
20.397601 20.848112 14.840177 32.725170 0.796320 1.100131 0.082438 -0.030122 844068.000000 0 0 1
21.890401 21.326612 14.682777 33.905722 0.772353 1.122926 0.097808 -0.031776 920460.000000 0 0 1
22.474001 21.073512 13.446577 33.615235 0.753249 1.159264 0.100012 -0.035167 -1259740.000000 0 0 1
23.779501 21.501312 13.441077 34.762532 0.735128 1.173796 0.104539 -0.039850 -1087770.000000 0 0 1
24.626801 20.976412 12.267377 34.597366 0.705522 1.208336 0.109280 -0.037171 -282227.000000 0 0 1
24.335101 21.432312 11.011177 34.245980 0.722058 1.243449 0.123994 -0.035777 -270320.000000 0 0 1
25.285201 21.068112 10.062777 34.416075 0.694671 1.274075 0.139505 -0.042517 -917804.000000 0 0 1
25.250301 21.792912 8.709277 34.472601 0.712036 1.315385 0.120493 -0.030862 43457.200000 0 0 1
25.866601 23.069712 8.735377 35.743523 0.728307 1.323905 0.112228 -0.029955 1245440.000000 0 0 1
27.306401 23.079412 8.815477 36.824060 0.701702 1.329054 0.088580 -0.025236 643964.000000 0 0 1
27.884501 24.409712 9.409677 38.235081 0.719049 1.322141 0.099470 -0.030742 -130800.000000 0 0 1
29.210701 24.758612 9.118277 39.362379 0.703092 1.337023 0.090782 -0.019040 -63888.000000 0 0 1
29.691801 25.786212 9.922477 40.558443 0.715115 1.323641 0.095170 -0.022567 811728.000000 0 0 1
30.958911 26.522012 9.334877 41.821181 0.708362 1.345691 0.094636 -0.027722 727741.000000 0 0 1
30.661811 27.420812 8.244077 41.952501 0.729656 1.372999 0.114336 -0.031781 126546.000000 0 0 1
31.852951 27.933812 7.684877 43.057701 0.719940 1.391356 0.090531 -0.024339 -293940.000000 0 0 1
31.687611 28.797812 6.415377 43.296370 0.737658 1.422075 0.107720 -0.022286 75969.800000 0 0 1
31.686291 30.174712 6.637977 44.256039 0.760968 1.420238 0.104383 -0.029980 37748.400000 0 0 1
31.258161 30.896312 5.503277 44.293800 0.779576 1.446230 0.115376 -0.025499 108958.000000 0 0 1
31.146331 32.411312 5.755077 45.317855 0.805298 1.443459 0.094567 -0.029527 626710.000000 0 0 1
30.005791 32.763312 6.551577 44.907741 0.829301 1.424384 0.100128 -0.039018 568347.000000 0 0 1
30.073571 -33.764040 6.719377 45.711925 -0.843144 1.423268 0.089298 -0.030835 641901.000000 0 0 1
28.709401 -33.116840 7.161477 44.409926 -0.856565 1.408831 0.111962 -0.037850 98653.500000 0 0 1
27.783601 -33.129240 6.155377 43.673375 -0.872933 1.429384 0.102912 -0.038409 -551751.000000 0 0 1
26.576401 -32.507440 6.588277 42.502284 -0.885446 1.415159 0.087931 -0.038643 771145.000000 0 0 1
25.341201 -32.612940 5.657777 41.686818 -0.910220 1.434655 0.098424 -0.024236 356717.000000 0 0 1
25.663201 -31.892640 4.468277 41.178949 -0.893211 1.462073 0.075641 -0.007863 209188.000000 0 0 1
24.649801 -31.969340 3.491977 40.519690 -0.913962 1.484510 0.074992 -0.013617 100391.000000 0 0 1
25.160001 -31.305540 2.180777 40.222112 -0.893808 1.516551 0.077656 0.000780 102487.000000 0 0 1
25.162701 -29.883040 2.208477 39.128442 -0.870942 1.514325 0.086618 0.001916 163399.000000 0 0 1
26.194701 -29.424640 1.350877 39.418228 -0.843405 1.536519 0.085629 0.002750 -117758.000000 0 0 1
26.381001 -27.909140 1.571277 38.436262 -0.813538 1.529905 0.070753 -0.006189 -256136.000000 0 0 1
25.259001 -27.114940 1.291377 37.079708 -0.820820 1.535962 0.085879 -0.015481 -176785.000000 0 0 1
24.857001 -27.049640 -0.068023 36.736333 -0.827615 1.572648 0.087386 -0.013278 267554.000000 0 0 1
23.552601 -26.229040 -0.406323 35.254115 -0.839110 1.582322 0.071107 -0.013739 548464.000000 0 0 1
23.713601 -24.808640 -0.239723 34.319979 -0.807962 1.577781 0.062950 -0.020894 -102235.000000 0 0 1
23.688301 -24.249440 1.062577 33.916073 -0.797103 1.539462 0.045671 -0.007645 -202677.000000 0 0 1
22.338101 -24.269340 1.794577 33.033500 -0.826811 1.516444 0.030777 -0.008600 -121495.000000 0 0 1
22.335701 -23.393040 2.910677 32.474450 -0.808516 1.481046 0.017610 -0.008129 169494.000000 0 0 1
21.106701 -23.428940 3.634577 31.743002 -0.837494 1.456045 0.024864 -0.008842 284089.000000 0 0 1
21.076801 -22.609440 4.967477 31.306455 -0.820467 1.411450 0.010563 -0.000728 -206980.000000 0 0 1
21.270501 -21.191240 4.890577 30.420727 -0.783532 1.409331 0.030611 0.008818 -231993.000000 0 0 1
20.190201 -20.438040 4.420577 29.067150 -0.791498 1.418122 0.017324 0.005667 -867048.000000 0 0 1
20.132501 -18.977440 4.901877 28.097851 -0.755873 1.395442 0.014929 0.005265 -161357.000000 0 0 1
19.846901 -18.656140 6.249177 27.946435 -0.754482 1.345277 0.031193 -0.003407 -839564.000000 0 0 1
18.538901 -18.903040 6.626077 27.293235 -0.795123 1.325572 0.036373 0.003358 -709355.000000 0 0 1
19.205983 -25.953408 -11.942023 34.424716 -0.933715 1.925063 0.109419 -0.036092 -658009.000000 0 0 1
19.665283 -24.675688 -12.318323 33.872615 -0.897918 1.942997 0.109700 -0.036128 52127.800000 0 0 1
18.729183 -23.900388 -13.095923 33.068324 -0.906114 1.977981 0.089263 -0.025602 299357.000000 0 0 1
19.094883 -22.432988 -13.273223 32.311484 -0.865608 1.994116 0.087150 -0.027432 17800.800000 0 0 1
19.001583 -21.564988 -12.165923 31.210873 -0.848504 1.971208 0.090004 -0.035385 -412616.000000 0 0 1
20.120083 -21.625588 -11.318223 31.632040 -0.821446 1.936717 0.090598 -0.048654 -982414.000000 0 0 1
19.930383 -22.406088 -9.973323 31.602534 -0.843809 1.891871 0.084314 -0.038470 499031.000000 0 0 1
18.964583 -21.896488 -9.012223 30.336970 -0.857028 1.872420 0.075192 -0.033655 574983.000000 0 0 1
17.629883 -21.996088 -9.460023 29.734369 -0.895141 1.894575 0.084875 -0.022133 -656885.000000 0 0 1
16.600483 -21.333188 -8.539623 28.347947 -0.909519 1.876792 0.084165 -0.031580 -1100630.000000 0 0 1
16.531583 -19.955888 -8.684523 27.330416 -0.878973 1.894163 0.086687 -0.035677 164415.000000 0 0 1
15.687683 -19.379488 -7.698023 26.094588 -0.890290 1.870257 0.097583 -0.038190 614834.000000 0 0 1
14.158783 -19.489388 -7.974723 25.375256 -0.942514 1.890486 0.087498 -0.022649 142287.000000 0 0 1
13.612783 -20.813988 -7.902323 26.095530 -0.991600 1.878450 0.079946 -0.025167 -211348.000000 0 0 1
12.233083 -20.878488 -8.210223 25.553226 -1.040796 1.897897 0.081836 -0.024451 468024.000000 0 0 1
11.558683 -22.255488 -7.821023 26.269342 -1.091778 1.873104 0.085134 -0.020779 251526.000000 0 0 1
11.195483 -22.329988 -6.440623 25.796295 -1.106057 1.823138 0.081836 -0.025176 153394.000000 0 0 1
10.501783 -23.523188 -6.138523 26.482245 -1.150904 1.804722 0.066845 -0.020979 -256837.000000 0 0 1
10.795483 -24.167588 -4.777223 26.896778 -1.150696 1.749357 0.080335 -0.025674 -632017.000000 0 0 1
10.039683 -25.164698 -4.194823 27.416306 -1.191188 1.724404 0.064431 -0.022423 -880460.000000 0 0 1
10.620483 -25.511138 -2.989623 27.794796 -1.176311 1.678565 0.070067 -0.028061 -508358.000000 0 0 1
9.849683 -26.540908 -2.167623 28.392511 -1.215438 1.647216 0.070320 -0.021706 442076.000000 0 0 1
8.800083 -25.867508 -1.446123 27.361665 -1.242880 1.623673 0.055931 -0.017654 88527.600000 0 0 1
8.195383 -26.754948 -0.548923 27.987370 -1.273558 1.590411 0.060083 -0.019386 -33816.400000 0 0 1
7.333783 -26.167728 0.567877 27.181922 -1.297546 1.549903 0.059460 -0.014877 12170.500000 0 0 1
6.054983 -25.711938 0.225277 26.416233 -1.339517 1.562268 0.058320 -0.019042 -321055.000000 0 0 1
5.270683 -25.387828 1.360877 25.964859 -1.366097 1.518360 0.072599 -0.016060 -539886.000000 0 0 1
3.855083 -24.906288 1.101677 25.226941 -1.417231 1.527112 0.040842 -0.018199 -717023.000000 0 0 1
3.077783 -25.993858 0.698477 26.184753 -1.452941 1.544118 0.039171 -0.020269 -406412.000000 0 0 1
1.714283 -25.625408 0.800977 25.695172 -1.503998 1.539619 0.034407 -0.012760 385584.000000 0 0 1
0.662683 -26.588468 0.183477 26.597358 -1.545878 1.563898 0.062428 -0.018674 -15140.100000 0 0 1
0.340683 -27.772168 0.861377 27.787612 -1.558530 1.539793 0.060154 -0.013645 -897403.000000 0 0 1
1.222883 -28.835138 0.853277 28.873668 -1.528412 1.541240 0.049843 -0.015274 -924289.000000 0 0 1
0.804583 -29.956038 1.776077 30.019428 -1.543944 1.511597 0.083368 -0.021247 123871.000000 0 0 1
0.939483 -29.498228 3.092277 29.674742 -1.538958 1.466401 0.057905 -0.020452 144586.000000 0 0 1
0.167783 -30.333788 3.934377 30.588334 -1.565265 1.441816 0.087309 -0.025113 1992.790000 0 0 1
0.283883 -30.118378 5.498777 30.617542 -1.561371 1.390221 0.081955 -0.027683 -906373.000000 0 0 1
1.608583 -30.351658 5.874877 30.956823 -1.517848 1.379862 0.053617 -0.006282 -391924.000000 0 0 1
1.780783 -30.474528 7.249877 31.375608 -1.512428 1.337622 0.061018 -0.009402 -1627860.000000 0 0 1
3.198183 -30.760328 7.558077 31.836311 -1.467198 1.331103 0.065551 -0.012132 -1403350.000000 0 0 1
3.469883 -32.094798 7.159577 33.066232 -1.463101 1.352545 0.054912 -0.011482 563027.000000 0 0 1
4.796683 -32.503368 7.540677 33.709627 -1.424279 1.345192 0.051258 -0.014881 961742.000000 0 0 1
4.956583 33.850738 7.422677 35.007660 1.425405 1.357145 0.029166 0.001650 -193750.000000 0 0 1
5.005083 33.338162 6.064077 34.252838 1.421779 1.392820 0.029261 -0.005125 -48984.600000 0 0 1
4.844883 31.943048 5.905777 32.843711 1.420271 1.389998 0.025592 -0.002059 -541760.000000 0 0 1
5.202383 31.446074 4.506077 32.190450 1.406843 1.430353 0.033533 -0.006037 1232150.000000 0 0 1
6.596383 31.327304 4.138077 32.280581 1.363265 1.442252 0.046057 -0.006311 554450.000000 0 0 1
7.344783 30.325994 4.741077 31.560886 1.333178 1.420006 0.038179 -0.008217 -957022.000000 0 0 1
8.761983 30.327064 4.168477 31.841472 1.289539 1.439506 0.039044 -0.008782 -623874.000000 0 0 1
9.630483 31.275854 4.709077 33.062072 1.272089 1.427879 0.048231 -0.020147 -700289.000000 0 0 1
10.822883 31.281664 3.967077 33.337891 1.237706 1.451518 0.051046 -0.022851 698297.000000 0 0 1
12.089083 31.863024 4.730977 34.406109 1.208167 1.432855 0.064142 -0.036299 920758.000000 0 0 1
12.558683 30.901944 5.680677 33.836677 1.184781 1.402112 0.074449 -0.030901 -3422.980000 0 0 1
13.792483 31.325244 6.231977 34.789956 1.156039 1.390693 0.109305 -0.034344 580137.000000 0 0 1
14.631283 30.306934 7.115077 34.397805 1.121027 1.362445 0.097072 -0.035420 113320.000000 0 0 1
14.022983 30.109494 8.334577 34.244574 1.134936 1.324943 0.085814 -0.032908 52752.500000 0 0 1
14.470383 28.892864 8.949977 33.530458 1.106486 1.300600 0.071742 -0.034100 145398.000000 0 0 1
14.255883 29.058104 10.451977 34.012460 1.114698 1.258443 0.058714 -0.026168 118820.000000 0 0 1
15.014583 30.076834 11.078477 35.394721 1.107783 1.252448 0.073577 -0.031199 61338.400000 0 0 1
14.634583 30.221844 12.456077 35.814588 1.119837 1.215580 0.056437 -0.021213 296205.000000 0 0 1
15.644383 31.169174 13.178577 37.281886 1.105615 1.209503 0.055418 -0.022439 439052.000000 0 0 1
16.911183 30.656994 13.511077 37.528504 1.066706 1.202505 0.041361 -0.021916 -62456.300000 0 0 1
17.550183 31.387134 14.509977 38.777578 1.060954 1.187279 0.043794 -0.018034 174211.000000 0 0 1
18.626583 30.669054 15.397577 39.046457 1.024996 1.165447 0.031786 -0.015217 743908.000000 0 0 1
19.790083 30.280894 14.676777 39.038285 0.991929 1.185365 0.030883 -0.018559 120522.000000 0 0 1
20.076883 28.935324 14.993377 38.277089 0.964207 1.168311 0.029179 -0.012764 -28321.800000 0 0 1
21.497283 28.523234 14.547877 38.566161 0.924947 1.184005 0.065901 -0.019997 341179.000000 0 0 1
22.552883 28.954864 15.392877 39.798961 0.909056 1.173674 0.087107 -0.017834 -382594.000000 0 0 1
23.793283 28.637024 14.843877 40.081668 0.877521 1.191420 0.102468 -0.025009 -96782.200000 0 0 1
25.011883 28.870334 15.787477 41.332008 0.856885 1.178872 0.125634 -0.040430 122636.000000 0 0 1
25.020583 27.966664 16.829377 41.126534 0.840941 1.149209 0.111893 -0.034245 -380540.000000 0 0 1
25.832283 28.272594 17.919377 42.281798 0.830471 1.133151 0.099444 -0.035208 -443905.000000 0 0 1
26.982283 27.252744 18.027777 42.376366 0.790385 1.131370 0.072819 -0.031661 -620672.000000 0 0 1
26.664183 25.916944 18.476077 41.521465 0.771188 1.109648 0.085613 -0.020012 -36292.900000 0 0 1
26.431783 25.817714 19.864377 41.949815 0.773646 1.077505 0.108687 -0.026389 -240669.000000 0 0 1
25.960983 24.437764 20.365477 41.060073 0.755184 1.051819 0.107557 -0.021773 145959.000000 0 0 1
26.950383 23.412914 20.418277 41.126557 0.715274 1.051264 0.061864 -0.019920 275055.000000 0 0 1
26.328883 22.133864 20.534677 40.059842 0.699052 1.032586 0.049526 -0.012421 764616.000000 0 0 1
27.384083 21.002664 20.248977 40.012760 0.654271 1.040182 0.021786 -0.007282 636222.000000 0 0 1
26.722283 19.759664 20.410877 39.001649 0.636712 1.020038 0.010090 0.016688 193905.000000 0 0 1
27.591583 18.650364 20.567977 39.142984 0.594398 1.017544 0.027085 -0.000400 -258843.000000 0 0 1
27.930083 18.384164 22.020577 40.037143 0.582133 0.988428 0.045057 0.001836 404408.000000 0 0 1
26.844583 17.833564 22.803277 39.479831 0.586381 0.955019 0.021992 0.015422 425078.000000 0 0 1
27.291483 17.441864 24.067577 40.352099 0.568671 0.931739 0.058221 0.015604 -496237.000000 0 0 1
26.351783 16.639664 24.948677 39.921565 0.563219 0.895739 0.040891 0.012424 -399209.000000 0 0 1
26.132683 15.330764 24.500977 38.964693 0.530546 0.890788 0.042602 0.010826 -335841.000000 0 0 1
24.945083 14.838164 25.022077 38.321438 0.536612 0.859320 0.043854 0.005560 -500501.000000 0 0 1
24.424283 13.523664 24.319477 37.025289 0.505678 0.854184 0.045539 0.004900 166041.000000 0 0 1
23.147983 13.124264 24.778177 36.359778 0.515780 0.821024 0.026330 0.001137 61314.800000 0 0 1
22.682283 11.952764 24.219477 35.269500 0.484986 0.813860 0.046366 0.000188 -417805.000000 0 0 1
21.331083 11.451664 24.745477 34.619277 0.492694 0.774474 0.048519 -0.010769 -762132.000000 0 0 1
20.335683 12.363364 24.461177 34.128316 0.546255 0.771678 0.053715 -0.010731 -1299300.000000 0 0 1
19.096483 11.803564 24.798977 33.451294 0.553623 0.735723 0.074244 -0.011650 -413280.000000 0 0 1
18.014583 12.908964 24.768977 33.236558 0.621770 0.729912 0.065040 -0.014797 -294615.000000 0 0 1
17.790283 13.393164 26.080277 34.293613 0.645314 0.706714 0.089164 -0.015414 378547.000000 0 0 1
16.675383 14.274464 26.180977 34.165367 0.707979 0.697731 0.109609 -0.016642 222189.000000 0 0 1
16.200783 14.464064 27.656877 35.165002 0.728823 0.665693 0.102506 -0.018424 -156840.000000 0 0 1
15.662183 13.275864 28.199477 34.882131 0.703121 0.629330 0.116909 -0.015680 31625.000000 0 0 1
15.816583 13.199964 29.590077 36.055180 0.695465 0.608181 0.104670 -0.021980 463641.000000 0 0 1
17.247583 12.951064 30.200677 37.111859 0.644071 0.620179 0.097850 -0.019785 712531.000000 0 0 1
18.128183 14.054364 30.039677 37.796010 0.659483 0.652144 0.108081 -0.031858 692582.000000 0 0 1
19.477183 13.576764 29.965577 38.231204 0.608750 0.670037 0.085556 -0.019419 376039.000000 0 0 1
20.570583 14.652064 29.760177 39.032038 0.618922 0.703697 0.079917 -0.017741 -318255.000000 0 0 1
20.523183 15.285664 28.530577 38.325532 0.640165 0.731119 0.085220 -0.025089 163093.000000 0 0 1
20.707683 14.471964 27.358177 37.238632 0.609967 0.745613 0.067096 -0.012618 -513113.000000 0 0 1
20.548283 15.200864 26.028777 36.480069 0.636917 0.776306 0.046488 -0.002825 -1622.580000 0 0 1
21.694683 15.963564 25.655877 37.198369 0.634369 0.809716 0.044832 0.008837 372006.000000 0 0 1
21.532483 16.622564 24.366177 36.519420 0.657418 0.840337 0.031105 0.009976 -616619.000000 0 0 1
22.588383 17.631464 23.986877 37.369424 0.662771 0.873842 0.031469 0.006895 -727545.000000 0 0 1
22.553183 18.057264 22.630077 36.699199 0.675139 0.906333 0.051985 0.000142 245425.000000 0 0 1
23.707283 18.798664 22.238677 37.549751 0.670427 0.936953 0.043125 -0.000212 95371.900000 0 0 1
24.037383 20.166664 22.735377 38.747742 0.698056 0.943752 0.066766 -0.004853 -551319.000000 0 0 1
23.198983 21.242864 22.342977 38.583166 0.741411 0.953189 0.067534 -0.003972 -34297.500000 0 0 1
23.352083 22.470464 23.093177 39.793672 0.766161 0.951671 0.098981 -0.012195 -391393.000000 0 0 1
22.405283 23.586684 22.659977 39.645970 0.811080 0.962393 0.097342 -0.031831 -174621.000000 0 0 1
22.754883 24.285664 21.547177 39.646677 0.817928 0.996219 0.105963 -0.033123 -30828.100000 0 0 1
21.823183 25.333444 21.456177 39.729111 0.859699 1.000286 0.111784 -0.033271 -9427.770000 0 0 1
22.096983 26.197614 20.270377 39.818084 0.870104 1.036687 0.112097 -0.036028 -5600.770000 0 0 1
21.750083 25.568584 19.038477 38.591219 0.865921 1.054874 0.091334 -0.034185 166688.000000 0 0 1
22.154183 26.293574 17.873477 38.750755 0.870631 1.091402 0.095530 -0.036537 24345.400000 0 0 1
22.209483 25.536754 16.565077 37.680084 0.854972 1.115616 0.078818 -0.022751 912832.000000 0 0 1
20.898783 25.286754 15.996877 36.497659 0.880121 1.117091 0.069138 -0.020522 725022.000000 0 0 1
20.990083 24.791854 14.674177 35.644790 0.868249 1.146502 0.078670 -0.018253 -200214.000000 0 0 1
19.616483 24.484084 14.019877 34.363261 0.895328 1.150545 0.073853 -0.021832 594828.000000 0 0 1
18.742583 25.566934 13.721177 34.543063 0.938213 1.162311 0.057718 -0.018182 -248338.000000 0 0 1
17.975483 25.932064 14.842377 34.869558 0.964665 1.131111 0.057356 -0.022225 -70066.800000 0 0 1
16.494283 26.301614 14.444077 34.241315 1.010674 1.135332 0.047963 -0.019267 585768.000000 0 0 1
15.594083 25.248544 14.067077 32.841240 1.017519 1.128146 0.059245 -0.015949 391512.000000 0 0 1
15.076883 24.357444 15.024777 32.347201 1.016534 1.087744 0.081056 -0.030008 -152562.000000 0 0 1
14.153283 25.000634 16.082677 32.924149 1.055663 1.060453 0.083233 -0.035121 -710233.000000 0 0 1
14.804883 26.012264 16.806077 34.325889 1.053369 1.059161 0.071727 -0.028128 -316655.000000 0 0 1
14.019483 26.589744 17.811277 34.939977 1.085586 1.035881 0.066570 -0.035820 -296008.000000 0 0 1
14.605283 27.902694 18.391677 36.470925 1.088576 1.042245 0.067956 -0.030228 -291378.000000 0 0 1
14.611483 29.001784 17.458877 36.870195 1.104103 1.077510 0.058910 -0.021634 320384.000000 0 0 1
15.122083 30.155854 18.162977 38.313792 1.105978 1.076902 0.044027 -0.023984 -236930.000000 0 0 1
15.048183 31.371354 17.256677 38.838158 1.123537 1.110378 0.047074 -0.022972 -1035950.000000 0 0 1
13.792683 31.787634 16.864177 38.536894 1.161411 1.117856 0.061928 -0.024098 -798467.000000 0 0 1
13.802383 33.000107 16.192477 39.264604 1.174655 1.145716 0.053317 -0.024685 998564.000000 0 0 1
12.350583 33.638669 16.183777 39.319354 1.218922 1.146589 0.059849 -0.024647 857882.000000 0 0 1
12.376283 -32.888138 15.861577 38.553750 -1.210874 1.146791 0.071188 -0.030419 -76195.200000 0 0 1
13.011283 -31.853548 16.604377 38.205332 -1.183008 1.121192 0.062843 -0.022125 -296999.000000 0 0 1
12.873983 -31.831338 18.128077 38.827834 -1.186465 1.085033 0.062606 -0.018522 220316.000000 0 0 1
13.806183 -32.631788 18.893277 40.154704 -1.170545 1.080925 0.064266 -0.018173 707146.000000 0 0 1
13.602783 -32.510978 20.290677 40.665846 -1.174524 1.048397 0.057623 -0.017209 349216.000000 0 0 1
14.759283 -33.184568 21.128177 42.017281 -1.152306 1.043909 0.043975 -0.017858 1026730.000000 0 0 1
15.891183 -32.304498 21.280077 41.820474 -1.113635 1.036955 0.050488 -0.013661 156000.000000 0 0 1
16.875983 -32.812288 22.132577 43.026690 -1.095759 1.030498 0.058146 -0.016733 -428628.000000 0 0 1
18.131083 -31.949938 22.043777 42.842302 -1.054629 1.030333 0.071646 -0.017705 -494099.000000 0 0 1
17.886483 -30.611778 22.435377 41.956566 -1.042000 1.006610 0.082331 -0.029345 454579.000000 0 0 1
18.942883 -29.752508 22.007977 41.573978 -1.003841 1.012940 0.079943 -0.031360 128783.000000 0 0 1
-5.115117 12.998512 18.247424 22.980300 -1.195892 0.653359 0.031630 -0.007851 392807.000000 0 1 0
-4.760317 14.240812 17.658524 23.179404 -1.248200 0.704679 0.035988 -0.015634 -118581.000000 0 1 0
-5.971217 14.926212 17.565724 23.811801 -1.190248 0.741154 0.044653 -0.018645 -96475.500000 0 1 0
-5.744017 16.450412 17.357024 24.594228 -1.234860 0.787335 0.062227 -0.022610 -48321.000000 0 1 0
-5.347417 17.032012 18.591024 25.774221 -1.266579 0.765115 0.060901 -0.017184 237830.000000 0 0 1
-5.302117 18.388612 18.358224 26.519386 -1.290074 0.806185 0.080923 -0.015250 -223923.000000 0 0 1
-4.555717 19.140012 19.424224 27.647695 -1.337124 0.791805 0.074885 -0.019377 -102734.000000 0 0 1
-5.381617 19.145512 20.587424 28.624368 -1.296777 0.768107 0.054283 -0.017510 343227.000000 0 0 1
-4.728717 19.818612 21.617224 29.705933 -1.336576 0.755823 0.065883 -0.016889 -408526.000000 0 0 1
-5.679617 20.279412 22.722424 30.980980 -1.297724 0.747440 0.050673 -0.013314 -160003.000000 0 0 1
-6.238317 19.258112 23.496534 31.014167 -1.257531 0.711158 0.046540 -0.019943 -460800.000000 0 0 1
-6.771717 19.690712 24.719924 32.321121 -1.239562 0.700030 0.036014 -0.026375 298408.000000 0 0 1
-5.827417 20.391412 25.777684 33.380495 -1.292438 0.688440 0.035800 -0.026590 -209851.000000 0 0 1
-5.276717 21.595312 25.406194 33.759086 -1.331147 0.718835 0.048021 -0.023417 -331904.000000 0 0 1
-4.406517 22.124712 26.388124 34.716759 -1.374202 0.707333 0.057446 -0.018752 900320.000000 0 0 1
-2.893117 21.766912 26.179684 34.169349 -1.438657 0.697929 0.077229 -0.017564 337460.000000 0 0 1
-2.509417 20.408412 26.495264 33.538030 -1.448451 0.659977 0.079632 -0.013985 59402.200000 0 0 1
-1.188617 20.109712 26.091724 32.963485 -1.511758 0.657481 0.077198 -0.010895 153953.000000 0 0 1
-0.551217 18.856412 26.750564 32.733175 -1.541572 0.614207 0.076819 -0.004571 -235220.000000 0 0 1
-1.012217 17.618812 26.252554 31.632952 -1.513408 0.591847 0.070298 -0.008592 -276528.000000 0 0 1
-0.357917 16.481912 26.800674 31.465181 -1.549084 0.551468 0.062120 -0.008591 1022170.000000 0 0 1
1.182583 16.280712 26.461014 31.090920 1.498287 0.552748 0.061807 -0.008146 1017720.000000 0 0 1
1.484683 15.939312 25.092624 29.764168 1.477918 0.567871 0.054721 -0.004383 -161991.000000 0 0 1
0.991383 14.673212 24.711754 28.756856 1.503335 0.536830 0.054501 -0.010132 -336936.000000 0 0 1
0.896083 14.439912 23.202114 27.343227 1.508820 0.557556 0.053754 -0.020170 396446.000000 0 0 1
2.178183 14.243412 22.605624 26.807340 1.419046 0.567472 0.054506 -0.019576 102164.000000 0 0 1
2.121783 13.893612 21.253824 25.480570 1.419251 0.584263 0.040364 -0.024751 487092.000000 0 0 1
3.532983 13.555212 20.678224 24.976282 1.315832 0.595418 0.029963 -0.026984 636909.000000 0 1 0
4.295383 14.665912 20.242624 25.363420 1.285882 0.646656 0.058606 -0.024672 -510385.000000 0 0 1
5.565583 14.184312 19.891924 25.057115 1.196880 0.653660 0.064802 -0.023206 -6014.920000 0 0 1
6.367083 15.194612 19.009924 25.155380 1.173988 0.714074 0.084641 -0.037422 212308.000000 0 0 1
5.825083 15.220312 17.700824 24.060520 1.205277 0.744127 0.074679 -0.044252 344391.000000 0 1 0
6.421583 16.311012 16.965124 24.394697 1.195736 0.801760 0.076805 -0.033788 91496.500000 0 1 0
6.801983 15.957412 15.528624 23.281841 1.167860 0.840642 0.080497 -0.029653 57908.000000 0 1 0
7.911283 15.154612 15.194024 22.871576 1.089674 0.844214 0.068603 -0.023223 91393.000000 0 1 0
7.885383 13.841112 15.691324 22.360082 1.052949 0.792937 0.069321 -0.030505 -7709.930000 0 1 0
8.898783 13.002312 14.854624 21.654290 0.970617 0.814833 0.064235 -0.039643 1449670.000000 0 1 0
10.290383 13.244812 15.157724 22.606937 0.910277 0.835927 0.063813 -0.036927 469928.000000 0 1 0
11.154283 12.714212 14.244324 22.112665 0.850660 0.870858 0.063497 -0.029944 -191406.000000 0 1 0
12.527983 13.428812 14.183324 23.204526 0.820089 0.913181 0.058961 -0.024948 -115215.000000 0 1 0
13.281483 13.291612 15.385124 24.285114 0.785779 0.884701 0.060118 -0.028884 850719.000000 0 1 0
14.630683 13.759712 15.418424 25.320236 0.754729 0.916077 0.047571 -0.021057 676402.000000 0 0 1
15.671183 13.026312 14.567824 25.049796 0.693494 0.950158 0.038556 -0.026242 -1008590.000000 0 0 1
16.972883 13.553112 14.642024 26.194550 0.673835 0.977651 0.049793 -0.035158 120191.000000 0 0 1
17.805483 12.774812 13.798724 25.896637 0.622352 1.008845 0.057526 -0.033252 -521782.000000 0 0 1
19.221883 13.325912 13.588224 27.049964 0.606193 1.044496 0.057980 -0.040922 -226244.000000 0 0 1
19.904783 13.180112 14.828924 28.103607 0.584875 1.014962 0.031644 -0.031420 919025.000000 0 0 1
21.264083 13.671212 14.761724 29.274080 0.571386 1.042272 0.062237 -0.044109 1252680.000000 0 0 1
22.159183 13.245112 15.975724 30.359284 0.538745 1.016645 0.078316 -0.032556 112363.000000 0 0 1
22.582883 11.913512 15.786124 30.018662 0.485441 1.017050 0.090850 -0.034180 611519.000000 0 0 1
23.682883 11.600112 16.643024 31.183838 0.455462 1.007819 0.076995 -0.023953 203903.000000 0 0 1
23.959483 10.102512 16.853424 30.986375 0.399030 0.995721 0.102491 -0.022881 85067.500000 0 0 1
22.875683 9.377812 17.437324 30.253933 0.389052 0.956522 0.070293 -0.012255 517275.000000 0 0 1
22.850083 8.022612 17.095424 29.643585 0.337652 0.956114 0.070851 -0.012794 -80112.600000 0 0 1
21.659983 7.246012 17.703724 28.897775 0.322831 0.911409 0.090401 -0.011931 -12897.100000 0 0 1
21.688383 5.879312 17.382024 28.409277 0.264719 0.912408 0.104744 -0.022917 422982.000000 0 0 1
20.623583 5.241912 18.053124 27.905646 0.248900 0.867239 0.098984 -0.018342 -342606.000000 0 0 1
20.294883 3.837812 17.518224 27.083191 0.186896 0.867376 0.121798 -0.008672 -60697.700000 0 0 1
19.221083 3.812412 16.571324 25.663072 0.195804 0.868822 0.110881 -0.021264 717793.000000 0 0 1
18.818983 2.553412 16.025024 24.849053 0.134859 0.869911 0.092195 -0.019688 -166415.000000 0 1 0
18.087583 1.519912 16.925424 24.818154 0.083834 0.820333 0.106590 -0.016532 303377.000000 0 1 0
18.925883 0.879112 17.952424 26.100793 0.046417 0.812327 0.124346 -0.018838 629437.000000 0 0 1
18.169583 0.010312 18.747124 26.107250 0.000568 0.769755 0.125325 -0.014426 -97867.100000 0 0 1
19.038783 -0.674788 19.860324 27.520230 -0.035428 0.764595 0.116807 -0.009820 111329.000000 0 0 1
19.686383 -1.883788 19.527924 27.792843 -0.095399 0.791718 0.116696 -0.004281 18536.100000 0 0 1
18.994183 -3.076288 19.921024 27.696385 -0.160565 0.768053 0.087034 -0.019860 71230.200000 0 0 1
19.085783 -4.237688 18.924124 27.209329 -0.218489 0.801679 0.093975 -0.013359 -206697.000000 0 0 1
18.532383 -3.872488 17.716624 25.929214 -0.205994 0.818566 0.122555 -0.022568 66669.100000 0 0 1
18.432983 -5.003488 16.848924 25.469511 -0.265055 0.847935 0.125391 -0.026015 -279380.000000 0 0 1
17.783483 -4.633788 15.499324 24.040659 -0.254899 0.870149 0.104588 -0.033435 -245150.000000 0 1 0
16.364483 -4.628188 15.493924 23.006045 -0.275621 0.831901 0.117517 -0.030563 456570.000000 0 1 0
15.776783 -4.653088 14.183524 21.719357 -0.286801 0.859210 0.104738 -0.024521 317862.000000 0 1 0
16.001583 -3.363388 13.305824 21.080986 -0.207175 0.887727 0.088502 -0.024751 -545769.000000 0 1 0
15.322083 -2.221688 13.680124 20.660298 -0.143996 0.847118 0.084618 -0.013927 70967.100000 0 1 0
15.730183 -1.118888 12.855624 20.345949 -0.071010 0.886856 0.076198 -0.018127 510856.000000 0 1 0
14.775183 0.142012 13.036124 19.704485 0.009611 0.847870 0.079051 -0.013935 193044.000000 0 1 0
15.211783 1.414012 12.561624 19.778578 0.092689 0.882642 0.075296 -0.012964 -293500.000000 0 1 0
16.264783 1.958312 13.311324 21.108517 0.119825 0.888452 0.098776 -0.023941 -403582.000000 0 1 0
16.556383 3.480412 12.988324 21.328939 0.207199 0.916056 0.100586 -0.019402 -593420.000000 0 1 0
15.553083 4.395812 13.294224 20.927445 0.275448 0.882460 0.088674 -0.012062 -270898.000000 0 1 0
15.646083 5.625412 12.657424 20.896305 0.345149 0.920119 0.088436 -0.014966 -771556.000000 0 1 0
14.341283 6.373512 12.641924 20.152228 0.418202 0.892687 0.072233 -0.027114 -953499.000000 0 1 0
14.562583 7.560712 11.938624 20.291967 0.478880 0.941789 0.054828 -0.032807 1050720.000000 0 1 0
13.594183 8.654112 12.111624 20.159040 0.566900 0.926290 0.049036 -0.028863 509693.000000 0 1 0
13.784283 9.478812 13.438024 21.457745 0.602392 0.894056 0.064369 -0.032980 -122726.000000 0 1 0
13.405183 8.912012 14.621024 21.746200 0.586722 0.833420 0.075444 -0.033968 329760.000000 0 1 0
14.018883 9.616512 15.650724 23.107391 0.601247 0.826705 0.094626 -0.039952 -273984.000000 0 1 0
13.570683 9.128512 17.015624 23.601369 0.592143 0.765611 0.094263 -0.039139 180683.000000 0 1 0
12.278083 9.673912 17.261824 23.287474 0.667320 0.735867 0.091733 -0.042857 328077.000000 0 1 0
11.478483 9.045812 18.249324 23.379908 0.667422 0.675242 0.090990 -0.028848 10566.100000 0 1 0
11.975783 9.123912 19.721924 24.811679 0.651051 0.652012 0.101926 -0.032845 -35206.000000 0 1 0
13.203383 8.389612 19.838424 25.264164 0.566053 0.667713 0.128384 -0.036927 536996.000000 0 0 1
13.793983 8.591712 21.113224 26.643192 0.557059 0.655992 0.121601 -0.019527 245889.000000 0 0 1
15.294383 8.204412 21.213624 27.408910 0.492367 0.685712 0.110735 -0.018498 307107.000000 0 0 1
16.120883 9.048712 20.461524 27.576004 0.511480 0.734741 0.102036 -0.021118 -24205.300000 0 0 1
17.060683 8.325112 19.667324 27.334557 0.453978 0.767708 0.087624 -0.017882 417074.000000 0 0 1
17.896983 9.330012 18.809124 27.588662 0.480556 0.820617 0.086041 -0.026088 -38276.300000 0 0 1
18.800083 10.169312 19.474324 28.915520 0.495844 0.831876 0.076498 -0.027325 112775.000000 0 0 1
19.494683 10.957212 18.486424 29.014669 0.512056 0.880014 0.079979 -0.025071 182914.000000 0 0 1
20.551383 11.841012 19.196124 30.513277 0.522710 0.890392 0.062017 -0.011190 -620330.000000 0 0 1
20.052883 12.942212 19.913924 31.083489 0.573138 0.875440 0.060975 -0.007609 611837.000000 0 0 1
20.994283 13.494412 20.871524 32.534283 0.571273 0.874313 0.054652 0.004696 1356340.000000 0 0 1
22.367583 14.108112 20.358624 33.373959 0.562716 0.914717 0.025308 0.009079 25308.200000 0 0 1
23.380683 13.190712 20.288224 33.649119 0.513658 0.923622 -0.004848 0.022636 -1145060.000000 0 0 1
24.598983 13.862012 20.284724 34.766871 0.513164 0.947826 0.000341 0.008652 -424687.000000 0 0 1
25.892783 13.032412 20.274724 35.374346 0.466302 0.960454 0.021207 -0.001956 110338.000000 0 0 1
26.278583 12.502812 19.000024 34.754642 0.444084 0.992390 0.050468 -0.011492 1165910.000000 0 0 1
27.641983 12.021512 19.039924 35.652695 0.410226 1.007426 0.091988 -0.025693 981965.000000 0 0 1
28.068383 11.421712 17.704224 35.095999 0.386461 1.042050 0.121733 -0.035265 -171989.000000 0 0 1
28.080283 12.322912 16.577824 34.859442 0.413539 1.075194 0.118557 -0.049272 323232.000000 0 0 1
28.274083 11.781712 15.272124 34.226748 0.394817 1.108277 0.144724 -0.048611 83209.700000 0 0 1
26.923283 11.578112 14.532024 32.712315 0.406133 1.110474 0.125626 -0.056977 105709.000000 0 0 1
26.392483 12.766612 14.044024 32.508216 0.450540 1.124071 0.150791 -0.063150 402403.000000 0 0 1
25.300183 12.492112 13.144524 31.127650 0.458640 1.134839 0.144665 -0.054240 470427.000000 0 0 1
24.958883 13.679012 12.280624 30.997983 0.501354 1.163449 0.118606 -0.053259 -147058.000000 0 0 1
24.226883 14.636912 13.002524 31.148783 0.543473 1.140178 0.085254 -0.046648 166911.000000 0 0 1
24.426283 15.905212 12.466624 31.702299 0.577184 1.166643 0.069053 -0.034645 -157191.000000 0 0 1
23.474983 16.980212 13.068524 31.783466 0.626214 1.147055 0.067874 -0.034109 83876.000000 0 0 1
22.326283 17.121012 12.268224 30.693668 0.654201 1.159608 0.086694 -0.059004 -54186.800000 0 0 1
21.421983 18.093312 12.736724 30.797620 0.701359 1.144434 0.072952 -0.050958 -305801.000000 0 0 1
20.409683 18.659712 11.660924 30.011950 0.740637 1.171747 0.096028 -0.036455 932614.000000 0 0 1
19.312983 17.809412 11.371424 28.626487 0.744917 1.162295 0.091964 -0.035542 644540.000000 0 0 1
18.336483 17.535412 12.416924 28.247075 0.763070 1.115662 0.074418 -0.034689 741570.000000 0 0 1
17.025383 16.935612 11.764124 26.740853 0.782755 1.115275 0.070727 -0.021925 552411.000000 0 0 1
17.213983 15.609512 11.347224 25.859960 0.736555 1.116539 0.075058 -0.024342 -207932.000000 0 0 1
15.970683 15.136612 10.907024 24.558968 0.758592 1.110609 0.074298 -0.026076 -150149.000000 0 1 0
15.973383 13.803912 10.127024 23.414815 0.712670 1.123527 0.074409 -0.025585 -45401.300000 0 1 0
16.409483 12.672812 10.826324 23.389754 0.657612 1.089571 0.091643 -0.022263 413823.000000 0 1 0
16.561083 11.489312 10.024424 22.511393 0.606521 1.109282 0.068396 -0.016570 -79579.700000 0 1 0
16.968683 10.172812 10.725824 22.504791 0.540056 1.074011 0.070972 -0.034962 -913430.000000 0 1 0
17.569583 9.219012 9.869624 22.160548 0.483223 1.109210 0.074844 -0.028784 928794.000000 0 1 0
18.379983 8.255012 10.583424 22.759127 0.422131 1.087140 0.103442 -0.027385 1791100.000000 0 1 0
19.645383 8.758012 11.444324 24.364244 0.419360 1.081825 0.091395 -0.029762 -4094.870000 0 1 0
19.302683 9.431512 12.604224 24.908100 0.454495 1.040222 0.077294 -0.030446 -291558.000000 0 1 0
20.297583 9.516112 13.608024 26.224541 0.438402 1.025228 0.089071 -0.025743 -1454130.000000 0 0 1
19.875483 9.858112 15.070824 26.820644 0.460437 0.974102 0.059320 -0.023727 -189195.000000 0 0 1
19.186783 8.806312 15.705124 26.312253 0.430295 0.931196 0.078783 -0.022971 1251610.000000 0 0 1
17.916083 8.423512 15.127624 24.915589 0.439496 0.918321 0.089930 -0.036299 -109296.000000 0 1 0
17.429083 7.039312 15.579424 24.413998 0.383849 0.878723 0.103681 -0.030613 197447.000000 0 1 0
16.334183 7.012612 16.493524 24.249094 0.405525 0.822801 0.116962 -0.033053 293770.000000 0 1 0
15.960683 5.711112 16.744824 23.827491 0.343628 0.791538 0.120283 -0.020323 -601913.000000 0 1 0
14.675683 5.612012 17.580124 23.578191 0.365244 0.729347 0.114928 -0.026113 142376.000000 0 1 0
14.050083 4.324312 17.646224 22.967231 0.298578 0.694581 0.110493 -0.023230 542914.000000 0 1 0
13.506783 3.733712 16.458524 21.616123 0.269697 0.705326 0.094436 -0.022690 -369574.000000 0 1 0
13.300583 2.164712 16.528324 21.325500 0.161339 0.684003 0.086004 -0.018183 262624.000000 0 1 0
14.518083 1.504512 16.889924 22.322809 0.103262 0.712665 0.101630 -0.013317 490650.000000 0 1 0
14.528483 0.095212 16.849024 22.248045 0.006553 0.711588 0.102611 -0.008427 -776258.000000 0 1 0
13.545283 -0.696188 17.682924 22.285537 -0.051352 0.654305 0.099088 -0.018599 275064.000000 0 1 0
12.170083 -0.435688 17.382724 21.224039 -0.035785 0.611111 0.092630 -0.018081 571853.000000 0 1 0
11.348783 -1.330988 18.144224 21.442464 -0.116747 0.562017 0.090385 -0.023962 372063.000000 0 1 0
-26.242367 14.244112 28.358034 41.179298 -0.497291 0.811174 0.101295 -0.018576 -121654.000000 0 0 1
-25.479537 14.134312 29.545214 41.495846 -0.506469 0.778448 0.092019 -0.015603 765761.000000 0 0 1
-24.583117 13.009412 29.561454 40.588840 -0.486735 0.754937 0.079993 -0.006306 -79922.500000 0 0 1
-23.578417 13.066112 30.706004 40.859805 -0.506028 0.720469 0.091999 -0.019956 -561793.000000 0 0 1
-24.091817 12.923012 32.003798 42.091126 -0.492347 0.706951 0.093270 -0.020720 633741.000000 0 0 1
-23.030117 12.888112 32.983206 42.241941 -0.510199 0.674825 0.067204 -0.017273 584748.000000 0 0 1
-23.620917 12.961212 -33.438283 42.942514 -0.501858 2.463348 0.052796 -0.009925 140637.000000 0 0 1
-24.373617 11.801112 -33.092933 42.760749 -0.450908 2.455787 0.058671 -0.011050 -30762.800000 0 0 1
-24.985317 12.050312 -31.844393 42.231995 -0.449384 2.424980 0.047743 -0.010466 -54452.600000 0 0 1
-25.833987 10.834312 -31.393453 42.075243 -0.397103 2.413021 0.033561 -0.009621 -242455.000000 0 0 1
-25.129777 9.810812 -30.743993 40.901721 -0.372208 2.421364 0.032180 -0.015026 250891.000000 0 0 1
-24.375817 8.869412 -31.547473 40.842257 -0.348969 2.453443 0.030060 -0.012883 225456.000000 0 0 1
-23.419717 8.128712 -30.584113 39.369367 -0.334079 2.460445 0.034882 -0.006553 -410841.000000 0 0 1
-24.047617 7.283712 -29.662593 38.874281 -0.294103 2.438798 0.035780 -0.008420 -18749.900000 0 0 1
-23.094517 6.663912 -28.860803 37.559424 -0.280919 2.447139 0.036229 -0.001188 -272807.000000 0 0 1
-23.771117 5.869412 -27.719583 36.985014 -0.242072 2.418075 0.042204 -0.000250 120946.000000 0 0 1
-24.509417 4.728012 -28.134583 37.611439 -0.190565 2.415889 0.058117 -0.004105 372111.000000 0 0 1
-25.106537 4.084012 -27.020503 37.109634 -0.161255 2.386381 0.078769 -0.002387 -636743.000000 0 0 1
-26.104007 2.913712 -27.371823 37.935809 -0.111159 2.376806 0.071603 -0.005415 353433.000000 0 0 1
-27.431477 3.284612 -27.656473 39.091624 -0.119171 2.356720 0.082987 -0.010520 40109.700000 0 0 1
-27.654867 4.257612 -28.667343 40.059149 -0.152756 2.368315 0.082191 -0.012697 -2172520.000000 0 0 1
-28.869517 3.903312 -29.461573 41.432706 -0.134390 2.361816 0.101913 -0.019352 -1038550.000000 0 0 1
-30.064327 4.143112 -28.724013 41.786338 -0.136946 2.328702 0.099107 -0.015363 1626850.000000 0 0 1
-31.292447 3.963212 -29.513973 43.197209 -0.125980 2.322984 0.109222 -0.024808 1540360.000000 0 0 1
-31.702057 5.252312 -30.307153 44.171605 -0.164186 2.326943 0.112152 -0.034931 -968695.000000 0 0 1
-30.882077 5.563212 -31.381033 44.378161 -0.178232 2.356224 0.103367 -0.029518 -20258.000000 0 0 1
-31.218107 6.792012 -32.050943 45.254442 -0.214228 2.357796 0.109446 -0.029337 -319901.000000 0 0 1
-30.890697 8.093312 -31.222323 44.660612 -0.256239 2.344937 0.073948 -0.031778 1158120.000000 0 0 1
-29.472967 8.353912 -31.054783 43.621590 -0.276199 2.363015 0.058537 -0.034934 1579370.000000 0 0 1
-28.768067 7.848512 -29.908593 42.234165 -0.266339 2.357687 0.044329 -0.039639 -67262.800000 0 0 1
-28.931257 8.655512 -28.605043 41.595480 -0.290700 2.329107 0.032838 -0.031301 -321640.000000 0 0 1
-30.259267 8.666112 -28.147763 42.225836 -0.278929 2.300435 0.043154 -0.031088 -81976.200000 0 0 1
-30.615127 7.617012 -27.279543 41.707053 -0.243848 2.283756 0.047224 -0.018022 881533.000000 0 0 1
-32.012827 7.919412 -26.573203 42.351780 -0.242514 2.249058 0.042431 -0.022730 999867.000000 0 0 1
-32.011267 8.910412 -25.570673 41.928224 -0.271480 2.226690 0.020889 -0.013882 -149722.000000 0 0 1
-31.677067 8.263112 -24.321123 40.782749 -0.255168 2.209753 0.038083 -0.011267 139617.000000 0 0 1
-31.036557 9.244212 -23.311823 39.901935 -0.289482 2.194725 0.040159 -0.008667 -533369.000000 0 0 1
-31.936457 10.080412 -22.737123 40.478744 -0.305743 2.167242 0.046614 -0.006119 -962218.000000 0 0 1
-31.289937 10.962912 -21.905823 39.738025 -0.337000 2.154665 0.043035 -0.000774 -294557.000000 0 0 1
-32.203437 11.859912 -21.041423 40.254942 -0.352867 2.120816 0.039151 0.002166 -124419.000000 0 0 1
-32.826437 11.147712 -19.988323 40.017240 -0.327376 2.093810 0.049654 -0.002352 136338.000000 0 0 1
-33.425897 12.002412 -19.005523 40.280993 -0.344737 2.062154 0.039631 0.000886 -22456.200000 0 0 1
-32.475577 12.812112 -18.083423 39.316962 -0.375769 2.048723 0.037991 0.000709 -87958.300000 0 0 1
-31.935897 12.102912 -16.916423 38.112299 -0.362251 2.030695 0.077674 0.002986 846934.000000 0 0 1
-32.899247 11.592212 -15.969223 38.363471 -0.338771 2.000126 0.074562 0.004808 293719.000000 0 0 1
-33.609667 12.598512 -15.046823 38.919649 -0.358637 1.967752 0.058252 0.009557 -210667.000000 0 0 1
-34.181380 13.710312 -15.674323 40.025289 -0.381458 1.973178 0.038263 0.004861 188894.000000 0 0 1
-34.986703 14.445912 -14.749123 40.623766 -0.391575 1.942353 0.031612 0.006928 228149.000000 0 0 1
-35.656297 15.660012 -15.493823 41.912600 -0.413831 1.949450 0.038037 -0.001749 101307.000000 0 0 1
-36.611107 15.238912 -16.435523 42.926961 -0.394425 1.963699 0.043332 -0.009283 104902.000000 0 0 1
37.188261 16.334912 -16.951223 44.012953 0.413878 1.966158 0.042830 -0.011769 -221605.000000 0 0 1
36.576551 16.062612 -18.366023 43.967742 0.413795 2.001726 0.053488 -0.006507 333990.000000 0 0 1
35.433261 15.247712 -18.484623 42.774875 0.406370 2.017658 0.073671 -0.013468 176871.000000 0 0 1
34.194931 15.873712 -18.239223 41.880034 0.434610 2.021402 0.110587 -0.022084 -423741.000000 0 0 1
33.000761 14.939412 -18.538923 40.693094 0.425096 2.043819 0.108737 -0.026206 -180682.000000 0 0 1
32.777761 14.763912 -19.945023 41.111539 0.423207 2.077324 0.105195 -0.024043 177623.000000 0 0 1
31.978291 13.668912 -20.366323 40.301828 0.403938 2.100578 0.074457 -0.020311 61696.100000 0 0 1
32.544151 12.196612 -20.106923 40.151805 0.358570 2.095287 0.066274 -0.005327 -14693.500000 0 0 1
32.558481 11.806812 -18.719723 39.368560 0.347885 2.066328 0.068426 -0.005969 10172.800000 0 0 1
33.204351 10.585212 -18.501823 39.457484 0.308605 2.058847 0.068715 -0.007840 -209740.000000 0 0 1
33.479211 10.420212 -17.016823 38.974487 0.301740 2.022628 0.056136 -0.002851 76868.300000 0 0 1
32.308081 10.093612 -16.289623 37.563877 0.302810 2.019337 0.056928 -0.009766 393270.000000 0 0 1
32.639061 10.021812 -14.915223 37.258675 0.297912 1.982657 0.030618 -0.005724 -257566.000000 0 0 1
31.989221 11.095612 -14.036623 36.653098 0.333870 1.963793 0.064132 -0.018218 65890.600000 0 0 1
30.611571 10.906612 -13.725323 35.276152 0.342268 1.970431 0.054316 -0.014709 507207.000000 0 0 1
30.082541 11.996812 -13.004423 34.899825 0.379468 1.952629 0.066928 -0.017295 -732881.000000 0 0 1
28.569301 12.042312 -12.953523 33.600833 0.398913 1.966559 0.080381 -0.011637 -1023880.000000 0 0 1
27.946301 10.922012 -12.344923 32.445079 0.372569 1.961119 0.066227 -0.019610 226503.000000 0 0 1
26.537401 10.941212 -12.534323 31.321765 0.391060 1.982509 0.078558 -0.009836 391137.000000 0 0 1
26.059101 10.268012 -13.889023 31.263617 0.375347 2.031139 0.068143 -0.016389 -852780.000000 0 0 1
26.392401 8.870712 -14.022323 31.174892 0.324246 2.037333 0.055843 -0.012596 -361229.000000 0 0 1
27.663601 8.669512 -14.540323 32.432333 0.303696 2.035690 0.057362 -0.015248 -841851.000000 0 0 1
28.404401 7.517312 -13.853323 32.484373 0.258722 2.011373 0.055262 -0.009201 -560017.000000 0 0 1
27.870401 6.228512 -14.087923 31.843730 0.219868 2.029078 0.047854 -0.011079 287542.000000 0 0 1
27.287201 5.774412 -12.877523 30.720771 0.208540 2.003338 0.058033 -0.012534 -503893.000000 0 0 1
26.343801 4.606012 -13.094923 29.777310 0.173093 2.026130 0.085089 -0.007329 -574330.000000 0 0 1
25.807701 4.137812 -11.891523 28.715278 0.158979 1.997770 0.098533 -0.005556 189525.000000 0 0 1
25.084501 2.959912 -12.173423 28.038999 0.117455 2.019902 0.105122 -0.013940 -51084.100000 0 0 1
24.466701 2.221112 -10.945723 26.895383 0.090533 1.989935 0.122021 -0.011766 547101.000000 0 0 1
25.490101 1.724012 -10.057023 27.456532 0.067532 1.945814 0.134199 -0.007838 924137.000000 0 0 1
24.967701 0.809712 -9.106523 26.588916 0.032419 1.920366 0.153956 0.000281 -7998.200000 0 0 1
25.949201 0.518812 -7.891023 27.127448 0.019991 1.865950 0.192553 0.002072 284676.000000 0 0 1
25.905501 -0.682088 -7.110923 26.872392 -0.026324 1.838604 0.166418 -0.013666 256617.000000 0 0 1
26.231601 -1.800388 -7.896823 27.453562 -0.068527 1.862561 0.140156 -0.023978 -353862.000000 0 0 1
26.690901 -3.037488 -7.100323 27.785699 -0.113315 1.829201 0.134855 -0.027415 -93546.600000 0 0 1
27.932801 -2.901888 -6.440523 28.812196 -0.103517 1.796236 0.134940 -0.035271 486870.000000 0 0 1
28.375401 -4.090588 -5.702023 29.230281 -0.143173 1.767128 0.119683 -0.041777 -183797.000000 0 0 1
29.826861 -4.040888 -5.203923 30.545887 -0.134658 1.741995 0.156284 -0.045313 67253.400000 0 0 1
30.759541 -4.231488 -6.278723 31.677708 -0.136709 1.770324 0.110613 -0.039880 753241.000000 0 0 1
31.970651 -4.850888 -5.855323 32.862417 -0.150581 1.749930 0.103384 -0.024782 494618.000000 0 0 1
32.886881 -5.291088 -7.041523 34.045933 -0.159520 1.779124 0.103087 -0.039170 129025.000000 0 0 1
32.299931 -6.350888 -7.761723 33.821053 -0.194146 1.802354 0.111522 -0.058570 188667.000000 0 0 1
32.722431 -6.376788 -9.110423 34.560392 -0.192463 1.837558 0.111939 -0.039525 -956270.000000 0 0 1
31.657021 -7.056188 -9.953023 33.926677 -0.219310 1.868545 0.099779 -0.038953 473095.000000 0 0 1
30.468681 -6.302488 -10.224523 32.750614 -0.203975 1.888297 0.101256 -0.054710 1184970.000000 0 0 1
29.503201 -6.397588 -9.154623 31.546396 -0.213538 1.865227 0.114528 -0.057204 -1014920.000000 0 0 1
28.337401 -5.449588 -9.275623 30.310781 -0.189991 1.881803 0.115659 -0.045000 -1096720.000000 0 0 1
27.398101 -5.871088 -10.246323 29.834757 -0.211096 1.921369 0.096884 -0.045747 827812.000000 0 0 1
26.173401 -5.130888 -10.123023 28.528030 -0.193580 1.933544 0.088509 -0.039628 48149.300000 0 0 1
25.037501 -5.883188 -9.478523 27.410413 -0.230788 1.923888 0.123520 -0.035610 -1595020.000000 0 0 1
25.119601 -6.097388 -8.080623 27.082632 -0.238129 1.873780 0.119973 -0.043321 1544540.000000 0 0 1
23.906901 -6.739188 -7.578423 25.969002 -0.274763 1.866931 0.124713 -0.046411 480384.000000 0 0 1
22.811201 -5.761788 -7.136223 24.586068 -0.247411 1.865289 0.141291 -0.028922 -632433.000000 0 1 0
22.313201 -5.063088 -8.229723 24.315471 -0.223132 1.916072 0.144618 -0.034006 138724.000000 0 1 0
22.048801 -3.713188 -7.940823 23.727496 -0.166842 1.912049 0.143416 -0.028971 -105254.000000 0 1 0
21.966101 -2.863688 -9.232323 23.998876 -0.129637 1.965677 0.142518 -0.019281 91847.300000 0 1 0
23.223901 -2.750188 -9.874523 25.385415 -0.117872 1.970325 0.125263 -0.025294 699224.000000 0 0 1
23.078901 -2.176088 -11.161423 25.728357 -0.094011 2.019522 0.127559 -0.018795 -632139.000000 0 0 1
24.414701 -2.225788 -11.880023 27.242736 -0.090915 2.022035 0.110953 -0.027693 -236066.000000 0 0 1
25.424201 -1.432788 -11.227823 27.829963 -0.056296 1.986074 0.098641 -0.026687 74469.000000 0 0 1
26.583201 -1.442288 -11.981623 29.194281 -0.054202 1.993700 0.078728 -0.027964 -911088.000000 0 0 1
27.684101 -0.516088 -11.438423 29.958526 -0.018640 1.962549 0.069771 -0.022410 -627264.000000 0 0 1
28.938401 -0.681388 -12.050923 31.354745 -0.023542 1.965291 0.065788 -0.027857 -314856.000000 0 0 1
29.893281 0.168112 -11.526423 32.038959 0.005624 1.938810 0.072355 -0.024755 -599851.000000 0 0 1
29.993071 1.552912 -12.292523 32.451532 0.051729 1.959292 0.072623 -0.017178 -358415.000000 0 0 1
30.291161 1.271912 -13.685323 33.263497 0.041965 1.994810 0.058243 -0.018206 449444.000000 0 0 1
30.332921 2.441312 -14.526323 33.720322 0.080311 2.016163 0.054966 -0.015662 33085.800000 0 0 1
30.704831 2.136812 -16.038923 34.707343 0.069480 2.051179 0.057850 -0.012779 310818.000000 0 0 1
29.659111 1.331812 -16.587023 34.008321 0.044874 2.080289 0.047879 -0.013957 417247.000000 0 0 1
29.871981 1.319212 -17.986823 34.894145 0.044133 2.112350 0.032725 -0.009848 358375.000000 0 0 1
28.847201 0.502212 -18.880123 34.480027 0.017408 2.150250 0.023840 -0.006639 322745.000000 0 0 1
29.082901 -0.898188 -18.857423 34.673105 -0.030874 2.145830 0.042270 -0.002369 253212.000000 0 0 1
28.462001 -1.466288 -19.976323 34.803577 -0.051472 2.182146 0.040554 -0.004711 -158095.000000 0 0 1
28.178701 -2.978388 -19.818623 34.578719 -0.105305 2.181135 0.044866 -0.012116 -289146.000000 0 0 1
26.893301 -3.244988 -19.306923 33.264648 -0.120081 2.190021 0.050718 -0.010271 48056.500000 0 0 1
26.614101 -4.654688 -19.126723 33.102991 -0.173144 2.186820 0.062187 -0.014084 -116222.000000 0 0 1
27.468801 -5.464688 -18.117223 33.356133 -0.196378 2.144975 0.062671 -0.021001 -1755260.000000 0 0 1
28.799901 -5.494788 -18.334423 34.580024 -0.188526 2.129636 0.064189 -0.016198 -1522680.000000 0 0 1
29.542451 -5.643888 -17.130823 34.613219 -0.188769 2.088541 0.059457 -0.019363 -767493.000000 0 0 1
31.009241 -5.302388 -17.261123 35.883627 -0.169356 2.072626 0.074849 -0.009801 -630410.000000 0 0 1
31.699341 -6.331288 -18.000323 36.999257 -0.197135 2.078881 0.055738 -0.005602 1236670.000000 0 0 1
33.090181 -6.010588 -18.230823 38.255067 -0.179684 2.067534 0.072714 0.000611 961121.000000 0 0 1
33.829861 -7.138788 -18.967323 39.435785 -0.207969 2.072554 0.067414 0.013964 -53230.600000 0 0 1
34.259101 -8.254288 -18.148423 39.638170 -0.236431 2.046374 0.060076 0.001578 106293.000000 0 0 1
34.778631 -9.280788 -18.949123 40.678685 -0.260777 2.055362 0.052316 0.010812 -26484.800000 0 0 1
35.644671 -10.215888 -18.030623 41.231181 -0.279122 2.023397 0.067419 -0.001611 290054.000000 0 0 1
34.793841 -10.806888 -17.012223 40.209649 -0.301151 2.007647 0.043758 -0.003266 605615.000000 0 0 1
35.470721 -11.614488 -16.075023 40.638340 -0.316436 1.977477 0.056544 -0.031286 339108.000000 0 0 1
36.497101 -10.829088 -15.098523 40.954522 -0.288437 1.948369 0.089445 -0.026429 266111.000000 0 0 1
37.003451 -11.563888 -13.960223 41.205178 -0.302893 1.916435 0.077479 -0.028045 653606.000000 0 0 1
-36.726427 -12.720788 -14.189523 41.376218 0.333434 1.920840 0.068495 -0.019959 -858475.000000 0 0 1
-35.346190 -12.518388 -14.777923 40.304469 0.340381 1.946210 0.110644 -0.029596 -1342330.000000 0 0 1
-35.382050 -12.144588 -16.137823 40.740763 0.330641 1.978073 0.120279 -0.022558 101676.000000 0 0 1
-34.077227 -12.190788 -16.686823 39.853767 0.343553 2.002811 0.161720 -0.024874 -43670.900000 0 0 1
-33.843477 -11.465488 -18.046423 40.031384 0.326644 2.038465 0.187412 -0.022804 80783.600000 0 0 1
-33.876927 -10.101488 -17.761223 39.561942 0.289788 2.036383 0.167030 -0.015949 549163.000000 0 0 1
-35.082737 -9.495288 -18.231023 40.661150 0.264321 2.035731 0.142458 -0.008318 153371.000000 0 0 1
-35.300836 -8.078088 -17.668223 40.293556 0.224962 2.024711 0.167976 -0.003759 -289567.000000 0 0 1
-36.374607 -7.361688 -18.208923 41.338497 0.199688 2.026933 0.143648 -0.000246 -98712.100000 0 0 1
-36.691837 -6.249388 -17.478923 41.120050 0.168702 2.009836 0.133010 -0.005857 -224181.000000 0 0 1
24.911383 27.721712 -27.049143 46.051346 0.838742 2.198601 0.049152 0.010293 64370.800000 0 0 1
25.424883 26.747312 -26.171513 45.241479 0.810740 2.187666 0.038398 0.006967 -499474.000000 0 0 1
26.745083 26.418012 -26.493603 45.990453 0.779246 2.184706 0.037327 0.007921 -248560.000000 0 0 1
27.388083 25.346112 -25.547343 45.223879 0.746696 2.171118 0.036519 0.006360 -58437.700000 0 0 1
27.808283 25.944112 -24.307623 45.135995 0.750731 2.139502 0.036611 0.008475 376496.000000 0 0 1
28.041383 24.928012 -23.362123 44.198571 0.726689 2.127714 0.039677 -0.000606 -149868.000000 0 0 1
28.691283 25.452812 -22.031923 44.231674 0.725657 2.092206 0.046351 0.008084 -139563.000000 0 0 1
27.892583 26.280212 -21.225223 43.808170 0.755643 2.076592 0.045524 0.001052 -123563.000000 0 0 1
28.579583 26.674112 -20.090923 43.953907 0.750926 2.045518 0.027686 0.005347 -210815.000000 0 0 1
27.761283 27.695612 -19.306923 43.709187 0.784214 2.028304 0.034004 0.001210 12788.000000 0 0 1
26.654783 27.207712 -18.566723 42.372871 0.795663 2.024363 0.044726 -0.001471 6154.300000 0 0 1
25.874683 28.256512 -18.088123 42.368737 0.829371 2.011882 0.045935 -0.012288 87451.500000 0 0 1
24.763483 27.795812 -17.108523 40.969974 0.843028 2.001584 0.054852 -0.017440 628980.000000 0 0 1
23.691583 27.040412 -17.679223 40.062824 0.851313 2.027829 0.066523 -0.012876 -47528.500000 0 0 1
22.591783 26.972612 -16.829823 39.001966 0.873556 2.016965 0.046840 -0.001717 248432.000000 0 0 1
21.543783 25.932112 -17.427123 37.951464 0.877569 2.047885 0.038339 -0.009840 579012.000000 0 0 1
20.870683 26.303612 -18.637723 38.403517 0.900060 2.077517 0.037900 -0.013089 -80160.800000 0 0 1
20.063683 25.255512 -19.098123 37.485071 0.899462 2.105384 0.037645 -0.007979 -33023.600000 0 0 1
19.427483 25.615912 -20.441523 38.098004 0.921932 2.137141 0.037077 -0.002969 265029.000000 0 0 1
18.387683 26.579012 -20.339023 38.186733 0.965587 2.132490 0.024818 0.000583 -320924.000000 0 0 1
17.508683 26.571612 -21.452123 38.377052 0.988173 2.163955 0.031299 -0.003740 -268014.000000 0 0 1
16.377783 27.538512 -21.091323 38.359423 1.034266 2.152962 0.031660 -0.002775 -529865.000000 0 0 1
15.635083 27.170412 -19.948123 37.156624 1.048628 2.137514 0.043125 -0.004562 -308133.000000 0 0 1
14.785283 28.264712 -19.680323 37.480843 1.088840 2.123602 0.020488 -0.003242 -107135.000000 0 0 1
14.234183 28.248012 -18.258823 36.523236 1.104033 2.094307 0.016572 -0.003019 172075.000000 0 0 1
13.414083 27.122012 -17.912423 35.162424 1.111492 2.105306 0.024274 -0.006078 199380.000000 0 0 1
12.940683 27.203012 -16.562223 34.376916 1.126771 2.073485 0.044789 -0.008067 -20419.200000 0 0 1
11.951783 26.051712 -16.234223 32.940656 1.140672 2.086138 0.060235 -0.013053 -91384.700000 0 0 1
12.570583 24.795712 -15.939823 32.045668 1.101591 2.091407 0.062411 -0.012600 283456.000000 0 0 1
11.669283 23.685212 -16.076123 30.912831 1.113020 2.117702 0.078054 -0.011786 433164.000000 0 0 1
12.500883 22.388612 -16.027023 30.238840 1.061558 2.129414 0.085093 -0.011892 256709.000000 0 0 1
13.189083 22.238012 -17.245923 31.078979 1.035475 2.159047 0.079311 -0.008719 -433524.000000 0 0 1
14.267083 21.322212 -17.238723 30.908897 0.981098 2.162441 0.079247 -0.004807 -34961.600000 0 0 1
13.935683 19.818012 -17.424423 29.842375 0.957938 2.194298 0.103715 -0.015630 299108.000000 0 0 1
13.083683 19.329512 -16.355523 28.501156 0.975759 2.182001 0.109697 -0.027935 269024.000000 0 0 1
12.575983 18.039712 -16.579623 27.540342 0.962001 2.216815 0.095976 -0.025192 271958.000000 0 0 1
13.664083 16.909612 -16.605523 27.356636 0.891156 2.223079 0.111435 -0.024629 82166.900000 0 0 1
14.176683 16.716612 -15.293323 26.726563 0.867430 2.180000 0.104721 -0.026681 -396263.000000 0 0 1
15.166383 15.750512 -15.442723 26.768928 0.804289 2.185712 0.114567 -0.029685 -906808.000000 0 0 1
15.801283 15.150212 -14.173123 26.078475 0.764366 2.145373 0.155515 -0.032776 -670990.000000 0 0 1
16.589483 15.947312 -13.328123 26.592603 0.765664 2.095777 0.139074 -0.033477 867810.000000 0 0 1
17.830183 16.529712 -13.781423 27.947709 0.747568 2.086463 0.110503 -0.027141 690331.000000 0 0 1
18.887583 15.521412 -14.371923 28.358547 0.687880 2.102257 0.102505 -0.030535 -745886.000000 0 0 1
19.337683 14.554912 -13.400023 27.664997 0.645208 2.076436 0.125504 -0.035826 -194652.000000 0 0 1
20.516183 15.055712 -12.834423 28.501064 0.633082 2.037913 0.118410 -0.030183 -886104.000000 0 0 1
21.359883 13.922512 -12.241423 28.283093 0.577644 2.018412 0.134565 -0.036446 -629452.000000 0 0 1
20.686183 13.294512 -11.210523 27.024767 0.571209 1.998546 0.201626 -0.036530 379144.000000 0 0 1
21.433183 12.179112 -10.701523 26.874424 0.516736 1.980355 0.210674 -0.016933 8036.630000 0 0 1
21.508483 10.901112 -11.565323 26.743331 0.469095 2.018012 0.175757 -0.018693 -394067.000000 0 0 1
22.465983 10.907012 -12.603323 27.973685 0.451972 2.038169 0.139948 -0.004463 263237.000000 0 0 1
22.521583 9.689712 -13.417523 27.948920 0.406302 2.071534 0.121189 -0.001081 -343897.000000 0 0 1
23.010383 8.400712 -12.714123 27.598888 0.350049 2.049552 0.128880 0.006224 -788309.000000 0 0 1
22.089783 7.942612 -11.767423 26.258634 0.345166 2.035475 0.134054 -0.007847 23752.600000 0 0 1
22.531583 7.026912 -10.771923 25.943863 0.302310 1.998960 0.130666 0.013995 -657581.000000 0 0 1
22.568383 5.556112 -11.310523 25.848215 0.241390 2.023696 0.141078 0.000242 665088.000000 0 0 1
21.286183 4.921812 -11.504523 24.691696 0.227228 2.055478 0.126298 -0.015857 904422.000000 0 1 0
20.636183 5.307112 -12.653523 24.781629 0.251720 2.106680 0.084584 -0.022081 -848029.000000 0 1 0
19.781083 4.219512 -13.263523 24.187116 0.210161 2.151212 0.092669 -0.032059 -341678.000000 0 1 0
20.568483 3.180912 -13.817023 24.981810 0.153434 2.156857 0.110395 -0.036556 327459.000000 0 1 0
19.857583 1.981812 -14.029123 24.394005 0.099472 2.183529 0.117566 -0.028149 -471121.000000 0 1 0
20.742083 0.896912 -14.637123 25.402437 0.043214 2.184879 0.132359 -0.024779 -265416.000000 0 0 1
21.748583 0.492412 -13.701723 25.709542 0.022637 2.132871 0.142293 -0.023103 880328.000000 0 0 1
22.968483 0.117712 -14.351823 27.083942 0.005125 2.129281 0.098151 -0.034352 239820.000000 0 0 1
23.013483 -1.232788 -15.076723 27.539930 -0.053517 2.150110 0.085838 -0.024524 -1068390.000000 0 0 1
22.126583 -1.501988 -16.127923 27.421735 -0.067778 2.199558 0.089769 -0.020327 -103913.000000 0 0 1
22.420083 -2.751788 -16.725723 28.106623 -0.122127 2.208163 0.070341 -0.021040 -737803.000000 0 0 1
21.328683 -3.266688 -17.650823 27.877151 -0.151978 2.256431 0.081220 -0.021385 -772730.000000 0 0 1
20.492283 -4.086488 -16.867923 26.854420 -0.196834 2.249937 0.097444 -0.020317 -107874.000000 0 0 1
19.628383 -4.783188 -17.732623 26.881187 -0.239029 2.291171 0.080403 -0.015392 35782.300000 0 0 1
18.793283 -5.938888 -17.110023 26.100015 -0.306080 2.285715 0.087483 -0.017188 56882.700000 0 0 1
19.660383 -6.979488 -16.661423 26.699193 -0.341125 2.244701 0.087512 -0.016736 207401.000000 0 0 1
19.095183 -8.097888 -16.096623 26.254582 -0.401091 2.230772 0.098134 -0.014247 -573796.000000 0 0 1
20.140183 -9.009088 -15.442423 26.930634 -0.420622 2.181464 0.118143 -0.016881 315455.000000 0 0 1
21.030583 -9.693588 -16.339123 28.341101 -0.431905 2.185256 0.104192 -0.026980 946861.000000 0 0 1
21.916483 -10.595988 -15.676123 28.954240 -0.450337 2.142910 0.091952 -0.035599 72054.300000 0 0 1
22.639883 -11.552788 -16.724723 30.426100 -0.471842 2.152782 0.075397 -0.031847 404256.000000 0 0 1
23.563983 -10.890188 -17.593623 31.359099 -0.432915 2.166435 0.059717 -0.022508 345712.000000 0 0 1
24.018883 -11.712188 -18.649223 32.586433 -0.453698 2.180104 0.058845 -0.022336 -447293.000000 0 0 1
23.062183 -11.685388 -19.892623 32.620991 -0.468986 2.226618 0.067565 -0.023409 1613690.000000 0 0 1
21.699283 -12.138188 -19.699623 31.721753 -0.510018 2.240831 0.070414 -0.033752 1097290.000000 0 0 1
21.450283 -13.540788 -19.602023 32.057868 -0.563091 2.228698 0.064758 -0.023494 -831852.000000 0 0 1
19.968683 -13.889288 -19.581223 31.226350 -0.607736 2.248587 0.068244 -0.025296 -167170.000000 0 0 1
19.240883 -13.460988 -20.747723 31.334929 -0.610460 2.294451 0.069300 -0.012756 1030060.000000 0 0 1
17.847883 -13.845988 -20.627223 30.589878 -0.659796 2.310833 0.086332 -0.016510 862192.000000 0 0 1
16.984783 -13.137688 -21.644223 30.488590 -0.658371 2.360170 0.080990 -0.018781 -814475.000000 0 0 1
16.988983 -13.828088 -22.891223 31.683587 -0.683186 2.378200 0.070060 -0.010765 231116.000000 0 0 1
16.310883 -13.164788 -23.919723 31.804240 -0.679065 2.422027 0.083761 -0.023988 -290294.000000 0 0 1
16.435483 -13.848888 -25.286993 33.186576 -0.700195 2.437137 0.077462 -0.030952 -247535.000000 0 0 1
15.649383 -15.028988 -25.384773 33.394017 -0.765178 2.434355 0.080873 -0.025927 278068.000000 0 0 1
15.654483 -15.600188 -26.671963 34.638451 -0.783661 2.449654 0.086301 -0.026028 -220578.000000 0 0 1
16.502283 -16.877688 -26.895533 35.784793 -0.796644 2.421267 0.089217 -0.020989 -619970.000000 0 0 1
17.862983 -16.620288 -27.046883 36.426007 -0.749376 2.407615 0.085659 -0.018522 -842590.000000 0 0 1
18.513283 -17.848588 -27.106143 37.363843 -0.767120 2.382505 0.100708 -0.022281 985590.000000 0 0 1
20.091583 -17.728688 -27.065903 38.085971 -0.723002 2.361222 0.080035 -0.014250 1258900.000000 0 0 1
20.547383 -17.298588 -25.783403 37.231975 -0.699766 2.335755 0.076140 -0.014940 239847.000000 0 0 1
21.945983 -17.049888 -25.753223 37.888697 -0.660498 2.318160 0.068658 -0.008566 192566.000000 0 0 1
22.470583 -16.476188 -24.411223 37.044564 -0.632684 2.290244 0.075033 -0.001793 -74392.600000 0 0 1
22.294783 -15.089388 -24.069223 36.111971 -0.594994 2.300322 0.075092 -0.011399 861283.000000 0 0 1
20.958883 -14.544888 -24.191923 35.157897 -0.606669 2.329655 0.091257 -0.013139 955221.000000 0 0 1
20.832583 -13.241388 -23.460923 34.055041 -0.566192 2.330783 0.085517 -0.010217 112959.000000 0 0 1
21.506183 -12.194788 -24.136823 34.551628 -0.515829 2.344197 0.092927 -0.027372 264806.000000 0 0 1
21.143683 -10.963988 -23.556223 33.498657 -0.478375 2.350683 0.086919 -0.027762 172244.000000 0 0 1
21.496983 -9.773788 -24.514123 34.038059 -0.426721 2.374883 0.093730 -0.033185 -326722.000000 0 0 1
21.161283 -8.637688 -23.806923 33.002714 -0.387541 2.376564 0.106322 -0.034521 -61274.800000 0 0 1
20.832483 -7.667188 -24.717823 33.222717 -0.352655 2.409839 0.082376 -0.032435 -550903.000000 0 0 1
20.295083 -6.338088 -24.109323 32.145314 -0.302700 2.418874 0.081125 -0.031914 -16435.900000 0 0 1
18.937283 -6.567388 -23.771423 31.093919 -0.333818 2.441068 0.079838 -0.033903 -14272.200000 0 0 1
18.383783 -5.680688 -22.782623 29.820825 -0.299698 2.440261 0.072251 -0.028407 6251.410000 0 0 1
19.020783 -5.770788 -21.386323 29.197037 -0.294567 2.392758 0.078023 -0.026009 -389976.000000 0 0 1
18.789283 -6.889088 -20.480923 28.635029 -0.351430 2.367764 0.084703 -0.031947 174730.000000 0 0 1
19.193983 -8.190688 -20.896923 29.532656 -0.403337 2.356874 0.084573 -0.032375 -269468.000000 0 0 1
18.871883 -9.221088 -19.834623 28.889249 -0.454498 2.327563 0.083406 -0.029194 1252210.000000 0 0 1
17.442283 -9.406688 -19.684123 27.931769 -0.494594 2.352827 0.086240 -0.024885 886368.000000 0 0 1
17.292283 -10.431688 -18.713923 27.532782 -0.542811 2.318144 0.095936 -0.026600 77314.800000 0 0 1
15.796183 -10.815288 -18.412323 26.561316 -0.600368 2.336717 0.114645 -0.030791 970579.000000 0 0 1
15.067283 -9.922788 -17.556123 25.173442 -0.582373 2.342569 0.115422 -0.026802 278022.000000 0 0 1
14.898883 -8.655388 -18.126823 25.009482 -0.526288 2.381538 0.123108 -0.032194 -778081.000000 0 0 1
13.900983 -7.725388 -17.322923 23.516008 -0.507243 2.398891 0.137323 -0.018640 -647075.000000 0 1 0
12.644783 -7.687988 -17.856823 23.191848 -0.546279 2.449577 0.113802 -0.031519 -1160510.000000 0 1 0
11.911783 -6.543188 -17.459423 22.125445 -0.502309 2.480156 0.108263 -0.026633 117327.000000 0 1 0
10.404083 -6.645688 -17.764023 21.632629 -0.568431 2.534251 0.106464 -0.025518 57388.400000 0 1 0
9.881283 -6.329588 -19.060723 22.383355 -0.569713 2.589746 0.096256 -0.032812 -321730.000000 0 1 0
8.489583 -6.475588 -18.996823 21.791869 -0.651623 2.629537 0.090463 -0.045605 -435738.000000 0 1 0
7.764783 -6.025888 -20.253923 22.512765 -0.659968 2.689795 0.096734 -0.053552 -189854.000000 0 1 0
7.866283 -7.015388 -21.252123 23.722285 -0.728283 2.681185 0.099400 -0.049097 115959.000000 0 1 0
7.270183 -6.581188 -22.475923 24.522127 -0.735697 2.730180 0.104182 -0.045180 83904.500000 0 1 0
7.269583 -7.678388 -23.542223 25.807765 -0.812740 2.719454 0.100395 -0.039372 -409071.000000 0 0 1
6.433983 -8.762488 -23.245723 25.662053 -0.937442 2.704156 0.090305 -0.034924 -156489.000000 0 0 1
6.255283 -9.513188 -24.407223 26.932171 -0.989140 2.705119 0.077111 -0.018050 -132329.000000 0 0 1
5.262383 -10.671988 -24.186223 26.954728 -1.112682 2.684389 0.064678 -0.022314 -202326.000000 0 0 1
5.741083 -11.733088 -23.364023 26.767573 -1.115740 2.631805 0.064912 -0.031124 -412808.000000 0 0 1
4.991483 -12.884888 -23.356423 27.137755 -1.201207 2.607364 0.064460 -0.031861 -666530.000000 0 0 1
5.693083 -14.045188 -22.567723 27.184198 -1.185695 2.550223 0.076413 -0.032178 90905.100000 0 0 1
6.776883 -14.746088 -23.152423 28.273803 -1.140011 2.530227 0.076594 -0.030202 247720.000000 0 0 1
8.052883 -14.177888 -23.360723 28.488328 -1.054247 2.532225 0.078707 -0.030693 538344.000000 0 0 1
8.814883 -13.694388 -22.062023 27.422095 -0.998873 2.505688 0.076011 -0.023316 -339114.000000 0 0 1
9.386583 -14.692588 -21.235023 27.475558 -1.002289 2.454147 0.080225 -0.020970 575893.000000 0 0 1
8.382483 -15.419888 -20.520023 27.002043 -1.072868 2.434022 0.097144 -0.021691 200352.000000 0 0 1
8.850083 -15.765988 -19.097423 26.298325 -1.059288 2.383551 0.101932 -0.019522 339420.000000 0 0 1
9.865183 -16.761988 -19.072123 27.240264 -1.038842 2.346396 0.095113 -0.018812 525365.000000 0 0 1
10.523583 -16.995388 -17.789823 26.759425 -1.016377 2.298030 0.098045 -0.019459 545655.000000 0 0 1
9.587283 -17.817788 -16.844323 26.327187 -1.077156 2.265044 0.091077 -0.020652 -509560.000000 0 0 1
9.374183 -19.235088 -16.995523 27.326027 -1.117321 2.242032 0.094414 -0.022673 30450.600000 0 0 1
8.535383 -19.640288 -18.046923 28.005091 -1.160835 2.271055 0.105630 -0.014229 274607.000000 0 0 1
7.011183 -19.414588 -17.780923 27.244158 -1.224241 2.281874 0.102309 -0.015342 35075.700000 0 0 1
6.699683 -18.026988 -17.774923 26.187897 -1.214968 2.316850 0.109589 -0.015454 -859097.000000 0 0 1
5.324583 -17.831888 -17.635223 25.638419 -1.280625 2.329310 0.094488 -0.011599 -303148.000000 0 0 1
5.081283 -16.263988 -17.472123 24.405160 -1.267979 2.368736 0.073688 -0.000469 328282.000000 0 1 0
5.683583 -15.649188 -16.299723 23.299811 -1.222422 2.345584 0.066523 -0.006525 454280.000000 0 1 0
5.115083 -14.360388 -16.163523 22.218107 -1.228614 2.385458 0.042214 0.003384 247602.000000 0 1 0
10.747483 29.686712 -18.073923 36.379609 1.223445 2.090721 0.056491 -0.033414 -132290.000000 0 0 1
9.784683 29.319912 -19.062023 36.314707 1.248697 2.123408 0.081387 -0.034792 408064.000000 0 0 1
8.785583 28.523012 -18.423223 35.073691 1.272000 2.123831 0.077153 -0.037151 123127.000000 0 0 1
7.617583 28.045512 -19.288423 34.880102 1.305580 2.156748 0.089697 -0.030468 -190966.000000 0 0 1
6.771783 29.075712 -19.727123 35.782865 1.341974 2.154719 0.091916 -0.036572 -137576.000000 0 0 1
5.843583 28.482112 -20.632323 35.652081 1.368438 2.187946 0.098053 -0.044957 170301.000000 0 0 1
4.792483 29.432812 -21.249823 36.617117 1.409385 2.189924 0.083258 -0.041834 564877.000000 0 0 1
3.696783 29.832812 -20.438323 36.350899 1.447508 2.167901 0.091540 -0.041359 426868.000000 0 0 1
2.707083 30.628912 -21.050823 37.263865 1.482642 2.171124 0.096773 -0.046443 317329.000000 0 0 1
1.275483 30.518012 -20.424023 36.743933 1.529026 2.160178 0.109668 -0.042452 546519.000000 0 0 1
0.592083 29.286412 -20.653523 35.841491 1.550582 2.184924 0.120093 -0.050983 220330.000000 0 0 1
0.090583 29.052912 -21.964023 36.421123 1.567678 2.218125 0.155625 -0.068213 -349645.000000 0 0 1
-0.562917 27.654812 -22.284123 35.520242 -1.550444 2.248960 0.151168 -0.060060 503998.000000 0 0 1
-1.764117 27.517212 -21.544523 34.992506 -1.506774 2.234057 0.167573 -0.062894 189517.000000 0 0 1
-2.379217 26.246612 -21.667123 34.117583 -1.480395 2.258898 0.173989 -0.066873 267054.000000 0 0 1
-3.538717 26.001012 -20.658623 33.396913 -1.435528 2.237729 0.152305 -0.066862 321343.000000 0 0 1
-4.797117 26.471112 -21.128123 34.207158 -1.391521 2.236550 0.151467 -0.062019 19603.800000 0 0 1
-5.785317 26.146612 -20.160723 33.519695 -1.353040 2.216122 0.130446 -0.060892 -812148.000000 0 0 1
-7.136917 26.478812 -20.775923 34.404971 -1.307520 2.219136 0.125455 -0.063285 69330.700000 0 0 1
-8.341017 26.202112 -20.035723 34.022836 -1.262606 2.200482 0.123531 -0.051628 643711.000000 0 0 1
-8.649217 27.020212 -18.934523 34.108898 -1.261001 2.159303 0.124925 -0.062884 -556018.000000 0 0 1
-9.862417 26.470312 -18.197523 33.602001 -1.214145 2.143089 0.143202 -0.050085 -167971.000000 0 0 1
-9.512817 25.456012 -17.273423 32.200518 -1.213169 2.137001 0.147372 -0.061929 -251124.000000 0 0 1
-10.651017 24.811812 -16.751323 31.775415 -1.165313 2.126073 0.120366 -0.047041 -325392.000000 0 0 1
-10.409817 23.997112 -15.488823 30.399495 -1.161500 2.105411 0.104865 -0.033675 -81314.400000 0 0 1
-9.628317 22.818112 -15.537223 29.236552 -1.171504 2.131086 0.113961 -0.039219 -150665.000000 0 0 1
-9.528017 22.240812 -14.284523 28.097765 -1.166047 2.104106 0.113508 -0.033780 -286140.000000 0 0 1
-9.100217 20.721312 -14.182723 26.708357 -1.156983 2.130602 0.108299 -0.020924 354941.000000 0 0 1
-10.076617 19.699412 -14.434223 26.418778 -1.097976 2.148811 0.100465 -0.019645 -160878.000000 0 0 1
-10.702117 19.779212 -15.708723 27.432034 -1.074828 2.180521 0.114567 -0.010447 360413.000000 0 0 1
-9.807517 19.703412 -17.025223 27.825708 -1.108944 2.229197 0.123939 -0.021699 306432.000000 0 0 1
-9.362417 18.366012 -17.292723 26.907313 -1.099364 2.268784 0.101799 -0.019868 264006.000000 0 0 1
-8.339717 18.252012 -18.286623 27.149353 -1.142202 2.309806 0.110269 -0.026205 635436.000000 0 0 1
-7.491717 16.924112 -18.065123 25.863102 -1.154059 2.344082 0.093855 -0.026607 649288.000000 0 0 1
-8.176917 15.688712 -18.448623 25.560699 -1.090335 2.377134 0.079019 -0.033480 435628.000000 0 0 1
-7.521717 15.211912 -19.612723 25.935253 -1.111589 2.428311 0.072406 -0.037133 400264.000000 0 0 1
-6.177817 14.506112 -19.350123 24.960367 -1.168183 2.457882 0.049708 -0.032390 -933263.000000 0 1 0
-6.326717 13.212012 -18.715823 23.766923 -1.124202 2.477495 0.036377 -0.029756 1036000.000000 0 1 0
-5.047817 12.583312 -18.417523 22.869747 -1.189298 2.507016 0.038891 -0.022211 1262760.000000 0 1 0
-4.298517 13.234812 -17.238123 22.153789 -1.256756 2.462450 0.020389 -0.013582 -396255.000000 0 1 0
-3.879617 14.557812 -17.510723 23.099929 -1.310352 2.431102 0.037772 -0.023719 -637132.000000 0 1 0
-3.474517 15.199312 -16.320223 22.570800 -1.346061 2.379030 0.034391 -0.011994 -260517.000000 0 1 0
-2.549717 16.381612 -16.473123 23.371393 -1.416390 2.352996 0.051461 -0.019639 186283.000000 0 1 0
-3.254217 17.643812 -16.665823 24.487623 -1.388407 2.319352 0.058815 -0.029712 187833.000000 0 1 0
-2.328017 18.685412 -16.893723 25.297473 -1.446845 2.302049 0.078490 -0.031744 -47389.700000 0 0 1
-2.992117 19.988312 -17.346023 26.633998 -1.422206 2.280058 0.076431 -0.030670 169992.000000 0 0 1
-3.447217 19.874612 -18.700323 27.506100 -1.399057 2.318369 0.096571 -0.033299 -256827.000000 0 0 1
-4.111717 20.978712 -19.307123 28.805860 -1.377255 2.305342 0.130221 -0.032311 206819.000000 0 0 1
-3.256217 22.263812 -19.622623 29.855110 -1.425570 2.287976 0.115741 -0.041447 384239.000000 0 0 1
-2.257617 22.030812 -20.633123 30.268453 -1.468677 2.320840 0.141427 -0.037555 300735.000000 0 0 1
-1.070017 22.781612 -20.526023 30.683291 -1.523862 2.303611 0.135612 -0.046479 650004.000000 0 0 1
0.015683 22.088912 -19.644523 29.560574 1.570086 2.297690 0.124868 -0.051168 -192410.000000 0 0 1
-0.273817 22.300812 -18.296023 28.846934 -1.558519 2.257828 0.117558 -0.043596 -412216.000000 0 0 1
0.745983 21.870412 -17.428523 27.975432 1.536700 2.243361 0.101489 -0.040694 -230536.000000 0 0 1
0.388183 21.969212 -15.904023 27.124433 1.553129 2.197324 0.091466 -0.034957 152552.000000 0 0 1
-0.613217 21.093812 -15.394923 26.121420 -1.541734 2.201063 0.076897 -0.023945 53190.900000 0 0 1
-0.527217 21.057712 -13.990423 25.287094 -1.545765 2.157073 0.079474 -0.022595 263510.000000 0 0 1
-1.243717 19.816412 -13.353323 23.927980 -1.508117 2.162846 0.052566 -0.019346 273116.000000 0 1 0
-0.650917 18.568812 -13.473923 22.951493 -1.535756 2.198220 0.040286 -0.019972 -14245.300000 0 1 0
-1.612717 17.685512 -12.932523 21.968803 -1.479859 2.200217 0.025825 -0.017194 509972.000000 0 1 0
-1.174017 16.213312 -13.024323 20.829853 -1.498512 2.246276 0.010441 -0.011132 -79591.300000 0 1 0
-0.242017 15.772112 -12.027623 19.836375 -1.555453 2.222248 0.008892 -0.014438 457018.000000 0 1 0
0.122983 14.380212 -12.146323 18.823888 1.562244 2.272161 0.011151 -0.011346 532289.000000 0 1 0
0.831383 13.850712 -13.423723 19.306210 1.510844 2.339642 0.004102 -0.009584 -543914.000000 0 1 0
-0.153017 13.664412 -14.423423 19.868938 -1.559599 2.383179 0.008389 -0.018778 321309.000000 0 1 0
0.317683 12.817112 -15.475223 20.096313 1.546016 2.449720 0.010347 -0.012288 -32962.200000 0 1 0
-0.450617 12.980912 -16.787923 21.225962 -1.536096 2.483098 0.012938 -0.003288 -57248.700000 0 1 0
0.083983 14.097012 -17.527223 22.493028 1.564839 2.464231 0.027970 -0.009858 378759.000000 0 1 0
-0.185617 13.914912 -18.931323 23.495834 -1.557458 2.507705 0.042397 -0.013598 264792.000000 0 1 0
-1.103517 15.039312 -19.520123 24.666452 -1.497552 2.483832 0.049529 -0.021589 460027.000000 0 1 0
-0.380217 16.276812 -19.527823 25.424693 -1.547441 2.446611 0.058458 -0.031724 232323.000000 0 0 1
-1.103217 17.266212 -20.156423 26.563519 -1.506989 2.432266 0.088470 -0.039438 -467995.000000 0 0 1
-0.157517 18.449612 -20.369623 27.483350 -1.562259 2.405596 0.101485 -0.043250 542178.000000 0 0 1
0.707483 18.209112 -21.513223 28.193812 1.531963 2.438812 0.122716 -0.053697 137625.000000 0 0 1
1.536183 19.302412 -21.721223 29.099046 1.491379 2.413520 0.123192 -0.049079 -314952.000000 0 0 1
2.315483 19.220412 -23.045923 30.098177 1.450904 2.442912 0.141976 -0.055567 -148694.000000 0 0 1
3.364683 18.288312 -22.992223 29.570691 1.388851 2.461531 0.131783 -0.051004 -304985.000000 0 0 1
3.947183 18.321512 -24.298623 30.686823 1.358600 2.484589 0.137162 -0.061333 -35238.100000 0 0 1
4.869683 17.159812 -24.673723 30.446109 1.294282 2.515642 0.100779 -0.046714 -1437440.000000 0 0 1
6.134183 17.260412 -24.147523 30.309287 1.229328 2.492618 0.096461 -0.037655 -519798.000000 0 0 1
6.998083 16.110712 -24.424423 30.084558 1.161012 2.518126 0.102740 -0.038323 803567.000000 0 0 1
7.511583 15.885712 -25.885533 31.286427 1.129102 2.545210 0.095630 -0.034047 -391693.000000 0 0 1
8.632583 16.741712 -26.210733 32.277065 1.094720 2.518460 0.085287 -0.025664 896789.000000 0 0 1
9.153883 16.611912 -27.539553 33.439141 1.067152 2.538477 0.091546 -0.027987 144387.000000 0 0 1
9.645283 15.244612 -27.987023 33.297194 1.006678 2.569042 0.095201 -0.037566 -784443.000000 0 0 1
10.722383 14.800112 -27.196523 32.766807 0.943829 2.549908 0.094893 -0.034164 -82259.900000 0 0 1
11.082283 13.471912 -27.422623 32.500918 0.882413 2.575027 0.089507 -0.031019 366803.000000 0 0 1
10.108283 12.456412 -26.716513 31.162664 0.889087 2.600846 0.091329 -0.031402 432378.000000 0 0 1
8.747283 12.562612 -27.064663 31.093892 0.962561 2.626846 0.109834 -0.040263 -213409.000000 0 0 1
7.996783 11.450412 -26.570923 30.017901 0.961156 2.657654 0.121271 -0.045286 -582652.000000 0 0 1
6.500283 11.636012 -26.622773 29.772848 1.061348 2.677429 0.080708 -0.040037 -1094710.000000 0 0 1
6.180183 12.610812 -25.567193 29.170337 1.115124 2.639296 0.092140 -0.031690 1462890.000000 0 0 1
4.732883 12.747012 -25.376203 28.789549 1.215279 2.649695 0.106973 -0.043079 1953290.000000 0 0 1
4.019283 13.721612 -26.365783 29.993195 1.285851 2.644681 0.112540 -0.031912 -513659.000000 0 0 1
3.867683 13.227412 -27.682333 30.923049 1.286327 2.679678 0.115475 -0.039896 188874.000000 0 0 1
3.932283 14.254212 -28.598283 32.194832 1.301623 2.664400 0.114397 -0.049991 -75580.800000 0 0 1
3.949683 13.755312 -30.069163 33.301098 1.291180 2.697377 0.139202 -0.045216 91958.200000 0 0 1
5.178883 13.158012 -30.444463 33.568131 1.195827 2.706772 0.121057 -0.042575 152752.000000 0 0 1
5.275383 13.027012 -31.860463 34.822719 1.186024 2.726139 0.116041 -0.046853 -873213.000000 0 0 1
6.456383 12.181212 -32.321903 35.139326 1.083416 2.738421 0.106725 -0.042391 344027.000000 0 0 1
7.785883 12.674912 -32.106333 35.384883 1.019946 2.707723 0.115864 -0.034206 638065.000000 0 0 1
8.270583 12.691112 -30.765433 34.292546 0.993239 2.684063 0.107112 -0.040134 -743493.000000 0 0 1
8.384183 11.312412 -30.077403 33.210169 0.932984 2.703750 0.107827 -0.040073 94637.200000 0 0 1
9.556883 10.554912 -30.406343 33.575078 0.834982 2.703641 0.085898 -0.038773 231778.000000 0 0 1
9.471483 9.315412 -29.723763 32.557456 0.777091 2.721285 0.090716 -0.041522 171664.000000 0 0 1
10.504983 8.178912 -29.951113 32.776797 0.661539 2.723316 0.075737 -0.039583 -343721.000000 0 0 1
11.791383 8.382812 -29.449343 32.811157 0.618022 2.684956 0.067191 -0.038334 -223410.000000 0 0 1
12.472083 7.125012 -29.319403 32.648829 0.519032 2.686052 0.040279 -0.026591 -730860.000000 0 0 1
13.942183 7.258312 -28.980383 32.968624 0.479992 2.644618 0.038000 -0.026158 -141748.000000 0 0 1
14.670383 6.046312 -28.576473 32.686279 0.390931 2.634716 0.026914 -0.019167 644013.000000 0 0 1
15.219183 5.199612 -29.597043 33.684484 0.329215 2.643834 0.037342 -0.013884 -800031.000000 0 0 1
15.963883 4.095012 -28.959133 33.320355 0.251103 2.624201 0.055532 -0.026558 -629253.000000 0 0 1
16.940983 4.593212 -28.074083 33.109646 0.264765 2.582831 0.014445 -0.010549 31248.700000 0 0 1
17.593083 3.513512 -27.442553 32.786507 0.197117 2.562588 0.026104 -0.016036 -281286.000000 0 0 1
18.141383 3.824412 -26.064303 31.985681 0.207769 2.523308 0.023542 -0.007709 259570.000000 0 0 1
19.207083 4.785712 -26.039063 32.708529 0.244192 2.491609 0.045943 -0.012674 485462.000000 0 0 1
19.573383 5.078612 -24.676223 31.903379 0.253867 2.455090 0.061009 -0.016139 -194920.000000 0 0 1
20.738983 6.070212 -24.613823 32.753521 0.284742 2.421108 0.066044 -0.020192 -172540.000000 0 0 1
20.273983 7.356012 -25.073503 33.073038 0.348059 2.431230 0.066030 -0.018240 397992.000000 0 0 1
21.252383 8.123912 -25.764093 34.372230 0.365119 2.418195 0.066473 -0.031911 -530825.000000 0 0 1
21.458883 7.887212 -27.290713 35.601612 0.352223 2.444261 0.097756 -0.032846 334469.000000 0 0 1
20.378983 8.233112 -28.167353 35.727956 0.383950 2.478974 0.074740 -0.020257 901894.000000 0 0 1
19.188983 7.444512 -28.056293 34.796457 0.370082 2.508662 0.069090 -0.009982 773897.000000 0 0 1
17.951583 8.041412 -28.827003 34.898707 0.421148 2.542804 0.053414 -0.008622 381685.000000 0 0 1
17.910783 7.895412 -30.191763 35.981609 0.415193 2.566402 0.042065 -0.010060 -366162.000000 0 0 1
17.004583 8.766212 -30.745083 36.211358 0.475987 2.584972 0.025468 -0.006138 -1009140.000000 0 0 1
16.627983 8.420112 -32.197823 37.203332 0.468740 2.616855 0.014065 0.000978 -419227.000000 0 0 1
15.829783 7.308412 -32.405173 36.797964 0.432531 2.647974 0.029683 -0.003390 965029.000000 0 0 1
14.427483 7.648512 -32.527093 36.395931 0.487464 2.676325 0.029532 -0.003963 1017200.000000 0 0 1
13.531583 6.490912 -33.037553 36.286576 0.447265 2.715196 0.040873 -0.013023 43453.000000 0 0 1
13.313383 5.499612 -32.062023 35.149185 0.391739 2.719344 0.043839 -0.015984 -494099.000000 0 0 1
12.397683 4.571812 -32.497023 35.080771 0.353292 2.755397 0.034227 -0.021685 -543455.000000 0 0 1
12.183483 3.459412 -31.402843 33.860646 0.276661 2.758236 0.057032 -0.023724 -309077.000000 0 0 1
13.293883 2.637712 -31.145653 33.966697 0.195871 2.731156 0.061840 -0.032772 -99416.200000 0 0 1
13.063083 1.620312 -30.149873 32.898091 0.123407 2.729945 0.071573 -0.030696 -289068.000000 0 0 1
12.437183 0.331012 -30.611373 33.043142 0.026608 2.755550 0.084674 -0.029989 -175864.000000 0 0 1
13.313183 -0.528388 -31.317473 34.033868 -0.039668 2.739350 0.086263 -0.032322 476945.000000 0 0 1
14.143783 -1.364988 -30.486953 33.635756 -0.096210 2.705444 0.094805 -0.040073 649598.000000 0 0 1
14.597083 -2.739688 -31.133013 34.494133 -0.185529 2.696474 0.094798 -0.038080 262172.000000 0 0 1
13.579383 -3.717788 -31.074273 34.114982 -0.267233 2.716181 0.098491 -0.032018 129602.000000 0 0 1
13.794583 -4.825688 -31.964603 35.147029 -0.336519 2.712765 0.114683 -0.034766 43297.400000 0 0 1
12.952183 -6.089688 -31.652473 34.737910 -0.439498 2.716934 0.115768 -0.036389 96684.200000 0 0 1
13.398583 -6.687688 -30.421623 33.907556 -0.462955 2.684168 0.132401 -0.031799 301826.000000 0 0 1
12.948983 -8.000388 -30.368323 33.969360 -0.553433 2.676972 0.148948 -0.041584 7506.800000 0 0 1
13.391783 -8.605088 -29.028413 33.106437 -0.571131 2.640006 0.113284 -0.034427 253435.000000 0 0 1
14.768283 -8.944988 -28.905553 33.669660 -0.544592 2.603142 0.118973 -0.036450 434747.000000 0 0 1
14.994483 -9.676588 -27.677233 32.931749 -0.573095 2.568895 0.124070 -0.041501 -288.891000 0 0 1
14.813683 -11.195588 -27.731623 33.374081 -0.647177 2.551579 0.105903 -0.032429 524197.000000 0 0 1
13.446383 -11.550988 -27.964783 33.109812 -0.709719 2.576627 0.095371 -0.038244 509081.000000 0 0 1
13.272983 -12.839288 -28.336453 33.822684 -0.768791 2.564027 0.085154 -0.039873 78269.700000 0 0 1
-10.046417 -3.276388 -17.606123 20.533893 0.315249 2.601027 0.013972 -0.006429 311244.000000 0 1 0
-10.875317 -2.672688 -18.603723 21.714380 0.240982 2.599724 0.027740 -0.014454 933142.000000 0 1 0
-11.966217 -3.538288 -18.997723 22.729349 0.287498 2.560427 0.034826 -0.014568 60411.800000 0 1 0
-12.845917 -3.094188 -20.131823 24.080736 0.236367 2.560774 0.037802 -0.025939 -221551.000000 0 1 0
-13.796017 -2.098788 -19.739423 24.173949 0.150972 2.526219 0.037018 -0.024739 363416.000000 0 1 0
-14.637817 -1.740488 -20.832423 25.520282 0.118348 2.525787 0.038022 -0.014325 655762.000000 0 0 1
-15.560317 -0.508088 -20.525323 25.761803 0.032641 2.492669 0.041133 -0.011883 562335.000000 0 0 1
-14.862517 0.715912 -20.757823 25.540050 -0.048132 2.519663 0.042343 -0.011803 -189500.000000 0 0 1
-15.576617 1.823112 -20.347323 25.689848 -0.116511 2.484936 0.040915 -0.005511 -501049.000000 0 0 1
-15.198617 3.157312 -20.998323 26.113141 -0.204824 2.505004 0.067009 -0.014676 -513177.000000 0 0 1
-13.918317 3.618912 -20.720023 25.221725 -0.254378 2.534859 0.086731 -0.019375 -383614.000000 0 0 1
-13.746117 4.991812 -21.187523 25.744612 -0.348336 2.537449 0.104101 -0.027477 547704.000000 0 0 1
-12.379517 5.634512 -20.766823 24.824606 -0.427127 2.561737 0.096439 -0.031595 552226.000000 0 1 0
-12.430617 5.953012 -19.422323 23.815650 -0.446625 2.524437 0.106920 -0.042022 108035.000000 0 1 0
-11.158417 6.338612 -18.976123 22.908110 -0.516600 2.546967 0.082648 -0.030468 -314036.000000 0 1 0
-11.176317 6.991712 -17.575723 21.970437 -0.559018 2.498044 0.081277 -0.031970 -22638.900000 0 1 0
-11.783317 8.280912 -17.576823 22.723661 -0.612580 2.455146 0.087215 -0.039784 189931.000000 0 1 0
-13.072817 8.314012 -16.997523 22.998633 -0.566454 2.402480 0.115123 -0.029611 170440.000000 0 1 0
-13.718217 9.772412 -17.008623 23.937058 -0.618978 2.361085 0.120813 -0.034534 132485.000000 0 1 0
-13.000917 10.628812 -16.135723 23.288560 -0.685347 2.336245 0.082896 -0.027460 207905.000000 0 1 0
-13.600917 11.886512 -16.219723 24.276604 -0.718235 2.302478 0.088205 -0.036801 -230832.000000 0 1 0
-12.992317 13.046012 -15.413623 24.012049 -0.787460 2.267786 0.087060 -0.033507 -193749.000000 0 1 0
-13.044117 12.842512 -13.982523 23.034540 -0.777610 2.223107 0.104653 -0.038539 133472.000000 0 1 0
-12.371717 13.910212 -13.335723 22.899670 -0.843870 2.192418 0.085962 -0.040029 -617716.000000 0 1 0
-12.940717 14.248512 -11.921323 22.640675 -0.833461 2.125327 0.080840 -0.043115 680562.000000 0 1 0
-14.240717 14.820712 -11.798123 23.699097 -0.805353 2.091891 0.072488 -0.034321 1044270.000000 0 1 0
-15.341817 13.980012 -12.182223 24.066961 -0.738988 2.101546 0.069861 -0.027454 -198928.000000 0 1 0
-16.663917 14.368912 -11.492923 24.824162 -0.711578 2.052143 0.030707 -0.017598 -156845.000000 0 1 0
-17.735717 13.577912 -11.912623 25.314540 -0.653391 2.060749 0.032764 -0.014986 -356369.000000 0 0 1
-18.957417 13.973112 -11.351023 26.143397 -0.635180 2.019928 0.091723 -0.021480 644126.000000 0 0 1
-20.280817 13.377312 -11.973523 27.085591 -0.583097 2.028693 0.082345 -0.029376 646679.000000 0 0 1
-20.542217 12.082012 -11.599023 26.504622 -0.531665 2.023749 0.093548 -0.032339 905946.000000 0 0 1
-21.710917 11.571112 -12.280223 27.496516 -0.489669 2.033769 0.134990 -0.022745 596755.000000 0 0 1
-22.268917 10.229612 -11.695023 27.153695 -0.430616 2.016062 0.126315 -0.021830 -70071.900000 0 0 1
-21.470817 9.096312 -12.006523 26.227761 -0.400735 2.046292 0.108837 -0.023743 278599.000000 0 0 1
-21.832317 7.969312 -11.251323 25.821546 -0.349996 2.021650 0.095948 -0.021514 -182890.000000 0 0 1
-20.889817 6.741212 -11.447823 24.756434 -0.312153 2.051517 0.124523 -0.023889 71087.300000 0 1 0
-21.125817 6.044812 -12.639623 25.349555 -0.278688 2.092794 0.148984 -0.022525 207664.000000 0 0 1
-20.050717 5.170912 -12.835823 24.362428 -0.252392 2.125710 0.158113 -0.028377 -163061.000000 0 1 0
-20.383517 3.934812 -13.753123 24.902186 -0.190693 2.155900 0.180521 -0.039253 -187107.000000 0 1 0
-21.390617 3.062712 -13.316023 25.382182 -0.142214 2.123066 0.165349 -0.041279 161085.000000 0 0 1
-21.346517 1.943212 -14.182623 25.702075 -0.090782 2.155328 0.144580 -0.046227 484211.000000 0 0 1
-22.296717 0.751312 -13.693923 26.176928 -0.033683 2.121315 0.184683 -0.043749 288755.000000 0 0 1
-23.489017 0.684012 -14.415223 27.568105 -0.029112 2.121040 0.133590 -0.039361 -158870.000000 0 0 1
-24.045517 -0.610688 -14.527023 28.099719 0.025392 2.114117 0.129054 -0.049265 103315.000000 0 0 1
-25.348077 -0.689888 -15.369123 29.651490 0.027210 2.115688 0.128211 -0.040320 571487.000000 0 0 1
-26.441957 -0.062988 -14.675623 30.241610 0.002382 2.077479 0.159099 -0.053786 1314630.000000 0 0 1
-27.695987 -0.505288 -15.275423 31.633235 0.018242 2.074750 0.131851 -0.038713 739338.000000 0 0 1
-28.893167 -0.102288 -14.418223 32.291031 0.003540 2.033656 0.150684 -0.039528 -618962.000000 0 0 1
-29.017267 -0.680588 -13.123523 31.854228 0.023450 1.995430 0.164198 -0.038233 176131.000000 0 0 1
-30.130807 -0.201488 -12.395423 32.581477 0.006687 1.961073 0.193698 -0.041357 94261.000000 0 0 1
-30.093357 -0.675288 -10.916023 32.019146 0.022436 1.918694 0.184408 -0.043574 -120737.000000 0 0 1
-30.297087 -2.066888 -10.579823 32.157707 0.068115 1.906039 0.201860 -0.037883 501697.000000 0 0 1
-29.310287 -2.967488 -11.065423 31.469707 0.100900 1.930099 0.211982 -0.042676 -263773.000000 0 0 1
-29.540127 -4.437388 -10.720523 31.737031 0.149101 1.915367 0.216872 -0.041081 -643256.000000 0 0 1
-30.646697 -5.009188 -11.360923 33.066336 0.162017 1.921522 0.202151 -0.033634 -68633.100000 0 0 1
-30.919917 -6.338888 -10.966423 33.413847 0.202208 1.905194 0.205223 -0.032700 -85848.300000 0 0 1
-30.229067 -7.563788 -11.698523 33.284573 0.245182 1.929937 0.210901 -0.034651 1718390.000000 0 0 1
-28.791557 -7.508388 -11.440823 31.878238 0.255103 1.937876 0.163220 -0.022188 1469050.000000 0 0 1
-28.101687 -8.613588 -11.936023 31.723293 0.297423 1.956546 0.161604 -0.027705 -459335.000000 0 0 1
-26.622647 -8.742588 -11.576223 30.318429 0.317294 1.962562 0.154086 -0.032237 -705086.000000 0 0 1
-25.818227 -7.701888 -12.105423 29.537115 0.289908 1.993072 0.130552 -0.029346 613376.000000 0 0 1
-24.494117 -7.637888 -11.593123 28.154921 0.302270 1.995183 0.111428 -0.039096 138890.000000 0 0 1
-24.257117 -7.318488 -10.056523 27.259891 0.293020 1.948635 0.112324 -0.042698 -661316.000000 0 0 1
-24.690617 -6.052288 -9.493923 27.136531 0.240385 1.928215 0.120375 -0.027624 1434840.000000 0 0 1
-26.110647 -5.835588 -9.394923 28.356384 0.219881 1.908494 0.136081 -0.030762 487613.000000 0 0 1
-26.469187 -4.566888 -8.660623 28.221990 0.170854 1.882704 0.150736 -0.031689 -669246.000000 0 0 1
-26.197957 -4.573788 -7.296723 27.577067 0.172844 1.838579 0.150173 -0.029940 380826.000000 0 0 1
-26.217487 -3.287088 -6.771323 27.276590 0.124727 1.821666 0.184240 -0.036568 -24795.500000 0 0 1
-26.136967 -3.100988 -5.223423 26.833585 0.118092 1.766707 0.181631 -0.037069 -7898.560000 0 0 1
-24.843317 -3.397088 -4.743423 25.519221 0.135898 1.757760 0.143294 -0.028205 121026.000000 0 0 1
-24.684417 -3.192288 -3.336223 25.112577 0.128610 1.704041 0.115762 -0.023921 -932358.000000 0 0 1
-23.250817 -3.462088 -2.951623 23.691741 0.147816 1.695705 0.099352 -0.017142 -873010.000000 0 1 0
-22.943717 -4.817588 -3.133923 23.652585 0.206967 1.703685 0.104761 -0.016599 558355.000000 0 1 0
-21.672817 -5.082488 -2.544023 22.405685 0.230347 1.684585 0.081275 -0.014957 204990.000000 0 1 0
-21.419917 -6.611588 -2.434523 22.548899 0.299388 1.678974 0.089442 -0.022909 12881.200000 0 1 0
-22.193917 -7.170888 -1.379423 23.364383 0.312514 1.629870 0.099977 -0.019829 594878.000000 0 1 0
-22.559317 -8.488388 -1.690023 24.162609 0.359883 1.640797 0.102992 -0.029508 -167861.000000 0 1 0
-23.007817 -9.316588 -0.473623 24.827057 0.384750 1.589874 0.121109 -0.032288 47587.800000 0 1 0
-21.969217 -9.694588 0.421977 24.016861 0.415579 1.553225 0.094716 -0.025664 421467.000000 0 1 0
-22.396417 -10.730088 1.249977 24.865573 0.446787 1.520506 0.074059 -0.018266 -333792.000000 0 1 0
-21.232517 -11.475788 1.902977 24.210221 0.495506 1.492113 0.071417 -0.015413 -393305.000000 0 1 0
-20.537617 -12.267488 0.964177 23.941901 0.538445 1.530514 0.073961 -0.013960 -132417.000000 0 1 0
-19.342317 -12.678588 1.553077 23.179385 0.580221 1.503744 0.053367 -0.016712 -707236.000000 0 1 0
-18.725317 -13.865688 0.807477 23.314091 0.637379 1.536155 0.058375 -0.012719 -295651.000000 0 1 0
-19.383217 -15.130888 0.894477 24.605954 0.662810 1.534436 0.067164 -0.009251 450535.000000 0 1 0
-18.765717 -16.180288 0.162177 24.778623 0.711549 1.564251 0.061569 -0.023068 312825.000000 0 1 0
-17.556017 -17.005788 0.706377 24.452189 0.769479 1.541904 0.072218 -0.012522 618796.000000 0 1 0
-16.379317 -16.222888 0.831277 23.068488 0.780600 1.534753 0.061349 -0.013365 1117700.000000 0 1 0
-15.262017 -16.843288 1.540677 22.781554 0.834611 1.503116 0.067145 -0.015794 1276520.000000 0 1 0
-15.222917 -16.619788 3.082177 22.747624 0.829238 1.434884 0.080706 -0.020834 -56144.500000 0 1 0
-15.047617 -15.255188 3.414877 21.698224 0.792248 1.412759 0.066658 -0.021737 -23492.000000 0 1 0
-14.207317 -15.076888 4.518277 21.203189 0.815084 1.356055 0.052326 -0.020091 -53362.400000 0 1 0
-14.813617 -15.501888 5.893477 22.237016 0.808098 1.302561 0.086138 -0.020747 -431048.000000 0 1 0
-15.849117 -14.721888 6.435977 22.568790 0.748542 1.281611 0.085006 -0.019943 141473.000000 0 1 0
-16.026517 -14.902688 7.831677 23.243806 0.749079 1.227136 0.095878 -0.022966 -226613.000000 0 1 0
-17.024217 -16.006888 8.253877 24.782472 0.754609 1.231257 0.088165 -0.015094 -390946.000000 0 1 0
-16.605317 -17.334388 7.960077 25.289927 0.806876 1.250600 0.081578 -0.007048 -50784.200000 0 0 1
-17.312717 -18.331688 8.650477 26.657301 0.813978 1.240306 0.095848 -0.022602 -262846.000000 0 0 1
-16.915717 -18.577988 10.110077 27.083146 0.832197 1.188235 0.085957 -0.017033 190735.000000 0 0 1
-15.640017 -19.192288 10.230577 26.788407 0.887029 1.178942 0.064865 -0.012512 259827.000000 0 0 1
-15.353017 -19.705788 11.556177 27.524143 0.908922 1.137510 0.061583 -0.014871 314376.000000 0 0 1
-13.987817 -20.458288 11.564977 27.348661 0.971078 1.134184 0.063935 -0.013531 343672.000000 0 0 1
-12.887417 -19.600488 11.558277 26.150687 0.989163 1.112983 0.067729 -0.019624 -609078.000000 0 0 1
-11.683117 -20.186188 11.969677 26.215465 1.046135 1.096640 0.075191 -0.022643 964159.000000 0 0 1
-10.527617 -19.159888 12.382677 25.124942 1.068367 1.055441 0.079782 -0.028950 1006500.000000 0 0 1
-9.786117 -18.723588 11.237877 23.929704 1.089184 1.081936 0.069829 -0.029180 519417.000000 0 1 0
-8.649117 -18.024188 11.788877 23.208968 1.123389 1.037999 0.065030 -0.021188 651679.000000 0 1 0
-7.692417 -17.401288 10.745877 21.850675 1.154565 1.056655 0.046568 -0.020458 -58268.900000 0 1 0
-6.691917 -18.209588 10.215677 21.925577 1.218622 1.086116 0.044604 -0.023700 -489099.000000 0 1 0
-5.991817 -17.610988 9.170077 20.739795 1.242850 1.112803 0.035010 -0.015452 -355962.000000 0 1 0
-4.789017 -18.413188 8.686777 20.915073 1.316347 1.142484 0.026966 -0.015333 -205073.000000 0 1 0
-3.564017 -18.166588 9.327577 20.729950 1.377071 1.104080 0.032097 -0.020474 -231704.000000 0 1 0
-2.506317 -18.796588 8.636277 20.836954 1.438239 1.143437 0.038483 -0.017575 292961.000000 0 1 0
-1.177817 -18.974188 9.406977 21.210806 1.508801 1.111297 0.043645 -0.018093 738613.000000 0 1 0
-0.165417 -19.511188 8.534077 21.296580 1.562318 1.158488 0.048509 -0.012439 13544.900000 0 1 0
1.034083 -19.812788 9.195577 21.867203 -1.518651 1.136779 0.053749 -0.012139 -288711.000000 0 1 0
2.150383 -20.305688 8.277077 22.033046 -1.465289 1.185680 0.060912 -0.025201 -343068.000000 0 1 0
2.071383 -21.615588 7.722777 23.047030 -1.475260 1.229098 0.061574 -0.021053 -227791.000000 0 1 0
2.199683 -22.669588 8.691377 24.378041 -1.474067 1.206251 0.071542 -0.025889 -149888.000000 0 1 0
1.675083 -24.038588 8.268377 25.475983 -1.501226 1.240254 0.054597 -0.028555 922.482000 0 0 1
1.693283 -24.908488 9.349677 26.659266 -1.502921 1.212467 0.080002 -0.033662 -191766.000000 0 0 1
1.339983 -26.252728 9.048177 27.800554 -1.519799 1.239290 0.085085 -0.029502 -542940.000000 0 0 1
1.283783 -27.148748 10.282377 29.059076 -1.523545 1.209119 0.111933 -0.041375 199862.000000 0 0 1
0.340783 -26.942368 11.308177 29.221263 -1.558148 1.173437 0.100114 -0.052518 296875.000000 0 0 1
-1.029917 -27.181898 10.942777 29.319971 1.532925 1.188320 0.089467 -0.045425 490741.000000 0 0 1
-1.820317 -27.423868 12.241177 30.087016 1.504516 1.151783 0.089308 -0.048524 -434390.000000 0 0 1
-1.485517 -28.659648 12.846377 31.442195 1.519010 1.149908 0.086074 -0.052088 -155089.000000 0 0 1
-1.808617 -28.657118 14.223577 32.043902 1.507768 1.110875 0.082977 -0.056783 -602115.000000 0 0 1
-1.006517 -29.683738 15.007777 33.277181 1.536901 1.102919 0.071196 -0.036498 113093.000000 0 0 1
-1.286517 -29.408478 16.406277 33.699847 1.527078 1.062333 0.087948 -0.037295 169641.000000 0 0 1
-0.618517 -30.293338 17.273377 34.877478 1.550382 1.052664 0.091535 -0.030313 6872.960000 0 0 1
-1.045717 -29.934218 18.731477 35.327315 1.535877 1.011929 0.102412 -0.032810 -185288.000000 0 0 1
-2.426617 -30.144878 18.863577 35.643186 1.490471 1.013099 0.086650 -0.028592 -396713.000000 0 0 1
-2.741717 -29.769448 20.154377 36.054625 1.478957 0.977622 0.100060 -0.036047 -544465.000000 0 0 1
-4.245617 -29.904738 20.378277 36.436147 1.429767 0.977270 0.096675 -0.038392 -976086.000000 0 0 1
-5.061817 -28.969918 19.702577 35.398725 1.397816 0.980521 0.081438 -0.038181 40063.700000 0 0 1
-6.402917 -28.970378 20.151277 35.865780 1.353277 0.974173 0.089963 -0.041681 310834.000000 0 0 1
-6.614117 -28.036648 21.378777 35.872724 1.339122 0.932333 0.126822 -0.048555 -361009.000000 0 0 1
-5.679117 -28.287048 22.417777 36.537189 1.372663 0.910235 0.124594 -0.043032 122505.000000 0 0 1
-5.980917 -27.378548 23.429677 36.528154 1.355722 0.874456 0.141307 -0.044592 -456985.000000 0 0 1
-5.045617 -27.330478 24.652877 37.150742 1.388237 0.845188 0.151490 -0.038408 -188353.000000 0 0 1
-5.071417 -28.425218 25.535677 38.545857 1.394241 0.846678 0.148767 -0.038697 658676.000000 0 0 1
-4.106417 -29.415828 25.114677 38.896023 1.432094 0.868873 0.144320 -0.037948 300745.000000 0 0 1
-4.080517 -30.705038 26.025377 40.457017 1.438676 0.872016 0.137059 -0.031781 56700.700000 0 0 1
-3.478617 -30.617578 27.295277 41.165144 1.457666 0.845887 0.136923 -0.041156 40460.300000 0 0 1
-3.774717 -31.763898 28.098377 42.575962 1.452514 0.850033 0.121543 -0.038222 -142994.000000 0 0 1
-3.289817 -31.706158 29.575777 43.483675 1.467407 0.822818 0.134739 -0.039796 -81475.600000 0 0 1
-1.896917 -31.879248 29.671977 43.592557 1.511363 0.822125 0.124874 -0.037293 -58579.600000 0 0 1
-1.397817 -31.769888 30.981277 44.397289 1.526827 0.798448 0.127068 -0.037331 -305710.000000 0 0 1
-28.919247 2.857012 -9.247423 30.495904 -0.098473 1.878882 0.167375 -0.036380 -1517870.000000 0 0 1
-29.835197 2.404212 -10.153623 31.607203 -0.080409 1.897839 0.156930 -0.034924 -539650.000000 0 0 1
-30.424577 3.613212 -10.604123 32.421561 -0.118206 1.903998 0.144150 -0.036003 -405591.000000 0 0 1
-31.315807 3.415012 -11.825923 33.648098 -0.108622 1.929925 0.151934 -0.045825 142510.000000 0 0 1
-32.528567 2.681212 -11.648623 34.655259 -0.082240 1.913600 0.178727 -0.054085 687969.000000 0 0 1
-33.240867 2.637812 -12.874223 35.744355 -0.079189 1.939252 0.173101 -0.045944 442632.000000 0 0 1
-34.591036 1.865512 -12.843023 36.945407 -0.053878 1.925830 0.147988 -0.038572 465065.000000 0 0 1
-34.347800 0.474912 -12.735823 36.636022 -0.013826 1.925840 0.167689 -0.036341 797162.000000 0 0 1
-35.594855 -0.229788 -12.721623 37.800611 0.006456 1.914042 0.150680 -0.030129 798928.000000 0 0 1
-35.363310 -1.677288 -12.191723 37.443492 0.047395 1.902446 0.168911 -0.031466 70540.000000 0 0 1
-34.960995 -2.603688 -13.169423 37.449753 0.074337 1.930136 0.164495 -0.023270 205119.000000 0 0 1
-34.774243 -3.876888 -12.607523 37.191771 0.111029 1.916636 0.176396 -0.028038 12533.600000 0 0 1
-35.217377 -4.994988 -13.571923 38.071126 0.140893 1.935303 0.164280 -0.019345 64085.100000 0 0 1
-35.047868 -6.292288 -13.010923 37.910817 0.177642 1.921116 0.175534 -0.027894 186489.000000 0 0 1
-35.358506 -7.233688 -14.013323 38.715932 0.201797 1.941158 0.170673 -0.021063 -525710.000000 0 0 1
-35.295394 -8.714688 -13.547623 38.797535 0.242066 1.927500 0.177958 -0.022778 1357660.000000 0 0 1
-34.025277 -9.319488 -13.122323 37.639974 0.267342 1.926902 0.169419 -0.021682 2050440.000000 0 0 1
-32.943307 -9.395288 -14.038723 37.021867 0.277820 1.959729 0.163906 -0.026470 128900.000000 0 0 1
-31.869067 -10.453188 -13.714323 36.235193 0.316947 1.958951 0.167142 -0.031690 -27046.100000 0 0 1
-32.352377 -11.794688 -13.836323 37.111114 0.349595 1.952859 0.157066 -0.030066 686944.000000 0 0 1
-31.278157 -12.733388 -13.660023 36.428814 0.386613 1.955170 0.179678 -0.026869 354178.000000 0 0 1
-31.534507 -14.133388 -14.322123 37.407232 0.421346 1.963698 0.187863 -0.031197 -253159.000000 0 0 1
-31.304267 -14.024288 -15.738023 37.740206 0.421189 2.000949 0.180508 -0.037924 122584.000000 0 0 1
-31.201307 -15.167388 -16.607623 38.462766 0.452477 2.017267 0.170844 -0.039964 371651.000000 0 0 1
-30.071577 -16.191188 -16.216223 37.807674 0.493910 2.014086 0.157736 -0.034102 -519985.000000 0 0 1
-28.784097 -15.756588 -16.440023 36.702434 0.500850 2.035242 0.160641 -0.034279 -1381790.000000 0 0 1
-27.874157 -16.805988 -16.279623 36.392801 0.542566 2.034575 0.156080 -0.036057 -781691.000000 0 0 1
-26.450477 -16.351688 -16.511823 35.208603 0.553695 2.058922 0.146033 -0.045879 -767295.000000 0 0 1
-26.219547 -16.020188 -17.865223 35.542612 0.548470 2.097449 0.134742 -0.049444 -1095420.000000 0 0 1
-24.883717 -16.017288 -18.200123 34.741867 0.571923 2.122181 0.086034 -0.036918 -1257140.000000 0 0 1
-24.476617 -15.545888 -19.626023 35.013714 0.565852 2.165815 0.092141 -0.037444 144623.000000 0 0 1
-25.026217 -16.367788 -20.694823 36.366079 0.579200 2.176170 0.090961 -0.046207 1023510.000000 0 0 1
-26.428097 -16.118888 -20.905623 37.353821 0.547678 2.164778 0.090312 -0.054456 517018.000000 0 0 1
-27.183377 -17.225588 -21.718923 38.824844 0.564817 2.164468 0.101382 -0.050402 39874.700000 0 0 1
-26.762697 -17.352188 -23.045123 39.349944 0.575230 2.196473 0.098316 -0.028614 140549.000000 0 0 1
-27.355097 -18.486888 -23.678323 40.629168 0.594307 2.192956 0.105288 -0.022205 -112305.000000 0 0 1
-26.675177 -18.796288 -25.025723 41.123622 0.613831 2.225027 0.097406 -0.018145 1643710.000000 0 0 1
-25.275837 -19.204088 -25.111033 40.475040 0.649731 2.240059 0.077098 -0.020300 1296780.000000 0 0 1
-25.036117 -20.515888 -24.667823 40.696564 0.686490 2.221995 0.068646 -0.008151 14045.100000 0 0 1
-23.534117 -20.916688 -24.588723 39.949566 0.726582 2.233809 0.062690 -0.001359 345385.000000 0 0 1
-22.961917 -20.829688 -25.855673 40.368817 0.736746 2.265928 0.066018 -0.012273 -30964.200000 0 0 1
-21.559617 -21.036388 -25.827673 39.678904 0.773115 2.279588 0.058010 -0.011021 154988.000000 0 0 1
-20.899017 -20.914988 -27.182273 40.163187 0.785780 2.314198 0.067285 -0.015171 -311091.000000 0 0 1
-21.077117 -22.021388 -28.013393 41.399717 0.807304 2.314009 0.092323 -0.009621 209300.000000 0 0 1
-22.055917 -21.886688 -29.037623 42.528510 0.781547 2.322357 0.102496 -0.013360 -219492.000000 0 0 1
-21.338217 -21.897488 -30.393023 43.110965 0.798333 2.353213 0.100080 -0.025415 62141.500000 0 0 1
-20.940717 -23.238088 -30.741053 43.858120 0.837353 2.347484 0.091967 -0.027371 48859.700000 0 0 1
-20.468617 -23.256588 -32.086983 44.602776 0.849073 2.373726 0.086047 -0.022126 197149.000000 0 0 1
-19.766317 -24.591688 -32.446763 45.257605 0.893755 2.370192 0.088214 -0.022861 122033.000000 0 0 1
-19.031317 -24.614288 -33.684083 45.854898 0.912623 2.395844 0.082895 -0.026007 327312.000000 0 0 1
-19.826817 -24.469088 32.969120 45.593879 0.889818 0.762511 0.100649 -0.029714 -628279.000000 0 0 1
-19.060517 -24.306288 31.628674 44.209410 0.905776 0.773559 0.102347 -0.028629 120063.000000 0 0 1
-18.351617 -23.055588 31.565294 43.182285 0.898516 0.751043 0.070943 -0.024470 308817.000000 0 0 1
-17.606417 -22.836288 30.374854 41.882141 0.914000 0.759405 0.070520 -0.021643 225197.000000 0 0 1
-16.835917 -21.515988 30.229994 40.746023 0.906827 0.734878 0.057199 -0.011846 -16274.100000 0 0 1
-17.716217 -20.411288 30.197054 40.525882 0.855967 0.730066 0.062811 -0.016633 -36637.900000 0 0 1
-17.088317 -19.191188 29.981984 39.487107 0.843296 0.708582 0.059073 -0.014852 -269978.000000 0 0 1
-16.219217 -18.618288 31.116354 39.723181 0.854154 0.670792 0.064816 -0.011249 521090.000000 0 0 1
-15.572317 -17.352488 30.795044 38.625647 0.839413 0.648039 0.067954 -0.013055 361238.000000 0 0 1
-14.621417 -16.922688 31.748514 38.834667 0.858223 0.613687 0.061656 -0.013331 202525.000000 0 0 1
-14.030317 -15.476888 31.568384 37.854283 0.834383 0.584578 0.057668 -0.019067 53072.100000 0 0 1
-13.178017 -15.372088 30.464324 36.579178 0.862097 0.586591 0.066206 -0.027556 -78470.700000 0 0 1
-12.707717 -14.047188 30.303404 35.736618 0.835421 0.558662 0.057437 -0.027640 -328578.000000 0 0 1
-11.709917 -13.875388 29.117594 34.314469 0.869834 0.557555 0.049852 -0.017977 566887.000000 0 0 1
-10.952317 -12.663988 29.031004 33.513117 0.857750 0.523134 0.066984 -0.022443 208159.000000 0 0 1
-9.907717 -12.608888 29.981804 34.000816 0.904791 0.491138 0.054923 -0.025809 -451187.000000 0 0 1
-9.345017 -11.210588 30.275824 33.610000 0.875908 0.449192 0.059256 -0.015082 242934.000000 0 0 1
-10.231217 -10.347188 31.015534 34.259385 0.791034 0.438676 0.053314 -0.008617 321268.000000 0 0 1
-9.703717 -9.063788 31.214054 33.920960 0.751314 0.402206 0.046307 -0.008721 -235540.000000 0 0 1
-10.620317 -8.240588 32.108915 34.809206 0.659889 0.396480 0.029835 -0.009070 -97326.300000 0 0 1
-11.807817 -7.775688 31.508114 34.534723 0.582342 0.421783 0.038248 -0.016476 -29650.200000 0 0 1
-12.787517 -7.278588 32.400053 35.584573 0.517461 0.426284 0.035236 -0.020399 220229.000000 0 0 1
-12.505117 -5.827688 32.975500 35.745258 0.436100 0.396252 0.033057 -0.016022 -398126.000000 0 0 1
-12.511417 -4.869488 31.947509 34.653871 0.371165 0.397832 0.035811 -0.019098 265963.000000 0 0 1
-12.772117 -3.526088 32.348833 34.957220 0.269367 0.388750 0.042261 -0.022515 -349644.000000 0 0 1
-12.193117 -2.490988 31.358074 33.737307 0.201522 0.377802 0.049603 -0.021376 667741.000000 0 0 1
-10.777017 -2.301088 31.418274 33.294850 0.210359 0.337342 0.053683 -0.020009 746847.000000 0 0 1
-10.315817 -1.183788 30.651314 32.362331 0.114255 0.326629 0.051139 -0.014700 -142192.000000 0 0 1
-8.810417 -0.922088 30.804304 32.052750 0.104279 0.280019 0.046975 -0.013163 -174821.000000 0 0 1
-8.450617 -0.406988 32.071827 33.168971 0.048124 0.257920 0.060186 -0.027080 536514.000000 0 0 1
-7.059917 -0.137888 32.265232 33.028875 0.019529 0.215454 0.078102 -0.029432 496337.000000 0 0 1
-6.699117 0.481612 33.602602 34.267258 -0.071768 0.197278 0.112719 -0.047056 -424119.000000 0 0 1
-7.215717 1.761612 33.909294 34.713254 -0.239451 0.215639 0.118412 -0.036131 100930.000000 0 0 1
-6.670917 2.839812 33.106222 33.890818 -0.402464 0.215595 0.118223 -0.037644 -122920.000000 0 0 1
-7.353417 4.221212 33.361832 34.422423 -0.521118 0.248880 0.104832 -0.028661 443592.000000 0 0 1
-8.642317 4.138412 32.777682 34.149561 -0.446588 0.284410 0.079483 -0.016872 150047.000000 0 0 1
-9.446317 5.283012 33.004966 34.734289 -0.509930 0.316878 0.066458 -0.003691 239893.000000 0 0 1
-10.659617 5.373812 32.046122 34.197356 -0.466945 0.356587 0.049954 -0.000257 203201.000000 0 0 1
-11.645117 6.239012 32.568273 35.145788 -0.491846 0.385363 0.067796 -0.001057 239456.000000 0 0 1
-12.545317 6.689512 31.570224 34.623887 -0.489875 0.423138 0.040484 0.006059 188842.000000 0 0 1
-13.330617 8.010412 31.814969 35.412770 -0.541083 0.454675 0.054086 -0.006851 290970.000000 0 0 1
-14.324117 7.889512 32.814270 36.663347 -0.503446 0.462330 0.055157 -0.008668 662462.000000 0 0 1
-15.245417 9.001612 32.800592 37.273725 -0.533366 0.494950 0.054401 -0.004467 548297.000000 0 0 1
-16.177817 9.057612 -33.817723 38.566831 -0.510396 2.640088 0.056805 -0.006305 206113.000000 0 0 1
-15.483017 9.377212 -32.631923 37.316193 -0.544560 2.635140 0.060928 -0.007287 425402.000000 0 0 1
-16.442017 9.921812 -31.719403 37.079681 -0.542947 2.597194 0.073637 -0.010395 135037.000000 0 0 1
-15.734217 10.168512 -30.295013 35.619545 -0.573747 2.587763 0.096523 -0.017975 1874190.000000 0 0 1
-14.713017 11.236212 -30.340393 35.542436 -0.652206 2.593728 0.087348 -0.022746 790947.000000 0 0 1
-13.456917 10.855712 -30.856663 35.370450 -0.678814 2.630857 0.094851 -0.027470 599956.000000 0 0 1
-12.379317 12.050712 -30.771413 35.289474 -0.771948 2.630011 0.090771 -0.027821 763152.000000 0 0 1
-12.705717 13.013912 -31.747033 36.587856 -0.797380 2.621339 0.081519 -0.024565 115316.000000 0 0 1
-11.851517 14.139312 -31.785933 36.752199 -0.873195 2.615691 0.074802 -0.030594 -107379.000000 0 0 1
-12.188217 15.200312 -30.678673 36.342579 -0.894934 2.575778 0.085972 -0.030701 1174840.000000 0 0 1
-13.510417 15.772512 -30.825153 37.168448 -0.862495 2.548716 0.075365 -0.026296 1136160.000000 0 0 1
-13.718217 16.813012 -29.823743 36.882550 -0.886418 2.512589 0.060124 -0.018247 430673.000000 0 0 1
-15.155917 17.397212 -29.974503 37.826388 -0.854140 2.485568 0.054613 -0.023117 244827.000000 0 0 1
-15.249617 18.374512 -31.049533 39.169465 -0.878068 2.486017 0.056254 -0.016637 637801.000000 0 0 1
-16.560317 18.859912 -31.378603 40.181551 -0.850230 2.466935 0.050720 -0.014256 954217.000000 0 0 1
-17.200317 19.947912 -30.450463 40.261654 -0.859227 2.428457 0.043531 -0.011642 84814.600000 0 0 1
-16.631617 21.243612 -30.630613 40.818331 -0.906570 2.419483 0.041557 -0.006003 221334.000000 0 0 1
-17.398217 22.241712 -30.000793 41.199991 -0.906983 2.386451 0.025542 -0.004865 497698.000000 0 0 1
-18.656917 22.812112 -30.737733 42.582640 -0.885265 2.377250 0.049390 -0.004102 1022870.000000 0 0 1
-19.857517 22.073512 -30.502243 42.566979 -0.838198 2.369669 0.059156 -0.003931 66258.600000 0 0 1
-20.933717 22.379312 -31.315443 43.814507 -0.818761 2.367031 0.083282 -0.016531 64594.200000 0 0 1
-22.222617 21.502912 -30.999183 43.785491 -0.768940 2.357428 0.086297 -0.018207 594837.000000 0 0 1
-23.220017 22.062812 -30.167693 44.000301 -0.759849 2.326258 0.099105 -0.024343 652564.000000 0 0 1
-24.032117 23.119312 -30.750583 45.361256 -0.766042 2.315704 0.095177 -0.021570 -161742.000000 0 0 1
-25.284697 22.548612 -31.444773 46.222608 -0.728260 2.318954 0.089195 -0.030624 -783231.000000 0 0 1
-25.035917 21.814712 -32.654173 46.572242 -0.716751 2.347807 0.108956 -0.030245 362103.000000 0 0 1
-26.236567 21.510312 -33.347643 47.572221 -0.686734 2.347581 0.110763 -0.033232 139064.000000 0 0 1
-26.009547 20.536812 33.361784 47.024098 -0.668359 0.782063 0.114781 -0.022129 -123565.000000 0 0 1
-25.679287 19.245312 33.798276 46.606129 -0.643148 0.759487 0.113933 -0.027306 272081.000000 0 0 1
-25.227667 18.420612 32.737273 45.249123 -0.630692 0.761952 0.110356 -0.033139 -267822.000000 0 0 1
-25.027517 16.930112 33.208957 44.898108 -0.594752 0.738244 0.090834 -0.022205 -284427.000000 0 0 1
-26.146897 16.103212 33.425102 45.389548 -0.552010 0.743055 0.083854 -0.012705 199708.000000 0 0 1
-26.396487 15.330712 32.270838 44.420853 -0.526172 0.757611 0.093413 -0.013345 -312287.000000 0 0 1
-27.171887 13.994412 32.526752 44.633447 -0.475601 0.754297 0.070541 -0.009348 -612329.000000 0 0 1
-28.476147 14.292712 32.929853 45.820822 -0.465181 0.768915 0.068252 -0.005509 -532730.000000 0 0 1
-29.313377 13.142212 33.018684 46.067616 -0.421468 0.771675 0.043408 0.000721 123611.000000 0 0 1
-29.248977 12.176912 -33.612963 46.191028 -0.394495 2.385751 0.037517 -0.006442 -157573.000000 0 0 1
-28.154877 11.286012 -33.689743 45.332879 -0.381243 2.408582 0.041210 -0.018193 -32993.800000 0 0 1
-28.589847 10.052112 33.608474 45.254323 -0.338097 0.733766 0.055063 -0.009750 -1175910.000000 0 0 1
-27.613597 8.921612 33.898334 44.622897 -0.312501 0.708003 0.052497 -0.017291 -313264.000000 0 0 1
-26.580677 8.814812 32.971380 43.259047 -0.320212 0.704115 0.046196 -0.017959 633927.000000 0 0 1
-25.570157 9.862112 32.878780 42.803135 -0.368108 0.694866 0.036217 -0.018147 35313.800000 0 0 1
-24.233417 9.413112 32.217683 41.398602 -0.370497 0.678952 0.042383 -0.013352 302135.000000 0 0 1
-24.374017 9.302212 30.819824 40.379269 -0.364583 0.702455 0.047429 -0.015102 9722.590000 0 0 1
-23.152317 8.919512 30.247084 39.121267 -0.367730 0.686984 0.062096 -0.014056 -35851.900000 0 0 1
-23.220417 8.753712 28.739554 37.970741 -0.360508 0.712260 0.097117 -0.026746 42558.000000 0 0 1
-23.584617 9.946312 28.039854 37.965730 -0.399097 0.739869 0.099702 -0.024791 210159.000000 0 0 1
-23.808217 9.736212 26.640914 37.031922 -0.388192 0.767852 0.090170 -0.026875 -519503.000000 0 0 1
-24.087617 10.982812 25.795174 36.962500 -0.427793 0.798371 0.088064 -0.022299 369764.000000 0 0 1
-25.282407 11.706712 26.045484 38.139408 -0.433643 0.819068 0.100583 -0.021518 291303.000000 0 0 1
-26.408377 11.159912 25.373264 38.285095 -0.399827 0.846318 0.110715 -0.015803 28672.600000 0 0 1
-27.767297 11.811612 25.711344 39.643538 -0.402191 0.865101 0.095589 -0.015006 59914.700000 0 0 1
-27.915427 13.023512 24.998894 39.671496 -0.436519 0.889053 0.107506 -0.022041 152905.000000 0 0 1
-29.065127 13.767212 25.367114 40.961057 -0.442361 0.902948 0.085448 -0.022537 229960.000000 0 0 1
-29.096687 15.038512 24.543244 40.928533 -0.477034 0.927719 0.097523 -0.021163 126200.000000 0 0 1
-28.271267 16.116612 24.970284 41.018590 -0.518122 0.916306 0.107145 -0.022980 205351.000000 0 0 1
-27.944567 17.021912 23.927334 40.535930 -0.547107 0.939397 0.096142 -0.020038 -465131.000000 0 0 1
-23.024617 -9.134988 31.624104 40.170448 0.377700 0.664463 0.094111 -0.034354 -289863.000000 0 0 1
-22.021417 -8.935288 30.678864 38.806892 0.385457 0.659087 0.087785 -0.038131 -610317.000000 0 0 1
-22.519717 -9.126888 29.351254 38.104249 0.385054 0.691503 0.089394 -0.034667 -205648.000000 0 0 1
-21.525517 -8.787288 28.234774 36.575494 0.387578 0.688879 0.100459 -0.041665 -381161.000000 0 0 1
-21.191217 -7.407888 28.159764 36.012731 0.336295 0.673026 0.096369 -0.042824 407583.000000 0 0 1
-20.006717 -7.050088 28.866284 35.822267 0.338799 0.633738 0.091284 -0.044420 -121637.000000 0 0 1
-18.630317 -7.039588 28.175374 34.503568 0.361273 0.615313 0.094044 -0.039086 -182053.000000 0 0 1
-18.073417 -8.334788 27.862954 34.241222 0.432098 0.620263 0.088348 -0.041781 346872.000000 0 0 1
-17.627117 -9.124588 29.008464 35.149172 0.477664 0.600071 0.069232 -0.037948 -58097.800000 0 0 1
-16.282417 -8.734288 29.737634 35.010452 0.492361 0.555962 0.051830 -0.033794 885950.000000 0 0 1
-15.192317 -9.269088 28.958184 33.989688 0.547825 0.551061 0.049247 -0.026263 -579026.000000 0 0 1
-13.965117 -8.885088 29.474264 33.803868 0.566637 0.511687 0.041347 -0.028311 417198.000000 0 0 1
-12.736017 -9.701588 28.875514 33.016999 0.650975 0.506258 0.043178 -0.022449 593978.000000 0 0 1
-12.380217 -9.348388 27.588224 31.650785 0.646762 0.512249 0.066419 -0.026787 -911157.000000 0 0 1
-11.240717 -10.056988 27.278854 31.171022 0.729875 0.505081 0.071648 -0.025902 -620486.000000 0 0 1
-10.761617 -9.873388 25.820734 29.664903 0.742380 0.514755 0.057195 -0.027799 500950.000000 0 0 1
-11.693917 -10.514288 24.931184 29.476463 0.732331 0.562734 0.065935 -0.034549 270642.000000 0 0 1
-11.346917 -10.310388 23.588914 28.133494 0.737574 0.576338 0.066992 -0.035723 -56392.400000 0 0 1
-12.375417 -10.791588 22.561024 27.903568 0.717139 0.629137 0.090957 -0.043397 -445113.000000 0 0 1
-12.482717 -12.220988 22.437624 28.436205 0.774804 0.661533 0.082335 -0.041083 329010.000000 0 0 1
-13.707517 -12.656888 21.870924 28.747698 0.745569 0.706269 0.096765 -0.035273 573762.000000 0 0 1
-14.890717 -12.767988 22.902044 30.153915 0.708801 0.708245 0.105600 -0.038480 640354.000000 0 0 1
-16.174317 -13.059388 22.334824 30.512301 0.679246 0.749552 0.092444 -0.033554 176968.000000 0 0 1
-17.135717 -13.069688 23.332794 31.762695 0.651590 0.745723 0.095589 -0.034556 -1049770.000000 0 0 1
-18.458517 -13.613588 22.825424 32.358099 0.635468 0.787808 0.099685 -0.027379 -921731.000000 0 0 1
-18.578517 -15.030788 22.734424 32.983934 0.680230 0.810333 0.090989 -0.027250 1678730.000000 0 0 1
-19.937917 -15.533188 22.975144 34.156371 0.661853 0.833018 0.078382 -0.012268 1567590.000000 0 0 1
-20.514417 -15.496988 24.441404 35.473654 0.646961 0.810686 0.090719 -0.016607 -254411.000000 0 0 1
-20.054417 -16.496888 25.276814 36.238712 0.688374 0.798882 0.089571 -0.021263 11923.800000 0 0 1
-20.901317 -16.670288 26.386534 37.563449 0.673258 0.791959 0.086422 -0.021845 -284077.000000 0 0 1
-20.351017 -17.647788 27.492524 38.489572 0.714378 0.775194 0.074505 -0.023878 9332.270000 0 0 1
-20.449017 -18.998488 27.126834 38.922615 0.748644 0.799671 0.074278 -0.018290 227707.000000 0 0 1
-20.330917 -19.841988 28.260064 40.070960 0.773228 0.788020 0.071404 -0.015801 -389954.000000 0 0 1
-20.441317 -21.382788 27.994084 40.727629 0.807905 0.812964 0.072091 -0.014551 647809.000000 0 0 1
-21.792517 -21.860988 27.891234 41.602133 0.786967 0.836011 0.076519 -0.018792 724046.000000 0 0 1
-21.810117 -23.249488 27.687904 42.223689 0.817331 0.855630 0.085383 -0.001441 -647376.000000 0 0 1
-23.137617 -23.759988 27.201254 42.892826 0.798668 0.883864 0.091663 0.001352 -265753.000000 0 0 1
-24.107117 -24.077788 28.209214 44.234067 0.784789 0.879254 0.090184 -0.000048 126640.000000 0 0 1
-25.379137 -24.263088 27.635524 44.682437 0.762920 0.903980 0.073241 -0.000205 -62011.600000 0 0 1
-26.339527 -25.034438 28.577964 46.229793 0.760000 0.904381 0.049222 -0.004711 -94282.900000 0 0 1
-26.785037 -24.344388 29.753604 46.854716 0.737700 0.882764 0.031772 0.006221 546149.000000 0 0 1
-27.393447 -25.338148 30.630604 48.276874 0.746441 0.883464 0.025134 0.009917 118793.000000 0 0 1
-28.738477 -24.925188 31.262254 49.239147 0.714458 0.882909 0.014923 0.015088 -368398.000000 0 0 1
-29.719837 -24.664488 30.311394 49.095685 0.692709 0.905370 0.021672 0.015750 -317046.000000 0 0 1
-30.664397 -23.737588 30.786244 49.513343 0.658753 0.899787 0.032274 -0.001390 -173265.000000 0 0 1
-31.875577 -23.566888 29.823484 49.607366 0.636644 0.925806 0.040306 -0.000828 -420222.000000 0 0 1
-32.833597 -24.546988 29.986624 50.791705 0.641975 0.939261 0.039706 -0.002657 -711397.000000 0 0 1
-33.965617 -24.340288 29.191374 50.973023 0.621790 0.961022 0.038260 -0.004702 62982.000000 0 0 1
-35.187915 -25.168068 29.700334 52.476002 0.620886 0.969176 0.047103 -0.010110 9830.910000 0 0 1
-34.964387 -26.549528 29.706194 53.007960 0.649446 0.975916 0.047745 -0.011020 10018.400000 0 0 1
-35.952409 -27.306668 30.371104 54.411706 0.649568 0.978615 0.045359 -0.013208 -204274.000000 0 0 1
-35.542316 -28.766908 30.594134 55.016291 0.680429 0.981120 0.044281 -0.011194 -172643.000000 0 0 1
-34.719200 -28.938068 31.739064 55.228641 0.694830 0.958577 0.050111 -0.008211 -124530.000000 0 0 1
-34.243812 -30.228748 31.869725 55.696456 0.723203 0.961606 0.045577 -0.013011 201731.000000 0 0 1
-33.268327 -30.251008 33.100363 55.834927 0.737931 0.936234 0.052153 -0.016018 148341.000000 0 0 1
-33.931167 -30.145508 -33.517833 56.422698 0.726387 2.206879 0.056050 -0.011441 -268498.000000 0 0 1
-32.998197 -30.296678 -32.501693 55.345549 0.742743 2.198454 0.049922 -0.011304 -8816.720000 0 0 1
-33.562347 -29.698288 -31.150683 54.578242 0.724392 2.178219 0.049029 -0.017305 115455.000000 0 0 1
-33.478977 -28.283258 -31.043813 53.707568 0.701471 2.187091 0.047024 -0.013843 472865.000000 0 0 1
-32.175327 -27.707348 -30.878453 52.501692 0.710924 2.199556 0.051079 -0.013724 140363.000000 0 0 1
-32.233317 -26.171298 -30.770603 51.679334 0.681975 2.208577 0.051267 -0.007356 -288225.000000 0 0 1
-33.060437 -25.633198 -29.753983 51.335688 0.659525 2.189030 0.049740 -0.013726 112343.000000 0 0 1
-32.967267 -24.237788 -29.755723 50.593617 0.633967 2.199543 0.054738 -0.014026 -46452.200000 0 0 1
-31.873837 -23.644888 -28.843743 49.061020 0.638250 2.199276 0.067201 -0.016931 -227816.000000 0 0 1
-31.753217 -22.218188 -28.908183 48.348709 0.610534 2.211688 0.066164 -0.017611 -84895.000000 0 0 1
-30.575207 -21.811188 -28.272803 47.009814 0.619638 2.216078 0.092896 -0.014237 -231626.000000 0 0 1
-30.326597 -20.292188 -28.411423 46.245911 0.589700 2.232365 0.098253 -0.022063 -79661.900000 0 0 1
-29.908697 -19.894688 -29.673383 46.592257 0.586973 2.261233 0.106597 -0.015932 101199.000000 0 0 1
-29.702717 -18.484488 -29.655733 45.862732 0.556667 2.273941 0.103508 -0.021608 -226335.000000 0 0 1
-29.108317 -17.944288 -30.991473 46.149355 0.552439 2.307091 0.122510 -0.023669 142699.000000 0 0 1
-29.946957 -17.763788 -32.127843 47.376900 0.535386 2.316016 0.114463 -0.035699 -50164.000000 0 0 1
-30.915287 -16.766988 -31.907423 47.486529 0.496953 2.307602 0.101364 -0.037029 -329489.000000 0 0 1
-31.800737 -16.348388 -33.108353 48.731096 0.474855 2.317753 0.098985 -0.043939 -289951.000000 0 0 1
-32.740767 -17.282588 -33.513203 49.937766 0.485688 2.306487 0.106331 -0.045587 883830.000000 0 0 1
-34.093466 -16.786088 -33.310753 50.534576 0.457513 2.290508 0.097117 -0.041030 1502150.000000 0 0 1
-35.142717 -17.395888 33.547967 51.605170 0.459645 0.863094 0.097860 -0.038943 47464.700000 0 0 1
-35.550187 -18.718988 33.811344 52.511173 0.484662 0.871227 0.060691 -0.037433 125151.000000 0 0 1
-36.043401 -19.456188 32.712383 52.419176 0.494978 0.896876 0.063634 -0.028703 -39546.400000 0 0 1
-36.391607 -20.910588 33.002007 53.392267 0.521533 0.904467 0.040788 -0.022329 -7256.120000 0 0 1
-35.203658 -21.652988 33.018951 52.899910 0.551432 0.896718 0.049329 -0.021135 134778.000000 0 0 1
-35.488629 -23.011688 33.347291 53.861140 0.575267 0.903156 0.039395 -0.018748 56976.000000 0 0 1
-34.140154 -23.791988 33.355270 53.330881 0.608637 0.895101 0.041219 -0.013851 565077.000000 0 0 1
-33.200947 -23.529388 -33.471493 52.690377 0.616539 2.259127 0.028177 -0.019272 201660.000000 0 0 1
-32.376417 -22.379388 -33.700233 51.814815 0.604812 2.278904 0.037566 -0.022372 -1051760.000000 0 0 1
-31.239727 -22.329388 -32.683913 50.425790 0.620574 2.275960 0.061114 -0.019004 -1342370.000000 0 0 1
-30.277697 -23.203888 -33.184673 50.560675 0.653895 2.286745 0.064259 -0.010823 102035.000000 0 0 1
-29.020887 -23.130388 -32.489573 49.323413 0.672925 2.289892 0.081472 -0.015065 653469.000000 0 0 1
-28.874137 -23.741088 -31.078143 48.612817 0.688148 2.264383 0.071924 -0.006362 -700731.000000 0 0 1
-28.994407 -25.142458 -31.019873 49.346239 0.714366 2.250570 0.068350 -0.012431 -19719.500000 0 0 1
-28.800807 -25.591948 -29.698883 48.646253 0.726472 2.227497 0.061734 -0.018093 -370489.000000 0 0 1
-28.300397 -27.031618 -29.594083 49.065574 0.762472 2.218245 0.064626 -0.016026 512250.000000 0 0 1
-29.362797 -28.003498 -29.635113 50.245494 0.761708 2.201615 0.063749 -0.004519 527179.000000 0 0 1
-28.916287 -29.215218 -29.038283 50.327949 0.790540 2.185824 0.067509 -0.009700 189354.000000 0 0 1
-29.642277 -30.501338 -29.550643 51.790315 0.799681 2.178011 0.055612 0.002010 3319.650000 0 0 1
-29.301777 -30.745728 -30.905203 52.526427 0.809440 2.199843 0.068684 -0.014852 239354.000000 0 0 1
-29.640707 -31.992648 -31.476173 53.785226 0.823540 2.195947 0.081224 -0.004090 -386774.000000 0 0 1
-29.097917 -32.101018 -32.874813 54.386740 0.834430 2.219889 0.070397 -0.018437 727419.000000 0 0 1
-27.674997 -32.306218 -32.864213 53.755499 0.862456 2.228580 0.065829 -0.018207 486509.000000 0 0 1
-27.198397 -32.709048 33.714952 54.280131 0.877126 0.900614 0.067565 -0.023087 -1140980.000000 0 0 1
-25.754017 -33.106798 33.651052 53.774741 0.909673 0.894668 0.069983 -0.026220 -1028710.000000 0 0 1
-25.555607 -33.588828 32.327633 53.163655 0.920396 0.917159 0.067599 -0.016006 207311.000000 0 0 1
-24.418317 33.478194 32.365551 52.579202 -0.940623 0.907702 0.057175 -0.005994 -84606.800000 0 0 1
-24.370317 32.601142 31.102014 51.225794 -0.928878 0.918321 0.054968 -0.015838 -397730.000000 0 0 1
-25.424817 31.662974 31.041854 51.113226 -0.894239 0.918119 0.072771 -0.033920 36065.300000 0 0 1
-25.342707 30.954174 29.832604 49.903886 -0.884746 0.930041 0.061214 -0.027881 -295449.000000 0 0 1
-26.593407 30.162634 29.402764 49.814820 -0.848203 0.939439 0.065623 -0.025141 -172582.000000 0 0 1
-27.032357 29.199304 30.333074 50.034418 -0.823915 0.919467 0.064193 -0.025920 -593690.000000 0 0 1
-28.240447 28.674764 29.916724 50.147535 -0.793029 0.931571 0.064884 -0.031573 -533897.000000 0 0 1
-28.776757 27.482984 30.704274 50.261004 -0.762406 0.913604 0.055741 -0.037733 154013.000000 0 0 1
-27.949487 26.357904 30.463624 49.030044 -0.756100 0.900363 0.045016 -0.022454 470613.000000 0 0 1
-28.582507 25.167154 31.032804 49.126166 -0.721942 0.887057 0.053005 -0.018601 635419.000000 0 0 1
-29.645607 24.633104 30.061274 48.880793 -0.693312 0.908421 0.071116 -0.023207 108359.000000 0 0 1
-29.030447 24.274374 28.841594 47.579928 -0.696410 0.919558 0.065190 -0.024709 -98992.000000 0 0 1
-29.854857 23.410484 28.085374 47.203299 -0.664997 0.933546 0.076369 -0.016273 246356.000000 0 0 1
-29.219677 22.997864 26.717844 45.787929 -0.666805 0.947749 0.076674 -0.016353 920618.000000 0 0 1
-27.974687 22.273364 26.719114 44.638513 -0.672418 0.929086 0.080241 -0.017781 409886.000000 0 0 1
-27.417807 22.219064 25.450784 43.510519 -0.681043 0.945998 0.060992 -0.013503 -788601.000000 0 0 1
-26.069297 21.530964 25.555674 42.382580 -0.690343 0.923570 0.058085 -0.019914 -1004220.000000 0 0 1
-26.055297 20.208064 26.100164 42.053096 -0.659675 0.901228 0.089442 -0.027152 1365640.000000 0 0 1
-24.821517 19.953764 26.848534 41.654581 -0.677108 0.870359 0.073862 -0.020161 1141910.000000 0 0 1
-24.827417 18.630964 27.635024 41.559691 -0.643769 0.843372 0.104180 -0.023178 -1008550.000000 0 0 1
-23.573417 18.170464 27.931154 40.816921 -0.656683 0.817149 0.100743 -0.018707 -897103.000000 0 0 1
-23.747517 17.231064 28.917364 41.195485 -0.627698 0.792658 0.103929 -0.019628 -465217.000000 0 0 1
-22.585517 16.283264 29.107644 40.280332 -0.624655 0.763202 0.105524 -0.022462 -1046930.000000 0 0 1
-21.490017 16.805864 29.773134 40.381894 -0.663688 0.741747 0.130025 -0.022329 -349464.000000 0 0 1
-20.437717 15.864264 29.726814 39.408864 -0.660075 0.716182 0.104731 -0.020485 547925.000000 0 0 1
-19.102017 16.144064 30.491734 39.436831 -0.701671 0.686958 0.086888 -0.019676 81403.800000 0 0 1
-19.139817 15.936264 31.904012 40.474227 -0.694319 0.662828 0.080793 -0.019478 403820.000000 0 0 1
-18.169817 16.668664 32.651443 40.915807 -0.742336 0.646802 0.068864 -0.025725 -917829.000000 0 0 1
-18.178817 16.384464 -33.674833 41.628288 -0.733530 2.513145 0.064420 -0.028035 -365018.000000 0 0 1
-19.246017 17.021364 -33.043733 41.857189 -0.724135 2.480692 0.099943 -0.025028 -533263.000000 0 0 1
-20.450517 16.328264 -33.217783 42.287787 -0.673782 2.474328 0.097088 -0.013425 -1244900.000000 0 0 1
-21.628517 17.062764 -32.533523 42.630514 -0.667937 2.438972 0.091994 -0.025659 -185818.000000 0 0 1
-21.768117 17.033464 -31.139473 41.637202 -0.663976 2.415653 0.097964 -0.020679 -178270.000000 0 0 1
-22.819617 17.873464 -30.761393 42.266522 -0.664444 2.385899 0.105209 -0.015504 -609263.000000 0 0 1
-23.198317 17.648164 -29.258793 41.300079 -0.650347 2.358087 0.094591 -0.011302 274191.000000 0 0 1
-23.962317 16.516164 -28.844993 40.975723 -0.603479 2.351745 0.080846 -0.016911 309459.000000 0 0 1
-25.320247 16.553464 -29.260023 42.086589 -0.579017 2.339542 0.078657 -0.020264 88141.900000 0 0 1
-26.230277 15.654964 -28.370833 41.689441 -0.538084 2.319279 0.068908 -0.019319 -26672.100000 0 0 1
-26.000917 14.261364 -28.445383 41.092262 -0.501687 2.335374 0.055407 -0.016676 -142530.000000 0 0 1
-26.810647 13.532464 -27.559403 40.760999 -0.467434 2.313283 0.027064 -0.007611 -171100.000000 0 0 1
-26.585187 11.998264 -27.515773 40.097983 -0.423946 2.327067 0.047444 -0.013672 -141904.000000 0 0 1
-25.453617 11.517164 -26.845563 38.745528 -0.424911 2.336256 0.045281 -0.007442 -501402.000000 0 0 1
-24.784317 10.490264 -27.527313 38.497545 -0.400398 2.367479 0.037427 -0.002312 -333228.000000 0 0 1
-23.608517 9.985664 -26.687183 37.003801 -0.400149 2.376331 0.071792 -0.002591 -450022.000000 0 0 1
-23.942317 9.224664 -25.549043 36.208874 -0.367759 2.354068 0.050153 0.000441 888189.000000 0 0 1
-22.758117 8.558464 -24.997923 34.872272 -0.359701 2.370059 0.082519 0.016467 1050990.000000 0 0 1
-23.052017 7.532064 -23.834823 34.003327 -0.315807 2.347533 0.081397 0.012357 83849.500000 0 0 1
-23.762317 6.421864 -24.370823 34.638491 -0.263949 2.351214 0.079028 -0.009765 318892.000000 0 0 1
-23.730417 5.376864 -23.432123 33.780286 -0.222819 2.337358 0.088821 -0.003026 -112381.000000 0 0 1
35.913701 24.967112 -9.891523 44.844094 0.607495 1.793201 0.062827 -0.003708 144268.000000 0 0 1
36.679721 24.154812 -9.003723 44.832174 0.582351 1.773003 0.077965 -0.002347 281629.000000 0 0 1
-36.949027 23.309112 -9.734123 44.758222 -0.562791 1.790031 0.105334 -0.006663 373196.000000 0 0 1
-36.006827 22.492012 -8.812523 43.359459 -0.558355 1.775466 0.104052 -0.009935 -148098.000000 0 0 1
-36.681907 21.626012 -7.963923 43.320558 -0.532704 1.755685 0.080455 -0.006489 -69193.000000 0 0 1
-35.735006 20.993912 -7.108523 42.050756 -0.531169 1.740658 0.125475 -0.005933 48170.000000 0 0 1
-36.272277 20.251412 -5.881923 41.957058 -0.509206 1.711449 0.101144 0.003764 -182878.000000 0 0 1
-36.962577 19.062412 -6.168023 42.043455 -0.476146 1.718034 0.081876 0.000268 771209.000000 0 0 1
36.888551 18.484112 -4.971223 41.558881 0.464511 1.690702 0.085568 -0.006168 446804.000000 0 0 1
36.031021 17.245412 -5.337223 40.300429 0.446403 1.703622 0.083661 -0.003922 -402261.000000 0 0 1
35.076611 17.599212 -6.273523 39.742395 0.465036 1.729314 0.081723 -0.006056 -589678.000000 0 0 1
34.490381 16.457012 -6.864423 38.827051 0.445199 1.748525 0.100753 -0.008205 -43357.000000 0 0 1
33.728201 16.722212 -8.150123 38.518157 0.460276 1.784000 0.056119 -0.011663 -253434.000000 0 0 1
33.247801 15.570712 -8.780223 37.748584 0.437986 1.805544 0.068656 -0.012299 -17580.500000 0 0 1
32.767471 15.901612 -10.075223 37.789926 0.451808 1.840672 0.060970 -0.010705 -545467.000000 0 0 1
32.223101 14.696612 -10.913123 37.059612 0.427906 1.869702 0.068633 -0.011805 1361410.000000 0 0 1
30.929111 14.091212 -10.604123 35.603645 0.427499 1.873224 0.061837 -0.009368 1557430.000000 0 0 1
30.748991 13.753212 -9.230923 34.926511 0.420584 1.838270 0.064907 -0.008517 -733700.000000 0 0 1
29.684541 12.641412 -9.043523 33.507649 0.402598 1.844080 0.060623 -0.004012 66137.100000 0 0 1
30.099171 11.419412 -9.617823 33.598594 0.362616 1.861114 0.070192 -0.008637 312161.000000 0 0 1
29.122801 10.384012 -9.379223 32.309984 0.342506 1.865325 0.093100 -0.010298 -67534.000000 0 0 1
29.506921 9.004612 -9.889323 32.396606 0.296193 1.881006 0.092355 -0.007980 517034.000000 0 0 1
30.632971 8.569912 -9.064023 33.075350 0.272787 1.848389 0.088854 -0.014308 1098980.000000 0 0 1
30.770761 7.175712 -8.985823 32.849286 0.229105 1.847875 0.093441 -0.012372 -603726.000000 0 0 1
32.009931 6.838012 -8.182223 33.739337 0.210458 1.815752 0.125256 -0.019787 -1065790.000000 0 0 1
33.246631 7.228112 -8.659423 35.107971 0.214077 1.820019 0.117731 -0.017131 -687797.000000 0 0 1
34.227961 6.874312 -7.715723 35.753906 0.198202 1.788308 0.126343 -0.015513 -501323.000000 0 0 1
35.677751 6.957312 -8.181523 37.259138 0.192587 1.792185 0.138871 -0.019028 -400601.000000 0 0 1
36.018291 6.083912 -9.210823 37.671879 0.167332 1.817802 0.160492 -0.026657 1880120.000000 0 0 1
-37.064767 6.068812 -9.464023 38.732353 -0.162295 1.817640 0.169670 -0.027893 846027.000000 0 0 1
-36.884037 5.389812 -10.880423 38.831248 -0.145102 1.854796 0.171724 -0.036476 -1030130.000000 0 0 1
-35.624866 5.110412 -11.352723 37.737669 -0.142479 1.876362 0.166074 -0.040854 -733430.000000 0 0 1
-34.717210 6.105612 -11.726923 37.149480 -0.174087 1.891957 0.141875 -0.031436 -34208.500000 0 0 1
-33.812777 6.730912 -10.637523 36.079994 -0.196496 1.870076 0.141201 -0.024480 -923260.000000 0 0 1
-34.460008 7.682712 -9.823423 36.647180 -0.219358 1.842169 0.161391 -0.027246 84135.200000 0 0 1
-34.507549 9.042612 -10.313123 37.133546 -0.256285 1.852227 0.155160 -0.027472 60325.200000 0 0 1
-35.543165 9.962512 -9.568223 38.132913 -0.273281 1.824424 0.137705 -0.013744 538223.000000 0 0 1
-35.133937 10.473412 -8.311223 37.592051 -0.289712 1.793728 0.125012 -0.008325 121530.000000 0 0 1
-36.083297 11.480312 -8.032323 38.708140 -0.308034 1.779825 0.111742 -0.012537 177159.000000 0 0 1
-35.615673 12.491212 -6.997823 38.385883 -0.337318 1.754123 0.124586 -0.015878 584732.000000 0 0 1
-34.561433 13.319312 -7.508123 37.792441 -0.367840 1.770794 0.133005 -0.017082 208350.000000 0 0 1
-34.084812 14.276012 -6.595023 37.537624 -0.396640 1.747404 0.146552 -0.022929 452576.000000 0 0 1
-33.097857 15.271612 -7.215823 37.158557 -0.432300 1.766228 0.123376 -0.021803 296214.000000 0 0 1
-33.921497 16.082312 -8.037023 38.391437 -0.442717 1.781701 0.097261 -0.018133 78531.900000 0 0 1
-33.265237 17.235612 -8.475423 38.411913 -0.478044 1.793273 0.093767 -0.010629 -93333.400000 0 0 1
-33.944477 18.036912 -9.601123 39.619935 -0.488424 1.815564 0.062973 -0.007243 3535.370000 0 0 1
-33.449207 17.761312 -10.857023 39.397824 -0.488134 1.849983 0.045176 -0.006926 257521.000000 0 0 1
-34.396855 18.278912 -11.792023 40.697838 -0.488461 1.864757 0.047070 -0.007626 305853.000000 0 0 1
-33.747607 18.418212 -13.184323 40.644284 -0.499585 1.901156 0.024298 -0.001019 -3278.720000 0 0 1
-32.921967 19.527912 -13.410823 40.559159 -0.535373 1.907787 0.022076 -0.007990 79082.900000 0 0 1
-32.488787 19.584512 -14.774023 40.710516 -0.542482 1.942179 0.015021 -0.007520 -386742.000000 0 0 1
-31.762027 20.908912 -15.048623 40.895843 -0.582187 1.947626 0.028184 -0.006784 1130450.000000 0 0 1
-30.376667 20.927412 -14.595423 39.670201 -0.603258 1.947566 0.031769 -0.002969 1621240.000000 0 0 1
-29.709297 22.165612 -14.475523 39.793183 -0.640990 1.943107 0.060566 -0.006255 125993.000000 0 0 1
-29.176647 22.917112 -15.709823 40.289816 -0.665812 1.971342 0.046358 -0.006604 -107450.000000 0 0 1
-30.216477 23.411212 -16.581923 41.666299 -0.659174 1.980099 0.056221 0.000376 526866.000000 0 0 1
-29.828967 24.134912 -17.761623 42.281633 -0.680271 2.004329 0.070074 -0.002955 72665.700000 0 0 1
-29.112127 25.504812 -17.710823 42.563888 -0.719446 1.999948 0.096930 -0.008063 653752.000000 0 0 1
-30.032307 26.569912 -17.399923 43.711062 -0.724304 1.980205 0.115462 -0.011781 782456.000000 0 0 1
-29.390527 27.839612 -17.423023 44.072767 -0.758305 1.977217 0.122824 -0.016148 101064.000000 0 0 1
-30.346407 28.931512 -16.914723 45.211112 -0.761534 1.954252 0.126616 -0.025420 -209736.000000 0 0 1
-30.494067 29.046712 -15.528823 44.885899 -0.761094 1.924060 0.111022 -0.026379 287151.000000 0 0 1
-29.378177 29.656512 -14.874823 44.315306 -0.790113 1.913101 0.099803 -0.018906 77009.300000 0 0 1
-29.525837 29.934712 -13.397023 44.128701 -0.792274 1.879254 0.096297 -0.017844 171070.000000 0 0 1
-30.316867 31.158112 -13.292523 45.460219 -0.799082 1.867531 0.080371 -0.014479 420406.000000 0 0 1
-30.110597 32.040812 -12.180023 45.624715 -0.816445 1.841035 0.072877 -0.014474 -400940.000000 0 0 1
-28.895647 32.981012 -12.179623 45.508777 -0.851327 1.841731 0.067392 -0.017274 -121448.000000 0 0 1
-28.934687 33.879112 -13.298123 46.495703 -0.863952 1.860854 0.061489 -0.021088 -308065.000000 0 0 1
-28.021107 -32.968440 -13.265223 45.255570 0.866339 1.868283 0.078396 -0.024089 -212258.000000 0 0 1
-28.149297 -31.983440 -14.455223 44.991964 0.849073 1.897882 0.068296 -0.020310 -25805.400000 0 0 1
-27.690457 -32.484440 -15.687323 45.476283 0.864898 1.922988 0.063982 -0.026574 -63675.500000 0 0 1
-27.908497 -31.586940 -16.716223 45.343700 0.847147 1.948359 0.065854 -0.014456 -197243.000000 0 0 1
-27.344547 -32.032840 -18.072723 45.830671 0.864192 1.976142 0.066204 -0.015542 -321626.000000 0 0 1
-27.797497 -33.219940 -18.563423 47.126064 0.874032 1.975678 0.072976 -0.013803 -30351.100000 0 0 1
-27.102577 33.578612 -18.023323 46.764442 -0.891718 1.966445 0.073342 -0.018479 -480764.000000 0 0 1
-27.252167 32.215612 -18.793223 46.192115 -0.868670 1.989799 0.096074 -0.027330 1321560.000000 0 0 1
-28.593537 31.654212 -18.710423 46.579603 -0.836156 1.984155 0.120174 -0.034949 1407250.000000 0 0 1
-29.414387 32.107512 -19.800223 47.834582 -0.829145 1.997565 0.115572 -0.029151 483373.000000 0 0 1
-30.935627 31.795512 -19.653623 48.520433 -0.799105 1.987839 0.117036 -0.041342 472137.000000 0 0 1
-31.219377 30.446212 -20.026723 47.986362 -0.772861 2.001315 0.122882 -0.038636 -733131.000000 0 0 1
-32.559467 30.328312 -20.313723 48.913932 -0.749935 1.999064 0.121101 -0.036560 -1043410.000000 0 0 1
-32.956977 29.058112 -21.167623 48.770938 -0.722611 2.019748 0.120641 -0.034789 -1247660.000000 0 0 1
-34.282545 28.710612 -21.106823 49.447852 -0.697175 2.011803 0.117857 -0.030592 -834406.000000 0 0 1
-34.452259 27.461112 -21.798923 49.155507 -0.672956 2.030261 0.115335 -0.015841 -730841.000000 0 0 1
-35.886813 26.949412 -21.862423 49.920934 -0.644113 2.024103 0.119325 -0.008157 -498261.000000 0 0 1
-36.689767 27.845212 -22.653123 51.328927 -0.649196 2.027879 0.111007 -0.006664 12244.700000 0 0 1
36.737301 27.052512 -23.075223 51.126642 0.634725 2.039057 0.112185 -0.005174 122708.000000 0 0 1
36.006551 27.739312 -24.246423 51.515339 0.656427 2.060840 0.114549 -0.001395 245238.000000 0 0 1
36.721191 27.644712 -25.485973 52.556738 0.645308 2.077071 0.118777 -0.017585 -22261.800000 0 0 1
35.874571 27.959412 -26.571143 52.675793 0.662032 2.099516 0.132644 -0.016556 -7530.320000 0 0 1
36.560731 27.996212 -27.930323 53.857013 0.653502 2.116011 0.117602 -0.023406 -160698.000000 0 0 1
37.096011 26.739612 -28.211313 53.730801 0.624564 2.123569 0.091858 -0.019384 -631063.000000 0 0 1
-36.834687 26.870012 -29.427413 54.265683 -0.630236 2.143950 0.074200 -0.021386 -704583.000000 0 0 1
-36.168987 25.516412 -29.918933 53.426823 -0.614393 2.165180 0.061479 -0.022946 892508.000000 0 0 1
-35.010093 24.990212 -29.258713 52.022010 -0.619928 2.168117 0.058049 -0.020829 1083780.000000 0 0 1
-33.775777 25.586812 -29.712673 51.752594 -0.648315 2.182336 0.052494 -0.013071 1058680.000000 0 0 1
-32.504947 25.006912 -29.005913 50.232063 -0.655756 2.186384 0.061767 -0.018787 121350.000000 0 0 1
-32.174067 23.644612 -29.067623 49.387903 -0.633765 2.200070 0.066171 -0.021641 278932.000000 0 0 1
-33.079397 22.715512 -28.471943 49.202566 -0.601742 2.187891 0.042863 -0.016630 -63566.600000 0 0 1
-32.750287 21.323212 -29.001943 48.665936 -0.577137 2.209231 0.027953 -0.024641 -541272.000000 0 0 1
-31.458037 20.857412 -28.736013 47.438361 -0.585476 2.221510 0.056551 -0.023593 -304663.000000 0 0 1
-31.172767 19.532012 -29.192823 46.962344 -0.559730 2.241608 0.041348 -0.020375 -679582.000000 0 0 1
-29.705007 19.135912 -29.294953 45.899508 -0.572286 2.263008 0.059028 -0.019718 -713742.000000 0 0 1
-29.077327 19.847012 -30.378933 46.500262 -0.598925 2.282740 0.079570 -0.021026 194146.000000 0 0 1
-27.888727 19.234212 -30.846323 45.817372 -0.603764 2.309385 0.082518 -0.018414 15828.900000 0 0 1
-28.119777 17.939712 -31.708543 46.021590 -0.567875 2.330895 0.085980 -0.017922 -209179.000000 0 0 1
-28.573257 16.773712 -30.970973 45.354047 -0.530837 2.322482 0.053516 -0.014520 277387.000000 0 0 1
-28.534347 15.609012 -31.743323 45.447648 -0.500557 2.344038 0.037055 -0.005496 -62501.100000 0 0 1
-28.968137 14.328012 -31.016243 44.793439 -0.459329 2.335646 0.040585 -0.007910 319125.000000 0 0 1
-30.278907 14.207812 -30.478573 45.250608 -0.438731 2.309798 0.021165 -0.007974 465568.000000 0 0 1
-30.789737 12.856112 -30.293903 45.066707 -0.395540 2.307974 0.014431 -0.002290 327022.000000 0 0 1
-30.261697 12.073712 -29.039313 43.644318 -0.379624 2.298776 0.012982 -0.019901 -130939.000000 0 0 1
-30.861727 12.640812 -27.899493 43.481237 -0.388751 2.267437 0.006503 -0.015700 345424.000000 0 0 1
-30.981247 11.744612 -26.776563 42.599975 -0.362350 2.250494 0.012649 -0.014168 -7376.340000 0 0 1
-30.855087 12.465512 -25.434573 41.884876 -0.383951 2.223391 0.009796 -0.009240 -689439.000000 0 0 1
-29.509467 12.693312 -25.203363 40.830605 -0.406219 2.236060 0.006859 -0.010030 -764336.000000 0 0 1
-29.447747 13.590112 -24.077623 40.392980 -0.432375 2.209412 0.006172 -0.005564 -832948.000000 0 0 1
-28.009677 13.777612 -23.643323 39.158285 -0.457137 2.219042 0.020651 -0.000162 -1501600.000000 0 0 1
-27.192967 14.537912 -24.503923 39.385918 -0.490959 2.242281 0.038027 -0.001970 419751.000000 0 0 1
-25.837827 14.735312 -24.113823 38.290980 -0.518295 2.252030 0.052724 -0.007561 454387.000000 0 0 1
-25.643667 15.370512 -22.709623 37.544337 -0.539970 2.220405 0.057958 -0.001487 -1421190.000000 0 0 1
-25.861027 16.777112 -22.649323 38.252529 -0.575490 2.204459 0.071227 -0.005785 102569.000000 0 0 1
-26.024907 17.232412 -21.375623 37.830795 -0.584870 2.171269 0.074369 -0.002788 -102625.000000 0 0 1
-27.494557 17.311712 -20.928023 38.647486 -0.561930 2.143029 0.049947 0.000655 -107262.000000 0 0 1
-28.162727 16.058612 -20.727923 38.479410 -0.518225 2.139661 0.047365 0.005831 125148.000000 0 0 1
-29.423377 16.292612 -20.139523 39.201845 -0.505703 2.110334 0.040982 0.006728 -1302430.000000 0 0 1
-30.389137 15.128212 -20.199323 39.501583 -0.461899 2.107557 0.020667 0.005676 -227840.000000 0 0 1
-30.933427 14.861412 -21.510623 40.502412 -0.447871 2.130689 0.021971 0.005679 451815.000000 0 0 1
-31.842227 15.869712 -21.946923 41.802423 -0.462355 2.123530 0.004784 0.004550 -774467.000000 0 0 1
-32.233337 15.690312 -23.431023 42.827406 -0.453010 2.149696 0.001835 -0.003044 150248.000000 0 0 1
-33.362447 14.839412 -23.707723 43.535240 -0.418516 2.146665 0.013855 -0.004208 628051.000000 0 0 1
-33.753547 14.994412 -25.026223 44.614416 -0.418047 2.166323 0.021403 -0.014300 884241.000000 0 0 1
-35.160706 14.290212 -25.288193 45.606777 -0.386033 2.158538 0.028964 -0.012263 999313.000000 0 0 1
-35.224995 12.938412 -25.580433 45.415430 -0.352010 2.169115 0.032855 -0.016037 60775.700000 0 0 1
-34.894340 12.036612 -24.533423 44.321370 -0.332164 2.157399 0.031990 -0.015740 -115591.000000 0 0 1
-34.732906 10.546412 -24.930423 44.035526 -0.294796 2.172616 0.045630 -0.026502 -154701.000000 0 0 1
-35.978829 9.970312 -25.235373 45.063370 -0.270332 2.165179 0.056471 -0.022721 -220644.000000 0 0 1
-35.853002 8.786312 -25.979413 45.139416 -0.240328 2.184057 0.054534 -0.015642 660546.000000 0 0 1
-37.189627 8.076212 -26.467113 46.355168 -0.213843 2.178475 0.083545 -0.021575 397159.000000 0 0 1
36.643861 7.640012 -25.380063 45.224881 0.205549 2.166627 0.075460 -0.010731 -153129.000000 0 0 1
35.425571 7.039612 -25.845463 44.413006 0.196160 2.191902 0.093325 -0.017899 831634.000000 0 0 1
34.579771 6.269612 -24.759423 42.989505 0.179360 2.184551 0.101912 -0.025180 542370.000000 0 0 1
35.251361 5.192612 -24.162123 43.051479 0.146251 2.166677 0.097542 -0.031057 251590.000000 0 0 1
34.237471 4.324212 -23.702723 41.865526 0.125635 2.172640 0.104734 -0.026433 313126.000000 0 0 1
34.737901 3.199012 -22.774823 41.661109 0.091831 2.149177 0.094187 -0.023940 -48344.400000 0 0 1
35.532601 2.172212 -23.407123 42.604901 0.061057 2.152442 0.099046 -0.022760 501269.000000 0 0 1
36.478011 1.761112 -22.435523 42.861398 0.048241 2.121684 0.110737 -0.025353 205629.000000 0 0 1
-36.738767 1.113612 -22.953923 43.334278 -0.030302 2.129037 0.120139 -0.020755 409931.000000 0 0 1
-36.977457 -0.149188 -23.521823 43.825001 0.004035 2.137343 0.136741 -0.021128 447165.000000 0 0 1
-35.728827 -0.821888 -23.445923 42.742670 0.022999 2.151409 0.144105 -0.026809 253053.000000 0 0 1
-23.851517 28.969012 26.784594 46.103286 -0.881981 0.950877 0.027871 -0.028434 -1605480.000000 0 0 1
-25.145397 29.374312 26.480984 46.865591 -0.862810 0.970313 0.018065 -0.029702 -167747.000000 0 0 1
-25.518967 28.996612 25.165304 46.101124 -0.849104 0.993367 0.013045 -0.018843 -276576.000000 0 0 1
-25.939067 27.508412 24.920544 45.283346 -0.814752 0.988043 0.025365 -0.023752 -199835.000000 0 0 1
-27.125517 27.045212 25.560034 46.049457 -0.783916 0.982366 0.031893 -0.025401 171707.000000 0 0 1
-27.029907 26.714312 26.934644 46.580525 -0.779526 0.954229 0.035968 -0.030106 -719636.000000 0 0 1
-26.048187 25.566112 27.333414 45.598789 -0.776058 0.928004 0.025135 -0.025514 350040.000000 0 0 1
-24.769017 25.932612 27.793694 45.370629 -0.808344 0.911460 0.020204 -0.027964 -228727.000000 0 0 1
-24.753817 26.423812 29.086914 46.443706 -0.818018 0.894020 0.024015 -0.023163 -514680.000000 0 0 1
-23.416717 26.295512 29.827464 46.146226 -0.843243 0.867981 0.036574 -0.012549 51370.100000 0 0 1
-22.304317 27.046912 29.304504 45.692143 -0.881203 0.874544 0.048012 -0.022031 1191740.000000 0 0 1
-21.027517 26.723712 29.864114 45.256806 -0.904126 0.850136 0.089155 -0.030576 843186.000000 0 0 1
-20.429217 25.294112 29.586104 43.960010 -0.891398 0.832508 0.084316 -0.014483 -549506.000000 0 0 1
-19.688317 25.115312 28.391394 42.713931 -0.905939 0.843722 0.085060 -0.019374 468072.000000 0 0 1
-20.391217 24.338912 27.373954 41.922758 -0.873426 0.859308 0.074690 -0.021974 239553.000000 0 0 1
-20.285417 22.775112 27.533364 41.088806 -0.843152 0.836461 0.059719 -0.000530 62378.500000 0 0 1
-20.814817 22.134012 28.674184 41.777744 -0.816104 0.814337 0.048776 -0.005155 21397.100000 0 0 1
-20.713617 20.719212 28.585054 40.932199 -0.785533 0.797705 0.076197 -0.007969 42311.700000 0 0 1
-21.127317 20.031212 29.907374 41.738040 -0.758773 0.771953 0.089403 -0.014669 623980.000000 0 0 1
-20.204017 20.383912 30.970684 42.224275 -0.789830 0.747368 0.076641 -0.021466 736862.000000 0 0 1
-20.681217 19.861612 32.184878 43.105251 -0.765185 0.727773 0.075019 -0.013829 104883.000000 0 0 1
-19.770017 20.317112 33.365075 43.782037 -0.799045 0.704289 0.083496 -0.014936 -87751.300000 0 0 1
-19.800817 21.728112 33.570377 44.622342 -0.831773 0.719216 0.056311 -0.007275 519421.000000 0 0 1
-18.871117 22.484112 32.766323 43.991889 -0.872542 0.730522 0.080873 -0.005473 -16504.500000 0 0 1
-17.415617 22.578312 33.225351 43.783647 -0.913775 0.709246 0.084731 0.003742 -522593.000000 0 0 1
-16.704417 21.384812 33.143571 42.835079 -0.907665 0.686059 0.091467 -0.016838 -16094.400000 0 0 1
-15.398717 21.623212 33.687911 42.890081 -0.951970 0.667377 0.068688 -0.010315 761574.000000 0 0 1
-14.473017 20.334512 33.418385 41.710299 -0.952230 0.641495 0.061460 -0.013710 721332.000000 0 0 1
-13.092317 20.357612 33.725416 41.511983 -0.999275 0.622495 0.046963 -0.013599 314602.000000 0 0 1
-12.798817 20.392112 -32.718003 40.621615 -1.010304 2.507203 0.059017 -0.012337 -781093.000000 0 0 1
-11.309117 20.237612 -32.428963 39.863450 -1.061209 2.520944 0.058692 -0.010594 -81819.900000 0 0 1
-10.601817 21.482012 -32.605073 40.459438 -1.112346 2.507941 0.061384 -0.010656 417583.000000 0 0 1
-9.217017 21.358312 -32.292323 39.798555 -1.163397 2.517330 0.049841 -0.005426 261477.000000 0 0 1
-8.464317 22.689212 -32.283833 40.357042 -1.213732 2.498017 0.059697 -0.011920 -248071.000000 0 0 1
-8.648717 23.660012 -31.263143 40.149478 -1.220344 2.463338 0.059274 -0.012441 -68964.600000 0 0 1
-8.265617 23.305712 -29.940903 38.832129 -1.229976 2.451260 0.051268 -0.017636 -72650.900000 0 0 1
-7.866117 24.548012 -29.127693 38.896056 -1.260696 2.417136 0.059109 -0.018396 498914.000000 0 0 1
-6.661817 25.155112 -29.598023 39.410689 -1.311910 2.420394 0.066093 -0.020630 248634.000000 0 0 1
-6.251317 26.146012 -28.684153 39.312511 -1.336110 2.388598 0.095830 -0.022732 -178032.000000 0 0 1
-4.921617 26.813112 -29.082043 39.861391 -1.389264 2.388503 0.116654 -0.031886 -630643.000000 0 0 1
-3.841517 26.150912 -28.478253 38.854064 -1.424941 2.393451 0.109804 -0.022780 598750.000000 0 0 1
-2.604117 26.289412 -29.230513 39.399714 -1.472063 2.406691 0.118170 -0.026592 1307500.000000 0 0 1
-1.723517 27.542212 -28.955433 39.999513 -1.508301 2.380227 0.125669 -0.036579 -585934.000000 0 0 1
-1.060617 27.461112 -27.752263 39.056698 -1.532193 2.361095 0.141420 -0.046955 202562.000000 0 0 1
-0.166817 28.584312 -27.573983 39.716687 -1.564960 2.338197 0.139754 -0.041632 151346.000000 0 0 1
0.634583 28.550612 -26.245073 38.785873 1.548573 2.314021 0.142696 -0.050799 370277.000000 0 0 1
1.659183 27.585112 -26.073993 37.994004 1.510721 2.327139 0.165063 -0.054014 909611.000000 0 0 1
2.885483 27.708012 -26.825763 38.674041 1.467031 2.337323 0.132599 -0.044129 441255.000000 0 0 1
4.118883 28.027012 -25.975513 38.434436 1.424880 2.312900 0.128304 -0.049368 -452740.000000 0 0 1
4.489283 26.993512 -25.099723 37.132188 1.405995 2.313057 0.123843 -0.039933 473259.000000 0 0 1
5.553883 27.375612 -24.210123 36.964845 1.370636 2.284913 0.093406 -0.034141 434043.000000 0 0 1
6.052583 26.134312 -23.413423 35.606521 1.343213 2.288372 0.094215 -0.032273 -425564.000000 0 0 1
7.218183 26.345712 -22.692723 35.512791 1.303379 2.263996 0.090077 -0.039621 -676146.000000 0 0 1
7.952883 25.166112 -22.493023 34.677336 1.264712 2.276589 0.076889 -0.031265 1165100.000000 0 0 1
9.469583 25.356112 -22.094023 34.939251 1.213373 2.255386 0.065022 -0.010725 578653.000000 0 0 1
9.764483 25.963312 -20.854623 34.703803 1.211072 2.215463 0.068595 -0.011704 -701731.000000 0 0 1
11.119883 26.241112 -20.697323 35.222534 1.169978 2.198906 0.084002 -0.012527 -230407.000000 0 0 1
11.956583 25.091712 -20.056023 34.275325 1.126112 2.195855 0.064308 -0.001300 -187614.000000 0 0 1
12.136883 24.036012 -20.996223 34.144914 1.103200 2.233075 0.058772 -0.007429 -98223.400000 0 0 1
12.335883 22.772212 -20.303523 32.908672 1.074342 2.235678 0.054585 0.003983 -50728.100000 0 0 1
12.610983 21.525012 -21.219823 32.751243 1.040827 2.275632 0.059377 0.007091 947861.000000 0 0 1
11.481883 21.347412 -22.105623 32.805551 1.077323 2.310187 0.063191 -0.005953 849835.000000 0 0 1
11.657683 20.151512 -22.871023 32.635390 1.046334 2.347321 0.065870 0.004821 145329.000000 0 0 1
10.865583 20.165012 -24.195823 33.318560 1.076567 2.383570 0.075089 0.000337 1056140.000000 0 0 1
9.434183 20.313612 -24.112323 32.909736 1.136010 2.393049 0.069509 -0.008326 728395.000000 0 0 1
8.938383 20.022412 -25.405483 33.559354 1.150924 2.429554 0.057495 -0.009179 961126.000000 0 0 1
7.356983 19.974012 -25.426793 33.160340 1.217888 2.444611 0.079064 -0.022136 1610640.000000 0 0 1
6.607083 21.254712 -25.329723 33.719596 1.269413 2.420655 0.089961 -0.034093 636709.000000 0 0 1
6.532583 21.830012 -24.050323 33.130682 1.280030 2.383172 0.102909 -0.041006 -1350400.000000 0 0 1
5.143683 22.076012 -23.533123 32.674388 1.341882 2.374932 0.132407 -0.049430 -1084130.000000 0 0 1
4.577383 23.241612 -24.012723 33.730339 1.376337 2.363000 0.127954 -0.049772 -276637.000000 0 0 1
3.211783 23.215512 -23.645023 33.292081 1.433323 2.360621 0.171582 -0.054730 464716.000000 0 0 1
2.294883 24.330012 -24.261723 34.436131 1.476751 2.352575 0.153371 -0.045710 511037.000000 0 0 1
0.890783 24.195412 -24.123023 34.177941 1.533997 2.354358 0.185744 -0.058835 109340.000000 0 0 1
0.366083 24.784512 -25.308603 35.425011 1.556027 2.366602 0.178014 -0.048282 1112220.000000 0 0 1
-1.200017 24.691812 -25.494823 35.512133 -1.522235 2.371604 0.184433 -0.043374 982947.000000 0 0 1
-1.681317 23.493812 -25.968183 35.058986 -1.499354 2.404908 0.202386 -0.047433 623372.000000 0 0 1
-3.023917 23.750012 -26.449033 35.675740 -1.444155 2.405910 0.189900 -0.034135 1218980.000000 0 0 1
-3.692417 22.510612 -27.118143 35.436637 -1.408214 2.442237 0.164293 -0.029939 485916.000000 0 0 1
-2.835517 22.005612 -28.184143 35.869667 -1.442648 2.474684 0.189191 -0.044311 353338.000000 0 0 1
-3.156217 20.746412 -28.709833 35.561634 -1.419821 2.510403 0.140052 -0.034765 499389.000000 0 0 1
-4.311017 20.598512 -29.779273 36.464896 -1.364486 2.526389 0.109634 -0.025569 693865.000000 0 0 1
-3.933017 20.928012 -31.124573 37.711925 -1.385032 2.541573 0.098969 -0.027779 25650.800000 0 0 1
-3.534217 22.280412 -31.389063 38.654633 -1.413483 2.518433 0.130124 -0.034684 52811.200000 0 0 1
-2.949717 22.556112 -32.798243 39.914956 -1.440762 2.535189 0.097176 -0.024489 -1743000.000000 0 0 1
-1.855717 21.840012 -33.011673 39.625753 -1.486031 2.555460 0.099291 -0.022393 -1635170.000000 0 0 1
-1.340017 22.035112 33.517317 40.134179 -1.510058 0.582425 0.091585 -0.014798 388096.000000 0 0 1
-0.258317 20.952612 33.169500 39.233842 -1.558468 0.563425 0.096011 -0.008415 779054.000000 0 0 1
-0.781417 19.642212 32.868998 38.298800 -1.531035 0.538994 0.080992 -0.001337 64278.600000 0 0 1
0.278483 19.005612 32.227153 37.414973 1.556145 0.532888 0.082289 -0.009099 115019.000000 0 0 1
-0.181717 17.639712 31.681804 36.261951 -1.560495 0.508054 0.070115 -0.006355 1137670.000000 0 0 1
-1.199417 17.675412 30.626044 35.380974 -1.503042 0.524434 0.060067 -0.001874 855445.000000 0 0 1
-1.662817 16.346512 30.380794 34.539340 -1.469422 0.495776 0.055157 -0.000995 278998.000000 0 0 1
-2.792417 16.293312 29.299584 33.641272 -1.401061 0.513681 0.061234 -0.002208 951128.000000 0 0 1
-4.047117 16.894512 29.666264 34.378640 -1.335675 0.529762 0.037886 -0.007487 574852.000000 0 0 1
-4.198117 18.275612 29.173274 34.679995 -1.345002 0.571273 0.045685 -0.011268 -500419.000000 0 0 1
-5.587117 18.874912 29.388584 35.371839 -1.283006 0.590169 0.042499 -0.014809 -205932.000000 0 0 1
-6.488817 18.233612 28.526844 34.472455 -1.228901 0.596110 0.025819 -0.009586 299673.000000 0 0 1
-7.864317 18.613912 28.702294 35.101949 -1.171048 0.613420 0.034641 -0.019811 971956.000000 0 0 1
-8.846617 17.917712 27.690134 34.147482 -1.112173 0.625111 0.039293 -0.022751 131784.000000 0 0 1
-9.036117 16.562512 27.984534 33.750590 -1.071356 0.593199 0.039815 -0.027936 370424.000000 0 0 1
-9.970317 16.317012 29.067044 34.792889 -1.022300 0.581881 0.046315 -0.021681 -593379.000000 0 0 1
-10.461917 14.868012 29.025854 34.249228 -0.957623 0.559559 0.032881 -0.019724 99141.800000 0 0 1
-9.472017 13.814312 29.056494 33.538547 -0.969755 0.522927 0.038028 -0.007390 725929.000000 0 0 1
-8.534417 13.858612 30.134264 34.248668 -1.018825 0.495215 0.028517 -0.004260 124995.000000 0 0 1
-9.149217 13.650512 31.596154 35.614064 -0.980319 0.479595 0.055830 -0.021189 -174306.000000 0 0 1
-9.753517 12.412912 31.852308 35.549697 -0.904801 0.460132 0.068989 -0.011815 389605.000000 0 0 1
-10.104917 12.250712 33.278956 36.873814 -0.881090 0.445236 0.064136 -0.004294 149466.000000 0 0 1
-10.816317 10.915312 33.632811 36.977056 -0.789953 0.428575 0.064705 -0.018508 269598.000000 0 0 1
-9.864417 9.834612 33.713585 36.477830 -0.783885 0.391805 0.077496 -0.028236 523461.000000 0 0 1
-10.186917 8.829412 -33.209563 35.841412 -0.714133 2.755984 0.108857 -0.032179 -333785.000000 0 0 1
-9.489417 8.982112 -31.859703 34.434982 -0.757941 2.752394 0.081088 -0.035308 -165321.000000 0 0 1
-9.940617 10.064312 -31.032953 34.104991 -0.791581 2.713897 0.087541 -0.031553 700027.000000 0 0 1
-8.814517 10.637112 -30.357003 33.352533 -0.878824 2.714529 0.094829 -0.038429 788105.000000 0 0 1
-7.823217 11.564612 -31.118483 34.107227 -0.976031 2.719838 0.072334 -0.031631 55555.900000 0 0 1
-8.372117 12.826112 -31.316783 34.861761 -0.992497 2.686712 0.074837 -0.030117 -289319.000000 0 0 1
-7.440517 13.693012 -31.883133 35.487942 -1.073049 2.686958 0.042154 -0.023485 -396766.000000 0 0 1
-7.928617 15.131512 -32.188103 36.440356 -1.088149 2.653671 0.043526 -0.020202 -39870.900000 0 0 1
-8.628217 15.338612 -33.400643 37.753438 -1.058395 2.656656 0.048794 -0.021664 143844.000000 0 0 1
-8.961017 16.751912 -33.503403 38.514989 -1.079601 2.625754 0.060349 -0.023238 -523074.000000 0 0 1
-9.489417 17.185212 32.918393 38.327550 -1.066277 0.537736 0.060917 -0.032250 1984640.000000 0 0 1
-10.800217 16.752012 32.437589 38.071928 -0.998148 0.550987 0.048301 -0.033091 1662630.000000 0 0 1
-11.930617 16.934512 33.260097 39.183559 -0.957047 0.557032 0.056471 -0.041363 -320788.000000 0 0 1
-13.282417 16.391912 32.750706 38.958004 -0.889805 0.572283 0.068469 -0.044415 84608.700000 0 0 1
-13.265317 14.999812 32.575284 38.237574 -0.846686 0.551159 0.060020 -0.043250 432391.000000 0 0 1
-14.360817 14.388012 33.242460 38.965485 -0.786344 0.548849 0.051716 -0.034747 97461.000000 0 0 1
-14.416817 12.892012 32.939403 38.197550 -0.729620 0.530917 0.046565 -0.026603 -52751.100000 0 0 1
-14.450217 12.529812 31.566894 36.908992 -0.714339 0.544738 0.027511 -0.024776 517063.000000 0 0 1
-13.209017 12.008012 31.070594 35.833675 -0.737807 0.521490 0.040712 -0.014040 243597.000000 0 0 1
-13.345017 11.513212 29.592254 34.443359 -0.711841 0.537176 0.044910 -0.009786 188831.000000 0 0 1
-14.218117 10.359512 29.521254 34.365371 -0.629673 0.537404 0.035369 -0.000967 649003.000000 0 0 1
-14.257117 9.920212 28.185084 33.107022 -0.607907 0.552276 0.034210 0.003417 -213739.000000 0 0 1
-14.969517 8.584712 28.030114 32.916120 -0.520691 0.551839 0.035405 0.002848 -330668.000000 0 0 1
-14.349317 7.426312 28.475904 32.740343 -0.477579 0.516101 0.019902 -0.000704 -19460.600000 0 0 1
-15.162017 6.298912 28.230574 32.657745 -0.393746 0.526766 0.041516 0.006122 55708.100000 0 0 1
-14.277817 5.010112 28.415134 32.192811 -0.337478 0.489316 0.044661 0.001245 543359.000000 0 0 1
-13.347817 4.882112 27.354164 30.826117 -0.350646 0.479188 0.039030 -0.004812 -129084.000000 0 0 1
-13.984217 4.602112 26.086564 29.954074 -0.317930 0.513796 0.045587 -0.000451 -206814.000000 0 0 1
-13.092817 4.391312 24.824014 28.406639 -0.323608 0.507668 0.027693 0.004190 -146810.000000 0 0 1
-12.282417 3.230812 24.983694 28.026431 -0.257217 0.470298 0.024064 0.000133 -99906.800000 0 0 1
-11.885417 2.767612 23.776644 26.725486 -0.228781 0.474192 0.033145 -0.006015 -590383.000000 0 0 1
-10.784217 1.705812 23.879594 26.257268 -0.156877 0.428844 0.029264 -0.011323 -929207.000000 0 0 1
-9.514917 2.265812 23.938834 25.859917 -0.233779 0.387883 0.020545 -0.021877 -1121420.000000 0 0 1
-8.601317 1.297812 24.253494 25.766236 -0.149756 0.344366 0.018232 -0.010152 -998299.000000 0 0 1
-7.115317 1.625912 24.164954 25.243144 -0.224652 0.293325 0.052180 -0.023565 -863035.000000 0 0 1
-6.750317 1.761712 22.779124 23.823494 -0.255288 0.297193 0.067085 -0.022616 -302237.000000 0 1 0
-5.396217 1.957512 22.477824 23.199215 -0.347994 0.250032 0.067084 -0.024294 349.203000 0 1 0
-4.615217 3.187612 23.042124 23.714986 -0.604440 0.238781 0.080219 -0.025784 -413416.000000 0 1 0
-4.179217 3.060712 24.371244 24.915684 -0.632119 0.209434 0.079169 -0.028585 56726.900000 0 1 0
-3.867517 4.329612 24.918294 25.585632 -0.841711 0.228896 0.089285 -0.027183 14962.000000 0 0 1
5.116183 -24.522188 13.507777 28.460026 -1.365112 1.076261 0.109371 -0.012521 67989.600000 0 0 1
3.995683 -25.387768 13.370177 28.970086 -1.414691 1.091092 0.124807 -0.048703 -694785.000000 0 0 1
2.825383 -24.686988 13.629577 28.340705 -1.456844 1.069094 0.109581 -0.048362 30173.800000 0 0 1
1.574483 -25.587148 13.928777 29.175195 -1.509340 1.073082 0.077142 -0.061524 409401.000000 0 0 1
1.461983 -26.143378 15.241977 30.297384 -1.514933 1.043639 0.122672 -0.055161 39564.800000 0 0 1
2.395783 -27.172928 15.523077 31.385884 -1.482856 1.053436 0.109867 -0.053418 -173390.000000 0 0 1
2.505583 -27.558188 17.050777 32.503241 -1.480126 1.018566 0.112096 -0.051323 -220367.000000 0 0 1
3.138683 -26.576508 17.848477 32.167224 -1.453241 0.982595 0.127048 -0.058608 154213.000000 0 0 1
3.275183 -27.073258 19.211577 33.358250 -1.450407 0.957071 0.110105 -0.051064 -458609.000000 0 0 1
3.910983 -26.077608 20.117577 33.167067 -1.421931 0.919079 0.099819 -0.045393 -136589.000000 0 0 1
3.163683 -24.892888 20.566377 32.444424 -1.444382 0.884217 0.100000 -0.045787 324212.000000 0 0 1
3.909483 -24.069988 21.466277 32.487682 -1.409781 0.848977 0.097954 -0.039344 -29459.500000 0 0 1
3.084683 -22.970788 22.184077 32.082794 -1.437308 0.807284 0.119395 -0.042749 -305021.000000 0 0 1
2.420483 -21.978688 21.462177 30.814713 -1.461110 0.800300 0.113697 -0.045335 -250602.000000 0 0 1
3.162583 -21.210788 20.558977 29.708097 -1.422784 0.806495 0.084998 -0.030269 -855422.000000 0 0 1
2.366283 -20.113088 19.958077 28.433439 -1.453686 0.792703 0.057490 -0.034425 -384785.000000 0 0 1
2.081283 -19.084688 20.889577 28.371315 -1.462170 0.743222 0.052821 -0.032642 395087.000000 0 0 1
1.155083 -18.136188 20.335477 27.272462 -1.507193 0.729299 0.058563 -0.035133 -14632.000000 0 0 1
1.182983 -16.799888 21.031177 26.943387 -1.500496 0.675220 0.058409 -0.028183 444197.000000 0 0 1
2.322283 -15.962488 20.736877 26.271888 -1.426326 0.661099 0.025643 -0.013517 605054.000000 0 0 1
2.228283 -14.713188 21.356277 26.029478 -1.420491 0.608572 0.039066 -0.006601 238296.000000 0 0 1
3.168383 -13.674988 20.669677 24.985586 -1.343122 0.596576 0.004680 -0.012066 -536906.000000 0 1 0
3.109483 -13.442388 19.272677 23.702379 -1.343475 0.621319 -0.005330 -0.013894 -631519.000000 0 1 0
1.908783 -13.048888 18.673277 22.860626 -1.425547 0.614900 0.000190 0.002777 -115296.000000 0 1 0
1.198283 -11.766888 19.241477 22.586057 -1.469311 0.551159 -0.010085 0.000943 -702474.000000 0 1 0
1.923883 -10.597588 18.991377 21.833062 -1.391212 0.515909 -0.001526 -0.000580 -208499.000000 0 1 0
1.601083 -9.578188 19.957277 22.194551 -1.405168 0.452865 0.010640 -0.012691 -202140.000000 0 1 0
0.138383 -9.213188 20.213277 22.214377 -1.555777 0.427708 0.009807 -0.006739 -446368.000000 0 1 0
-0.098917 -8.185288 21.145577 22.674747 1.558712 0.369354 0.024824 -0.017067 -346589.000000 0 1 0
-1.434117 -7.737188 21.121577 22.539783 1.387523 0.356626 0.023830 -0.016179 47741.500000 0 1 0
-1.787617 -7.066288 22.476277 23.628606 1.323017 0.313592 0.022941 -0.009968 -156305.000000 0 1 0
-1.974017 -8.034988 23.477177 24.892481 1.329890 0.338833 0.021206 -0.004702 -32821.400000 0 1 0
-2.239217 -7.457588 24.722577 25.919791 1.279101 0.305120 0.028964 -0.004072 6165.950000 0 0 1
-2.422917 -8.489088 25.825477 27.292681 1.292773 0.329384 0.036542 -0.005072 -143109.000000 0 0 1
-1.276617 -9.226788 26.117777 27.729076 1.433309 0.342579 0.050571 -0.008728 -420820.000000 0 0 1
-1.568317 -10.191888 27.101477 28.996970 1.418115 0.363575 0.065827 -0.016480 -56738.500000 0 0 1
-0.465117 -11.258988 27.250577 29.488559 1.529509 0.392105 0.079785 -0.021801 -127556.000000 0 0 1
0.667283 -10.720888 27.883177 29.880667 -1.508635 0.367715 0.076350 -0.021822 -585839.000000 0 0 1
1.674183 -11.698888 28.012577 30.403476 -1.428655 0.399229 0.089685 -0.026217 516041.000000 0 0 1
2.905183 -11.172588 28.815177 31.041605 -1.316402 0.381046 0.107287 -0.034691 434906.000000 0 0 1
2.511583 -10.953788 30.120577 32.148759 -1.345403 0.357105 0.112560 -0.041850 -367758.000000 0 0 1
3.565883 -10.557088 30.939377 32.884840 -1.245057 0.345695 0.137821 -0.033100 -559977.000000 0 0 1
3.025483 -10.057988 32.267477 33.933859 -1.278602 0.314687 0.126792 -0.033000 -33150.100000 0 0 1
2.191483 -10.983188 32.954177 34.805328 -1.373852 0.327610 0.130445 -0.040309 144072.000000 0 0 1
1.751283 -10.542688 -33.623469 35.281056 -1.406186 2.833843 0.109762 -0.039452 290465.000000 0 0 1
2.848983 -10.538788 -32.466869 34.253180 -1.306774 2.817217 0.092156 -0.020405 1189990.000000 0 0 1
3.889383 -9.576588 -32.789769 34.380333 -1.185013 2.836224 0.085941 -0.027263 562256.000000 0 0 1
4.216383 -8.736088 -31.705869 33.156587 -1.121133 2.844687 0.101333 -0.033885 -125514.000000 0 0 1
3.313983 -7.494088 -31.536269 32.583433 -1.154437 2.887382 0.094207 -0.026024 -129925.000000 0 0 1
3.464883 -6.604088 -32.603069 33.445172 -1.087618 2.916715 0.127753 -0.035323 108526.000000 0 0 1
3.038583 -5.281188 -32.263769 32.834048 -1.048692 2.954943 0.094143 -0.017397 -36535.100000 0 0 1
3.118583 -4.229788 -33.421169 33.831808 -0.935479 2.985629 0.097793 -0.013171 -587777.000000 0 0 1
2.072183 -4.157688 33.522677 33.843023 -1.108431 0.137700 0.109096 -0.032547 -924993.000000 0 0 1
2.276183 -3.093788 32.637277 32.862508 -0.936493 0.117146 0.137579 -0.029543 145127.000000 0 0 1
1.425383 -3.122588 31.367077 31.554331 -1.142571 0.108997 0.149165 -0.034404 -256519.000000 0 0 1
0.060483 -2.910188 31.605077 31.738837 -1.550016 0.091841 0.133653 -0.036057 -458137.000000 0 0 1
-0.669517 -3.637688 30.597577 30.820330 1.388783 0.120301 0.131968 -0.030163 -374657.000000 0 0 1
-2.174917 -3.540188 30.751277 31.030699 1.019892 0.134300 0.099763 -0.028311 -706816.000000 0 0 1
-2.824617 -2.348788 30.350377 30.571893 0.693680 0.120453 0.088406 -0.030079 -156478.000000 0 0 1
-4.202617 -2.681188 30.276677 30.684327 0.567879 0.163186 0.067459 -0.025072 11814.800000 0 0 1
-4.942317 -1.617888 29.456677 29.912203 0.316360 0.174743 0.037241 -0.017367 -341058.000000 0 0 1
-4.620417 -1.632888 28.097977 28.522113 0.339707 0.172670 0.034972 -0.016427 498618.000000 0 0 1
-5.638017 -1.006188 27.266977 27.861940 0.176606 0.207028 0.016123 -0.016295 798657.000000 0 0 1
-5.884617 0.507112 27.450877 28.079112 -0.085963 0.211932 0.048925 -0.018105 236992.000000 0 0 1
-6.793917 0.820112 28.519077 29.328615 -0.120131 0.235500 0.036033 -0.015878 -5478.430000 0 0 1
-6.935417 2.206212 28.638577 29.548866 -0.307986 0.248860 0.044945 -0.011075 -162510.000000 0 0 1
-8.286517 2.705812 29.214077 30.486884 -0.315617 0.289976 0.031013 -0.015132 271025.000000 0 0 1
-9.313017 2.329512 28.296277 29.880398 -0.245106 0.327080 0.019824 -0.006783 -587810.000000 0 0 1
-10.566917 2.539112 28.851877 30.830790 -0.235818 0.360236 0.033530 -0.002121 -365290.000000 0 0 1
-11.730317 1.831512 28.094477 30.500072 -0.154884 0.399827 0.041227 0.000374 158799.000000 0 0 1
-11.771517 0.441212 28.359577 30.708776 -0.037464 0.393688 0.051630 -0.003125 -17867.300000 0 0 1
-12.476817 -0.202688 27.313977 30.029409 0.016244 0.428538 0.053081 -0.001378 -888639.000000 0 0 1
-12.516217 -1.740788 27.346977 30.125458 0.138196 0.432860 0.053754 -0.006966 698167.000000 0 0 1
-11.267417 -2.360788 27.703177 29.999901 0.206536 0.393840 0.052164 -0.010326 1113650.000000 0 0 1
-10.078417 -2.126288 26.956477 28.857360 0.207925 0.364987 0.038341 -0.009374 -234182.000000 0 0 1
-9.932717 -2.670588 25.533677 27.527433 0.262656 0.382935 0.032143 -0.011726 -482219.000000 0 0 1
-10.679817 -2.032188 24.483977 26.789054 0.188035 0.417872 0.023855 -0.016523 474587.000000 0 0 1
-10.571717 -2.679988 23.229577 25.662361 0.248275 0.438946 0.034662 -0.017278 24807.300000 0 0 1
-9.386317 -2.173188 22.358777 24.346265 0.227518 0.406865 0.029998 -0.020481 290713.000000 0 1 0
-8.132417 -2.459988 22.914777 24.439205 0.293741 0.355066 0.027302 -0.020074 -607598.000000 0 1 0
-7.075117 -1.812588 22.272977 23.439886 0.250798 0.316865 0.022993 -0.016350 -119234.000000 0 1 0
-5.635717 -2.154988 22.697977 23.486240 0.365226 0.259816 0.024952 -0.011479 -143133.000000 0 1 0
-5.251517 -3.514288 22.502177 23.372562 0.589751 0.273763 0.027794 -0.014301 -58757.200000 0 1 0
-5.850117 -4.470588 23.389677 24.521155 0.652520 0.304966 0.029686 -0.012741 -196317.000000 0 1 0
-5.420617 -5.920388 23.127677 24.481085 0.829437 0.334068 0.030069 -0.011798 149435.000000 0 1 0
-6.192917 -6.538288 22.076377 23.842564 0.812519 0.387324 0.023863 -0.017670 519416.000000 0 1 0
-5.757717 -6.083988 20.747077 22.374258 0.812944 0.383731 0.024709 -0.021374 -383165.000000 0 1 0
-6.873117 -6.171488 19.713877 21.770713 0.731663 0.438186 0.036130 -0.022437 -250206.000000 0 1 0
-7.897617 -5.230188 19.996777 22.126869 0.584938 0.442386 0.038952 -0.020803 -439908.000000 0 1 0
-8.699217 -4.985888 18.886477 21.383042 0.520437 0.488057 0.039615 -0.024803 -63797.600000 0 1 0
-9.563917 -3.697588 19.045777 21.630587 0.368918 0.493876 0.046870 -0.025168 173306.000000 0 1 0
-8.812217 -2.530688 18.876577 20.985345 0.279654 0.452144 0.041421 -0.015590 14099.200000 0 1 0
-9.660317 -1.418088 18.736177 21.127637 0.145754 0.480403 0.040107 -0.018668 430934.000000 0 1 0
-8.707917 -0.236888 18.391877 20.350555 0.027197 0.442339 0.030960 -0.009868 585182.000000 0 1 0
-7.893217 0.300312 19.427777 20.972162 -0.038028 0.386165 0.036040 0.003409 288085.000000 0 1 0
-8.552717 1.024912 20.455977 22.195640 -0.119266 0.398558 0.070797 0.004082 -365985.000000 0 1 0
-8.656117 2.563712 20.151877 22.081647 -0.287942 0.421179 0.063477 -0.008394 72523.500000 0 1 0
-9.498217 2.883512 19.079277 21.506966 -0.294742 0.479727 0.038956 -0.017878 -57379.200000 0 1 0
-9.204717 4.173212 18.694277 21.251318 -0.425659 0.495616 0.039759 -0.020363 116223.000000 0 1 0
-9.929817 4.769812 17.439577 20.627439 -0.447806 0.563379 0.028308 -0.011284 997641.000000 0 1 0
-11.203017 5.359912 17.791477 21.697302 -0.446247 0.609410 0.034296 -0.000462 555174.000000 0 1 0
-11.704317 6.291012 16.865177 21.470959 -0.493192 0.667312 0.023016 0.019915 38971.300000 0 1 0
-11.087517 7.742912 16.927577 21.666301 -0.609614 0.674073 0.011478 0.023486 -1028410.000000 0 1 0
-9.744017 7.803412 16.621677 20.787478 -0.675254 0.644167 0.001531 0.007123 -876634.000000 0 1 0
-9.322317 9.115812 16.372377 20.929844 -0.774199 0.672526 -0.022344 -0.005055 87438.300000 0 1 0
-8.366317 9.743612 17.414777 21.638107 -0.861304 0.635425 0.006136 0.009730 -244276.000000 0 1 0
-9.051417 10.170812 18.563777 23.021455 -0.843567 0.632810 0.059242 0.020241 -213777.000000 0 1 0
-8.827017 11.512312 18.979777 23.888941 -0.916664 0.652612 0.093646 0.016539 -61459.500000 0 1 0
-9.623817 12.589712 18.202477 24.133977 -0.918131 0.716322 0.109159 -0.001629 23590.600000 0 1 0
-9.150317 12.807412 16.891677 23.088674 -0.950435 0.750130 0.079332 -0.007097 -239040.000000 0 1 0
-9.883417 13.828412 16.250277 23.515493 -0.950261 0.807862 0.081415 -0.019644 52711.900000 0 1 0
-9.367917 14.122912 14.776577 22.484700 -0.985119 0.853720 0.062005 -0.015473 -278138.000000 0 1 0
-8.119117 14.704612 14.664777 22.298012 -1.066306 0.853072 0.070558 -0.015239 -841224.000000 0 1 0
-8.005017 15.106212 13.268877 21.641188 -1.083504 0.910779 0.053071 -0.026863 -408593.000000 0 1 0
-7.060017 16.265112 13.077577 22.032265 -1.161278 0.935315 0.038768 -0.019566 539146.000000 0 1 0
-5.714017 15.975812 13.500877 21.682948 -1.227308 0.898672 0.041449 -0.021303 1050560.000000 0 1 0
-4.889317 17.178512 13.372877 22.312340 -1.293510 0.928109 0.032790 -0.023670 -67004.200000 0 1 0
-3.382217 17.004712 13.309577 21.857366 -1.374460 0.916087 0.029610 -0.026581 -192448.000000 0 1 0
-2.618917 16.603312 14.479477 22.185219 -1.414351 0.859702 0.043027 -0.025677 293489.000000 0 1 0
-2.865117 15.283312 14.920377 21.550085 -1.385480 0.806044 0.036303 -0.016682 114525.000000 0 1 0
-1.775017 14.743212 15.920877 21.771250 -1.450978 0.750600 0.035292 -0.013674 1208390.000000 0 1 0
-0.468017 14.499712 15.355177 21.124444 -1.538530 0.757012 0.021846 -0.017848 1056830.000000 0 1 0
0.487383 14.061512 16.349877 21.570400 1.536149 0.710590 0.021914 -0.006146 557219.000000 0 1 0
1.331883 15.123112 17.041877 22.823409 1.482954 0.727733 0.024165 -0.013996 -788804.000000 0 1 0
0.572183 16.019412 17.780077 23.939091 1.535093 0.733671 0.018359 -0.020000 -633414.000000 0 1 0
1.309083 16.835812 18.668977 25.173179 1.493197 0.735312 0.052518 -0.021795 -196422.000000 0 0 1
0.437383 18.057512 19.072777 26.268534 1.546579 0.758208 0.067376 -0.027016 464526.000000 0 0 1
0.004083 18.978912 18.078877 26.211541 1.570581 0.809681 0.050503 -0.026862 -111710.000000 0 0 1
-1.074517 18.461412 17.320177 25.337065 -1.512659 0.818126 0.045122 -0.026047 -194128.000000 0 0 1
-1.881017 19.611912 16.567577 25.741987 -1.475177 0.871602 0.052991 -0.019073 90468.700000 0 0 1
-2.459717 20.459212 17.486377 27.025968 -1.451145 0.867125 0.044677 -0.016626 -450500.000000 0 0 1
-2.935617 21.593212 16.876477 27.562658 -1.435674 0.911836 0.052220 -0.020196 -419069.000000 0 0 1
-3.807717 22.467412 17.790577 28.909997 -1.402914 0.907931 0.046537 -0.011126 394218.000000 0 0 1
-5.112217 22.001612 18.112577 28.952912 -1.342491 0.894912 0.064791 -0.012421 407428.000000 0 0 1
-5.723717 22.681712 19.209077 30.268955 -1.323608 0.883288 0.066918 -0.003086 -288798.000000 0 0 1
-6.970017 22.026612 19.751077 30.395029 -1.264330 0.863458 0.061350 -0.012539 -79055.800000 0 0 1
-8.128517 22.071712 18.898977 30.172911 -1.217932 0.893927 0.046996 -0.013268 700523.000000 0 0 1
-9.264917 21.683012 19.667877 30.705326 -1.166988 0.875600 0.007831 -0.012376 1141650.000000 0 0 1
-10.672117 22.272612 19.301477 31.345021 -1.123960 0.907427 0.024143 -0.019019 756017.000000 0 0 1
-10.754917 23.664512 19.621677 32.568199 -1.144228 0.924192 0.031140 -0.012015 -8728.700000 0 0 1
-11.707117 24.338712 18.826877 32.922345 -1.122457 0.962028 0.008749 -0.012343 -29233.100000 0 0 1
-12.039517 25.747612 19.342877 34.380756 -1.133405 0.973260 0.024474 -0.010091 -4876.330000 0 0 1
-12.778217 25.780912 20.548077 35.357626 -1.110638 0.950655 0.023810 -0.006883 305060.000000 0 0 1
-13.370117 27.045612 20.811677 36.651754 -1.111675 0.966939 0.036897 -0.014649 222977.000000 0 0 1
-14.369817 27.064412 22.041377 37.746474 -1.082697 0.947232 0.078732 -0.033077 592985.000000 0 0 1
-15.644617 26.455512 21.864277 37.718626 -1.036757 0.952475 0.063481 -0.027787 439297.000000 0 0 1
-16.525917 26.993112 22.870077 39.048360 -1.021435 0.945070 0.048366 -0.016763 230383.000000 0 0 1
-17.858317 26.220112 22.718977 39.020067 -0.972873 0.949317 0.064210 -0.014109 -40105.400000 0 0 1
-17.839117 24.955112 23.314177 38.529762 -0.950174 0.920911 0.062070 -0.018742 -442710.000000 0 0 1
-19.107617 24.394212 23.137277 38.671853 -0.906331 0.929422 0.072227 -0.008552 -200125.000000 0 0 1
28.853483 23.992112 23.944364 44.513790 0.693664 1.002842 0.082371 -0.019368 -139302.000000 0 0 1
28.153383 23.111412 24.817884 44.075817 0.687362 0.972697 0.066897 -0.020441 172544.000000 0 0 1
27.569783 22.060612 24.099154 42.749652 0.674847 0.971905 0.069464 -0.010275 -254910.000000 0 0 1
26.985183 21.033612 25.069234 42.415556 0.662084 0.938450 0.086970 -0.006411 453433.000000 0 0 1
25.736783 21.437912 25.644954 42.185658 0.694523 0.917374 0.082984 -0.011325 612100.000000 0 0 1
25.655483 20.889712 26.957254 42.676427 0.683364 0.887096 0.091027 -0.016389 736269.000000 0 0 1
24.359783 21.250812 27.787314 42.627818 0.717340 0.860763 0.098179 -0.016795 619875.000000 0 0 1
24.307283 22.649012 28.151974 43.547162 0.750098 0.867847 0.107941 -0.025411 -122248.000000 0 0 1
23.238983 22.963612 29.001274 43.685829 0.779438 0.844828 0.128039 -0.019741 -283933.000000 0 0 1
23.163183 24.461712 29.548464 44.810937 0.812657 0.850772 0.118047 -0.017448 -681510.000000 0 0 1
22.621083 25.341012 28.660424 44.444349 0.842047 0.869955 0.126020 -0.032026 -98774.500000 0 0 1
22.037583 26.517512 29.179814 45.169625 0.877403 0.868457 0.110287 -0.034038 732822.000000 0 0 1
20.663783 26.397512 29.954204 44.956366 0.906636 0.841567 0.103633 -0.030442 -58373.000000 0 0 1
19.588683 26.302212 29.028384 43.796917 0.930661 0.846251 0.097511 -0.028911 317919.000000 0 0 1
18.293183 26.499312 29.561944 43.712270 0.966592 0.828089 0.083434 -0.023388 342703.000000 0 0 1
17.693683 25.339812 30.377314 43.335363 0.961242 0.794023 0.067857 -0.021102 -813974.000000 0 0 1
18.250383 25.110912 31.658214 44.338210 0.942315 0.775578 0.069495 -0.022462 583445.000000 0 0 1
17.385383 24.266512 32.483514 44.116820 0.949125 0.743200 0.074151 -0.025386 594117.000000 0 0 1
17.902083 24.000612 -33.891223 45.223102 0.929924 2.417986 0.096362 -0.026757 13125.200000 0 0 1
17.793183 25.120512 -33.051603 45.166867 0.954513 2.391707 0.088490 -0.029259 113807.000000 0 0 1
18.024083 24.766612 -31.701963 44.082503 0.941683 2.373376 0.086924 -0.022297 -116183.000000 0 0 1
18.276683 26.100312 -30.909033 44.391798 0.959904 2.340995 0.069832 -0.007136 -388824.000000 0 0 1
17.096283 26.773512 -30.557283 44.077788 1.002511 2.336796 0.098118 -0.026143 -50854.800000 0 0 1
17.274083 28.063312 -29.939443 44.523181 1.019029 2.308305 0.081564 -0.018834 -46249.400000 0 0 1
16.680583 28.017712 -28.470213 43.287262 1.033797 2.288563 0.093279 -0.019951 333310.000000 0 0 1
17.463383 27.258712 -27.515753 42.486748 1.001020 2.275268 0.066035 -0.005350 439698.000000 0 0 1
17.039083 27.512312 -26.171503 41.619769 1.016288 2.250836 0.076295 -0.008970 -383293.000000 0 0 1
17.929983 26.853812 -25.150123 40.928476 0.982087 2.232535 0.060686 -0.010916 218946.000000 0 0 1
19.300383 27.229512 -25.298543 41.880394 0.954186 2.219390 0.065954 -0.004556 -206486.000000 0 0 1
20.006183 26.756912 -24.211823 41.260054 0.928768 2.197910 0.051963 0.003070 -294629.000000 0 0 1
21.503683 27.108012 -24.178923 42.212237 0.900179 2.180707 0.054206 0.000615 49287.500000 0 0 1
22.237283 26.511412 -23.132723 41.623005 0.872851 2.160082 0.039513 0.002344 289882.000000 0 0 1
23.617483 26.402912 -23.486823 42.503295 0.841027 2.156263 0.051503 0.009672 407704.000000 0 0 1
24.439583 26.006012 -22.281923 42.072437 0.816440 2.128935 0.067366 0.004772 -402409.000000 0 0 1
23.829583 24.972412 -21.619823 40.729438 0.808812 2.130359 0.056907 -0.004493 30925.700000 0 0 1
24.547783 24.782612 -20.407823 40.413497 0.790158 2.100150 0.061755 0.000394 306697.000000 0 0 1
23.943183 23.734612 -19.339823 38.866908 0.781024 2.091616 0.054844 -0.006132 -437735.000000 0 0 1
24.223783 22.347512 -19.677923 38.385200 0.745132 2.109057 0.047546 0.000785 316335.000000 0 0 1
23.993783 21.533412 -18.551423 37.196031 0.731409 2.092949 0.053308 -0.001427 -1050950.000000 0 0 1
24.072283 19.959712 -18.776023 36.474703 0.692269 2.111534 0.056370 -0.000705 416963.000000 0 0 1
23.197783 19.369612 -19.760723 36.108242 0.695707 2.149887 0.055497 -0.006247 34595.000000 0 0 1
21.848083 19.627012 -19.482923 35.244044 0.731897 2.156517 0.059361 -0.009722 -1482660.000000 0 0 1
20.939883 19.572712 -20.690723 35.350753 0.751664 2.196044 0.044163 0.005948 -420446.000000 0 0 1
21.162083 20.432712 -21.822723 36.627322 0.767865 2.209063 0.044445 0.009669 -212858.000000 0 0 1
21.190783 21.832812 -21.628223 37.329626 0.800320 2.188770 0.047739 0.008257 -15448.800000 0 0 1
20.770483 22.675812 -22.918423 38.351786 0.829225 2.211281 0.052384 0.001739 572290.000000 0 0 1
19.361883 22.544112 -23.072423 37.622549 0.861190 2.230978 0.070642 0.008563 94923.000000 0 0 1
18.873383 23.095212 -24.327423 38.489179 0.885656 2.255003 0.068319 0.000782 1023850.000000 0 0 1
17.321283 23.024612 -24.548223 37.852012 0.925829 2.276450 0.073804 0.001638 794703.000000 0 0 1
16.607683 24.022512 -23.883523 37.726898 0.965907 2.256301 0.061988 -0.005827 1038790.000000 0 0 1
15.168683 23.923312 -24.030923 37.146992 1.005712 2.274327 0.063828 -0.003001 1384140.000000 0 0 1
14.427683 25.070712 -23.343823 37.170320 1.048602 2.249807 0.060191 -0.001795 -91829.500000 0 0 1
14.600583 26.284812 -24.076723 38.519566 1.063759 2.245994 0.044417 0.000850 302582.000000 0 0 1
13.514283 27.158212 -23.797723 38.555621 1.109060 2.236015 0.056208 0.002761 255890.000000 0 0 1
13.538783 28.570212 -24.433523 39.956885 1.128264 2.228748 0.056096 -0.000755 -25107.700000 0 0 1
13.421383 28.616812 -25.880313 40.851512 1.132252 2.256893 0.060886 -0.009773 -6268.880000 0 0 1
12.791383 29.786012 -26.353303 41.777058 1.165169 2.253390 0.090541 -0.019964 235186.000000 0 0 1
13.684683 31.078012 -26.182913 42.879579 1.156010 2.227633 0.097470 -0.015192 650253.000000 0 0 1
14.885483 30.958612 -26.927243 43.647333 1.122611 2.235629 0.083498 -0.007404 135732.000000 0 0 1
15.687383 32.132412 -26.903093 44.747763 1.116625 2.215819 0.080148 -0.022417 208739.000000 0 0 1
17.142583 32.025312 -27.381763 45.489006 1.079323 2.216728 0.085913 -0.011134 -480440.000000 0 0 1
17.994683 31.272712 -26.594973 44.822803 1.048653 2.205993 0.048091 -0.012656 77310.900000 0 0 1
19.291083 31.343312 -27.208423 45.769502 1.019074 2.207398 0.063988 -0.011474 293440.000000 0 0 1
20.386183 30.628712 -26.346553 45.253235 0.983539 2.192232 0.039028 -0.004153 -15191.400000 0 0 1
20.739383 31.226512 -25.087483 45.106528 0.984531 2.160582 0.040277 -0.009742 141638.000000 0 0 1
21.237983 32.550112 -25.183673 46.311760 0.992686 2.145738 0.042497 -0.023257 -197672.000000 0 0 1
22.779283 32.714612 -25.379373 47.257318 0.962556 2.137728 0.016346 -0.010659 259456.000000 0 0 1
23.178583 32.277712 -26.661323 47.853145 0.948027 2.161745 0.029318 -0.002574 105454.000000 0 0 1
24.473283 32.636012 -27.102513 48.975474 0.927368 2.157224 0.017542 0.003349 -275564.000000 0 0 1
24.920883 31.786912 -28.337733 49.340503 0.905889 2.182582 0.022170 0.004657 -102420.000000 0 0 1
24.197483 31.867112 -29.556453 49.745501 0.921354 2.207009 0.044731 -0.011687 211995.000000 0 0 1
22.945183 31.205012 -29.606943 48.752490 0.936767 2.223443 0.028879 -0.012067 438939.000000 0 0 1
21.826183 31.905512 -30.441823 49.204151 0.970829 2.237863 0.056392 -0.014285 -153083.000000 0 0 1
21.260083 33.107512 -29.931413 49.436706 0.999957 2.221126 0.074961 -0.013436 853087.000000 0 0 1
20.352483 33.630912 -30.956933 50.035922 1.026583 2.237876 0.075290 -0.027292 2124250.000000 0 0 1
18.795983 33.293112 -30.748453 49.063098 1.056843 2.248123 0.086498 -0.031397 1214940.000000 0 0 1
18.450283 31.893612 -30.951523 48.120808 1.046340 2.269472 0.079109 -0.023081 154522.000000 0 0 1
18.546083 31.266112 -32.250123 48.596269 1.035415 2.296462 0.092556 -0.025972 8660.420000 0 0 1
17.734883 31.921912 -33.439683 49.515118 1.063686 2.312226 0.095806 -0.031942 58693.800000 0 0 1
18.230383 33.272312 -33.611743 50.686713 1.069556 2.295785 0.091988 -0.034245 275689.000000 0 0 1
17.969683 33.857412 32.931230 50.534144 1.082856 0.861022 0.080941 -0.031458 -565081.000000 0 0 1
16.502483 -33.750940 32.668174 49.786218 -1.116029 0.855066 0.099652 -0.034011 -1545950.000000 0 0 1
15.704583 33.077612 32.323245 48.842138 1.127528 0.847592 0.098776 -0.031109 -144188.000000 0 0 1
14.329583 33.437712 32.301303 48.649683 1.165926 0.844698 0.091800 -0.033375 362544.000000 0 0 1
13.922783 -33.872540 30.886224 47.907741 -1.180814 0.870163 0.074100 -0.031523 -857381.000000 0 0 1
14.586783 -32.681840 30.606334 47.091661 -1.151001 0.863303 0.086373 -0.026147 351040.000000 0 0 1
13.781783 -32.036240 29.637534 45.767255 -1.164535 0.866404 0.083564 -0.025628 202385.000000 0 0 1
14.111483 -30.523740 29.460364 44.707334 -1.137751 0.851360 0.089680 -0.023284 14978.900000 0 0 1
13.616183 -29.709840 30.500804 44.703177 -1.141057 0.819898 0.094237 -0.021814 254783.000000 0 0 1
14.073083 -28.389840 30.286244 43.832536 -1.110588 0.807989 0.106561 -0.025242 -283811.000000 0 0 1
13.597283 -27.293140 31.288164 43.689253 -1.108594 0.772522 0.099378 -0.030687 271562.000000 0 0 1
12.241783 -26.854940 31.207864 42.953228 -1.143089 0.757502 0.086424 -0.026910 432666.000000 0 0 1
11.957983 -26.020640 30.082444 41.533366 -1.140023 0.760784 0.072839 -0.021282 -411684.000000 0 0 1
12.306683 -24.565440 30.421694 40.992618 -1.106369 0.734559 0.086864 -0.027544 -184730.000000 0 0 1
11.402483 -23.943340 31.270494 41.001755 -1.126347 0.703377 0.087343 -0.034954 66006.700000 0 0 1
12.138183 -22.918240 31.903165 41.114391 -1.083727 0.682559 0.086913 -0.034895 542854.000000 0 0 1
11.288283 -21.997040 32.867261 41.128481 -1.096666 0.644939 0.078577 -0.033659 12863.100000 0 0 1
10.985583 -22.518240 -33.694353 41.988851 -1.116914 2.502202 0.079602 -0.035615 492356.000000 0 0 1
12.144183 -22.716240 -32.879603 41.768134 -1.079851 2.477041 0.093023 -0.029048 415551.000000 0 0 1
12.710283 -21.459740 -32.217623 40.743674 -1.036069 2.482812 0.089551 -0.033446 -376135.000000 0 0 1
13.284683 -20.634740 -33.162423 41.255564 -0.998791 2.504501 0.077510 -0.037130 -208622.000000 0 0 1
13.901083 -19.472540 -32.634253 40.464977 -0.950815 2.508973 0.079951 -0.038781 -91248.600000 0 0 1
14.231883 -18.449640 -33.691733 40.964235 -0.913745 2.536531 0.063948 -0.034673 -1016310.000000 0 0 1
15.087583 -18.904740 33.143763 41.030883 -0.897224 0.630427 0.080277 -0.025340 44987.100000 0 0 1
15.315983 -18.011540 32.074970 39.847191 -0.866103 0.635206 0.058557 -0.028375 -485318.000000 0 0 1
16.305783 -16.907940 32.394913 40.014839 -0.803526 0.627373 0.065845 -0.032002 -2015470.000000 0 0 1
15.804383 -15.830540 33.128188 39.973258 -0.786225 0.593910 0.066474 -0.024806 -37488.700000 0 0 1
16.629983 -14.683440 33.212050 39.939955 -0.723315 0.588905 0.073535 -0.031994 1828420.000000 0 0 1
18.121583 -14.904540 33.802798 41.148101 -0.688295 0.606775 0.059623 -0.016825 1597210.000000 0 0 1
18.996383 -15.603640 32.950066 41.110132 -0.687655 0.640985 0.068299 -0.016050 280736.000000 0 0 1
20.370083 -15.543940 33.351499 42.058017 -0.651818 0.655099 0.070358 -0.012546 740294.000000 0 0 1
21.218283 -16.275740 32.268081 41.908761 -0.654332 0.692017 0.078878 -0.017452 -389229.000000 0 0 1
21.239783 -15.567440 31.079154 40.735579 -0.632492 0.702934 0.065138 -0.007013 -23662.100000 0 0 1
22.009983 -16.279740 30.192354 40.755951 -0.636846 0.736523 0.065195 -0.012164 -604784.000000 0 0 1
22.383283 -15.479440 28.914434 39.707290 -0.605041 0.755120 0.054003 0.000612 -199298.000000 0 0 1
23.326983 -14.462240 29.127784 40.021648 -0.554981 0.755687 0.024528 0.004236 162016.000000 0 0 1
23.572083 -13.796040 27.888614 39.035223 -0.529518 0.774962 0.031859 -0.005825 401207.000000 0 0 1
24.310183 -12.386140 27.923724 39.040182 -0.471222 0.773806 0.022795 0.002317 929669.000000 0 0 1
23.411683 -11.302840 28.275304 38.410336 -0.449782 0.743450 0.038437 -0.003405 684635.000000 0 0 1
24.085083 -10.082240 28.245814 38.465163 -0.396445 0.746129 0.040489 -0.008633 7446.400000 0 0 1
23.007783 -8.983740 28.142324 37.444039 -0.372260 0.720337 0.057466 -0.011685 194730.000000 0 0 1
22.201383 -8.909940 29.312244 37.835117 -0.381647 0.684498 0.051475 -0.011581 -134188.000000 0 0 1
21.293483 -7.819740 29.219654 36.991201 -0.351947 0.660137 0.060293 -0.019790 521590.000000 0 0 1
20.121383 -7.878240 30.254174 37.178646 -0.373188 0.620219 0.045854 -0.007352 217478.000000 0 0 1
20.430083 -7.423140 31.544494 38.308568 -0.348512 0.603363 0.053724 -0.011092 -25148.300000 0 0 1
20.832883 -8.472240 32.375296 39.420143 -0.386249 0.607131 0.061644 -0.022242 -411458.000000 0 0 1
21.008083 -8.066940 33.853664 40.650776 -0.366631 0.586663 0.068580 -0.025934 278552.000000 0 0 1
19.773883 -7.708340 -33.362913 39.541231 -0.371704 2.575028 0.058356 -0.038181 321762.000000 0 0 1
19.946983 -7.395240 -32.014633 38.438372 -0.355035 2.555091 0.062428 -0.044606 -224740.000000 0 0 1
18.619983 -7.029440 -31.349713 37.133829 -0.360979 2.575934 0.068215 -0.043605 -119415.000000 0 0 1
18.809083 -6.232640 -30.197293 36.117917 -0.319976 2.560886 0.061694 -0.045233 1025730.000000 0 0 1
17.504183 -5.811940 -29.740583 34.995390 -0.320578 2.586483 0.085019 -0.039636 1081700.000000 0 0 1
17.571083 -4.774640 -28.594223 33.899406 -0.265326 2.574567 0.071682 -0.037399 -480546.000000 0 0 1
18.179083 -5.233040 -27.395443 33.292252 -0.280283 2.537253 0.068996 -0.031350 22617.100000 0 0 1
17.520383 -6.258840 -26.634963 32.489354 -0.343103 2.531868 0.076099 -0.038336 240156.000000 0 0 1
16.119183 -5.847940 -26.079843 31.211932 -0.348027 2.559971 0.100571 -0.040738 230070.000000 0 0 1
16.113283 -4.751540 -25.182623 30.271761 -0.286756 2.553292 0.071462 -0.036682 153599.000000 0 0 1
14.792483 -4.644040 -24.639423 29.111610 -0.304202 2.579943 0.105340 -0.041910 560227.000000 0 0 1
14.573483 -3.463240 -23.654723 27.998685 -0.233312 2.577083 0.098874 -0.033440 22158.100000 0 0 1
14.582683 -2.156440 -24.249923 28.378929 -0.146813 2.595393 0.091043 -0.041054 23355.300000 0 0 1
14.303183 -1.175440 -23.283123 27.350805 -0.081996 2.589211 0.098841 -0.032528 -27213.200000 0 0 1
14.638683 0.230560 -23.841423 27.977806 0.015749 2.590886 0.070516 -0.034190 -85518.900000 0 0 1
13.811283 0.684560 -24.927423 28.506080 0.049525 2.635118 0.093202 -0.037231 208970.000000 0 0 1
14.272083 1.949560 -25.458043 29.250728 0.135759 2.626686 0.079381 -0.017012 -66586.000000 0 0 1
13.367483 2.533560 -26.559953 29.841910 0.187310 2.668189 0.068572 -0.015915 496538.000000 0 0 1
12.164583 3.205560 -26.157853 29.025609 0.257658 2.693325 0.085145 -0.034566 696346.000000 0 0 1
11.519783 3.707560 -27.311713 29.872748 0.311374 2.724495 0.086738 -0.033784 -405810.000000 0 0 1
10.254383 4.524560 -27.111793 29.337234 0.415538 2.749582 0.092074 -0.038059 -439306.000000 0 0 1
10.415383 5.848560 -26.673573 29.226107 0.511653 2.720548 0.077434 -0.047945 -483710.000000 0 0 1
9.182183 6.484560 -26.672923 28.944893 0.614882 2.742740 0.093228 -0.051284 -494899.000000 0 0 1
8.428483 5.265312 -31.216473 32.760205 0.558387 2.833382 0.079670 -0.033685 -128817.000000 0 0 1
8.223783 4.389712 -30.089883 31.500813 0.490307 2.841164 0.072078 -0.018450 410979.000000 0 0 1
7.789583 3.121512 -30.504273 31.637511 0.381135 2.873133 0.054400 -0.014570 -237017.000000 0 0 1
7.477083 2.159312 -29.318693 30.334059 0.281142 2.882127 0.063390 -0.018410 -211336.000000 0 0 1
8.592683 1.645812 -28.620623 29.927963 0.189244 2.844929 0.105733 -0.030613 198400.000000 0 0 1
8.232383 0.701012 -27.637893 28.846432 0.084948 2.851105 0.100137 -0.033446 -674189.000000 0 0 1
9.368383 0.277912 -26.759683 28.353562 0.029656 2.804698 0.110590 -0.045153 67871.000000 0 0 1
10.427783 -0.476588 -27.396103 29.317439 -0.045672 2.777548 0.119162 -0.031021 118504.000000 0 0 1
11.442183 -0.722688 -26.478323 28.853898 -0.063076 2.732970 0.119606 -0.034779 -375596.000000 0 0 1
12.539683 -1.611988 -27.111313 29.914302 -0.127850 2.705240 0.105402 -0.036934 -330400.000000 0 0 1
12.003883 -2.815288 -27.490943 30.129238 -0.230368 2.719989 0.119631 -0.041853 -355324.000000 0 0 1
12.915483 -3.864788 -27.662663 30.772865 -0.290756 2.688118 0.131639 -0.043356 -362877.000000 0 0 1
12.327083 -5.272688 -27.371633 30.478919 -0.404182 2.686116 0.127592 -0.034201 -139221.000000 0 0 1
11.830583 -5.348188 -26.068033 29.122296 -0.424570 2.679503 0.118413 -0.035054 5253.300000 0 0 1
11.219883 -6.564588 -25.778713 28.870775 -0.529381 2.674542 0.116586 -0.043429 -25275.700000 0 0 1
10.876483 -6.728188 -24.278523 27.441084 -0.553984 2.656756 0.120893 -0.039991 -735046.000000 0 0 1
11.996883 -6.966888 -23.511323 27.299176 -0.526126 2.608514 0.109481 -0.034541 -500574.000000 0 0 1
11.666483 -6.722788 -22.143123 25.915644 -0.522772 2.595251 0.102641 -0.032408 -583134.000000 0 0 1
12.823683 -6.691888 -21.191123 25.657200 -0.480965 2.542651 0.090494 -0.029080 -701655.000000 0 0 1
13.595783 -5.504488 -21.173123 25.757442 -0.384695 2.535745 0.080171 -0.029058 412273.000000 0 0 1
14.742783 -5.678688 -20.326123 25.743901 -0.367669 2.480873 0.075488 -0.025977 536512.000000 0 0 1
15.247683 -4.356988 -19.788723 25.358800 -0.278330 2.466021 0.087139 -0.023403 307072.000000 0 0 1
16.086783 -3.607588 -20.715023 26.474732 -0.220608 2.469379 0.079344 -0.019064 653630.000000 0 0 1
16.645083 -2.466588 -20.082523 26.200202 -0.147117 2.444174 0.083599 -0.011342 729816.000000 0 0 1
17.848883 -1.814488 -20.864623 27.517403 -0.101310 2.431396 0.065215 -0.009802 491047.000000 0 0 1
19.041283 -2.532588 -20.887223 28.377113 -0.132229 2.398026 0.071045 -0.016453 613705.000000 0 0 1
20.147983 -1.821288 -21.515923 29.532918 -0.090151 2.386985 0.069240 -0.014214 873688.000000 0 0 1
21.454583 -2.611988 -21.591923 30.550495 -0.121149 2.355707 0.053866 -0.011378 -620022.000000 0 0 1
22.356983 -2.363988 -20.506723 30.429407 -0.105347 2.310287 0.056991 -0.013257 389475.000000 0 0 1
23.615183 -2.987788 -20.629923 31.499166 -0.125851 2.284894 0.051782 -0.017545 154920.000000 0 0 1
24.663883 -2.193788 -21.450523 32.760415 -0.088714 2.284674 0.050737 -0.017895 -1005520.000000 0 0 1
24.283583 -2.082488 -22.814223 33.384396 -0.085548 2.323178 0.053025 -0.020325 359935.000000 0 0 1
25.124183 -1.218088 -23.611223 34.499249 -0.048445 2.324574 0.062482 -0.018562 774132.000000 0 0 1
26.388283 -1.984288 -24.143223 35.821419 -0.075055 2.310391 0.075144 -0.019787 -636482.000000 0 0 1
27.392083 -2.273988 -23.167223 35.947426 -0.082826 2.271133 0.067366 -0.013232 -125531.000000 0 0 1
28.548783 -2.805388 -23.727223 37.227467 -0.097952 2.261861 0.065430 -0.009611 209266.000000 0 0 1
29.446183 -1.826288 -24.597123 38.411346 -0.061942 2.265764 0.076019 -0.020519 -751744.000000 0 0 1
28.837283 -1.436588 -25.839673 38.747147 -0.049776 2.300809 0.081593 -0.025843 365120.000000 0 0 1
29.667083 -0.523488 -26.504653 39.785757 -0.017644 2.299877 0.091906 -0.032355 -302096.000000 0 0 1
29.027483 -0.367788 -27.944193 40.294019 -0.012670 2.337142 0.074162 -0.034297 1066490.000000 0 0 1
27.664783 0.061512 -28.035443 39.386928 0.002223 2.362848 0.070364 -0.029847 631058.000000 0 0 1
27.331283 1.312612 -27.446563 38.756107 0.047989 2.357723 0.068861 -0.029837 -304666.000000 0 0 1
25.817883 1.650412 -27.530683 37.778637 0.063838 2.387272 0.066008 -0.025347 432708.000000 0 0 1
24.969083 1.010912 -26.584543 36.485819 0.040464 2.387111 0.051428 -0.017044 875749.000000 0 0 1
23.592783 1.219712 -26.929503 35.823250 0.051653 2.421482 0.058564 -0.020871 939615.000000 0 0 1
22.553183 0.856512 -25.829753 34.300959 0.037959 2.423456 0.064500 -0.015159 170863.000000 0 0 1
22.730883 1.671012 -24.718723 33.622918 0.073381 2.396721 0.070622 -0.017883 861984.000000 0 0 1
21.820683 1.255712 -23.674723 32.221290 0.057483 2.396100 0.058381 -0.014773 80384.300000 0 0 1
22.002783 1.984812 -22.350823 31.426441 0.089964 2.362015 0.066702 -0.015606 -331142.000000 0 0 1
21.833183 3.419112 -22.433123 31.490049 0.155340 2.363691 0.063152 -0.021673 478025.000000 0 0 1
22.208383 3.957312 -21.215323 30.967120 0.176339 2.325526 0.058440 -0.025831 -301038.000000 0 0 1
21.652383 5.376312 -20.949123 30.603859 0.243379 2.324749 0.072854 -0.025470 -90557.000000 0 0 1
22.307283 6.422512 -21.710523 31.783806 0.280329 2.322752 0.078195 -0.027149 524852.000000 0 0 1
22.189083 7.742112 -21.142523 31.611738 0.335708 2.303415 0.077160 -0.028965 -464661.000000 0 0 1
22.779883 7.907112 -19.711023 31.144340 0.334097 2.256080 0.074134 -0.034207 -824463.000000 0 0 1
24.176883 7.919312 -19.636023 32.137370 0.316543 2.228123 0.058714 -0.028469 -247028.000000 0 0 1
24.641883 7.986612 -18.288823 31.709453 0.313424 2.185556 0.072567 -0.034170 -76121.100000 0 0 1
24.539483 9.393212 -17.536523 31.590320 0.365574 2.159308 0.072855 -0.042958 -433014.000000 0 0 1
23.264183 9.874312 -17.181723 30.560364 0.401398 2.167867 0.077322 -0.039629 -69952.300000 0 0 1
23.274883 11.240612 -16.964423 30.917037 0.449915 2.151614 0.080616 -0.035119 315162.000000 0 0 1
21.895783 11.811112 -16.450523 29.825281 0.494687 2.155033 0.067549 -0.041343 1877930.000000 0 0 1
20.795383 11.851812 -17.412423 29.599086 0.518012 2.199721 0.078453 -0.047450 1176140.000000 0 0 1
20.123183 10.629312 -17.536323 28.730600 0.485962 2.227325 0.082416 -0.051806 -528592.000000 0 0 1
19.195183 10.498312 -18.759023 28.819621 0.500479 2.279581 0.093313 -0.030506 -215194.000000 0 0 1
19.834083 10.142912 -19.926123 29.888457 0.472716 2.300546 0.087863 -0.026610 42353.700000 0 0 1
18.918983 9.969412 -20.986923 29.962777 0.484977 2.346801 0.077075 -0.032166 -33478.700000 0 0 1
19.677083 10.033912 -22.317123 31.399378 0.471559 2.361361 0.086161 -0.030626 -178282.000000 0 0 1
20.115283 11.344512 -22.691023 32.375995 0.513509 2.347398 0.074527 -0.034381 182149.000000 0 0 1
20.670283 11.323112 -23.985423 33.626983 0.501150 2.364962 0.090031 -0.032998 -40505.900000 0 0 1
21.173983 12.743412 -24.392523 34.723584 0.541773 2.349668 0.079484 -0.018308 208249.000000 0 0 1
21.869283 12.831412 -25.650273 36.067259 0.530607 2.361970 0.082585 -0.009070 180761.000000 0 0 1
22.014483 14.176812 -26.059473 36.942057 0.572129 2.353804 0.079768 -0.010648 659554.000000 0 0 1
20.753583 14.889412 -26.726253 36.968884 0.622334 2.378843 0.077613 -0.013039 2093570.000000 0 0 1
19.596383 14.950812 -25.839213 35.710081 0.651730 2.379776 0.061854 -0.006429 573360.000000 0 0 1
18.420483 15.359412 -26.483003 35.729192 0.695027 2.405674 0.075002 -0.013406 712169.000000 0 0 1
17.092283 14.857412 -25.809323 34.336715 0.715562 2.421362 0.081732 -0.021260 611242.000000 0 0 1
16.874083 13.427312 -25.876533 33.684155 0.672135 2.446838 0.085964 -0.022030 -564248.000000 0 0 1
15.519283 13.182012 -25.711403 32.797710 0.704143 2.471782 0.074766 -0.030038 -832341.000000 0 0 1
15.263683 11.682512 -25.699243 32.092245 0.653272 2.499414 0.058031 -0.033295 799660.000000 0 0 1
13.861383 11.360712 -25.779243 31.397023 0.686575 2.534084 0.060608 -0.041938 997490.000000 0 0 1
13.740083 9.980112 -25.774323 30.865972 0.628193 2.559002 0.058424 -0.046025 979509.000000 0 0 1
12.240483 9.497112 -25.598073 29.921328 0.659858 2.597336 0.089262 -0.051028 1165800.000000 0 0 1
11.719583 9.760212 -24.305923 28.694742 0.694431 2.581209 0.118461 -0.058229 942349.000000 0 0 1
10.364283 9.259212 -24.210123 27.915612 0.729144 2.620470 0.116799 -0.056285 1361340.000000 0 0 1
9.404883 9.866712 -23.132923 26.850250 0.809358 2.609118 0.108728 -0.053828 173564.000000 0 0 1
8.936183 11.121012 -23.540523 27.526142 0.893900 2.596745 0.110241 -0.051367 -554208.000000 0 0 1
8.256283 11.803812 -22.530323 26.741571 0.960433 2.572742 0.102629 -0.037454 13240.800000 0 0 1
9.069283 12.674212 -21.507423 26.560436 0.949697 2.514529 0.105591 -0.039650 295409.000000 0 0 1
9.969083 11.861812 -20.757423 25.902814 0.871881 2.500358 0.121046 -0.038908 245872.000000 0 0 1
10.761283 12.662312 -19.833823 25.875082 0.866379 2.444204 0.141185 -0.044492 -482.391000 0 0 1
11.785383 11.779212 -19.100323 25.346941 0.785136 2.424250 0.150464 -0.045562 31287.400000 0 0 1
12.835083 11.163412 -19.819723 26.118624 0.715853 2.432319 0.143583 -0.045675 257670.000000 0 0 1
12.406483 10.117212 -20.682523 26.154264 0.684108 2.482894 0.141023 -0.054037 -1028090.000000 0 0 1
13.492283 9.454412 -21.553723 27.129146 0.611214 2.488957 0.139712 -0.044951 -446490.000000 0 0 1
14.340183 8.733712 -20.727023 26.674483 0.547038 2.460739 0.137570 -0.056592 80496.500000 0 0 1
15.419083 8.133612 -21.427123 27.622914 0.485407 2.458621 0.109629 -0.045461 111259.000000 0 0 1
16.011783 6.868412 -20.768923 27.109047 0.405220 2.443587 0.141246 -0.048242 60470.300000 0 0 1
16.774883 7.188412 -19.629623 26.802837 0.404850 2.392594 0.114861 -0.044589 82924.300000 0 0 1
17.306583 6.016312 -18.990823 26.388732 0.334563 2.374104 0.114313 -0.050457 -3076.280000 0 0 1
18.185083 6.314712 -17.763223 26.193604 0.334220 2.316040 0.135809 -0.044075 -308546.000000 0 0 1
19.490983 6.745112 -18.156123 27.477987 0.333163 2.292616 0.117539 -0.050315 621465.000000 0 0 1
20.353683 6.911712 -17.026623 27.421708 0.327362 2.240709 0.113579 -0.050027 280847.000000 0 0 1
20.910683 5.530612 -16.462923 27.182203 0.258567 2.221380 0.103016 -0.047372 -716826.000000 0 0 1
22.225583 5.272012 -16.926223 28.430049 0.232900 2.208515 0.075414 -0.039309 429800.000000 0 0 1
22.668083 4.066412 -16.299123 28.214165 0.177501 2.186696 0.102437 -0.042615 633999.000000 0 0 1
24.184583 3.794212 -16.627923 29.593545 0.155617 2.167449 0.040418 -0.004213 846150.000000 0 0 1
24.707983 2.632712 -15.954823 29.529172 0.106153 2.141598 0.039938 -0.011960 150838.000000 0 0 1
25.981683 2.251612 -16.428223 30.822137 0.086446 2.132939 0.035015 -0.009845 42709.600000 0 0 1
26.652483 1.090912 -15.650423 30.927022 0.040908 2.101388 0.051765 -0.024855 -95300.900000 0 0 1
26.034083 -0.178488 -15.832923 30.471081 -0.006856 2.117185 0.062341 -0.026645 -181287.000000 0 0 1
27.015283 -1.169088 -15.763823 31.300006 -0.043248 2.098599 0.053272 -0.020582 -320085.000000 0 0 1
26.523983 -2.614288 -15.884423 31.026941 -0.098246 2.108256 0.052124 -0.026071 -142138.000000 0 0 1
25.892283 -3.171688 -14.723023 29.953920 -0.121888 2.084633 0.056196 -0.029905 537836.000000 0 0 1
25.694183 -4.595088 -14.858423 30.034624 -0.176967 2.088297 0.053592 -0.024234 -620844.000000 0 0 1
24.991183 -5.258288 -13.621223 28.943852 -0.207381 2.060777 0.058994 -0.024498 1371560.000000 0 0 1
23.583983 -5.070488 -13.355723 27.573347 -0.211773 2.076440 0.079297 -0.018674 933421.000000 0 0 1
22.721283 -5.644588 -14.293123 27.430119 -0.243498 2.118905 0.093047 -0.016505 -291986.000000 0 0 1
21.212983 -5.388388 -13.979023 25.969953 -0.248753 2.139187 0.110641 -0.018385 337306.000000 0 0 1
20.659983 -6.257488 -12.989223 25.193471 -0.294097 2.112479 0.120988 -0.023871 333369.000000 0 0 1
21.022283 -6.000988 -11.671523 24.782508 -0.278063 2.061173 0.142171 -0.024440 -629897.000000 0 1 0
20.731583 -7.245488 -10.723123 24.439333 -0.336221 2.025020 0.130779 -0.023803 507002.000000 0 1 0
19.359283 -7.637888 -10.701523 23.401747 -0.375785 2.045748 0.125137 -0.020458 1010100.000000 0 1 0
19.281283 -8.858588 -11.489823 24.130033 -0.430676 2.067082 0.121034 -0.028356 428486.000000 0 1 0
17.847483 -9.494488 -11.454523 23.235405 -0.488902 2.086305 0.136865 -0.029926 2184250.000000 0 1 0
16.743383 -8.555588 -11.775123 22.185412 -0.472396 2.130293 0.110754 -0.025483 1770360.000000 0 1 0
15.471883 -9.180088 -11.961023 21.603686 -0.535508 2.157545 0.105665 -0.026025 702524.000000 0 1 0
14.320683 -8.166388 -12.163823 20.487324 -0.518258 2.206476 0.078213 -0.017705 -372852.000000 0 1 0
14.271183 -7.324888 -13.351023 20.870325 -0.474203 2.264921 0.066101 -0.018818 7776.210000 0 1 0
15.312483 -6.381488 -13.373323 21.308245 -0.394863 2.249279 0.064757 -0.017731 -196208.000000 0 1 0
15.204583 -5.211788 -14.449923 21.613476 -0.330226 2.303068 0.059540 -0.013298 249635.000000 0 1 0
14.135883 -4.321888 -14.110123 20.435202 -0.296713 2.332950 0.067056 -0.017494 372363.000000 0 1 0
13.817183 -3.330488 -15.114423 20.747349 -0.236528 2.386925 0.058586 -0.023178 232883.000000 0 1 0
14.918583 -2.254488 -15.461223 21.603154 -0.149985 2.368412 0.082732 -0.023294 198532.000000 0 1 0
15.968783 -2.804188 -16.241223 22.948700 -0.173832 2.357060 0.081471 -0.019088 518445.000000 0 1 0
17.099083 -1.941488 -16.373523 23.753742 -0.113059 2.331323 0.095542 -0.014260 1118960.000000 0 1 0
18.279983 -2.156188 -15.361323 23.974511 -0.117411 2.266252 0.106268 -0.014675 162227.000000 0 1 0
17.807283 -2.088988 -14.036523 22.770314 -0.116777 2.235009 0.094698 -0.007625 1070080.000000 0 1 0
18.886683 -2.509588 -13.153323 23.151992 -0.132102 2.175027 0.096557 -0.010790 870514.000000 0 1 0
18.429983 -2.792388 -11.702823 22.009493 -0.150370 2.131423 0.099019 -0.006366 -120905.000000 0 1 0
18.239683 -1.582088 -10.964523 21.340333 -0.086522 2.110397 0.100544 -0.007164 756153.000000 0 1 0
17.649383 -1.770988 -9.666723 20.201056 -0.100008 2.069771 0.089591 -0.011250 -692010.000000 0 1 0
17.445883 -0.441088 -8.876123 19.579044 -0.025278 2.041314 0.070085 -0.005395 -5128.160000 0 1 0
18.617083 0.056512 -8.209723 20.346954 0.003035 1.986121 0.077252 -0.004150 2177040.000000 0 1 0
19.677783 0.621712 -9.074623 21.678341 0.031584 2.002703 0.080788 0.006984 774763.000000 0 1 0
19.368083 1.920212 -9.859423 21.817838 0.098820 2.039687 0.087191 0.005541 -683337.000000 0 1 0
19.202183 3.076912 -9.035623 21.443733 0.158887 2.005745 0.068094 0.017138 506187.000000 0 1 0
18.610883 4.067412 -9.852723 21.447260 0.215167 2.048108 0.065279 0.008497 -373968.000000 0 1 0
18.615683 5.412612 -9.166023 21.444253 0.282954 2.012450 0.061114 0.016340 -210521.000000 0 1 0
17.884583 6.443412 -9.766623 21.372009 0.345801 2.045395 0.047369 0.006299 334456.000000 0 1 0
18.403683 7.686612 -9.320823 22.014933 0.395643 2.007976 0.072874 0.008669 -231349.000000 0 1 0
-26.575147 -28.879358 5.657077 39.651712 0.826926 1.427639 0.057618 -0.007857 -22908.700000 0 0 1
-26.879007 -27.952628 6.677177 39.349906 0.804976 1.400284 0.071845 -0.010456 974596.000000 0 0 1
-25.902717 -26.851938 6.543477 37.878680 0.803389 1.397177 0.062177 -0.010880 399261.000000 0 0 1
-26.140937 -25.800458 7.589777 37.504892 0.778843 1.367021 0.057679 -0.010324 286259.000000 0 0 1
-27.285297 -24.918388 7.344677 37.674365 0.740089 1.374588 0.063963 -0.013872 698904.000000 0 0 1
-28.515467 -25.497598 7.670777 39.014102 0.729583 1.372891 0.061487 -0.014550 -818597.000000 0 0 1
-28.836947 -25.710008 9.189577 39.711741 0.728135 1.337273 0.081279 -0.023539 -738459.000000 0 0 1
-27.906437 -26.529918 9.894477 39.755584 0.760117 1.319270 0.071643 -0.024898 -140278.000000 0 0 1
-28.173897 -26.820268 11.296077 40.505513 0.760789 1.288171 0.062842 -0.031375 -908409.000000 0 0 1
-26.967297 -27.557548 11.919077 40.357378 0.796223 1.270987 0.037962 -0.031804 785072.000000 0 0 1
-25.782407 -26.833918 12.250577 39.177396 0.805380 1.252767 0.043084 -0.020541 270046.000000 0 0 1
-25.961007 -25.939298 13.302177 39.035484 0.784980 1.223059 0.051892 -0.017848 -1113100.000000 0 0 1
-24.639217 -25.463328 13.906777 38.064032 0.801845 1.196785 0.057782 -0.015819 -452768.000000 0 0 1
-23.998317 -26.562108 14.513277 38.627711 0.836062 1.185621 0.045279 -0.012248 -421220.000000 0 0 1
-22.850517 -26.124908 15.202177 37.891465 0.852157 1.157966 0.050590 -0.008699 -139317.000000 0 0 1
-22.154817 -27.350978 15.862677 38.607466 0.889976 1.147387 0.047034 -0.012556 -441352.000000 0 0 1
-23.004817 -28.086368 16.697277 39.960790 0.884533 1.139728 0.049413 -0.001477 -102217.000000 0 0 1
-22.367717 -29.174228 17.353077 40.651933 0.916696 1.129768 0.055969 -0.003219 -224973.000000 0 0 1
-23.310717 -30.077038 18.173777 42.169941 0.911465 1.125234 0.073408 -0.019721 -2919.330000 0 0 1
-24.172317 -30.807488 17.320377 42.818194 0.905501 1.154354 0.050864 -0.018967 -105697.000000 0 0 1
-24.977117 -31.742748 17.922877 44.189229 0.904119 1.153168 0.054967 -0.021385 -635073.000000 0 0 1
-25.930387 -32.537758 17.057977 44.967380 0.897929 1.181712 0.044923 -0.027821 -64431.500000 0 0 1
-25.206007 -33.410178 16.203377 44.879085 0.924459 1.201408 0.048599 -0.029836 340728.000000 0 0 1
-25.976537 33.365292 15.936977 45.188609 -0.909272 1.210366 0.048279 -0.034518 -798961.000000 0 0 1
-25.391877 32.627873 14.739377 43.892764 -0.909474 1.228337 0.056160 -0.037258 -19852.800000 0 0 1
-24.148017 32.039386 15.030077 42.843344 -0.924933 1.212355 0.046051 -0.034200 285298.000000 0 0 1
-23.041517 32.892948 14.740677 42.780195 -0.959735 1.219018 0.044781 -0.032380 464882.000000 0 0 1
-21.646917 32.144098 14.770177 41.472764 -0.978124 1.206661 0.048948 -0.034953 850373.000000 0 0 1
-21.509917 31.227344 13.728377 40.327309 -0.967615 1.223429 0.030630 -0.015811 -580674.000000 0 0 1
-20.276917 30.592744 13.731377 39.186988 -0.985474 1.212791 0.044636 -0.017204 -534036.000000 0 0 1
-20.173817 29.691434 12.511877 38.014618 -0.973996 1.235411 0.037980 -0.013608 173088.000000 0 0 1
-19.824417 30.436094 11.344677 38.053449 -0.993476 1.268069 0.019610 -0.004858 -30326.200000 0 0 1
-20.101417 29.623354 10.247777 37.237440 -0.974601 1.291998 0.034291 -0.010692 95118.900000 0 0 1
-19.695417 30.258944 8.908877 37.187111 -0.993792 1.328874 0.033184 -0.012280 718151.000000 0 0 1
-18.295717 30.438544 8.639977 36.549793 -1.029590 1.332148 0.047878 -0.021195 391850.000000 0 0 1
-17.922317 30.725814 7.315577 36.315324 -1.042748 1.367962 0.066714 -0.028700 96738.800000 0 0 1
-17.692017 29.473724 6.428377 34.971873 -1.030183 1.385929 0.084068 -0.037416 348879.000000 0 0 1
-18.916117 28.746784 6.222177 34.970166 -0.988800 1.391916 0.057317 -0.027992 661248.000000 0 0 1
-18.908817 27.479184 6.895377 34.061637 -0.968092 1.366949 0.042477 -0.019722 -159729.000000 0 0 1
-20.021417 26.625554 6.303877 33.904514 -0.926040 1.383778 0.036762 -0.012296 -286155.000000 0 0 1
-19.663817 26.170044 5.008077 33.115219 -0.926408 1.418982 0.057314 -0.026452 172823.000000 0 0 1
-20.686217 25.399994 4.462277 33.060417 -0.887325 1.435410 0.060570 -0.026636 -936861.000000 0 0 1
-20.166917 24.696724 3.185377 32.043397 -0.886025 1.471224 0.081898 -0.032321 -1130660.000000 0 0 1
-19.744617 25.541654 2.130977 32.353779 -0.912714 1.504884 0.098003 -0.030035 97719.400000 0 0 1
-18.545317 26.279964 2.208877 32.240416 -0.956267 1.502230 0.101281 -0.022247 694958.000000 0 0 1
-17.208517 25.416294 2.423577 30.789523 -0.975628 1.492000 0.102506 -0.028724 230108.000000 0 0 1
-16.841017 24.377864 1.506877 29.667672 -0.966250 1.519983 0.140800 -0.040633 231950.000000 0 0 1
-16.680017 24.807884 0.163977 29.894497 -0.978857 1.565311 0.143092 -0.041835 -158433.000000 0 0 1
-16.225417 23.769304 -0.915323 28.793780 -0.971830 1.602591 0.137041 -0.041043 37304.100000 0 0 1
-17.223017 22.805564 -1.140723 28.601176 -0.923968 1.610691 0.145560 -0.058345 428822.000000 0 0 1
-16.719717 21.678364 -1.920523 27.444285 -0.913825 1.640833 0.143974 -0.048731 990774.000000 0 0 1
-15.624317 20.683664 -1.338523 25.956210 -0.923852 1.622388 0.130673 -0.052579 756859.000000 0 0 1
-16.181417 19.671464 -0.498423 25.476522 -0.882436 1.590362 0.131016 -0.053565 -385335.000000 0 0 1
-15.206917 18.909564 0.113477 24.265918 -0.893505 1.566120 0.130804 -0.045270 -681612.000000 0 1 0
-15.692217 17.855764 1.105877 23.796994 -0.849800 1.524308 0.096495 -0.037897 -131352.000000 0 1 0
-16.339317 16.762864 0.507377 23.414190 -0.798193 1.549125 0.085222 -0.039376 155448.000000 0 1 0
-17.010917 15.934264 1.429377 23.351984 -0.752730 1.509548 0.099275 -0.052120 31510.700000 0 1 0
-17.596817 14.660764 0.780177 22.917125 -0.694629 1.536746 0.093067 -0.046145 -945244.000000 0 1 0
-18.699317 14.906364 -0.018723 23.913688 -0.673007 1.571579 0.124593 -0.054975 -427766.000000 0 1 0
-19.233717 13.664764 -0.419723 23.597411 -0.617711 1.588584 0.107383 -0.042902 -414365.000000 0 1 0
-20.537717 13.861464 -1.201823 24.806901 -0.593700 1.619262 0.105241 -0.035153 -707963.000000 0 1 0
-21.299617 12.737364 -1.666823 24.873528 -0.538954 1.637858 0.092527 -0.035128 935682.000000 0 1 0
-22.271517 12.249464 -0.744523 25.428805 -0.502848 1.600079 0.117064 -0.039034 554369.000000 0 0 1
-23.593517 13.101564 -0.640023 26.994715 -0.506906 1.594508 0.136562 -0.038810 -97620.500000 0 0 1
-23.474717 14.351764 0.053077 27.514328 -0.548739 1.568867 0.146222 -0.047109 662773.000000 0 0 1
-24.776317 14.916464 0.246077 28.921053 -0.541922 1.562288 0.131860 -0.038759 516525.000000 0 0 1
-24.708217 16.272564 0.901877 29.599082 -0.582390 1.540322 0.134418 -0.044861 -41799.700000 0 0 1
-24.347417 16.163964 2.256177 29.311444 -0.586077 1.493748 0.132517 -0.050050 36669.000000 0 0 1
-24.196417 17.384764 2.941877 29.939125 -0.623025 1.472376 0.112776 -0.046757 654866.000000 0 0 1
-25.557787 18.089664 3.267277 31.481923 -0.615938 1.466826 0.123872 -0.048883 307880.000000 0 0 1
-26.405187 17.418864 4.242077 31.916233 -0.583147 1.437489 0.135808 -0.049116 541887.000000 0 0 1
-27.625957 18.099264 4.428577 33.322502 -0.579990 1.437501 0.121759 -0.052608 447257.000000 0 0 1
-28.721577 17.862564 3.330577 33.986658 -0.556382 1.472642 0.135210 -0.051060 -237651.000000 0 0 1
-29.841767 18.724264 3.417977 35.395080 -0.560360 1.474079 0.130564 -0.045475 481190.000000 0 0 1
-30.681597 18.632364 2.261677 35.967215 -0.545756 1.507873 0.124980 -0.032424 353327.000000 0 0 1
-31.923567 19.558564 2.191777 37.502739 -0.549683 1.512320 0.118580 -0.035650 101985.000000 0 0 1
-33.068047 18.983364 2.795777 38.231926 -0.521135 1.497604 0.149812 -0.030887 -196516.000000 0 0 1
-34.180093 19.831664 2.723577 39.610497 -0.525742 1.501983 0.133989 -0.025863 -159309.000000 0 0 1
-34.543446 20.424064 4.121977 40.340832 -0.533966 1.468439 0.109602 -0.029965 -579434.000000 0 0 1
-33.675307 21.405164 4.587677 40.165335 -0.566210 1.456327 0.107297 -0.030732 3724.500000 0 0 1
-34.008407 21.818864 5.893177 40.833370 -0.570428 1.425968 0.103628 -0.033920 214027.000000 0 0 1
-32.900877 22.791964 6.401577 40.532968 -0.605841 1.412197 0.101741 -0.039476 129908.000000 0 0 1
-32.831137 23.880644 5.591477 40.980889 -0.628865 1.433928 0.092570 -0.034588 110761.000000 0 0 1
-31.772287 24.710794 5.995877 40.694620 -0.661024 1.422920 0.090232 -0.038250 -192575.000000 0 0 1
-32.057397 26.208414 5.724877 41.801099 -0.685349 1.433409 0.078337 -0.030784 125892.000000 0 0 1
-32.968607 26.750304 6.701477 42.981596 -0.681646 1.414243 0.077746 -0.023444 237937.000000 0 0 1
-33.424317 28.017434 6.354577 44.074280 -0.697624 1.426113 0.072255 -0.022359 85725.000000 0 0 1
-34.558476 28.477084 7.336477 45.376827 -0.689220 1.408405 0.062578 -0.017589 -203337.000000 0 0 1
-34.187179 28.396834 8.687177 45.283666 -0.693140 1.377761 0.088049 -0.017871 -204252.000000 0 0 1
-34.988252 29.139844 9.540777 46.522410 -0.694451 1.364252 0.086212 -0.020995 -18897.100000 0 0 1
-36.339577 28.500204 9.945477 47.241285 -0.665078 1.358684 0.068555 -0.014920 -26619.500000 0 0 1
-36.010462 27.399974 10.756077 46.510269 -0.650434 1.337421 0.083516 -0.017363 760816.000000 0 0 1
-37.158397 26.811754 11.386177 47.215057 -0.625045 1.327240 0.073725 -0.012370 476897.000000 0 0 1
-36.707307 25.598264 12.215177 46.388663 -0.608953 1.304332 0.093857 -0.006591 216497.000000 0 0 1
-35.949322 25.949374 13.386877 46.313413 -0.625229 1.277562 0.133150 -0.019414 91137.400000 0 0 1
-35.516527 24.858394 14.140777 45.599616 -0.610666 1.255490 0.138767 -0.020504 -325026.000000 0 0 1
-34.292548 25.255914 14.976677 45.145774 -0.634795 1.232648 0.154592 -0.024249 -255441.000000 0 0 1
-34.526839 26.191204 15.995077 46.194418 -0.648967 1.217219 0.156300 -0.035578 -377767.000000 0 0 1
-33.353347 26.362484 16.739377 45.690623 -0.668860 1.195699 0.168554 -0.026347 -289220.000000 0 0 1
-33.253597 27.742154 17.495677 46.706825 -0.695285 1.186847 0.168306 -0.034110 2721.350000 0 0 1
-33.210927 28.891704 16.660677 47.066701 -0.715960 1.208973 0.176065 -0.028767 68970.900000 0 0 1
-33.128297 30.038594 17.558377 48.042666 -0.736524 1.196654 0.146572 -0.022053 17429.000000 0 0 1
-32.847027 31.310584 16.725877 48.363569 -0.761455 1.217666 0.121493 -0.028832 785804.000000 0 0 1
-31.468327 31.429584 16.351277 47.386059 -0.784782 1.218488 0.112718 -0.026332 456515.000000 0 0 1
-31.332457 32.380953 15.338977 47.597617 -0.801853 1.242677 0.101826 -0.026726 -1023620.000000 0 0 1
-29.891297 32.634212 14.893277 46.693587 -0.829239 1.246167 0.113130 -0.035088 -237561.000000 0 0 1
-29.206257 31.736874 14.038277 45.357555 -0.826899 1.256127 0.105229 -0.033152 135014.000000 0 0 1
-28.972827 30.429734 14.578977 44.474037 -0.809919 1.236813 0.124992 -0.036611 -786306.000000 0 0 1
-30.044857 29.447154 14.128977 44.378556 -0.775352 1.246783 0.155012 -0.033930 -177947.000000 0 0 1
-30.166607 29.379534 12.744077 43.995371 -0.772181 1.276916 0.157503 -0.034382 5549.260000 0 0 1
-31.237287 28.478934 12.507277 44.082306 -0.739240 1.283119 0.141519 -0.029251 302317.000000 0 0 1
-31.386847 28.197604 10.989277 43.600496 -0.731924 1.316004 0.119673 -0.020672 -12215.700000 0 0 1
-30.213617 27.637094 10.458177 42.261626 -0.740890 1.320736 0.087946 -0.011278 -180657.000000 0 0 1
-30.275657 27.699724 9.055677 42.022558 -0.740996 1.353597 0.082193 -0.012960 268559.000000 0 0 1
-29.198067 26.787434 8.419977 40.509131 -0.742367 1.361416 0.095418 -0.018193 286540.000000 0 0 1
-29.101997 26.883164 7.028677 40.237209 -0.745786 1.395215 0.082085 -0.026771 -569216.000000 0 0 1
-28.122597 26.010504 6.538277 38.860981 -0.746401 1.401744 0.073742 -0.023820 -283973.000000 0 0 1
-27.743097 26.413004 5.071977 38.640020 -0.760843 1.439154 0.072159 -0.023843 -242481.000000 0 0 1
-27.106047 27.637594 4.791077 39.006779 -0.795108 1.447659 0.042977 -0.013214 166009.000000 0 0 1
-26.825117 27.794994 3.423877 38.779782 -0.803153 1.482391 0.038801 -0.012541 37937.300000 0 0 1
-25.848427 28.979884 3.068977 38.953735 -0.842450 1.491929 0.038338 -0.012134 964833.000000 0 0 1
-24.521017 28.706804 3.520977 37.917781 -0.863876 1.477804 0.041817 -0.013049 767067.000000 0 0 1
-23.554917 29.690194 3.113177 38.026748 -0.900119 1.488837 0.039488 -0.010955 -353034.000000 0 0 1
-22.118217 29.352114 3.446477 36.913958 -0.925029 1.477295 0.036339 -0.017594 -973191.000000 0 0 1
-21.297817 30.187364 2.684477 37.041603 -0.956375 1.498261 0.045854 -0.020910 -1381760.000000 0 0 1
-19.997417 29.712644 2.843677 35.928044 -0.978403 1.491564 0.062305 -0.026116 -412271.000000 0 0 1
-18.922017 30.703274 2.308677 36.139504 -1.018487 1.506870 0.061103 -0.027285 74083.800000 0 0 1
-18.715717 31.756704 3.213377 37.001244 -1.038247 1.483842 0.066379 -0.029775 282142.000000 0 0 1
-17.596417 32.532394 2.787177 37.091224 -1.074975 1.495582 0.076140 -0.026379 256462.000000 0 0 1
-17.316917 33.765244 3.670377 38.123994 -1.096912 1.474372 0.068317 -0.030225 441188.000000 0 0 1
-18.326517 -33.129098 3.555977 38.026877 1.065511 1.477147 0.072737 -0.036482 646266.000000 0 0 1
-18.010217 -32.183138 4.572377 37.162198 1.060600 1.447445 0.051885 -0.030741 465347.000000 0 0 1
-19.132717 -31.112178 4.690477 36.824300 1.019450 1.443075 0.064066 -0.027167 211534.000000 0 0 1
-19.159917 -30.096268 3.692777 35.868153 1.003884 1.467659 0.085409 -0.027804 -319865.000000 0 0 1
-20.226017 -29.255888 3.965777 35.787234 0.965900 1.459753 0.093327 -0.031760 -770073.000000 0 0 1
-20.594917 -28.196778 2.856177 35.033793 0.939958 1.489179 0.092984 -0.039453 -123752.000000 0 0 1
-19.571317 -27.274548 2.587677 33.669474 0.948377 1.493865 0.095698 -0.037082 -118890.000000 0 0 1
-19.843917 -26.456338 1.441277 33.102812 0.927255 1.527243 0.087732 -0.033334 178673.000000 0 0 1
-18.912817 -25.218258 1.498877 31.557912 0.927317 1.523282 0.094057 -0.023115 593945.000000 0 0 1
-17.565917 -25.383328 1.108377 30.888562 0.965442 1.534906 0.124678 -0.034311 -229389.000000 0 0 1
-16.872417 -24.157688 1.028977 29.484422 0.961126 1.535890 0.109547 -0.030703 78125.300000 0 0 1
-15.422117 -24.295088 0.517777 28.781263 1.005193 1.552805 0.100389 -0.031131 -181708.000000 0 0 1
-15.168617 -24.517988 -0.870323 28.843997 1.016760 1.600974 0.087266 -0.023371 168321.000000 0 0 1
-15.386217 -23.342588 -1.576023 28.001713 0.988017 1.627109 0.086842 -0.028745 -730880.000000 0 0 1
-15.474217 -23.555688 -3.091223 28.352734 0.989571 1.680041 0.041129 -0.014747 210698.000000 0 0 1
-14.287717 -23.879988 -3.817723 28.088569 1.031618 1.707136 0.065438 -0.016665 257667.000000 0 0 1
-14.639417 -24.084488 -5.154023 28.652034 1.024635 1.751664 0.040165 -0.011820 -501258.000000 0 0 1
-13.550517 -24.511488 -6.110423 28.666476 1.065788 1.785600 0.073789 -0.019517 -418737.000000 0 0 1
-13.290617 -25.871468 -6.068123 29.711874 1.096235 1.776476 0.047301 -0.019595 54307.000000 0 0 1
-12.264917 -26.180528 -7.009823 29.748712 1.132685 1.808668 0.053805 -0.020559 300835.000000 0 0 1
24.094083 12.826712 28.068954 39.152465 0.489199 0.771431 0.040391 -0.006047 -325905.000000 0 0 1
24.904283 11.716412 28.303894 39.479210 0.439736 0.771405 0.051580 -0.016327 -123826.000000 0 0 1
24.267283 10.708612 29.031254 39.324154 0.415577 0.740317 0.062686 -0.021848 -370527.000000 0 0 1
24.061083 11.021612 30.518104 40.395127 0.429543 0.714395 0.079977 -0.024050 275952.000000 0 0 1
23.084283 12.030712 30.760944 40.297119 0.480436 0.702308 0.060698 -0.020142 288415.000000 0 0 1
23.449583 12.692312 31.991544 41.646568 0.496108 0.694822 0.068181 -0.024145 -205324.000000 0 0 1
22.418883 13.634812 32.663841 41.897982 0.546416 0.676763 0.051983 -0.019243 -188253.000000 0 0 1
21.339183 12.850812 33.152191 41.467720 0.542048 0.644384 0.064813 -0.014869 131325.000000 0 0 1
20.539683 13.677112 -33.839783 41.881653 0.587463 2.511522 0.062739 -0.010561 98156.800000 0 0 1
19.289583 13.050812 -33.165933 40.526421 0.594830 2.529379 0.063356 -0.002438 447388.000000 0 0 1
18.141583 12.993012 33.798833 40.500574 0.621516 0.583522 0.068386 -0.001744 600685.000000 0 0 1
17.187583 12.343912 -33.170143 39.345184 0.622828 2.573734 0.058831 -0.005496 450043.000000 0 0 1
15.775683 12.110312 -33.785683 39.204645 0.654706 2.609560 0.054552 -0.005676 514753.000000 0 0 1
15.804383 11.068812 33.131405 38.340411 0.610970 0.527361 0.052397 -0.006673 -502864.000000 0 0 1
14.520583 10.724812 32.717789 37.367401 0.636161 0.504181 0.058598 0.001224 -393046.000000 0 0 1
14.620483 9.716112 31.542714 36.098534 0.586539 0.507844 0.064141 -0.001137 442.904000 0 0 1
14.918683 8.498712 32.052862 36.361809 0.517819 0.491771 0.051079 -0.004741 -35682.500000 0 0 1
15.490783 7.690012 31.029324 35.523507 0.460784 0.508477 0.056839 -0.010888 116514.000000 0 0 1
15.740483 6.340412 31.700854 35.957026 0.382926 0.491488 0.070289 -0.021059 685646.000000 0 0 1
14.586383 5.478812 31.791584 35.404586 0.359307 0.455705 0.070253 -0.023360 771135.000000 0 0 1
15.062383 4.238112 32.196885 35.797714 0.274279 0.452374 0.076678 -0.033373 22971.500000 0 0 1
13.957183 3.177712 32.093383 35.140945 0.223860 0.419541 0.047223 -0.026103 -119649.000000 0 0 1
14.414883 1.922012 32.448825 35.558532 0.132553 0.421328 0.052068 -0.033489 -255145.000000 0 0 1
13.323083 1.098712 32.770715 35.392534 0.082281 0.387328 0.054406 -0.032088 -156472.000000 0 0 1
13.792483 -0.325288 33.219191 35.970169 -0.023580 0.393636 0.037858 -0.032055 -99363.900000 0 0 1
14.091583 -1.318088 32.289366 35.254974 -0.093266 0.413099 0.010762 -0.025186 -49455.100000 0 0 1
14.697583 -2.412588 32.946380 36.156652 -0.162698 0.424579 0.076032 -0.038402 -418198.000000 0 0 1
15.105383 -3.485788 31.903824 35.470795 -0.226794 0.452312 0.084948 -0.035165 -612534.000000 0 0 1
15.583583 -4.741688 32.287570 36.163778 -0.295374 0.467239 0.096732 -0.036610 -28746.900000 0 0 1
16.755583 -4.858288 33.067871 37.387653 -0.282212 0.485462 0.064393 -0.031815 630503.000000 0 0 1
18.126983 -4.560288 32.374494 37.383039 -0.246460 0.523608 0.079477 -0.037305 127516.000000 0 0 1
18.214383 -3.169688 32.142879 37.080660 -0.172296 0.521974 0.087646 -0.044953 -183709.000000 0 0 1
19.392683 -2.841188 31.447314 37.055122 -0.145473 0.557344 0.105512 -0.056127 -304525.000000 0 0 1
19.589683 -1.344788 31.187204 36.853844 -0.068540 0.561908 0.122515 -0.060339 -354834.000000 0 0 1
19.702483 -0.702488 32.423932 37.947235 -0.035640 0.546309 0.119638 -0.060263 123705.000000 0 0 1
19.423183 0.689312 32.245548 37.649841 0.035474 0.542426 0.124589 -0.054810 -579957.000000 0 0 1
20.549183 1.524312 31.668024 37.781691 0.074043 0.576851 0.134671 -0.051463 -613236.000000 0 0 1
20.766483 1.336312 30.271644 36.734248 0.064261 0.602235 0.139172 -0.054741 -22297.000000 0 0 1
21.687283 2.268512 29.705794 36.849947 0.104222 0.633216 0.119157 -0.044272 154290.000000 0 0 1
21.181683 3.717812 29.581054 36.572183 0.173750 0.628619 0.107644 -0.024932 -246525.000000 0 0 1
20.928683 4.341512 30.811614 37.499520 0.204542 0.606490 0.116000 -0.035153 359052.000000 0 0 1
20.115583 5.495212 30.650904 37.071713 0.266675 0.597401 0.100251 -0.029420 -121897.000000 0 0 1
19.769783 6.018412 32.072126 38.153464 0.295511 0.572391 0.096217 -0.026545 -324720.000000 0 0 1
18.846983 5.190412 32.736895 38.129430 0.268736 0.538317 0.071662 -0.022816 33184.800000 0 0 1
18.802983 5.418712 -33.694633 38.964636 0.280581 2.615447 0.062190 -0.020294 58051.500000 0 0 1
17.631283 4.690912 -32.971683 37.682870 0.260032 2.636187 0.064507 -0.026631 111688.000000 0 0 1
17.693183 3.290912 -33.033393 37.617600 0.183897 2.642750 0.070635 -0.030153 -318750.000000 0 0 1
16.516583 2.746612 -32.541493 36.596313 0.164786 2.666393 0.064748 -0.029704 -428755.000000 0 0 1
16.553883 1.200012 -32.815263 36.773802 0.072365 2.673331 0.059430 -0.045549 -245334.000000 0 0 1
17.754883 0.620512 -32.367573 36.922631 0.034935 2.639614 0.065589 -0.043274 6462.740000 0 0 1
17.803383 -0.747388 -32.697503 37.237692 -0.041955 2.642622 0.073340 -0.045523 661928.000000 0 0 1
19.045783 -1.430988 -31.965943 37.237227 -0.074993 2.603018 0.077516 -0.045905 499228.000000 0 0 1
19.022283 -1.619988 -30.516923 35.996586 -0.084958 2.582568 0.070503 -0.041347 255413.000000 0 0 1
18.920783 -0.416588 -29.764383 35.271633 -0.022014 2.575237 0.057147 -0.031541 -355079.000000 0 0 1
18.695083 -0.468288 -28.224393 33.857669 -0.025044 2.556424 0.049255 -0.025507 411645.000000 0 0 1
17.298983 -0.761088 -28.092273 33.000149 -0.043968 2.589211 0.062751 -0.034174 657786.000000 0 0 1
16.847583 -1.100288 -26.768453 31.648092 -0.065216 2.578889 0.067615 -0.031413 17809.000000 0 0 1
17.521583 -2.239588 -25.955543 31.396048 -0.127129 2.544038 0.071319 -0.028036 63377.700000 0 0 1
18.842883 -1.909188 -25.478913 31.747035 -0.100977 2.502371 0.062534 -0.016754 648001.000000 0 0 1
19.714083 -3.023588 -25.452533 32.336026 -0.152186 2.476932 0.047597 -0.015393 53216.900000 0 0 1
20.472083 -3.297588 -26.738363 33.836671 -0.159706 2.481962 0.053804 -0.029084 -897694.000000 0 0 1
21.534383 -2.378788 -26.931103 34.564036 -0.110019 2.464130 0.058181 -0.018274 -366863.000000 0 0 1
21.961783 -2.458488 -28.246863 35.864318 -0.111480 2.477706 0.060528 -0.020564 63634.100000 0 0 1
23.442283 -2.016888 -28.388943 36.871948 -0.085825 2.449533 0.052820 -0.025551 562649.000000 0 0 1
24.374483 -2.950588 -27.855033 37.131176 -0.120466 2.419129 0.053657 -0.027254 255477.000000 0 0 1
25.692783 -2.428488 -27.809263 37.939053 -0.094240 2.393516 0.050212 -0.030099 600100.000000 0 0 1
26.814383 -3.471088 -27.484953 38.554925 -0.128733 2.364390 0.067385 -0.025061 37472.200000 0 0 1
26.993283 -4.506388 -28.440813 39.469288 -0.165419 2.375436 0.083465 -0.032024 973095.000000 0 0 1
28.250083 -5.195688 -28.247143 40.286021 -0.181885 2.347826 0.079879 -0.028243 810367.000000 0 0 1
28.359783 -6.316288 -27.175493 39.782913 -0.219143 2.322788 0.076453 -0.021697 -199225.000000 0 0 1
28.265683 -5.815788 -25.842863 38.737912 -0.202922 2.301133 0.064541 -0.016919 230002.000000 0 0 1
28.033183 -6.874188 -24.939123 38.145428 -0.240471 2.283380 0.039948 -0.014861 -129596.000000 0 0 1
28.139983 -6.536688 -23.491523 37.234911 -0.228244 2.253510 0.028065 -0.005902 478152.000000 0 0 1
29.481583 -6.238588 -23.103223 37.971603 -0.208533 2.224882 0.031001 -0.006723 586352.000000 0 0 1
29.557083 -5.893688 -21.726023 37.153422 -0.196819 2.195387 0.033257 -0.007271 390271.000000 0 0 1
30.976883 -5.384488 -21.313323 37.984441 -0.172103 2.166518 0.056633 -0.004550 243208.000000 0 0 1
31.447383 -4.259688 -21.995423 38.611934 -0.134635 2.176881 0.069055 -0.008031 641862.000000 0 0 1
32.735783 -3.896288 -21.453123 39.332544 -0.118465 2.147698 0.074761 -0.006632 733054.000000 0 0 1
33.228983 -2.660088 -22.175723 40.037533 -0.079883 2.157806 0.093915 -0.018072 -253982.000000 0 0 1
32.480683 -1.510688 -21.828123 39.163043 -0.046477 2.162005 0.070171 -0.014602 115354.000000 0 0 1
32.956783 -0.321488 -22.439423 39.872053 -0.009755 2.168548 0.095811 -0.019877 222948.000000 0 0 1
31.981383 0.908012 -22.244123 38.967093 0.028384 2.178329 0.078127 -0.018184 91319.400000 0 0 1
30.858783 0.788412 -23.079323 38.542720 0.025543 2.212796 0.081586 -0.018480 -117463.000000 0 0 1
29.892583 1.776212 -22.847523 37.666042 0.059350 2.222550 0.074792 -0.012130 -589832.000000 0 0 1
28.653883 1.612912 -23.741623 37.246626 0.056230 2.261937 0.047823 -0.007629 -605389.000000 0 0 1
27.756383 2.608312 -23.338123 36.357779 0.093696 2.267772 0.045213 -0.003872 -850518.000000 0 0 1
26.696283 2.747612 -24.212623 36.145429 0.102560 2.304826 0.072090 -0.014286 -292953.000000 0 0 1
25.579183 3.749612 -23.809723 35.146225 0.145552 2.315083 0.067496 -0.014256 113614.000000 0 0 1
26.070583 5.059712 -23.638723 35.553695 0.191694 2.298121 0.060887 -0.012826 765902.000000 0 0 1
24.990083 6.005012 -23.545423 34.856152 0.235825 2.312442 0.070750 -0.020746 432859.000000 0 0 1
25.449183 7.348012 -22.964623 35.057497 0.281088 2.285053 0.081741 -0.017710 17697.600000 0 0 1
26.306483 8.109912 -23.810323 36.396884 0.299041 2.283902 0.082629 -0.014360 272907.000000 0 0 1
26.577183 9.324812 -23.147323 36.456787 0.337439 2.258708 0.090289 -0.020045 381805.000000 0 0 1
27.663683 10.216012 -23.869723 37.939556 0.353758 2.251257 0.113864 -0.013839 186340.000000 0 0 1
27.292983 10.679712 -25.153083 38.621765 0.372983 2.280049 0.131337 -0.021583 21632.200000 0 0 1
26.292683 11.666612 -25.201713 38.243187 0.417620 2.290266 0.129299 -0.017720 -7198.920000 0 0 1
26.013783 12.002212 -26.709853 39.168689 0.432276 2.321179 0.122503 -0.019066 -131405.000000 0 0 1
25.305283 11.029012 -27.455873 38.933551 0.411015 2.353499 0.103326 -0.022882 674470.000000 0 0 1
26.117083 9.905112 -27.919223 39.492990 0.362498 2.355960 0.105023 -0.029903 735238.000000 0 0 1
27.058683 10.171012 -29.150453 41.053267 0.359548 2.360386 0.100983 -0.031843 -585030.000000 0 0 1
28.184483 10.985312 -28.882893 41.824199 0.371652 2.333085 0.101346 -0.029217 710337.000000 0 0 1
28.962783 11.325012 -30.050893 43.245287 0.372741 2.339069 0.112840 -0.032271 107834.000000 0 0 1
29.788583 10.200512 -30.623693 43.922895 0.329915 2.342301 0.101570 -0.030540 -1555880.000000 0 0 1
29.074683 9.288012 -31.392813 43.784850 0.309207 2.370255 0.097249 -0.030542 -85530.900000 0 0 1
29.849783 8.162912 -31.757623 44.341733 0.266940 2.369141 0.098066 -0.027352 -72882.800000 0 0 1
28.997083 7.059512 -32.434143 44.075403 0.238810 2.397760 0.101166 -0.032815 380236.000000 0 0 1
27.929283 6.658812 -31.580723 42.681690 0.234048 2.403737 0.099529 -0.036956 -786140.000000 0 0 1
26.943883 6.072212 -32.330613 42.521913 0.221662 2.434615 0.080474 -0.031180 -787547.000000 0 0 1
25.627683 5.986312 -31.527223 41.067991 0.229473 2.446015 0.100284 -0.027675 -625590.000000 0 0 1
25.206083 7.327612 -31.282333 40.836563 0.282910 2.443450 0.106904 -0.021575 622718.000000 0 0 1
24.086283 7.579812 -30.397253 39.517029 0.304883 2.448414 0.101232 -0.023668 964228.000000 0 0 1
22.684383 7.233312 -30.953733 39.051704 0.308675 2.485914 0.094877 -0.019432 -181074.000000 0 0 1
22.240683 8.224912 -31.881743 39.733395 0.354216 2.502088 0.090560 -0.019155 -56762.000000 0 0 1
20.838783 8.192412 -32.029793 39.080406 0.374572 2.531486 0.071221 -0.013120 -39686.200000 0 0 1
20.448983 9.185012 -33.160953 40.027168 0.422161 2.547151 0.072036 -0.011985 -344368.000000 0 0 1
21.043183 8.819712 33.465722 40.503795 0.396883 0.598402 0.067993 -0.013689 -56107.100000 0 0 1
20.981683 9.776012 32.451299 39.860861 0.436023 0.619594 0.058975 -0.012480 373722.000000 0 0 1
19.669583 9.775312 31.571144 38.460191 0.461226 0.607849 0.065703 -0.011026 727700.000000 0 0 1
19.530583 8.800412 30.477994 37.253175 0.423350 0.612642 0.061235 -0.017364 294564.000000 0 0 1
20.480283 8.888012 29.391524 36.909354 0.409451 0.649616 0.078222 -0.018095 -493938.000000 0 0 1
20.247983 9.928912 28.285054 36.174692 0.455910 0.673086 0.077759 -0.018117 -177889.000000 0 0 1
19.161183 9.661612 27.434924 34.830629 0.467025 0.663784 0.069918 -0.005520 390107.000000 0 0 1
17.910183 10.099812 27.971754 34.715988 0.513463 0.633887 0.078957 -0.018420 358279.000000 0 0 1
16.672783 9.511412 27.216314 33.304300 0.518427 0.614258 0.095904 -0.015976 7980.870000 0 0 1
16.568783 9.913612 25.847244 32.262738 0.539191 0.641585 0.098982 -0.011117 1458810.000000 0 0 1
15.292283 9.557612 25.218064 31.002461 0.558596 0.620786 0.116526 -0.015537 1535820.000000 0 0 1
15.029083 8.066112 24.929674 30.206359 0.492575 0.600042 0.123788 -0.012756 -175617.000000 0 0 1
14.907083 7.216712 26.070064 30.886085 0.450857 0.565965 0.111018 -0.013647 -19204.700000 0 0 1
14.564183 5.882712 25.668454 30.093043 0.383878 0.549148 0.110396 -0.015731 -25574.300000 0 0 1
14.568683 4.944812 26.856444 30.951030 0.327213 0.520225 0.108459 -0.012283 -216383.000000 0 0 1
15.816883 4.419912 27.261234 31.825843 0.272492 0.542200 0.091916 -0.016153 117128.000000 0 0 1
15.856583 4.012312 28.611454 32.956716 0.247836 0.519329 0.069292 -0.016566 543668.000000 0 0 1
17.161783 3.275112 29.072884 33.918811 0.188570 0.541121 0.100498 -0.026171 382220.000000 0 0 1
17.066183 1.843912 28.984284 33.685951 0.107627 0.534690 0.087933 -0.022691 584902.000000 0 0 1
16.212183 1.154512 29.951784 34.077516 0.071093 0.497180 0.075430 -0.030373 371740.000000 0 0 1
16.127983 -0.360688 29.800054 33.886356 -0.022360 0.496172 0.070741 -0.032980 -756799.000000 0 0 1
15.356083 -0.803688 28.747184 32.601469 -0.052289 0.491183 0.062369 -0.024045 -572364.000000 0 0 1
15.781583 -0.768088 27.417024 31.643981 -0.048632 0.522806 0.075935 -0.020097 -251105.000000 0 0 1
16.878883 -1.853288 26.980324 31.878978 -0.109361 0.561728 0.089599 -0.030565 1559910.000000 0 0 1
18.167683 -1.726488 27.591634 33.080866 -0.094746 0.584358 0.092307 -0.036635 779740.000000 0 0 1
18.963783 -0.634788 27.154294 33.126782 -0.033461 0.609895 0.098979 -0.028242 -1390230.000000 0 0 1
20.335383 -0.457088 27.731514 34.391475 -0.022474 0.632844 0.128732 -0.027075 400028.000000 0 0 1
21.397583 -1.161888 27.000884 34.471064 -0.054247 0.670854 0.097170 -0.027455 420142.000000 0 0 1
22.683683 -0.840988 27.449034 35.618902 -0.037058 0.690965 0.096570 -0.034781 533319.000000 0 0 1
23.868583 -1.419588 26.589664 35.759400 -0.059405 0.732401 0.084275 -0.023747 354912.000000 0 0 1
23.985383 -0.985988 25.226954 34.823411 -0.041085 0.760596 0.086115 -0.003830 80322.600000 0 0 1
23.076683 -1.673188 24.385064 33.614940 -0.072379 0.759147 0.085692 0.011497 61651.200000 0 0 1
23.038883 -1.236388 22.857834 32.477675 -0.053614 0.790062 0.082584 -0.013169 245245.000000 0 0 1
22.389283 0.055112 22.937764 32.053456 0.002462 0.773300 0.072277 -0.002815 243759.000000 0 0 1
22.366683 0.664312 21.633724 31.124393 0.029692 0.802275 0.055429 0.010016 92003.000000 0 0 1
-31.407997 -26.902240 -10.038523 42.555431 0.708279 1.808934 0.042714 0.016119 75167.100000 0 0 1
-31.466877 -25.674540 -9.317123 41.667195 0.684375 1.796311 0.048454 0.011299 -229136.000000 0 0 1
-31.670667 -25.985440 -7.935423 41.728230 0.687110 1.762131 0.057796 0.006666 -268070.000000 0 0 1
-31.694087 -24.654240 -7.103323 40.777492 0.661108 1.745887 0.092567 -0.002944 1121990.000000 0 0 1
-30.399467 -24.020640 -6.927523 39.358726 0.668716 1.747728 0.107138 -0.014445 1176610.000000 0 0 1
-29.597627 -24.646540 -5.892123 38.963939 0.694376 1.722599 0.101738 -0.012057 -5776.810000 0 0 1
-28.419787 -23.857240 -5.343123 37.488680 0.698342 1.713810 0.090166 -0.021767 -745473.000000 0 0 1
-28.730527 -22.681940 -4.521523 36.883028 0.668288 1.693696 0.109241 -0.010927 291200.000000 0 0 1
-29.613887 -21.687040 -4.997723 37.044396 0.632094 1.706121 0.117955 -0.013092 -162287.000000 0 0 1
-29.550697 -20.453540 -4.049323 36.166117 0.605439 1.682996 0.115501 -0.011970 -552049.000000 0 0 1
-28.327327 -19.789440 -4.052423 34.791975 0.609785 1.687537 0.127331 -0.033828 -212493.000000 0 0 1
-28.250457 -18.725640 -3.095423 34.034094 0.585351 1.661873 0.144144 -0.024783 52368.100000 0 0 1
-27.103877 -17.705840 -3.314423 32.543852 0.578663 1.672818 0.142287 -0.021257 191557.000000 0 0 1
-27.352827 -16.863540 -4.441123 32.438861 0.552477 1.708135 0.139658 -0.036249 205969.000000 0 0 1
-26.438437 -15.787040 -4.462123 31.114822 0.538303 1.714701 0.140394 -0.038346 20150.800000 0 0 1
-26.879667 -14.729540 -5.495723 31.139666 0.501292 1.748212 0.136439 -0.052454 78183.000000 0 0 1
-28.053997 -14.044540 -5.116623 31.787665 0.464148 1.732462 0.127467 -0.035795 -60340.400000 0 0 1
-28.557287 -13.233340 -6.137523 32.067259 0.433938 1.763380 0.161423 -0.058253 -956215.000000 0 0 1
-29.955547 -12.767040 -5.840923 33.082450 0.402886 1.748283 0.140331 -0.041186 -71154.600000 0 0 1
-31.015957 -13.609540 -6.363623 34.463094 0.413494 1.756512 0.135498 -0.037633 187848.000000 0 0 1
-32.275797 -13.043340 -6.237123 35.366050 0.384054 1.748083 0.124382 -0.037570 -403433.000000 0 0 1
-33.373657 -13.816240 -7.028623 36.797976 0.392505 1.762983 0.083865 -0.036757 448357.000000 0 0 1
-34.002637 -14.944540 -6.284423 37.669783 0.414097 1.738409 0.076644 -0.042026 701506.000000 0 0 1
-34.343237 -15.950340 -7.217723 38.548240 0.434796 1.759147 0.075477 -0.029682 -998098.000000 0 0 1
-35.375588 -16.971640 -6.796723 39.820400 0.447321 1.742321 0.063807 -0.031150 73214.300000 0 0 1
-36.709327 -16.508740 -6.593723 40.787135 0.422617 1.733171 0.037254 -0.036554 617375.000000 0 0 1
-37.056677 -15.635840 -5.509723 40.595983 0.399279 1.706937 0.067083 -0.035777 -390582.000000 0 0 1
35.938801 -15.468340 -5.386723 39.495363 -0.406442 1.707611 0.092296 -0.038643 -846580.000000 0 0 1
35.464521 -14.425140 -6.236523 38.790606 -0.386310 1.732271 0.095554 -0.045811 23875.900000 0 0 1
34.087731 -14.555240 -6.489923 37.629078 -0.403558 1.744134 0.111439 -0.038061 380402.000000 0 0 1
33.037911 -14.188540 -5.389523 36.357464 -0.405644 1.719582 0.149083 -0.046518 -487845.000000 0 0 1
33.142581 -15.122840 -4.332623 36.686545 -0.428078 1.689171 0.145751 -0.052726 267123.000000 0 0 1
32.467171 -14.635440 -3.175223 35.754655 -0.423500 1.659719 0.176164 -0.049003 -857002.000000 0 0 1
32.541871 -15.514240 -1.861223 36.098880 -0.444873 1.622378 0.188725 -0.042963 -702574.000000 0 0 1
33.820811 -15.480040 -1.250423 37.216158 -0.429245 1.604402 0.201482 -0.033053 797457.000000 0 0 1
34.897881 -16.143540 -1.919423 38.498833 -0.433277 1.620674 0.155829 -0.029803 -363616.000000 0 0 1
34.667051 -17.654840 -2.273223 38.970057 -0.471035 1.629162 0.145029 -0.034346 -1330410.000000 0 0 1
34.816691 -18.440840 -1.122023 39.414787 -0.487089 1.599267 0.155988 -0.044629 317195.000000 0 0 1
34.715721 -19.830140 -1.405923 40.004904 -0.518985 1.605947 0.126937 -0.039995 560036.000000 0 0 1
35.866111 -20.529440 -2.254823 41.387438 -0.519871 1.625304 0.100179 -0.039833 505889.000000 0 0 1
35.907691 -19.970840 -3.510423 41.237359 -0.507569 1.656027 0.062306 -0.045673 -165958.000000 0 0 1
36.904691 -20.575640 -4.283823 42.469569 -0.508609 1.671836 0.073334 -0.043795 -527842.000000 0 0 1
36.967301 -19.870340 -5.713123 42.356245 -0.493204 1.706091 0.095142 -0.047915 -865620.000000 0 0 1
35.808601 -20.051140 -6.440223 41.542515 -0.510453 1.726451 0.070706 -0.053243 -289795.000000 0 0 1
35.482781 -18.900740 -7.270923 40.855012 -0.489444 1.749718 0.075902 -0.057712 -270919.000000 0 0 1
34.357291 -19.264340 -8.237923 40.241789 -0.511026 1.776964 0.084550 -0.061361 -262572.000000 0 0 1
34.754861 -20.329740 -9.134023 41.287154 -0.529277 1.793874 0.084586 -0.059466 675214.000000 0 0 1
33.606031 -20.759040 -9.846523 40.709422 -0.553345 1.815092 0.080822 -0.064003 -274980.000000 0 0 1
33.565941 -22.168540 -10.455723 41.562467 -0.583685 1.825095 0.078359 -0.056686 -390757.000000 0 0 1
33.305061 -23.202140 -9.479223 41.682395 -0.608478 1.800219 0.066012 -0.051606 42422.800000 0 0 1
32.932041 -24.440340 -10.076723 42.230201 -0.638455 1.811735 0.061805 -0.039110 276898.000000 0 0 1
31.853771 -25.200140 -9.241723 41.654762 -0.669303 1.794523 0.067883 -0.044986 508104.000000 0 0 1
30.607811 -24.561640 -9.046523 40.273463 -0.676241 1.797357 0.070598 -0.046082 638649.000000 0 0 1
29.541051 -25.456740 -8.662123 39.946861 -0.711271 1.789374 0.043450 -0.036699 892390.000000 0 0 1
28.206601 -24.719340 -8.389523 38.432307 -0.719604 1.790862 0.058099 -0.044737 34321.500000 0 0 1
27.672101 -24.319540 -9.633223 38.078658 -0.721005 1.826558 0.069471 -0.038877 559511.000000 0 0 1
26.350501 -23.774840 -9.495523 36.739037 -0.734059 1.832223 0.080234 -0.054356 645056.000000 0 0 1
25.609801 -23.500640 -10.842323 36.410135 -0.742477 1.873166 0.104535 -0.058085 -90578.700000 0 0 1
25.012601 -24.732840 -11.334723 36.956996 -0.779774 1.882521 0.090571 -0.046897 642618.000000 0 0 1
24.275401 -24.273940 -12.491723 36.531663 -0.785368 1.919779 0.095910 -0.031730 156864.000000 0 0 1
23.467701 -25.387940 -13.215623 37.012608 -0.824682 1.935912 0.100447 -0.035820 153889.000000 0 0 1
24.232701 -26.294940 -14.037123 38.414691 -0.826190 1.944870 0.097158 -0.027311 608869.000000 0 0 1
23.885601 -27.634740 -13.737323 39.024541 -0.858040 1.930522 0.114097 -0.018258 -81208.100000 0 0 1
24.738101 -28.564940 -14.646723 40.527224 -0.857069 1.940570 0.104007 -0.019130 -190923.000000 0 0 1
24.418201 -28.712240 -15.960223 40.931284 -0.866044 1.971349 0.096972 -0.011606 194781.000000 0 0 1
24.747101 -30.044440 -16.308723 42.202628 -0.881780 1.967563 0.088257 -0.013956 -178528.000000 0 0 1
24.596501 -30.289040 -17.832323 42.899948 -0.888745 1.999478 0.079692 -0.010712 179774.000000 0 0 1
23.248201 -30.112240 -18.229123 42.184437 -0.913331 2.017649 0.083738 -0.012362 240670.000000 0 0 1
23.169801 -30.222540 -19.685223 42.868982 -0.916731 2.047885 0.072479 -0.015067 -156538.000000 0 0 1
21.774401 -29.808540 -20.166223 42.063644 -0.939909 2.070792 0.056367 -0.012705 -162562.000000 0 0 1
21.628901 -29.948040 -21.555823 42.770877 -0.945317 2.099001 0.044124 -0.022201 -450296.000000 0 0 1
20.340101 -29.693440 -22.007123 42.186888 -0.970206 2.119589 0.053270 -0.026063 -884925.000000 0 0 1
20.271101 -29.855540 -23.545123 43.088788 -0.974322 2.148895 0.057604 -0.025142 -300635.000000 0 0 1
20.945601 -28.853440 -24.294823 43.144845 -0.942878 2.168928 0.067736 -0.024098 468468.000000 0 0 1
20.807801 -29.109040 -25.670263 44.037066 -0.950191 2.193119 0.074799 -0.030954 -676155.000000 0 0 1
21.316001 -27.951140 -26.614143 44.090256 -0.919269 2.218841 0.085692 -0.035797 -109292.000000 0 0 1
20.447901 -26.850240 -26.814043 43.105045 -0.919942 2.242171 0.100219 -0.039013 -242085.000000 0 0 1
19.350901 -27.195540 -27.599723 43.310501 -0.952363 2.261724 0.102320 -0.042216 -617115.000000 0 0 1
18.382701 -26.074040 -28.064743 42.490105 -0.956710 2.292282 0.099173 -0.043794 162939.000000 0 0 1
17.595601 -25.589740 -26.978343 41.137221 -0.968439 2.286056 0.077463 -0.024150 -384081.000000 0 0 1
16.893301 -24.465840 -27.307833 40.369279 -0.966485 2.313729 0.072823 -0.006723 -415972.000000 0 0 1
15.757301 -24.119140 -26.355033 39.046296 -0.992097 2.311719 0.078976 -0.006179 229453.000000 0 0 1
14.576801 -24.933140 -26.330193 39.082268 -1.041751 2.310017 0.107109 -0.021812 943940.000000 0 0 1
13.455901 -24.367340 -25.626713 37.835921 -1.066258 2.314899 0.086029 -0.011748 758948.000000 0 0 1
13.541401 -24.397640 -24.094223 36.866597 -1.064100 2.283064 0.078735 -0.007557 -683449.000000 0 0 1
14.590001 -23.625840 -23.612623 36.450026 -1.017576 2.275500 0.061086 -0.004186 -525777.000000 0 0 1
15.113301 -24.024940 -22.355423 36.129967 -1.009278 2.237947 0.053519 -0.015164 467951.000000 0 0 1
16.336501 -23.215440 -21.841523 35.817454 -0.957597 2.226606 0.061376 -0.016591 314529.000000 0 0 1
16.037601 -21.868240 -21.460723 34.583048 -0.938021 2.240248 0.051671 -0.011701 -110074.000000 0 0 1
17.215701 -21.418040 -20.866223 34.503798 -0.893746 2.220250 0.053076 -0.010356 -264371.000000 0 0 1
17.022101 -20.064240 -20.136823 33.133326 -0.867243 2.224022 0.059937 -0.010000 366274.000000 0 0 1
16.206201 -20.014740 -18.959123 31.979354 -0.890161 2.205396 0.064039 -0.014806 1221470.000000 0 0 1
14.869301 -19.520340 -19.181723 31.146080 -0.919828 2.234277 0.071365 -0.022485 767994.000000 0 0 1
13.927201 -19.499040 -17.962223 29.946969 -0.950570 2.214049 0.081720 -0.023124 -36742.200000 0 0 1
14.254501 -18.527540 -16.957523 28.879372 -0.915014 2.198373 0.090465 -0.028817 1222.570000 0 0 1
13.526201 -18.710940 -15.779623 27.965226 -0.944864 2.170331 0.091328 -0.027253 -204141.000000 0 0 1
13.483001 -17.467240 -14.870323 26.608688 -0.913425 2.163797 0.092890 -0.027694 -257169.000000 0 0 1
12.735701 -16.431740 -15.459823 25.907649 -0.911444 2.210214 0.100352 -0.041615 147551.000000 0 0 1
12.789701 -15.264240 -14.637723 24.715105 -0.873377 2.204655 0.092318 -0.038989 -613513.000000 0 1 0
11.402201 -14.744340 -14.307823 23.497224 -0.912532 2.225489 0.090528 -0.030928 -481507.000000 0 1 0
10.637701 -14.274940 -15.402723 23.540995 -0.930374 2.284044 0.105753 -0.023014 549309.000000 0 1 0
9.395901 -13.654540 -15.065723 22.398782 -0.968091 2.308531 0.109218 -0.024967 598000.000000 0 1 0
8.711601 -12.943740 -16.274723 22.545487 -0.978397 2.377285 0.098001 -0.020089 93043.300000 0 1 0
9.356601 -11.790440 -16.827023 22.576739 -0.899985 2.411819 0.092269 -0.012906 -36684.400000 0 1 0
10.423701 -12.071340 -17.701923 23.827061 -0.858512 2.408239 0.109757 -0.015491 84942.600000 0 1 0
10.681801 -10.883440 -18.658423 24.097445 -0.794748 2.456389 0.107397 -0.018536 491705.000000 0 1 0
9.673801 -10.933640 -19.685523 24.508095 -0.846457 2.503487 0.102231 -0.016675 727549.000000 0 1 0
9.684601 -9.763140 -20.405523 24.606823 -0.789437 2.548584 0.093949 -0.022243 94443.000000 0 1 0
9.317601 -9.962940 -21.860223 25.767173 -0.818857 2.583704 0.100399 -0.016860 125396.000000 0 0 1
10.424501 -10.507740 -22.568423 26.989193 -0.789375 2.561118 0.088911 -0.026272 194005.000000 0 0 1
10.151801 -10.694340 -23.928323 28.106807 -0.811418 2.589322 0.089279 -0.024843 211260.000000 0 0 1
11.412501 -11.359140 -24.524123 29.337823 -0.783055 2.560606 0.115486 -0.028921 187621.000000 0 0 1
11.237001 -12.765140 -24.425823 29.763061 -0.848979 2.533389 0.097986 -0.029575 142461.000000 0 0 1
12.243001 -13.462640 -25.129343 31.026080 -0.832809 2.514851 0.075306 -0.031345 -262993.000000 0 0 1
12.203601 -14.988940 -24.856023 31.486792 -0.887472 2.480645 0.073318 -0.028998 -378693.000000 0 0 1
11.113201 -15.655340 -25.409983 31.847451 -0.953479 2.494542 0.077070 -0.026855 -523889.000000 0 0 1
10.806401 -16.854040 -24.745723 31.830610 -1.000650 2.461348 0.080588 -0.034167 547898.000000 0 0 1
9.523001 -17.479740 -25.386583 32.259998 -1.071953 2.476625 0.079147 -0.025669 521706.000000 0 0 1
9.770001 -18.115740 -26.668003 33.687020 -1.076197 2.484285 0.074048 -0.035866 32930.200000 0 0 1
8.621401 -18.794340 -27.149363 34.126876 -1.140712 2.490698 0.081055 -0.031161 -127557.000000 0 0 1
8.831101 -19.768340 -28.352573 35.674136 -1.150665 2.489417 0.081911 -0.025274 -134930.000000 0 0 1
9.722501 -20.839040 -28.080163 36.294465 -1.134263 2.455419 0.071201 -0.023292 151911.000000 0 0 1
9.770401 -21.641940 -29.265723 37.687091 -1.146732 2.459960 0.070817 -0.016530 -170375.000000 0 0 1
10.899401 -22.679840 -29.080013 38.455419 -1.122808 2.428283 0.066998 -0.010620 -22465.900000 0 0 1
10.821301 -23.837440 -29.924253 39.759087 -1.144652 2.422858 0.071958 -0.014878 761817.000000 0 0 1
11.746701 -24.894340 -29.510313 40.355566 -1.129911 2.390960 0.094445 -0.027743 697481.000000 0 0 1
11.151201 -25.839640 -28.425953 40.000888 -1.163387 2.361194 0.085206 -0.030598 157644.000000 0 0 1
10.604101 -25.227940 -27.326293 38.673275 -1.172886 2.355469 0.090115 -0.026193 -739835.000000 0 0 1
9.966501 -26.089940 -26.460003 38.472690 -1.205898 2.329196 0.079546 -0.016717 -150676.000000 0 0 1
9.084901 -25.258040 -25.513323 37.032873 -1.225521 2.330818 0.077050 -0.012661 -503159.000000 0 0 1
9.812601 -24.271240 -24.834623 36.085159 -1.186598 2.329833 0.082580 -0.006879 -95060.000000 0 0 1
9.245001 -22.970040 -25.031883 35.209202 -1.188153 2.361640 0.077019 -0.003602 734213.000000 0 0 1
10.328201 -21.819840 -24.864023 34.655400 -1.128703 2.370952 0.090306 -0.013931 745556.000000 0 0 1
10.853501 -21.669540 -23.532623 33.780938 -1.106457 2.341478 0.080145 -0.017702 267289.000000 0 0 1
11.792301 -20.603540 -23.553123 33.441199 -1.050961 2.352253 0.079924 -0.020463 284218.000000 0 0 1
12.578901 -20.278540 -22.222323 32.607968 -1.015580 2.320606 0.082609 -0.018023 83060.600000 0 0 1
11.822201 -19.759940 -21.166423 31.276782 -1.031634 2.314129 0.080705 -0.015178 -246471.000000 0 0 1
11.343201 -18.439740 -21.341623 30.399952 -1.019312 2.349038 0.078055 -0.019689 168131.000000 0 0 1
12.430801 -17.318040 -21.285023 30.124600 -0.948227 2.355430 0.079143 -0.024619 964440.000000 0 0 1
13.361601 -17.405240 -22.395723 31.353519 -0.916078 2.366415 0.074277 -0.016603 488558.000000 0 0 1
14.484801 -16.560540 -22.254323 31.294022 -0.852160 2.361910 0.078199 -0.016932 -588318.000000 0 0 1
15.715201 -16.907140 -23.044323 32.616863 -0.821919 2.355359 0.061731 -0.017002 -501657.000000 0 0 1
16.802601 -17.276440 -22.200023 32.766504 -0.799301 2.315184 0.060347 -0.011737 121264.000000 0 0 1
18.019601 -17.057240 -22.859423 33.737348 -0.757969 2.315250 0.065027 -0.004890 419121.000000 0 0 1
19.296001 -17.305140 -21.967823 33.976297 -0.731058 2.273867 0.052020 0.002949 587458.000000 0 0 1
19.717701 -18.669840 -21.896123 34.882529 -0.758108 2.249405 0.051241 -0.000844 -103681.000000 0 0 1
21.013101 -18.744040 -21.354523 35.339851 -0.728387 2.219635 0.042171 -0.005449 -37629.000000 0 0 1
21.537401 -20.181540 -21.313523 36.406324 -0.752910 2.196212 0.064316 -0.008021 -177534.000000 0 0 1
20.849301 -20.931940 -20.346723 35.872393 -0.787376 2.173895 0.056607 -0.006194 173213.000000 0 0 1
21.257701 -22.292140 -20.283723 36.881686 -0.809147 2.153121 0.077320 -0.011911 -166149.000000 0 0 1
-16.514517 13.325612 29.492064 36.332947 -0.678936 0.623711 0.064780 -0.015032 -778105.000000 0 0 1
-17.714217 13.434612 28.762764 36.353526 -0.648861 0.658034 0.080602 -0.023852 -143866.000000 0 0 1
-17.487317 13.318012 27.389604 35.119312 -0.650872 0.676288 0.078044 -0.029413 -126859.000000 0 0 1
-18.582617 13.934612 26.511984 35.247302 -0.643420 0.719447 0.102317 -0.028825 -109350.000000 0 0 1
-18.628017 15.340712 26.712684 35.998721 -0.688924 0.734680 0.094189 -0.024838 199660.000000 0 0 1
-19.531617 15.913512 25.767054 36.036994 -0.683674 0.774148 0.108299 -0.024652 -44100.400000 0 0 1
-19.994317 17.367712 26.127924 37.203206 -0.715212 0.792169 0.101630 -0.016846 408256.000000 0 0 1
-19.018117 18.371312 25.849854 36.978491 -0.768101 0.796727 0.049536 -0.014017 245498.000000 0 0 1
-17.888617 18.374812 26.692404 37.015142 -0.798805 0.765377 0.041608 0.002571 258445.000000 0 0 1
-16.725817 19.312212 26.189694 36.587081 -0.857044 0.773001 0.049621 -0.004315 336187.000000 0 0 1
-17.137817 20.670712 26.039964 37.404048 -0.878569 0.800733 0.061748 -0.003721 125128.000000 0 0 1
-16.078917 21.563012 25.715594 37.212723 -0.930071 0.807865 0.073935 -0.019660 229018.000000 0 0 1
-16.507017 23.085812 25.530994 38.174179 -0.950055 0.838199 0.073643 -0.019824 -6778.080000 0 0 1
-16.163017 23.922512 26.649474 39.290255 -0.976607 0.825388 0.079979 -0.014562 7399.080000 0 0 1
-16.467717 25.297412 26.505894 40.170974 -0.993743 0.850208 0.084576 -0.014623 -241536.000000 0 0 1
-15.716617 26.197912 27.471734 41.085749 -1.030437 0.838413 0.082667 -0.015722 -713217.000000 0 0 1
-14.339017 26.321212 27.295044 40.539277 -1.071977 0.832135 0.094306 -0.020845 -702552.000000 0 0 1
-13.880317 27.288112 28.205874 41.627822 -1.100246 0.826339 0.112370 -0.018243 -306304.000000 0 0 1
-12.363517 27.204112 28.370184 41.204218 -1.144229 0.811341 0.123695 -0.027362 211342.000000 0 0 1
-11.558917 27.655712 27.279704 40.529362 -1.174906 0.832424 0.121361 -0.033194 -381020.000000 0 0 1
-10.188817 27.711612 27.473734 40.330527 -1.218465 0.821376 0.096820 -0.024137 -458829.000000 0 0 1
-9.363317 28.442312 26.381474 39.907630 -1.252767 0.848561 0.099839 -0.030855 1249270.000000 0 0 1
-7.951017 28.104012 26.396574 39.367921 -1.295088 0.835901 0.076306 -0.025218 1417560.000000 0 0 1
-7.326517 28.612112 25.207404 38.829679 -1.320119 0.864292 0.094086 -0.033703 557066.000000 0 0 1
-5.795417 28.296112 25.210784 38.338498 -1.368777 0.853189 0.092977 -0.030002 -206486.000000 0 0 1
-5.040217 29.090812 26.072274 39.388356 -1.399241 0.847408 0.097856 -0.030024 981053.000000 0 0 1
-3.618617 28.855112 25.929094 38.961901 -1.446041 0.842635 0.084167 -0.024714 1149030.000000 0 0 1
-2.866517 29.521012 24.796254 38.659556 -1.473999 0.874474 0.078209 -0.024952 -788535.000000 0 0 1
-3.174817 29.003412 23.524204 37.478867 -1.461767 0.892245 0.075849 -0.022593 -187983.000000 0 0 1
-2.463417 29.722712 22.563424 37.398076 -1.488105 0.923125 0.073372 -0.030345 -482713.000000 0 0 1
-2.931417 29.278312 21.159124 36.242534 -1.471006 0.947370 0.069351 -0.017999 -980572.000000 0 0 1
-4.260717 29.511912 20.928924 36.429747 -1.427414 0.958802 0.064065 -0.006733 -1623690.000000 0 0 1
-5.009217 28.383312 21.256424 35.812570 -1.396111 0.935338 0.072269 -0.011284 -1196880.000000 0 0 1
-6.510117 28.587812 20.989824 36.058526 -1.346891 0.949482 0.077684 -0.019621 -248880.000000 0 0 1
-6.830617 28.614512 19.585824 35.341931 -1.336470 0.983418 0.051172 -0.013659 194233.000000 0 0 1
-7.516917 27.425412 19.142524 34.279636 -1.303280 0.978313 0.034852 -0.006039 -629772.000000 0 0 1
-6.663917 26.134112 18.993224 32.986999 -1.321127 0.957240 0.016479 -0.005955 -170481.000000 0 0 1
-5.681417 26.064912 18.014124 32.189544 -1.356181 0.976861 0.019220 -0.003406 -349399.000000 0 0 1
-4.483517 26.731512 18.370724 32.743841 -1.404619 0.975150 0.049194 -0.007788 -794413.000000 0 0 1
-3.686017 26.900712 17.072824 32.073608 -1.434621 1.009480 0.055049 -0.007029 -266628.000000 0 0 1
-3.215417 25.690312 16.515724 30.709936 -1.446283 1.002974 0.060233 -0.012118 -125083.000000 0 0 1
-2.523117 25.993312 15.328824 30.281863 -1.474032 1.040018 0.058032 -0.019261 -149242.000000 0 0 1
-1.815317 24.844612 14.563624 28.855662 -1.497859 1.041755 0.056845 -0.015164 447721.000000 0 0 1
-0.747817 24.307512 15.362924 28.765149 -1.540041 1.007376 0.054386 -0.015769 333359.000000 0 0 1
-0.182217 23.103812 14.814024 27.445849 -1.562910 1.000651 0.050347 -0.027299 -644921.000000 0 0 1
1.077383 22.778712 15.590424 27.624116 1.523534 0.971118 0.041487 -0.028137 -401252.000000 0 0 1
2.093683 23.756412 15.424824 28.402038 1.482892 0.996685 0.050304 -0.031616 90048.400000 0 0 1
3.319383 23.255512 15.929124 28.382637 1.429019 0.974928 0.064184 -0.035313 296460.000000 0 0 1
4.557483 24.167212 15.760224 29.209749 1.384404 1.000890 0.079828 -0.034625 -3491.400000 0 0 1
5.754483 23.455812 15.879224 28.903960 1.330215 0.989176 0.084948 -0.030081 -907663.000000 0 0 1
6.852083 24.294512 15.718324 29.736174 1.295895 1.013854 0.089641 -0.034180 540672.000000 0 0 1
8.245883 23.556212 15.541424 29.401115 1.234076 1.013846 0.104483 -0.032439 908992.000000 0 0 1
8.624783 23.174612 14.233424 28.531384 1.214513 1.048503 0.085397 -0.027591 626978.000000 0 0 1
9.557783 24.186612 13.725724 29.406443 1.194462 1.085174 0.084195 -0.023751 212226.000000 0 0 1
10.298583 23.791012 12.457024 28.761962 1.162273 1.122859 0.076869 -0.018946 -374964.000000 0 0 1
11.239883 22.777012 12.744924 28.417606 1.112382 1.105725 0.078645 -0.025588 -363428.000000 0 0 1
11.453683 22.013112 11.669024 27.421343 1.091032 1.131232 0.075074 -0.030178 -660739.000000 0 0 1
12.739483 21.226112 11.730324 27.394210 1.030245 1.128291 0.082017 -0.039000 -584999.000000 0 0 1
12.663483 20.223612 12.682724 27.022394 1.011354 1.082252 0.076421 -0.024735 -257876.000000 0 0 1
13.823483 19.432912 12.770524 27.052043 0.952498 1.079156 0.064528 -0.026506 -467061.000000 0 0 1
14.034683 18.745012 14.154524 27.362352 0.928118 1.027104 0.071086 -0.023965 -822773.000000 0 0 1
15.300283 18.137712 14.248024 27.678176 0.870052 1.030052 0.072584 -0.023867 -4706.520000 0 0 1
15.547383 17.736412 15.552124 28.251902 0.851072 0.987857 0.067722 -0.025984 379434.000000 0 0 1
16.829783 16.838612 15.615124 28.471258 0.785660 0.990284 0.045937 -0.027431 310943.000000 0 0 1
17.255583 16.390812 16.873624 29.174184 0.759702 0.954061 0.057049 -0.027263 216609.000000 0 0 1
18.380083 15.540312 16.684024 29.286266 0.701874 0.964671 0.044724 -0.026664 235617.000000 0 0 1
19.086783 15.161012 18.036824 30.323070 0.671268 0.933752 0.056582 -0.014887 194504.000000 0 0 1
19.898083 16.168612 18.661024 31.711063 0.682360 0.941631 0.074551 -0.006184 479553.000000 0 0 1
19.151983 17.230912 19.207324 32.134468 0.732646 0.930146 0.059838 -0.005691 130668.000000 0 0 1
19.958883 18.075012 20.267024 33.701859 0.735907 0.925591 0.045794 -0.000937 408838.000000 0 0 1
19.175383 19.194512 20.670324 34.108458 0.785897 0.919752 0.082189 -0.009643 656086.000000 0 0 1
19.825983 19.916912 21.764924 35.545251 0.787686 0.911810 0.066552 -0.011000 77537.800000 0 0 1
18.992683 21.091112 22.247724 36.062698 0.837701 0.905976 0.082117 -0.016427 -248204.000000 0 0 1
17.803483 20.684712 22.880314 35.613622 0.860119 0.873093 0.080063 -0.018980 -177104.000000 0 0 1
17.032083 21.830812 23.186384 36.114880 0.908255 0.873670 0.076408 -0.033490 -20500.100000 0 0 1
16.548183 21.646712 24.656144 36.747080 0.918101 0.835282 0.091402 -0.031434 338145.000000 0 0 1
15.475883 20.699412 24.705284 35.753596 0.928802 0.807942 0.096656 -0.032660 92423.000000 0 0 1
14.836983 20.679112 25.957194 36.352959 0.948431 0.775555 0.105748 -0.022693 740646.000000 0 0 1
13.732683 19.552312 26.086564 35.374967 0.958491 0.741539 0.141824 -0.023374 653915.000000 0 0 1
14.306583 18.249512 26.119904 34.928103 0.905923 0.726025 0.111643 -0.027071 180425.000000 0 0 1
14.697583 17.661012 24.878004 33.865105 0.876724 0.745689 0.116638 -0.030951 776419.000000 0 0 1
13.545483 17.359312 23.799714 32.423019 0.908183 0.746548 0.130250 -0.029428 667948.000000 0 0 1
13.054983 18.475212 23.014294 32.271098 0.955640 0.776808 0.117518 -0.027475 -17849.400000 0 0 1
13.896883 19.145912 22.072024 32.355270 0.942937 0.820060 0.101108 -0.026548 73455.800000 0 0 1
14.621283 18.255612 21.008024 31.438612 0.895495 0.838978 0.106623 -0.024317 470410.000000 0 0 1
13.680083 17.824812 20.004624 30.084108 0.916205 0.843361 0.097303 -0.024380 405518.000000 0 0 1
14.152783 16.782912 19.144224 29.128486 0.870213 0.853654 0.068582 -0.023029 -46271.800000 0 0 1
13.063683 16.167012 18.227024 27.645189 0.891169 0.850882 0.077389 -0.021615 -163005.000000 0 0 1
12.754983 16.980012 17.075624 27.250455 0.926543 0.893590 0.097564 -0.025146 -466934.000000 0 0 1
11.804283 16.300012 16.327924 25.915875 0.944020 0.889197 0.079656 -0.026817 -227379.000000 0 0 1
11.268383 17.088312 15.082224 25.425584 0.987827 0.935780 0.068058 -0.027532 -306607.000000 0 0 1
10.450183 18.225112 15.302824 25.991103 1.050169 0.941258 0.072570 -0.023320 117345.000000 0 0 1
9.987583 18.665812 14.043224 25.404261 1.079485 0.985088 0.068225 -0.023706 -30344.600000 0 0 1
8.831183 19.692312 14.035924 25.744593 1.149225 0.994170 0.077692 -0.025401 22079.100000 0 0 1
7.607483 19.188712 14.491624 25.220777 1.193349 0.958692 0.069717 -0.030025 41322.900000 0 0 1
6.677083 20.249212 14.782324 25.944770 1.252278 0.964581 0.074736 -0.029738 1070260.000000 0 0 1
5.372083 19.930112 15.579324 25.860858 1.307508 0.924256 0.067734 -0.036204 650339.000000 0 0 1
4.350783 19.273012 14.855024 24.719426 1.348773 0.926113 0.061262 -0.034212 -523067.000000 0 1 0
3.258483 19.057212 15.705024 24.908689 1.401450 0.888594 0.050486 -0.030359 71006.400000 0 1 0
1.978783 18.586112 14.977924 23.951980 1.464730 0.895240 0.042096 -0.028417 -82769.500000 0 1 0
1.347183 19.554412 14.230124 24.221609 1.502011 0.942834 0.041250 -0.028919 -112681.000000 0 1 0
0.376983 18.944712 13.372124 23.191764 1.550900 0.956248 0.036620 -0.029880 156551.000000 0 1 0
-0.354817 19.793012 12.361924 23.338945 -1.552872 1.012586 0.035023 -0.032974 43045.100000 0 1 0
-1.342317 20.691512 12.887324 24.413594 -1.506014 1.014700 0.039729 -0.019704 333325.000000 0 1 0
-2.485117 20.502112 12.038124 23.904577 -1.450172 1.043046 0.039043 -0.033383 1464700.000000 0 1 0
-3.800517 21.249712 12.555024 24.972441 -1.393817 1.044013 0.041499 -0.023324 1346930.000000 0 1 0
-4.436217 20.640012 13.709524 25.172229 -1.359084 0.994850 0.048349 -0.026597 -22655.600000 0 0 1
-5.524317 21.442512 14.080124 26.240222 -1.318646 1.004411 0.049926 -0.012814 757867.000000 0 0 1
-6.586017 20.847812 15.135524 26.591182 -1.264809 0.965272 0.044786 -0.013675 148518.000000 0 0 1
-7.357817 19.769912 14.681324 25.700742 -1.214507 0.962779 0.050314 -0.017845 -161455.000000 0 0 1
-7.952417 18.962012 15.666824 25.850497 -1.173690 0.919705 0.043495 -0.010823 486071.000000 0 0 1
-9.148017 19.591712 16.453024 27.170266 -1.133950 0.920336 0.023805 -0.000331 185173.000000 0 0 1
-10.358517 19.839412 15.756524 27.370955 -1.089611 0.957378 0.012174 -0.011968 200444.000000 0 0 1
-11.462017 19.720312 16.651024 28.240487 -1.044293 0.940214 0.000372 -0.002989 187371.000000 0 0 1
-12.768317 19.498512 15.868424 28.196254 -0.991029 0.973045 0.014956 -0.020055 -329182.000000 0 0 1
-13.289617 20.675912 15.245924 28.923095 -0.999529 1.015589 0.012320 -0.012014 403748.000000 0 0 1
-14.244017 20.359512 14.225624 28.631628 -0.960322 1.050831 0.024090 -0.026244 -106922.000000 0 0 1
-15.373617 21.356312 13.995724 29.804705 -0.946864 1.081980 0.024698 -0.028602 -553766.000000 0 0 1
-16.288617 21.352212 15.046824 30.783809 -0.919119 1.060094 0.009719 -0.028567 243389.000000 0 0 1
-17.382517 22.251112 14.827624 31.892355 -0.907626 1.087244 0.034356 -0.036546 1212130.000000 0 0 1
-18.674317 22.162212 15.728224 32.973789 -0.870603 1.073568 0.079650 -0.035672 226433.000000 0 0 1
-19.409117 20.957012 15.392424 32.447448 -0.823726 1.076537 0.082168 -0.032668 615742.000000 0 0 1
-20.554617 20.746912 16.213224 33.403521 -0.790054 1.064005 0.093377 -0.026244 775198.000000 0 0 1
-21.763617 21.711012 16.023524 34.666646 -0.784188 1.090302 0.091143 -0.028697 -653906.000000 0 0 1
-22.402017 21.646712 14.738324 34.462279 -0.768253 1.128888 0.104911 -0.031463 538882.000000 0 0 1
-23.422117 22.640212 14.665824 35.724797 -0.768425 1.147770 0.130635 -0.046041 108900.000000 0 0 1
-22.979117 23.933712 13.901124 35.973651 -0.805744 1.174044 0.101912 -0.035182 -110281.000000 0 0 1
-21.952217 24.584012 14.630224 36.059907 -0.841892 1.153030 0.071850 -0.037153 142314.000000 0 0 1
-21.452017 25.702312 13.943424 36.265919 -0.875291 1.176155 0.058656 -0.019145 -530385.000000 0 0 1
-19.972817 25.991012 14.200424 35.722516 -0.915591 1.161984 0.035887 -0.012536 -409506.000000 0 0 1
-19.108017 25.305812 13.298024 34.385140 -0.924049 1.173705 0.035076 -0.010526 -61500.200000 0 0 1
-17.836217 25.897312 13.486324 34.215235 -0.967675 1.165641 0.008900 0.000886 -414070.000000 0 0 1
-16.782617 25.488912 12.444524 32.957655 -0.988519 1.183603 0.021616 -0.012261 770492.000000 0 0 1
-15.532017 26.178512 12.668524 32.970434 -1.035309 1.176413 0.033289 -0.010275 1899350.000000 0 0 1
-14.449617 25.598312 11.858224 31.696726 -1.056908 1.187354 0.044643 -0.020182 1178090.000000 0 0 1
-13.080817 26.310312 12.008024 31.741659 -1.109412 1.182832 0.049311 -0.015374 454396.000000 0 0 1
-12.018817 25.560512 11.392224 30.456107 -1.131263 1.187420 0.050371 -0.020545 739930.000000 0 0 1
-10.721717 26.068712 11.662724 30.504951 -1.180598 1.178488 0.064874 -0.022689 397863.000000 0 0 1
-10.072417 27.247812 10.893524 31.025243 -1.216716 1.212031 0.068385 -0.028861 -431500.000000 0 0 1
-8.897517 27.702212 11.519024 31.293230 -1.260019 1.193832 0.078201 -0.030016 26429.300000 0 0 1
-8.539617 28.931912 10.896124 32.073448 -1.283783 1.224173 0.078158 -0.033123 -351221.000000 0 0 1
-7.313717 29.626712 11.489924 32.607527 -1.328773 1.210694 0.065312 -0.022105 -556310.000000 0 0 1
-6.064417 29.141212 11.123324 31.776024 -1.365620 1.213168 0.076921 -0.025725 -784073.000000 0 0 1
-5.045617 29.725212 11.894524 32.411821 -1.402657 1.195035 0.085819 -0.030385 -1479590.000000 0 0 1
-3.703217 29.434512 11.345824 31.762116 -1.445642 1.205515 0.090427 -0.033513 -1513660.000000 0 0 1
-3.488117 30.065112 10.063224 31.895868 -1.455294 1.249810 0.096756 -0.038640 475804.000000 0 0 1
-2.129517 29.914612 9.660624 31.507880 -1.499730 1.259167 0.089028 -0.031380 529191.000000 0 0 1
-1.800617 30.465212 8.272924 31.619813 -1.511761 1.306078 0.087090 -0.033776 9793.070000 0 0 1
-2.464917 29.839412 7.183324 30.790688 -1.488377 1.335331 0.089686 -0.032645 119428.000000 0 0 1
-2.530917 30.706312 6.061624 31.401057 -1.488559 1.376538 0.095038 -0.025478 107532.000000 0 0 1
11.236283 -33.486840 -26.425373 44.112616 -1.247058 2.213102 0.107653 -0.033816 -2845.990000 0 0 1
11.974683 -33.528940 -25.250973 43.648534 -1.227771 2.187693 0.085878 -0.032848 710572.000000 0 0 1
12.973783 -32.493240 -25.062643 43.037957 -1.190914 2.192398 0.087596 -0.029758 846084.000000 0 0 1
13.723683 -32.676740 -23.697623 42.634331 -1.173183 2.160163 0.075681 -0.032057 -512473.000000 0 0 1
13.144883 -31.879440 -22.659623 41.261909 -1.179705 2.152162 0.084124 -0.036900 638322.000000 0 0 1
13.755483 -31.971640 -21.332523 40.822489 -1.164496 2.120656 0.064019 -0.026097 455166.000000 0 0 1
15.254483 -31.558540 -21.249823 40.990190 -1.120540 2.115790 0.037542 -0.022910 135673.000000 0 0 1
16.132083 -32.462640 -21.899623 42.351630 -1.109597 2.114244 0.051478 -0.021063 -324020.000000 0 0 1
17.454383 -32.188740 -21.489523 42.456685 -1.073922 2.101513 0.036899 -0.023073 -363126.000000 0 0 1
18.404883 -33.300640 -21.990323 43.945952 -1.065891 2.094851 0.019257 -0.018971 69730.200000 0 0 1
19.719783 -33.107440 -21.475623 44.115471 -1.033596 2.079224 0.031952 -0.005836 412706.000000 0 0 1
20.514283 33.667912 -21.628223 44.968257 1.023557 2.072553 0.019680 -0.000335 1096240.000000 0 0 1
22.020883 33.760912 -21.136223 45.513277 0.992834 2.053750 0.036983 -0.000612 1462020.000000 0 0 1
22.918783 -33.510240 -22.051023 46.200156 -0.970935 2.068368 0.034060 -0.012372 -64744.300000 0 0 1
24.232683 -33.592640 -21.578323 46.704523 -0.945872 2.051065 0.026368 -0.008077 -56766.100000 0 0 1
25.275883 -33.117540 -22.638023 47.414363 -0.918890 2.068547 0.057458 -0.016609 43883.500000 0 0 1
25.288083 -31.762440 -23.024923 46.674263 -0.898399 2.086688 0.063730 -0.025405 27376.800000 0 0 1
24.321183 -31.423240 -24.006223 46.424549 -0.912119 2.114258 0.047653 -0.022912 6133.160000 0 0 1
24.041083 -29.925340 -24.051523 45.298735 -0.894005 2.130522 0.059704 -0.031813 -512160.000000 0 0 1
25.120683 -29.143040 -24.507923 45.618021 -0.859389 2.137960 0.074484 -0.041690 28894.600000 0 0 1
25.005083 -27.809340 -23.982823 44.427349 -0.838445 2.141021 0.073661 -0.031347 128956.000000 0 0 1
25.627083 -26.754740 -24.909423 44.643509 -0.806922 2.162725 0.059168 -0.027717 42815.500000 0 0 1
24.853983 -26.513840 -26.078113 44.729992 -0.817700 2.193227 0.062978 -0.027021 -6767.940000 0 0 1
25.516583 -25.868340 -27.185873 45.379937 -0.792244 2.213139 0.050853 -0.022021 -203886.000000 0 0 1
24.587483 -25.730340 -28.420053 45.544419 -0.808107 2.244657 0.050480 -0.020638 659175.000000 0 0 1
23.818883 -24.518640 -28.497703 44.504179 -0.799874 2.265734 0.065763 -0.025883 -57532.900000 0 0 1
22.536183 -24.602040 -27.937703 43.516148 -0.829196 2.267910 0.067868 -0.026475 -296917.000000 0 0 1
21.799083 -23.239840 -27.804303 42.289117 -0.817376 2.288267 0.070482 -0.021341 131947.000000 0 0 1
21.214083 -22.668340 -28.964803 42.459990 -0.818526 2.321518 0.088014 -0.028796 95272.200000 0 0 1
20.475983 -21.549040 -28.579703 41.236227 -0.810926 2.336539 0.075756 -0.007179 -318036.000000 0 0 1
19.436283 -21.101240 -29.630213 41.242950 -0.826447 2.372340 0.101237 -0.023587 -619681.000000 0 0 1
18.368083 -21.987840 -29.662353 41.239626 -0.874855 2.373545 0.093256 -0.028234 -512041.000000 0 0 1
17.511583 -21.671640 -30.731593 41.481880 -0.891171 2.405122 0.081597 -0.038031 -40979.100000 0 0 1
16.170383 -22.435340 -30.729723 41.341766 -0.946276 2.408800 0.089529 -0.040286 -20226.500000 0 0 1
16.363483 -23.822540 -31.132883 42.479800 -0.968923 2.393352 0.083970 -0.024756 1270070.000000 0 0 1
15.149883 -24.608340 -30.926633 42.326658 -1.018956 2.390093 0.102202 -0.040672 981808.000000 0 0 1
15.445383 -26.099940 -31.103263 43.441682 -1.036444 2.368819 0.115138 -0.039406 -146619.000000 0 0 1
14.377783 -26.903340 -30.709363 43.284816 -1.079990 2.359545 0.112510 -0.027472 -405146.000000 0 0 1
14.651883 -28.222240 -31.006553 44.413724 -1.091938 2.343579 0.177721 -0.044602 261007.000000 0 0 1
14.053983 -29.283740 -29.992813 44.211093 -1.123338 2.316379 0.153036 -0.051860 -280800.000000 0 0 1
14.607283 -29.340240 -28.678033 43.550568 -1.108864 2.289620 0.156672 -0.053851 -52312.600000 0 0 1
14.591483 -28.225340 -27.871773 42.266026 -1.093670 2.290866 0.123505 -0.039719 192860.000000 0 0 1
15.667483 -28.239540 -26.728713 41.920946 -1.064270 2.262173 0.085627 -0.027075 -52116.300000 0 0 1
15.474383 -29.260340 -25.769993 41.948976 -1.084335 2.232317 0.083419 -0.029071 252004.000000 0 0 1
16.252683 -29.088640 -24.563423 41.396382 -1.061276 2.206037 0.092245 -0.033539 -777369.000000 0 0 1
15.729083 -28.109240 -23.439723 39.836592 -1.060636 2.199871 0.078946 -0.025682 1177370.000000 0 0 1
14.501683 -28.436740 -22.749223 39.197884 -1.099210 2.189978 0.077198 -0.030265 946170.000000 0 0 1
13.343083 -28.559340 -23.550023 39.348156 -1.133727 2.212429 0.080845 -0.022260 -530004.000000 0 0 1
12.032383 -28.230940 -22.789523 38.224685 -1.167899 2.209555 0.057342 -0.016126 128936.000000 0 0 1
11.849683 -26.850040 -22.691923 37.098019 -1.155177 2.228972 0.051064 -0.016361 142318.000000 0 0 1
10.676783 -26.626640 -21.929723 36.109340 -1.189444 2.223472 0.064982 -0.022867 -153100.000000 0 0 1
10.447483 -25.113940 -21.551323 34.703305 -1.176571 2.240835 0.076937 -0.019530 -277344.000000 0 0 1
11.151283 -24.649540 -20.425323 33.899038 -1.145954 2.217469 0.070762 -0.014121 14425.300000 0 0 1
11.046283 -23.257540 -20.367323 32.829276 -1.127385 2.240050 0.070269 -0.020826 -12144.400000 0 0 1
11.607783 -22.688140 -19.035523 31.809487 -1.097893 2.212327 0.082605 -0.021115 -135161.000000 0 0 1
10.746683 -22.886040 -17.946823 31.005652 -1.131785 2.188082 0.084401 -0.021957 -15363.700000 0 0 1
11.087483 -22.066140 -16.829823 29.884607 -1.105178 2.169002 0.084839 -0.026180 -144527.000000 0 0 1
10.271283 -22.232240 -15.513623 28.990417 -1.138009 2.135457 0.071155 -0.027016 -11484.700000 0 0 1
10.620783 -23.441140 -14.967723 29.771141 -1.145381 2.097584 0.076164 -0.018801 345641.000000 0 0 1
9.843383 -23.738140 -13.802123 29.170020 -1.177712 2.063672 0.076681 -0.019513 301778.000000 0 0 1
9.755483 -25.273340 -13.547323 30.289291 -1.202418 2.034501 0.081333 -0.013837 -186953.000000 0 0 1
11.043383 -25.676940 -13.180123 30.902706 -1.164623 2.011420 0.055186 -0.008291 -285627.000000 0 0 1
11.224383 -27.054940 -13.390623 32.206604 -1.177534 1.999588 0.051943 -0.014374 -640609.000000 0 0 1
12.549683 -27.597140 -12.782423 32.901171 -1.144003 1.969810 0.047144 -0.016075 1172520.000000 0 0 1
13.810383 -27.169540 -13.327923 33.264758 -1.100528 1.983036 0.053366 -0.006223 851877.000000 0 0 1
13.997383 -27.474740 -14.683123 34.152338 -1.099606 2.015212 0.053149 -0.006469 -887603.000000 0 0 1
15.383483 -27.013940 -15.203823 34.605791 -1.053132 2.025664 0.048449 -0.009278 569629.000000 0 0 1
16.489283 -27.794040 -14.732323 35.516848 -1.035342 1.998517 0.082965 -0.012036 151732.000000 0 0 1
17.657383 -27.351940 -15.378023 36.005491 -0.997547 2.012082 0.097310 -0.017474 257331.000000 0 0 1
18.925683 -28.192340 -15.046023 37.139902 -0.979589 1.987904 0.096840 -0.020942 419022.000000 0 0 1
18.898283 -29.519740 -15.526123 38.335632 -1.001347 1.987781 0.080426 -0.015960 -435492.000000 0 0 1
20.176083 -30.077640 -15.416423 39.362480 -0.979938 1.973223 0.094347 -0.012899 7511.150000 0 0 1
20.682083 -31.111740 -16.502723 40.841508 -0.984109 1.986755 0.064487 -0.013313 96646.000000 0 0 1
20.133683 -32.422840 -16.447123 41.558556 -1.015099 1.977689 0.055223 -0.008172 -154039.000000 0 0 1
20.626983 -33.129540 -17.499323 42.769910 -1.013913 1.992319 0.042626 -0.002511 -87858.700000 0 0 1
20.481783 33.239012 -17.339123 42.719791 1.018552 1.988738 0.024123 0.002776 -359999.000000 0 0 1
21.374783 32.648312 -16.418323 42.336213 0.991126 1.969049 0.047681 -0.003048 -86667.800000 0 0 1
20.927583 31.428812 -15.761623 40.916533 0.983344 1.966236 0.034108 -0.006799 -127612.000000 0 0 1
21.897783 30.918812 -14.646523 40.620271 0.954565 1.939677 0.055561 -0.017829 3534.330000 0 0 1
23.117983 30.424212 -15.170123 41.112120 0.921018 1.948723 0.058400 -0.012934 412383.000000 0 0 1
24.069683 29.976712 -14.197123 40.981840 0.894262 1.924553 0.062158 -0.022227 356926.000000 0 0 1
23.682583 28.790712 -13.282923 39.575319 0.882440 1.913077 0.065898 -0.008721 -1525780.000000 0 0 1
23.865083 27.501012 -13.899323 38.974851 0.856065 1.935447 0.061601 0.008374 116856.000000 0 0 1
23.378083 26.505312 -13.031923 37.668254 0.848007 1.924064 0.023785 0.004195 1334890.000000 0 0 1
21.820783 26.607012 -12.704023 36.680674 0.883911 1.924464 0.029064 -0.000230 5412.740000 0 0 1
21.078483 26.334012 -13.866723 36.470106 0.895794 1.960832 0.033775 -0.006827 -764527.000000 0 0 1
19.695083 26.396912 -13.709723 35.674217 0.929787 1.965249 0.044113 -0.009176 -543311.000000 0 0 1
19.091783 27.830312 -13.843423 36.478251 0.969524 1.960050 0.040738 -0.009819 -700740.000000 0 0 1
19.178183 28.460612 -15.140523 37.510593 0.977837 1.986281 0.027410 -0.009207 21639.900000 0 0 1
18.484583 27.862812 -16.209023 37.158424 0.985049 2.022183 0.022119 -0.002315 -817723.000000 0 0 1
18.607883 28.775212 -17.439523 38.450007 0.996770 2.041556 0.018214 -0.002154 -29304.600000 0 0 1
17.886883 30.004112 -17.468423 39.055513 1.033214 2.034509 0.007722 -0.001442 42166.700000 0 0 1
17.894783 30.633612 -18.764223 40.133994 1.042109 2.057301 0.008576 0.006250 -181475.000000 0 0 1
17.003583 31.901012 -18.824723 40.757411 1.081090 2.050901 -0.001835 0.010280 -102612.000000 0 0 1
17.395883 33.068212 -18.119923 41.526557 1.086518 2.022329 0.012514 -0.006650 -442299.000000 0 0 1
16.615483 -33.778740 -18.521023 41.953616 -1.113656 2.028026 0.017647 -0.010264 -337965.000000 0 0 1
16.392483 -32.643640 -17.446623 40.480926 -1.105418 2.016379 0.024247 -0.006237 752523.000000 0 0 1
15.353983 -31.736140 -17.887523 39.533415 -1.120192 2.040325 0.027577 -0.009327 744879.000000 0 0 1
14.807483 -31.019540 -16.766123 38.243644 -1.125424 2.024617 0.037382 -0.002038 -241316.000000 0 0 1
13.598183 -30.141140 -17.043423 37.200500 -1.146986 2.046710 0.032695 -0.009657 30664.100000 0 0 1
12.428983 -30.863540 -17.400423 37.547469 -1.187958 2.052652 0.027947 -0.010532 448351.000000 0 0 1
11.347783 -30.004440 -17.761923 36.667759 -1.209220 2.076475 0.012441 -0.003603 73121.500000 0 0 1
10.009483 -30.623240 -18.131323 36.969142 -1.254884 2.083396 0.034226 -0.014884 -1995850.000000 0 0 1
9.440583 -31.260640 -17.026723 36.827456 -1.277509 2.051426 0.046027 -0.013596 36425.000000 0 0 1
8.352383 -32.116840 -17.344923 37.444627 -1.316370 2.052416 0.075458 -0.013987 -22200.700000 0 0 1
7.076083 -31.438740 -17.886223 36.856238 -1.349410 2.077499 0.080443 -0.008672 -1460220.000000 0 0 1
7.016883 -30.793440 -19.170923 36.945864 -1.346752 2.116351 0.068895 -0.012387 -187810.000000 0 0 1
6.924883 -31.696940 -20.207923 38.223163 -1.355704 2.127844 0.072996 -0.024400 -1590870.000000 0 0 1
7.054483 -31.133040 -21.700823 38.599969 -1.347968 2.167837 0.058392 -0.015177 1039990.000000 0 0 1
8.405683 -30.876640 -22.188523 38.940377 -1.305003 2.177068 0.055404 -0.010929 1945080.000000 0 0 1
9.407383 -31.901040 -22.015623 39.885622 -1.284032 2.155520 0.058636 -0.020251 6665.130000 0 0 1
9.242483 -33.106140 -22.989123 41.351418 -1.298551 2.160296 0.067027 -0.024949 -80995.900000 0 0 1
8.059483 -33.828440 -22.675823 41.515197 -1.336911 2.148624 0.059095 -0.031298 48043.200000 0 0 1
7.882183 32.945212 -23.543723 41.253153 1.335959 2.178171 0.060175 -0.034903 -41841.600000 0 0 1
6.636983 32.181812 -23.033423 40.128009 1.367414 2.182177 0.079224 -0.043389 1139970.000000 0 0 1
5.330083 32.754312 -23.226123 40.505648 1.409481 2.181452 0.085058 -0.043408 945787.000000 0 0 1
4.942883 33.710512 -22.253723 40.694703 1.425206 2.149388 0.073304 -0.033499 -210584.000000 0 0 1
3.552183 -33.629440 -22.656323 40.704622 -1.465559 2.161088 0.080513 -0.032927 -321786.000000 0 0 1
2.482883 33.427112 -22.439223 40.336773 1.496655 2.160719 0.072122 -0.039321 -231956.000000 0 0 1
1.295183 -33.764040 -22.773123 40.746816 -1.532455 2.163847 0.075863 -0.033935 157250.000000 0 0 1
0.051583 33.467912 -22.163723 40.141430 1.569255 2.155726 0.076692 -0.035845 -181673.000000 0 0 1
-0.119317 33.700712 -20.793923 39.599740 -1.567256 2.123632 0.068400 -0.041161 956993.000000 0 0 1
-1.390117 33.155512 -20.335223 38.919682 -1.528894 2.120567 0.071209 -0.046606 1241660.000000 0 0 1
-1.558517 33.305912 -18.795523 38.275115 -1.524036 2.084107 0.083282 -0.039419 30649.900000 0 0 1
-0.695717 32.479212 -18.045423 37.162084 -1.549379 2.077831 0.096574 -0.053634 -223450.000000 0 0 1
-1.008717 32.393212 -16.666923 36.443435 -1.539667 2.045794 0.073967 -0.045283 -509467.000000 0 0 1
-0.120117 31.491612 -15.870523 35.264848 -1.566982 2.037604 0.047134 -0.043265 -752871.000000 0 0 1
1.108983 32.048212 -15.550423 35.638930 1.536207 2.022315 0.054267 -0.037804 -538917.000000 0 0 1
1.907383 31.176812 -14.745423 34.540689 1.509693 2.011858 0.065325 -0.025179 132401.000000 0 0 1
2.805783 31.912512 -13.757423 34.864703 1.483101 1.976423 0.076447 -0.033449 -76811.400000 0 0 1
3.942983 32.501612 -14.368223 35.753989 1.450070 1.984347 0.065920 -0.035388 441987.000000 0 0 1
4.918383 32.874812 -13.390723 35.836506 1.422288 1.953750 0.079448 -0.041092 264282.000000 0 0 1
6.252283 33.377912 -13.986723 36.726073 1.385624 1.961500 0.088029 -0.048357 54648.700000 0 0 1
6.965383 32.279912 -14.501123 36.066492 1.358274 1.984569 0.079730 -0.039553 -463286.000000 0 0 1
8.077183 32.627812 -15.309323 36.934947 1.328120 1.998183 0.062382 -0.018569 -79148.600000 0 0 1
9.068683 31.464912 -15.362223 36.170147 1.290186 2.009450 0.045969 -0.028981 -540407.000000 0 0 1
9.782283 31.372812 -14.186923 35.794066 1.268542 1.978332 0.041599 -0.031955 -540183.000000 0 0 1
10.705483 30.314212 -14.040423 35.081224 1.231317 1.982560 0.050578 -0.029723 -6227.640000 0 0 1
10.212083 28.871912 -13.869823 33.619130 1.230826 1.996056 0.056846 -0.027163 -431096.000000 0 0 1
9.395583 28.381512 -14.896023 33.401777 1.251106 2.033048 0.069148 -0.039799 -19690.600000 0 0 1
8.828383 27.138812 -14.582923 32.048667 1.256289 2.043196 0.059575 -0.030166 -383310.000000 0 0 1
7.984183 26.466212 -15.667823 31.775591 1.277804 2.086420 0.064899 -0.025566 -294416.000000 0 0 1
8.676983 25.622212 -16.502723 31.687973 1.244268 2.118570 0.076740 -0.025813 -329466.000000 0 0 1
7.780483 24.848912 -17.265423 31.242586 1.267354 2.156306 0.069899 -0.015761 156498.000000 0 0 1
8.589683 23.937912 -18.189623 31.267693 1.226275 2.191661 0.078535 -0.012336 462947.000000 0 0 1
7.825283 23.187712 -19.172823 31.088618 1.245323 2.235359 0.094413 -0.026595 152839.000000 0 0 1
8.707583 22.255112 -19.764423 31.012004 1.197845 2.261806 0.092373 -0.022727 -48242.300000 0 0 1
8.093783 21.246712 -20.784523 30.804683 1.206826 2.311381 0.086259 -0.025293 -2859.890000 0 0 1
7.377483 20.218112 -20.166223 29.493658 1.220914 2.323683 0.105014 -0.033662 -212676.000000 0 0 1
6.718483 19.292212 -20.977123 29.280832 1.235683 2.369441 0.108566 -0.039718 39738.000000 0 0 1
25.584283 -12.769488 -9.312623 30.072252 -0.462939 1.885647 0.090326 -0.026174 -237761.000000 0 0 1
25.943783 -11.842088 -8.304423 29.703171 -0.428206 1.854153 0.105927 -0.036660 661629.000000 0 0 1
24.947083 -11.774788 -7.295323 28.534616 -0.440990 1.829333 0.100717 -0.025970 -180133.000000 0 0 1
25.511883 -11.032888 -5.982723 28.431915 -0.408173 1.782804 0.084079 -0.035263 -103963.000000 0 0 1
25.620983 -9.622088 -5.988423 28.015720 -0.359257 1.786211 0.100096 -0.038702 572757.000000 0 0 1
26.695683 -9.136788 -6.780723 29.019280 -0.329760 1.806639 0.083923 -0.041998 -1264540.000000 0 0 1
27.107783 -7.740888 -6.321223 28.891368 -0.278157 1.791373 0.138823 -0.040668 -684130.000000 0 0 1
27.778983 -7.679288 -5.084123 29.265879 -0.269707 1.745404 0.141597 -0.047876 350797.000000 0 0 1
29.122183 -8.122588 -5.214023 30.680027 -0.272001 1.741574 0.130498 -0.045763 -601401.000000 0 0 1
29.905583 -7.932988 -3.883023 31.182593 -0.259296 1.695646 0.150183 -0.049144 -240488.000000 0 0 1
30.189583 -6.611488 -3.534323 31.106497 -0.215595 1.684662 0.150129 -0.032363 -40266.100000 0 0 1
30.917383 -6.614388 -2.364623 31.705302 -0.210760 1.645447 0.153448 -0.021394 -172110.000000 0 0 1
31.386583 -5.230988 -1.851023 31.873298 -0.165145 1.628903 0.136172 -0.029100 685043.000000 0 0 1
30.176283 -4.527588 -1.468523 30.549365 -0.148927 1.618885 0.178522 -0.019996 1015720.000000 0 0 1
30.360183 -3.308688 -0.793523 30.550251 -0.108553 1.596774 0.150819 -0.007112 -97980.100000 0 0 1
31.098683 -3.300988 0.596577 31.279075 -0.105750 1.551722 0.149600 -0.021207 -42184.500000 0 0 1
30.352783 -3.693488 1.699377 30.623866 -0.121090 1.515276 0.179192 -0.035341 116073.000000 0 0 1
30.998283 -3.172388 2.848777 31.290144 -0.101986 1.479626 0.150776 -0.026861 85709.500000 0 0 1
30.525483 -3.949888 4.072377 31.048204 -0.128681 1.439254 0.168785 -0.029681 -17445.000000 0 0 1
31.053583 -5.301688 4.037477 31.760575 -0.169097 1.443329 0.150130 -0.026320 291294.000000 0 0 1
30.875383 -5.963088 5.261777 31.883130 -0.190785 1.405005 0.147945 -0.033987 -111262.000000 0 0 1
31.594183 -7.327588 5.383777 32.876603 -0.227899 1.406298 0.123063 -0.018457 1266010.000000 0 0 1
33.007783 -7.116888 5.633177 34.232974 -0.212361 1.405490 0.124527 -0.028397 728079.000000 0 0 1
33.686783 -8.337288 5.494377 35.135423 -0.242619 1.413775 0.133343 -0.029238 -572186.000000 0 0 1
35.169883 -8.301588 5.841477 36.605463 -0.231800 1.410532 0.154477 -0.032669 -527544.000000 0 0 1
35.927583 -7.628588 4.872177 37.050300 -0.209225 1.438913 0.160146 -0.024356 -8406.340000 0 0 1
-37.212634 -7.767188 5.141377 38.360698 0.205770 1.436365 0.161313 -0.028943 485137.000000 0 0 1
-36.276434 -7.431688 3.949877 37.239914 0.202067 1.464531 0.148423 -0.026771 44350.900000 0 0 1
-36.129834 -8.617588 3.154377 37.277042 0.234143 1.486075 0.164485 -0.028395 303024.000000 0 0 1
-35.199734 -8.451288 2.095677 36.260687 0.235635 1.512969 0.174532 -0.031285 -196765.000000 0 0 1
-35.001234 -9.677988 1.232977 36.335521 0.269764 1.536857 0.171485 -0.024194 -588.472000 0 0 1
-34.363734 -10.664388 2.053477 36.039037 0.300914 1.513786 0.169291 -0.024615 325633.000000 0 0 1
-34.148634 -11.863888 1.344177 36.175791 0.334374 1.533631 0.172054 -0.027138 -724677.000000 0 0 1
-33.542734 -12.984888 2.222577 36.036956 0.369349 1.509082 0.137499 -0.031789 866969.000000 0 0 1
-32.222634 -12.827388 2.747477 34.790641 0.378856 1.491742 0.128380 -0.024930 695639.000000 0 0 1
-31.160034 -13.034288 1.837577 33.826278 0.396183 1.516446 0.139966 -0.012591 -121727.000000 0 0 1
-29.883234 -13.515888 2.581777 32.899126 0.424757 1.492240 0.128635 -0.013796 183949.000000 0 0 1
-29.139234 -12.495688 3.227177 31.869294 0.405108 1.469360 0.121514 -0.018521 296519.000000 0 0 1
-27.869534 -12.935988 3.661677 30.942828 0.434569 1.452182 0.127780 -0.012601 244455.000000 0 0 1
-27.037334 -11.805088 4.343877 29.820242 0.411673 1.424607 0.128570 -0.016906 -159771.000000 0 0 1
-25.742634 -12.181388 4.718477 28.867516 0.441978 1.406607 0.107162 -0.007721 -244930.000000 0 0 1
-25.001134 -11.124788 5.253677 27.864292 0.418664 1.381116 0.107321 -0.003686 90444.900000 0 0 1
-23.591134 -11.585788 5.714077 26.896520 0.456509 1.356718 0.112029 0.003735 115581.000000 0 0 1
-23.668334 -12.528688 6.746277 27.616487 0.486846 1.324015 0.117778 -0.007338 -352984.000000 0 0 1
-22.433334 -12.775888 7.336977 26.838574 0.517695 1.293897 0.120800 -0.002647 -560860.000000 0 0 1
-22.174134 -11.974588 8.613077 26.632088 0.495153 1.241466 0.130834 -0.006885 -617503.000000 0 0 1
-22.150934 -10.559288 8.449577 25.952992 0.444832 1.239179 0.130072 -0.011749 1150110.000000 0 0 1
-23.331434 -9.858388 8.907277 26.849269 0.399782 1.232637 0.116854 -0.008646 -14854.600000 0 0 1
-23.803134 -9.927288 10.386677 27.803297 0.395125 1.187934 0.109964 -0.011032 -413312.000000 0 0 1
-24.344534 -11.178188 10.852977 28.903207 0.430450 1.185867 0.108571 -0.028730 303183.000000 0 0 1
-25.658334 -11.397088 10.370377 29.929725 0.418009 1.216969 0.116193 -0.027395 -58358.600000 0 0 1
-26.770734 -10.934288 11.365677 31.071039 0.387763 1.196308 0.125528 -0.034347 -341134.000000 0 0 1
-26.839434 -11.752788 12.503777 31.856361 0.412740 1.167443 0.116722 -0.036842 477439.000000 0 0 1
-27.900934 -11.383788 13.391677 32.975594 0.387390 1.152605 0.107965 -0.037040 59187.800000 0 0 1
-27.917934 -12.240888 14.719177 33.851212 0.413216 1.120958 0.102546 -0.036503 -310117.000000 0 0 1
-28.018834 -13.629588 14.468577 34.353464 0.452744 1.136064 0.108901 -0.035149 229883.000000 0 0 1
-27.750534 -14.370588 15.636277 34.944229 0.477825 1.106869 0.080148 -0.018888 -432836.000000 0 0 1
-27.424234 -15.867388 15.470977 35.259237 0.524528 1.116558 0.076259 -0.019808 -84923.200000 0 0 1
-28.562534 -16.638188 15.252677 36.404558 0.527466 1.138478 0.100506 -0.024744 -57355.000000 0 0 1
-28.063534 -17.943688 15.124577 36.582656 0.568884 1.144572 0.078064 -0.014362 192761.000000 0 0 1
-28.934734 -19.047488 15.799077 38.074092 0.582182 1.142902 0.060408 -0.003896 79656.900000 0 0 1
-29.128434 -18.822588 17.144977 38.687282 0.573694 1.111666 0.056477 0.006591 -318132.000000 0 0 1
-29.625834 -19.858788 17.921577 39.915466 0.590528 1.105164 0.055783 0.007278 -711760.000000 0 0 1
-28.761534 -21.046888 18.319077 40.072259 0.631733 1.096007 0.038402 0.015333 -720481.000000 0 0 1
-27.726134 -20.615088 19.156877 39.505776 0.639345 1.064532 0.038464 0.020168 -288305.000000 0 0 1
-26.943134 -21.693388 19.589277 39.752677 0.677876 1.055516 0.037777 0.027407 -110324.000000 0 0 1
-25.505134 -21.373488 20.035477 38.842737 0.697490 1.028843 0.043275 0.026956 -3067.940000 0 0 1
-24.572834 -21.099388 19.018777 37.559583 0.709493 1.039835 0.053336 0.018387 -937897.000000 0 0 1
-23.340234 -20.854088 19.563077 36.910344 0.729203 1.012177 0.054466 0.020927 -223108.000000 0 0 1
-22.101734 -20.717488 18.590977 35.543289 0.753082 1.020369 0.050574 0.004072 644142.000000 0 0 1
-21.809934 -21.885488 17.796777 35.656319 0.787127 1.048214 0.044015 0.004542 -684873.000000 0 0 1
-20.564434 -21.720588 17.237877 34.522809 0.812733 1.047984 0.046783 0.010482 -995141.000000 0 0 1
-20.311834 -22.709288 16.081177 34.451221 0.841068 1.085149 0.039633 0.009688 -385632.000000 0 0 1
-20.181834 -24.068888 16.414277 35.440744 0.873015 1.089254 0.044670 0.004415 721374.000000 0 0 1
-19.010034 -24.529588 17.113877 35.439623 0.911496 1.066830 0.056063 -0.009949 626770.000000 0 0 1
-17.724334 -24.696888 16.278577 34.483045 0.948306 1.079153 0.056334 -0.014703 -48543.500000 0 0 1
-17.062234 -23.462088 16.003477 33.131567 0.942031 1.066687 0.059323 -0.013614 222012.000000 0 0 1
-15.826534 -23.713188 15.331277 32.370396 0.982276 1.077399 0.054683 -0.014768 -283962.000000 0 0 1
-15.066634 -22.427688 15.122877 30.962979 0.979257 1.060520 0.053362 -0.006914 -1038470.000000 0 0 1
-15.577934 -21.292388 14.464477 30.087521 0.939163 1.069290 0.054319 -0.008955 -402950.000000 0 0 1
-16.689534 -20.589988 14.960977 30.435489 0.889646 1.056912 0.037629 0.003332 -109126.000000 0 0 1
-16.319434 -19.396288 15.880377 29.911976 0.871334 1.011130 0.053612 -0.001106 -327796.000000 0 0 1
-15.682834 -18.310188 15.216777 28.509027 0.862536 1.007764 0.060723 -0.007410 193097.000000 0 0 1
-15.586134 -17.150588 16.082677 28.208558 0.833151 0.964127 0.061390 -0.010912 -322290.000000 0 0 1
-14.805934 -16.016088 15.381077 26.689105 0.824641 0.956596 0.069698 -0.013289 5873.030000 0 0 1
-15.470034 -15.399088 14.308677 26.099658 0.783100 0.990547 0.057322 -0.017589 -11057.800000 0 0 1
-15.648434 -16.091588 13.099977 25.988884 0.799359 1.042502 0.073548 -0.015399 166618.000000 0 0 1
-16.487534 -15.261388 12.048377 25.493375 0.746797 1.078548 0.073370 -0.016533 -526642.000000 0 0 1
-17.819534 -15.072688 12.392677 26.425370 0.702081 1.082673 0.056790 -0.019141 -756075.000000 0 0 1
-18.474834 -14.233288 11.474977 25.991943 0.656439 1.113547 0.080470 -0.023344 13990.700000 0 0 1
-20.023734 -14.365688 11.591677 27.233985 0.622330 1.131135 0.093595 -0.026521 434972.000000 0 0 1
-20.648534 -15.519788 11.030677 28.087393 0.644535 1.167201 0.112475 -0.027640 287768.000000 0 0 1
-20.644534 -15.620288 9.614677 27.615797 0.647731 1.215190 0.125227 -0.032909 -591966.000000 0 0 1
-21.659234 -16.703288 9.199177 28.857358 0.656923 1.246353 0.116971 -0.018036 -28998.600000 0 0 1
-21.184634 -17.990688 9.344877 29.322011 0.704049 1.246440 0.115889 -0.008215 -238129.000000 0 0 1
-22.044134 -18.874288 8.652877 30.282914 0.708085 1.281023 0.098573 -0.017517 -67043.900000 0 0 1
-21.757634 -20.305688 8.623177 30.985074 0.750894 1.288772 0.106022 -0.019128 -562062.000000 0 0 1
-20.659634 -20.605888 7.821577 30.209273 0.784096 1.308900 0.112392 -0.019641 -618389.000000 0 0 1
-20.328134 -21.966388 8.043577 30.991199 0.824113 1.308246 0.093249 -0.018908 -562238.000000 0 0 1
-18.968034 -22.340188 7.480477 30.246122 0.866852 1.320883 0.099310 -0.021782 -869336.000000 0 0 1
-17.882234 -21.666188 8.020777 29.215251 0.880787 1.292684 0.082101 -0.024376 -1020110.000000 0 0 1
-16.683634 -22.106788 7.483277 28.688903 0.924304 1.306902 0.101262 -0.023394 -1518830.000000 0 0 1
-15.442934 -21.570588 8.112777 27.741515 0.949462 1.274017 0.089292 -0.020941 -1429980.000000 0 0 1
-14.327234 -22.198788 7.569877 27.483793 0.997657 1.291759 0.098433 -0.013880 281749.000000 0 0 1
-13.100134 -21.764888 8.211077 26.697297 1.028986 1.258166 0.086410 -0.018502 795662.000000 0 0 1
-11.816034 -22.143088 7.482577 26.190151 1.080614 1.281057 0.089736 -0.018067 -175148.000000 0 0 1
-11.487734 -23.512688 7.586677 27.246508 1.116330 1.288621 0.084022 -0.010331 -163492.000000 0 0 1
-10.421434 -23.836888 6.702077 26.864873 1.158640 1.318660 0.098095 -0.021362 375221.000000 0 0 1
-10.155934 -25.362668 6.646477 28.117319 1.189921 1.332154 0.089390 -0.013885 -148250.000000 0 0 1
-10.986034 -26.082598 5.783677 28.886776 1.172147 1.369215 0.103677 -0.012674 -507761.000000 0 0 1
-10.941934 -27.473828 5.994477 30.174011 1.191784 1.370802 0.113200 -0.010113 460728.000000 0 0 1
-9.804934 -28.273078 5.234977 30.379412 1.236980 1.397612 0.126015 -0.022770 362989.000000 0 0 1
-8.529934 -27.942328 5.756677 29.777052 1.274512 1.376245 0.124384 -0.029490 -30855.900000 0 0 1
-7.515934 -28.902448 5.451177 30.357143 1.316386 1.390249 0.131984 -0.025427 421815.000000 0 0 1
-7.557934 -30.213498 6.203377 31.756255 1.325676 1.374189 0.152888 -0.039141 -599084.000000 0 0 1
-7.321934 -30.009418 7.532477 31.794876 1.331484 1.331614 0.142870 -0.030419 79083.700000 0 0 1
-7.390934 -31.263918 8.285177 33.176839 1.338654 1.318397 0.163020 -0.034351 -120500.000000 0 0 1
-7.619934 -31.151298 9.809177 33.536350 1.330897 1.273963 0.136648 -0.041475 -650606.000000 0 0 1
-6.573934 -30.571388 10.497177 32.985105 1.358986 1.246924 0.123308 -0.035773 -363770.000000 0 0 1
-6.870934 -30.656628 11.862077 33.581952 1.350314 1.209777 0.104277 -0.026199 -567843.000000 0 0 1
-5.968934 -29.967268 12.850077 33.147999 1.374188 1.172707 0.097698 -0.030388 -451587.000000 0 0 1
-6.071934 -28.582168 12.836277 31.915181 1.361470 1.156878 0.096030 -0.020858 -324985.000000 0 0 1
-5.148934 -27.968168 13.669677 31.552972 1.388735 1.122723 0.068572 -0.031899 -1135330.000000 0 0 1
-5.662934 -27.586618 15.041877 31.927236 1.368331 1.080225 0.078858 -0.026932 -130736.000000 0 0 1
-6.183934 -28.611938 15.869777 33.297656 1.357939 1.074009 0.071825 -0.029135 350468.000000 0 0 1
-5.199934 -29.340558 16.589977 34.104765 1.395391 1.062784 0.061397 -0.033033 102926.000000 0 0 1
-5.763934 -30.675668 16.962877 35.524059 1.385063 1.072985 0.046437 -0.029274 -227046.000000 0 0 1
-6.232934 -31.444468 15.846977 35.759345 1.375113 1.111680 0.054195 -0.022474 263083.000000 0 0 1
-6.809934 -32.643258 16.301077 37.117148 1.365129 1.116112 0.046260 -0.021156 -116713.000000 0 0 1
-6.175934 -33.829518 15.581277 37.753870 1.390224 1.145373 0.034320 -0.020502 601.319000 0 0 1
-6.602934 -33.945038 14.232777 37.395672 1.378677 1.180352 0.052977 -0.023398 442285.000000 0 0 1
-5.826934 32.945045 13.585877 36.109628 -1.395738 1.185062 0.067756 -0.027355 -308544.000000 0 0 1
-4.658934 33.525398 12.822077 36.194801 -1.432713 1.208682 0.105594 -0.038311 -778921.000000 0 0 1
-4.855934 33.698483 11.422677 35.911633 -1.427682 1.247095 0.110102 -0.036474 7579.820000 0 0 1
-3.924934 -33.361708 10.798377 35.284751 1.453687 1.259771 0.122587 -0.044446 -284484.000000 0 0 1
-4.329934 -33.137858 9.283877 34.685103 1.440868 1.299831 0.123942 -0.049588 -469829.000000 0 0 1
-4.346934 33.629295 8.415077 34.937642 -1.442249 1.327545 0.124285 -0.049299 355062.000000 0 0 1
-5.162934 32.493710 8.649677 34.019318 -1.413223 1.313716 0.135032 -0.051493 956357.000000 0 0 1
-6.658934 32.546406 9.125377 34.451160 -1.368983 1.302718 0.148200 -0.046819 535114.000000 0 0 1
-7.656934 33.001062 8.269077 34.872286 -1.342809 1.331391 0.148788 -0.041735 -860694.000000 0 0 1
-8.823934 33.246338 9.006077 35.556859 -1.311367 1.314720 0.118987 -0.039405 418002.000000 0 0 1
-10.098134 33.498936 8.119177 35.917573 -1.278013 1.342775 0.114487 -0.047420 422576.000000 0 0 1
-10.072634 -33.265118 7.303777 35.515788 1.276774 1.363670 0.123694 -0.038099 -261878.000000 0 0 1
-10.983634 -33.464048 6.270377 35.774298 1.253653 1.394610 0.111693 -0.032199 -407901.000000 0 0 1
-11.302734 -32.184308 5.509777 34.553425 1.233064 1.410656 0.096931 -0.037292 487292.000000 0 0 1
-12.141434 -31.276038 6.255677 34.128265 1.200501 1.386455 0.096699 -0.032983 659808.000000 0 0 1
-13.097434 -30.608598 5.414977 33.730566 1.166472 1.409562 0.090783 -0.030018 178488.000000 0 0 1
-14.242334 -29.870568 6.108677 33.651313 1.125879 1.388256 0.072102 -0.018376 -729480.000000 0 0 1
-15.196734 -30.730328 6.619377 34.915755 1.111543 1.380061 0.092542 -0.019311 -915439.000000 0 0 1
-16.079834 -30.014828 7.391977 34.843828 1.078975 1.357026 0.075637 -0.018148 -835975.000000 0 0 1
34.097141 -12.387088 -12.309523 38.308998 -0.348463 1.897921 0.053425 -0.037572 -323930.000000 0 0 1
33.161521 -12.828988 -11.344823 37.322572 -0.369131 1.879650 0.080680 -0.041097 145928.000000 0 0 1
33.106231 -14.252188 -11.182223 37.738435 -0.406519 1.871622 0.082558 -0.049072 319672.000000 0 0 1
34.267421 -14.932988 -10.395523 38.798417 -0.410964 1.842047 0.057352 -0.043722 1392300.000000 0 0 1
35.598801 -14.990788 -10.958623 40.150838 -0.398566 1.847240 0.060928 -0.044345 915966.000000 0 0 1
36.523111 -15.160488 -9.892823 40.763292 -0.393450 1.815934 0.051867 -0.043554 322555.000000 0 0 1
-36.555307 -15.456688 -10.390823 41.026441 0.400031 1.826857 0.033893 -0.043339 -38993.800000 0 0 1
-36.025790 -14.234388 -10.745523 40.198776 0.376289 1.841396 0.036143 -0.041393 -1138340.000000 0 0 1
-34.648869 -14.380288 -10.849723 39.051931 0.393395 1.852329 0.057003 -0.037733 -946141.000000 0 0 1
-33.942907 -13.078588 -11.226523 38.068428 0.367780 1.870151 0.095237 -0.045474 -523893.000000 0 0 1
-34.093913 -12.170688 -10.145623 37.595933 0.342875 1.844044 0.106821 -0.041740 394188.000000 0 0 1
-33.734737 -10.863088 -10.507123 36.965373 0.311530 1.859012 0.123030 -0.031402 -254058.000000 0 0 1
-34.210687 -9.778488 -9.506123 36.828743 0.278408 1.831869 0.127807 -0.033104 -125175.000000 0 0 1
-33.624557 -9.923988 -8.229123 36.011315 0.286993 1.801348 0.136046 -0.026340 273204.000000 0 0 1
-34.073475 -8.944588 -7.340223 35.984527 0.256717 1.776221 0.152604 -0.029912 -111515.000000 0 0 1
-33.328747 -9.016188 -5.967923 35.038737 0.264199 1.741954 0.141804 -0.021431 -388050.000000 0 0 1
-32.088367 -8.343888 -6.094923 33.711005 0.254395 1.752595 0.171281 -0.033075 -46667.600000 0 0 1
-31.401947 -8.231688 -4.877323 32.827294 0.256371 1.719924 0.172714 -0.035513 -307864.000000 0 0 1
-30.656347 -9.473988 -4.293623 32.372878 0.299728 1.703819 0.160927 -0.029505 -605399.000000 0 0 1
-31.454657 -10.573288 -3.875623 33.409734 0.324278 1.687061 0.152399 -0.026116 54920.100000 0 0 1
-32.063847 -10.351688 -2.624723 33.795516 0.312283 1.648539 0.140928 -0.030605 -56272.400000 0 0 1
-32.679717 -11.668788 -2.114223 34.764845 0.342955 1.631649 0.141519 -0.030725 -869030.000000 0 0 1
-33.548977 -12.264688 -2.995723 35.845931 0.350483 1.654466 0.142242 -0.032949 -356104.000000 0 0 1
-33.789987 -13.523588 -2.412223 36.475601 0.380700 1.636977 0.144651 -0.033489 480012.000000 0 0 1
-35.342131 -13.585988 -2.193923 37.927017 0.366998 1.628675 0.107516 -0.028028 226125.000000 0 0 1
-35.828732 -12.758288 -1.166323 38.050391 0.342091 1.601453 0.128466 -0.028911 822576.000000 0 0 1
-37.255167 -12.852488 -1.086123 39.424784 0.332200 1.598349 0.184270 -0.032408 594390.000000 0 0 1
36.661351 -12.041588 0.050677 38.588302 -0.317353 1.569483 0.156404 -0.033243 -250131.000000 0 0 1
37.031381 -12.601288 1.299577 39.138274 -0.327996 1.537585 0.180075 -0.019967 93078.700000 0 0 1
36.111771 -12.291588 2.314677 38.216500 -0.328076 1.510192 0.185353 -0.017255 -129659.000000 0 0 1
36.569911 -12.521888 3.771177 38.837840 -0.329897 1.473542 0.190315 -0.030697 -89344.500000 0 0 1
35.598451 -12.065788 4.681377 37.878071 -0.326789 1.446889 0.189584 -0.039894 79427.300000 0 0 1
36.110001 -12.147688 5.989577 38.566482 -0.324515 1.414860 0.173348 -0.040068 519097.000000 0 0 1
34.938631 -12.171988 7.037177 37.661480 -0.335233 1.382838 0.171448 -0.050427 526489.000000 0 0 1
34.202011 -10.983488 7.116977 36.620567 -0.310733 1.375208 0.175709 -0.043670 17079.500000 0 0 1
33.490921 -10.996188 8.372277 36.230553 -0.317244 1.337605 0.141440 -0.027029 50873.000000 0 0 1
32.603381 -9.730588 8.586577 35.091225 -0.290037 1.323593 0.141598 -0.041400 -97851.700000 0 0 1
31.218521 -9.987888 8.540977 33.871850 -0.309644 1.315889 0.159886 -0.033899 -6877.660000 0 0 1
30.478151 -8.930088 9.175377 33.058307 -0.285022 1.289552 0.155587 -0.020640 589742.000000 0 0 1
28.950901 -9.197088 8.997577 31.681185 -0.307596 1.282829 0.130882 -0.021320 477807.000000 0 0 1
28.426801 -8.704888 7.749777 30.723234 -0.297154 1.315797 0.159606 -0.022324 -5065.140000 0 0 1
27.330001 -9.424588 7.262877 29.807737 -0.332074 1.324661 0.170066 -0.030573 -344084.000000 0 0 1
26.788301 -8.768388 5.955077 28.809037 -0.316330 1.362587 0.177668 -0.034581 -321376.000000 0 0 1
26.070301 -7.645188 6.351477 27.900730 -0.285255 1.341137 0.181537 -0.036695 4373.020000 0 0 1
25.151901 -7.189288 5.387577 26.708238 -0.278411 1.367683 0.208685 -0.041883 -15019.900000 0 0 1
25.681001 -5.961988 4.552577 26.754160 -0.228115 1.399801 0.212964 -0.040365 -147303.000000 0 0 1
26.591801 -6.229188 3.524577 27.538143 -0.230103 1.442455 0.206758 -0.030298 212010.000000 0 0 1
27.116201 -5.016288 2.950477 27.733676 -0.182924 1.464209 0.198605 -0.033171 -106729.000000 0 0 1
27.706301 -5.437088 1.589277 28.279442 -0.193778 1.514568 0.196731 -0.038143 -89030.800000 0 0 1
26.706801 -5.682388 0.614477 27.311542 -0.209643 1.548296 0.222169 -0.046019 352996.000000 0 0 1
27.249301 -5.579288 -0.722223 27.823991 -0.201958 1.596756 0.199241 -0.046140 18511.900000 0 0 1
26.270601 -6.023788 -1.840023 27.015110 -0.225401 1.638960 0.217899 -0.048673 856254.000000 0 0 1
25.046601 -5.278888 -1.877823 25.665640 -0.207723 1.644027 0.221294 -0.042583 473707.000000 0 0 1
24.289501 -5.402988 -3.055923 25.070117 -0.218878 1.692995 0.202896 -0.040109 622664.000000 0 0 1
23.006401 -4.491088 -2.998423 23.631650 -0.192786 1.698021 0.166916 -0.032501 548898.000000 0 1 0
23.317501 -3.078388 -2.755923 23.680739 -0.131261 1.687439 0.166376 -0.034590 5937.300000 0 1 0
23.895801 -2.388688 -3.804823 24.314436 -0.099632 1.727926 0.175367 -0.032583 -605313.000000 0 1 0
22.968501 -1.831688 -4.882223 23.552987 -0.079579 1.779597 0.163126 -0.015134 -537808.000000 0 1 0
22.174001 -0.765488 -4.484323 22.635844 -0.034508 1.770223 0.115835 0.000598 30474.400000 0 1 0
21.550901 -0.203288 -5.627623 22.274487 -0.009433 1.826213 0.133971 0.009093 -162406.000000 0 1 0
20.860201 1.095812 -5.262223 21.541582 0.052483 1.817576 0.078916 0.023704 -1052630.000000 0 1 0
21.763201 2.125112 -4.954323 22.420935 0.097338 1.793604 0.096498 0.014273 220337.000000 0 1 0
21.979301 2.264212 -3.571823 22.382454 0.102654 1.731063 0.085876 0.009419 -389507.000000 0 1 0
23.214601 3.084012 -3.188123 23.634571 0.132075 1.706101 0.126589 -0.004036 -544545.000000 0 1 0
23.165301 4.484212 -3.220023 23.814026 0.191210 1.706427 0.088375 0.008388 152232.000000 0 1 0
24.354401 5.191912 -2.923223 25.072655 0.210038 1.687652 0.108679 -0.003218 -189772.000000 0 0 1
24.234201 6.771212 -2.940723 25.333646 0.272459 1.687138 0.102882 -0.000824 -258082.000000 0 0 1
23.384801 7.281312 -1.940023 24.568885 0.301855 1.649841 0.119386 -0.008817 342977.000000 0 1 0
22.964501 8.623412 -2.144123 24.623744 0.359218 1.657982 0.125116 -0.008195 -7558.780000 0 1 0
21.826001 9.110112 -1.217923 23.682309 0.395413 1.622247 0.105006 -0.004731 -308292.000000 0 1 0
22.341701 9.694512 -0.084023 24.354511 0.409402 1.574246 0.092643 -0.009803 1074370.000000 0 1 0
21.348301 10.100312 0.922177 23.635072 0.441913 1.531769 0.080039 -0.014178 428844.000000 0 1 0
21.892201 10.518312 2.302277 24.396799 0.447893 1.476288 0.110491 -0.013074 -289962.000000 0 1 0
22.764501 11.635512 2.366077 25.675006 0.472508 1.478511 0.125543 -0.024386 466685.000000 0 0 1
22.303101 12.905412 1.833977 25.832952 0.524564 1.499743 0.125247 -0.018037 -468586.000000 0 0 1
21.156301 13.656112 2.588377 25.313596 0.573196 1.468365 0.106755 -0.013551 33112.200000 0 0 1
19.871601 13.117612 2.219577 23.913987 0.583456 1.477848 0.129970 -0.009837 1982820.000000 0 1 0
18.806701 13.895612 2.913377 23.564121 0.636336 1.446843 0.104906 -0.014376 1006220.000000 0 1 0
18.686901 13.752112 4.425777 23.620083 0.634430 1.382309 0.088760 -0.015316 -882702.000000 0 1 0
18.333001 12.470812 4.866177 22.700214 0.597340 1.354753 0.072461 -0.011276 343608.000000 0 1 0
18.345301 12.458912 6.266777 23.044458 0.596584 1.295385 0.072002 -0.025411 65949.400000 0 1 0
18.274001 11.047912 6.884477 22.436387 0.543773 1.258921 0.032576 -0.022895 345639.000000 0 1 0
19.410301 10.312912 6.435377 22.902620 0.488382 1.285972 0.039596 -0.027292 652310.000000 0 1 0
19.387101 9.006012 7.085477 22.520477 0.434876 1.250736 0.042055 -0.021786 -391573.000000 0 1 0
20.360801 8.054212 6.481277 22.835049 0.376685 1.283010 0.066698 -0.020472 -379553.000000 0 1 0
19.859701 7.699212 5.219077 21.929987 0.369841 1.330502 0.041216 -0.022795 715187.000000 0 1 0
20.659101 6.707412 4.648577 22.212543 0.313934 1.359961 0.043606 -0.026653 -291423.000000 0 1 0
20.590301 6.661212 3.089977 21.860471 0.312886 1.428971 0.055260 -0.012204 74753.200000 0 1 0
21.555001 5.748012 2.569477 22.455732 0.260603 1.456121 0.058750 -0.016631 755136.000000 0 1 0
21.435101 5.753812 1.158277 22.224120 0.262247 1.518655 0.065841 -0.001819 -320432.000000 0 1 0
22.544701 4.907312 0.545677 23.079060 0.214327 1.547150 0.105769 -0.007660 -274847.000000 0 1 0
22.414801 3.526212 0.917777 22.709024 0.156037 1.530371 0.099381 -0.013513 206641.000000 0 1 0
23.508101 2.767912 0.459777 23.674956 0.117203 1.551375 0.117622 -0.014954 -248287.000000 0 1 0
23.265301 1.242312 0.295177 23.300315 0.053347 1.558128 0.140906 -0.020966 358348.000000 0 1 0
22.258401 0.842212 -0.670423 22.284416 0.037820 1.600886 0.094682 -0.017911 1158010.000000 0 1 0
22.242301 -0.553188 -0.950223 22.269461 -0.024866 1.613479 0.117976 -0.025977 -1214590.000000 0 1 0
21.952701 -1.662188 0.082177 22.015692 -0.075573 1.567064 0.131664 -0.028228 582336.000000 0 1 0
22.962401 -1.907388 1.100377 23.067744 -0.082875 1.523076 0.136981 -0.030782 1213400.000000 0 1 0
24.253301 -2.259488 0.612777 24.366029 -0.092894 1.545645 0.169480 -0.035795 -845467.000000 0 1 0
25.313601 -2.171488 1.664577 25.461040 -0.085574 1.505372 0.173563 -0.030958 -927362.000000 0 0 1
25.684501 -0.805788 1.911977 25.768169 -0.031362 1.496529 0.159462 -0.029068 601934.000000 0 0 1
26.563001 -0.754688 3.037477 26.746754 -0.028404 1.456986 0.160743 -0.032933 117061.000000 0 0 1
26.271001 0.502012 3.887177 26.561770 0.019107 1.423924 0.138022 -0.025594 121148.000000 0 0 1
26.406801 1.725312 3.198677 26.655719 0.065243 1.450507 0.162114 -0.025225 -104846.000000 0 0 1
27.735301 2.077612 2.919177 27.965782 0.074769 1.466222 0.183883 -0.031899 -171152.000000 0 0 1
27.692601 3.293212 1.948277 27.955700 0.118364 1.501048 0.179389 -0.039097 -26075.900000 0 0 1
27.401201 2.828212 0.645677 27.554337 0.102851 1.547361 0.171399 -0.026769 194492.000000 0 0 1
27.487701 3.863712 -0.335823 27.759948 0.139647 1.582894 0.153556 -0.022498 -995787.000000 0 0 1
28.828101 3.938512 -1.001423 29.113126 0.135780 1.605201 0.173397 -0.026036 -1318650.000000 0 0 1
29.889871 4.266312 -0.166023 30.193267 0.141777 1.576295 0.193731 -0.035873 140676.000000 0 0 1
31.161981 4.046912 -0.783723 31.433434 0.129144 1.595732 0.164098 -0.031323 667496.000000 0 0 1
32.305771 4.463412 0.180877 32.613150 0.137292 1.565250 0.117506 -0.026535 -126630.000000 0 0 1
32.709641 3.646212 1.225177 32.935035 0.111014 1.533588 0.130901 -0.031244 70160.500000 0 0 1
32.055161 3.961512 2.419777 32.389539 0.122961 1.496018 0.115932 -0.019651 -52444.800000 0 0 1
32.349561 2.925712 3.472577 32.666690 0.090195 1.464292 0.135247 -0.023613 106106.000000 0 0 1
31.736621 1.655312 3.152577 31.935746 0.052111 1.471919 0.155774 -0.025835 412688.000000 0 0 1
32.078141 0.669812 4.134277 32.350394 0.020878 1.442649 0.158287 -0.025261 -951292.000000 0 0 1
33.344691 -0.073988 3.864577 33.567973 -0.002219 1.455414 0.156287 -0.022921 -1408790.000000 0 0 1
34.506361 0.667312 4.125977 34.758566 0.019336 1.451812 0.146227 -0.028421 -168497.000000 0 0 1
35.602251 -0.191988 3.824277 35.807572 -0.005393 1.463791 0.123568 -0.024995 -938577.000000 0 0 1
36.941101 0.226212 4.419877 37.205260 0.006123 1.451718 0.147170 -0.041429 -324377.000000 0 0 1
-36.892687 1.258012 3.755177 37.104640 -0.034086 1.469418 0.135822 -0.044736 553239.000000 0 0 1
-36.173797 0.753112 2.579477 36.273468 -0.020816 1.499624 0.184257 -0.050225 -307395.000000 0 0 1
-35.738401 1.885812 1.641377 35.825741 -0.052718 1.524965 0.190056 -0.045492 -78457.500000 0 0 1
-34.760435 2.744212 2.210477 34.938585 -0.078783 1.507487 0.206584 -0.066866 113701.000000 0 0 1
-34.134029 3.462212 1.189677 34.329785 -0.101084 1.536135 0.248142 -0.044406 -550981.000000 0 0 1
-33.070617 4.393512 1.790377 33.409192 -0.132079 1.517181 0.252886 -0.045628 37870.000000 0 0 1
-32.038047 3.614012 2.435477 32.333096 -0.112329 1.495400 0.237508 -0.058040 197626.000000 0 0 1
-31.437797 4.293412 3.484077 31.920327 -0.135729 1.461429 0.246727 -0.044778 -433558.000000 0 0 1
-32.023337 4.147512 4.952777 32.668424 -0.128798 1.418602 0.231601 -0.038605 -627887.000000 0 0 1
-33.295747 4.742512 4.982577 33.998886 -0.141484 1.423715 0.210832 -0.016949 400248.000000 0 0 1
-34.389425 3.811412 5.135077 34.978971 -0.110380 1.423459 0.213151 -0.014883 315240.000000 0 0 1
-34.541135 3.005312 6.466777 35.269549 -0.086788 1.386400 0.163443 -0.015628 -974602.000000 0 0 1
-34.743267 3.796112 7.628177 35.772813 -0.108830 1.355907 0.145155 -0.018754 254935.000000 0 0 1
-34.575848 3.040212 8.836077 35.816315 -0.087703 1.321517 0.123207 -0.018925 -318495.000000 0 0 1
-35.525162 1.870512 9.155177 36.733543 -0.052605 1.318909 0.110155 -0.017139 -646939.000000 0 0 1
-35.294969 0.793712 8.318977 36.270790 -0.022484 1.339379 0.119639 -0.024328 116487.000000 0 0 1
-36.118137 -0.328688 8.563677 37.120943 0.009100 1.338003 0.118411 -0.024685 -97506.700000 0 0 1
-35.789763 -1.145388 9.838477 37.135087 0.031992 1.302657 0.125986 -0.029951 -235039.000000 0 0 1
-34.592381 -1.855188 9.691477 35.972201 0.053579 1.298010 0.125266 -0.029797 -72814.100000 0 0 1
-34.314921 -2.731788 10.829977 36.086907 0.079442 1.265990 0.121691 -0.025485 575845.000000 0 0 1
-32.980677 -3.544288 10.695977 34.852417 0.107055 1.258869 0.141625 -0.020247 457341.000000 0 0 1
-33.188057 -4.495288 9.724177 34.874265 0.134630 1.288215 0.128632 -0.028166 1481600.000000 0 0 1
-32.026377 -5.387788 9.628777 33.873742 0.166669 1.282567 0.119414 -0.034831 1342260.000000 0 0 1
-32.359967 -6.474588 8.614577 34.107165 0.197473 1.315457 0.123483 -0.028827 -65524.600000 0 0 1
-33.372297 -7.356088 8.978077 35.333102 0.216956 1.313881 0.132789 -0.034023 -379108.000000 0 0 1
-33.671807 -8.213888 7.911877 35.550757 0.239267 1.346365 0.129401 -0.035382 496465.000000 0 0 1
-34.715084 -9.326988 8.314677 36.895306 0.262474 1.343485 0.138184 -0.031556 817293.000000 0 0 1
-36.045933 -8.840788 8.356277 38.043346 0.240517 1.349339 0.142447 -0.037962 502657.000000 0 0 1
-36.964307 -9.811288 8.886077 39.263007 0.259444 1.342496 0.145715 -0.039627 415291.000000 0 0 1
8.176183 -24.121788 10.671277 27.614974 -1.243995 1.174038 0.139104 -0.038020 14201.800000 0 0 1
7.606383 -25.023618 9.747577 27.911535 -1.275703 1.214046 0.131009 -0.034877 -915850.000000 0 0 1
6.295183 -25.317828 10.109977 27.979160 -1.327092 1.201092 0.144216 -0.037530 -278977.000000 0 0 1
5.673683 -26.367748 9.149277 28.480838 -1.358853 1.243754 0.119815 -0.031513 81148.700000 0 0 1
5.048383 -25.721178 8.016777 27.410471 -1.376987 1.273986 0.120160 -0.019514 -10817.100000 0 0 1
4.663683 -26.648458 7.027877 27.951410 -1.397543 1.316637 0.103623 -0.015707 -221666.000000 0 0 1
4.008183 -25.891518 5.801477 26.834556 -1.417209 1.352881 0.075459 -0.012855 1333430.000000 0 0 1
2.591683 -25.673928 5.671177 26.420251 -1.470191 1.354460 0.051422 -0.020023 943936.000000 0 0 1
1.849983 -26.887008 5.408177 27.487853 -1.502099 1.372756 0.049704 -0.019927 390101.000000 0 0 1
0.320983 -26.706918 5.178877 27.206310 -1.558778 1.379272 0.067943 -0.023079 19574.600000 0 0 1
-0.340317 -26.132728 6.307177 26.885234 1.557774 1.333993 0.074318 -0.025500 311321.000000 0 0 1
-1.758817 -26.298288 6.327677 27.105957 1.504016 1.335180 0.067323 -0.024126 745599.000000 0 0 1
-2.194017 -27.772388 6.632177 28.637476 1.491960 1.337084 0.089632 -0.029246 -988346.000000 0 0 1
-1.757817 -28.384048 7.816177 29.492995 1.508946 1.302574 0.076661 -0.030345 -147309.000000 0 0 1
-2.257917 -29.667468 8.037577 30.819791 1.494835 1.306953 0.111830 -0.029373 -336670.000000 0 0 1
-1.874117 -30.208038 9.389477 31.689118 1.508835 1.269980 0.098532 -0.028822 739706.000000 0 0 1
-0.497117 -30.587058 9.546777 32.046158 1.554545 1.268297 0.095135 -0.025934 769353.000000 0 0 1
-0.341017 -30.928328 10.949177 32.811008 1.559771 1.230566 0.093722 -0.024466 116307.000000 0 0 1
1.133783 -31.138298 11.358877 33.164788 -1.534401 1.221222 0.095861 -0.027164 -155010.000000 0 0 1
1.665883 -32.369798 10.985777 34.223768 -1.519378 1.244013 0.108154 -0.015460 325953.000000 0 0 1
3.063583 -32.511438 11.234077 34.533805 -1.476843 1.239460 0.086923 -0.013140 713292.000000 0 0 1
3.463783 -33.051708 12.619677 35.548129 -1.466379 1.207880 0.096254 -0.011165 -275850.000000 0 0 1
3.112583 -32.172548 13.644077 35.084496 -1.474350 1.171368 0.108456 -0.017014 11359.300000 0 0 1
3.830283 -32.475848 14.825977 35.904894 -1.453396 1.145135 0.103192 -0.018000 -330779.000000 0 0 1
3.488983 -31.625868 16.097477 35.658061 -1.460920 1.102418 0.110007 -0.025364 -5847.570000 0 0 1
3.937383 -30.272338 16.112377 34.518490 -1.441457 1.085155 0.112118 -0.038520 -167306.000000 0 0 1
5.328383 -30.092728 16.195277 34.586861 -1.395547 1.083488 0.106249 -0.024868 -438490.000000 0 0 1
5.813683 -28.817638 15.431277 33.202101 -1.371728 1.087424 0.111971 -0.038029 -354271.000000 0 0 1
5.824983 -28.748948 14.017877 32.510511 -1.370887 1.124996 0.107041 -0.029275 -499792.000000 0 0 1
4.618383 -28.832258 13.309877 32.090208 -1.411964 1.143112 0.104962 -0.018771 -911373.000000 0 0 1
4.825683 -28.858818 11.741177 31.527351 -1.405112 1.189189 0.091757 -0.026292 192520.000000 0 0 1
5.402483 -30.061238 11.257177 32.551327 -1.392979 1.217675 0.083231 -0.023099 -357017.000000 0 0 1
6.790683 -30.160418 11.426277 32.959430 -1.349337 1.216770 0.088241 -0.017370 -566470.000000 0 0 1
7.360983 -31.509148 10.850577 34.128368 -1.341298 1.247246 0.071983 -0.015560 -50260.300000 0 0 1
7.088483 -32.645568 11.708977 35.398868 -1.356981 1.233674 0.058937 -0.016437 198686.000000 0 0 1
7.032683 -33.858428 10.960177 36.276401 -1.366000 1.263870 0.056932 -0.010998 -53113.400000 0 0 1
7.006883 32.772293 11.790877 35.526671 1.360163 1.232492 0.057026 -0.007800 -951453.000000 0 0 1
5.811683 32.529598 12.423277 35.302807 1.394003 1.211190 0.047880 -0.002797 -947184.000000 0 0 1
5.734083 31.174904 12.833777 34.197371 1.388897 1.186092 0.060346 -0.003171 383613.000000 0 0 1
4.548883 30.948534 13.810377 34.194014 1.424859 1.155039 0.062988 -0.010695 319698.000000 0 0 1
4.781183 31.379924 15.122277 35.160241 1.419595 1.126197 0.069257 -0.015871 -1081200.000000 0 0 1
3.622283 31.475654 15.849577 35.426640 1.456218 1.106950 0.101703 -0.021261 -840587.000000 0 0 1
3.798383 31.642894 17.376277 36.299248 1.451329 1.071628 0.116841 -0.019191 -182204.000000 0 0 1
4.294483 32.886523 17.761177 37.622140 1.440946 1.079132 0.120692 -0.019674 45222.500000 0 0 1
4.603983 32.938630 19.140877 38.373470 1.431921 1.048577 0.105479 -0.015311 -91644.500000 0 0 1
4.793883 -33.608138 19.801177 39.301080 -1.429112 1.042766 0.097015 -0.026721 432680.000000 0 0 1
3.612483 -32.806218 19.865077 38.521673 -1.461122 1.028989 0.099734 -0.029542 181522.000000 0 0 1
3.753683 -31.698828 20.704977 38.047364 -1.452928 0.995374 0.096678 -0.029971 1109590.000000 0 0 1
2.307983 -31.088838 20.949377 37.559540 -1.496694 0.979106 0.106991 -0.031298 1453130.000000 0 0 1
1.472583 -31.842908 21.818377 38.628757 -1.524584 0.970579 0.124922 -0.026881 303099.000000 0 0 1
0.402483 -31.102528 22.408677 38.336381 -1.557857 0.946498 0.120575 -0.031555 -78824.500000 0 0 1
-0.623317 -31.982428 23.111777 39.464142 1.551309 0.945127 0.121679 -0.027924 -111194.000000 0 0 1
-1.485717 -32.604338 22.101777 39.417493 1.525260 0.975553 0.113000 -0.030921 992771.000000 0 0 1
-2.385817 -33.593598 22.664977 40.594620 1.499895 0.978431 0.104129 -0.032450 1147870.000000 0 0 1
-3.782717 -33.090448 23.127477 40.548328 1.456976 0.963842 0.114011 -0.023122 -155971.000000 0 0 1
-4.733717 -32.823718 22.148677 39.879424 1.427568 0.981963 0.083609 -0.028853 -290138.000000 0 0 1
-5.906117 -32.419558 22.880377 40.117598 1.390595 0.963886 0.083504 -0.022847 368416.000000 0 0 1
-7.088817 -32.080248 21.952677 39.513462 1.353320 0.981742 0.066467 -0.019028 86972.400000 0 0 1
-7.787617 -33.191498 21.401677 40.253625 1.340338 1.010224 0.043560 -0.009840 530703.000000 0 0 1
-8.950117 -32.783578 20.682877 39.782521 1.304285 1.024064 0.060892 -0.025431 649824.000000 0 0 1
-10.136417 -33.781818 20.586477 40.838233 1.279289 1.042459 0.084184 -0.031202 413677.000000 0 0 1
-10.817717 33.929404 21.806577 41.758283 -1.262155 1.021356 0.113481 -0.037395 -304065.000000 0 0 1
-12.142617 33.461959 21.720777 41.700575 -1.222695 1.022921 0.108498 -0.030663 258607.000000 0 0 1
-12.817917 33.351694 23.107777 42.551191 -1.203875 0.996721 0.121084 -0.035542 34051.400000 0 0 1
-13.167917 -33.376288 23.770977 43.039865 1.195015 0.985674 0.123039 -0.035533 474873.000000 0 0 1
-12.032617 -32.737918 24.383077 42.556899 1.218579 0.960693 0.110402 -0.034025 648212.000000 0 0 1
-12.355017 -31.408258 25.103777 42.063342 1.196020 0.931278 0.100661 -0.024625 -38370.300000 0 0 1
-13.012117 -31.566418 26.340377 43.122725 1.179805 0.913696 0.113036 -0.019993 237886.000000 0 0 1
-13.695317 -30.367028 26.670077 42.673307 1.147117 0.895687 0.116761 -0.019330 -177961.000000 0 0 1
-14.259517 -30.331328 28.106977 43.741576 1.131333 0.872950 0.118327 -0.019830 -284968.000000 0 0 1
-13.420217 -29.920358 29.171677 43.889826 1.149164 0.843762 0.091117 -0.006983 -82049.500000 0 0 1
-14.145217 -29.661348 30.336577 44.723491 1.125807 0.825331 0.101375 -0.008829 -307209.000000 0 0 1
-13.356017 -29.106608 31.504577 44.923448 1.140594 0.793584 0.082874 -0.013661 92331.700000 0 0 1
-14.310217 -28.798788 32.532577 45.744083 1.109629 0.779612 0.082389 -0.017869 1007800.000000 0 0 1
-13.731717 -28.322948 33.748977 46.149138 1.119361 0.750567 0.080819 -0.016915 -273359.000000 0 0 1
-13.034517 -29.368498 -33.158869 46.172697 1.153088 2.371935 0.092963 -0.017771 205489.000000 0 0 1
-11.695217 -29.548338 -33.585569 46.237137 1.193916 2.383831 0.106407 -0.021669 -46101.200000 0 0 1
-11.209417 -30.792758 -33.163669 46.622676 1.221680 2.362172 0.110176 -0.022571 85704.100000 0 0 1
-9.732417 -31.119638 -33.512769 46.757433 1.267691 2.369908 0.114183 -0.025814 413704.000000 0 0 1
-8.840717 -30.296068 -32.793669 45.513017 1.286869 2.375368 0.130980 -0.037404 335653.000000 0 0 1
-7.513417 -30.811978 -32.715769 45.564800 1.331617 2.371729 0.132184 -0.044959 1012150.000000 0 0 1
-6.509417 -30.053458 -31.773269 44.216778 1.357497 2.372554 0.112012 -0.037962 406516.000000 0 0 1
-6.771417 -30.219068 -30.396169 43.393217 1.350360 2.346869 0.135565 -0.049491 293445.000000 0 0 1
-5.732717 -29.591808 -29.644169 42.276659 1.379440 2.347868 0.114116 -0.044025 504514.000000 0 0 1
-6.058317 -29.652278 -28.116769 41.309969 1.369258 2.319417 0.100406 -0.040426 -39442.500000 0 0 1
-6.107617 -31.039468 -27.665869 42.025610 1.376509 2.289367 0.096306 -0.032569 72248.000000 0 0 1
-6.944317 -31.207388 -26.530769 41.545232 1.351842 2.263473 0.111832 -0.041397 14945.800000 0 0 1
-6.586017 -32.450768 -25.685869 41.906943 1.370562 2.230555 0.106223 -0.038952 517138.000000 0 0 1
-5.554017 -32.308398 -24.708669 41.051164 1.400554 2.216674 0.081360 -0.037107 226724.000000 0 0 1
-5.333917 -33.471528 -23.964569 41.510173 1.412768 2.186236 0.101011 -0.041649 12206.600000 0 0 1
-4.427617 -33.402238 -22.699269 40.627209 1.439010 2.163639 0.100913 -0.050129 11505.100000 0 0 1
-4.849617 -32.719758 -21.522869 39.463087 1.423651 2.147654 0.121597 -0.045230 -15303.400000 0 0 1
-4.829017 -31.364898 -21.828969 38.517271 1.418033 2.173330 0.084317 -0.032683 -282034.000000 0 0 1
-5.504617 -30.533428 -20.692469 37.293020 1.392431 2.158993 0.124678 -0.043236 81907.800000 0 0 1
-6.926017 -30.657518 -20.708769 37.639159 1.348610 2.153391 0.135310 -0.050037 724418.000000 0 0 1
-7.540817 -29.509338 -20.054569 36.467118 1.320610 2.153084 0.143893 -0.056011 198975.000000 0 0 1
-7.779917 -28.353138 -21.047269 36.158195 1.302994 2.192091 0.152922 -0.057818 -913929.000000 0 0 1
-6.587517 -27.757478 -21.471569 35.705759 1.337783 2.215983 0.157225 -0.043239 -297580.000000 0 0 1
-6.721617 -27.132298 -22.756369 36.044335 1.327951 2.254081 0.173407 -0.046949 -88108.800000 0 0 1
-5.633917 -27.664988 -23.757769 36.898837 1.369896 2.270332 0.148266 -0.036847 1516740.000000 0 0 1
-4.306117 -27.113848 -23.718469 36.280424 1.413296 2.283331 0.131790 -0.033363 1315470.000000 0 0 1
-3.516717 -27.355568 -22.532869 35.614949 1.442942 2.255805 0.083325 -0.028693 938200.000000 0 0 1
-1.957317 -27.092318 -22.708069 35.404536 1.498675 2.267103 0.075527 -0.029157 1076450.000000 0 0 1
-1.459017 -25.811598 -22.928169 34.555293 1.514331 2.296312 0.079633 -0.037189 -207004.000000 0 0 1
-1.547817 -24.912088 -21.799069 33.139211 1.508745 2.288694 0.094586 -0.040129 -795988.000000 0 0 1
-1.318317 -23.449188 -22.259969 32.359058 1.514635 2.329395 0.085690 -0.042655 324993.000000 0 0 1
-2.306017 -22.963988 -23.168469 32.702300 1.470713 2.358119 0.123693 -0.047135 -385793.000000 0 0 1
-3.551817 -22.659488 -22.614869 32.210249 1.415314 2.349141 0.131495 -0.049683 -792058.000000 0 0 1
-4.422017 -22.061688 -23.752969 32.718127 1.372979 2.383266 0.126819 -0.056334 -174399.000000 0 0 1
-3.801817 -20.960588 -24.388169 32.381829 1.391368 2.423624 0.127693 -0.042236 150613.000000 0 0 1
-4.463517 -20.551088 -25.571269 33.108307 1.356927 2.453332 0.167120 -0.049938 -33293.500000 0 0 1
-3.972517 -21.309788 -26.830469 34.492927 1.386494 2.462040 0.120057 -0.038161 -586419.000000 0 0 1
-4.910717 -21.221588 -27.835069 35.344901 1.343397 2.477582 0.117589 -0.040746 -254710.000000 0 0 1
-4.541017 -22.075888 -28.934569 36.676627 1.367926 2.479830 0.133239 -0.034082 346146.000000 0 0 1
-5.740817 -22.167688 -29.923369 37.679854 1.317391 2.488400 0.133018 -0.043358 119329.000000 0 0 1
-5.578517 -21.284988 -30.981969 38.000697 1.314474 2.524043 0.135098 -0.044544 -300507.000000 0 0 1
-6.756917 -21.323288 -31.748469 38.836888 1.263926 2.527822 0.118844 -0.045710 -198688.000000 0 0 1
-6.864317 -20.511488 -33.056869 39.504387 1.247855 2.562190 0.091586 -0.028142 -29622.500000 0 0 1
-6.108617 -21.097788 33.744477 40.263155 1.288965 0.577009 0.093636 -0.036938 -244180.000000 0 0 1
-6.092917 -20.256588 32.613077 38.872430 1.278618 0.575396 0.090780 -0.033380 -403143.000000 0 0 1
-4.906417 -20.554888 31.727977 38.121397 1.336483 0.587574 0.102683 -0.046275 -1467110.000000 0 0 1
-4.907417 -21.834288 31.126377 38.336279 1.349713 0.623345 0.105987 -0.038719 -125886.000000 0 0 1
-3.902917 -22.152988 30.197377 37.654605 1.396406 0.640232 0.103471 -0.039771 -933280.000000 0 0 1
-2.439017 -22.081188 30.514977 37.745086 1.460786 0.629284 0.098147 -0.044761 -1334770.000000 0 0 1
-1.820917 -20.805588 30.394777 36.878594 1.483498 0.602035 0.113114 -0.040944 240029.000000 0 0 1
-0.764817 -20.482888 31.295677 37.410601 1.533474 0.579848 0.126572 -0.046999 236994.000000 0 0 1
-1.199917 -20.150688 32.787577 38.503445 1.511319 0.551863 0.108797 -0.043399 475484.000000 0 0 1
-2.191817 -19.091188 32.828277 38.039103 1.456489 0.529591 0.105903 -0.037409 440622.000000 0 0 1
-2.488117 -18.869688 -33.656369 38.665321 1.439695 2.626919 0.108139 -0.039657 763989.000000 0 0 1
-3.614517 -17.768688 -33.435969 38.036233 1.370114 2.644674 0.127295 -0.041545 780485.000000 0 0 1
-3.160217 -16.529088 -33.817569 37.773347 1.381885 2.679847 0.106539 -0.027489 516357.000000 0 0 1
-4.220717 -15.572788 -33.599369 37.272561 1.306123 2.693905 0.106995 -0.029974 644083.000000 0 0 1
-3.827217 -14.133588 -33.886969 36.915208 1.306349 2.733722 0.117610 -0.031462 -417444.000000 0 0 1
-2.989217 -13.625688 -32.883969 35.720445 1.354837 2.740391 0.108377 -0.028469 -245446.000000 0 0 1
-2.786817 -12.203488 -32.914469 35.214397 1.346284 2.778176 0.108677 -0.026320 115933.000000 0 0 1
-1.902517 -11.537588 33.848177 35.811096 1.407370 0.332630 0.101492 -0.031112 -613306.000000 0 0 1
-2.523117 -11.430988 32.609177 34.646675 1.353554 0.344655 0.107580 -0.023975 -163730.000000 0 0 1
-1.637517 -11.106188 31.563877 33.500854 1.424409 0.341715 0.109689 -0.021204 678471.000000 0 0 1
-0.556517 -12.118288 31.057577 33.342701 1.524905 0.372376 0.101531 -0.024757 226405.000000 0 0 1
-1.193617 -13.140488 30.355977 33.099585 1.480210 0.410026 0.104845 -0.030435 -603305.000000 0 0 1
-0.407217 -14.171888 29.950777 33.136948 1.542070 0.442116 0.101979 -0.037640 -509648.000000 0 0 1
-1.038117 -15.528088 30.450077 34.196585 1.504042 0.472481 0.105913 -0.043199 -460144.000000 0 0 1
-2.299417 -15.728288 29.931377 33.890319 1.425628 0.488189 0.103687 -0.043621 -1012480.000000 0 0 1
-2.961417 -16.821688 30.472977 34.933387 1.396534 0.510876 0.102109 -0.043828 -413894.000000 0 0 1
-3.010817 -18.124888 29.596777 34.835985 1.406184 0.555563 0.096919 -0.032248 -339833.000000 0 0 1
-4.001017 -18.027088 28.591477 34.036108 1.352392 0.573451 0.084473 -0.029744 57633.800000 0 0 1
-4.276717 -19.296788 28.027577 34.295793 1.352693 0.614207 0.093158 -0.037548 431103.000000 0 0 1
-5.085517 -19.138588 26.701677 33.243460 1.311077 0.638122 0.078030 -0.039936 383694.000000 0 0 1
-5.764317 -20.319588 26.159077 33.621576 1.294376 0.679250 0.074594 -0.033166 740336.000000 0 0 1
-4.864817 -21.258488 25.512677 33.563171 1.345829 0.707269 0.109630 -0.037943 469113.000000 0 0 1
-30.478027 -33.713240 -0.497023 45.450409 0.835755 1.581732 0.056654 -0.015334 23455.800000 0 0 1
-29.800127 -32.515140 -0.179823 44.105717 0.828940 1.574873 0.062780 -0.016700 53327.700000 0 0 1
-30.035757 -32.248640 1.203977 44.085951 0.820912 1.543483 0.051361 -0.009210 -106312.000000 0 0 1
-29.472467 -30.944740 1.686377 42.767360 0.809762 1.531355 0.065475 -0.012432 550749.000000 0 0 1
-28.050397 -30.915540 1.757977 41.781406 0.833950 1.528708 0.072158 -0.017612 307085.000000 0 0 1
-27.419577 -29.664940 2.058777 40.448491 0.824712 1.519876 0.084777 -0.019150 986756.000000 0 0 1
-25.861427 -29.730240 2.118377 39.461223 0.854880 1.517088 0.077586 -0.018524 675719.000000 0 0 1
-25.317487 -30.640040 3.086377 39.866188 0.880231 1.493300 0.064077 -0.009772 510144.000000 0 0 1
-23.914217 -30.389940 3.193477 38.802533 0.904087 1.488402 0.066059 -0.009392 411421.000000 0 0 1
-23.313617 -30.994440 4.475077 39.041086 0.925897 1.455919 0.061269 -0.017004 -89448.000000 0 0 1
-23.722417 -30.226040 5.607677 38.830563 0.905372 1.425876 0.045860 -0.011891 -355212.000000 0 0 1
-22.961117 -30.667540 6.643477 38.882473 0.928121 1.399093 0.035332 -0.010720 -593955.000000 0 0 1
-23.436617 -30.209040 8.014577 39.065260 0.910977 1.364170 0.028519 -0.003388 -377908.000000 0 0 1
-23.076617 -28.880840 8.427977 37.916540 0.896648 1.346647 0.031875 -0.007426 266754.000000 0 0 1
-23.582617 -28.674640 9.785877 38.394507 0.882533 1.313076 0.013172 -0.007367 -141406.000000 0 0 1
-23.047117 -27.491840 10.570577 37.399304 0.873119 1.284250 0.015485 -0.004785 -73627.400000 0 0 1
-21.748317 -27.817940 11.028177 36.992537 0.907246 1.268075 0.014659 -0.008343 -193628.000000 0 0 1
-21.244117 -26.724440 11.806177 36.123317 0.899153 1.237849 0.032742 -0.011136 790655.000000 0 0 1
-19.826917 -26.970240 12.426177 35.705887 0.936873 1.215344 0.037118 -0.010230 600988.000000 0 0 1
-19.850017 -27.962840 13.419677 36.824331 0.953476 1.197782 0.042463 -0.011149 -240675.000000 0 0 1
-18.581517 -28.036340 14.023577 36.441321 0.985499 1.175777 0.057282 -0.013525 -3671.350000 0 0 1
-18.523917 -29.055040 15.158177 37.644405 1.003226 1.156367 0.083029 -0.023984 -41852.200000 0 0 1
-18.711117 -30.366240 14.708577 38.581818 1.018564 1.179669 0.068449 -0.022198 -105853.000000 0 0 1
-18.437217 -31.348540 15.715677 39.618739 1.039146 1.162907 0.089300 -0.027527 90456.100000 0 0 1
-18.171817 -32.670440 15.044177 40.297641 1.063193 1.188204 0.074343 -0.034135 60431.400000 0 0 1
-18.158117 -33.689040 16.108277 41.522828 1.076444 1.172403 0.090757 -0.034859 144389.000000 0 0 1
-17.831317 32.965912 15.531977 40.570303 -1.074965 1.177927 0.067475 -0.026033 -73873.700000 0 0 1
-17.597817 31.766412 16.459177 39.870949 -1.064906 1.145258 0.076240 -0.025694 13492.000000 0 0 1
-18.814717 31.368512 17.060977 40.361542 -1.030527 1.134370 0.088455 -0.031312 422420.000000 0 0 1
-18.626217 30.371512 18.064677 39.946179 -1.020670 1.101537 0.053270 -0.021399 -13804.100000 0 0 1
-19.570117 30.790712 19.204077 41.229285 -1.004621 1.086272 0.068993 -0.037122 -19003.100000 0 0 1
-19.116717 31.845612 19.944277 42.158819 -1.030161 1.078019 0.078906 -0.036919 308036.000000 0 0 1
-20.086517 32.050012 20.965877 43.246265 -1.010958 1.064660 0.080001 -0.040665 111964.000000 0 0 1
-19.721217 33.204612 21.857377 44.375867 -1.034852 1.055778 0.064586 -0.022031 21639.100000 0 0 1
-18.708617 32.765012 22.749977 44.058141 -1.051978 1.028198 0.060706 -0.033505 62357.000000 0 0 1
-18.633417 33.486412 23.963077 45.197047 -1.063017 1.011970 0.053764 -0.029859 36459.800000 0 0 1
-19.474317 32.701712 25.030177 45.553932 -1.033682 0.989076 0.053493 -0.029747 874424.000000 0 0 1
-20.876517 32.786912 24.748177 46.079093 -1.003804 1.003824 0.057469 -0.026894 437606.000000 0 0 1
-21.642617 31.923912 25.578177 46.279392 -0.975027 0.985207 0.035834 -0.029775 130778.000000 0 0 1
-23.141417 32.016112 25.213977 46.864712 -0.944928 1.002714 0.054884 -0.043073 -206256.000000 0 0 1
-23.454017 31.584512 23.897677 46.030113 -0.932061 1.024911 0.051655 -0.028720 821058.000000 0 0 1
-24.709617 32.128512 23.451277 46.827010 -0.915191 1.046266 0.045144 -0.033329 599608.000000 0 0 1
-24.824617 31.746612 21.960077 45.895032 -0.907152 1.071868 0.035726 -0.038173 123845.000000 0 0 1
-23.905017 32.432912 21.119577 45.490440 -0.935628 1.087993 0.043755 -0.038955 275397.000000 0 0 1
-23.941117 31.947112 19.807577 44.566076 -0.927680 1.110232 0.019873 -0.018557 -226229.000000 0 0 1
-23.460917 32.998512 18.848077 44.660569 -0.952747 1.135114 0.024924 -0.014407 470413.000000 0 0 1
-22.145917 33.498612 19.131477 44.481592 -0.986658 1.126194 0.046924 -0.024066 393430.000000 0 0 1
-21.626517 -33.640040 18.085977 43.891470 0.999443 1.146081 0.065606 -0.015257 526016.000000 0 0 1
-20.318717 -32.911640 18.556377 42.899481 1.017701 1.123472 0.075902 -0.031161 393372.000000 0 0 1
-20.621617 -31.896240 19.464877 42.679066 0.996870 1.097216 0.086949 -0.034450 -80721.900000 0 0 1
-19.499017 -31.263540 20.020677 41.933854 1.013134 1.073063 0.094396 -0.042600 -383130.000000 0 0 1
-19.816217 -30.233640 21.122377 41.867771 0.990609 1.041991 0.096084 -0.031033 -2335.590000 0 0 1
-20.360717 -29.037340 20.545977 40.986133 0.959272 1.045706 0.099561 -0.029611 235048.000000 0 0 1
-20.974017 -28.275640 21.518977 41.261212 0.932583 1.022153 0.106806 -0.025620 108548.000000 0 0 1
-21.888117 -27.119840 20.984877 40.680960 0.891748 1.028808 0.090043 -0.027528 190763.000000 0 0 1
-21.084517 -26.005740 20.543977 39.279898 0.889526 1.020412 0.077160 -0.014989 942436.000000 0 0 1
-21.810417 -24.844640 20.097877 38.689470 0.850342 1.024570 0.065383 0.007582 -362725.000000 0 0 1
-22.814217 -25.017740 18.935577 38.793452 0.831434 1.060870 0.050763 0.000276 463801.000000 0 0 1
-24.108817 -25.424740 19.410677 40.055297 0.811958 1.064894 0.056415 0.003311 271378.000000 0 0 1
-24.981317 -25.467640 18.329477 40.107813 0.795038 1.096171 0.040394 0.006166 -1146820.000000 0 0 1
-26.465437 -25.521940 18.635277 41.219684 0.767252 1.101682 0.026032 0.005249 -452051.000000 0 0 1
-27.074937 -26.757740 19.038677 42.561721 0.779506 1.107031 0.022371 -0.003269 20719.400000 0 0 1
-27.054837 -27.849240 18.163677 42.865645 0.799866 1.133231 0.025039 -0.004056 -1093120.000000 0 0 1
-27.800767 -29.067240 18.681277 44.348362 0.807665 1.135985 0.033592 -0.012037 3609.740000 0 0 1
-29.199777 -29.062440 18.885877 45.320291 0.783041 1.140962 0.027708 -0.016681 -118415.000000 0 0 1
-29.792747 -29.301440 17.644577 45.359820 0.777084 1.171260 0.028709 -0.017921 -1263690.000000 0 0 1
-31.294377 -29.030940 17.549177 46.153084 0.747895 1.180742 0.038398 -0.019122 -438085.000000 0 0 1
-31.653697 -27.686040 17.624077 45.596946 0.718634 1.173942 0.054325 -0.022484 -269477.000000 0 0 1
-33.039207 -27.556840 17.838077 46.574302 0.695170 1.177752 0.079970 -0.009611 -322439.000000 0 0 1
-33.571407 -26.211940 17.177877 45.925860 0.662912 1.187440 0.079847 -0.019975 -90434.300000 0 0 1
-33.382317 -26.173140 15.780077 45.259509 0.664934 1.214658 0.099412 -0.043872 509026.000000 0 0 1
-34.117043 -25.074140 15.220177 44.992654 0.633796 1.225706 0.124299 -0.039895 421151.000000 0 0 1
-33.177447 -23.964340 14.615377 43.458507 0.625542 1.227804 0.117873 -0.035645 94236.800000 0 0 1
-32.536777 -23.290340 15.624077 42.955717 0.621262 1.198532 0.088196 -0.026182 -192887.000000 0 0 1
-32.089917 -22.000940 15.354577 41.827828 0.600998 1.194918 0.089481 -0.022310 -136102.000000 0 0 1
-33.149977 -20.944640 15.724077 42.247432 0.563485 1.189429 0.099492 -0.026922 -33095.500000 0 0 1
-33.520087 -20.822040 17.073277 42.995934 0.555848 1.162452 0.090211 -0.023157 162582.000000 0 0 1
-34.578734 -19.891840 17.080377 43.394855 0.522031 1.166248 0.098536 -0.032806 -249088.000000 0 0 1
-35.078231 -19.264740 18.352977 44.027767 0.502224 1.140819 0.090334 -0.012973 -372983.000000 0 0 1
-35.914179 -20.105440 19.091277 45.371068 0.510351 1.136490 0.098962 -0.018585 11406.300000 0 0 1
-35.994852 -19.663440 20.449277 45.830701 0.499986 1.108291 0.081619 -0.010459 485177.000000 0 0 1
37.113261 -19.639640 21.139777 47.010635 -0.486719 1.104388 0.102315 -0.024331 640227.000000 0 0 1
36.403231 -20.814140 21.360977 47.060758 -0.519401 1.099657 0.113090 -0.023639 295189.000000 0 0 1
37.039991 -21.762740 22.281177 48.394510 -0.531213 1.092343 0.089335 -0.016482 -82529.500000 0 0 1
36.167581 -22.997340 22.597077 48.452032 -0.566367 1.085602 0.094958 -0.012032 220772.000000 0 0 1
35.009641 -22.701140 23.370877 47.824833 -0.575267 1.060224 0.102582 -0.018569 350918.000000 0 0 1
34.712981 -23.797940 24.230477 48.563865 -0.600971 1.048421 0.084622 -0.020584 -90623.000000 0 0 1
33.620951 -23.599840 25.307077 48.246958 -0.612026 1.018631 0.083906 -0.021981 453544.000000 0 0 1
32.267571 -23.685340 24.886277 47.132985 -0.633201 1.014551 0.094217 -0.019529 393676.000000 0 0 1
31.447041 -23.854740 26.014677 47.272914 -0.648963 0.988063 0.061820 -0.015239 -741865.000000 0 0 1
30.047811 -24.377240 25.809077 46.510528 -0.681582 0.982544 0.065801 -0.017235 -747751.000000 0 0 1
29.057601 -23.468340 25.436177 45.189670 -0.679388 0.972935 0.070847 -0.016138 673413.000000 0 0 1
27.787001 -24.081340 25.130677 44.537392 -0.714076 0.971259 0.075285 -0.013677 1065180.000000 0 0 1
26.808701 -23.123940 24.381377 42.986912 -0.711737 0.967717 0.083236 -0.019120 -126680.000000 0 0 1
27.194401 -22.652040 23.124577 42.277611 -0.694522 0.992056 0.066333 -0.010479 276710.000000 0 0 1
28.163601 -21.597340 23.106877 42.350458 -0.654200 0.993678 0.079465 -0.006509 412579.000000 0 0 1
28.153201 -20.997840 21.694777 41.281659 -0.640835 1.017458 0.079198 -0.013307 -395205.000000 0 0 1
27.185001 -20.028040 21.508177 40.034340 -0.634955 1.003631 0.068507 -0.017478 -588351.000000 0 0 1
27.254901 -19.438740 20.230477 39.114785 -0.619543 1.027211 0.049532 -0.011499 -390979.000000 0 0 1
26.049901 -18.524140 19.983077 37.697009 -0.618138 1.012081 0.032107 -0.006254 -300728.000000 0 0 1
26.132101 -17.261540 20.668277 37.523661 -0.583756 0.987466 0.038417 -0.022893 59628.700000 0 0 1
26.132901 -17.402540 22.057277 38.370567 -0.587489 0.958377 0.043387 -0.016999 -504530.000000 0 0 1
26.322401 -16.154040 22.933577 38.467789 -0.550432 0.932067 0.049411 -0.013303 -679737.000000 0 0 1
25.298401 -15.231840 22.848177 37.337076 -0.541953 0.912281 0.024477 -0.011049 -600810.000000 0 0 1
25.483701 -14.172640 23.733877 37.597602 -0.507549 0.887619 0.025957 -0.005211 292463.000000 0 0 1
24.260501 -13.225540 23.660877 36.377519 -0.499110 0.862651 0.030701 -0.009379 385771.000000 0 0 1
23.058401 -13.723240 24.207577 36.138953 -0.536847 0.836793 0.036755 -0.008336 -492501.000000 0 0 1
22.015701 -12.820940 24.031577 35.022625 -0.527344 0.814581 0.044952 -0.015766 -1554090.000000 0 0 1
20.705101 -13.411540 24.389177 34.690093 -0.574785 0.791107 0.051415 -0.010062 -1484240.000000 0 0 1
20.039001 -14.137240 23.407177 33.901608 -0.614399 0.808693 0.064126 -0.021337 -303297.000000 0 0 1
18.777301 -14.590640 23.815077 33.654594 -0.660581 0.784655 0.060598 -0.022899 -246259.000000 0 0 1
18.303101 -15.821940 22.970377 33.361288 -0.712818 0.811331 0.077669 -0.017253 28616.100000 0 0 1
19.035901 -17.030240 23.195477 34.502533 -0.729845 0.833507 0.070216 -0.010626 299900.000000 0 0 1
18.473201 -18.109340 22.438177 34.244403 -0.775452 0.856301 0.088829 -0.011994 166947.000000 0 0 1
18.913801 -19.487340 22.936477 35.546734 -0.800333 0.869448 0.072478 -0.007056 -381678.000000 0 0 1
18.246701 -19.975040 24.069677 36.211789 -0.830586 0.843715 0.076265 -0.003906 110530.000000 0 0 1
18.488101 -21.372940 24.328277 37.289107 -0.857645 0.860019 0.086688 -0.003056 -393670.000000 0 0 1
17.901101 -22.410040 23.353777 36.987271 -0.896789 0.887439 0.077432 -0.008631 -219711.000000 0 0 1
18.610101 -22.710840 22.151977 36.780813 -0.884315 0.924455 0.075905 -0.003135 343625.000000 0 0 1
19.766001 -23.508040 22.448177 38.042652 -0.871657 0.939639 0.087621 -0.009061 -205552.000000 0 0 1
20.628701 -23.723340 21.207177 37.922085 -0.855060 0.977339 0.084745 -0.006260 -214784.000000 0 0 1
20.030801 -24.553240 20.198077 37.577346 -0.886489 1.003319 0.072106 -0.015825 379401.000000 0 0 1
21.030701 -24.853640 19.258577 37.827062 -0.868523 1.036632 0.071852 -0.012285 93369.300000 0 0 1
20.478001 -25.573240 18.015477 37.388455 -0.895593 1.068036 0.057497 -0.013706 -115698.000000 0 0 1
19.816401 -26.745040 18.409577 38.038131 -0.933121 1.065603 0.063977 -0.018869 22530.500000 0 0 1
19.009001 -27.194140 17.328677 37.431890 -0.960734 1.089488 0.064972 -0.022423 -338582.000000 0 0 1
18.208701 -28.413340 17.766777 38.138341 -1.000880 1.086200 0.064538 -0.021489 -115106.000000 0 0 1
17.260501 -28.012240 18.756977 37.873931 -1.018567 1.052676 0.068188 -0.028398 -60193.600000 0 0 1
16.549301 -29.139540 19.233677 38.638407 -1.054289 1.049752 0.067356 -0.023953 525942.000000 0 0 1
15.219901 -28.812440 20.025977 38.247116 -1.084812 1.019732 0.062143 -0.018438 723339.000000 0 0 1
14.253501 -28.290140 19.127877 37.005000 -1.104087 1.027571 0.070317 -0.024969 70489.800000 0 0 1
12.966601 -28.281740 19.737277 36.844941 -1.140913 1.005478 0.062065 -0.023041 287519.000000 0 0 1
11.905001 -27.704640 18.781777 35.525080 -1.164942 1.013739 0.072692 -0.033352 -526525.000000 0 0 1
11.680201 -28.567540 17.691077 35.573946 -1.182673 1.050307 0.074640 -0.034682 -42092.500000 0 0 1
10.935501 -27.982540 16.669077 34.357908 -1.198248 1.064250 0.086072 -0.038954 -384151.000000 0 0 1
10.609901 -28.847440 15.490177 34.419332 -1.218359 1.103983 0.082770 -0.034901 -58214.600000 0 0 1
9.508901 -29.728940 15.660677 34.921138 -1.261226 1.105757 0.081482 -0.031181 224589.000000 0 0 1
9.561401 -30.659440 14.601877 35.279406 -1.268496 1.144071 0.067595 -0.025449 417765.000000 0 0 1
8.364101 -31.662340 14.480977 35.807271 -1.312530 1.154458 0.057497 -0.023122 234836.000000 0 0 1
8.429301 -32.717040 15.419777 37.137950 -1.318638 1.142631 0.061773 -0.022554 -348113.000000 0 0 1
7.397601 -33.607840 15.144377 37.597388 -1.354136 1.156218 0.075805 -0.018298 -408002.000000 0 0 1
7.438801 33.136912 16.113477 37.590355 1.349970 1.127787 0.070282 -0.022620 702018.000000 0 0 1
8.640901 32.362112 15.925077 37.088806 1.309877 1.126994 0.067644 -0.028433 456676.000000 0 0 1
8.815801 31.382212 16.968077 36.748839 1.296937 1.090851 0.075210 -0.027012 -118276.000000 0 0 1
10.209901 30.740312 16.962277 36.564022 1.250126 1.088397 0.064979 -0.036766 -268282.000000 0 0 1
10.491501 29.902512 15.835577 35.425941 1.233358 1.107382 0.079475 -0.034649 -306034.000000 0 0 1
11.761301 29.317912 15.996077 35.408228 1.189287 1.102057 0.072326 -0.036470 -66260.300000 0 0 1
12.411601 28.650212 14.743677 34.529096 1.161991 1.129632 0.066802 -0.028159 80365.500000 0 0 1
11.712901 27.476512 14.314677 33.121907 1.167835 1.123886 0.078811 -0.035772 273855.000000 0 0 1
12.372501 26.856112 13.199377 32.381369 1.139083 1.150947 0.082152 -0.024406 201944.000000 0 0 1
-9.372317 -9.053588 19.475224 23.432715 0.768102 0.589691 0.077250 -0.028914 171454.000000 0 1 0
-9.456617 -9.379288 18.072424 22.450193 0.781293 0.635119 0.072959 -0.026308 62472.200000 0 1 0
-9.482517 -10.756988 17.785424 22.846274 0.848285 0.678552 0.084821 -0.029187 75891.000000 0 1 0
-9.787917 -10.962688 16.263324 21.919844 0.841952 0.734829 0.080287 -0.028186 5202.860000 0 1 0
-11.132217 -10.611888 15.976824 22.176504 0.761473 0.766361 0.091991 -0.040955 448917.000000 0 1 0
-11.681617 -11.041888 14.713924 21.791811 0.757253 0.829555 0.089090 -0.032988 285598.000000 0 1 0
-11.805517 -12.560288 14.535224 22.547811 0.816365 0.870244 0.079245 -0.028059 -857675.000000 0 1 0
-10.558217 -13.045388 14.115924 21.929829 0.890383 0.871491 0.078896 -0.027130 -78266.400000 0 1 0
-10.392917 -14.496388 14.179624 22.786393 0.948797 0.899138 0.087001 -0.028699 171656.000000 0 1 0
-10.115317 -15.063188 15.587024 23.920171 0.979437 0.861069 0.104661 -0.029719 -61297.900000 0 1 0
-11.284017 -15.054388 16.357724 24.930679 0.927583 0.855120 0.109631 -0.026864 13869.500000 0 1 0
-10.854417 -15.081188 17.727524 25.681232 0.946950 0.808905 0.126975 -0.026759 711951.000000 0 0 1
-12.072017 -14.837188 18.717324 26.762174 0.887798 0.796246 0.101537 -0.032942 648354.000000 0 0 1
-12.614417 -13.537788 18.750824 26.343664 0.820691 0.778771 0.117377 -0.037151 -65000.900000 0 0 1
-13.517817 -13.256588 17.711624 25.926244 0.775642 0.818723 0.112662 -0.042843 -997210.000000 0 0 1
-14.979517 -13.307888 18.142724 27.030432 0.726372 0.834975 0.081141 -0.036865 -769210.000000 0 0 1
-15.525517 -14.581688 18.439024 28.172059 0.754060 0.857256 0.089630 -0.026479 440603.000000 0 0 1
-16.559617 -14.538488 19.431324 29.379668 0.720497 0.848130 0.098173 -0.032548 297799.000000 0 0 1
-16.915017 -15.911388 20.011824 30.655557 0.754834 0.859527 0.077794 -0.017404 130639.000000 0 0 1
-17.834217 -16.567788 19.135024 30.962881 0.748602 0.904602 0.069950 -0.005023 151771.000000 0 0 1
-17.891817 -17.977788 19.392524 31.927855 0.787795 0.918031 0.043050 -0.013854 -18229.900000 0 0 1
-19.117817 -18.660888 18.713224 32.617548 0.773304 0.959760 0.046390 0.001374 -21972.200000 0 0 1
-19.183317 -18.656588 17.325824 31.878709 0.771479 0.996205 0.044599 0.000253 -17319.400000 0 0 1
-19.489217 -17.417588 16.716224 31.026345 0.729326 1.001814 0.042496 0.000250 -681349.000000 0 0 1
-19.340317 -17.346488 15.207624 30.103494 0.731104 1.041208 0.045127 -0.005924 -438145.000000 0 0 1
-20.084417 -18.266588 14.455924 30.757532 0.738034 1.081510 0.050855 -0.011056 -66953.300000 0 0 1
-19.545617 -18.390088 13.165724 29.892520 0.754947 1.114713 0.064824 -0.018298 3466.200000 0 0 1
-19.918717 -19.632888 12.301024 30.553572 0.778172 1.156435 0.083400 -0.018048 131396.000000 0 0 1
-19.268717 -20.817888 12.811524 31.125601 0.824025 1.146579 0.063572 -0.009624 312818.000000 0 0 1
-19.047117 -21.815688 11.875124 31.300726 0.853048 1.181661 0.057943 -0.007923 -42325.100000 0 0 1
-18.301817 -23.130688 12.322524 31.966073 0.901423 1.175060 0.043863 -0.005561 88882.100000 0 0 1
-18.442717 -24.229688 11.420024 32.521201 0.920190 1.211991 0.054810 -0.020284 -305756.000000 0 0 1
-17.582617 -24.306488 10.323224 31.725742 0.944557 1.239373 0.053743 -0.018424 -496985.000000 0 0 1
-17.820917 -25.585858 9.409524 32.569316 0.962414 1.277711 0.059948 -0.018747 83115.400000 0 0 1
-19.048917 -25.354868 8.745724 32.897086 0.926469 1.301710 0.055889 -0.020966 -123213.000000 0 0 1
-19.538817 -26.538158 8.071624 33.929196 0.936151 1.330597 0.063298 -0.019198 162112.000000 0 0 1
-20.869317 -26.150838 7.397924 34.265493 0.897254 1.353183 0.064239 -0.018102 -42094.400000 0 0 1
-20.692117 -25.105968 6.403024 33.158288 0.881478 1.376471 0.085930 -0.023777 66896.600000 0 0 1
-21.843717 -24.962888 5.591124 33.638585 0.851939 1.403810 0.093953 -0.025611 17693.800000 0 0 1
-21.762617 -23.801788 4.579824 32.574705 0.830122 1.429734 0.093992 -0.029480 -445389.000000 0 0 1
-22.675617 -23.857388 3.548024 33.105091 0.810789 1.463416 0.103649 -0.031159 -426249.000000 0 0 1
-22.579717 -22.619088 2.906424 32.092274 0.786269 1.480107 0.103199 -0.023948 256166.000000 0 0 1
-23.223417 -22.559888 1.487324 32.411229 0.770906 1.524891 0.089372 -0.020117 -32826.300000 0 0 1
-22.599017 -23.445488 0.619224 32.569770 0.803780 1.551783 0.105680 -0.024987 46818.900000 0 0 1
-22.533617 -22.971788 -0.680676 32.185871 0.795027 1.591946 0.085403 -0.023757 -305221.000000 0 0 1
-21.747117 -23.820188 -1.689376 32.298490 0.830862 1.623125 0.093602 -0.027541 -975272.000000 0 0 1
-20.372017 -23.821788 -1.481476 31.379794 0.863300 1.618025 0.097120 -0.026436 -507736.000000 0 0 1
-19.603617 -24.145088 -2.627976 31.212070 0.888836 1.655094 0.085700 -0.023049 68363.700000 0 0 1
-19.324017 -25.646308 -2.815476 32.234728 0.925071 1.658251 0.091562 -0.021536 147740.000000 0 0 1
-20.475517 -26.406688 -3.217176 33.569483 0.911242 1.666780 0.125551 -0.022843 576308.000000 0 0 1
-20.101117 -27.801938 -3.282476 34.464146 0.944793 1.666184 0.117428 -0.014728 -251979.000000 0 0 1
-21.146817 -28.713688 -3.888376 35.871761 0.936010 1.679406 0.126699 -0.022165 -385113.000000 0 0 1
-21.320817 -28.387488 -5.271476 35.891715 0.926615 1.718201 0.105890 -0.012488 -58186.900000 0 0 1
-22.458217 -28.991578 -5.853376 37.136843 0.911707 1.729073 0.112233 -0.030514 -6938.880000 0 0 1
-22.977917 -28.274418 -7.153176 37.129440 0.888374 1.764664 0.098221 -0.003736 205950.000000 0 0 1
-21.933617 -28.170608 -8.120976 36.614437 0.909241 1.794453 0.105083 -0.007086 284710.000000 0 0 1
-22.315217 -28.172348 -9.463576 37.164626 0.900893 1.828271 0.096457 -0.005798 214507.000000 0 0 1
-23.383417 -27.095918 -9.953676 37.149006 0.858811 1.842050 0.089978 -0.001753 366306.000000 0 0 1
-22.990717 -25.733018 -10.148376 35.968748 0.841622 1.856825 0.086234 -0.008266 55950.500000 0 0 1
-22.537717 -25.030608 -8.977776 34.858005 0.837757 1.831285 0.069517 -0.009098 229296.000000 0 0 1
-21.988617 -23.646588 -9.377176 33.624275 0.821713 1.853425 0.057846 -0.015393 549956.000000 0 0 1
-23.103317 -22.832788 -9.760076 33.916936 0.779509 1.862688 0.080803 -0.019375 796723.000000 0 0 1
-22.675717 -21.537988 -10.198476 32.895015 0.759671 1.886022 0.092483 -0.011847 -114898.000000 0 0 1
-23.858717 -20.615888 -10.437176 33.214272 0.712613 1.890450 0.108265 -0.012856 -811368.000000 0 0 1
-24.625317 -20.889688 -11.605576 34.314351 0.703507 1.915814 0.095224 -0.001510 999077.000000 0 0 1
-25.892577 -20.204888 -11.560576 34.818242 0.662635 1.909247 0.107637 -0.002324 522684.000000 0 0 1
-25.919627 -18.669688 -11.590876 33.981359 0.624215 1.918878 0.124067 -0.018155 -1199910.000000 0 0 1
-25.315457 -18.134588 -12.760876 33.653761 0.621611 1.959708 0.136341 -0.013674 449139.000000 0 0 1
-25.153857 -16.698888 -12.777476 32.784650 0.586064 1.971145 0.143190 -0.018927 575212.000000 0 0 1
-24.136917 -16.062288 -11.719176 31.271824 0.587171 1.954926 0.112463 -0.006794 132608.000000 0 0 1
-24.637217 -16.154888 -10.402976 31.244116 0.580379 1.910235 0.148112 -0.012295 321133.000000 0 0 1
-23.624017 -16.325888 -9.426176 30.223858 0.604709 1.887966 0.117012 -0.015551 -27981.100000 0 0 1
-24.160717 -16.911088 -8.129876 30.591176 0.610687 1.839787 0.111524 -0.028886 -48448.100000 0 0 1
-24.543417 -18.250088 -8.217476 31.669732 0.639382 1.833274 0.114902 -0.025698 498229.000000 0 0 1
-25.318897 -18.653588 -7.058476 32.230808 0.634964 1.791584 0.121098 -0.026105 393867.000000 0 0 1
-25.728247 -20.141688 -7.034876 33.423342 0.664204 1.782860 0.134011 -0.031181 -252982.000000 0 0 1
-26.660777 -20.375488 -8.054176 34.508366 0.652559 1.806367 0.115855 -0.033986 -293326.000000 0 0 1
-27.260057 -21.622888 -7.876076 35.674817 0.670586 1.793404 0.110879 -0.019238 -231860.000000 0 0 1
-26.722717 -22.825088 -8.711376 36.207407 0.706896 1.813777 0.089383 -0.009936 86851.300000 0 0 1
-27.252387 -24.095088 -8.278676 37.306867 0.723987 1.794567 0.097480 -0.005239 -184610.000000 0 0 1
-26.677417 -25.206438 -8.934676 37.774033 0.757054 1.809589 0.076773 0.008820 -4919.120000 0 0 1
-27.216127 -26.601238 -8.510876 38.997160 0.773973 1.790811 0.088867 0.002473 44410.900000 0 0 1
-26.755377 -26.930888 -7.228476 38.644195 0.788667 1.758957 0.103474 -0.007172 289099.000000 0 0 1
-27.330687 -28.165748 -6.849576 39.839585 0.800444 1.743584 0.101026 -0.004249 -28231.200000 0 0 1
-27.008917 -28.632358 -5.447276 39.736210 0.814567 1.708315 0.117390 -0.010561 5735.620000 0 0 1
-27.798417 -27.930958 -4.518276 39.664912 0.787776 1.684955 0.095321 -0.010313 202156.000000 0 0 1
-27.260757 -28.043898 -3.187676 39.239908 0.799558 1.652122 0.096972 -0.015822 60391.900000 0 0 1
-27.532807 -29.298548 -2.305876 40.271298 0.816458 1.628086 0.088482 -0.003721 -519170.000000 0 0 1
-26.980437 -30.474678 -2.820576 40.799579 0.846140 1.639984 0.118035 -0.024355 -239856.000000 0 0 1
-27.062477 -31.608368 -1.951976 41.656654 0.862725 1.617672 0.107347 -0.030121 -162602.000000 0 0 1
-25.923867 -31.624888 -0.903776 40.902289 0.884140 1.592894 0.121532 -0.036575 -722318.000000 0 0 1
-24.707517 -31.697868 -1.602976 40.221708 0.908700 1.610660 0.122993 -0.047697 -1055500.000000 0 0 1
-23.668317 -31.788698 -0.670076 39.637855 0.930792 1.587702 0.106965 -0.035228 -704964.000000 0 0 1
-22.727017 -30.606398 -0.680576 38.127839 0.932075 1.588647 0.131307 -0.033836 -712096.000000 0 0 1
-23.167117 -29.360288 -0.172276 37.400154 0.902760 1.575403 0.115225 -0.035175 -156141.000000 0 0 1
-23.606917 -28.472048 -1.195876 37.005056 0.878546 1.603119 0.134693 -0.043167 -282122.000000 0 0 1
-24.292117 -27.238828 -0.633976 36.502913 0.842519 1.588165 0.083828 -0.022256 -5745.780000 0 0 1
-25.602887 -27.469288 -0.135176 37.551137 0.820551 1.574396 0.098069 -0.020886 458394.000000 0 0 1
-26.345637 -26.220728 0.034424 37.170154 0.783022 1.569870 0.098472 -0.028716 470857.000000 0 0 1
-26.027367 -25.285928 1.232224 36.308682 0.770950 1.536852 0.091600 -0.020493 -360152.000000 0 0 1
-26.200207 -25.842988 2.544224 36.888805 0.778534 1.501771 0.070993 -0.019274 18564.000000 0 0 1
-25.653937 -25.041328 3.612824 36.031168 0.773315 1.470358 0.078551 -0.022103 270017.000000 0 0 1
-26.410387 -23.679488 3.906224 35.685926 0.730932 1.461115 0.096043 -0.018599 209131.000000 0 0 1
-26.511147 -22.700688 2.857024 35.018920 0.708123 1.489120 0.090431 -0.020968 -243354.000000 0 0 1
-27.344417 -21.640688 3.226624 35.020674 0.669482 1.478531 0.077763 -0.024640 -136491.000000 0 0 1
-27.132187 -20.446388 2.250324 34.048118 0.645791 1.504656 0.090869 -0.016404 153538.000000 0 0 1
-25.811217 -19.955288 2.317024 32.707813 0.658137 1.499897 0.067125 -0.015652 -77846.000000 0 0 1
-25.622387 -18.867788 1.462224 31.853387 0.634727 1.524875 0.061897 -0.015660 -281200.000000 0 0 1
-24.259517 -18.192788 1.510724 30.360896 0.643452 1.521017 0.087684 -0.017464 280584.000000 0 0 1
-23.107817 -19.023188 1.237324 29.956366 0.688750 1.529480 0.091838 -0.025306 785571.000000 0 0 1
-21.918317 -18.306688 1.561624 28.600457 0.695853 1.516168 0.100035 -0.024213 86673.800000 0 0 1
-20.697317 -19.234488 1.466724 28.293033 0.748781 1.518933 0.097099 -0.031691 -386886.000000 0 0 1
-20.246017 -19.525488 0.134524 28.127637 0.767283 1.566014 0.068438 -0.023148 -545792.000000 0 0 1
-19.189317 -20.389688 0.078524 27.999561 0.815717 1.567992 0.081361 -0.017485 -724096.000000 0 0 1
-18.827117 -20.829288 -1.342976 28.109130 0.835843 1.618592 0.076825 -0.020656 -86123.900000 0 0 1
-18.320017 -19.791288 -2.102176 27.050642 0.823984 1.648587 0.080472 -0.024687 -236574.000000 0 0 1
-18.078417 -20.251088 -3.399476 27.358585 0.842022 1.695375 0.076979 -0.019505 211848.000000 0 0 1
-17.511917 -19.203288 -4.435976 26.364965 0.831433 1.739853 0.084425 -0.013916 685911.000000 0 0 1
-16.136317 -18.890488 -4.239876 25.203330 0.863867 1.739827 0.110615 -0.028365 695226.000000 0 0 1
-15.479417 -18.474288 -5.461976 24.713253 0.873375 1.793650 0.105703 -0.010304 1221500.000000 0 1 0
-13.954617 -18.064288 -5.470876 23.472970 0.913052 1.806031 0.118314 -0.025550 457514.000000 0 1 0
-13.094517 -19.149588 -5.449376 23.829998 0.971025 1.801515 0.095932 -0.031441 -507683.000000 0 1 0
-11.947217 -18.782888 -6.184076 23.103586 1.004277 1.841768 0.097392 -0.040960 -277413.000000 0 1 0
-10.764817 -19.757888 -6.128876 23.319918 1.071926 1.836737 0.096544 -0.047939 -113842.000000 0 1 0
-11.048817 -20.980688 -6.736576 24.650499 1.086081 1.847601 0.091151 -0.037952 -446958.000000 0 1 0
-9.944817 -21.837488 -6.915076 24.971855 1.143460 1.851378 0.087088 -0.032747 -315876.000000 0 1 0
-10.152617 -23.133588 -7.685676 26.406593 1.157237 1.866122 0.086810 -0.021785 -323762.000000 0 0 1
-10.541317 -22.817388 -9.025376 26.705992 1.138020 1.915538 0.080135 -0.016952 -1096.130000 0 0 1
-10.551017 -23.934888 -9.929276 27.978445 1.155601 1.933593 0.089723 -0.018894 -140576.000000 0 0 1
-11.348717 -23.699788 -11.238876 28.579463 1.124209 1.974960 0.121998 -0.026487 52208.300000 0 0 1
-10.835517 -22.712988 -12.102676 27.924238 1.125666 2.019071 0.102268 -0.021898 -640007.000000 0 0 1
-11.782017 -22.397788 -13.046376 28.472527 1.086538 2.046776 0.104237 -0.031812 -637776.000000 0 0 1
-11.423617 -21.218288 -14.014176 27.876727 1.076914 2.097538 0.089628 -0.018713 -212133.000000 0 0 1
-11.146417 -20.030788 -13.363076 26.533882 1.063004 2.098584 0.095672 -0.014674 -93148.100000 0 0 1
-10.805817 -18.965588 -14.201676 26.041253 1.052910 2.147607 0.083263 -0.002488 -163001.000000 0 0 1
-10.636617 -17.712588 -13.314876 24.579653 1.030001 2.143258 0.102197 -0.004331 14889.200000 0 1 0
-11.848117 -17.233788 -12.726076 24.481306 0.968513 2.117446 0.116654 -0.011256 -40629.000000 0 1 0
-11.668817 -16.249188 -11.689076 23.169633 0.948015 2.099599 0.105803 -0.018178 19829.900000 0 1 0
-11.063117 -14.873088 -12.066676 22.118002 0.931253 2.147852 0.098674 -0.013009 -12392.000000 0 1 0
-11.960917 -14.029188 -12.740076 22.409623 0.864810 2.175489 0.082795 -0.004094 -129058.000000 0 1 0
-12.077817 -14.164488 -14.166276 23.392088 0.864747 2.221317 0.104451 -0.014467 437119.000000 0 1 0
-13.299117 -13.362188 -14.781576 23.956410 0.787764 2.235746 0.098401 -0.014770 333457.000000 0 1 0
-13.175917 -12.000788 -14.512776 22.983568 0.738757 2.254207 0.065763 0.001776 -370397.000000 0 1 0
-14.248917 -11.196988 -14.911576 23.468261 0.666030 2.259314 0.055825 -0.015307 -350215.000000 0 1 0
-14.323217 -9.845488 -14.155176 22.415557 0.602206 2.254268 0.064584 -0.029063 -280793.000000 0 1 0
-13.264417 -8.954588 -14.416776 21.540029 0.593807 2.304065 0.055570 -0.023364 24982.000000 0 1 0
-13.348017 -8.256588 -15.688476 22.191645 0.553957 2.355979 0.061503 -0.024255 -190481.000000 0 1 0
-12.272917 -7.151488 -15.695376 21.168682 0.527605 2.406015 0.045100 -0.011628 148484.000000 0 1 0
-10.964817 -7.641088 -15.896276 20.767885 0.608624 2.442499 0.039585 -0.009764 -410215.000000 0 1 0
-10.023717 -6.682688 -15.546776 19.668134 0.588017 2.482348 0.025480 -0.002300 -146482.000000 0 1 0
11.650383 21.957612 15.744424 29.423715 1.082981 1.006179 0.100436 -0.023017 529429.000000 0 0 1
12.730383 22.138212 16.695124 30.510494 1.048931 0.991790 0.115043 -0.027285 527069.000000 0 0 1
13.135983 20.903112 17.146524 30.058233 1.009740 0.963751 0.105548 -0.024927 -53587.000000 0 0 1
14.257883 20.891212 18.198924 31.159762 0.971924 0.947085 0.106920 -0.037148 620582.000000 0 0 1
15.599983 21.033112 17.717624 31.617486 0.932637 0.975959 0.095608 -0.028595 362911.000000 0 0 1
16.491883 20.748212 18.790324 32.489179 0.899199 0.954084 0.103355 -0.036314 11.019300 0 0 1
17.930383 21.109112 18.372224 33.236002 0.866642 0.985099 0.087688 -0.020808 -1148410.000000 0 0 1
18.122683 22.509012 18.234424 34.169891 0.892935 1.007897 0.095856 -0.025152 -186083.000000 0 0 1
19.334583 22.860012 17.622924 34.741527 0.868756 1.038796 0.088484 -0.025681 126232.000000 0 0 1
20.660383 22.606312 18.376324 35.715347 0.830343 1.030346 0.081827 -0.028115 -456599.000000 0 0 1
21.168883 21.260412 18.224624 35.103613 0.787555 1.024921 0.083768 -0.021094 307489.000000 0 0 1
22.482583 21.126912 18.750524 36.102563 0.754322 1.024685 0.082537 -0.022406 416456.000000 0 0 1
23.077083 19.662512 18.557924 35.546627 0.705675 1.021517 0.067489 -0.014705 94791.200000 0 0 1
23.288483 19.281112 17.206224 34.787481 0.691538 1.053411 0.064584 -0.016268 96380.100000 0 0 1
22.692983 18.063312 16.741824 33.489452 0.672289 1.047298 0.051174 -0.004423 -456622.000000 0 0 1
23.443083 16.804612 17.123324 33.543723 0.621930 1.035056 0.049098 -0.009568 -1120970.000000 0 0 1
24.671483 16.843812 16.512524 34.132968 0.599037 1.065839 0.067229 -0.028761 -1094440.000000 0 0 1
25.433583 15.701912 16.779424 34.277781 0.553093 1.059265 0.039824 -0.011929 -617297.000000 0 0 1
26.802583 15.654912 16.050224 34.943732 0.528633 1.093571 0.136343 -0.043185 -330136.000000 0 0 1
27.793183 16.606012 16.413024 36.298870 0.538568 1.101607 0.108537 -0.042963 278157.000000 0 0 1
28.428283 16.281212 17.641224 37.208304 0.520113 1.076831 0.117837 -0.055695 -804945.000000 0 0 1
29.661783 15.396612 17.406324 37.680992 0.478789 1.090616 0.126240 -0.066285 -1011240.000000 0 0 1
30.675583 15.910112 16.570424 38.323648 0.478462 1.123664 0.181402 -0.051200 17936.800000 0 0 1
31.185883 15.000012 15.649224 37.979703 0.448322 1.146103 0.186072 -0.052820 -125825.000000 0 0 1
30.296683 14.730012 14.410624 36.640528 0.452540 1.166581 0.149681 -0.046593 -581515.000000 0 0 1
30.532983 15.528912 13.287324 36.741844 0.470500 1.200770 0.148430 -0.021924 -220454.000000 0 0 1
29.626183 15.361412 12.238724 35.545324 0.478344 1.219289 0.131820 -0.021497 562407.000000 0 0 1
28.201283 15.994012 12.417224 34.717549 0.515905 1.205031 0.121701 -0.035605 47047.600000 0 0 1
28.106283 17.339212 11.986524 35.132437 0.552765 1.222623 0.099232 -0.017838 171288.000000 0 0 1
28.815483 18.330312 12.731724 36.447622 0.566561 1.213956 0.104880 -0.030032 16380.200000 0 0 1
28.183983 18.657312 14.106924 36.625640 0.584753 1.175409 0.103944 -0.032939 140709.000000 0 0 1
27.022183 19.469812 14.094224 36.165164 0.624360 1.170471 0.106483 -0.028881 1207730.000000 0 0 1
26.171383 19.291812 15.304724 35.935357 0.635216 1.130844 0.086083 -0.031451 698083.000000 0 0 1
26.719483 20.004112 16.582324 37.270212 0.642650 1.109710 0.094565 -0.041416 -197811.000000 0 0 1
26.803083 21.455312 16.617224 38.142729 0.675033 1.120026 0.068625 -0.036491 -186347.000000 0 0 1
25.610083 22.125012 16.906324 37.831419 0.712519 1.107515 0.070785 -0.036671 -495820.000000 0 0 1
25.724683 23.622212 16.532124 38.640385 0.742818 1.128688 0.071038 -0.029151 -18693.800000 0 0 1
25.605283 23.763012 15.127224 38.067626 0.748099 1.162139 0.108511 -0.041844 120666.000000 0 0 1
25.607683 25.156512 14.797624 38.827480 0.776511 1.179797 0.116686 -0.044332 -290372.000000 0 0 1
25.239183 25.422712 13.327724 38.222491 0.789021 1.214625 0.116668 -0.038803 -98311.200000 0 0 1
23.846583 25.568312 13.154424 37.355548 0.820226 1.210939 0.117635 -0.037511 -54595.800000 0 0 1
23.500983 25.731712 11.746624 36.774996 0.830677 1.245680 0.106119 -0.042625 67125.400000 0 0 1
22.973283 24.507212 10.982424 35.341036 0.817693 1.254808 0.119446 -0.042748 124069.000000 0 0 1
21.644683 24.139312 11.378024 34.360706 0.839831 1.233290 0.123933 -0.042334 655781.000000 0 0 1
21.223683 22.773712 10.922224 32.990630 0.820614 1.233359 0.125108 -0.042749 157254.000000 0 0 1
21.101083 22.646612 9.369624 32.340603 0.820712 1.276865 0.138533 -0.041301 -221869.000000 0 0 1
19.887783 23.045912 8.767624 31.678213 0.858824 1.290364 0.136523 -0.041500 106232.000000 0 0 1
20.124583 23.078112 7.390524 31.499491 0.853656 1.333965 0.130566 -0.040640 427873.000000 0 0 1
18.853183 23.424012 6.560524 30.776083 0.893096 1.355978 0.111292 -0.032369 -457360.000000 0 0 1
17.929283 22.394412 6.418724 29.396749 0.895681 1.350675 0.127751 -0.025939 -89007.400000 0 0 1
17.171083 22.451912 5.246824 28.748280 0.917894 1.387258 0.135442 -0.029706 361163.000000 0 0 1
15.883183 23.344212 5.202524 28.710520 0.973353 1.388584 0.110133 -0.025764 118985.000000 0 0 1
16.151783 24.676412 5.378024 29.978801 0.991234 1.390426 0.120324 -0.029729 526333.000000 0 0 1
14.933583 25.263012 5.836124 29.921430 1.036929 1.374490 0.109637 -0.033280 441564.000000 0 0 1
14.702583 26.747012 5.450924 31.004534 1.068191 1.394067 0.100035 -0.030579 -261765.000000 0 0 1
14.173783 26.910812 4.160424 30.698486 1.086022 1.434853 0.084568 -0.017312 236650.000000 0 0 1
14.197383 28.266912 3.781124 31.857195 1.105341 1.451826 0.079341 -0.022335 -111786.000000 0 0 1
13.888883 28.489912 2.291424 31.777772 1.117197 1.498626 0.079683 -0.023050 -143839.000000 0 0 1
14.932383 28.102912 1.435024 31.856067 1.082387 1.525734 0.092721 -0.029623 -152679.000000 0 0 1
14.844883 26.727612 1.111924 30.593662 1.063806 1.534443 0.084639 -0.021246 270135.000000 0 0 1
15.909283 26.371012 0.052924 30.798350 1.027964 1.569078 0.095286 -0.028518 419728.000000 0 0 1
15.498283 26.918812 -1.194676 31.084505 1.048405 1.609239 0.096845 -0.020541 681047.000000 0 0 1
16.589783 26.800012 -2.136276 31.591537 1.016508 1.638470 0.086973 -0.019882 799121.000000 0 0 1
16.263583 27.381112 -3.583176 32.047910 1.034822 1.682837 0.092651 -0.027174 -662773.000000 0 0 1
15.286883 26.704412 -4.307076 31.070328 1.050882 1.709868 0.108201 -0.032943 -683751.000000 0 0 1
15.242983 27.137812 -5.655576 31.635343 1.059024 1.750537 0.106898 -0.017155 -391752.000000 0 0 1
13.959383 26.793312 -6.384976 30.879020 1.090488 1.779073 0.119288 -0.035038 -394349.000000 0 0 1
13.718583 25.435712 -6.764076 29.680426 1.076172 1.800714 0.108029 -0.035096 -453243.000000 0 0 1
12.561583 25.384712 -7.554576 29.312942 1.111279 1.831460 0.074358 -0.030610 -9668.780000 0 0 1
12.027383 24.019312 -8.026776 28.035949 1.106558 1.861162 0.089512 -0.027798 156565.000000 0 0 1
12.753083 23.473212 -9.130276 28.231095 1.073109 1.900129 0.083707 -0.026769 -65763.000000 0 0 1
12.120383 22.356612 -9.687976 27.213575 1.074009 1.934778 0.092968 -0.017446 -489971.000000 0 0 1
12.467083 21.890212 -11.084376 27.522226 1.053084 1.985308 0.088204 -0.015546 -233020.000000 0 0 1
12.140883 20.548912 -11.379976 26.441684 1.037148 2.015710 0.099261 -0.017200 -201997.000000 0 0 1
12.478983 20.108212 -12.707776 26.861734 1.015374 2.063581 0.099280 -0.017395 606251.000000 0 0 1
13.916683 19.512912 -12.780676 27.161986 0.951264 2.060694 0.105297 -0.014221 554528.000000 0 0 1
14.983383 20.453612 -12.717476 28.365229 0.938554 2.035712 0.097199 -0.018398 -508148.000000 0 0 1
16.137683 19.749412 -13.099676 28.671686 0.885702 2.045287 0.095185 -0.013312 -10731.400000 0 0 1
17.370783 20.682212 -13.309676 30.110554 0.872201 2.028653 0.083232 -0.007688 48412.500000 0 0 1
17.351683 21.712312 -14.269976 31.243201 0.896566 2.045122 0.066826 -0.013563 117815.000000 0 0 1
16.347983 22.748712 -14.152276 31.385464 0.947674 2.038590 0.068661 -0.013456 439293.000000 0 0 1
16.800983 24.154012 -14.602376 32.846898 0.963045 2.031478 0.064027 -0.014040 -104676.000000 0 0 1
17.001183 24.205712 -15.984476 33.622317 0.958487 2.066229 0.048308 -0.010387 -172690.000000 0 0 1
15.837083 24.400812 -16.773676 33.579295 0.995097 2.093846 0.038198 -0.006441 106773.000000 0 0 1
16.182983 24.472712 -18.275176 34.565657 0.986542 2.127875 0.042501 -0.003458 109311.000000 0 0 1
16.473883 23.172512 -18.763176 34.064805 0.952777 2.154129 0.044276 0.005660 -189518.000000 0 0 1
16.712683 23.227512 -20.138376 34.991217 0.947089 2.184044 0.045315 0.009076 -310572.000000 0 0 1
17.169183 21.931012 -20.751576 34.732953 0.906587 2.211127 0.059318 0.010414 418546.000000 0 0 1
16.156383 20.895812 -20.721276 33.571341 0.912620 2.236015 0.072686 0.012387 520300.000000 0 0 1
16.537683 19.780112 -21.484076 33.560592 0.874441 2.265500 0.056452 0.015181 -30826.700000 0 0 1
15.546883 18.588712 -21.534376 32.418747 0.874274 2.297296 0.063901 0.007566 -318288.000000 0 0 1
15.137783 17.967312 -20.287876 31.041500 0.870662 2.283092 0.072652 -0.001226 643955.000000 0 0 1
14.329783 16.774912 -20.327976 29.999450 0.863846 2.315306 0.082300 -0.013256 -74620.100000 0 0 1
12.922683 16.891712 -20.918076 29.831051 0.917745 2.347901 0.096857 -0.021662 -939334.000000 0 0 1
12.008183 17.305712 -19.911876 28.985633 0.964186 2.328089 0.088983 -0.016852 -468570.000000 0 0 1
10.729383 17.430812 -20.482976 28.956954 1.019028 2.356552 0.090669 -0.020887 -828496.000000 0 0 1
9.678183 17.272412 -19.397376 27.717533 1.060060 2.345946 0.107794 -0.031801 -585336.000000 0 0 1
9.587383 15.886512 -18.958376 26.527706 1.027813 2.366939 0.123015 -0.047134 -343884.000000 0 0 1
8.239683 15.496812 -19.011976 25.874675 1.082110 2.396126 0.124028 -0.028225 -113624.000000 0 0 1
7.578683 15.386712 -17.612276 24.584133 1.113129 2.369437 0.122488 -0.030086 -109080.000000 0 1 0
7.329983 16.631412 -17.165576 24.999790 1.155677 2.327638 0.122627 -0.031422 -697584.000000 0 1 0
6.598583 16.680212 -15.995176 24.033652 1.194094 2.299003 0.091854 -0.034012 -549246.000000 0 1 0
6.190483 18.090812 -15.655976 24.712530 1.241097 2.256895 0.082922 -0.022298 -291018.000000 0 1 0
7.229583 18.998812 -15.359276 25.478012 1.207188 2.217858 0.079913 -0.022801 -399088.000000 0 0 1
7.767483 19.702812 -16.465876 26.826473 1.195272 2.231651 0.098423 -0.024829 88422.900000 0 0 1
9.053883 20.504312 -16.125176 27.611970 1.154983 2.194434 0.091071 -0.015441 136616.000000 0 0 1
8.975683 21.638312 -15.277076 27.967275 1.177592 2.148675 0.079556 -0.022007 -196692.000000 0 0 1
8.636083 21.446512 -13.900576 26.977042 1.187982 2.112124 0.071736 -0.021760 -36098.100000 0 0 1
8.351883 22.782312 -13.162876 27.605235 1.219415 2.067836 0.063509 -0.021903 -49446.100000 0 0 1
7.236083 23.527712 -13.695576 28.168829 1.272422 2.078528 0.057508 -0.017556 508297.000000 0 0 1
6.731183 24.492312 -12.788476 28.438131 1.302590 2.037220 0.035569 -0.019859 245941.000000 0 0 1
6.137683 23.989012 -11.437676 27.275709 1.320316 2.003510 0.021568 -0.010709 -664588.000000 0 0 1
7.139583 23.726312 -10.482376 26.903378 1.278501 1.971027 0.021158 -0.011603 -165915.000000 0 0 1
6.590183 22.997712 -9.423776 25.712503 1.291717 1.946047 0.026257 -0.016328 -73964.100000 0 0 1
7.468983 22.906312 -8.170276 25.440877 1.255600 1.897737 0.018436 -0.017731 -133006.000000 0 0 1
7.592483 24.182412 -7.580776 26.455680 1.266575 1.861416 0.015753 -0.011431 -319993.000000 0 0 1
8.273183 24.037812 -6.390876 26.212693 1.239321 1.817087 0.028730 -0.013612 -260822.000000 0 0 1
8.379883 25.379812 -5.526276 27.292801 1.251887 1.774687 0.016785 -0.008027 -4059.690000 0 0 1
9.024883 26.374912 -6.295076 28.578182 1.241108 1.792893 0.053918 -0.019377 62207.000000 0 0 1
9.306583 27.517312 -5.500176 29.564622 1.244665 1.757926 0.041655 -0.014423 66383.400000 0 0 1
9.730883 28.683112 -6.342676 30.945767 1.243726 1.777220 0.045176 -0.014360 754677.000000 0 0 1
11.003183 28.531512 -7.000176 31.370682 1.202721 1.795835 0.061551 -0.022093 603471.000000 0 0 1
11.258283 29.640712 -7.895976 32.675177 1.207802 1.814863 0.059328 -0.016386 -362810.000000 0 0 1
12.650183 29.762412 -8.486476 33.434242 1.168893 1.827430 0.076089 -0.021065 354271.000000 0 0 1
13.799683 29.830912 -7.622376 33.740409 1.137516 1.798676 0.076854 -0.017607 267772.000000 0 0 1
14.911183 30.283912 -8.352576 34.773901 1.113264 1.813365 0.069705 -0.016304 112849.000000 0 0 1
16.057783 30.850612 -7.462476 35.571072 1.090883 1.782157 0.078474 -0.014560 270679.000000 0 0 1
16.832483 29.838512 -6.834376 34.933909 1.057178 1.767704 0.090410 -0.028064 496549.000000 0 0 1
17.995283 30.462612 -6.233876 35.925787 1.037218 1.745200 0.082469 -0.021057 479063.000000 0 0 1
19.123183 29.510512 -5.918376 35.659411 0.995819 1.737537 0.082366 -0.024724 -641093.000000 0 0 1
18.813283 28.664912 -4.806476 34.622522 0.989993 1.710071 0.091046 -0.027657 63885.900000 0 0 1
19.894983 27.817612 -4.464176 34.489980 0.949946 1.700594 0.075425 -0.025325 45556.300000 0 0 1
20.191383 26.588012 -5.410276 33.821375 0.921296 1.731453 0.070201 -0.006791 -163196.000000 0 0 1
20.522483 26.960112 -6.678876 34.534437 0.920155 1.765420 0.061212 -0.007275 76354.800000 0 0 1
20.361783 25.895412 -7.623776 33.812668 0.904460 1.798223 0.057355 -0.007224 -622569.000000 0 0 1
20.989783 26.253112 -8.990076 34.793941 0.896351 1.832142 0.048816 -0.011075 2286320.000000 0 0 1
22.448383 26.366312 -9.210576 35.832206 0.865488 1.830762 0.042494 -0.007076 2288950.000000 0 0 1
23.131483 25.132812 -9.072776 35.341746 0.826840 1.830419 0.043784 -0.006822 177395.000000 0 0 1
24.687583 25.249912 -9.074976 36.460801 0.796658 1.822337 0.008242 -0.001857 466511.000000 0 0 1
25.289683 25.397312 -10.297676 37.291201 0.787522 1.850574 0.022132 -0.001730 452242.000000 0 0 1
26.699983 25.638812 -10.228476 38.403899 0.765126 1.840390 0.016301 0.010184 582989.000000 0 0 1
27.462483 25.664912 -11.534676 39.318246 0.751576 1.868543 0.034787 0.004125 -242779.000000 0 0 1
27.382783 26.881712 -12.225576 40.272918 0.776165 1.879232 0.023810 0.000390 107336.000000 0 0 1
28.092283 26.680912 -13.453776 41.012821 0.759636 1.905023 0.049692 0.000386 227367.000000 0 0 1
28.029283 27.645212 -14.657276 42.008740 0.778500 1.927204 0.056758 -0.012564 -85485.100000 0 0 1
28.505383 28.929812 -14.334176 43.069241 0.792788 1.910086 0.047215 -0.013409 191422.000000 0 0 1
28.232983 29.860612 -15.367676 43.873944 0.813408 1.928654 0.053797 -0.016525 -166259.000000 0 0 1
28.608083 31.300212 -14.915376 44.951019 0.830305 1.909022 0.051482 -0.017709 48332.000000 0 0 1
29.984883 31.423112 -14.607376 45.824454 0.808815 1.895226 0.046521 -0.014793 267623.000000 0 0 1
30.400283 32.746412 -14.943976 47.115041 0.822535 1.893551 0.042651 -0.013786 -288705.000000 0 0 1
15.840283 -32.106940 -27.794273 45.324296 -1.112475 2.230941 0.095506 -0.044111 469186.000000 0 0 1
16.935883 -32.832240 -27.199793 45.876016 -1.094564 2.205449 0.080111 -0.036916 581108.000000 0 0 1
17.370083 -32.191340 -26.054793 44.909402 -1.075982 2.189726 0.082233 -0.041622 -789136.000000 0 0 1
18.705483 -32.751940 -25.525393 45.542621 -1.051878 2.165753 0.037257 -0.037974 657041.000000 0 0 1
19.879183 -32.188040 -26.168983 46.000734 -1.017539 2.175942 0.082342 -0.050841 1029360.000000 0 0 1
20.209983 -32.546340 -27.483893 47.149465 -1.015107 2.193102 0.080991 -0.040290 -1445280.000000 0 0 1
21.641383 -32.302540 -27.911053 47.862620 -0.980518 2.193396 0.089645 -0.044605 -794665.000000 0 0 1
21.988683 -30.949340 -28.099433 47.232848 -0.953076 2.207954 0.083721 -0.054628 387433.000000 0 0 1
23.367183 -30.748140 -27.860353 47.620086 -0.920955 2.195744 0.052599 -0.042671 125371.000000 0 0 1
24.072783 -29.495740 -28.507633 47.562409 -0.886288 2.213514 0.034288 -0.029314 75677.600000 0 0 1
24.270983 -29.604940 -29.900033 48.575149 -0.884081 2.233870 0.037533 -0.027592 -296866.000000 0 0 1
25.211383 -28.675640 -30.314503 48.753208 -0.849597 2.241829 0.033229 -0.026463 -314883.000000 0 0 1
25.576783 -28.835740 -31.806433 49.973202 -0.845220 2.260709 0.037111 -0.015664 352615.000000 0 0 1
26.697283 -29.703940 -32.033683 51.197908 -0.838656 2.246804 0.046892 -0.017329 230688.000000 0 0 1
26.762983 -30.127340 -33.396153 52.337529 -0.844467 2.262814 0.036697 -0.017036 -320945.000000 0 0 1
28.037883 -30.917240 -33.744903 53.672312 -0.834199 2.250704 0.020968 -0.018844 81230.500000 0 0 1
29.175883 -30.095640 -33.771813 53.828571 -0.800915 2.249001 0.025307 -0.020863 253951.000000 0 0 1
30.310383 -30.685140 33.414519 54.560308 -0.791542 0.911662 0.026321 -0.012222 818438.000000 0 0 1
31.593583 -29.840940 33.286676 54.741565 -0.756877 0.917170 0.037130 -0.026030 -102085.000000 0 0 1
31.643983 -28.949140 32.187771 53.623194 -0.740953 0.926972 0.050002 -0.021320 -316589.000000 0 0 1
32.766883 -28.141640 32.363642 53.972455 -0.709606 0.927754 0.051107 -0.028627 -313296.000000 0 0 1
33.088283 -27.402940 31.052494 53.009556 -0.691687 0.944941 0.054847 -0.027968 -1200980.000000 0 0 1
34.287583 -26.709540 31.080074 53.432283 -0.661795 0.950013 0.048774 -0.029676 -334359.000000 0 0 1
34.538583 -25.942340 29.916894 52.544641 -0.644212 0.965067 0.054761 -0.023333 -329309.000000 0 0 1
35.176583 -26.712540 28.724034 52.687967 -0.649480 0.994201 0.055382 -0.018786 -529392.000000 0 0 1
34.367783 -27.685340 28.070994 52.302995 -0.678123 1.004276 0.040722 -0.021465 -96544.700000 0 0 1
33.355183 -27.132440 27.310774 50.937372 -0.682883 1.004910 0.043673 -0.020077 -727204.000000 0 0 1
32.541583 -28.075240 26.433744 50.457076 -0.711849 1.019390 0.041469 -0.017191 394890.000000 0 0 1
31.455383 -27.521740 25.664264 49.046322 -0.718799 1.020118 0.044771 -0.011049 693447.000000 0 0 1
30.910383 -28.492540 24.810164 48.814146 -0.744718 1.037636 0.049625 -0.009148 -83085.900000 0 0 1
29.494083 -28.221640 24.270644 47.491326 -0.763355 1.034385 0.053320 -0.005751 -50697.200000 0 0 1
28.451283 -28.261740 25.237614 47.382894 -0.782056 1.009090 0.055751 -0.010269 641973.000000 0 0 1
27.264083 -27.934540 24.485274 46.078166 -0.797544 1.010561 0.062683 -0.006309 373005.000000 0 0 1
25.945783 -27.859540 25.251334 45.683339 -0.820951 0.985139 0.076488 -0.016477 -671785.000000 0 0 1
25.929483 -26.840840 26.213624 45.606171 -0.802667 0.958458 0.067093 -0.011609 464824.000000 0 0 1
24.730583 -26.856640 26.992764 45.403636 -0.826588 0.934144 0.069115 -0.012642 223997.000000 0 0 1
24.694783 -25.805240 28.120634 45.458913 -0.807384 0.903844 0.065627 -0.011232 -149551.000000 0 0 1
23.467983 -25.791540 28.828584 45.244193 -0.832533 0.879966 0.066157 -0.010588 222392.000000 0 0 1
23.432583 -24.737040 29.783774 45.255721 -0.812472 0.852475 0.061491 -0.011840 -252012.000000 0 0 1
23.009583 -23.332640 29.387994 44.017124 -0.792369 0.839750 0.067140 -0.008824 -517595.000000 0 0 1
23.861483 -22.710340 28.462044 43.534100 -0.760686 0.858217 0.084465 -0.012675 53965.300000 0 0 1
23.405183 -21.412540 28.191864 42.439141 -0.740966 0.844254 0.090158 -0.007340 47680.000000 0 0 1
23.974883 -20.230740 29.058124 42.760407 -0.700901 0.823638 0.081969 -0.004665 -44593.500000 0 0 1
23.444483 -20.056240 30.349214 43.277839 -0.707666 0.793627 0.074519 -0.005584 -157436.000000 0 0 1
24.180783 -19.125240 31.088744 43.783502 -0.669184 0.781218 0.077065 -0.010175 -331484.000000 0 0 1
23.694383 -18.829040 32.532916 44.433626 -0.671478 0.749296 0.076501 -0.013093 -264453.000000 0 0 1
23.895283 -19.917440 33.354863 45.609603 -0.694854 0.750552 0.065498 -0.014623 195010.000000 0 0 1
23.345683 -19.596940 -33.225253 45.088562 -0.698322 2.399253 0.079635 -0.023424 -41773.900000 0 0 1
23.437183 -20.754440 -32.207183 44.914930 -0.724766 2.370387 0.051151 -0.013829 894359.000000 0 0 1
24.732183 -20.808340 -31.570593 45.181525 -0.699449 2.344445 0.042537 -0.006664 618192.000000 0 0 1
24.675183 -21.577040 -30.373963 44.687928 -0.718514 2.318137 0.048539 -0.015379 880860.000000 0 0 1
26.011583 -21.951740 -29.590373 45.100682 -0.700955 2.286430 0.055095 -0.003880 482281.000000 0 0 1
26.871983 -22.744240 -30.321193 46.462659 -0.702396 2.281798 0.045747 0.002092 -553229.000000 0 0 1
27.884383 -23.282940 -29.478613 46.782718 -0.695710 2.252501 0.060237 -0.000420 599705.000000 0 0 1
28.908383 -24.156340 -30.277523 48.331685 -0.696085 2.247790 0.044119 -0.005375 299442.000000 0 0 1
29.811283 -23.546240 -31.221153 49.172130 -0.668517 2.258722 0.048626 -0.006339 358371.000000 0 0 1
29.394183 -23.404040 -32.599453 49.744260 -0.672428 2.285430 0.049314 -0.002916 10713.700000 0 0 1
29.500783 -24.685840 -33.471623 50.990553 -0.696772 2.286870 0.043323 -0.003607 -589427.000000 0 0 1
28.467883 -25.539140 -33.185663 50.635524 -0.731222 2.285486 0.050309 -0.011332 -673478.000000 0 0 1
28.651783 -26.779140 -33.811973 51.781237 -0.751628 2.282305 0.044190 -0.015029 20369.900000 0 0 1
28.575383 -26.986240 32.467490 50.979874 -0.756805 0.880366 0.045864 -0.015118 -54201.800000 0 0 1
29.592083 -26.407240 31.672714 50.756226 -0.728586 0.896924 0.032231 -0.019033 -180672.000000 0 0 1
29.333083 -26.515240 30.306484 49.819381 -0.734986 0.916845 0.038994 -0.010266 -534106.000000 0 0 1
30.262583 -25.727640 29.347064 49.386087 -0.704579 0.934479 0.049681 -0.016085 -252612.000000 0 0 1
30.386583 -24.300140 29.564814 48.866343 -0.674558 0.921013 0.044748 -0.016585 386411.000000 0 0 1
31.014383 -23.899440 30.788724 49.809845 -0.656550 0.904441 0.050377 -0.014063 -1311240.000000 0 0 1
31.381183 -22.400340 30.940834 49.435707 -0.619937 0.894537 0.048120 -0.009361 890854.000000 0 0 1
32.588383 -21.855340 30.344014 49.602598 -0.590754 0.912535 0.059465 -0.018933 856711.000000 0 0 1
33.723683 -22.434540 30.958794 50.980803 -0.587018 0.918184 0.045732 -0.012668 -704462.000000 0 0 1
35.048183 -21.706640 30.548144 51.310257 -0.554517 0.933081 0.034039 -0.008649 335358.000000 0 0 1
35.474783 -22.169740 29.241234 51.039273 -0.558559 0.960737 0.047874 -0.019484 -260017.000000 0 0 1
36.697383 -21.573940 28.919454 51.463265 -0.531466 0.974063 0.046425 -0.018393 -253169.000000 0 0 1
37.188983 -21.916640 27.466034 51.163880 -0.532538 1.004127 0.062373 -0.020829 72857.600000 0 0 1
-36.750234 -23.225240 27.348824 51.360974 0.563600 1.009266 0.048326 -0.015527 474468.000000 0 0 1
-36.292234 -23.491440 26.051254 50.474170 0.574465 1.028469 0.038423 -0.004319 -211755.000000 0 0 1
-36.133834 -24.987640 25.608364 50.851002 0.605019 1.043040 0.042589 -0.016768 -208979.000000 0 0 1
37.171283 -25.709740 25.540824 51.913666 -0.605104 1.056426 0.049157 -0.018985 184067.000000 0 0 1
37.159083 -27.042240 25.184294 52.405428 -0.629103 1.069496 0.040275 -0.008023 -63633.500000 0 0 1
-36.649034 -27.993240 26.164894 53.022400 0.652287 1.054723 0.029340 -0.003428 -511006.000000 0 0 1
-36.378834 -29.297140 25.584024 53.256777 0.677985 1.069697 0.033432 -0.006255 634873.000000 0 0 1
-35.337534 -30.123240 26.135704 53.284387 0.705911 1.058139 0.033910 -0.014876 945489.000000 0 0 1
-33.901934 -29.539440 25.941514 51.912251 0.716742 1.047523 0.033459 -0.012631 -458682.000000 0 0 1
-33.426934 -29.788040 24.658544 51.114881 0.727898 1.067388 0.033301 -0.018079 406812.000000 0 0 1
-32.120834 -29.200540 24.568744 49.880284 0.737811 1.055774 0.008492 -0.013353 599859.000000 0 0 1
-31.507634 -29.204140 23.129494 48.791252 0.747475 1.076912 0.013536 -0.011611 -293828.000000 0 0 1
-31.171634 -30.465740 22.579424 49.088313 0.773946 1.092829 0.023010 -0.012893 535230.000000 0 0 1
-30.727434 -30.349740 21.195824 48.109717 0.779214 1.114560 0.023404 -0.015897 -302401.000000 0 0 1
-30.617534 -31.775840 20.518324 48.663529 0.803961 1.135547 0.043459 -0.017464 376762.000000 0 0 1
-29.692334 -32.761440 21.008624 48.952109 0.834501 1.127226 0.049678 -0.027033 1781620.000000 0 0 1
-28.306934 -32.579340 20.574924 47.812377 0.855454 1.125942 0.062281 -0.024776 1372090.000000 0 0 1
-27.536634 -33.905040 20.711824 48.340435 0.888679 1.128011 0.056745 -0.015671 -477701.000000 0 0 1
-27.754134 32.947012 19.758424 47.394017 -0.870739 1.140768 0.053438 -0.011529 -54613.100000 0 0 1
-28.986034 32.264712 19.673224 47.626017 -0.838876 1.144966 0.064886 -0.012410 -79603.600000 0 0 1
-29.321934 31.225812 20.770924 47.605235 -0.816832 1.119296 0.072899 -0.011164 122499.000000 0 0 1
-28.478934 30.082012 20.673124 46.296384 -0.812766 1.107903 0.067159 -0.018163 31262.700000 0 0 1
-28.385934 29.387912 21.895624 46.355463 -0.802740 1.078851 0.066417 -0.023384 -123169.000000 0 0 1
-27.507234 28.115412 21.786924 44.964368 -0.796332 1.064962 0.068923 -0.026188 -1016940.000000 0 0 1
-26.207334 28.526212 21.584124 44.344600 -0.827739 1.062447 0.059792 -0.021896 -869391.000000 0 0 1
-25.339734 27.471012 21.122724 42.929338 -0.825733 1.056371 0.044862 -0.024798 578479.000000 0 0 1
-23.857834 27.912712 21.020024 42.310248 -0.863563 1.050881 0.026076 -0.016537 154784.000000 0 0 1
-23.255334 27.924212 22.310424 42.641848 -0.876372 1.020189 0.037517 -0.021313 693012.000000 0 0 1
-22.003334 28.616612 22.345824 42.454599 -0.915308 1.016499 0.067068 -0.023069 443276.000000 0 0 1
-21.430834 28.752712 23.769784 43.023269 -0.930278 0.985452 0.046906 -0.018381 -564372.000000 0 0 1
-21.040634 27.505712 24.274654 42.291031 -0.917792 0.959425 0.065235 -0.028446 246769.000000 0 0 1
-20.852134 27.536712 25.697664 43.051735 -0.922672 0.931162 0.065539 -0.032531 -504324.000000 0 0 1
-19.458334 27.919912 26.219924 42.960827 -0.962131 0.914330 0.092393 -0.030838 -602868.000000 0 0 1
-19.201034 29.319112 26.158014 43.732502 -0.990985 0.929622 0.068794 -0.030892 730296.000000 0 0 1
-17.894434 29.726712 26.581934 43.709122 -1.028933 0.917062 0.094607 -0.032352 339048.000000 0 0 1
-17.745034 29.928312 28.099464 44.723259 -1.035600 0.891435 0.078979 -0.021726 -451845.000000 0 0 1
-17.826234 28.690312 28.759694 44.362468 -1.014838 0.865461 0.095553 -0.027110 261742.000000 0 0 1
-17.836634 28.925812 30.156064 45.433867 -1.018236 0.844995 0.073491 -0.014051 -408105.000000 0 0 1
-17.498834 27.735912 30.963534 45.102443 -1.007959 0.814110 0.086191 -0.012330 813500.000000 0 0 1
-16.077934 27.460712 31.044354 44.456074 -1.041115 0.797755 0.092622 -0.009288 1148620.000000 0 0 1
-15.742034 26.448612 31.972510 44.379974 -1.033919 0.766379 0.107449 -0.009333 -105052.000000 0 0 1
-16.096234 26.562712 33.468839 45.659934 -1.025998 0.748071 0.101005 -0.002557 -287417.000000 0 0 1
-17.368034 26.067012 33.789941 46.074915 -0.983059 0.747531 0.102124 -0.006306 -515372.000000 0 0 1
-17.984234 26.786512 -32.987943 46.142759 -0.979530 2.367292 0.101123 -0.005868 845815.000000 0 0 1
-19.299834 26.033912 -32.563303 45.941450 -0.932864 2.358592 0.081029 -0.003470 793338.000000 0 0 1
-20.331534 26.004612 -33.538513 47.057868 -0.907225 2.364147 0.065151 -0.003750 364476.000000 0 0 1
-21.590534 25.736012 -32.903203 47.022486 -0.872768 2.345821 0.065922 -0.005416 560317.000000 0 0 1
-22.752434 25.865112 33.911514 48.339094 -0.849335 0.793249 0.046306 -0.019949 -397129.000000 0 0 1
-22.776834 25.068512 32.757280 47.119569 -0.833259 0.802105 0.049491 -0.018135 -165340.000000 0 0 1
-22.799734 23.620712 32.896835 46.475452 -0.803082 0.784371 0.050196 -0.015494 -43480.800000 0 0 1
-22.993234 22.858612 31.579864 45.260278 -0.782462 0.798560 0.053440 -0.020681 -47812.300000 0 0 1
-24.331234 22.979012 31.171064 45.734879 -0.756824 0.820904 0.055202 -0.018832 -428979.000000 0 0 1
-24.476934 22.505712 29.830654 44.670967 -0.743466 0.839566 0.069200 -0.019673 -276648.000000 0 0 1
-25.919834 22.213512 29.443354 45.079807 -0.708549 0.859075 0.063050 -0.021535 -354795.000000 0 0 1
-26.397634 21.026312 30.063404 45.196782 -0.672617 0.843079 0.072734 -0.019120 239736.000000 0 0 1
-27.724334 20.731512 29.640804 45.574242 -0.642074 0.862705 0.083260 -0.018921 347664.000000 0 0 1
-28.214334 19.318212 30.131024 45.575438 -0.600380 0.848480 0.106197 -0.022634 125287.000000 0 0 1
-28.790834 19.314612 31.471554 46.823339 -0.590900 0.833709 0.108778 -0.019198 347047.000000 0 0 1
-29.138534 18.102612 32.150992 47.015370 -0.555906 0.817784 0.092374 -0.011631 8523.360000 0 0 1
-30.052334 17.038712 31.501204 46.752394 -0.515777 0.831473 0.073080 -0.010339 -345695.000000 0 0 1
-31.413634 17.388412 31.437274 47.722903 -0.505550 0.851645 0.064189 -0.011940 -150490.000000 0 0 1
-32.114734 16.158912 31.164824 47.578491 -0.466174 0.856588 0.066332 -0.010583 683560.000000 0 0 1
-33.667534 16.359712 31.113774 48.674531 -0.452320 0.877312 0.058673 -0.005870 437417.000000 0 0 1
-34.190234 16.917612 32.274938 49.968483 -0.459486 0.868587 0.041641 -0.001935 741376.000000 0 0 1
-35.622734 16.865512 32.309496 50.963989 -0.442181 0.884124 0.060484 -0.007417 712600.000000 0 0 1
-36.184634 17.326012 33.687291 52.386563 -0.446562 0.872319 0.054294 -0.000438 952072.000000 0 0 1
36.908083 17.478812 33.724837 52.963007 0.442286 0.880505 0.044982 -0.011940 912983.000000 0 0 1
36.520183 18.128512 -32.911713 52.397973 0.460761 2.249919 0.041271 -0.017472 -1102640.000000 0 0 1
35.101183 18.086112 -32.451353 51.110574 0.475778 2.258707 0.048395 -0.021324 -987185.000000 0 0 1
34.603083 16.730412 -32.371333 50.251201 0.450356 2.270760 0.061658 -0.012267 910573.000000 0 0 1
33.275483 16.769612 -31.817773 48.998452 0.466813 2.277543 0.067031 -0.014551 800005.000000 0 0 1
32.306383 15.571412 -31.955673 48.034740 0.449138 2.298641 0.079377 -0.012647 412822.000000 0 0 1
31.600083 15.455712 -33.216283 48.381460 0.454892 2.327529 0.090070 -0.020639 -16260.000000 0 0 1
30.855983 14.263112 -33.286023 47.576122 0.432992 2.345686 0.091111 -0.024973 -481906.000000 0 0 1
31.568583 12.974512 -33.548763 47.858467 0.389948 2.347594 0.087870 -0.018480 -113313.000000 0 0 1
32.245983 12.440212 -32.378313 47.359449 0.368198 2.323578 0.084694 -0.016872 363309.000000 0 0 1
32.941883 11.244312 -32.633763 47.713360 0.328937 2.323966 0.088195 -0.014683 -7159.900000 0 0 1
18.210583 -21.160688 9.605777 29.524075 -0.860189 1.239410 0.009568 -0.005736 -122446.000000 0 0 1
17.863583 -22.418188 10.181777 30.419588 -0.897989 1.229498 0.007784 -0.010778 -558075.000000 0 0 1
18.887083 -23.206088 10.680777 31.769851 -0.887646 1.227925 -0.003513 -0.014874 -759782.000000 0 0 1
18.410983 -24.526188 11.332577 32.694427 -0.926869 1.216830 0.002717 -0.018191 -248838.000000 0 0 1
17.772883 -25.426038 10.509577 32.753779 -0.960740 1.244153 0.013715 -0.019275 -37926.900000 0 0 1
16.444383 -25.737818 10.905777 32.431297 -1.002250 1.227839 0.024630 -0.023301 355217.000000 0 0 1
15.707783 -26.540168 9.774777 32.352145 -1.036391 1.263863 0.045699 -0.034144 -162690.000000 0 0 1
15.427483 -25.750338 8.649477 31.239408 -1.031026 1.290254 0.049261 -0.027925 202092.000000 0 0 1
14.897783 -26.555198 7.587377 31.379783 -1.059538 1.326584 0.081891 -0.028916 -89448.100000 0 0 1
14.759983 -25.734138 6.308377 30.329830 -1.050048 1.361274 0.091952 -0.021675 175941.000000 0 0 1
13.799283 -24.692488 6.589477 29.044111 -1.061187 1.341925 0.094479 -0.023222 602195.000000 0 0 1
13.456383 -23.962488 5.431777 28.013913 -1.059121 1.375665 0.103621 -0.013031 7859.450000 0 0 1
12.531883 -22.750988 5.674377 26.586728 -1.067318 1.355713 0.112985 -0.015369 449492.000000 0 0 1
11.758483 -22.325288 4.510277 25.632460 -1.086026 1.393916 0.105620 -0.014549 414326.000000 0 0 1
11.036983 -21.171388 4.903677 24.373936 -1.090242 1.368229 0.111795 -0.014482 39845.600000 0 1 0
10.186883 -20.569888 3.789277 23.264813 -1.110970 1.407192 0.100050 -0.020345 833958.000000 0 1 0
11.061283 -20.103788 2.689777 23.103013 -1.067793 1.454106 0.087769 -0.015769 780222.000000 0 1 0
10.261283 -19.331188 1.847777 21.963676 -1.082802 1.486568 0.066773 -0.007162 79561.400000 0 1 0
10.994683 -18.864588 0.577877 21.842383 -1.043104 1.544337 0.059685 -0.007546 98630.300000 0 1 0
11.868583 -17.773688 0.756777 21.385509 -0.982036 1.535402 0.048163 -0.005840 -33259.300000 0 1 0
12.715383 -17.674888 -0.379223 21.776741 -0.947166 1.588211 0.062194 -0.006093 129250.000000 0 1 0
13.953783 -16.751188 -0.322523 21.804000 -0.876253 1.585589 0.060502 0.000157 221097.000000 0 1 0
15.020683 -17.309688 0.429077 22.922267 -0.856081 1.552076 0.066820 -0.006402 322385.000000 0 1 0
16.165583 -16.457488 0.236777 23.070134 -0.794346 1.560533 0.062217 -0.015965 793178.000000 0 1 0
17.442583 -16.936988 0.991177 24.332853 -0.770693 1.530051 0.054467 -0.009152 235122.000000 0 1 0
18.000383 -18.162488 0.454677 25.575311 -0.789881 1.553017 0.063621 -0.013338 561075.000000 0 0 1
18.984383 -18.738688 1.332077 26.708045 -0.778885 1.520900 0.039690 -0.006602 653039.000000 0 0 1
19.430183 -20.164888 0.869477 28.016258 -0.803952 1.539757 0.028618 -0.015917 -76624.900000 0 0 1
18.421483 -21.104988 1.055177 28.033640 -0.853185 1.533148 0.043935 -0.009744 -97168.600000 0 0 1
18.727383 -22.141588 0.215577 29.000195 -0.868745 1.563363 0.059376 -0.021158 -179472.000000 0 0 1
17.718983 -23.287488 0.286277 29.263483 -0.920368 1.561013 0.068629 -0.017919 -266410.000000 0 0 1
17.844983 -24.152088 1.398177 30.061964 -0.934464 1.524270 0.053455 -0.009456 -464119.000000 0 0 1
16.752583 -25.001488 1.470277 30.131133 -0.980446 1.521981 0.069304 -0.013422 -982336.000000 0 0 1
16.762183 -25.821708 2.761777 30.908879 -0.995018 1.481325 0.067173 -0.010672 444377.000000 0 0 1
17.807883 -26.793768 2.793677 32.292900 -0.984207 1.484177 0.046931 -0.012267 623843.000000 0 0 1
19.037183 -26.273828 3.288777 32.612029 -0.943771 1.469779 0.043230 -0.007253 115827.000000 0 0 1
20.156483 -27.346948 3.510277 34.153498 -0.935625 1.467835 0.054969 -0.000548 205758.000000 0 0 1
20.567383 -27.902058 2.338677 34.742071 -0.935584 1.503430 0.067594 -0.001503 -374689.000000 0 0 1
21.507483 -28.965198 2.434777 36.159130 -0.932094 1.503410 0.105123 -0.004516 134547.000000 0 0 1
21.115883 -30.369868 2.899077 37.102750 -0.963238 1.492580 0.099788 -0.001871 -243843.000000 0 0 1
20.976183 -30.573798 4.303877 37.326676 -0.969471 1.455236 0.105253 -0.001452 148410.000000 0 0 1
20.282783 -31.811488 4.482377 37.992812 -1.003193 1.452541 0.093673 -0.013235 -203392.000000 0 0 1
20.034983 -32.246268 5.948077 38.426579 -1.014854 1.415381 0.095843 -0.022758 550631.000000 0 0 1
21.231983 -32.693958 6.590177 39.536344 -0.994832 1.403328 0.085340 -0.031332 845041.000000 0 0 1
20.784783 -33.521658 7.694077 40.185913 -1.015771 1.378145 0.074101 -0.030533 796941.000000 0 0 1
21.952383 33.670008 8.431177 41.068982 0.993026 1.364033 0.081061 -0.036835 519141.000000 0 0 1
22.939583 -33.450098 9.050477 41.557727 -0.969674 1.351256 0.088476 -0.032949 -246846.000000 0 0 1
23.949483 33.649373 9.577277 42.397904 0.952237 1.342939 0.105506 -0.033881 23474.800000 0 0 1
24.885983 -33.395668 10.502477 42.952123 -0.930383 1.323776 0.091654 -0.034097 253324.000000 0 0 1
25.679283 -32.507998 9.688077 42.544734 -0.902221 1.341066 0.089018 -0.031573 114181.000000 0 0 1
26.441183 -31.670598 10.546177 42.583856 -0.875145 1.320535 0.089090 -0.030864 32160.500000 0 0 1
27.266583 -30.656878 9.750677 42.170920 -0.843862 1.337467 0.087177 -0.034808 148380.000000 0 0 1
26.456583 -29.581478 9.200677 40.739012 -0.841104 1.342987 0.079070 -0.034315 763934.000000 0 0 1
27.138683 -28.778188 8.215377 40.400305 -0.814710 1.366019 0.085099 -0.032668 -185941.000000 0 0 1
26.530783 -27.410978 8.060377 38.989920 -0.801714 1.362565 0.069964 -0.030828 -223541.000000 0 0 1
26.837783 -26.657928 9.216077 38.933891 -0.782036 1.331817 0.071414 -0.035115 340501.000000 0 0 1
26.301083 -25.351958 9.034677 37.631027 -0.767025 1.328342 0.050205 -0.026200 -147638.000000 0 0 1
27.151483 -24.443288 9.949477 37.863828 -0.732957 1.304904 0.056114 -0.038166 29010.600000 0 0 1
28.509783 -24.563688 9.604377 38.838468 -0.711183 1.320914 0.080964 -0.028467 -690469.000000 0 0 1
29.260083 -23.711988 10.461377 39.087738 -0.681042 1.299855 0.073167 -0.030452 279317.000000 0 0 1
30.634583 -23.386288 9.816177 39.771265 -0.652019 1.321403 0.098427 -0.032680 260029.000000 0 0 1
30.595283 -22.456788 8.780577 38.954810 -0.633179 1.343438 0.117302 -0.031942 108597.000000 0 0 1
31.886083 -22.141588 8.258077 39.688387 -0.606955 1.361192 0.112388 -0.032666 360586.000000 0 0 1
31.814383 -21.259988 7.006977 38.900383 -0.589099 1.389682 0.110320 -0.015252 -252598.000000 0 0 1
31.411383 -19.936488 7.196077 37.893563 -0.565537 1.379734 0.111950 -0.012115 62063.100000 0 0 1
31.400783 -19.158188 5.988677 37.268078 -0.547826 1.409405 0.095455 -0.011794 -80533.000000 0 0 1
31.244183 -17.656988 6.347777 36.445336 -0.514384 1.395731 0.126386 -0.006873 64447.400000 0 0 1
32.299883 -17.202288 7.166577 37.290227 -0.489371 1.377409 0.145219 -0.008154 121393.000000 0 0 1
32.122083 -15.850188 7.470477 36.590501 -0.458383 1.365186 0.154627 -0.017450 333331.000000 0 0 1
32.879583 -15.525588 8.810677 37.413085 -0.441158 1.333066 0.151788 -0.039390 -208513.000000 0 0 1
34.260983 -15.408388 8.689577 38.558296 -0.422634 1.343482 0.131495 -0.032842 -837588.000000 0 0 1
34.848883 -15.162888 9.943177 39.283898 -0.410398 1.314902 0.121938 -0.048991 349968.000000 0 0 1
36.396183 -15.136388 9.836177 40.626873 -0.394119 1.326256 0.109207 -0.055789 -2494.970000 0 0 1
37.043983 -14.081688 9.192477 40.682334 -0.363264 1.342871 0.119754 -0.037382 1455850.000000 0 0 1
-36.074034 -14.456388 9.067277 39.906624 0.381146 1.341582 0.116745 -0.038027 1576290.000000 0 0 1
-35.111834 -13.372088 8.578777 38.538929 0.363883 1.346315 0.125920 -0.034701 -390113.000000 0 0 1
-35.414334 -12.877488 7.287077 38.381067 0.348760 1.379776 0.157751 -0.040452 418093.000000 0 0 1
-34.293334 -12.393788 6.544377 37.046830 0.346799 1.393213 0.124147 -0.027011 522183.000000 0 0 1
-33.344334 -13.429988 5.875777 36.424360 0.382889 1.408774 0.094703 -0.021300 156132.000000 0 0 1
-32.557134 -14.103688 6.873177 36.140304 0.408794 1.379450 0.112310 -0.017986 544102.000000 0 0 1
-31.726834 -15.092888 6.198077 35.676371 0.444030 1.396180 0.118673 -0.002818 541096.000000 0 0 1
-31.094434 -16.012788 7.277977 35.724532 0.475554 1.365635 0.099377 -0.022058 205683.000000 0 0 1
-32.029734 -16.971488 7.771177 37.071910 0.487254 1.359606 0.104056 -0.025660 298368.000000 0 0 1
-32.174034 -16.811788 9.154877 37.438169 0.481506 1.323758 0.083567 -0.029004 871368.000000 0 0 1
-33.336734 -17.704788 9.785877 38.994369 0.488209 1.317128 0.053347 -0.029648 572638.000000 0 0 1
-34.660334 -17.215488 9.600377 39.873287 0.460997 1.327635 0.074851 -0.023630 815306.000000 0 0 1
-35.668734 -17.847888 10.406477 41.220147 0.463951 1.315574 0.094109 -0.031297 368338.000000 0 0 1
-35.976934 -19.379888 10.093777 42.092805 0.494107 1.328638 0.110174 -0.027173 -959814.000000 0 0 1
-35.011334 -20.366388 10.406777 41.819664 0.526861 1.319305 0.107106 -0.026242 -304279.000000 0 0 1
-34.586334 -20.536188 11.769177 41.910179 0.535823 1.286149 0.106582 -0.048353 -855318.000000 0 0 1
-35.571534 -21.168888 12.718577 43.303788 0.536814 1.272695 0.136733 -0.059074 -591596.000000 0 0 1
-35.838034 -22.553488 12.604677 44.180340 0.561698 1.281476 0.139690 -0.059097 998071.000000 0 0 1
-36.823234 -22.894688 11.562977 44.875603 0.556256 1.310189 0.134515 -0.038281 355620.000000 0 0 1
-37.165234 -24.375888 11.604277 45.935801 0.580497 1.315410 0.131129 -0.039816 -375312.000000 0 0 1
36.842583 -24.663488 12.904677 46.175689 -0.589912 1.287555 0.173317 -0.040997 16200.700000 0 0 1
36.082983 -25.869328 12.938677 46.245142 -0.622005 1.287227 0.151987 -0.037034 350929.000000 0 0 1
34.821383 -25.479338 13.781677 45.295254 -0.631696 1.261632 0.168024 -0.038368 504675.000000 0 0 1
33.816183 -24.669688 13.125477 43.868051 -0.630267 1.266938 0.147195 -0.038691 307531.000000 0 0 1
32.934883 -24.172088 14.109677 43.221284 -0.633140 1.238249 0.124383 -0.017475 -533873.000000 0 0 1
33.224583 -22.748588 14.732277 42.876698 -0.600378 1.220053 0.138382 -0.025044 93047.300000 0 0 1
34.402183 -22.588088 15.498577 43.976560 -0.580993 1.210632 0.160820 -0.034683 275540.000000 0 0 1
35.534683 -22.128988 14.763677 44.388872 -0.556975 1.231739 0.155791 -0.035657 1538.210000 0 0 1
36.653083 -21.595988 15.659877 45.332847 -0.532440 1.218086 0.131859 -0.034849 -476992.000000 0 0 1
36.541283 -20.300088 16.199677 44.830665 -0.507085 1.201078 0.128782 -0.037410 629182.000000 0 0 1
35.439583 -20.091588 17.108377 44.185207 -0.515745 1.173207 0.137717 -0.037953 468208.000000 0 0 1
35.360483 -18.698288 17.781477 43.774087 -0.486414 1.152494 0.128016 -0.033685 -579286.000000 0 0 1
35.053783 -17.694788 16.872677 42.738279 -0.467472 1.164956 0.119338 -0.041256 54927.500000 0 0 1
35.212283 -16.392888 17.336677 42.534598 -0.435705 1.150983 0.117234 -0.039024 -588813.000000 0 0 1
36.581883 -15.914488 17.809677 43.688554 -0.410342 1.150916 0.106560 -0.035284 -806431.000000 0 0 1
36.994383 -16.524088 19.049277 44.771697 -0.420077 1.131309 0.098871 -0.018455 204475.000000 0 0 1
-36.581434 -15.661588 19.642277 44.376860 0.404518 1.112273 0.083512 -0.017933 -77968.200000 0 0 1
-36.212734 -15.946088 21.152377 44.867170 0.414796 1.079868 0.071997 -0.006438 193361.000000 0 0 1
-35.151634 -16.870288 21.355677 44.455697 0.447462 1.069707 0.072473 -0.003532 293042.000000 0 0 1
-34.755134 -16.814788 22.695577 44.785552 0.450610 1.039373 0.056803 0.008507 500153.000000 0 0 1
-33.643334 -17.854688 23.057077 44.522945 0.487909 1.026438 0.057293 0.008200 -180332.000000 0 0 1
-34.284734 -19.129788 23.172977 45.589239 0.508940 1.037588 0.060588 0.001441 550454.000000 0 0 1
-33.551034 -20.236488 23.662177 45.772109 0.542736 1.027505 0.036228 0.005817 183.583000 0 0 1
-32.297134 -20.786988 22.900277 44.717183 0.571875 1.033153 0.033330 0.014224 263420.000000 0 0 1
-31.240034 -19.872888 23.023677 43.600013 0.566567 1.014475 0.033877 0.026817 -149247.000000 0 0 1
-30.021134 -20.368888 22.479377 42.678830 0.596140 1.016071 0.033851 0.028067 133358.000000 0 0 1
-28.942534 -19.288688 22.613277 41.485951 0.587851 0.994308 0.037252 0.041530 -133948.000000 0 0 1
-28.398734 -19.036388 23.942377 41.738587 0.590531 0.959869 0.036331 0.028977 466877.000000 0 0 1
-27.439534 -18.001288 23.979377 40.644618 0.580606 0.939766 0.043272 0.023578 -196117.000000 0 0 1
-26.876934 -17.778888 25.384877 41.022560 0.584412 0.903579 0.044983 0.004254 -329127.000000 0 0 1
-25.971034 -16.664988 25.449377 39.998591 0.570501 0.881160 0.058451 -0.004861 457611.000000 0 0 1
-25.481534 -16.335288 26.751977 40.395774 0.570067 0.846983 0.058867 -0.013088 390951.000000 0 0 1
-24.465834 -17.292088 27.430577 40.620560 0.615265 0.829441 0.059607 -0.011507 -308325.000000 0 0 1
-25.090434 -18.532488 27.735177 41.739946 0.636183 0.844004 0.062746 -0.011339 272888.000000 0 0 1
-24.171834 -19.305388 28.471377 42.042775 0.673931 0.826845 0.061939 -0.017860 -103070.000000 0 0 1
-24.878434 -20.509388 29.133477 43.454931 0.689434 0.836009 0.064029 -0.015216 -676841.000000 0 0 1
-25.808734 -20.151088 30.061077 44.450259 0.662915 0.828088 0.063962 -0.017766 -715760.000000 0 0 1
-26.370834 -21.279688 30.623977 45.673559 0.678959 0.835918 0.057977 -0.013702 -138949.000000 0 0 1
-27.628734 -21.154188 31.538077 46.962719 0.653448 0.834490 0.071282 -0.017054 -477767.000000 0 0 1
-27.395034 -20.262788 32.637577 47.183471 0.636845 0.806933 0.081650 -0.024326 140824.000000 0 0 1
-28.470534 -20.001088 33.514777 48.309990 0.612415 0.804121 0.094459 -0.034857 405797.000000 0 0 1
-29.711334 -19.251988 32.922677 48.345684 0.574945 0.821690 0.086850 -0.037384 -363145.000000 0 0 1
-30.429734 -19.945788 32.014877 48.463962 0.580211 0.849190 0.086871 -0.036589 385185.000000 0 0 1
-31.774034 -19.428588 31.954377 49.072819 0.548804 0.861681 0.093030 -0.037955 913082.000000 0 0 1
-32.656334 -20.027688 30.847477 49.184462 0.550132 0.892870 0.073555 -0.011100 -139063.000000 0 0 1
-32.959334 -19.148088 29.757777 48.357960 0.526303 0.907948 0.067189 -0.019971 204976.000000 0 0 1
-33.927134 -19.723288 28.916277 48.746381 0.526588 0.935770 0.054108 -0.012599 -163385.000000 0 0 1
-34.638534 -18.658588 28.060677 48.325693 0.494100 0.951260 0.054884 -0.010115 -139096.000000 0 0 1
-35.480134 -19.153188 27.047077 48.551302 0.495000 0.979928 0.044300 -0.006652 191550.000000 0 0 1
-36.096134 -18.144788 26.268177 48.189017 0.465789 0.994279 0.068063 -0.007542 103721.000000 0 0 1
-37.089434 -18.730388 25.202077 48.596278 0.467644 1.025582 0.059662 -0.015986 173975.000000 0 0 1
36.265483 -19.175788 25.831077 48.478250 -0.486391 1.008845 0.068588 -0.016872 -457834.000000 0 0 1
35.320383 -19.808088 25.021377 47.602092 -0.511106 1.017334 0.108774 -0.025791 107644.000000 0 0 1
33.997283 -20.061888 25.800277 47.158763 -0.533110 0.991908 0.093036 -0.023192 -145141.000000 0 0 1
33.272783 -18.939488 26.181677 46.381705 -0.517479 0.970990 0.082486 -0.033254 -655407.000000 0 0 1
32.351783 -19.371188 27.102977 46.437616 -0.539513 0.947589 0.068839 -0.016682 -757560.000000 0 0 1
-29.511467 -5.078488 33.507388 44.938433 0.170416 0.729318 0.087367 -0.017021 -188014.000000 0 0 1
-30.672957 -5.245888 32.739254 45.168666 0.169388 0.760020 0.095304 -0.015753 -29088.900000 0 0 1
-30.824617 -4.098188 31.939879 44.576989 0.132177 0.772009 0.087215 -0.020184 329365.000000 0 0 1
-31.796757 -4.361488 30.716274 44.424608 0.136317 0.807337 0.081125 -0.028034 464598.000000 0 0 1
-31.481457 -5.332888 29.679594 43.593579 0.167805 0.821908 0.069544 -0.026004 305363.000000 0 0 1
-30.264837 -5.142788 28.931844 42.183648 0.168318 0.815019 0.072542 -0.028847 870634.000000 0 0 1
-29.895457 -6.215288 27.923154 41.377176 0.204981 0.830043 0.073868 -0.036255 173451.000000 0 0 1
-30.625067 -5.974088 26.718104 41.078480 0.192652 0.862664 0.077058 -0.037778 19223.300000 0 0 1
-30.147857 -6.692988 25.604744 40.115985 0.218462 0.878550 0.094463 -0.030945 -52966.300000 0 0 1
-30.799197 -6.335988 24.255284 39.712140 0.202889 0.913754 0.088005 -0.021927 -9571.820000 0 0 1
-30.260997 -5.137988 23.795314 38.837402 0.168185 0.911336 0.109227 -0.026902 -9696.900000 0 0 1
-30.830447 -4.909788 22.535224 38.502711 0.157925 0.945560 0.117076 -0.021300 151508.000000 0 0 1
-30.246747 -3.632588 21.854924 37.492654 0.119526 0.948488 0.123635 -0.020490 -133992.000000 0 0 1
-28.890497 -3.835588 21.569624 36.257705 0.131991 0.933658 0.127720 -0.018727 -520160.000000 0 0 1
-28.355997 -2.585088 21.144924 35.466224 0.090914 0.932038 0.139602 -0.010179 449552.000000 0 0 1
-26.941287 -2.713988 20.506824 33.966579 0.100398 0.922618 0.126638 -0.002336 195260.000000 0 0 1
-26.941267 -3.447688 19.283224 33.310075 0.127279 0.953417 0.125357 -0.003364 -627855.000000 0 0 1
-25.790717 -3.084388 18.605924 31.950820 0.119028 0.949204 0.098059 0.000649 -655823.000000 0 0 1
-25.599887 -3.996188 17.306224 31.158131 0.154852 0.981914 0.095458 -0.006214 -699556.000000 0 0 1
-26.610727 -3.788288 16.390324 31.482132 0.141409 1.023216 0.104834 0.001635 -328218.000000 0 0 1
-26.350127 -4.349988 15.094424 30.677242 0.163609 1.056365 0.109654 -0.004105 -95963.600000 0 0 1
-27.636437 -4.493588 14.244724 31.414601 0.161186 1.100172 0.124334 -0.013810 225560.000000 0 0 1
-27.971907 -3.221788 13.657124 31.294161 0.114674 1.119190 0.126959 -0.013664 712242.000000 0 0 1
-29.257267 -3.297088 13.018324 32.192161 0.112220 1.154480 0.132592 -0.020393 379955.000000 0 0 1
-29.711847 -1.994088 12.403124 32.258452 0.067014 1.176139 0.132478 -0.011574 -224240.000000 0 0 1
-29.182197 -1.766388 11.105724 31.273916 0.060456 1.207763 0.145487 -0.013965 308337.000000 0 0 1
-29.683227 -0.585188 10.519324 31.497501 0.019712 1.230281 0.157286 -0.023197 25060.500000 0 0 1
-30.858737 -0.738288 9.527124 32.304377 0.023920 1.271427 0.158332 -0.027374 328786.000000 0 0 1
-30.514037 -1.292988 8.280224 31.643963 0.042348 1.306046 0.170993 -0.032144 505307.000000 0 0 1
-31.764277 -1.755588 7.778024 32.749794 0.055213 1.331007 0.150137 -0.030380 556598.000000 0 0 1
-31.684497 -2.412988 6.379324 32.410270 0.076010 1.372672 0.177463 -0.033788 -131364.000000 0 0 1
-31.406477 -1.620988 5.240324 31.881897 0.051567 1.405680 0.193352 -0.045664 465718.000000 0 0 1
-32.547227 -0.917388 4.771224 32.907874 0.028179 1.425296 0.175549 -0.044547 69100.400000 0 0 1
-32.300757 -0.192688 3.457224 32.485819 0.005965 1.464172 0.180632 -0.045046 -83228.800000 0 0 1
-32.344987 -1.144588 2.448024 32.457681 0.035372 1.495303 0.181195 -0.066066 231135.000000 0 0 1
-32.144047 -0.531188 1.207724 32.171113 0.016524 1.533247 0.198499 -0.068037 -266425.000000 0 0 1
-32.859527 -1.228288 0.045524 32.882507 0.037363 1.569412 0.193486 -0.070520 319683.000000 0 0 1
-34.262524 -0.998488 0.120624 34.277282 0.029134 1.567277 0.206547 -0.063687 475950.000000 0 0 1
-34.925344 -1.390288 -1.100476 34.970324 0.039786 1.602270 0.193477 -0.060670 -63394.800000 0 0 1
-36.441267 -1.164588 -0.964576 36.472628 0.031947 1.597246 0.168688 -0.049516 -600624.000000 0 0 1
-37.006417 -2.012888 -0.027176 37.061130 0.054339 1.571530 0.160504 -0.044472 231474.000000 0 0 1
36.195171 -1.608388 0.300424 36.232134 -0.044407 1.562505 0.139126 -0.035285 378878.000000 0 0 1
35.350221 -2.703288 0.962724 35.466501 -0.076323 1.543648 0.133346 -0.036434 -243368.000000 0 0 1
35.835051 -3.027188 2.228524 36.031667 -0.084276 1.508908 0.132377 -0.034664 540393.000000 0 0 1
34.964471 -4.017488 2.846824 35.309472 -0.114400 1.490084 0.122118 -0.014281 551510.000000 0 0 1
34.876231 -3.979688 4.335324 35.369258 -0.113617 1.447914 0.117883 -0.000603 330243.000000 0 0 1
34.002741 -2.961188 4.829324 34.471399 -0.086868 1.430237 0.132609 -0.015950 420329.000000 0 0 1
34.079981 -2.966588 6.247224 34.774610 -0.086829 1.390167 0.132705 -0.018268 -109501.000000 0 0 1
33.217251 -1.838688 6.816924 33.959343 -0.055297 1.368685 0.156426 -0.024941 -399102.000000 0 0 1
31.844991 -2.113688 6.913624 32.655310 -0.066277 1.357467 0.155931 -0.031264 -548050.000000 0 0 1
31.347371 -1.074588 7.710524 32.299606 -0.034267 1.329750 0.176018 -0.032611 1465500.000000 0 0 1
29.774551 -1.250588 7.958824 30.845270 -0.041977 1.309820 0.161609 -0.035406 1527280.000000 0 0 1
28.966701 -1.070988 6.778824 29.768594 -0.036956 1.341064 0.173144 -0.035923 553573.000000 0 0 1
27.597601 -1.358288 6.996824 28.503123 -0.049178 1.322786 0.169755 -0.028926 376156.000000 0 0 1
27.105401 -2.852588 7.012824 28.142845 -0.104855 1.318956 0.184418 -0.038974 -292390.000000 0 0 1
27.664901 -3.556988 8.114624 29.049028 -0.127872 1.287687 0.163892 -0.036764 521435.000000 0 0 1
27.254901 -4.896688 7.998824 28.823399 -0.177766 1.289593 0.182545 -0.038805 -20959.500000 0 0 1
27.523701 -5.683988 9.291824 29.600672 -0.203650 1.251492 0.147791 -0.038317 -221556.000000 0 0 1
26.473001 -5.476288 10.189024 28.889889 -0.203986 1.210358 0.142947 -0.030783 440625.000000 0 0 1
26.845701 -6.064088 11.406924 29.792326 -0.222158 1.177883 0.118770 -0.028735 -224374.000000 0 0 1
25.570901 -6.262288 12.199324 29.015698 -0.240172 1.136867 0.086381 -0.029458 -392973.000000 0 0 1
24.602701 -7.143188 11.705024 28.166036 -0.282573 1.142224 0.110915 -0.037156 -782726.000000 0 0 1
23.462901 -7.086688 12.479624 27.503997 -0.293325 1.099840 0.108047 -0.041292 -451568.000000 0 0 1
22.637801 -8.423588 12.473924 27.185026 -0.356228 1.094093 0.103048 -0.029844 230212.000000 0 0 1
23.107301 -9.363688 13.418024 28.313766 -0.385004 1.077077 0.081488 -0.035996 70529.300000 0 0 1
22.187201 -10.416988 13.556724 28.010182 -0.438955 1.065585 0.124354 -0.050488 -383340.000000 0 0 1
22.496101 -11.428688 14.725624 29.215295 -0.470051 1.042528 0.061740 -0.046870 -58960.500000 0 0 1
22.026201 -11.037588 16.003124 29.378254 -0.464537 0.994733 0.045871 -0.044950 240248.000000 0 0 1
22.627501 -11.923788 16.944424 30.680515 -0.484982 0.985692 0.048280 -0.049044 116342.000000 0 0 1
22.378701 -11.575888 18.428124 31.215432 -0.477370 0.939300 0.061574 -0.041907 -314858.000000 0 0 1
21.059101 -11.821288 18.837824 30.628290 -0.511507 0.908351 0.073507 -0.044149 -403870.000000 0 0 1
20.812601 -11.738388 20.242924 31.316610 -0.513531 0.867945 0.082504 -0.040899 275620.000000 0 0 1
21.143201 -10.388788 20.994924 31.555486 -0.456707 0.842856 0.079656 -0.037512 -25706.600000 0 0 1
20.161901 -9.377688 20.775924 30.431600 -0.435356 0.819333 0.066383 -0.035440 205939.000000 0 0 1
20.609501 -8.345388 19.916224 29.850511 -0.384748 0.840355 0.084478 -0.031493 625975.000000 0 0 1
21.813101 -7.353388 20.296124 30.689026 -0.325145 0.848182 0.074554 -0.021838 2189590.000000 0 0 1
23.165101 -7.827188 20.375824 31.828618 -0.325843 0.876073 0.087984 -0.017875 947279.000000 0 0 1
23.788601 -8.162288 19.134024 31.601129 -0.330530 0.920421 0.091311 -0.026701 -490403.000000 0 0 1
25.169701 -8.794988 19.344924 32.940730 -0.336165 0.943121 0.094532 -0.025829 -173492.000000 0 0 1
25.120601 -10.027388 19.997024 33.637391 -0.379791 0.934168 0.064334 -0.033005 282526.000000 0 0 1
26.399101 -10.649588 19.928424 34.748645 -0.383440 0.960022 0.060844 -0.034615 497842.000000 0 0 1
26.311901 -12.128488 20.325724 35.391403 -0.431923 0.959032 0.037347 -0.029520 -123660.000000 0 0 1
25.484801 -12.759288 19.384724 34.467985 -0.464178 0.973513 0.065942 -0.044512 -75492.900000 0 0 1
25.457001 -14.150388 19.667724 35.144156 -0.507327 0.976857 0.052154 -0.038445 191221.000000 0 0 1
24.449201 -14.925788 18.744124 34.232802 -0.548091 0.991364 0.054168 -0.036857 -233980.000000 0 0 1
24.711101 -14.843588 17.363524 33.652081 -0.540923 1.028655 0.053460 -0.043109 355070.000000 0 0 1
23.767101 -15.543288 16.548224 32.868109 -0.579170 1.043182 0.043283 -0.041370 -85828.700000 0 0 1
23.585201 -17.065988 16.684724 33.554279 -0.626383 1.050375 0.030226 -0.034905 -424621.000000 0 0 1
24.635501 -17.815288 16.117524 34.410274 -0.626098 1.083326 0.046800 -0.037775 -46798.000000 0 0 1
24.703501 -19.114788 16.674524 35.407313 -0.658540 1.080447 0.040234 -0.019758 111844.000000 0 0 1
25.951501 -19.901788 16.176324 36.486093 -0.654220 1.111457 0.049733 -0.014363 214873.000000 0 0 1
25.913601 -20.077988 14.756824 35.950023 -0.659188 1.147814 0.044213 -0.020361 183244.000000 0 0 1
26.910701 -20.987588 14.329724 37.013587 -0.662363 1.173260 0.059482 -0.027390 -272939.000000 0 0 1
27.068801 -21.010788 12.829224 36.589099 -0.660059 1.212553 0.050665 -0.038791 -258221.000000 0 0 1
25.989401 -21.490488 12.033224 35.806263 -0.690926 1.228061 0.045173 -0.031692 339572.000000 0 0 1
26.104501 -21.074888 10.707424 35.217109 -0.679193 1.261865 0.064773 -0.026847 -72866.200000 0 0 1
24.691601 -21.042888 10.098524 33.977323 -0.705786 1.269023 0.022204 -0.019492 -265257.000000 0 0 1
24.210701 -22.302788 9.795424 34.344180 -0.744403 1.281567 0.017513 -0.018738 98480.400000 0 0 1
22.803101 -22.285888 9.638524 33.309809 -0.773928 1.277238 -0.005014 -0.007776 106004.000000 0 0 1
22.358801 -23.383388 8.708824 33.504364 -0.807794 1.307846 0.008695 -0.011141 -307625.000000 0 0 1
22.731201 -24.691388 9.097924 34.772753 -0.826709 1.306076 0.015368 -0.010850 127114.000000 0 0 1
22.837301 -25.613508 8.008424 35.238175 -0.842635 1.341527 0.021708 -0.007771 168599.000000 0 0 1
21.470601 -26.213768 7.552324 34.715788 -0.884542 1.351496 0.016741 -0.006448 594366.000000 0 0 1
20.494501 -25.366478 6.991624 33.352145 -0.891235 1.359599 0.013848 -0.006947 -211738.000000 0 0 1
19.189801 -25.887138 7.167124 33.011514 -0.932895 1.351944 0.021172 -0.023570 162930.000000 0 0 1
18.176601 -24.730488 7.208424 31.526929 -0.936973 1.340112 0.021012 -0.018389 -633320.000000 0 0 1
18.045401 -24.169888 5.938224 30.742194 -0.929470 1.376413 0.042837 -0.020769 245038.000000 0 0 1
17.176501 -23.042388 6.008324 29.361263 -0.930226 1.364706 0.063604 -0.001733 -110102.000000 0 0 1
16.925301 -22.301288 4.695024 28.387612 -0.921599 1.404643 0.088689 -0.003216 -359774.000000 0 0 1
16.211801 -21.121788 4.973524 27.086682 -0.916164 1.386134 0.123306 -0.004313 47076.900000 0 0 1
15.818701 -20.541888 3.742924 26.195609 -0.914573 1.427422 0.112233 -0.006288 2921.830000 0 0 1
14.879301 -19.334988 3.743324 24.682946 -0.914898 1.418553 0.110441 0.000696 191124.000000 0 1 0
15.526801 -18.186088 4.271024 24.291089 -0.864116 1.394051 0.075270 0.000690 -94196.200000 0 1 0
14.756901 -17.033688 4.097024 22.906293 -0.856894 1.390969 0.051737 0.005529 41912.500000 0 1 0
15.485301 -15.684288 4.412624 22.478049 -0.791782 1.373205 0.034108 -0.001000 -446975.000000 0 1 0
15.711501 -15.439388 5.778524 22.773171 -0.776663 1.314249 0.031627 -0.014375 -3891.460000 0 1 0
16.714401 -14.502688 6.064924 22.945206 -0.714667 1.303295 0.031775 -0.013158 342949.000000 0 1 0
18.164801 -15.073088 5.965324 24.346315 -0.692647 1.323256 0.028665 -0.022652 84243.300000 0 1 0
19.110501 -14.072088 5.644424 24.394557 -0.634710 1.337300 0.064657 -0.025523 182622.000000 0 1 0
20.436101 -14.545188 5.533624 25.686917 -0.618562 1.353669 0.087240 -0.024905 405171.000000 0 0 1
21.481801 -13.405688 5.276224 25.865397 -0.557915 1.365367 0.090969 -0.028325 126968.000000 0 0 1
21.646501 -12.581688 6.408424 25.844492 -0.526507 1.320221 0.107517 -0.036040 536718.000000 0 0 1
22.753401 -11.703888 6.213824 26.330778 -0.475085 1.332558 0.129533 -0.038802 180539.000000 0 0 1
23.002701 -10.806588 7.503524 26.499235 -0.439194 1.283709 0.132878 -0.040239 -36798.900000 0 0 1
23.337901 -11.788588 8.502424 27.493993 -0.467740 1.256396 0.128240 -0.028587 250853.000000 0 0 1
23.589001 -11.151288 9.744024 27.852077 -0.441597 1.213386 0.141226 -0.045730 86176.200000 0 0 1
24.078901 -12.152188 10.866024 29.078164 -0.467386 1.187820 0.108269 -0.043284 -485152.000000 0 0 1
23.075601 -12.890688 11.431024 28.797942 -0.509444 1.162617 0.113436 -0.045025 -292863.000000 0 0 1
23.679901 -13.866488 12.192024 30.027698 -0.529749 1.152695 0.109284 -0.048941 125871.000000 0 0 1
22.605301 -14.944488 12.455924 29.824275 -0.584143 1.139946 0.086416 -0.053029 500943.000000 0 0 1
21.540501 -14.434988 13.267124 29.126940 -0.590398 1.097870 0.062116 -0.045801 936917.000000 0 0 1
20.532001 -15.469888 13.507824 29.040348 -0.645707 1.087004 0.032910 -0.039074 1155110.000000 0 0 1
19.263401 -14.855488 14.173824 28.154243 -0.656917 1.043227 0.044325 -0.038773 -568364.000000 0 0 1
19.541101 -14.481988 15.474524 28.827825 -0.637783 1.004167 0.047883 -0.043111 -63708.000000 0 0 1
19.139001 -13.260388 15.795124 28.135834 -0.605909 0.974734 0.077595 -0.051812 -366960.000000 0 0 1
17.629601 -12.947588 15.917224 27.051818 -0.633457 0.941721 0.094688 -0.044823 -591939.000000 0 0 1
17.009501 -13.022188 14.626424 25.939020 -0.653400 0.971723 0.106648 -0.051887 1468350.000000 0 0 1
15.569701 -12.752988 14.746924 24.950472 -0.686273 0.938439 0.144444 -0.043035 1815000.000000 0 1 0
15.334101 -11.265288 14.441224 23.887032 -0.633608 0.921579 0.127713 -0.036826 -416601.000000 0 1 0
15.772201 -10.380588 15.465224 24.406804 -0.582088 0.884542 0.113308 -0.030254 240141.000000 0 1 0
15.487701 -9.021888 15.189924 23.494619 -0.527467 0.867772 0.122253 -0.029605 -631208.000000 0 1 0
16.165001 -8.135188 16.235124 24.311885 -0.466252 0.839567 0.141900 -0.029150 551115.000000 0 1 0
17.574801 -8.028688 16.009324 25.092467 -0.428519 0.878881 0.135889 -0.044159 818535.000000 0 0 1
18.323101 -8.983488 16.782224 26.421244 -0.455843 0.882556 0.130475 -0.039205 529653.000000 0 0 1
19.861901 -8.952088 16.474424 27.313762 -0.423450 0.923346 0.086759 -0.035527 228039.000000 0 0 1
20.469401 -7.736688 16.702424 27.528597 -0.361366 0.918856 0.089978 -0.041030 24497.400000 0 0 1
21.519401 -7.618188 15.741324 27.729238 -0.340247 0.967112 0.069583 -0.025148 573544.000000 0 0 1
22.322801 -6.218388 15.950124 28.131517 -0.271679 0.967956 0.060302 -0.007421 356697.000000 0 0 1
23.188601 -6.162488 17.058624 29.439499 -0.259751 0.952747 0.085230 -0.012043 72666.600000 0 0 1
23.662401 -4.867588 17.304124 29.715910 -0.202880 0.949219 0.081466 -0.012813 -205136.000000 0 0 1
-5.722617 -33.152640 -6.684223 34.300506 1.399866 1.766924 0.058701 -0.013824 -98714.300000 0 0 1
-6.378417 -31.893340 -6.752423 33.218437 1.373408 1.775496 0.052582 -0.018340 120872.000000 0 0 1
-6.097217 -31.020540 -5.722823 32.127880 1.376716 1.749878 0.065283 -0.022512 -578436.000000 0 0 1
-6.911017 -29.692540 -5.724023 31.018922 1.342115 1.756393 0.070368 -0.023827 -129807.000000 0 0 1
-8.245917 -29.755540 -5.323723 31.332560 1.300458 1.741535 0.051507 -0.021363 -165857.000000 0 0 1
-9.160017 -30.105840 -6.368923 32.106552 1.275435 1.770489 0.043765 -0.013716 -1163180.000000 0 0 1
-10.526517 -29.562340 -6.077023 31.963569 1.228717 1.762084 0.056551 0.002654 -1089010.000000 0 0 1
-11.513817 -30.147440 -6.889723 32.998552 1.205975 1.781132 0.045691 -0.004916 19884.300000 0 0 1
-12.821717 -29.822140 -6.435023 33.093292 1.164749 1.766494 0.049131 -0.003314 351744.000000 0 0 1
-13.936317 -30.404840 -7.322123 34.238702 1.141013 1.786316 0.069470 -0.016821 -7440.390000 0 0 1
-13.974617 -29.842640 -8.625623 34.062802 1.132848 1.826811 0.099788 -0.034672 -107841.000000 0 0 1
-15.095217 -30.320140 -9.324423 35.130063 1.108861 1.839442 0.089356 -0.028160 -35731.300000 0 0 1
-15.317017 -29.513440 -10.652023 34.915895 1.092077 1.880815 0.104726 -0.027152 -431533.000000 0 0 1
-15.854517 -28.239140 -10.445923 34.028401 1.059214 1.882811 0.105919 -0.035698 113257.000000 0 0 1
-14.899717 -27.286640 -10.001323 32.658670 1.070995 1.882035 0.095334 -0.029596 -134979.000000 0 0 1
-15.419217 -25.899040 -9.636723 31.644572 1.033797 1.880241 0.089356 -0.018301 -280347.000000 0 0 1
-15.563617 -25.110540 -10.801423 31.455304 1.015942 1.921320 0.095278 -0.036233 305294.000000 0 0 1
-15.940117 -23.751640 -10.414623 30.441618 0.979719 1.919966 0.076466 -0.013330 -200343.000000 0 0 1
-16.598217 -22.956140 -11.560423 30.596218 0.944774 1.958257 0.093120 -0.014561 207267.000000 0 0 1
-17.938317 -23.404040 -11.732423 31.736132 0.916842 1.949468 0.102087 -0.024056 49779.100000 0 0 1
-18.514017 -22.900240 -12.902723 32.150740 0.890916 1.983753 0.111177 -0.032696 -1396480.000000 0 0 1
-19.997117 -23.068440 -13.061623 33.206078 0.856595 1.975069 0.101584 -0.022571 -1199390.000000 0 0 1
-20.428717 -24.382540 -13.266623 34.465113 0.873403 1.965927 0.131915 -0.026491 -166753.000000 0 0 1
-20.306617 -25.344440 -12.231923 34.703303 0.895308 1.931007 0.136687 -0.030469 -1504150.000000 0 0 1
-20.456617 -26.814340 -12.647423 36.019985 0.919091 1.929566 0.129828 -0.032344 276374.000000 0 0 1
-19.509317 -27.413140 -13.545523 36.270855 0.952276 1.953527 0.127973 -0.037947 1071250.000000 0 0 1
-18.138717 -27.264640 -13.114223 35.275438 0.983752 1.951707 0.129972 -0.039246 26135.200000 0 0 1
-17.309717 -28.485840 -13.427323 35.935531 1.024763 1.953738 0.107263 -0.034133 -553732.000000 0 0 1
-17.123317 -28.668540 -14.807123 36.528675 1.032375 1.988165 0.113645 -0.045679 -194701.000000 0 0 1
-16.328817 -29.793640 -15.134023 37.193143 1.069441 1.989858 0.135751 -0.046383 -31003.300000 0 0 1
-16.881617 -31.256140 -14.983723 38.554471 1.075581 1.969949 0.119847 -0.046203 -459498.000000 0 0 1
-17.172217 -31.562840 -13.641223 38.434111 1.072522 1.933630 0.124289 -0.039790 54482.100000 0 0 1
-17.524517 -32.904740 -13.498323 39.648901 1.081423 1.918188 0.105123 -0.032586 -971070.000000 0 0 1
-18.054417 -33.177840 -12.085523 39.658428 1.072439 1.880462 0.132688 -0.037865 932231.000000 0 0 1
-19.407017 -32.762440 -11.773923 39.857685 1.036017 1.870670 0.137695 -0.035080 1330470.000000 0 0 1
-19.756817 -31.321240 -11.741423 38.848590 1.008051 1.877833 0.146471 -0.038065 -164541.000000 0 0 1
-19.098217 -30.379240 -10.671123 37.436786 1.009569 1.859848 0.157359 -0.036997 -227493.000000 0 0 1
-19.336717 -30.887240 -9.371423 37.626504 1.011448 1.822510 0.162441 -0.039548 272143.000000 0 0 1
-19.004217 -29.914640 -8.428523 36.429191 1.004838 1.804279 0.148589 -0.026637 -195066.000000 0 0 1
-19.317317 -30.354040 -6.931023 36.641037 1.004041 1.761103 0.153128 -0.029166 -200217.000000 0 0 1
-18.392717 -31.267740 -6.352323 36.828191 1.039074 1.744149 0.148710 -0.033010 269352.000000 0 0 1
-18.641617 -31.572740 -4.970323 37.000702 1.037440 1.705534 0.147264 -0.044116 -526352.000000 0 0 1
-17.823317 -32.792440 -4.492523 37.592519 1.072942 1.690588 0.143137 -0.033348 1441140.000000 0 0 1
-16.413917 -32.567440 -4.228123 36.714191 1.103956 1.686216 0.122935 -0.019617 1345880.000000 0 0 1
-16.285517 -32.088940 -2.898323 36.101502 1.101157 1.651165 0.108929 -0.022907 290070.000000 0 0 1
-14.952217 -31.285240 -2.677223 34.777903 1.124958 1.647853 0.091320 -0.017668 1124660.000000 0 0 1
-13.755017 -32.037440 -2.845723 34.981369 1.165254 1.652236 0.056116 -0.010147 150853.000000 0 0 1
-12.624917 -31.229640 -2.555323 33.781780 1.186622 1.646511 0.048305 -0.002942 219494.000000 0 0 1
-11.301917 -31.996640 -2.445023 34.021999 1.231254 1.642724 0.045485 -0.006133 -546521.000000 0 0 1
-11.354017 -32.945540 -1.425223 34.876261 1.238914 1.611673 0.050712 0.001649 -265794.000000 0 0 1
-10.163517 -33.631140 -1.098823 35.150506 1.277317 1.602062 0.061110 -0.002364 -158486.000000 0 0 1
-9.156417 -32.834840 -0.250123 34.088550 1.298842 1.578134 0.069500 -0.013612 -631575.000000 0 0 1
-9.787117 -32.326540 0.908477 33.787841 1.276811 1.543905 0.083403 -0.011103 -90147.500000 0 0 1
-8.945517 -31.694540 1.875377 32.986106 1.295710 1.513912 0.067043 -0.012423 42075.100000 0 0 1
-7.916617 -32.509440 2.586177 33.559274 1.331928 1.493657 0.088705 -0.026558 -861005.000000 0 0 1
-8.645117 -33.399940 3.420177 34.669751 1.317519 1.471985 0.097519 -0.036295 411823.000000 0 0 1
-7.880117 33.566512 4.192077 34.732988 -1.340211 1.449807 0.120387 -0.026044 211681.000000 0 0 1
-6.788917 -33.832040 5.171377 34.891825 1.372761 1.422037 0.134145 -0.021556 -73877.600000 0 0 1
-5.695317 -33.262340 4.513477 34.046900 1.401217 1.437838 0.146851 -0.034419 -1218880.000000 0 0 1
-4.763217 -32.887840 5.466577 33.677615 1.426964 1.407754 0.151990 -0.041918 -102954.000000 0 0 1
-3.626917 -32.096540 4.728777 32.645118 1.458273 1.425431 0.153831 -0.044917 288275.000000 0 0 1
-4.061217 -30.799640 4.334577 31.367178 1.439693 1.432164 0.152550 -0.043851 343746.000000 0 0 1
-4.571217 -30.767440 3.020377 31.251465 1.423302 1.473998 0.131114 -0.041465 -196143.000000 0 0 1
-4.316917 -29.391440 2.426377 29.805701 1.424962 1.489300 0.133110 -0.040237 283486.000000 0 0 1
-3.040217 -29.296040 1.784577 29.507382 1.467391 1.510280 0.122212 -0.037977 278804.000000 0 0 1
-2.768317 -27.960040 1.288377 28.126275 1.472108 1.524973 0.100595 -0.028831 -56243.200000 0 0 1
-2.765117 -26.814440 2.351277 27.058983 1.468039 1.483792 0.081956 -0.028227 -468034.000000 0 0 1
-2.758217 -25.500140 1.815477 25.713049 1.463050 1.500132 0.076655 -0.031923 -151599.000000 0 0 1
-2.766017 -24.410140 2.719877 24.716463 1.457963 1.460530 0.056918 -0.025054 -445688.000000 0 1 0
-4.016217 -24.137740 3.557477 24.726830 1.405919 1.426424 0.061885 -0.023823 -430678.000000 0 1 0
-4.278717 -24.994640 4.649177 25.780890 1.401254 1.389470 0.087424 -0.021275 -602825.000000 0 0 1
-5.464317 -24.563940 5.240177 25.704190 1.351908 1.365492 0.077701 -0.020466 -467154.000000 0 0 1
-5.989217 -25.518040 6.341577 26.967697 1.340264 1.333419 0.098085 -0.024891 58757.800000 0 0 1
-5.115817 -25.679440 7.428777 27.217494 1.374152 1.294347 0.086027 -0.026983 -139890.000000 0 0 1
-5.770117 -26.575540 8.288977 28.429927 1.356993 1.274941 0.090925 -0.026481 329182.000000 0 0 1
-5.041617 -27.069440 9.566377 29.149409 1.386659 1.236416 0.084390 -0.021920 282967.000000 0 0 1
-4.420017 -26.160940 10.466877 28.521691 1.403422 1.195036 0.078608 -0.031848 259316.000000 0 0 1
-5.394817 -25.389840 11.152177 28.251002 1.361431 1.164997 0.089627 -0.029562 224766.000000 0 0 1
-4.743017 -24.413340 12.100377 27.657305 1.378907 1.117967 0.052318 -0.031530 296939.000000 0 0 1
-4.116817 -24.984040 13.292777 28.598048 1.407486 1.087372 0.046241 -0.036237 -328820.000000 0 0 1
-3.423717 -24.009440 13.957977 27.982140 1.429152 1.048563 0.058290 -0.038815 -632595.000000 0 0 1
-2.449317 -24.562540 14.985677 28.877120 1.471407 1.025178 0.073889 -0.041263 -452687.000000 0 0 1
-3.121917 -25.176340 16.070577 30.030949 1.447424 1.006130 0.077565 -0.045928 302698.000000 0 0 1
-2.248017 -26.060640 16.793377 31.084209 1.484748 1.000057 0.084417 -0.041549 623147.000000 0 0 1
-2.812217 -26.495240 18.213177 32.274233 1.465052 0.971180 0.104545 -0.043518 268740.000000 0 0 1
-2.792317 -25.447340 19.142677 31.965704 1.461504 0.928731 0.107790 -0.038445 -32804.500000 0 0 1
-3.701017 -25.661540 20.207977 32.872093 1.427560 0.908733 0.172636 -0.042901 -24260.200000 0 0 1
-3.504417 -24.686840 21.366577 32.836742 1.429784 0.862302 0.150879 -0.044651 285215.000000 0 0 1
-2.417217 -25.116840 22.225877 33.625708 1.474853 0.848674 0.121497 -0.043340 797061.000000 0 0 1
-2.056717 -24.185540 23.235477 33.601456 1.485961 0.807230 0.101794 -0.041786 101114.000000 0 0 1
-1.328417 -22.896840 22.777777 32.324250 1.512844 0.788845 0.112519 -0.048106 -13263.300000 0 0 1
-2.139617 -21.776540 22.454977 31.353176 1.472857 0.772462 0.133019 -0.044137 -192502.000000 0 0 1
-1.279917 -20.797440 21.946177 30.262293 1.509332 0.759473 0.130218 -0.039683 -444874.000000 0 0 1
-1.937717 -19.688740 21.035877 28.877489 1.472695 0.754736 0.109718 -0.016475 -201987.000000 0 0 1
-2.838717 -18.841140 21.745477 28.912154 1.421255 0.719520 0.103573 -0.030178 223732.000000 0 0 1
-4.089217 -19.352140 22.129977 29.681020 1.362554 0.729371 0.106622 -0.036546 -522188.000000 0 0 1
-5.255117 -19.374940 21.106277 29.128671 1.305936 0.760360 0.088990 -0.033805 -322334.000000 0 0 1
-5.174517 -20.171440 19.918577 28.816876 1.319684 0.807631 0.114401 -0.039392 -256962.000000 0 0 1
-5.404517 -21.578640 20.158477 30.020172 1.325388 0.834568 0.102426 -0.027209 20215.900000 0 0 1
-5.472617 -22.305940 18.799077 29.680125 1.330205 0.884871 0.096759 -0.030540 217584.000000 0 0 1
-6.049017 -23.617040 18.935177 30.869016 1.320057 0.910433 0.099137 -0.031904 -84499.400000 0 0 1
-6.101417 -24.162240 17.589277 30.502849 1.323449 0.956182 0.089595 -0.034343 377997.000000 0 0 1
-7.045217 -25.406340 17.541277 31.667232 1.300292 0.983725 0.064212 -0.043451 48298.000000 0 0 1
-8.398417 -25.196840 17.822277 31.985117 1.249065 0.979780 0.084930 -0.041053 -567523.000000 0 0 1
-9.077117 -26.454240 17.649677 33.071619 1.240259 1.007850 0.076999 -0.039212 123415.000000 0 0 1
-10.596117 -26.430140 17.847577 33.606041 1.189505 1.010919 0.094548 -0.038007 -868046.000000 0 0 1
-11.356117 -25.907140 16.761177 32.879756 1.157682 1.035877 0.117953 -0.038357 340848.000000 0 0 1
-12.754417 -25.904640 16.994877 33.504498 1.113279 1.038815 0.093054 -0.033655 346608.000000 0 0 1
-13.269217 -24.913040 18.038277 33.497927 1.081393 1.002153 0.087715 -0.035148 -1258940.000000 0 0 1
-13.282417 -23.592240 17.579977 32.281140 1.058028 0.994896 0.077550 -0.027476 -128136.000000 0 0 1
-13.313017 -22.711540 18.664877 32.271165 1.040602 0.954059 0.066815 -0.022091 103448.000000 0 0 1
-11.952617 -22.294840 19.261077 31.794875 1.078675 0.920036 0.062449 -0.021372 188959.000000 0 0 1
-11.237817 -23.227440 20.078677 32.694889 1.120179 0.909522 0.072533 -0.021719 951482.000000 0 0 1
-9.824217 -23.029340 19.979877 32.032191 1.167575 0.897273 0.087033 -0.032281 1156580.000000 0 0 1
-8.905417 -23.806940 20.998777 32.970070 1.212843 0.880320 0.087511 -0.037984 391926.000000 0 0 1
-9.043117 -23.517440 22.356177 33.684516 1.203699 0.845051 0.086319 -0.032622 -21171.500000 0 0 1
-8.124517 -24.238940 23.144077 34.484523 1.247381 0.835046 0.096602 -0.034513 -57137.400000 0 0 1
-8.264117 -24.032440 24.653477 35.406888 1.239590 0.800580 0.099255 -0.032339 -243388.000000 0 0 1
-7.244917 -24.564540 25.446677 36.103169 1.283994 0.788610 0.135125 -0.032304 -400249.000000 0 0 1
-7.073217 -24.013140 26.716877 36.612195 1.284341 0.752875 0.127575 -0.035373 -179996.000000 0 0 1
-5.862817 -24.604540 27.473577 37.343721 1.336876 0.744105 0.134707 -0.037404 750898.000000 0 0 1
-4.653917 -24.344240 26.743177 36.462289 1.381904 0.747416 0.132416 -0.034911 -208615.000000 0 0 1
-3.518117 -24.817740 27.386877 37.125980 1.429976 0.741177 0.129642 -0.028527 152321.000000 0 0 1
-2.208817 -24.070840 26.976777 36.221965 1.479289 0.730617 0.130033 -0.035769 173481.000000 0 0 1
-2.228617 -22.675340 27.199077 35.481370 1.472827 0.697308 0.124006 -0.040353 -404009.000000 0 0 1
-1.124817 -21.966840 26.683877 34.580870 1.519636 0.689386 0.127365 -0.046960 313192.000000 0 0 1
-0.019717 -21.761140 27.767077 35.278296 1.569890 0.664725 0.140317 -0.042289 20505.100000 0 0 1
0.684683 -22.903540 28.188077 36.326418 -1.540911 0.682551 0.130899 -0.032344 -269289.000000 0 0 1
1.590783 -22.629440 29.213277 36.986994 -1.500615 0.660272 0.117690 -0.046460 -290930.000000 0 0 1
2.263483 -23.895840 29.750577 38.226056 -1.476355 0.678874 0.125959 -0.053864 -1400500.000000 0 0 1
3.136883 -24.425040 28.857177 37.936253 -1.443067 0.706443 0.105048 -0.051065 -429464.000000 0 0 1
4.030083 -25.409340 29.320277 39.007112 -1.413500 0.720214 0.097870 -0.042128 -322158.000000 0 0 1
5.199383 -25.049740 30.245077 39.614237 -1.366140 0.702096 0.073249 -0.044900 -84411.300000 0 0 1
6.367283 -24.430540 29.708077 38.986709 -1.315840 0.704392 0.069898 -0.037698 927313.000000 0 0 1
7.250283 -25.256640 28.927177 39.079996 -1.291249 0.737422 0.062879 -0.026342 -93083.200000 0 0 1
8.495583 -24.539440 28.402177 38.484318 -1.237510 0.740666 0.058647 -0.015973 -25168.600000 0 0 1
8.122883 -23.713940 27.321077 37.077938 -1.240786 0.742389 0.069380 -0.028904 -260566.000000 0 0 1
9.201583 -23.498240 26.471477 36.572880 -1.197564 0.761502 0.056979 -0.011700 -338759.000000 0 0 1
9.005883 -22.309040 25.398177 34.983805 -1.187115 0.758312 0.076293 -0.022138 210343.000000 0 0 1
8.017583 -22.559740 24.406277 34.189032 -1.229325 0.775798 0.064137 -0.015337 149440.000000 0 0 1
7.692783 -21.387740 23.618577 32.778828 -1.225522 0.766210 0.075737 -0.008317 101325.000000 0 0 1
6.954283 -21.823340 22.347677 32.000608 -1.262307 0.797704 0.057576 -0.007202 -456724.000000 0 0 1
7.826383 -22.514540 21.530377 32.120304 -1.236248 0.836178 0.047875 -0.008226 -299823.000000 0 0 1
7.415983 -22.655440 20.213377 31.254542 -1.254451 0.867502 0.059450 -0.010377 44781.600000 0 0 1
8.338183 -23.673140 19.463377 31.761076 -1.232144 0.911190 0.088505 -0.035235 -130177.000000 0 0 1
9.588183 -23.108140 19.192277 31.531935 -1.177489 0.916424 0.099410 -0.028008 -968727.000000 0 0 1
10.339183 -24.174640 18.671077 32.247807 -1.166652 0.953310 0.103779 -0.034833 -260782.000000 0 0 1
11.615383 -23.679540 17.965577 31.912376 -1.114758 0.972826 0.098880 -0.031912 -125954.000000 0 0 1
11.342883 -22.968740 16.784277 30.625741 -1.112089 0.990771 0.110698 -0.021407 -262821.000000 0 0 1
12.518183 -22.677340 16.061477 30.478480 -1.066409 1.015756 0.089319 -0.023436 43593.600000 0 0 1
-12.791317 22.313212 11.429577 28.144847 -1.050269 1.152616 0.070079 -0.034628 64687.300000 0 0 1
-13.812117 21.436312 10.970277 27.760350 -0.998415 1.164535 0.051002 -0.039562 448051.000000 0 0 1
-13.174917 20.296412 10.424477 26.347533 -0.995036 1.164018 0.081900 -0.040849 196356.000000 0 0 1
-14.032117 19.572912 9.338577 25.830374 -0.948808 1.200883 0.093097 -0.040440 -248976.000000 0 0 1
-14.324117 20.408112 8.252177 26.263468 -0.958807 1.251175 0.097514 -0.037983 449877.000000 0 0 1
-15.101017 19.808512 7.165777 25.918453 -0.919438 1.290673 0.093729 -0.033171 715242.000000 0 0 1
-16.628017 19.768512 7.424277 26.877591 -0.871471 1.290932 0.086824 -0.036525 -170458.000000 0 0 1
-17.100217 18.784512 8.365577 26.744311 -0.832300 1.252658 0.076636 -0.042154 -809584.000000 0 0 1
-18.399917 19.080312 8.715377 27.902922 -0.803550 1.253134 0.078561 -0.035216 -1015600.000000 0 0 1
-19.072117 17.997212 9.586177 27.920245 -0.756409 1.220324 0.078082 -0.037835 -129238.000000 0 0 1
-19.239417 16.849612 8.823577 27.054022 -0.719275 1.238572 0.079520 -0.035140 -37459.000000 0 0 1
-19.658617 15.721812 9.659477 26.961863 -0.674583 1.204388 0.091745 -0.040271 -626808.000000 0 0 1
-18.762617 15.091112 10.696177 26.347403 -0.677368 1.152760 0.078757 -0.031002 -555334.000000 0 0 1
-17.768017 14.266612 10.132177 24.937916 -0.676530 1.152400 0.057551 -0.007048 -45756.200000 0 1 0
-17.004217 13.502712 11.066177 24.370615 -0.671121 1.099458 0.069403 -0.008819 27173.600000 0 1 0
-17.709417 12.379312 11.838577 24.637831 -0.610071 1.069567 0.060210 -0.004640 -529493.000000 0 1 0
-18.263517 11.417612 10.955177 24.164722 -0.558714 1.100271 0.048196 -0.009110 -34368.300000 0 1 0
-19.011817 10.541312 11.778277 24.724406 -0.506262 1.074260 0.060333 -0.010175 -170257.000000 0 1 0
-19.993217 9.643112 10.991777 24.769689 -0.449403 1.111007 0.064144 -0.017608 -486836.000000 0 1 0
-19.475317 8.693812 10.064277 23.583045 -0.419857 1.129890 0.047069 -0.013605 130235.000000 0 1 0
-19.112417 9.195412 8.777777 22.954073 -0.448432 1.178397 0.064330 -0.012792 -17363.500000 0 1 0
-20.233617 9.266012 7.690577 23.545768 -0.429447 1.238068 0.082896 -0.026873 206545.000000 0 1 0
-20.416817 8.007312 7.149477 23.066826 -0.373757 1.255660 0.056710 -0.033024 325327.000000 0 1 0
-21.408017 7.957412 6.141277 23.650346 -0.355877 1.308116 0.079563 -0.034757 -12401.900000 0 1 0
-21.524417 6.557912 5.581577 23.183199 -0.295739 1.327648 0.084707 -0.027328 -90232.700000 0 1 0
-22.194617 5.641412 6.468677 23.796435 -0.248908 1.295498 0.100654 -0.028896 594142.000000 0 1 0
-22.178217 4.319312 5.876277 23.346528 -0.192347 1.316362 0.120167 -0.044290 -665020.000000 0 1 0
-23.400817 3.426512 6.112077 24.427376 -0.145394 1.317895 0.163053 -0.039436 -857837.000000 0 1 0
-24.413017 3.803012 5.251177 25.259318 -0.154536 1.361378 0.192504 -0.048835 -664226.000000 0 0 1
-25.490047 2.907512 5.264077 26.189819 -0.113574 1.368421 0.216867 -0.052674 -542144.000000 0 0 1
-26.514857 3.200812 4.162277 27.029750 -0.120136 1.416192 0.219048 -0.055157 -328975.000000 0 0 1
-26.127267 2.878012 2.859077 26.440336 -0.109711 1.462451 0.212939 -0.051517 1008610.000000 0 0 1
-27.317937 2.717312 2.059577 27.529899 -0.099144 1.495914 0.206510 -0.047585 791108.000000 0 0 1
-27.039487 2.709212 0.598977 27.181473 -0.099861 1.548758 0.213552 -0.046193 -202224.000000 0 0 1
-26.498557 3.926212 0.120477 26.788116 -0.147097 1.566299 0.205046 -0.051875 226037.000000 0 0 1
-26.398927 3.959012 -1.317323 26.726624 -0.148859 1.620105 0.212140 -0.039261 -733452.000000 0 0 1
-27.668597 4.232012 -2.095623 28.068716 -0.151777 1.645526 0.203068 -0.045304 -7594.640000 0 0 1
-28.708347 3.224212 -2.030423 28.960099 -0.111841 1.640965 0.199663 -0.044538 1209380.000000 0 0 1
-29.946127 3.922212 -1.774023 30.253949 -0.130234 1.629468 0.181657 -0.032994 -292157.000000 0 0 1
-31.137837 3.005912 -1.897623 31.340092 -0.096237 1.631383 0.184833 -0.037988 -1003180.000000 0 0 1
-31.245607 2.546812 -3.264923 31.518787 -0.081330 1.674569 0.178937 -0.046061 230385.000000 0 0 1
-32.194437 1.513012 -3.333423 32.401893 -0.046962 1.673856 0.184594 -0.053363 -278294.000000 0 0 1
-32.450307 0.941112 -4.711023 32.803991 -0.028993 1.714906 0.183776 -0.051697 -835414.000000 0 0 1
-31.335407 0.409112 -5.357523 31.792737 -0.013055 1.740118 0.202380 -0.053631 -247858.000000 0 0 1
-31.532587 -0.412888 -6.491323 32.196456 0.013093 1.773804 0.203527 -0.043883 -149541.000000 0 0 1
-32.134087 0.342312 -7.741923 33.055318 -0.010652 1.807203 0.199372 -0.038029 142110.000000 0 0 1
-33.495997 0.702212 -7.657723 34.367363 -0.020961 1.795502 0.213470 -0.037604 55117.400000 0 0 1
-33.888317 1.462712 -8.798923 35.042525 -0.043136 1.824605 0.205835 -0.032844 -130414.000000 0 0 1
-35.356503 1.915312 -8.755923 36.474880 -0.054119 1.813217 0.212519 -0.035239 -91449.000000 0 0 1
-35.717123 2.460212 -7.499923 36.578878 -0.068772 1.777295 0.183789 -0.030240 -16222.200000 0 0 1
-37.038837 2.945512 -7.488823 37.902954 -0.079358 1.769684 0.181468 -0.031104 -126705.000000 0 0 1
37.093781 3.765912 -6.300023 37.812973 0.101177 1.738187 0.190606 -0.034002 1031780.000000 0 0 1
35.682551 4.088212 -6.230623 36.452415 0.114074 1.742565 0.181221 -0.039348 1411760.000000 0 0 1
35.223791 4.649312 -5.022423 35.882534 0.131235 1.711226 0.191327 -0.032161 267965.000000 0 0 1
33.763281 4.235212 -4.704123 34.351491 0.124787 1.708169 0.187969 -0.039877 -52858.000000 0 0 1
33.668341 2.930812 -4.211023 34.057004 0.086831 1.694760 0.178475 -0.037092 1254320.000000 0 0 1
32.294051 2.476312 -4.376623 32.683217 0.076530 1.705110 0.163419 -0.031559 1442370.000000 0 0 1
31.928451 1.183512 -3.639523 32.157002 0.037051 1.684219 0.190476 -0.020887 666.694000 0 0 1
32.792571 0.123012 -4.043823 33.041191 0.003751 1.693491 0.118484 -0.027838 298204.000000 0 0 1
32.576601 -1.111188 -3.452723 32.777903 -0.034097 1.676329 0.122620 -0.019512 347655.000000 0 0 1
33.701201 -2.134588 -3.859023 33.988519 -0.063254 1.684581 0.103885 -0.022120 286394.000000 0 0 1
33.738091 -3.384788 -3.189323 34.057119 -0.099991 1.664580 0.072468 -0.022313 175075.000000 0 0 1
35.012921 -4.009688 -3.303823 35.396292 -0.114024 1.664270 0.104933 -0.020446 424736.000000 0 0 1
35.047711 -5.440288 -2.750323 35.573909 -0.153996 1.648186 0.108117 -0.017187 -203856.000000 0 0 1
34.896081 -5.606688 -1.295923 35.367369 -0.159307 1.607446 0.103514 -0.008336 70331.000000 0 0 1
34.857311 -6.987688 -0.926323 35.562873 -0.197843 1.596847 0.132821 -0.011548 -236394.000000 0 0 1
34.227341 -7.395888 0.418977 35.019788 -0.212809 1.558832 0.133700 -0.008720 27240.800000 0 0 1
32.819451 -7.549488 0.327577 33.678159 -0.226098 1.561069 0.123314 -0.006107 9710.130000 0 0 1
32.254521 -7.602788 1.596177 33.176864 -0.231487 1.522667 0.160389 -0.018936 -805889.000000 0 0 1
32.105981 -9.038588 2.242877 33.429337 -0.274421 1.503653 0.159120 -0.013814 -507010.000000 0 0 1
31.095931 -9.877688 1.783577 32.675783 -0.307572 1.516185 0.169046 -0.019543 -518521.000000 0 0 1
29.795711 -9.454088 2.099877 31.330076 -0.307249 1.503722 0.169599 -0.021947 -1782440.000000 0 0 1
28.761001 -10.539388 1.874277 30.688545 -0.351251 1.509684 0.178263 -0.025501 -484407.000000 0 0 1
27.486101 -10.245188 2.413377 29.432533 -0.356788 1.488707 0.190161 -0.035733 1076440.000000 0 0 1
26.567301 -9.293388 1.860577 28.207273 -0.336502 1.504787 0.189174 -0.041555 -106333.000000 0 0 1
25.849101 -9.632588 0.547077 27.590978 -0.356706 1.550967 0.164273 -0.036510 -486393.000000 0 0 1
26.735001 -9.803588 -0.562523 28.481345 -0.351470 1.590548 0.153427 -0.042186 581604.000000 0 0 1
26.084501 -10.018288 -1.822823 28.001606 -0.366699 1.635939 0.148126 -0.040059 -10615.200000 0 0 1
25.364501 -11.365188 -2.007023 27.866710 -0.421252 1.642881 0.130435 -0.032688 -223909.000000 0 0 1
24.095601 -11.502888 -1.424923 26.738452 -0.445393 1.624113 0.138785 -0.018038 -179364.000000 0 0 1
23.533401 -12.738688 -1.733823 26.816064 -0.496141 1.635498 0.117308 -0.015276 -1147510.000000 0 0 1
22.076601 -12.888388 -1.405423 25.601993 -0.528425 1.625719 0.114886 -0.016885 -977755.000000 0 0 1
21.122201 -12.330188 -2.271423 24.562986 -0.528389 1.663402 0.110465 -0.014535 520582.000000 0 1 0
19.789401 -12.672488 -1.927123 23.578086 -0.569574 1.652621 0.104546 -0.013370 411466.000000 0 1 0
18.744801 -12.030688 -2.887023 22.459740 -0.570600 1.699695 0.098904 -0.012521 20309.000000 0 1 0
18.677301 -12.698988 -4.136223 22.961146 -0.597119 1.751925 0.105878 -0.025698 214785.000000 0 1 0
17.785201 -11.986988 -4.945023 22.010327 -0.593053 1.797399 0.099333 -0.026988 -218941.000000 0 1 0
17.910001 -12.435488 -6.430123 22.732267 -0.606912 1.857574 0.108479 -0.037423 -116370.000000 0 1 0
17.312301 -13.696888 -6.599723 23.040765 -0.669331 1.861302 0.121141 -0.037624 404841.000000 0 1 0
17.700601 -14.318188 -7.829023 24.075203 -0.680150 1.902009 0.130497 -0.040705 -90736.800000 0 1 0
16.695101 -15.384588 -8.315223 24.177570 -0.744569 1.921888 0.112026 -0.038788 67914.700000 0 1 0
15.468501 -14.900788 -8.830223 23.222421 -0.766707 1.960858 0.118375 -0.027650 256522.000000 0 1 0
14.836901 -15.959888 -9.522623 23.780917 -0.821846 1.982784 0.108128 -0.027273 -22601.900000 0 1 0
14.267501 -15.606488 -10.922023 23.799467 -0.830189 2.047574 0.110783 -0.044536 -312556.000000 0 1 0
13.140301 -14.753288 -10.969523 22.597731 -0.843160 2.077647 0.081708 -0.038570 101883.000000 0 1 0
13.316801 -13.366488 -10.775623 21.728190 -0.787260 2.089700 0.074564 -0.032865 -572664.000000 0 1 0
13.584301 -12.510988 -12.050623 22.051657 -0.744291 2.148943 0.094610 -0.021382 -294544.000000 0 1 0
14.763101 -12.700288 -12.784423 23.295663 -0.710428 2.151712 0.104239 -0.025875 -309843.000000 0 1 0
14.654601 -12.244888 -14.120923 23.750686 -0.696055 2.207500 0.122400 -0.025047 33231.300000 0 1 0
16.009201 -11.870588 -14.782423 24.813815 -0.638029 2.208975 0.123998 -0.041395 -381234.000000 0 1 0
16.849701 -12.913388 -14.983023 25.983822 -0.653906 2.185393 0.121916 -0.042631 -461341.000000 0 0 1
18.026801 -12.476488 -15.656723 26.939957 -0.605409 2.190963 0.118294 -0.040220 369140.000000 0 0 1
19.114001 -13.573888 -15.852723 28.300252 -0.617508 2.165378 0.109390 -0.035834 -86380.500000 0 0 1
20.003901 -13.626488 -14.753223 28.345984 -0.597991 2.118197 0.098647 -0.049979 -86816.900000 0 0 1
20.925101 -14.683488 -14.991323 29.634514 -0.611877 2.101191 0.066448 -0.040103 153055.000000 0 0 1
22.042601 -14.666988 -13.895523 29.901210 -0.587120 2.054108 0.058713 -0.044665 96266.900000 0 0 1
22.856701 -13.518488 -14.065323 30.050151 -0.534106 2.057892 0.066386 -0.040798 345367.000000 0 0 1
23.972801 -13.510488 -13.160623 30.502958 -0.513206 2.016900 0.059162 -0.043465 808608.000000 0 0 1
24.710801 -12.151288 -13.230623 30.550399 -0.457018 2.018698 0.068129 -0.033337 -259020.000000 0 0 1
23.914501 -11.242188 -12.480523 29.224195 -0.439442 2.012037 0.073032 -0.026565 301434.000000 0 0 1
24.137901 -9.848088 -12.605723 28.957337 -0.387378 2.021191 0.080335 -0.031895 -588278.000000 0 0 1
25.205101 -9.380588 -11.615123 29.295112 -0.356287 1.978483 0.078788 -0.033048 -142800.000000 0 0 1
26.450701 -9.984388 -11.931423 30.686910 -0.360936 1.970138 0.070928 -0.029040 -2620.630000 0 0 1
27.371901 -9.728188 -10.899323 31.026663 -0.341484 1.929744 0.085829 -0.033522 -771061.000000 0 0 1
28.739201 -10.340788 -11.138323 32.510549 -0.345392 1.920486 0.105157 -0.031936 -355780.000000 0 0 1
29.450301 -9.881588 -12.304423 33.412046 -0.323730 1.947936 0.088279 -0.028707 90346.900000 0 0 1
30.739321 -10.431988 -12.313523 34.718224 -0.327173 1.933358 0.074001 -0.027050 -346764.000000 0 0 1
31.587961 -10.100688 -13.558123 35.828004 -0.309489 1.958888 0.053105 -0.019214 -118061.000000 0 0 1
30.969291 -10.485788 -14.815423 35.896316 -0.326471 1.996244 0.048320 -0.018190 195679.000000 0 0 1
31.739951 -10.184288 -15.947623 36.952278 -0.310489 2.017033 0.037620 -0.014430 -305458.000000 0 0 1
31.328931 -10.847588 -17.355723 37.421828 -0.333329 2.053060 0.018196 -0.003126 406929.000000 0 0 1
30.116001 -10.413988 -17.980923 36.588772 -0.332925 2.084530 0.030594 -0.011308 546881.000000 0 0 1
30.076661 -9.130088 -18.621223 36.533737 -0.294720 2.105632 0.026011 -0.004730 341203.000000 0 0 1
28.593701 -8.929588 -19.077223 35.514472 -0.302696 2.137872 -0.003187 -0.014133 573792.000000 0 0 1
28.113201 -9.670188 -20.163423 35.922531 -0.331296 2.166756 -0.003891 -0.002832 -647276.000000 0 0 1
26.808301 -9.262688 -20.397923 34.936480 -0.332674 2.194268 0.029218 -0.003563 -836055.000000 0 0 1
26.230801 -9.694788 -21.723523 35.411231 -0.354024 2.231236 0.050838 -0.011771 -364658.000000 0 0 1
26.036401 -11.080788 -21.833123 35.740219 -0.402369 2.227973 0.050597 -0.011763 116360.000000 0 0 1
25.435601 -11.409488 -23.077423 36.189966 -0.421659 2.262272 0.069014 -0.020904 -811334.000000 0 0 1
25.501901 -12.914488 -23.508223 37.010370 -0.468765 2.259037 0.064092 -0.007632 210131.000000 0 0 1
26.733301 -13.408888 -23.951623 38.316418 -0.464911 2.246057 0.060398 -0.003063 -708770.000000 0 0 1
27.861701 -13.304088 -23.163423 38.598151 -0.445490 2.214444 0.044158 0.005442 -788524.000000 0 0 1
29.146201 -13.893288 -23.795423 40.109184 -0.444815 2.205906 0.041919 0.004976 332580.000000 0 0 1
29.817341 -13.127488 -24.788223 40.937278 -0.414728 2.221212 0.051596 -0.014140 1163540.000000 0 0 1
31.129481 -13.616088 -25.170663 42.284804 -0.412328 2.208392 0.030213 -0.010553 1236070.000000 0 0 1
31.782491 -12.946088 -26.432963 43.317773 -0.386813 2.227123 0.046115 -0.009083 193381.000000 0 0 1
31.424771 -13.526588 -27.702503 44.021738 -0.406472 2.251437 0.052062 -0.017764 734723.000000 0 0 1
32.335681 -13.046088 -28.720603 45.173772 -0.383484 2.259816 0.049447 -0.017872 584946.000000 0 0 1
32.286091 -13.823888 -30.032933 46.211131 -0.404551 2.278258 0.053026 -0.026016 -97058.800000 0 0 1
32.801951 -15.121488 -29.892873 46.885085 -0.431958 2.262146 0.072294 -0.023123 -123292.000000 0 0 1
32.869901 -15.918688 -31.048233 47.935663 -0.451004 2.275366 0.046519 -0.023212 -99036.400000 0 0 1
31.519751 -16.453088 -31.573013 47.550541 -0.481087 2.296937 0.048877 -0.014768 -48592.300000 0 0 1
30.855491 -15.495488 -32.394553 47.345311 -0.465402 2.324328 0.033674 -0.024126 340790.000000 0 0 1
29.714991 -16.156888 -32.955763 47.224019 -0.498016 2.343202 0.028884 -0.017720 213005.000000 0 0 1
29.044401 -15.382588 33.714485 47.083625 -0.487064 0.772661 0.040427 -0.019281 -309046.000000 0 0 1
28.291401 -14.289388 -33.650993 46.227473 -0.467702 2.386114 0.037204 -0.020231 -100434.000000 0 0 1
29.055401 -13.181188 -33.250213 46.081848 -0.425891 2.376830 0.044003 -0.021143 -446123.000000 0 0 1
28.151601 -11.995488 -32.874653 44.912661 -0.402805 2.392003 0.053198 -0.018087 331468.000000 0 0 1
27.535101 -11.363688 33.817744 45.066118 -0.391405 0.722125 0.057036 -0.013704 -381841.000000 0 0 1
26.720701 -10.354888 -33.597133 44.158656 -0.369704 2.435384 0.035192 -0.014725 -612712.000000 0 0 1
21.120483 -29.547040 9.263377 37.482163 -0.950201 1.321068 0.038678 -0.022905 -162208.000000 0 0 1
21.518383 -29.224140 7.982477 37.159267 -0.936107 1.354291 0.043568 -0.022093 -1101080.000000 0 0 1
22.798283 -29.677040 7.821477 38.231714 -0.915741 1.364761 0.069518 -0.019431 -1004640.000000 0 0 1
23.486883 -29.431240 6.443177 38.201389 -0.897260 1.401323 0.070173 -0.016984 206121.000000 0 0 1
23.967883 -28.093540 6.216977 37.448060 -0.864479 1.404008 0.066014 -0.016913 -139002.000000 0 0 1
24.533583 -27.994740 4.975377 37.554714 -0.851194 1.437922 0.067511 -0.011579 -250340.000000 0 0 1
24.506083 -26.462340 4.497577 36.346001 -0.823761 1.446735 0.071272 -0.019189 -125469.000000 0 0 1
25.309883 -25.678540 5.323477 36.446084 -0.792628 1.424207 0.065870 -0.016013 -101367.000000 0 0 1
25.197583 -24.328540 4.950877 35.373822 -0.767853 1.430377 0.052765 -0.007706 339954.000000 0 0 1
26.085183 -23.382940 5.830977 35.513363 -0.730826 1.405858 0.040300 -0.003750 161546.000000 0 0 1
27.482883 -23.395340 5.618877 36.527012 -0.705231 1.416355 0.046407 -0.006873 187452.000000 0 0 1
28.249883 -22.517540 6.422977 36.692644 -0.672961 1.394842 0.062911 -0.010208 -18056.300000 0 0 1
27.805483 -21.023740 6.545177 35.468040 -0.647394 1.385195 0.061326 -0.005743 -587107.000000 0 0 1
27.918783 -20.324140 5.288877 34.935675 -0.629255 1.418823 0.068431 0.003246 229261.000000 0 0 1
27.435983 -18.954340 5.384977 33.778664 -0.604563 1.410694 0.078641 -0.001767 82157.000000 0 0 1
27.556183 -18.035140 4.130477 33.191420 -0.579522 1.446029 0.080167 0.004427 -345714.000000 0 0 1
28.849583 -17.744540 3.672877 34.068419 -0.551427 1.462778 0.125080 -0.002002 -176488.000000 0 0 1
28.865783 -17.036340 2.426577 33.605931 -0.533176 1.498527 0.127628 0.004370 -383784.000000 0 0 1
29.831083 -15.886640 2.541677 33.893052 -0.489350 1.495735 0.153601 -0.017295 -327951.000000 0 0 1
29.478683 -14.984540 3.579977 33.261772 -0.470280 1.462957 0.155100 -0.021848 -59026.400000 0 0 1
30.505283 -14.045640 3.762377 33.793606 -0.431496 1.459231 0.188765 -0.029775 -113408.000000 0 0 1
30.299783 -12.882640 4.745477 33.264979 -0.402017 1.427651 0.193721 -0.030278 -17667.700000 0 0 1
30.161883 -13.362340 6.108477 33.550035 -0.417035 1.387704 0.182234 -0.034626 97700.300000 0 0 1
30.002283 -12.319540 7.009177 33.181872 -0.389628 1.357958 0.172024 -0.027963 -218231.000000 0 0 1
29.781083 -12.873140 8.435477 33.522946 -0.408003 1.316429 0.174702 -0.028817 1003120.000000 0 0 1
28.389683 -13.170540 8.717577 32.487434 -0.434369 1.299130 0.153101 -0.019244 1081780.000000 0 0 1
27.907683 -13.621240 9.997377 32.623987 -0.454068 1.259343 0.131536 -0.021138 -43584.800000 0 0 1
28.615383 -14.722940 10.808377 33.947403 -0.475189 1.246770 0.129255 -0.030105 -952931.000000 0 0 1
29.672683 -14.268740 11.582677 34.903058 -0.448228 1.232529 0.137827 -0.026080 -142374.000000 0 0 1
30.330183 -15.407640 12.169877 36.130614 -0.470025 1.227248 0.128434 -0.029547 438801.000000 0 0 1
31.284683 -15.347240 13.389177 37.330139 -0.456073 1.203954 0.126937 -0.031015 1124580.000000 0 0 1
32.566383 -14.750740 13.122277 38.083432 -0.425299 1.219019 0.126503 -0.032883 706257.000000 0 0 1
33.450083 -14.873240 14.211777 39.269530 -0.418387 1.200487 0.117940 -0.034993 616889.000000 0 0 1
34.961283 -14.692040 13.857777 40.375554 -0.397830 1.220451 0.111613 -0.034333 350804.000000 0 0 1
35.364083 -13.383840 13.666077 40.205811 -0.361799 1.223983 0.111877 -0.035147 -232240.000000 0 0 1
36.740683 -13.404140 13.382777 41.335790 -0.349826 1.241098 0.107373 -0.034165 -507392.000000 0 0 1
-37.227234 -11.996940 13.349577 41.328014 0.311754 1.241883 0.100777 -0.034942 -441418.000000 0 0 1
-35.891334 -12.005640 12.903377 39.985253 0.322800 1.242212 0.109267 -0.037240 -131717.000000 0 0 1
-35.199934 -10.788840 13.131977 39.088147 0.297411 1.228174 0.101038 -0.038797 -145547.000000 0 0 1
-33.880934 -10.669040 12.361277 37.610468 0.305068 1.235906 0.109377 -0.037443 160084.000000 0 0 1
-32.924634 -11.710740 12.633877 37.158954 0.341729 1.223884 0.102533 -0.034837 362147.000000 0 0 1
-33.106734 -12.947540 11.974977 37.511261 0.372797 1.245872 0.093680 -0.035722 -48093.700000 0 0 1
-31.914234 -13.952240 12.189577 36.902156 0.412141 1.234152 0.078700 -0.029045 1218920.000000 0 0 1
-30.711634 -13.645140 11.473877 35.511184 0.418103 1.241787 0.095599 -0.029562 579176.000000 0 0 1
-29.724434 -14.636340 11.749777 35.154256 0.457550 1.230003 0.103582 -0.027257 730047.000000 0 0 1
-28.347534 -14.466240 11.024277 33.680699 0.471867 1.237333 0.107989 -0.029292 646282.000000 0 0 1
-28.482434 -14.518640 9.625277 33.386913 0.471409 1.278351 0.096903 -0.024903 -95331.200000 0 0 1
-27.177834 -14.416640 9.138977 32.093537 0.487714 1.282040 0.099735 -0.020741 -218934.000000 0 0 1
-27.190234 -14.447140 7.561577 31.704986 0.488401 1.329977 0.116299 -0.013641 80188.500000 0 0 1
-27.494434 -15.734440 7.042777 32.451768 0.519786 1.352033 0.112749 -0.003982 155558.000000 0 0 1
-27.237534 -15.759440 5.653577 31.971959 0.524530 1.393032 0.112079 -0.002313 -305436.000000 0 0 1
-27.802034 -16.957140 4.856877 32.925476 0.547685 1.422745 0.101579 -0.001548 76817.600000 0 0 1
-29.188634 -16.815940 4.590877 33.997476 0.522670 1.435347 0.085112 -0.006123 181296.000000 0 0 1
-29.651734 -17.929340 3.864777 34.865787 0.543842 1.459721 0.091548 -0.000835 121204.000000 0 0 1
-31.182434 -18.153440 3.963277 36.298749 0.527205 1.461393 0.110370 -0.010151 139844.000000 0 0 1
-31.956734 -17.388240 3.075477 36.510852 0.498316 1.486462 0.137041 -0.011812 599403.000000 0 0 1
-33.350934 -17.572840 3.332177 37.844325 0.484941 1.482633 0.152530 -0.018966 805840.000000 0 0 1
-34.329934 -16.626240 2.585477 38.231675 0.451015 1.503118 0.121274 -0.019162 198831.000000 0 0 1
-34.618634 -17.063940 1.279377 38.616897 0.457961 1.537660 0.125306 -0.010881 366451.000000 0 0 1
-35.635034 -16.259140 0.686777 39.175081 0.428054 1.553264 0.166723 -0.015531 97093.400000 0 0 1
-36.176734 -16.859140 -0.606423 39.916844 0.436097 1.585989 0.148555 -0.024176 -760762.000000 0 0 1
-35.189534 -16.920840 -1.588423 39.078655 0.448209 1.611454 0.145513 -0.021749 -171140.000000 0 0 1
-35.382534 -17.935140 -2.527623 39.748986 0.469146 1.634429 0.125382 -0.024421 -361157.000000 0 0 1
-34.175434 -18.423640 -3.349323 38.969331 0.494429 1.656850 0.103016 -0.013055 -292646.000000 0 0 1
-34.521534 -19.426440 -4.301523 39.845025 0.512567 1.678963 0.108922 -0.033511 136937.000000 0 0 1
-33.399134 -20.113340 -4.800623 39.282243 0.542044 1.693311 0.091627 -0.029481 -423168.000000 0 0 1
-33.879934 -21.292440 -5.648623 40.411940 0.561089 1.711032 0.101528 -0.029923 62257.600000 0 0 1
-34.443134 -22.415340 -4.966923 41.393807 0.576932 1.691078 0.106726 -0.039407 331934.000000 0 0 1
-34.948534 -23.408640 -5.910323 42.477010 0.590171 1.710391 0.087259 -0.030292 6113.830000 0 0 1
-35.704034 -24.520440 -5.208323 43.625184 0.601791 1.690470 0.092300 -0.024032 -194229.000000 0 0 1
-34.797434 -25.436340 -4.618323 43.349714 0.631219 1.677535 0.098262 -0.017794 134706.000000 0 0 1
-35.368734 -26.642040 -4.144823 44.473871 0.645588 1.664129 0.082285 -0.015378 82156.100000 0 0 1
-34.243134 -27.557440 -3.616723 44.103123 0.677636 1.652895 0.079977 -0.007189 -565090.000000 0 0 1
-33.444134 -28.163540 -4.634723 43.967895 0.699894 1.676404 0.066648 -0.006132 391687.000000 0 0 1
-32.502734 -29.145240 -4.268523 43.864485 0.730990 1.668262 0.069501 0.001036 47333.300000 0 0 1
-31.386734 -28.754440 -3.287223 42.693685 0.741657 1.647868 0.082229 -0.002762 -999901.000000 0 0 1
-31.861934 -28.488640 -1.984023 42.786935 0.729561 1.617183 0.080785 -0.007886 -733144.000000 0 0 1
-30.865434 -28.320340 -1.060123 41.902751 0.742423 1.596099 0.082711 -0.009641 -986823.000000 0 0 1
-31.441034 -28.028440 0.305877 42.121558 0.728077 1.563534 0.077053 -0.012354 -26057.200000 0 0 1
-32.219734 -29.115740 0.724977 43.432283 0.734834 1.554103 0.066572 -0.013505 173873.000000 0 0 1
-32.975634 -28.893440 1.928077 43.885542 0.719512 1.526848 0.066387 -0.011097 280531.000000 0 0 1
-33.545834 -30.264540 2.443577 45.246397 0.734021 1.516764 0.057571 -0.005311 -227874.000000 0 0 1
-34.549734 -30.140640 3.439677 45.977970 0.717347 1.495915 0.050499 -0.006986 440360.000000 0 0 1
-35.044634 -31.394540 3.867177 47.209095 0.730514 1.488788 0.038037 -0.004693 685034.000000 0 0 1
-36.225134 -32.101040 3.080477 48.499757 0.725112 1.507238 0.028470 -0.001231 596808.000000 0 0 1
-36.952534 -33.100740 3.800877 49.755356 0.730470 1.494331 0.036792 -0.006762 256871.000000 0 0 1
36.595483 -33.731340 2.984477 49.859200 -0.744694 1.510902 0.040928 -0.010206 -581741.000000 0 0 1
35.569583 33.394912 3.858877 48.941867 0.753875 1.491868 0.043368 -0.013216 -4271.370000 0 0 1
34.750583 -33.843240 4.814577 48.745750 -0.772171 1.471866 0.035631 -0.014579 833822.000000 0 0 1
33.971683 -32.750340 4.277877 47.381012 -0.767095 1.480386 0.041300 -0.015061 568595.000000 0 0 1
32.817883 -32.902240 3.201677 46.581344 -0.786682 1.502009 0.054652 -0.012077 369025.000000 0 0 1
33.384783 -33.286340 1.953177 47.184098 -0.783922 1.529390 0.054611 -0.007287 449582.000000 0 0 1
32.480083 -32.993640 0.848877 46.306119 -0.793242 1.552463 0.056097 -0.000968 67738.100000 0 0 1
32.920583 -33.398740 -0.602123 46.899927 -0.792608 1.583635 0.059271 -0.010119 1321190.000000 0 0 1
34.092983 -32.836940 -1.254123 47.351547 -0.766634 1.597285 0.031010 -0.003921 755389.000000 0 0 1
35.343483 -33.167340 -0.687423 48.473774 -0.753645 1.584978 0.031948 0.000941 -179351.000000 0 0 1
36.530883 -33.001440 -1.649923 49.257717 -0.734682 1.604298 0.030121 -0.000389 -240382.000000 0 0 1
36.752183 33.683612 -2.403423 49.910771 0.741860 1.618969 0.031989 -0.006819 129745.000000 0 0 1
-36.771034 -33.949940 -3.344523 50.158681 0.745529 1.637525 0.029391 -0.004701 -290378.000000 0 0 1
-36.099034 32.718412 -3.971423 48.881560 -0.736313 1.652132 0.036367 -0.010678 277527.000000 0 0 1
-34.958634 32.216812 -3.276223 47.652520 -0.744605 1.639603 0.044725 -0.007936 199498.000000 0 0 1
-34.423834 31.149312 -4.013523 46.598158 -0.735503 1.657034 0.063051 -0.018025 1095430.000000 0 0 1
-33.070234 30.578412 -3.410123 45.169775 -0.746268 1.646364 0.078241 -0.022086 2106820.000000 0 0 1
-31.832134 31.351912 -3.564423 44.821114 -0.777798 1.650406 0.079622 -0.021523 1470900.000000 0 0 1
-30.683134 30.646912 -3.111823 43.478401 -0.784808 1.642429 0.101951 -0.029251 555930.000000 0 0 1
-30.357334 30.795512 -1.592823 43.272028 -0.792563 1.607614 0.089951 -0.020894 -1260680.000000 0 0 1
-31.355334 30.341912 -0.795123 43.639670 -0.768974 1.589018 0.063000 -0.016048 -1225930.000000 0 0 1
-30.994234 30.068212 0.523577 43.185808 -0.770234 1.558672 0.058608 -0.014080 -560238.000000 0 0 1
-32.129634 29.368612 1.241477 43.547331 -0.740532 1.542284 0.056005 -0.020898 -542299.000000 0 0 1
-32.386934 28.045412 0.827177 42.850237 -0.713680 1.551491 0.055562 -0.027381 114865.000000 0 0 1
-33.518934 27.979312 -0.025123 43.661899 -0.695563 1.571372 0.060514 -0.024973 -63426.900000 0 0 1
-33.938134 26.576012 -0.635323 43.110149 -0.664334 1.585534 0.076341 -0.017222 -31855.100000 0 0 1
-34.343034 25.580912 0.314777 42.824364 -0.640206 1.563446 0.079903 -0.021528 150345.000000 0 0 1
-34.617734 24.347612 -0.320923 42.323713 -0.612956 1.578379 0.096185 -0.003988 -276930.000000 0 0 1
-34.645034 23.125412 0.697777 41.659932 -0.588576 1.554046 0.100251 -0.016789 997122.000000 0 0 1
-33.367634 22.802412 1.306177 40.435814 -0.599477 1.538488 0.107373 -0.020681 1041950.000000 0 0 1
-32.973534 23.680412 2.337877 40.663024 -0.622813 1.513271 0.090737 -0.023159 -7538.730000 0 0 1
-31.456434 23.454712 2.687777 39.330076 -0.640695 1.502404 0.091238 -0.032239 766305.000000 0 0 1
-30.504934 24.058912 1.851277 38.894851 -0.667806 1.523181 0.085394 -0.032180 -115005.000000 0 0 1
-30.351434 25.477312 2.191477 39.687599 -0.698314 1.515550 0.060195 -0.029419 -281547.000000 0 0 1
-29.661734 26.259712 1.019477 39.628655 -0.724637 1.545068 0.047200 -0.026038 -654479.000000 0 0 1
-28.369234 25.849612 0.762077 38.387454 -0.738960 1.550943 0.050307 -0.023540 -1369710.000000 0 0 1
-27.796734 26.811612 -0.064923 38.620269 -0.767360 1.572477 0.053322 -0.017969 -190943.000000 0 0 1
-26.537134 26.227712 -0.704023 37.317663 -0.779534 1.589663 0.054011 -0.019363 -614868.000000 0 0 1
-26.912034 25.275012 -1.684823 36.958388 -0.754040 1.616399 0.067131 -0.017811 291711.000000 0 0 1
-25.853634 24.659712 -2.436323 35.811275 -0.761767 1.638881 0.071247 -0.010329 1411250.000000 0 0 1
-24.837434 23.714612 -1.625023 34.379087 -0.762276 1.618082 0.074581 -0.018101 944227.000000 0 0 1
-25.490434 22.501012 -1.235423 34.023287 -0.723188 1.607115 0.058300 -0.019340 686298.000000 0 0 1
-24.506034 21.524512 -0.822723 32.627093 -0.720716 1.596015 0.070769 -0.030792 -73389.500000 0 0 1
-25.094334 20.095912 -0.653723 32.155849 -0.675238 1.591128 0.096917 -0.033567 275612.000000 0 0 1
-26.044334 19.901012 0.398677 32.779819 -0.652477 1.558634 0.059865 -0.028774 1648590.000000 0 0 1
-27.369234 20.486612 0.258177 34.188344 -0.642558 1.563245 0.056977 -0.026385 1419760.000000 0 0 1
-28.368734 19.860212 -0.780223 34.638445 -0.610776 1.593323 0.075328 -0.026979 -59339.900000 0 0 1
-28.602234 18.500512 -0.541823 34.068318 -0.574137 1.586701 0.107859 -0.034954 -148149.000000 0 0 1
-29.629434 17.930212 -1.295223 34.656507 -0.544197 1.608178 0.123115 -0.022714 -319859.000000 0 0 1
-29.833634 16.438312 -1.115223 34.080897 -0.503610 1.603525 0.148225 -0.032995 -101822.000000 0 0 1
-30.489834 16.208212 0.113877 34.530408 -0.488602 1.567498 0.158228 -0.039430 120215.000000 0 0 1
-30.588934 14.863912 0.481377 34.012505 -0.452324 1.556643 0.171833 -0.040292 200564.000000 0 0 1
-29.270434 14.158712 0.953477 32.529011 -0.450539 1.541481 0.178797 -0.041551 67767.100000 0 0 1
-28.874034 14.332912 2.334977 32.320185 -0.460759 1.498488 0.189903 -0.042022 624042.000000 0 0 1
-27.530934 13.950312 2.612977 30.974041 -0.469004 1.486336 0.182843 -0.046248 393880.000000 0 0 1
-27.088534 12.478812 2.513977 29.930411 -0.431690 1.486703 0.194322 -0.040578 -496484.000000 0 0 1
-27.052034 12.008212 1.163577 29.620324 -0.417764 1.531503 0.177461 -0.041126 384648.000000 0 0 1
-26.517034 10.680312 1.181077 28.611486 -0.382894 1.529505 0.186231 -0.031989 -78092.200000 0 0 1
-26.613634 9.859612 -0.142623 28.381646 -0.354795 1.575822 0.169975 -0.028783 -757218.000000 0 0 1
-27.880534 9.605212 -0.652623 29.495935 -0.331778 1.592924 0.179018 -0.032758 -379504.000000 0 0 1
-27.805834 8.958512 -1.879023 29.273710 -0.311680 1.635029 0.178357 -0.035670 457478.000000 0 0 1
-29.194534 8.835212 -2.589323 30.611867 -0.293870 1.655483 0.181139 -0.039774 407696.000000 0 0 1
-29.130234 8.244112 -3.880723 30.522057 -0.275797 1.698286 0.182081 -0.036519 1460120.000000 0 0 1
-30.488934 8.059912 -4.363223 31.836693 -0.258443 1.708279 0.182989 -0.039431 1244160.000000 0 0 1
-11.937317 17.980512 -19.441223 29.047538 -0.984709 2.304049 0.122670 -0.021387 3202.780000 0 0 1
-12.054717 17.211412 -20.631823 29.448616 -0.959808 2.347040 0.109402 -0.023664 -508533.000000 0 0 1
-10.822617 17.096112 -21.274323 29.359885 -1.006432 2.381258 0.095640 -0.023401 -494706.000000 0 0 1
-10.751517 15.949712 -22.329723 29.472104 -0.977673 2.430511 0.091959 -0.022056 -219111.000000 0 0 1
-10.423017 14.655012 -21.944023 28.371619 -0.952576 2.455062 0.110895 -0.038954 -24023.800000 0 0 1
-10.243717 13.831312 -23.084223 28.794448 -0.933327 2.500914 0.107108 -0.038603 -46645.800000 0 0 1
-9.484217 12.515212 -22.710123 27.610334 -0.922312 2.536629 0.085182 -0.035358 210533.000000 0 0 1
-8.085817 12.544812 -22.896723 27.331532 -0.998259 2.563928 0.069513 -0.034058 -42783.700000 0 0 1
-7.490417 11.360412 -22.370823 26.184327 -0.987881 2.595113 0.060741 -0.025816 1257260.000000 0 0 1
-5.917117 11.392512 -22.237223 25.676753 -1.091760 2.618033 0.038394 -0.021476 1386000.000000 0 0 1
-5.296317 11.332312 -23.565723 26.679872 -1.133597 2.653603 0.036078 -0.025788 134232.000000 0 0 1
-3.882817 11.300012 -23.457223 26.325042 -1.239824 2.670474 0.032167 -0.023261 255450.000000 0 0 1
-3.199417 11.087912 -24.825523 27.376717 -1.289877 2.706454 0.056553 -0.036344 -261826.000000 0 0 1
-3.225317 9.752112 -25.215693 27.227514 -1.251391 2.754766 0.063691 -0.036496 334505.000000 0 0 1
-2.593617 9.470412 -26.484363 28.246009 -1.303485 2.786551 0.068967 -0.040548 -115556.000000 0 0 1
-2.318217 7.946012 -26.692373 27.946306 -1.286929 2.840897 0.076592 -0.025055 365733.000000 0 0 1
-1.173417 7.337512 -26.071113 27.109388 -1.412219 2.863937 0.061075 -0.027347 612986.000000 0 0 1
-1.054617 7.347712 -24.655023 25.748228 -1.428240 2.849150 0.068911 -0.044736 -170945.000000 0 0 1
-0.054017 6.271212 -24.129523 24.931203 -1.562183 2.887311 0.021678 -0.034107 308116.000000 0 1 0
1.334183 6.594012 -24.175423 25.094065 1.371159 2.870176 0.053899 -0.011991 399311.000000 0 0 1
2.076983 5.752912 -23.304323 24.093595 1.224328 2.884925 0.056486 -0.001178 6473.040000 0 1 0
2.120583 6.147912 -21.781623 22.731757 1.238648 2.851447 0.048994 -0.016095 -412152.000000 0 1 0
2.725383 7.382412 -21.556223 22.947733 1.217144 2.791561 0.052423 -0.026678 -15951.000000 0 1 0
2.198283 8.058312 -20.471123 22.109629 1.304479 2.754186 0.047539 -0.021379 -343545.000000 0 1 0
2.753783 9.457012 -20.384123 22.639144 1.287442 2.691468 0.044060 -0.026495 -575557.000000 0 1 0
2.471183 10.323812 -19.337023 22.059199 1.335850 2.639540 0.061201 -0.023184 3162.500000 0 1 0
3.179983 11.545612 -19.439523 22.832181 1.302032 2.589462 0.062048 -0.024402 533089.000000 0 1 0
4.514283 11.572512 -18.617223 22.380857 1.198865 2.553205 0.062559 -0.034000 509427.000000 0 1 0
5.576383 10.824112 -19.155623 22.697915 1.095077 2.575378 0.064366 -0.027456 -915094.000000 0 1 0
6.631883 10.761912 -18.263423 22.211556 1.018524 2.536147 0.066522 -0.022083 -218723.000000 0 1 0
7.705183 9.715112 -18.721723 22.455648 0.900269 2.556607 0.098991 -0.033006 13816.900000 0 1 0
7.301883 8.392112 -18.814723 21.857237 0.854755 2.607637 0.084101 -0.030478 76924.900000 0 1 0
6.731583 8.037112 -20.056023 22.630807 0.873567 2.659931 0.065650 -0.025229 -8191.060000 0 1 0
6.658783 6.519312 -20.228223 22.271547 0.774815 2.709889 0.077170 -0.029360 588414.000000 0 1 0
7.973883 5.947012 -20.310723 22.615818 0.640815 2.686172 0.083463 -0.023558 789534.000000 0 1 0
7.894383 4.581212 -20.724423 22.645319 0.525818 2.726737 0.075826 -0.014756 -206759.000000 0 1 0
7.967783 4.361212 -22.245923 24.028875 0.500811 2.753942 0.088222 -0.020555 -484794.000000 0 1 0
6.785983 4.697712 -22.912823 24.353963 0.605517 2.795854 0.090872 -0.027074 -303009.000000 0 1 0
6.860883 4.355112 -24.263523 25.588225 0.565597 2.818412 0.080298 -0.032570 193251.000000 0 0 1
5.692583 4.971212 -25.101713 26.214775 0.717854 2.849143 0.068235 -0.034272 196797.000000 0 0 1
5.747283 6.358412 -25.193733 26.611742 0.835838 2.813674 0.070722 -0.044021 190470.000000 0 0 1
5.495883 7.137212 -24.000623 25.635413 0.914597 2.782537 0.083363 -0.044553 -1017270.000000 0 0 1
5.470683 8.705712 -24.227323 26.318833 1.009755 2.740236 0.089508 -0.044768 -579525.000000 0 0 1
4.429483 9.224912 -24.959523 26.975861 1.123142 2.752501 0.080735 -0.045011 333388.000000 0 0 1
3.194683 9.297112 -24.205723 26.125836 1.239816 2.755813 0.082947 -0.041086 791614.000000 0 0 1
1.876883 9.599712 -24.967623 26.815282 1.377717 2.768204 0.087541 -0.032204 99586.000000 0 0 1
1.796183 10.953412 -25.382573 27.703402 1.408259 2.729353 0.098082 -0.041055 -463355.000000 0 0 1
0.846283 11.133512 -26.364583 28.631495 1.494930 2.740986 0.121172 -0.044479 -484054.000000 0 0 1
0.531783 12.626812 -26.559713 29.413220 1.528706 2.697464 0.106779 -0.043133 -82493.400000 0 0 1
-0.064817 13.348012 -25.506493 28.788101 -1.565940 2.659460 0.096778 -0.045681 95107.700000 0 0 1
-0.763117 14.480712 -25.931853 29.710846 -1.518146 2.631722 0.101100 -0.046548 -150969.000000 0 0 1
-1.274117 15.379312 -24.797723 29.207425 -1.488139 2.584926 0.108903 -0.046470 -350500.000000 0 0 1
-2.238617 14.708112 -24.028623 28.261540 -1.419753 2.587206 0.094037 -0.041967 -578064.000000 0 0 1
-2.498917 15.415812 -22.860423 27.685570 -1.410093 2.542267 0.094173 -0.049519 -1203780.000000 0 0 1
-3.782217 14.919712 -22.161723 26.982307 -1.322522 2.534557 0.084400 -0.039350 -124663.000000 0 0 1
-4.986017 15.316012 -22.769023 27.890302 -1.256074 2.525907 0.078940 -0.039038 -299141.000000 0 0 1
-5.281817 14.896812 -24.074423 28.799139 -1.230065 2.560644 0.074516 -0.039614 -152230.000000 0 0 1
-6.806117 15.035212 -24.479923 29.523676 -1.145717 2.548404 0.050380 -0.033295 951311.000000 0 0 1
-7.332017 16.292512 -24.691623 30.477543 -1.147923 2.515218 0.053334 -0.031484 -275562.000000 0 0 1
-8.654217 16.241712 -25.148323 31.162907 -1.081224 2.509843 0.060304 -0.027454 -109530.000000 0 0 1
-9.512017 17.513712 -25.463283 32.335543 -1.073252 2.477490 0.071359 -0.024727 415733.000000 0 0 1
-9.988517 18.293812 -24.375823 32.072024 -1.071025 2.434161 0.072461 -0.024830 106694.000000 0 0 1
-11.154017 18.980112 -24.795323 33.158178 -1.039493 2.415522 0.060544 -0.009569 339318.000000 0 0 1
-11.579817 20.232512 -24.018723 33.471566 -1.050966 2.371126 0.049228 -0.011512 526049.000000 0 0 1
-10.689117 21.358212 -24.219723 34.015076 -1.106774 2.363180 0.067989 -0.009606 791004.000000 0 0 1
-11.379217 22.616612 -24.136023 34.979212 -1.104644 2.332300 0.044545 -0.010593 161692.000000 0 0 1
-11.344317 23.224112 -25.594083 36.374578 -1.116414 2.351283 0.042862 -0.000957 -278645.000000 0 0 1
-11.930617 22.377112 -26.590133 36.743842 -1.080973 2.379890 0.040085 -0.000093 149474.000000 0 0 1
-11.799017 22.872112 -27.903733 37.960092 -1.094534 2.396582 0.057967 0.005249 -206086.000000 0 0 1
-12.378217 21.828012 -28.933113 38.298921 -1.054935 2.427145 0.059161 -0.000142 213784.000000 0 0 1
-11.528817 20.770212 -29.367063 37.772208 -1.064073 2.461442 0.067030 -0.007315 -91502.500000 0 0 1
-11.240417 19.776812 -28.406003 36.391898 -1.053964 2.466355 0.063532 -0.007463 135695.000000 0 0 1
-10.316917 18.678912 -29.018113 36.019320 -1.066166 2.507528 0.060980 -0.013678 180639.000000 0 0 1
-9.020417 19.215812 -29.276663 36.162665 -1.131905 2.514237 0.050458 -0.016751 130040.000000 0 0 1
-8.100517 18.396112 -29.953233 36.072586 -1.156006 2.550550 0.051295 -0.015109 446435.000000 0 0 1
-7.455217 17.226912 -29.185583 34.700792 -1.162366 2.570043 0.066385 -0.031690 -648874.000000 0 0 1
-8.361317 16.136612 -29.130873 34.335253 -1.092728 2.583798 0.063083 -0.032138 9964.400000 0 0 1
-8.013017 14.990012 -28.350033 33.055003 -1.079887 2.601503 0.046581 -0.036660 -333451.000000 0 0 1
-9.252317 14.084812 -28.191633 32.844413 -0.989586 2.602819 0.056514 -0.024745 257583.000000 0 0 1
-10.224317 14.679812 -27.345443 32.677313 -0.962431 2.562268 0.062960 -0.024893 -527577.000000 0 0 1
-11.327817 13.866812 -27.149863 32.522653 -0.885834 2.558563 0.114913 -0.028248 -389145.000000 0 0 1
-12.409617 14.337212 -26.166803 32.314947 -0.857342 2.514510 0.104709 -0.023723 104659.000000 0 0 1
-13.110417 15.476712 -26.667563 33.504784 -0.867985 2.491344 0.090947 -0.017383 81924.400000 0 0 1
-13.918817 16.014212 -25.603053 33.252139 -0.855287 2.449586 0.098383 -0.019296 361852.000000 0 0 1
-14.923117 17.108112 -26.025943 34.536019 -0.853507 2.424300 0.082469 -0.014127 48175.900000 0 0 1
-14.466117 18.465612 -26.096903 35.089823 -0.906254 2.409410 0.065163 -0.009803 -24627.600000 0 0 1
-15.528617 19.335312 -26.358573 36.190697 -0.894155 2.386670 0.053099 -0.001918 -138760.000000 0 0 1
-14.980317 20.759212 -26.272463 36.682381 -0.945705 2.369160 0.041682 0.000740 166531.000000 0 0 1
-15.914017 21.734712 -26.701993 37.929540 -0.938789 2.351795 0.026744 0.003646 470135.000000 0 0 1
-15.341517 23.074012 -26.776633 38.532586 -0.984030 2.339089 0.017419 0.006326 -53584.800000 0 0 1
-14.974917 23.775712 -25.466033 37.921648 -1.008723 2.307086 -0.002344 0.007857 -189792.000000 0 0 1
-14.449417 25.087012 -25.732863 38.734016 -1.048232 2.297417 0.013385 0.002500 210079.000000 0 0 1
-14.485517 25.816012 -24.517223 38.436843 -1.059467 2.262509 0.011592 -0.000006 90129.800000 0 0 1
-13.997617 27.304412 -24.661823 39.365844 -1.097080 2.247822 0.039267 -0.002182 683564.000000 0 0 1
-15.085917 28.038812 -25.224713 40.620758 -1.077184 2.240790 0.051785 -0.007339 382367.000000 0 0 1
-15.537217 29.092412 -24.421523 41.038814 -1.080270 2.208166 0.054237 -0.013720 -617232.000000 0 0 1
-16.856517 29.704812 -24.857423 42.242271 -1.054641 2.199936 0.049618 -0.014377 -53404.100000 0 0 1
-17.884417 28.716112 -24.945923 42.032922 -1.013780 2.206179 0.025223 -0.006253 262070.000000 0 0 1
-19.171017 29.295512 -25.138503 43.101035 -0.991333 2.193515 0.028518 -0.008857 869984.000000 0 0 1
-20.330917 28.244312 -25.209803 42.972334 -0.946890 2.197715 0.029946 0.000646 204047.000000 0 0 1
-20.667217 27.746212 -23.950723 42.078774 -0.930589 2.176314 0.033146 -0.007999 -49139.400000 0 0 1
-21.633217 26.718012 -24.178223 42.028974 -0.890177 2.183737 0.041981 -0.017844 -116172.000000 0 0 1
-22.267317 26.335112 -22.807023 41.346485 -0.868899 2.155086 0.044257 -0.022771 -184436.000000 0 0 1
-23.202117 27.263512 -22.265023 42.158849 -0.865704 2.127184 0.051397 -0.021908 180393.000000 0 0 1
-23.435417 27.131012 -20.877323 41.487024 -0.858352 2.098123 0.042532 -0.010707 -254033.000000 0 0 1
-24.517717 28.077612 -20.316123 42.452509 -0.852980 2.069812 0.035603 -0.006510 1020110.000000 0 0 1
-25.869697 27.613912 -20.549423 43.058659 -0.817999 2.068310 0.077938 -0.020646 1498680.000000 0 0 1
-26.877037 28.636212 -20.553823 44.326824 -0.817077 2.052950 0.090511 -0.022366 1110680.000000 0 0 1
-28.313277 28.108112 -20.868123 45.024284 -0.781762 2.052722 0.096384 -0.016856 486319.000000 0 0 1
-28.555807 27.678312 -22.192723 45.541629 -0.769795 2.079799 0.088187 -0.022096 -612738.000000 0 0 1
-29.906917 27.402312 -22.374723 46.324276 -0.741723 2.074876 0.092952 -0.016101 -687664.000000 0 0 1
-30.180707 27.019412 -23.825923 46.995726 -0.730187 2.102475 0.081078 -0.021579 -16863.300000 0 0 1
-29.964557 25.673412 -24.158123 46.266766 -0.708424 2.120165 0.080391 -0.006582 -38560.700000 0 0 1
-30.045557 25.417512 -25.527033 46.908579 -0.702147 2.146216 0.086615 -0.007396 -122306.000000 0 0 1
-30.230797 23.946212 -25.897123 46.454097 -0.669913 2.162141 0.071655 -0.013276 307370.000000 0 0 1
-29.113587 23.042212 -25.823603 45.226131 -0.669511 2.178506 0.074525 -0.015518 379926.000000 0 0 1
-29.391197 21.823712 -26.519383 45.203921 -0.638700 2.197726 0.070632 -0.014893 -143417.000000 0 0 1
-28.311687 20.747612 -26.281653 43.849062 -0.632420 2.213506 0.075577 -0.011048 -44182.400000 0 0 1
-28.314547 20.028712 -25.051633 42.783725 -0.615652 2.196344 0.068587 -0.005020 165335.000000 0 0 1
-27.506287 18.853212 -25.161513 41.774886 -0.600870 2.217191 0.073849 -0.008203 221501.000000 0 0 1
-28.342517 17.550312 -25.300533 41.850074 -0.554434 2.219999 0.055863 -0.000047 698.375000 0 0 1
-29.057347 17.427812 -26.505573 43.018640 -0.540253 2.234631 0.057119 -0.007166 151523.000000 0 0 1
-29.726897 16.184512 -26.506543 42.990971 -0.498564 2.235163 0.034006 -0.008397 -322443.000000 0 0 1
-30.612817 15.843912 -27.711433 44.227792 -0.477595 2.247930 0.015398 -0.016245 -286921.000000 0 0 1
-31.776167 16.650712 -27.702213 45.325308 -0.482663 2.228355 0.010805 -0.018459 150061.000000 0 0 1
-32.625657 16.011612 -28.689743 46.302338 -0.456234 2.239052 0.016088 -0.013751 315801.000000 0 0 1
-33.922377 16.766512 -29.034913 47.695594 -0.459046 2.225286 0.021029 -0.014678 -164480.000000 0 0 1
-34.995281 16.613012 -28.159413 47.891694 -0.443221 2.199357 0.005171 -0.009086 -72130.100000 0 0 1
-36.225657 17.047612 -28.726093 49.275833 -0.439848 2.193170 0.026381 -0.009811 -11201.100000 0 0 1
37.111551 16.598112 -27.894953 49.304086 0.420564 2.172168 0.041565 -0.011539 -519537.000000 0 0 1
36.772301 17.449912 -26.832133 48.751050 0.443073 2.153629 0.041795 -0.023082 -259765.000000 0 0 1
35.682541 16.915212 -26.125583 47.348856 0.442671 2.155279 0.059950 -0.022875 -10758.300000 0 0 1
35.106491 17.906212 -25.048503 46.696098 0.471659 2.136980 0.074480 -0.018037 90503.100000 0 0 1
34.288481 18.949812 -25.518553 46.754591 0.504882 2.148137 0.076666 -0.036014 -951.502000 0 0 1
34.017831 19.960712 -24.551123 46.458588 0.530636 2.127572 0.092115 -0.020993 -580520.000000 0 0 1
33.390901 21.188612 -25.211533 46.899157 0.565446 2.138348 0.101581 -0.029565 -25720.500000 0 0 1
32.078521 20.940312 -25.669433 46.113424 0.578329 2.161154 0.104567 -0.037633 29367.300000 0 0 1
31.066911 21.345812 -24.744423 45.089722 0.602010 2.151703 0.096430 -0.021835 -51053.600000 0 0 1
29.696731 21.482412 -25.442483 44.617370 0.626254 2.177591 0.055324 -0.027973 -58953.100000 0 0 1
29.246701 20.196712 -25.871293 43.961352 0.604365 2.200000 0.064668 -0.037807 -164566.000000 0 0 1
28.002801 20.375512 -26.528253 43.624151 0.629026 2.224473 0.073316 -0.038847 -19492.900000 0 0 1
27.366901 18.991712 -26.928973 42.834588 0.606665 2.250643 0.083735 -0.023900 -37318.200000 0 0 1
28.069701 18.112812 -27.815823 43.470703 0.573050 2.265132 0.092401 -0.039957 1017370.000000 0 0 1
29.281201 17.511212 -27.297593 43.694277 0.538974 2.245596 0.099406 -0.037449 1104590.000000 0 0 1
30.159081 16.595612 -28.223053 44.514326 0.503050 2.257539 0.078474 -0.030328 345031.000000 0 0 1
29.631111 15.289512 -28.619683 43.941531 0.476362 2.280110 0.083136 -0.036916 441211.000000 0 0 1
29.013801 14.449412 -27.598603 42.570753 0.462061 2.276145 0.091968 -0.031134 -52475.900000 0 0 1
29.926691 13.759912 -26.570833 42.319631 0.430963 2.249598 0.081449 -0.017342 -148621.000000 0 0 1
30.431951 14.599112 -25.552233 42.333843 0.447300 2.218791 0.080992 -0.025336 749686.000000 0 0 1
31.511021 14.030412 -24.780223 42.471830 0.418900 2.193768 0.065216 -0.012170 657381.000000 0 0 1
-14.890917 -31.232540 -24.087823 42.159627 1.125900 2.178944 0.161260 -0.036701 -21161.600000 0 0 1
-14.186517 -30.147540 -24.642823 41.441527 1.130969 2.207615 0.157854 -0.040467 -10147.400000 0 0 1
-14.529517 -29.877440 -25.959053 42.162077 1.118165 2.234066 0.137406 -0.036670 346138.000000 0 0 1
-13.811317 -28.579340 -26.480503 41.337007 1.120628 2.266076 0.138719 -0.037135 540667.000000 0 0 1
-14.357217 -27.433540 -25.817073 40.314390 1.088647 2.265807 0.134360 -0.023627 204756.000000 0 0 1
-13.626217 -26.318540 -26.240183 39.583918 1.093056 2.295482 0.110937 -0.020623 -632413.000000 0 0 1
-14.065517 -24.972040 -25.774273 38.545489 1.057837 2.303217 0.069336 -0.007960 -453784.000000 0 0 1
-13.513017 -24.638940 -24.522723 37.296688 1.069150 2.288298 0.089472 -0.020744 137241.000000 0 0 1
-13.919617 -23.352140 -24.174123 36.379478 1.033268 2.297619 0.067750 -0.015762 -169965.000000 0 0 1
-13.521217 -22.811240 -22.759423 34.945204 1.035729 2.280078 0.081065 -0.018851 1184690.000000 0 0 1
-12.101817 -22.544440 -22.667323 34.183523 1.078145 2.295758 0.115128 -0.032103 872383.000000 0 0 1
-11.781217 -21.881440 -21.496923 32.858974 1.076894 2.283944 0.093418 -0.025640 -599615.000000 0 0 1
-10.287517 -21.621240 -21.454123 32.149501 1.126691 2.301406 0.099013 -0.032189 -696495.000000 0 0 1
-9.963517 -20.572840 -22.328023 31.953936 1.119784 2.344454 0.113954 -0.038438 434331.000000 0 0 1
-8.552217 -20.475440 -22.515223 31.612012 1.175141 2.363475 0.144610 -0.043472 456985.000000 0 0 1
-8.187817 -19.281340 -23.415723 31.418251 1.169222 2.411767 0.155162 -0.036755 -403751.000000 0 0 1
-8.116317 -18.055640 -22.665823 30.093525 1.148344 2.423678 0.122192 -0.034395 -100812.000000 0 0 1
-8.053217 -16.861040 -23.413223 29.955433 1.125210 2.468026 0.099385 -0.032584 354791.000000 0 0 1
-6.840717 -16.662140 -24.395723 30.324472 1.181224 2.505612 0.117451 -0.038419 318061.000000 0 0 1
-6.788817 -17.537140 -25.504283 31.687659 1.201450 2.506244 0.117825 -0.042142 263841.000000 0 0 1
-5.763917 -17.028340 -26.369183 31.914274 1.244412 2.543215 0.100769 -0.034427 396160.000000 0 0 1
-5.802017 -17.742240 -27.734033 33.430930 1.254741 2.549173 0.101656 -0.031562 -329116.000000 0 0 1
-6.904017 -17.388940 -28.508823 34.099760 1.192849 2.560825 0.096861 -0.027788 -561944.000000 0 0 1
-6.932417 -18.137240 -29.680673 35.467735 1.205711 2.562274 0.106215 -0.028185 794088.000000 0 0 1
-7.998317 -17.599240 -30.747403 36.319542 1.144232 2.580323 0.103073 -0.029419 649495.000000 0 0 1
-7.659517 -16.557740 -31.567743 36.460243 1.137518 2.617569 0.069644 -0.019844 -346591.000000 0 0 1
-7.414917 -15.270040 -30.969753 35.316861 1.118746 2.640194 0.051643 -0.013365 187743.000000 0 0 1
-7.893917 -14.120240 -31.877083 35.746937 1.061032 2.671979 0.039226 -0.014681 -75374.800000 0 0 1
-7.068517 -13.984740 -33.066513 36.591408 1.102802 2.699057 0.072165 -0.023986 383249.000000 0 0 1
-7.584217 -13.106840 33.726499 36.970073 1.046227 0.422016 0.068448 -0.018342 -444085.000000 0 0 1
-7.869317 -11.604240 -33.774163 36.568820 0.974892 2.748107 0.052274 -0.009943 -302206.000000 0 0 1
-6.762517 -10.743340 -33.744833 36.053637 1.008995 2.781778 0.057782 -0.010071 -431887.000000 0 0 1
-6.321017 -10.355440 32.808994 34.980287 1.022761 0.354189 0.050436 -0.015180 454655.000000 0 0 1
-5.035917 -9.461640 32.760369 34.469187 1.081686 0.316197 0.066112 -0.018690 359536.000000 0 0 1
-4.931817 -8.729040 31.544154 33.099133 1.056518 0.307740 0.054371 -0.012004 882533.000000 0 0 1
-3.802517 -7.795240 31.574114 32.743695 1.116956 0.268082 0.056047 -0.019773 523692.000000 0 0 1
-3.988417 -6.662440 30.455314 31.429631 1.031376 0.249646 0.052440 -0.015625 753508.000000 0 0 1
-5.090417 -5.759440 30.664504 31.613214 0.846982 0.245606 0.039570 -0.013065 1171620.000000 0 0 1
-6.369617 -6.339440 30.340694 31.643612 0.783024 0.287960 0.034001 -0.013006 359142.000000 0 0 1
-7.586017 -5.396340 30.337484 31.733753 0.618305 0.297745 0.023934 -0.011109 734932.000000 0 0 1
-8.729317 -6.052640 29.768274 31.606732 0.606262 0.342752 0.025947 -0.006038 -34893.900000 0 0 1
-9.887517 -5.259640 29.715924 31.756305 0.488878 0.360420 0.029316 -0.008550 58486.000000 0 0 1
-10.956217 -5.857140 28.767324 31.335342 0.490939 0.407670 0.038336 -0.008872 -123247.000000 0 0 1
-10.564017 -5.774340 27.432804 29.958307 0.500233 0.413551 0.027722 -0.013708 -278001.000000 0 0 1
-11.380017 -6.441340 26.549484 29.595113 0.515061 0.457657 0.042161 -0.021612 -493522.000000 0 0 1
-11.108617 -6.072840 25.036444 28.055379 0.500289 0.468174 0.041936 -0.018884 638174.000000 0 0 1
-9.909217 -6.732040 24.575274 27.339660 0.596747 0.453573 0.039802 -0.014035 803496.000000 0 0 1
-9.317717 -6.079240 23.441204 25.947390 0.578088 0.443133 0.044964 -0.018003 -478379.000000 0 0 1
-9.962417 -6.326540 22.077524 25.033815 0.565787 0.490902 0.058618 -0.029495 -852735.000000 0 0 1
-11.276817 -5.869740 22.150824 25.539762 0.479924 0.521029 0.051828 -0.023807 -918437.000000 0 0 1
-11.955217 -6.101940 20.954324 24.884625 0.471933 0.569707 0.061372 -0.029264 -441330.000000 0 1 0
-13.116017 -5.126540 20.784824 25.106179 0.372603 0.595485 0.068162 -0.023463 -674310.000000 0 0 1
-12.734817 -3.838540 20.476024 24.416746 0.292760 0.576078 0.032407 -0.014910 -957080.000000 0 1 0
-13.746217 -2.925440 20.619124 24.953255 0.209689 0.598272 0.045116 -0.013757 -599921.000000 0 1 0
-13.457417 -1.571440 19.990024 24.148965 0.116245 0.595658 0.017201 -0.004530 -402110.000000 0 1 0
-12.657117 -0.665440 20.661624 24.239392 0.052526 0.550241 0.031597 -0.009663 -377354.000000 0 1 0
-13.060117 0.707560 20.657024 24.449538 -0.054124 0.564448 0.045608 -0.012016 -533465.000000 0 1 0
-13.033717 1.487560 19.359024 23.385089 -0.113640 0.595557 0.060629 -0.014435 452513.000000 0 1 0
-13.818217 0.926560 18.269524 22.925469 -0.066953 0.648634 0.074785 -0.014351 -51929.700000 0 1 0
-15.164717 1.301560 18.348924 23.840002 -0.085618 0.692473 0.070369 -0.013760 -886943.000000 0 1 0
-16.006817 0.502560 17.361524 23.619764 -0.031386 0.745067 0.084031 -0.015200 -407459.000000 0 1 0
-16.177417 -0.823440 17.776924 24.050070 0.050857 0.738969 0.079633 -0.012107 857796.000000 0 1 0
-17.134317 -1.521440 16.944524 24.145734 0.088563 0.792931 0.081953 -0.000220 401327.000000 0 1 0
-17.161117 -3.021440 17.260224 24.526483 0.174277 0.790151 0.092356 0.004678 -35232.900000 0 1 0
-17.506817 -3.215840 18.604124 25.747693 0.181666 0.763305 0.079873 0.001373 113305.000000 0 0 1
-17.614817 -4.620240 18.806824 26.178713 0.256515 0.769295 0.084847 0.006278 -52792.800000 0 0 1
-18.488017 -4.969340 20.019224 27.699647 0.262581 0.763059 0.063499 0.013988 -164891.000000 0 0 1
-17.899117 -4.426340 21.187024 28.086667 0.242430 0.716141 0.068693 0.002926 315005.000000 0 0 1
-18.682417 -4.590340 22.374524 29.508020 0.240931 0.710168 0.067674 -0.000956 -349501.000000 0 0 1
-18.542917 -6.041840 23.002494 30.157226 0.314983 0.703238 0.083109 -0.004264 1357590.000000 0 0 1
-17.264517 -6.446140 23.573074 29.921665 0.357345 0.663525 0.068090 -0.020412 1567300.000000 0 0 1
-16.205817 -6.610740 22.616424 28.597780 0.387319 0.658607 0.094598 -0.020006 553106.000000 0 0 1
-14.903017 -7.273240 23.198784 28.516372 0.454032 0.620608 0.110436 -0.026231 417919.000000 0 0 1
-15.053617 -8.562540 23.763144 29.404344 0.517164 0.629791 0.097131 -0.031129 -52883.400000 0 0 1
-15.067117 -8.638840 25.190704 30.597698 0.520599 0.603618 0.084467 -0.030304 1764.990000 0 0 1
-16.111217 -9.649940 25.682924 31.816744 0.539653 0.631379 0.065639 -0.024231 -318067.000000 0 0 1
-15.853217 -11.013740 25.522214 32.000162 0.607182 0.647548 0.072414 -0.033805 -26174.500000 0 0 1
-14.902517 -11.533440 26.456034 32.481179 0.658639 0.618923 0.072977 -0.027013 218396.000000 0 0 1
-14.750817 -13.068940 26.429444 32.968156 0.725015 0.640720 0.075143 -0.031482 186612.000000 0 0 1
-15.876217 -13.763840 26.968224 34.187463 0.714251 0.661887 0.060482 -0.033311 259340.000000 0 0 1
-15.992017 -15.204640 26.783904 34.703072 0.760164 0.689126 0.067975 -0.022424 -14643.800000 0 0 1
-15.003917 -16.137240 27.565474 35.289990 0.821775 0.674350 0.076062 -0.018571 12955.700000 0 0 1
-13.732517 -16.137740 26.953904 34.285880 0.865747 0.666239 0.063544 -0.026651 -262721.000000 0 0 1
-12.909617 -17.016040 27.704204 34.981806 0.921767 0.656783 0.076845 -0.022274 -312133.000000 0 0 1
-11.624517 -17.318940 26.906064 34.044256 0.979660 0.659455 0.078042 -0.032775 -291576.000000 0 0 1
-10.660117 -17.906440 27.740334 34.695890 1.033823 0.644287 0.080280 -0.024637 -458820.000000 0 0 1
-9.724017 -18.674340 27.058374 34.284735 1.090714 0.661250 0.074903 -0.029451 -169890.000000 0 0 1
-8.680517 -19.256940 28.045164 35.110003 1.147299 0.645532 0.078335 -0.033984 -107878.000000 0 0 1
-9.200317 -20.415440 28.651534 36.364081 1.147398 0.663393 0.092985 -0.027890 -32180.600000 0 0 1
-8.219917 -21.136440 29.343894 37.086119 1.199897 0.657968 0.105157 -0.029494 -147771.000000 0 0 1
-8.773117 -22.315540 30.138494 38.513371 1.196218 0.672051 0.114695 -0.033629 79772.300000 0 0 1
-9.024117 -23.386640 29.254554 38.525297 1.202533 0.708468 0.131516 -0.032762 11184.700000 0 0 1
-9.471517 -24.510440 29.992174 39.874826 1.202045 0.719465 0.109165 -0.029668 -126169.000000 0 0 1
-9.658517 -25.767740 29.099794 40.050735 1.212175 0.757475 0.111028 -0.027080 -54970.000000 0 0 1
-10.752017 -25.796840 28.200414 39.703226 1.175895 0.780900 0.101410 -0.019995 123320.000000 0 0 1
-10.698917 -26.948740 27.410534 39.900361 1.192870 0.813479 0.106598 -0.017946 -313670.000000 0 0 1
-11.993117 -27.265840 26.622744 39.950361 1.156408 0.841432 0.086853 -0.011900 -133843.000000 0 0 1
-12.240317 -26.522040 25.473804 38.757691 1.138408 0.853622 0.086454 -0.015841 247935.000000 0 0 1
-12.549317 -25.155940 25.620634 38.035819 1.108060 0.831738 0.068942 -0.009005 -616883.000000 0 0 1
-12.646517 -24.432540 24.222774 36.655507 1.093161 0.848883 0.067965 -0.028077 -614252.000000 0 0 1
-13.672017 -25.011640 23.488924 36.935562 1.070547 0.881566 0.055960 -0.019146 -201591.000000 0 0 1
-13.782217 -24.471840 22.215424 35.809852 1.057885 0.901580 0.062582 -0.024008 -962833.000000 0 0 1
-15.157817 -24.745340 21.679924 36.223064 1.021198 0.929154 0.062873 -0.026261 -1161910.000000 0 0 1
-15.459417 -26.036940 21.192424 36.959906 1.034986 0.960159 0.075340 -0.023628 42764.600000 0 0 1
-16.566817 -25.963340 20.319424 36.897607 1.002843 0.987597 0.078104 -0.022658 -15310.000000 0 0 1
-16.949717 -27.337440 19.767824 37.754409 1.015787 1.019737 0.090074 -0.026597 -185840.000000 0 0 1
-15.942217 -27.805740 18.929624 37.224241 1.050208 1.037320 0.089736 -0.030306 -66857.500000 0 0 1
-16.169117 -29.131740 18.532224 38.125345 1.064096 1.063190 0.107707 -0.029359 312514.000000 0 0 1
-15.160517 -29.483740 17.397624 37.440747 1.095854 1.087533 0.100150 -0.037356 362286.000000 0 0 1
-15.447317 -28.925540 16.155324 36.555450 1.080291 1.113036 0.088377 -0.037178 -715495.000000 0 0 1
-14.269117 -28.758740 15.451624 35.628998 1.110220 1.122222 0.096155 -0.034720 -527143.000000 0 0 1
-14.475217 -28.206840 14.043724 34.675408 1.096660 1.153812 0.082079 -0.025170 -12434.400000 0 0 1
-14.922717 -26.844740 13.874824 33.702200 1.063442 1.146490 0.074416 -0.029252 54826.700000 0 0 1
-15.306217 -26.616540 12.498624 33.150205 1.048914 1.184209 0.070618 -0.027791 -268439.000000 0 0 1
-14.181717 -26.389640 11.481224 32.083527 1.077680 1.204827 0.075409 -0.029472 -157936.000000 0 0 1
-14.624217 -25.985740 10.208124 31.517173 1.058195 1.240957 0.056531 -0.019804 195520.000000 0 0 1
-13.642517 -26.303640 9.205724 31.028134 1.092336 1.269572 0.071557 -0.019423 158244.000000 0 0 1
-13.958617 -25.773840 7.784824 30.327171 1.074440 1.311196 0.088128 -0.024422 -363153.000000 0 0 1
-15.101717 -26.354540 7.231424 31.223663 1.050450 1.337073 0.068009 -0.022274 -327208.000000 0 0 1
-15.536917 -25.646240 6.097424 30.599085 1.026111 1.370185 0.077371 -0.023193 -90894.100000 0 0 1
-16.405017 -26.435040 5.148824 31.534843 1.015383 1.406788 0.058613 -0.026943 -324577.000000 0 0 1
-15.662917 -27.439640 4.529124 31.918236 1.052114 1.428418 0.070035 -0.019339 -75087.100000 0 0 1
-16.275817 -27.876540 3.333224 32.451719 1.042334 1.467902 0.087165 -0.020930 -242842.000000 0 0 1
-15.516817 -29.007540 2.648224 33.003365 1.079602 1.490469 0.088776 -0.022710 -410637.000000 0 0 1
-14.312017 -28.601140 2.055724 32.048168 1.106829 1.506607 0.059366 -0.010553 -623737.000000 0 0 1
-13.734717 -29.643640 1.408824 32.701264 1.136915 1.527701 0.046619 -0.015525 -404191.000000 0 0 1
-12.461617 -29.242140 0.651124 31.793374 1.167950 1.550315 0.050852 -0.012265 -307189.000000 0 0 1
-12.651417 -28.549640 -0.588476 31.232781 1.153664 1.589639 0.051173 -0.010895 -104132.000000 0 0 1
-12.923317 -27.194340 -0.553976 30.113969 1.127168 1.589193 0.045564 -0.015375 -383689.000000 0 0 1
-12.552917 -26.370140 -1.785376 29.260000 1.126510 1.631852 0.054262 -0.017789 345919.000000 0 0 1
-11.163117 -26.437940 -2.093576 28.774345 1.171267 1.643619 0.058262 -0.021340 94843.200000 0 0 1
-10.869117 -25.665640 -3.207176 28.056172 1.170206 1.685359 0.088121 -0.030304 274039.000000 0 0 1
-9.491217 -26.046440 -3.793976 27.980252 1.221355 1.706810 0.074601 -0.028357 125251.000000 0 0 1
-9.033317 -25.317240 -4.902276 27.323905 1.228072 1.751187 0.073458 -0.036271 -864564.000000 0 0 1
-7.794017 -25.828340 -5.254176 27.485564 1.277724 1.763141 0.091053 -0.023393 -582302.000000 0 0 1
-6.803017 -24.901740 -5.917076 26.483759 1.304110 1.796121 0.062687 -0.022677 51608.900000 0 0 1
-7.228617 -24.673640 -7.280376 26.721626 1.285802 1.846737 0.074875 -0.028209 78825.500000 0 0 1
-6.377717 -23.709240 -7.879876 25.785573 1.308019 1.881357 0.058826 -0.018568 -207930.000000 0 0 1
-6.576717 -23.534040 -9.429376 26.191934 1.298293 1.939076 0.068997 -0.024954 1592.780000 0 0 1
-5.987617 -24.539940 -10.284276 27.273184 1.331478 1.957442 0.057637 -0.023327 135536.000000 0 0 1
-6.399517 -24.441940 -11.597776 27.800552 1.314719 2.001134 0.046374 -0.016257 503460.000000 0 0 1
-7.669917 -25.284840 -12.003476 29.021272 1.276278 1.997211 0.056040 -0.022796 534883.000000 0 0 1
-8.169217 -25.005340 -13.267776 29.462468 1.255029 2.037929 0.070314 -0.017013 319154.000000 0 0 1
-9.103017 -26.020340 -13.672376 30.771040 1.234262 2.031218 0.092955 -0.023428 -492339.000000 0 0 1
-9.187217 -26.140540 -15.272176 31.638144 1.232826 2.074547 0.101092 -0.030746 407268.000000 0 0 1
-8.107417 -26.740640 -16.006976 32.202723 1.276418 2.091014 0.091401 -0.036608 594506.000000 0 0 1
-6.864217 -26.059040 -15.900476 31.289235 1.313237 2.103863 0.092499 -0.035168 -498838.000000 0 0 1
-5.799217 -26.784440 -16.733776 32.110067 1.357573 2.118980 0.098826 -0.028148 -604664.000000 0 0 1
-5.905017 -26.890840 -18.105376 32.951345 1.354635 2.152512 0.129706 -0.033940 -567992.000000 0 0 1
-4.748117 -27.452440 -18.616776 33.507692 1.399533 2.159877 0.118795 -0.039275 -783189.000000 0 0 1
-25.452327 13.944812 -5.749023 29.585976 -0.501214 1.766356 0.129405 -0.047370 27833.000000 0 0 1
-25.189327 13.556812 -4.420323 28.945269 -0.493736 1.724109 0.129780 -0.039782 -200483.000000 0 0 1
-23.970517 12.881612 -4.321323 27.553501 -0.493113 1.728280 0.126570 -0.033151 -553479.000000 0 0 1
-24.113417 11.397212 -3.985423 26.967330 -0.441529 1.719127 0.138269 -0.037452 -261075.000000 0 0 1
-24.447117 10.516412 -5.032823 27.084788 -0.406241 1.757700 0.119692 -0.020956 1695530.000000 0 0 1
-25.890527 10.262812 -5.082523 28.310364 -0.377393 1.751304 0.151138 -0.033798 1578810.000000 0 0 1
-26.300477 9.527112 -6.367023 28.688324 -0.347538 1.794598 0.158598 -0.030955 -109943.000000 0 0 1
-26.317677 10.388212 -7.487223 29.267620 -0.375950 1.829491 0.172192 -0.031133 7005.700000 0 0 1
-26.538947 9.641412 -8.627023 29.524533 -0.348468 1.867321 0.163342 -0.023107 -274824.000000 0 0 1
-26.911347 10.456412 -9.818523 30.495254 -0.370597 1.898605 0.158797 -0.017565 171559.000000 0 0 1
-25.866107 11.301012 -10.314123 30.052445 -0.411910 1.921122 0.148421 -0.022966 417662.000000 0 0 1
-26.339007 12.119712 -11.367323 31.142362 -0.431257 1.944442 0.151552 -0.026772 -241091.000000 0 0 1
-25.330897 13.128812 -11.945323 30.930741 -0.478174 1.967300 0.132654 -0.025720 -261196.000000 0 0 1
-25.114087 14.200812 -11.063523 30.899546 -0.514629 1.936973 0.122255 -0.026348 83427.300000 0 0 1
-24.429817 15.225512 -11.729823 31.084094 -0.557329 1.957738 0.100468 -0.026005 -224389.000000 0 0 1
-24.423917 16.624712 -11.088723 31.557385 -0.597637 1.929844 0.106363 -0.039291 272686.000000 0 0 1
-23.531817 16.795012 -9.945623 30.573424 -0.619872 1.902128 0.094649 -0.030646 647801.000000 0 0 1
-23.352217 18.168812 -9.535323 31.086237 -0.661203 1.882560 0.049690 -0.013512 -53114.000000 0 0 1
-22.326417 18.350612 -8.392023 30.093851 -0.687967 1.853405 0.055385 -0.015706 -641858.000000 0 0 1
-22.675117 17.736012 -7.186423 29.671058 -0.663780 1.815432 0.081798 -0.029068 -185146.000000 0 0 1
-23.605717 18.467912 -6.437623 30.655124 -0.663885 1.782373 0.092292 -0.030225 -163161.000000 0 0 1
-23.979117 17.854012 -5.059823 30.321042 -0.640014 1.738456 0.098095 -0.024863 -326342.000000 0 0 1
-22.903217 17.765612 -4.169823 29.284155 -0.659736 1.713674 0.095960 -0.037019 -395263.000000 0 0 1
-23.129417 17.102712 -2.947623 28.916451 -0.636705 1.672910 0.092460 -0.029528 -214021.000000 0 0 1
-21.921417 17.004712 -1.988923 27.814826 -0.659755 1.642363 0.102878 -0.047389 -209360.000000 0 0 1
-21.518017 18.260412 -1.455323 28.259258 -0.703687 1.622318 0.100017 -0.046431 255197.000000 0 0 1
-20.283617 18.038612 -0.788423 27.155814 -0.726883 1.599834 0.144593 -0.062697 66064.000000 0 0 1
-19.813017 19.313412 -0.129523 27.669121 -0.772630 1.575477 0.124503 -0.058201 -115668.000000 0 0 1
-20.618417 19.720712 0.966877 28.547512 -0.763148 1.536921 0.109996 -0.049326 138252.000000 0 0 1
-20.786417 21.146512 0.891277 29.665543 -0.793985 1.540748 0.130027 -0.044596 3139.080000 0 0 1
-21.942317 21.541912 1.828877 30.803636 -0.776190 1.511389 0.087814 -0.040292 31831.100000 0 0 1
-21.533117 21.590612 3.206777 30.661263 -0.786731 1.466017 0.107058 -0.038678 83623.900000 0 0 1
-22.685817 21.593912 3.989677 31.573103 -0.760744 1.444094 0.082078 -0.033005 -223395.000000 0 0 1
-22.360317 21.143112 5.417577 31.246841 -0.757426 1.396536 0.084674 -0.034645 73557.900000 0 0 1
-21.599717 22.139312 6.109377 31.528105 -0.797734 1.375787 0.083467 -0.025880 62255.600000 0 0 1
-21.035417 21.687812 7.299977 31.082786 -0.800667 1.333726 0.076138 -0.028505 -82047.700000 0 0 1
-21.956917 21.487712 8.547277 31.888617 -0.774599 1.299443 0.065770 -0.037904 -693092.000000 0 0 1
-22.990217 20.533912 8.464077 31.966110 -0.729022 1.302818 0.080843 -0.036844 449457.000000 0 0 1
-23.498517 20.187312 9.761977 32.480826 -0.709747 1.265531 0.105378 -0.038691 -43658.500000 0 0 1
-24.108117 21.189312 10.745577 33.847535 -0.721051 1.247736 0.110624 -0.039056 -241747.000000 0 0 1
-25.385447 21.657612 10.293377 34.920290 -0.706320 1.271584 0.129853 -0.035325 825474.000000 0 0 1
-25.901597 22.570312 11.275977 36.158807 -0.716780 1.253661 0.140409 -0.038497 -9526.090000 0 0 1
-27.241747 23.180412 10.820577 37.370164 -0.705025 1.277038 0.139514 -0.036484 234356.000000 0 0 1
-28.034217 23.822012 11.825177 38.642468 -0.704348 1.259792 0.149961 -0.036209 444975.000000 0 0 1
-27.806407 25.212612 11.911177 39.379540 -0.736515 1.263512 0.126487 -0.029344 4903.530000 0 0 1
-28.102977 25.726112 13.357177 40.373560 -0.741271 1.233603 0.137803 -0.026188 278396.000000 0 0 1
-27.088217 25.320712 14.264877 39.729040 -0.751686 1.203542 0.118708 -0.027205 349812.000000 0 0 1
-27.280567 26.051212 15.480077 40.774106 -0.762351 1.181373 0.142961 -0.035892 31443.000000 0 0 1
-25.932137 26.137512 16.216577 40.232109 -0.789342 1.155921 0.109393 -0.035281 -3472.170000 0 0 1
-25.566657 24.920412 16.793877 39.455230 -0.772599 1.131123 0.134847 -0.042915 549944.000000 0 0 1
-24.341317 24.938712 17.540777 39.014330 -0.797520 1.104481 0.101699 -0.036429 330838.000000 0 0 1
-24.199117 23.597112 18.289077 38.430603 -0.772804 1.074811 0.107285 -0.032770 368349.000000 0 0 1
-23.047117 23.642312 19.153377 38.170412 -0.798145 1.045134 0.106118 -0.038778 882318.000000 0 0 1
-22.672617 22.384312 19.684977 37.451346 -0.779000 1.017359 0.101086 -0.035613 -965.553000 0 0 1
-21.225617 22.412512 20.229777 36.906522 -0.812590 0.990663 0.065448 -0.031040 -684809.000000 0 0 1
-20.243817 22.541312 19.236877 35.888442 -0.839045 1.005082 0.060481 -0.032538 416543.000000 0 0 1
-18.910217 22.352512 19.721577 35.301157 -0.868629 0.978019 0.058499 -0.032648 330585.000000 0 0 1
-18.510417 20.825112 19.806577 34.185104 -0.844175 0.952814 0.042246 -0.022743 -959880.000000 0 0 1
-19.041117 20.067412 20.881877 34.660034 -0.811634 0.924195 0.061139 -0.019648 304390.000000 0 0 1
-18.426617 20.342812 22.147377 35.268634 -0.834783 0.891864 0.065349 -0.018466 336741.000000 0 0 1
-19.454617 20.059212 23.281177 36.371243 -0.800698 0.876170 0.060556 -0.017303 361654.000000 0 0 1
-20.408117 21.074412 23.503977 37.590677 -0.801459 0.895331 0.045306 -0.011414 -315813.000000 0 0 1
-21.396217 20.722212 24.433277 38.525228 -0.769397 0.883804 0.055466 -0.003032 -530954.000000 0 0 1
-22.488017 21.764812 24.434877 39.704926 -0.769057 0.907888 0.055329 -0.009643 -1150110.000000 0 0 1
-22.027117 23.101912 24.717077 40.371105 -0.809210 0.911897 0.076331 -0.026935 401660.000000 0 0 1
-23.021617 24.128412 24.866677 41.599600 -0.808868 0.930089 0.075152 -0.037059 196091.000000 0 0 1
-23.906317 24.569312 23.668477 41.657651 -0.799074 0.966520 0.070650 -0.038182 310849.000000 0 0 1
-24.782917 23.504512 23.279077 41.334858 -0.758929 0.972564 0.051589 -0.034918 93094.700000 0 0 1
-25.423127 23.930612 22.074177 41.307128 -0.755166 1.007009 0.062155 -0.039618 -206677.000000 0 0 1
-26.431057 22.936612 21.463277 41.053151 -0.714732 1.020644 0.072963 -0.038076 -110656.000000 0 0 1
-27.686257 23.123812 22.079977 42.293792 -0.695844 1.021530 0.082779 -0.034961 69626.000000 0 0 1
-28.631697 22.167112 21.667977 42.197822 -0.658820 1.031554 0.098298 -0.034457 280749.000000 0 0 1
-30.126047 22.263212 22.055177 43.470221 -0.636425 1.038675 0.111524 -0.028299 -338227.000000 0 0 1
-30.750157 23.378512 21.501077 44.208860 -0.650043 1.062886 0.133853 -0.032745 432843.000000 0 0 1
-32.170797 23.416312 21.523977 45.238981 -0.629190 1.074941 0.141277 -0.031378 799829.000000 0 0 1
-33.019577 22.394712 20.695277 44.945635 -0.595962 1.092293 0.147495 -0.049122 -954700.000000 0 0 1
-32.929567 21.078812 21.251377 44.500491 -0.569397 1.072928 0.136196 -0.047430 1014910.000000 0 0 1
-33.815747 20.073012 20.661577 44.422194 -0.535700 1.087028 0.133454 -0.037498 190207.000000 0 0 1
-35.324923 20.279712 20.646777 45.666249 -0.521151 1.101652 0.140625 -0.045313 -790574.000000 0 0 1
-36.040605 19.391112 19.812477 45.469492 -0.493611 1.119946 0.127203 -0.036896 565650.000000 0 0 1
37.100641 19.746812 19.794577 46.456640 0.489113 1.130633 0.157522 -0.055408 1154340.000000 0 0 1
36.161451 18.878612 18.861877 44.942440 0.481143 1.137693 0.155469 -0.060876 441710.000000 0 0 1
36.065461 17.541512 19.299777 44.507342 0.452692 1.122278 0.176447 -0.059403 40335.200000 0 0 1
35.321701 16.812112 18.372377 43.218212 0.444240 1.131716 0.187832 -0.073765 -637238.000000 0 0 1
35.909771 15.468212 18.098977 43.085382 0.406733 1.137271 0.186964 -0.084363 234521.000000 0 0 1
35.043731 14.779012 17.220377 41.749535 0.399098 1.145634 0.199131 -0.076754 309359.000000 0 0 1
35.763371 13.663712 16.795377 41.806703 0.364945 1.157381 0.194229 -0.059206 560462.000000 0 0 1
34.829241 12.661312 16.027377 40.376499 0.348673 1.162607 0.177392 -0.063331 360894.000000 0 0 1
34.290391 13.205512 14.846977 39.631416 0.367603 1.186802 0.169298 -0.052304 357226.000000 0 0 1
33.611301 12.209012 14.052877 38.422166 0.348422 1.196359 0.174756 -0.044194 -38762.200000 0 0 1
33.724471 12.477712 12.544377 38.084047 0.354371 1.235142 0.174970 -0.046036 -777717.000000 0 0 1
34.984491 12.521912 11.966077 39.037160 0.343720 1.259250 0.153168 -0.036270 -489540.000000 0 0 1
34.925621 12.456512 10.556977 38.554033 0.342594 1.293431 0.136348 -0.024345 80693.100000 0 0 1
36.345081 12.624212 9.973277 39.746721 0.334306 1.317165 0.094644 -0.012410 -101847.000000 0 0 1
-37.221637 11.654712 10.342077 40.351470 -0.303446 1.311604 0.117290 -0.024808 809734.000000 0 0 1
-35.934786 11.749912 9.709677 39.033922 -0.316021 1.319407 0.147640 -0.017659 664102.000000 0 0 1
-35.681744 11.266312 8.267977 38.320700 -0.305838 1.353329 0.128580 -0.029807 -460511.000000 0 0 1
-36.327587 12.085812 7.306877 38.976286 -0.321171 1.382211 0.113816 -0.036364 122469.000000 0 0 1
-36.124407 11.622812 5.953377 38.412306 -0.311284 1.415183 0.141784 -0.049772 -76840.200000 0 0 1
-36.778017 12.557612 4.929177 39.174136 -0.329032 1.444635 0.145871 -0.050001 543549.000000 0 0 1
36.364521 12.220612 4.714977 38.651685 0.324201 1.448505 0.130116 -0.046725 665261.000000 0 0 1
35.600261 13.333312 4.337477 38.261854 0.358357 1.457189 0.120221 -0.038918 291611.000000 0 0 1
35.061641 14.137912 5.641377 38.223348 0.383288 1.422665 0.108391 -0.020910 -1192130.000000 0 0 1
34.180531 15.155512 5.250977 37.756734 0.417349 1.431270 0.092969 -0.009553 337381.000000 0 0 1
33.429391 15.762412 6.328477 37.497032 0.440600 1.401212 0.079413 0.001014 1090560.000000 0 0 1
32.314001 14.855412 7.011277 36.249633 0.430908 1.376153 0.114810 -0.007562 -8248.240000 0 0 1
32.820591 13.816012 7.795077 36.453211 0.398440 1.355294 0.136694 -0.013235 434484.000000 0 0 1
31.775981 12.855212 8.040877 35.208310 0.384429 1.340383 0.162957 -0.022682 517491.000000 0 0 1
31.892931 11.631412 7.099177 34.682086 0.349712 1.364646 0.152108 -0.020149 -46571.900000 0 0 1
31.590161 12.029512 5.790277 34.295404 0.363845 1.401148 0.126334 -0.027135 125945.000000 0 0 1
31.843761 10.997912 4.841677 34.035584 0.332545 1.428059 0.135049 -0.034171 -163552.000000 0 0 1
31.202791 11.307812 3.458577 33.368286 0.347676 1.466961 0.118129 -0.042349 798605.000000 0 0 1
29.790991 11.045212 3.448077 31.959178 0.355045 1.462696 0.113258 -0.038920 677431.000000 0 0 1
29.233701 11.464212 2.224677 31.479939 0.373727 1.500068 0.125746 -0.042415 175014.000000 0 0 1
27.756101 10.999812 2.107277 29.930546 0.377315 1.500332 0.135772 -0.026335 234915.000000 0 0 1
27.659701 9.641612 1.721777 29.342533 0.335409 1.512084 0.113111 -0.022405 -289724.000000 0 0 1
26.338001 9.185712 1.674977 27.944107 0.335572 1.510820 0.120717 -0.023909 -718038.000000 0 0 1
26.101201 7.617612 1.571277 27.235447 0.283962 1.513072 0.125375 -0.021113 81888.900000 0 0 1
26.525401 6.810312 2.662877 27.514871 0.251318 1.473865 0.140506 -0.013337 -226188.000000 0 0 1
27.913401 6.852812 2.823277 28.880614 0.240741 1.472883 0.160311 -0.030201 -940696.000000 0 0 1
28.365601 6.232612 4.147177 29.336868 0.216287 1.428957 0.170070 -0.038284 406667.000000 0 0 1
29.780111 6.137412 4.341677 30.714377 0.203245 1.428965 0.205357 -0.041937 874553.000000 0 0 1
30.102181 5.419012 5.523277 31.080759 0.178113 1.392140 0.192184 -0.030127 314004.000000 0 0 1
31.630231 5.400112 5.841577 32.615284 0.169096 1.390719 0.172748 -0.039238 395997.000000 0 0 1
32.074941 6.666712 6.159477 33.334457 0.204930 1.384950 0.173320 -0.038493 -325844.000000 0 0 1
33.429171 6.577712 6.553377 34.694704 0.194284 1.380768 0.123956 -0.030145 109832.000000 0 0 1
33.960181 7.842712 7.248577 35.599773 0.226960 1.365749 0.096148 -0.033290 -195111.000000 0 0 1
33.398261 7.829512 8.530477 35.348467 0.230271 1.327065 0.112534 -0.034416 -22639.100000 0 0 1
33.749111 8.888712 9.333077 36.126417 0.257528 1.309488 0.120795 -0.034391 -366213.000000 0 0 1
33.216341 8.631612 10.751677 35.964268 0.254237 1.267200 0.142132 -0.039335 -611422.000000 0 0 1
31.896031 9.040512 10.922077 34.905292 0.276193 1.252545 0.155211 -0.042547 -596438.000000 0 0 1
31.412731 8.722512 12.204577 34.810825 0.270851 1.212588 0.154659 -0.048445 -420343.000000 0 0 1
29.996441 9.243412 12.472577 33.775617 0.298917 1.192565 0.148445 -0.053637 -566624.000000 0 0 1
29.832011 10.636712 12.626677 34.095769 0.342501 1.191432 0.174319 -0.054855 195484.000000 0 0 1
29.851611 11.540712 11.554077 34.026510 0.368904 1.224346 0.168296 -0.056510 127748.000000 0 0 1
28.716301 11.414512 10.475377 32.628983 0.378343 1.243963 0.139662 -0.045140 307008.000000 0 0 1
28.777301 12.514912 9.622277 32.822923 0.410216 1.273269 0.118414 -0.019651 11560.100000 0 0 1
27.722401 12.497912 8.698577 31.629014 0.423539 1.292187 0.113208 -0.021174 -125686.000000 0 0 1
27.760201 13.754112 7.834177 31.955886 0.460010 1.323116 0.114332 -0.022486 60689.900000 0 0 1
27.161101 14.882412 8.425277 32.096680 0.501253 1.305187 0.103649 -0.010813 48287.200000 0 0 1
27.450401 16.045812 7.725477 32.721179 0.528973 1.332446 0.097892 -0.011721 -1100680.000000 0 0 1
27.055001 17.417312 8.326977 33.236642 0.571986 1.317562 0.109377 -0.019970 471163.000000 0 0 1
25.676501 17.758612 8.335277 32.312967 0.605086 1.309892 0.121858 -0.024227 493311.000000 0 0 1
24.712201 16.876912 8.891777 31.218371 0.599183 1.281972 0.130879 -0.019894 -670378.000000 0 0 1
23.383901 17.644712 9.023577 30.652367 0.646417 1.271985 0.129075 -0.035558 -177488.000000 0 0 1
22.832101 18.073012 7.764677 30.136834 0.669574 1.310210 0.134653 -0.037575 713236.000000 0 0 1
21.727001 18.979712 7.921877 29.917355 0.718011 1.302808 0.181972 -0.046091 481357.000000 0 0 1
21.118101 19.481712 6.617577 29.483955 0.745115 1.344421 0.156934 -0.037678 -171101.000000 0 0 1
21.924201 20.414612 5.924477 30.537295 0.749758 1.375550 0.100919 -0.014674 -20622.500000 0 0 1
21.398601 20.799212 4.666577 30.204044 0.771195 1.415673 0.120419 -0.021064 -67671.200000 0 0 1
19.167383 16.870112 33.345196 41.998706 0.721738 0.653505 0.076789 -0.025851 -56723.600000 0 0 1
18.422883 17.582812 32.394691 41.206478 0.762071 0.666233 0.088710 -0.022562 48280.800000 0 0 1
18.027783 16.752312 31.336524 39.844932 0.748742 0.665737 0.103870 -0.035404 -322612.000000 0 0 1
17.283983 17.417512 30.178814 38.895586 0.789246 0.682667 0.108403 -0.035092 106714.000000 0 0 1
18.067183 18.246012 29.321004 38.975137 0.790323 0.719250 0.100214 -0.024292 550683.000000 0 0 1
17.333983 18.477712 28.028314 37.781995 0.817325 0.734982 0.102827 -0.027160 1370920.000000 0 0 1
18.406383 18.578412 26.868424 37.494860 0.790049 0.771896 0.082074 -0.016504 592019.000000 0 0 1
19.113183 19.813112 26.923094 38.506183 0.803377 0.796534 0.076256 -0.022739 -316126.000000 0 0 1
19.991183 19.871012 25.836384 38.236412 0.782383 0.828881 0.060146 -0.012796 -704631.000000 0 0 1
20.919583 21.046412 25.973894 39.436323 0.788420 0.851801 0.076751 -0.011927 -466264.000000 0 0 1
20.207883 22.285912 25.824154 39.647286 0.834261 0.861438 0.079921 -0.019085 338790.000000 0 0 1
20.949483 23.433912 26.161454 40.895608 0.841316 0.876671 0.095882 -0.021396 -486590.000000 0 0 1
20.076283 24.660012 26.178654 41.188533 0.887503 0.882035 0.104134 -0.028900 -326690.000000 0 0 1
19.719883 25.148012 24.927684 40.530059 0.905793 0.908357 0.110605 -0.032131 -148885.000000 0 0 1
18.650083 26.035212 24.974364 40.612519 0.949187 0.908483 0.102789 -0.039573 -343121.000000 0 0 1
18.519883 26.828712 23.692974 40.300407 0.966610 0.942325 0.083629 -0.037483 -770445.000000 0 0 1
19.496783 27.788412 23.655274 41.375021 0.958987 0.962185 0.117563 -0.044099 -568534.000000 0 0 1
19.356883 28.564312 22.475624 41.179637 0.975222 0.993459 0.109129 -0.038520 102783.000000 0 0 1
20.522383 29.540412 22.179624 42.258015 0.963621 1.018243 0.113243 -0.043768 178312.000000 0 0 1
21.704883 28.940712 21.699424 42.184496 0.927310 1.030496 0.129748 -0.046749 267827.000000 0 0 1
22.810283 29.812212 21.487224 43.252488 0.917681 1.050905 0.133135 -0.052184 467658.000000 0 0 1
23.234583 30.096012 20.044624 42.981423 0.913354 1.085630 0.145325 -0.043249 -412831.000000 0 0 1
22.484283 31.063312 19.404424 42.976784 0.944261 1.102340 0.099957 -0.037538 -187732.000000 0 0 1
22.760683 30.998112 18.023824 42.471047 0.937445 1.132520 0.092327 -0.016378 -193237.000000 0 0 1
22.358983 32.255312 17.202824 42.851679 0.964657 1.157696 0.089169 -0.019170 -304831.000000 0 0 1
23.131483 33.419812 17.424624 44.221791 0.965359 1.165786 0.095719 -0.018678 -71557.800000 0 0 1
23.205583 -33.596540 16.306924 43.967515 -0.966330 1.190834 0.085262 -0.015203 -183861.000000 0 0 1
24.208683 33.929012 15.185424 44.360289 0.951061 1.221411 0.074934 -0.016949 -184589.000000 0 0 1
23.965883 32.692112 14.529424 43.060909 0.938213 1.226626 0.099358 -0.027420 63302.000000 0 0 1
22.973583 32.858212 13.527724 42.313673 0.960625 1.245382 0.059979 -0.022528 -199819.000000 0 0 1
22.608983 31.595412 12.714724 40.879094 0.949692 1.254517 0.074410 -0.035517 -925866.000000 0 0 1
23.551483 31.004312 11.921324 40.719254 0.921167 1.273675 0.111040 -0.051022 -650220.000000 0 0 1
23.002283 29.919112 11.181424 39.360926 0.915362 1.282756 0.113211 -0.046420 396911.000000 0 0 1
24.178383 29.336612 10.295424 39.385616 0.881490 1.306323 0.122284 -0.048248 1281970.000000 0 0 1
25.249083 28.579712 10.839324 39.646022 0.847194 1.293868 0.127149 -0.048640 533475.000000 0 0 1
26.160983 29.389612 11.573624 41.013352 0.843453 1.284719 0.124281 -0.049828 -816734.000000 0 0 1
27.607483 28.893612 11.650624 41.626325 0.808157 1.287121 0.130542 -0.049210 -27092.100000 0 0 1
27.700983 27.844612 12.538924 41.229740 0.787984 1.261778 0.125886 -0.043097 359189.000000 0 0 1
29.044283 27.824112 13.017324 42.275315 0.763945 1.257793 0.102663 -0.030324 441232.000000 0 0 1
29.243883 26.791612 14.124924 42.101171 0.741663 1.228661 0.084019 -0.034983 140008.000000 0 0 1
30.489883 26.880312 14.795724 43.256185 0.722564 1.221700 0.058123 -0.037707 253957.000000 0 0 1
30.798483 25.736312 15.567324 43.049342 0.696096 1.200796 0.052829 -0.034733 -36977.700000 0 0 1
31.989483 25.825512 16.531424 44.312211 0.679184 1.188484 0.052285 -0.037214 -186392.000000 0 0 1
33.240783 25.990412 15.909224 45.094950 0.663596 1.210241 0.066966 -0.024395 -702712.000000 0 0 1
34.228883 25.950412 16.889024 46.154950 0.648693 1.196175 0.057682 -0.026664 -615756.000000 0 0 1
35.617483 26.304712 16.373924 47.208562 0.636122 1.216594 0.091982 -0.035195 -446850.000000 0 0 1
35.737783 27.661512 15.965324 47.929531 0.658693 1.231207 0.102337 -0.033827 734017.000000 0 0 1
37.126383 28.060512 15.844024 49.160896 0.647209 1.242650 0.131377 -0.029876 1218250.000000 0 0 1
-37.045034 29.161712 14.842524 49.427123 -0.666885 1.265799 0.105225 -0.037048 15927.900000 0 0 1
37.004583 30.471412 15.185524 50.283658 0.688877 1.264009 0.113920 -0.046914 27646.500000 0 0 1
36.822883 31.260612 14.029224 50.298804 0.703881 1.288129 0.099879 -0.032303 -256431.000000 0 0 1
35.992283 32.489012 14.285424 50.547539 0.734286 1.284279 0.094868 -0.042883 -1100980.000000 0 0 1
35.982383 33.321312 13.137724 50.770479 0.747020 1.309051 0.071697 -0.044165 498206.000000 0 0 1
35.086983 -33.496240 13.405524 50.326957 -0.762208 1.301173 0.068423 -0.041100 33271.600000 0 0 1
33.643083 -33.815840 12.994324 49.439059 -0.787959 1.304837 0.096835 -0.043585 -513235.000000 0 0 1
32.991283 33.142912 13.842124 48.769681 0.787691 1.283014 0.092775 -0.041732 492554.000000 0 0 1
31.833383 32.534912 13.242024 47.405020 0.796296 1.287692 0.102474 -0.038568 297828.000000 0 0 1
31.406383 31.194812 13.924024 46.404263 0.782019 1.266042 0.108376 -0.043697 -298081.000000 0 0 1
30.617583 31.447812 15.063124 46.403652 0.798774 1.240196 0.111938 -0.033287 117145.000000 0 0 1
30.421083 30.378812 15.923424 45.846155 0.784703 1.216081 0.102241 -0.039991 -454392.000000 0 0 1
29.322383 30.695012 16.929924 45.701293 0.808265 1.191306 0.103963 -0.035449 -429581.000000 0 0 1
29.055683 29.650812 17.872924 45.197840 0.795535 1.164252 0.087762 -0.031253 -137084.000000 0 0 1
29.821383 29.711812 19.046024 46.204520 0.783558 1.145917 0.079430 -0.026052 -229287.000000 0 0 1
29.573383 28.534112 20.047624 45.724039 0.767515 1.116925 0.069798 -0.027978 -950077.000000 0 0 1
28.465583 28.740112 20.852024 45.509233 0.790197 1.094835 0.095147 -0.037935 -481299.000000 0 0 1
28.590283 27.892112 21.989324 45.595006 0.773038 1.067547 0.076871 -0.031013 629251.000000 0 0 1
27.344583 27.964712 22.978454 45.362547 0.796610 1.039616 0.089894 -0.035556 -277797.000000 0 0 1
26.223383 27.432812 22.355324 44.045266 0.807935 1.038453 0.138308 -0.042878 -298150.000000 0 0 1
25.066983 27.406012 23.182604 43.782145 0.829945 1.012786 0.153836 -0.049174 174846.000000 0 0 1
25.060883 26.274912 24.265794 43.672046 0.809043 0.981668 0.105371 -0.043211 -1203230.000000 0 0 1
26.071483 26.480912 25.177204 44.887108 0.793189 0.975323 0.090034 -0.038192 -386714.000000 0 0 1
25.991183 25.461112 26.107434 44.781781 0.775096 0.948390 0.112605 -0.030062 -140034.000000 0 0 1
27.222283 25.438712 27.047584 46.040770 0.751542 0.942867 0.089224 -0.014236 15351.700000 0 0 1
27.404583 26.501212 27.968514 47.281742 0.768641 0.937843 0.114719 -0.034904 426435.000000 0 0 1
27.924683 27.728312 27.363004 47.931004 0.781870 0.963215 0.084078 -0.026336 -436522.000000 0 0 1
28.241783 28.765812 28.458444 49.345245 0.794590 0.956087 0.054299 -0.018919 -410095.000000 0 0 1
29.157583 28.239312 29.392664 50.115387 0.769401 0.944066 0.043577 -0.013256 -241655.000000 0 0 1
29.752883 29.240212 30.159304 51.476282 0.776708 0.944822 0.036490 -0.013213 527165.000000 0 0 1
31.300183 29.192012 29.943724 52.235061 0.750562 0.960330 0.021129 -0.009732 400982.000000 0 0 1
31.671083 29.580512 28.619204 51.933833 0.751281 0.987150 0.009727 -0.009629 -70248.600000 0 0 1
33.072583 29.471612 28.469614 52.658243 0.727887 0.999588 0.018080 -0.012146 225412.000000 0 0 1
33.696083 30.035212 27.177534 52.689262 0.728019 1.028846 0.020796 -0.011793 -406854.000000 0 0 1
33.468883 31.406612 27.156594 53.329372 0.753621 1.036513 0.011487 -0.007585 121808.000000 0 0 1
33.776383 31.846112 25.890894 53.154090 0.755992 1.062040 0.023692 -0.010827 -412585.000000 0 0 1
33.400983 33.295712 25.553154 53.639479 0.783820 1.074255 0.021499 -0.013239 -157577.000000 0 0 1
34.278383 -33.718940 26.192964 54.754414 -0.777171 1.071997 0.026273 -0.013687 333210.000000 0 0 1
33.734083 -32.406240 26.131534 53.581805 -0.765325 1.061350 0.034383 -0.011698 -448020.000000 0 0 1
34.644083 -31.332540 26.679584 53.793501 -0.735248 1.051853 0.030268 -0.011830 -359703.000000 0 0 1
34.689983 -31.366240 28.092264 54.556496 -0.735124 1.029881 0.027474 -0.017832 130585.000000 0 0 1
35.765983 -30.586940 28.522354 55.029911 -0.707503 1.025927 0.034590 -0.021452 -514806.000000 0 0 1
35.607083 -30.025140 29.972464 55.387020 -0.700554 0.998997 0.034984 -0.018465 -422258.000000 0 0 1
35.605883 -30.888240 31.111094 56.477982 -0.714569 0.987410 0.040264 -0.019750 -13493.300000 0 0 1
34.410983 -31.611140 31.190454 56.180284 -0.743016 0.982211 0.039024 -0.022852 -602696.000000 0 0 1
34.217683 -32.516240 32.417396 57.262931 -0.759908 0.969011 0.046879 -0.026425 -440213.000000 0 0 1
34.055983 -31.755940 33.597954 57.420138 -0.750464 0.945762 0.042355 -0.031294 64621.600000 0 0 1
33.991483 -32.483640 -33.029393 57.459104 -0.762719 2.183196 0.056350 -0.028031 178100.000000 0 0 1
33.130083 -33.799840 -32.855103 57.615010 -0.795405 2.177610 0.037229 -0.020216 -73923.000000 0 0 1
33.543383 33.051012 -33.706113 57.910534 0.778005 2.192029 0.040623 -0.024976 242546.000000 0 0 1
32.838683 31.814812 -33.492703 56.677354 0.769563 2.203015 0.055459 -0.017965 125226.000000 0 0 1
33.248583 30.734812 33.269363 56.186719 0.746130 0.937107 0.037910 -0.010788 737118.000000 0 0 1
34.571983 30.192212 33.225513 56.663272 0.717875 0.944229 0.031601 -0.015024 538088.000000 0 0 1
34.714783 29.288912 32.160295 55.652862 0.700826 0.954676 0.025494 -0.015016 396723.000000 0 0 1
36.076383 28.519112 32.162126 56.118156 0.668934 0.960495 0.027318 -0.008403 446498.000000 0 0 1
36.151283 27.412312 33.102889 56.161832 0.648771 0.940456 0.027568 -0.006508 -214282.000000 0 0 1
-37.085434 26.890212 33.071849 56.499204 -0.627366 0.945484 0.029428 -0.016977 -456891.000000 0 0 1
-36.992434 25.600512 33.853934 56.302000 -0.605369 0.925679 0.036316 -0.015744 119313.000000 0 0 1
37.025883 24.457712 33.181499 55.408551 0.583761 0.928730 0.019338 -0.013332 155225.000000 0 0 1
37.061383 23.411012 -33.733803 55.313570 0.563390 2.226686 0.017057 -0.023815 -2413.080000 0 0 1
36.651383 22.098612 33.474662 54.334386 0.542579 0.907032 0.014734 -0.023387 -783397.000000 0 0 1
-36.851134 21.646812 32.682701 53.802876 -0.531112 0.917946 0.032980 -0.018895 -552898.000000 0 0 1
37.226183 20.649612 31.807764 53.140653 0.506450 0.929096 0.038294 -0.012559 -614921.000000 0 0 1
-36.317734 20.027412 30.860354 51.695614 -0.503956 0.931086 0.044405 -0.015029 -840188.000000 0 0 1
-35.687634 20.790912 29.907534 50.993429 -0.527512 0.944068 0.045396 -0.010295 -517568.000000 0 0 1
-34.777934 20.051612 29.134324 49.602224 -0.523007 0.943004 0.062652 -0.011063 -214802.000000 0 0 1
-35.351434 19.048812 28.101634 49.013089 -0.494236 0.960208 0.083755 -0.012564 -361421.000000 0 0 1
-35.849534 17.820412 28.668004 49.240335 -0.461316 0.949357 0.074893 -0.014971 293562.000000 0 0 1
-36.247034 16.872312 27.677804 48.626980 -0.435653 0.965281 0.086446 -0.026318 -66808.800000 0 0 1
-36.849034 15.571412 28.195894 48.942094 -0.399813 0.956838 0.081359 -0.028587 -560486.000000 0 0 1
-35.876434 14.661212 28.565964 48.146484 -0.387948 0.935627 0.080913 -0.028712 -306860.000000 0 0 1
-36.370334 13.580112 29.335874 48.660190 -0.357353 0.923700 0.078290 -0.033586 -348059.000000 0 0 1
-35.314134 12.500512 29.616154 47.754240 -0.340216 0.901826 0.088337 -0.021551 -359780.000000 0 0 1
-34.240234 13.003012 30.375814 47.583211 -0.362936 0.878414 0.096104 -0.016262 183427.000000 0 0 1
-33.372134 11.968212 30.818014 46.975391 -0.344341 0.855229 0.075378 -0.016198 -680587.000000 0 0 1
-31.905734 12.293212 30.630714 45.905768 -0.367768 0.840283 0.081645 -0.013450 -1789480.000000 0 0 1
-31.492934 12.227112 29.266044 44.696851 -0.370336 0.856921 0.074412 -0.013408 1023260.000000 0 0 1
-30.131634 12.554912 28.933674 43.619934 -0.394793 0.845559 0.074956 -0.013701 453917.000000 0 0 1
-29.031134 11.714912 29.536434 43.040061 -0.383545 0.814469 0.067591 -0.016890 -1185590.000000 0 0 1
-28.814334 10.502612 28.905934 42.144083 -0.349527 0.814979 0.079745 -0.026025 -724953.000000 0 0 1
-27.697134 9.858412 29.402734 41.579325 -0.341953 0.785340 0.068780 -0.021790 -593851.000000 0 0 1
-27.351434 8.578712 28.569864 40.471377 -0.303930 0.787064 0.077757 -0.025108 -373214.000000 0 0 1
-28.170734 7.484212 28.630484 40.857169 -0.259675 0.794354 0.078500 -0.027362 693.090000 0 0 1
-29.287534 7.407712 27.733534 41.009544 -0.247735 0.828109 0.079792 -0.026947 810871.000000 0 0 1
-30.198634 6.161512 27.868414 41.552018 -0.201270 0.835661 0.070175 -0.029527 296406.000000 0 0 1
-30.991534 6.026512 29.030364 42.890046 -0.192060 0.827314 0.077601 -0.024895 613899.000000 0 0 1
-31.900434 4.916112 28.902374 43.326124 -0.152905 0.840502 0.095618 -0.025254 206445.000000 0 0 1
-32.560034 4.453912 30.226224 44.649947 -0.135947 0.827172 0.081867 -0.014809 171234.000000 0 0 1
-33.726234 5.149812 30.657354 45.867775 -0.151524 0.838760 0.079639 -0.018736 203070.000000 0 0 1
-34.191034 4.642612 31.882138 46.979265 -0.134959 0.824883 0.079187 -0.016013 465817.000000 0 0 1
-35.669934 5.005012 32.212747 48.322411 -0.139404 0.841130 0.089125 -0.010660 517318.000000 0 0 1
-35.770934 6.398512 32.474648 48.735033 -0.177003 0.841492 0.086073 -0.013529 555716.000000 0 0 1
-37.155134 6.761912 32.433714 49.781254 -0.180021 0.861204 0.080420 -0.011602 771219.000000 0 0 1
37.127483 8.190112 32.960388 50.318139 0.217117 0.856561 0.072000 -0.013912 -217738.000000 0 0 1
37.093183 8.376812 -33.533583 50.700852 0.222106 2.293481 0.076417 -0.010104 118539.000000 0 0 1
37.062383 9.759112 -33.128183 50.659027 0.257471 2.283583 0.080277 -0.004885 -140697.000000 0 0 1
36.854183 9.833712 -31.608843 49.538386 0.260753 2.262782 0.074852 -0.003839 -561880.000000 0 0 1
35.604683 9.345312 -31.212623 48.262368 0.256684 2.274083 0.088343 -0.011694 -314628.000000 0 0 1
35.427483 9.661312 -29.842103 47.318058 0.266233 2.253213 0.074302 -0.011230 1666240.000000 0 0 1
34.008383 9.126812 -29.302003 45.809128 0.262191 2.264845 0.090904 -0.012915 1503040.000000 0 0 1
34.035383 7.732312 -29.134873 45.464676 0.223393 2.266368 0.106205 -0.020530 -382068.000000 0 0 1
32.808583 7.150612 -28.849663 44.270051 0.214594 2.280586 0.114230 -0.024764 -718257.000000 0 0 1
35.772151 6.245612 -20.535723 41.717746 0.172852 2.085474 0.067443 -0.026110 -329717.000000 0 0 1
35.358141 6.562112 -19.218123 40.774939 0.183502 2.061585 0.060909 -0.031287 295594.000000 0 0 1
35.858601 7.775012 -18.736423 41.198830 0.213519 2.042922 0.051260 -0.017312 -191937.000000 0 0 1
37.250811 7.688712 -18.004923 42.082258 0.203545 2.012910 0.068517 -0.030144 1325940.000000 0 0 1
-36.143197 7.315512 -18.816823 41.399519 -0.199706 2.042627 0.076198 -0.039125 758979.000000 0 0 1
-35.712983 8.359212 -19.695423 41.631758 -0.229927 2.063587 0.070265 -0.023687 -868029.000000 0 0 1
-34.468358 7.978612 -20.505323 40.892471 -0.227470 2.096064 0.075753 -0.017925 -178781.000000 0 0 1
-34.727283 6.955912 -21.468423 41.415722 -0.197685 2.115733 0.069607 -0.015822 1043770.000000 0 0 1
-35.638149 7.201012 -22.600723 42.810336 -0.199375 2.126954 0.069547 -0.017864 627162.000000 0 0 1
-35.591081 6.028512 -23.575023 43.114379 -0.167790 2.149336 0.095153 -0.023221 332874.000000 0 0 1
-34.514418 5.985612 -24.515423 42.756035 -0.171716 2.181421 0.088441 -0.028389 264739.000000 0 0 1
-34.124734 4.659012 -24.776723 42.427466 -0.135690 2.194417 0.081923 -0.023198 -1428.700000 0 0 1
-32.842237 4.625612 -25.665283 41.937043 -0.139923 2.229378 0.082767 -0.020111 48308.100000 0 0 1
-31.700457 4.808412 -24.877023 40.582090 -0.150535 2.230655 0.087452 -0.020733 -94677.400000 0 0 1
-30.505017 4.481012 -25.569033 40.055099 -0.145851 2.263145 0.093080 -0.016597 12180.100000 0 0 1
-29.187117 4.784012 -24.873523 38.645397 -0.162464 2.270034 0.066627 -0.012273 -348068.000000 0 0 1
-28.746617 6.144112 -24.861423 38.499460 -0.210565 2.272815 0.051167 -0.011069 113764.000000 0 0 1
-27.439237 6.281912 -24.349823 37.219457 -0.225060 2.283951 0.070310 -0.005766 21688.000000 0 0 1
-26.927657 7.692812 -24.711123 37.348596 -0.278272 2.293793 0.056688 -0.006737 -418060.000000 0 0 1
-27.549257 8.692212 -23.957023 37.529389 -0.305630 2.263154 0.049303 -0.008300 -151723.000000 0 0 1
-27.156897 10.008512 -24.283023 37.780055 -0.353099 2.268875 0.044279 -0.005999 822201.000000 0 0 1
-25.822607 10.502212 -23.593123 36.520390 -0.386274 2.273163 0.049707 0.001639 427228.000000 0 0 1
-25.907507 10.916612 -22.209823 35.828027 -0.398791 2.239413 0.044338 0.002158 155593.000000 0 0 1
-24.634117 11.082012 -21.620823 34.599287 -0.422741 2.245790 0.064980 -0.003568 -293873.000000 0 0 1
-24.696717 11.168912 -20.043523 33.710758 -0.424717 2.207531 0.086478 -0.007638 -664025.000000 0 0 1
-25.235987 12.352012 -19.470323 34.183632 -0.455180 2.176791 0.083441 -0.011879 1087580.000000 0 0 1
-26.599197 12.763212 -19.649423 35.447379 -0.447385 2.158350 0.066382 0.002914 677118.000000 0 0 1
-27.646537 11.799812 -19.017623 35.570163 -0.403403 2.134891 0.069568 0.001248 -764365.000000 0 0 1
-27.432987 11.664912 -17.609323 34.622640 -0.402053 2.104363 0.091629 -0.005455 563039.000000 0 0 1
-28.352437 10.756112 -16.990623 34.759687 -0.362598 2.081513 0.107768 -0.005529 -382543.000000 0 0 1
-27.863247 10.316312 -15.591623 33.554217 -0.354598 2.054058 0.132896 -0.012043 543300.000000 0 0 1
-26.867807 9.291412 -15.525623 32.392196 -0.332946 2.070655 0.149156 -0.014151 774141.000000 0 0 1
-25.587867 9.578812 -16.043723 31.684280 -0.358200 2.101757 0.127729 -0.007783 -1081660.000000 0 0 1
-24.572417 8.521112 -15.626923 30.341617 -0.333799 2.111842 0.100701 -0.012833 -466013.000000 0 0 1
-23.247617 9.011912 -15.720523 29.475432 -0.369814 2.133344 0.089233 -0.007995 294485.000000 0 0 1
-22.361117 7.952712 -15.424923 28.305360 -0.341699 2.147122 0.096663 -0.010639 -462732.000000 0 0 1
-20.878617 8.267412 -15.267723 27.154559 -0.377032 2.167904 0.130970 -0.024363 -58788.100000 0 0 1
-20.129517 8.540412 -16.462923 27.370859 -0.401255 2.216144 0.135463 -0.036461 765427.000000 0 0 1
-18.730717 8.667112 -16.240923 26.262638 -0.433383 2.237507 0.140940 -0.042743 449939.000000 0 0 1
-17.957917 9.404812 -17.428923 26.733960 -0.482438 2.280936 0.111208 -0.038429 240410.000000 0 0 1
-17.865617 8.710712 -18.693623 27.285679 -0.453653 2.325548 0.143554 -0.050455 219279.000000 0 0 1
-16.932417 7.658412 -18.649323 26.327842 -0.424759 2.357954 0.151075 -0.043008 -589537.000000 0 0 1
-16.753617 6.898112 -19.984623 26.975040 -0.390585 2.405140 0.113507 -0.034404 -275792.000000 0 0 1
-17.684517 5.924212 -20.353523 27.606237 -0.323245 2.399831 0.111640 -0.026155 -823335.000000 0 0 1
-18.686117 6.419012 -21.153623 28.945646 -0.330888 2.390297 0.105144 -0.021635 -806845.000000 0 0 1
-19.571217 5.348512 -21.847823 29.815541 -0.266771 2.393175 0.084313 -0.009342 -286825.000000 0 0 1
-20.372517 4.719412 -20.890023 29.558507 -0.227640 2.355668 0.087071 -0.015631 -42067.100000 0 0 1
-20.856717 3.509512 -21.427423 30.107370 -0.166706 2.362712 0.071176 -0.004346 -631955.000000 0 0 1
-21.739617 2.850912 -20.404623 29.951415 -0.130395 2.320275 0.088899 -0.009733 -576065.000000 0 0 1
-22.245217 1.573412 -20.788323 30.487369 -0.070613 2.321108 0.097821 -0.006760 -78078.800000 0 0 1
-22.875317 1.027812 -19.719523 30.219135 -0.044901 2.281742 0.105028 -0.013820 -729321.000000 0 0 1
-23.693417 -0.247388 -20.041223 31.033688 0.010441 2.272853 0.121465 -0.007847 337871.000000 0 0 1
-22.856417 -1.426688 -20.162423 30.511875 0.062339 2.292688 0.085406 -0.017186 558399.000000 0 0 1
-23.619417 -2.581488 -20.437623 31.340666 0.108863 2.281163 0.105973 -0.024338 -352098.000000 0 0 1
-24.061217 -2.604188 -21.919523 32.652556 0.107812 2.306752 0.090983 -0.027749 1120830.000000 0 0 1
-22.994617 -2.714088 -22.925123 32.583430 0.117488 2.351222 0.056761 -0.026288 932385.000000 0 0 1
-22.361717 -3.975788 -23.098723 32.394510 0.175956 2.364627 0.050913 -0.032317 -157307.000000 0 0 1
-21.334317 -3.901088 -24.216123 32.508340 0.180857 2.411212 0.054433 -0.025292 -88288.000000 0 0 1
-21.986717 -3.868088 -25.514203 33.902100 0.174146 2.422775 0.057387 -0.035772 490380.000000 0 0 1
-21.093917 -3.966988 -26.610283 34.187680 0.185892 2.462844 0.063709 -0.040308 -84481.700000 0 0 1
-21.823517 -3.880688 -27.972463 35.690115 0.175982 2.471492 0.072073 -0.045981 -199954.000000 0 0 1
-22.722117 -4.929588 -28.120963 36.488135 0.213640 2.450716 0.075512 -0.039111 -301785.000000 0 0 1
-23.316317 -5.022488 -29.379193 37.841947 0.212165 2.459675 0.043329 -0.033040 -492310.000000 0 0 1
-22.723617 -6.154688 -30.253523 38.334300 0.264504 2.480306 0.067039 -0.030925 -256389.000000 0 0 1
-21.430917 -5.934488 -30.742303 37.941949 0.270143 2.515368 0.058996 -0.031629 -138009.000000 0 0 1
-20.812317 -7.143488 -31.236453 38.208611 0.330634 2.527895 0.067397 -0.022872 143173.000000 0 0 1
-19.377217 -6.916788 -31.762013 37.843678 0.342857 2.566782 0.067443 -0.032938 -331687.000000 0 0 1
-19.219817 -6.513988 -33.107253 38.831992 0.326770 2.591693 0.059254 -0.043882 243354.000000 0 0 1
-19.250417 -7.644388 33.845634 39.680501 0.378006 0.549178 0.051408 -0.036430 -615319.000000 0 0 1
-18.895417 -7.359088 32.373454 38.199914 0.371391 0.559587 0.042925 -0.039193 331977.000000 0 0 1
-17.543517 -7.005188 32.118068 37.261480 0.379906 0.531665 0.065214 -0.040494 348063.000000 0 0 1
-17.146017 -5.672288 32.368057 37.065507 0.319489 0.508930 0.040321 -0.040599 32200.400000 0 0 1
-15.992417 -5.221188 31.426004 35.645644 0.315569 0.491507 0.042338 -0.031661 -30879.300000 0 0 1
-16.375617 -5.219688 30.058664 34.625557 0.308566 0.519422 0.048333 -0.035421 -108097.000000 0 0 1
-15.314817 -4.814588 29.247804 33.364021 0.304592 0.501989 0.050889 -0.020356 -211648.000000 0 0 1
-15.661317 -4.873588 27.760934 32.244351 0.301688 0.533652 0.070497 -0.026757 221355.000000 0 0 1
-16.544317 -3.804088 27.410844 32.241896 0.226005 0.554503 0.066019 -0.028098 216597.000000 0 0 1
-17.030717 -3.844088 26.075884 31.381110 0.221995 0.589998 0.090856 -0.027275 -364548.000000 0 0 1
-15.935517 -3.564288 25.066024 29.915721 0.220048 0.577394 0.087545 -0.020400 -503162.000000 0 0 1
-15.514317 -2.254188 25.143644 29.630697 0.144288 0.557525 0.080605 -0.010741 -122072.000000 0 0 1
-14.706117 -1.972988 24.015754 28.229753 0.133365 0.553433 0.080915 -0.016537 -32415.300000 0 0 1
-14.452917 -0.429588 23.981674 28.003429 0.029715 0.542572 0.082922 -0.009119 85802.000000 0 0 1
-15.525317 0.319312 23.437064 28.114647 -0.020564 0.585158 0.070769 -0.010666 279646.000000 0 0 1
-15.664317 1.526512 24.146774 28.823042 -0.097145 0.577630 0.047131 -0.002195 -6402.460000 0 0 1
-16.459417 2.498112 23.294244 28.631709 -0.150624 0.620510 0.051034 -0.007156 -173380.000000 0 0 1
-15.567717 3.026312 22.339124 27.396146 -0.192002 0.617357 0.032054 -0.003271 468234.000000 0 0 1
-16.150517 3.932712 21.431924 27.122551 -0.238855 0.659680 0.033342 -0.006327 -131878.000000 0 0 1
-15.079117 4.482912 20.479124 25.823841 -0.288971 0.655027 0.045935 -0.006152 76316.900000 0 0 1
-14.201717 5.457212 21.022124 25.949944 -0.366868 0.626469 0.032118 -0.006921 348942.000000 0 0 1
-13.245117 5.807712 20.032024 24.707177 -0.413232 0.625317 0.027191 -0.008023 -48420.200000 0 1 0
-12.224917 6.895412 20.412324 24.772126 -0.513563 0.602355 0.024335 -0.009203 -67090.300000 0 1 0
-12.693317 8.239012 20.322224 25.337608 -0.575730 0.640064 0.034388 -0.008137 -98934.500000 0 0 1
-11.713817 9.192312 20.621324 25.435233 -0.665367 0.625384 0.040985 -0.008526 -151181.000000 0 0 1
-12.352317 10.603012 20.832224 26.438327 -0.709340 0.663315 0.040734 -0.000200 25813.200000 0 0 1
-12.901017 11.085912 19.625124 25.970736 -0.709872 0.714131 0.051187 -0.005826 188847.000000 0 0 1
-13.223217 12.475912 19.737524 26.834151 -0.756327 0.744337 0.025166 -0.000423 -273623.000000 0 0 1
-13.945217 13.031712 18.475424 26.563807 -0.751549 0.801665 0.040908 -0.001276 -63215.500000 0 0 1
-13.085717 13.654512 17.529724 25.787068 -0.806666 0.823324 0.036048 -0.007763 192067.000000 0 0 1
-12.826817 15.018012 17.826224 26.605303 -0.863929 0.836554 0.047200 -0.015626 74224.300000 0 0 1
-13.916817 16.005612 17.248524 27.338050 -0.855092 0.888039 0.044359 -0.013286 28730.900000 0 0 1
-13.895317 16.394012 15.899124 26.732482 -0.867706 0.933843 0.031885 -0.026108 -80570.300000 0 0 1
-14.312917 15.559612 14.854424 25.838247 -0.827108 0.958314 0.065332 -0.021883 -522969.000000 0 0 1
-14.681017 16.345812 13.616624 25.848216 -0.839003 1.015975 0.050110 -0.027504 1162650.000000 0 0 1
-15.949617 17.014912 13.887524 27.143338 -0.817703 1.033708 0.047101 -0.031042 991774.000000 0 0 1
-16.510917 17.670412 12.753624 27.340606 -0.819307 1.085498 0.061547 -0.033156 -130479.000000 0 0 1
-17.766417 18.461312 13.176724 28.811311 -0.804577 1.095788 0.057786 -0.035099 -1415320.000000 0 0 1
-18.832717 17.634112 13.283324 29.018611 -0.752542 1.095331 0.064922 -0.034469 -1523730.000000 0 0 1
-19.973217 18.460512 13.300724 30.275884 -0.746060 1.115958 0.078469 -0.039677 352901.000000 0 0 1
-21.385917 17.824212 13.450224 30.918740 -0.694810 1.120738 0.093230 -0.032431 743673.000000 0 0 1
-21.763017 17.117812 12.238024 30.272390 -0.666489 1.154623 0.096829 -0.038343 -151261.000000 0 0 1
-23.021817 16.510312 12.399924 30.924950 -0.622150 1.158223 0.105740 -0.035308 54010.200000 0 0 1
-23.509617 15.746912 11.117624 30.401790 -0.590174 1.196423 0.108689 -0.031700 255265.000000 0 0 1
-22.843817 14.484912 10.944924 29.179513 -0.565105 1.186303 0.083095 -0.021495 447150.000000 0 0 1
-23.310817 13.864912 9.755824 28.823706 -0.536576 1.225511 0.091649 -0.019763 251663.000000 0 0 1
-22.436817 12.625412 9.349124 27.390105 -0.512549 1.222463 0.111165 -0.023207 -338571.000000 0 0 1
-22.554617 11.438812 10.182324 27.262371 -0.469360 1.188024 0.110761 -0.023021 324002.000000 0 0 1
-23.824617 10.804812 10.321924 28.122916 -0.425773 1.194983 0.138379 -0.009025 622542.000000 0 0 1
-24.535817 10.278612 8.996224 28.081813 -0.396712 1.244689 0.157030 -0.013845 50469.900000 0 0 1
-25.060907 11.426112 8.257724 28.754045 -0.427777 1.279510 0.155365 -0.022676 519659.000000 0 0 1
-26.101077 11.037112 7.357624 29.278297 -0.400057 1.316774 0.200418 -0.031145 4284.520000 0 0 1
-26.543447 12.247012 6.488524 29.944028 -0.432289 1.352375 0.194933 -0.028470 80802.400000 0 0 1
-25.653607 12.563212 5.399824 29.070602 -0.455394 1.383963 0.188163 -0.037487 170854.000000 0 0 1
-24.517417 13.305512 5.727924 28.477175 -0.497218 1.368274 0.174811 -0.036201 -893208.000000 0 0 1
-24.599117 14.790412 6.236824 29.372960 -0.541344 1.356835 0.152131 -0.037250 -103005.000000 0 0 1
-23.286617 15.306312 6.496324 28.613841 -0.581490 1.341765 0.117602 -0.039326 856577.000000 0 0 1
-23.326117 16.725212 6.598924 29.451421 -0.622055 1.344817 0.109773 -0.044755 827693.000000 0 0 1
-21.862617 17.306112 6.722524 28.682187 -0.669589 1.334216 0.093763 -0.036743 842407.000000 0 0 1
-21.243917 17.450712 5.482824 28.033778 -0.687681 1.373948 0.108244 -0.051341 377754.000000 0 0 1
-19.912317 17.948612 5.571924 27.380638 -0.733578 1.365866 0.105928 -0.043555 143686.000000 0 0 1
-19.558017 18.575512 4.248324 27.305932 -0.759639 1.414579 0.103106 -0.035141 -28187.400000 0 0 1
-18.163917 18.844312 4.194824 26.507216 -0.803781 1.411876 0.091486 -0.039242 387388.000000 0 0 1
-17.833617 19.923512 3.342324 26.947269 -0.840693 1.446444 0.105951 -0.036976 -19389.900000 0 0 1
-18.017317 21.443512 3.779524 28.261859 -0.872006 1.436662 0.109999 -0.049047 10615.700000 0 0 1
-17.267217 21.836212 4.936524 28.272711 -0.901715 1.395293 0.118863 -0.044489 127970.000000 0 0 1
-17.694317 23.047012 5.549224 29.581201 -0.916032 1.382085 0.097549 -0.040097 -72966.600000 0 0 1
-16.888917 23.494612 6.801624 29.723633 -0.947536 1.339922 0.073276 -0.026575 115521.000000 0 0 1
-17.322917 22.805312 7.970224 29.726926 -0.921179 1.299361 0.068655 -0.027933 115138.000000 0 0 1
-16.491517 23.045712 9.066024 29.753449 -0.949677 1.261168 0.074098 -0.031160 -261761.000000 0 0 1
-16.988717 22.297512 10.307524 29.867048 -0.919716 1.218437 0.049826 -0.030175 126222.000000 0 0 1
-18.216417 22.885512 10.706324 31.148192 -0.898511 1.219919 0.048041 -0.025142 -62311.200000 0 0 1
-19.058817 21.853212 11.238024 31.098144 -0.853595 1.201057 0.053938 -0.031494 171861.000000 0 0 1
-20.335717 22.439212 11.907124 32.539809 -0.834534 1.196170 0.059725 -0.025150 277796.000000 0 0 1
-21.300417 23.118012 11.080624 33.330623 -0.826295 1.231901 0.069151 -0.020178 331199.000000 0 0 1
-20.920317 24.317712 10.437924 33.733678 -0.860358 1.256212 0.046961 -0.014939 -652631.000000 0 0 1
-22.079417 25.102912 9.741924 34.821859 -0.849392 1.287247 0.059655 -0.009504 -24308.800000 0 0 1
-22.827317 25.657112 10.775124 35.992736 -0.843697 1.266765 0.062820 -0.011927 -213572.000000 0 0 1
-23.609117 26.752312 10.336824 37.147362 -0.847730 1.288809 0.068960 -0.010128 141351.000000 0 0 1
-24.416417 27.424812 11.479424 38.471533 -0.843364 1.267794 0.083695 -0.024498 -2047.510000 0 0 1
-23.570817 28.302112 12.181224 38.794009 -0.876356 1.251396 0.074498 -0.019261 697052.000000 0 0 1
-24.287517 28.987812 13.205924 40.057123 -0.873397 1.234835 0.069778 -0.019862 161141.000000 0 0 1
9.823683 -32.742240 27.493374 43.868493 -1.279311 0.893456 0.080980 -0.025594 -658956.000000 0 0 1
11.141983 -33.040540 27.186414 44.214502 -1.245550 0.908568 0.056195 -0.035608 -562251.000000 0 0 1
11.569683 -32.310940 26.051474 43.087512 -1.226947 0.921510 0.071160 -0.024265 -75984.900000 0 0 1
13.058583 -32.589340 25.761234 43.545756 -1.189686 0.937767 0.025788 -0.008903 -81158.900000 0 0 1
13.338583 -33.932640 25.508664 44.497571 -1.196261 0.960318 0.034758 -0.033791 -321735.000000 0 0 1
14.739483 33.870112 25.616734 44.951684 1.160338 0.964445 0.036941 -0.019268 -245868.000000 0 0 1
15.175883 32.451212 25.192534 43.795574 1.133360 0.957911 0.053605 -0.016447 -402915.000000 0 0 1
15.153383 32.307912 23.791644 42.889025 1.132230 0.982763 0.030612 -0.025441 -68273.800000 0 0 1
16.062783 31.369212 23.277104 42.235814 1.097551 0.987088 0.027704 -0.026302 -667977.000000 0 0 1
15.980983 30.859912 21.870524 41.061488 1.092966 1.009093 0.034477 -0.036114 67556.100000 0 0 1
14.918083 29.956412 21.525624 39.790555 1.108756 0.999203 0.030068 -0.021974 389291.000000 0 0 1
15.153783 28.555112 21.805324 38.993636 1.082903 0.977373 0.041397 -0.021486 47148.000000 0 0 1
14.765183 28.076512 23.265424 39.339307 1.086651 0.937997 0.053441 -0.030086 81956.200000 0 0 1
15.728683 28.511012 24.209224 40.575310 1.066672 0.931477 0.061130 -0.032738 129165.000000 0 0 1
15.351583 28.144912 25.519174 40.976034 1.071455 0.898502 0.049894 -0.034052 -540022.000000 0 0 1
16.219983 28.629712 26.693754 42.371036 1.055340 0.889243 0.048127 -0.036283 -169909.000000 0 0 1
16.263583 30.064612 26.930404 43.515878 1.074924 0.903501 0.052035 -0.037965 -169116.000000 0 0 1
17.034983 30.250412 28.056304 44.636691 1.057927 0.891111 0.063478 -0.035420 -351661.000000 0 0 1
16.724983 31.706412 28.645824 45.886870 1.085395 0.896599 0.069383 -0.037663 100776.000000 0 0 1
17.311783 32.723712 27.861484 46.333588 1.084196 0.925640 0.063728 -0.035841 58288.500000 0 0 1
16.971683 -33.918540 28.367614 47.362716 -1.106856 0.928615 0.056925 -0.018712 -214110.000000 0 0 1
17.767183 -32.730640 27.764534 46.452523 -1.073474 0.930171 0.042871 -0.017798 -641442.000000 0 0 1
17.632083 -32.586140 26.310304 45.442040 -1.074818 0.953312 0.064088 -0.018423 347314.000000 0 0 1
18.375583 -31.559040 25.625484 44.612784 -1.043523 0.958928 0.070417 -0.023187 -396812.000000 0 0 1
19.899083 -31.522540 25.731114 45.296073 -1.007704 0.966644 0.091337 -0.026713 -776794.000000 0 0 1
20.338383 -30.988740 26.955484 45.831757 -0.989994 0.942039 0.085621 -0.026345 254377.000000 0 0 1
21.228583 -29.909140 26.634334 45.327664 -0.953544 0.942712 0.095275 -0.028110 138586.000000 0 0 1
21.640983 -29.092740 27.817964 45.700753 -0.931235 0.916378 0.102853 -0.021895 -22402.000000 0 0 1
20.489983 -28.410440 28.289554 45.025452 -0.945975 0.891428 0.098323 -0.019699 394393.000000 0 0 1
20.787083 -27.526740 29.307214 45.262976 -0.924001 0.866513 0.100344 -0.018641 -677524.000000 0 0 1
19.490483 -27.066640 29.941384 44.821517 -0.946712 0.839260 0.093840 -0.024620 -89799.500000 0 0 1
18.702683 -26.231740 29.070984 43.393740 -0.951413 0.836675 0.108517 -0.020869 338042.000000 0 0 1
17.451983 -25.856340 29.596884 43.001134 -0.977074 0.811679 0.102220 -0.015911 -294345.000000 0 0 1
16.562183 -25.243840 28.527264 41.537479 -0.990153 0.813741 0.097700 -0.006244 -1041220.000000 0 0 1
16.018483 -26.052140 27.522354 41.143478 -1.019520 0.838020 0.092093 -0.008326 319308.000000 0 0 1
15.346983 -25.407840 26.449934 39.757857 -1.027422 0.842933 0.085943 -0.019052 -972619.000000 0 0 1
13.982083 -24.802340 26.801954 39.102423 -1.057465 0.815603 0.069498 -0.008382 -110011.000000 0 0 1
12.870183 -25.682740 27.018424 39.436531 -1.106252 0.816039 0.060239 -0.000189 761899.000000 0 0 1
12.495683 -26.489340 25.866964 39.075914 -1.130024 0.847356 0.047393 -0.009227 -1343200.000000 0 0 1
11.558483 -27.618240 26.176494 39.769015 -1.174436 0.852353 0.057389 -0.009385 -377637.000000 0 0 1
10.221483 -27.182140 26.363854 39.222446 -1.211117 0.833671 0.057332 -0.018849 -258969.000000 0 0 1
9.444983 -28.328440 26.384394 39.847766 -1.248977 0.847139 0.058180 -0.015830 365084.000000 0 0 1
7.895483 -28.138840 26.646214 39.549383 -1.297240 0.831531 0.045526 -0.021469 1202480.000000 0 0 1
7.029883 -27.931740 25.533584 38.491106 -1.324236 0.845492 0.060226 -0.031504 184438.000000 0 0 1
7.198383 -26.681040 24.907454 37.203170 -1.307277 0.837263 0.081030 -0.032769 -1313280.000000 0 0 1
6.123483 -26.282940 23.905914 36.052499 -1.341896 0.845862 0.079423 -0.028270 -1038570.000000 0 0 1
6.107483 -27.086640 22.743924 35.892527 -1.349025 0.884512 0.067877 -0.025427 -80203.500000 0 0 1
5.551183 -28.391040 22.991454 36.952317 -1.377706 0.899256 0.064233 -0.028959 -463074.000000 0 0 1
4.065983 -28.437640 23.424624 37.066759 -1.428780 0.886720 0.116929 -0.037702 -685690.000000 0 0 1
3.167883 -28.169540 22.299324 36.066859 -1.458809 0.904247 0.118046 -0.039003 -280106.000000 0 0 1
1.880883 -27.981240 22.769624 36.123999 -1.503678 0.888833 0.149960 -0.033485 -955845.000000 0 0 1
1.488783 -26.564240 23.261144 35.340573 -1.514810 0.852372 0.122639 -0.034544 -475761.000000 0 0 1
2.172883 -26.161540 24.450154 35.874192 -1.487930 0.820914 0.101561 -0.033212 293282.000000 0 0 1
1.743583 -24.867440 24.884324 35.222993 -1.500796 0.786285 0.107806 -0.035237 -67061.400000 0 0 1
2.767583 -24.243340 25.876494 35.566726 -1.457130 0.756056 0.117119 -0.036546 -500450.000000 0 0 1
3.898783 -23.852040 25.176414 34.899458 -1.408772 0.764977 0.114312 -0.032947 -710584.000000 0 0 1
4.878683 -23.162440 25.932184 35.110943 -1.363202 0.739837 0.101310 -0.035309 211530.000000 0 0 1
4.658483 -21.675940 26.231344 34.345760 -1.359101 0.701704 0.097357 -0.025940 -323876.000000 0 0 1
4.836683 -20.814040 25.108914 32.970825 -1.342472 0.705096 0.086872 -0.023994 362245.000000 0 0 1
3.884883 -19.728140 25.045564 32.118096 -1.376363 0.676456 0.113055 -0.032633 529796.000000 0 0 1
3.939483 -19.087940 23.658574 30.652848 -1.367268 0.689093 0.108034 -0.032425 116187.000000 0 0 1
5.067983 -18.250840 23.510054 30.191062 -1.299936 0.678191 0.100817 -0.024694 -262128.000000 0 0 1
5.268683 -17.733940 22.221224 28.914260 -1.282006 0.694270 0.090461 -0.021307 228562.000000 0 0 1
6.581883 -16.897540 22.170024 28.641892 -1.199359 0.685596 0.089512 -0.010335 789464.000000 0 0 1
7.691383 -17.773040 22.348024 29.571481 -1.162375 0.714030 0.082040 -0.015780 210946.000000 0 0 1
8.893483 -17.373240 21.700124 29.185936 -1.097669 0.732488 0.075821 -0.009196 284907.000000 0 0 1
10.141783 -17.311940 22.593324 30.216176 -1.040864 0.726170 0.090505 -0.008022 -234259.000000 0 0 1
10.277083 -16.331840 23.557344 30.451533 -1.009135 0.686292 0.089787 -0.001249 197092.000000 0 0 1
11.175483 -16.786640 24.569164 31.785634 -0.983438 0.687296 0.091319 -0.003139 172545.000000 0 0 1
11.166783 -15.861640 25.809414 32.286445 -0.957383 0.644520 0.107072 -0.016308 -12150.100000 0 0 1
11.598583 -14.532440 25.501144 31.559900 -0.897205 0.630007 0.116054 -0.013196 248352.000000 0 0 1
11.639983 -13.737840 26.663324 32.173752 -0.867876 0.593963 0.105189 -0.020866 -133296.000000 0 0 1
11.612483 -12.232040 26.427484 31.350988 -0.811376 0.568043 0.112052 -0.024335 213021.000000 0 0 1
10.409983 -11.644740 25.980964 30.314653 -0.841326 0.541293 0.125346 -0.020635 80435.200000 0 0 1
10.736683 -10.308940 25.707364 29.705541 -0.765076 0.524836 0.122821 -0.019847 241957.000000 0 0 1
9.663183 -9.608540 24.849074 28.340388 -0.782563 0.501614 0.121961 -0.019151 -98205.500000 0 0 1
8.399983 -9.528540 25.462344 28.454942 -0.848263 0.462745 0.112874 -0.023966 -366261.000000 0 0 1
7.516383 -8.910440 24.514504 27.145034 -0.870060 0.443877 0.114765 -0.028106 1616760.000000 0 0 1
5.989883 -9.154840 24.909514 27.206133 -0.991414 0.413837 0.099055 -0.031394 409053.000000 0 0 1
5.536583 -8.202240 25.881754 27.709126 -0.977041 0.365202 0.101601 -0.032426 504600.000000 0 0 1
4.265483 -8.504040 26.498514 28.154649 -1.105883 0.344699 0.096346 -0.027675 1496720.000000 0 0 1
3.051883 -8.474340 25.514434 27.057619 -1.225124 0.339364 0.082498 -0.026671 -606845.000000 0 0 1
2.869783 -7.211440 24.993454 26.170847 -1.192060 0.301099 0.093795 -0.028395 214034.000000 0 0 1
1.785683 -7.123840 24.052194 25.148475 -1.325194 0.296354 0.076603 -0.024079 668270.000000 0 0 1
1.827683 -5.783640 23.290844 24.067703 -1.264718 0.254767 0.060534 -0.028735 81095.500000 0 1 0
1.400183 -4.648840 24.069734 24.554517 -1.278248 0.199040 0.064517 -0.027482 -30545.000000 0 1 0
1.902083 -3.404940 23.585674 23.905973 -1.061356 0.163880 0.068163 -0.026470 -970131.000000 0 1 0
1.126883 -2.692440 22.431224 22.620320 -1.174413 0.129393 0.045385 -0.027591 1680110.000000 0 1 0
-0.093517 -1.966440 22.797124 22.881968 1.523276 0.086142 0.040145 -0.032015 1328020.000000 0 1 0
-1.111917 -2.689440 23.457034 23.636875 1.178759 0.123436 0.044984 -0.023266 -615670.000000 0 1 0
-2.208817 -1.764440 24.019794 24.185587 0.674019 0.117157 0.049776 -0.028020 54187.800000 0 1 0
-1.656917 -0.917440 25.047954 25.119456 0.505682 0.075470 0.067906 -0.026202 585697.000000 0 0 1
-2.544817 0.161560 25.368484 25.496316 -0.063401 0.100180 0.065906 -0.027101 -168746.000000 0 0 1
-1.936317 1.055560 26.419474 26.511358 -0.499103 0.083281 0.101318 -0.032874 -146311.000000 0 0 1
-1.880017 0.614560 27.791814 27.862108 -0.315941 0.071049 0.118954 -0.032437 34877.200000 0 0 1
-1.220317 -0.608440 28.071874 28.104972 0.462521 0.048537 0.126531 -0.035240 -1001800.000000 0 0 1
0.111283 -0.444440 28.808024 28.811667 -1.325451 0.015903 0.150243 -0.034462 28095.800000 0 0 1
1.157183 0.292560 28.133014 28.158322 0.247632 0.042401 0.130070 -0.032919 802073.000000 0 0 1
1.831883 -0.497440 27.127564 27.193895 -0.265152 0.069860 0.122054 -0.037777 -154971.000000 0 0 1
2.893183 -1.568440 27.466274 27.662731 -0.496770 0.119250 0.131662 -0.043530 -552247.000000 0 0 1
2.381383 -2.814440 27.736984 27.980928 -0.868553 0.132143 0.131651 -0.043095 -396790.000000 0 0 1
3.316183 -3.803540 28.080594 28.530400 -0.853743 0.177806 0.136860 -0.037533 -110885.000000 0 0 1
4.047083 -4.604940 26.977994 27.665800 -0.849786 0.223450 0.132785 -0.034715 282009.000000 0 0 1
5.126983 -3.915440 26.385934 27.163102 -0.652207 0.239786 0.126755 -0.031132 -458403.000000 0 0 1
5.713583 -4.724540 25.437624 26.496019 -0.690927 0.283599 0.121950 -0.029302 -219928.000000 0 0 1
6.943083 -4.077040 24.757764 26.034122 -0.530961 0.314427 0.119481 -0.035346 924316.000000 0 0 1
8.151483 -3.831240 25.539054 27.080774 -0.439365 0.339055 0.107653 -0.030427 1199850.000000 0 0 1
9.003083 -4.956740 25.693684 27.672914 -0.503273 0.380504 0.114913 -0.031387 224456.000000 0 0 1
10.026683 -5.160440 24.542624 27.009348 -0.475315 0.430705 0.105399 -0.029137 -338364.000000 0 0 1
9.435783 -5.908540 23.534084 26.034553 -0.559451 0.441865 0.096151 -0.036216 -188562.000000 0 0 1
10.021583 -5.753940 22.231924 25.055905 -0.521199 0.479355 0.112337 -0.033671 -121907.000000 0 0 1
9.834683 -4.377740 21.486924 24.032759 -0.418799 0.464450 0.108861 -0.033114 327056.000000 0 1 0
8.486683 -3.994640 21.314624 23.287209 -0.439930 0.414561 0.093836 -0.028566 -394949.000000 0 1 0
8.453583 -2.951340 20.375924 22.256499 -0.335893 0.414036 0.080849 -0.032606 272314.000000 0 1 0
7.153883 -2.123440 20.198124 21.532562 -0.288540 0.353904 0.073394 -0.020005 -94085.300000 0 1 0
6.681183 -1.486440 21.346624 22.417093 -0.218916 0.310282 0.078788 -0.021496 171104.000000 0 1 0
5.464783 -0.778440 21.155924 21.864193 -0.141495 0.255227 0.049695 -0.016713 416720.000000 0 1 0
4.714183 -0.467440 22.474424 22.968277 -0.098833 0.207745 0.057485 -0.024662 80364.400000 0 1 0
3.454883 0.156560 22.386824 22.652386 0.045285 0.153273 0.049974 -0.021545 -80152.100000 0 1 0
2.918183 0.513560 23.643944 23.828882 0.174202 0.124669 0.069199 -0.021874 -268016.000000 0 1 0
1.467083 0.995560 23.596434 23.662949 0.596217 0.074997 0.068684 -0.026475 -303505.000000 0 1 0
1.266783 2.293560 23.099284 23.247410 1.066172 0.112947 0.062328 -0.020159 73521.200000 0 1 0
-0.109617 2.610560 23.042654 23.190320 -1.528831 0.112910 0.055389 -0.015975 226644.000000 0 1 0
-0.521917 4.032560 22.549924 22.913598 -1.442086 0.178403 0.057125 -0.012791 -195884.000000 0 1 0
-0.315817 5.082560 23.407044 23.954579 -1.508739 0.214219 0.058594 -0.013207 -300725.000000 0 1 0
-1.215217 6.113560 23.093564 23.919972 -1.374580 0.263627 0.052463 -0.015876 -297557.000000 0 1 0
-1.070717 7.482560 23.727624 24.902515 -1.428666 0.308400 0.060401 -0.018666 163120.000000 0 1 0
-0.105017 8.336560 23.119844 24.577152 -1.558200 0.346095 0.045350 -0.020180 243041.000000 0 1 0
-0.108617 9.514560 23.947914 25.768997 -1.559381 0.378201 0.047758 -0.012270 -475712.000000 0 0 1
0.553283 10.784560 23.353754 25.729568 1.519538 0.433117 0.038790 -0.016635 -417708.000000 0 0 1
1.944083 10.809560 23.293674 25.753083 1.392850 0.440590 0.034370 -0.017118 -758455.000000 0 0 1
2.564183 11.143560 24.546814 27.079513 1.344629 0.435944 0.052394 -0.022497 -440973.000000 0 0 1
3.813483 12.039560 24.335724 27.417533 1.264048 0.478694 0.050784 -0.030193 329436.000000 0 0 1
5.030383 11.453560 23.887834 26.965114 1.156961 0.482411 0.051112 -0.023388 149320.000000 0 0 1
5.030083 10.701560 22.656924 25.557021 1.131409 0.481018 0.042339 -0.024685 -1646910.000000 0 0 1
6.381583 10.212560 22.212424 25.266831 1.012286 0.496796 0.061160 -0.026428 -442279.000000 0 0 1
7.250483 11.172560 21.596024 25.372896 0.995156 0.552633 0.064183 -0.032126 488895.000000 0 0 1
8.364283 10.539560 20.968524 24.914304 0.899965 0.570510 0.083357 -0.037039 245553.000000 0 1 0
9.413483 11.572560 20.513224 25.363954 0.887919 0.628764 0.079055 -0.042308 -797435.000000 0 0 1
9.093983 12.292560 19.342724 24.656612 0.933858 0.668932 0.078587 -0.042874 355048.000000 0 1 0
9.943283 13.358560 18.839724 25.144685 0.930929 0.723863 0.101372 -0.036643 279353.000000 0 0 1
11.377083 13.010560 18.394924 25.240561 0.852278 0.754252 0.083516 -0.037037 244046.000000 0 0 1
12.356883 12.875560 19.442824 26.391210 0.805951 0.742596 0.094119 -0.036587 -35015.200000 0 0 1
13.561483 12.467560 18.870724 26.371539 0.743396 0.773354 0.089613 -0.038647 -640783.000000 0 0 1
14.720183 12.318560 19.847824 27.610991 0.696809 0.768667 0.081508 -0.029494 -260655.000000 0 0 1
15.273183 13.491560 20.312424 28.773023 0.723539 0.787027 0.080988 -0.027173 -173462.000000 0 0 1
16.419683 13.344560 21.114124 29.891294 0.682447 0.786449 0.082803 -0.023545 150082.000000 0 0 1
17.232083 14.614560 21.422924 31.136341 0.703391 0.812017 0.085465 -0.014360 -97056.700000 0 0 1
16.685483 15.464560 22.382824 31.914711 0.747441 0.793531 0.089351 -0.006385 839673.000000 0 0 1
17.685683 16.446560 22.779324 33.198950 0.749110 0.814619 0.077975 -0.002670 610693.000000 0 0 1
-21.927117 13.187012 -24.189923 35.211477 -0.541450 2.328135 0.071776 0.010126 127331.000000 0 0 1
-22.345317 12.745612 -25.475583 36.204546 -0.518365 2.351328 0.076316 -0.009483 -9711.680000 0 0 1
-22.788517 13.840612 -26.265683 37.426797 -0.545807 2.348701 0.067966 -0.012300 -36955.500000 0 0 1
-22.394717 13.758012 -27.786673 38.247946 -0.550898 2.383994 0.073173 -0.009830 377728.000000 0 0 1
-20.995217 13.845012 -28.003003 37.638433 -0.582980 2.409834 0.102511 -0.012082 39634.200000 0 0 1
-20.864617 14.242712 -29.399863 38.762598 -0.598970 2.431743 0.096096 -0.013870 -77750.600000 0 0 1
-19.478217 14.746612 -29.824783 38.553614 -0.648018 2.455287 0.090446 -0.024572 -244568.000000 0 0 1
-18.617717 13.700412 -30.294943 38.106485 -0.634403 2.489816 0.080813 -0.022507 802948.000000 0 0 1
-17.251317 14.156612 -30.226233 37.571834 -0.687183 2.505616 0.061534 -0.013830 951216.000000 0 0 1
-16.390817 13.735912 -29.027243 36.054334 -0.697501 2.506636 0.095807 -0.013128 -247107.000000 0 0 1
-16.857317 14.175312 -27.742823 35.422772 -0.699187 2.470579 0.099086 -0.010427 -69124.400000 0 0 1
-17.253117 13.067912 -26.928023 34.547920 -0.648235 2.464567 0.129578 -0.006774 175183.000000 0 0 1
-17.877917 13.535312 -25.594483 34.027961 -0.648028 2.422131 0.122421 -0.013000 317609.000000 0 0 1
-16.903617 14.148412 -24.753423 33.145765 -0.696901 2.414041 0.153099 -0.028430 499570.000000 0 0 1
-17.493117 14.589712 -23.536423 32.754114 -0.695147 2.372553 0.131249 -0.028874 -118210.000000 0 0 1
-16.442817 15.053012 -22.535623 31.698796 -0.741300 2.361616 0.124288 -0.026696 -136558.000000 0 0 1
-16.109117 16.387012 -22.797023 32.368844 -0.793950 2.352218 0.113844 -0.027674 -15093.900000 0 0 1
-15.238917 16.972112 -21.820923 31.566277 -0.839154 2.334046 0.101613 -0.025489 -241931.000000 0 0 1
-15.243217 18.513312 -22.041023 32.571537 -0.881970 2.314062 0.079133 -0.021496 120241.000000 0 0 1
-16.420317 19.270312 -21.801823 33.410944 -0.865082 2.281722 0.051191 -0.016190 411126.000000 0 0 1
-17.407217 19.046312 -22.813523 34.441690 -0.830332 2.294789 0.045980 -0.016472 15923.100000 0 0 1
-18.646017 19.962712 -22.743023 35.544745 -0.819489 2.265089 0.038197 -0.008589 83078.300000 0 0 1
-18.343617 21.274712 -23.162623 36.408910 -0.859247 2.260333 0.019566 -0.007077 541525.000000 0 0 1
-19.565417 22.010912 -23.317823 37.563368 -0.844150 2.240508 0.059011 -0.018875 618399.000000 0 0 1
-19.434117 23.484612 -23.739923 38.636716 -0.879495 2.232472 0.035065 -0.014289 -239745.000000 0 0 1
-19.017817 24.334012 -22.702923 38.330721 -0.907418 2.204695 0.021544 -0.010152 -518637.000000 0 0 1
-18.289017 25.445612 -23.153823 38.962377 -0.947597 2.207143 0.008317 -0.001795 -656217.000000 0 0 1
-17.173517 25.817012 -22.133623 38.096522 -0.983809 2.190738 0.001126 -0.004524 150761.000000 0 0 1
-16.094017 24.901712 -21.953323 36.892560 -0.997025 2.208138 0.019456 -0.020639 244613.000000 0 0 1
-16.476517 23.617412 -21.534123 35.957978 -0.961654 2.212885 0.028839 -0.006959 -1245990.000000 0 0 1
-15.361017 22.504712 -21.479123 34.695469 -0.971865 2.238362 0.052644 -0.014758 559450.000000 0 0 1
-14.487217 22.664412 -20.391423 33.754483 -1.002047 2.219445 0.077582 -0.023062 -110817.000000 0 0 1
-13.456917 21.721512 -20.187923 32.564780 -1.016147 2.239451 0.076780 -0.022711 347803.000000 0 0 1
-12.528417 22.189412 -19.019623 31.797441 -1.056804 2.211986 0.076427 -0.024154 139387.000000 0 0 1
-13.091617 22.079912 -17.709023 31.185292 -1.035599 2.174706 0.090031 -0.022819 -99107.700000 0 0 1
-13.885017 23.193712 -17.388723 32.142023 -1.031367 2.142418 0.095981 -0.029404 -523365.000000 0 0 1
-14.541717 22.981512 -16.053023 31.580230 -1.006638 2.104035 0.106044 -0.041470 -203930.000000 0 0 1
-13.602917 23.065412 -14.993923 30.689905 -1.037945 2.081237 0.126071 -0.050971 420557.000000 0 0 1
-14.189917 22.904912 -13.703823 30.228852 -1.016152 2.041301 0.142671 -0.043936 122490.000000 0 0 1
-13.147017 23.354112 -12.674723 29.646369 -1.058071 2.012555 0.192857 -0.047792 20872.600000 0 0 1
-13.070917 24.770412 -12.458623 30.653539 -1.085249 1.989343 0.161316 -0.049738 348905.000000 0 0 1
-11.979617 25.049412 -11.595023 30.090344 -1.124708 1.966373 0.118900 -0.042586 -92369.400000 0 0 1
-11.436617 26.487012 -11.822923 31.179152 -1.163195 1.959721 0.142429 -0.043579 212539.000000 0 0 1
-10.703317 26.624212 -13.047223 31.522050 -1.188555 1.997539 0.138230 -0.046797 162741.000000 0 0 1
-10.806217 27.933912 -13.521023 32.861768 -1.201678 1.994842 0.118844 -0.019473 -788345.000000 0 0 1
-10.080417 28.162712 -14.860323 33.400334 -1.227070 2.031876 0.155143 -0.047426 905637.000000 0 0 1
-8.651017 28.203612 -14.878323 33.040101 -1.273173 2.037910 0.127526 -0.054497 720902.000000 0 0 1
-7.985817 26.966612 -14.596423 31.686385 -1.282887 2.049527 0.136609 -0.052771 272013.000000 0 0 1
-6.443217 26.957512 -14.867723 31.452689 -1.336184 2.063150 0.148016 -0.057263 926979.000000 0 0 1
-5.710817 27.924712 -14.151723 31.822542 -1.369070 2.031644 0.129077 -0.050321 156104.000000 0 0 1
-4.320717 27.783112 -14.502623 31.636940 -1.416516 2.046999 0.134017 -0.053589 1147520.000000 0 0 1
-3.391417 28.641612 -13.579623 31.878673 -1.452936 2.010839 0.109695 -0.040291 -312324.000000 0 0 1
-3.308317 30.059912 -13.754723 33.222517 -1.461180 1.997660 0.109010 -0.040326 -805832.000000 0 0 1
-4.443117 30.774412 -13.420523 33.866150 -1.427410 1.978259 0.100556 -0.040587 -493333.000000 0 0 1
-4.248617 32.289612 -13.791823 35.367840 -1.439969 1.971378 0.102617 -0.045507 298392.000000 0 0 1
-3.409917 33.097012 -12.977823 35.713633 -1.468131 1.942696 0.069527 -0.046017 -8109.100000 0 0 1
-3.413417 -33.485040 -13.465723 36.252242 1.469209 1.951361 0.068919 -0.041271 98197.500000 0 0 1
-2.636117 -32.499040 -12.591823 34.952693 1.489860 1.939336 0.072239 -0.041621 -153161.000000 0 0 1
-3.140517 -32.459840 -11.292223 34.511134 1.474346 1.904141 0.069839 -0.044646 471482.000000 0 0 1
-2.229217 -31.787440 -10.390623 33.516799 1.500782 1.886002 0.057748 -0.046739 219688.000000 0 0 1
-2.825717 -31.654840 -8.949823 33.016858 1.481766 1.845299 0.051116 -0.027945 421750.000000 0 0 1
-1.855717 -31.019640 -8.072723 32.106551 1.511044 1.824959 0.071659 -0.042090 482578.000000 0 0 1
-2.120917 -31.145540 -6.727723 31.934389 1.502804 1.783060 0.064014 -0.043103 832835.000000 0 0 1
-0.837817 -30.766140 -5.864523 31.331293 1.543571 1.759085 0.079722 -0.040231 952636.000000 0 0 1
-1.068017 -30.587040 -4.448623 30.927301 1.535893 1.715138 0.091896 -0.042536 -893786.000000 0 0 1
0.146483 -30.260840 -3.866723 30.507236 -1.565956 1.697886 0.089695 -0.035012 -806185.000000 0 0 1
0.211683 -30.330940 -2.284123 30.417560 -1.563817 1.645959 0.091577 -0.029057 -502465.000000 0 0 1
0.324683 -31.592740 -1.667323 31.638373 -1.560520 1.623520 0.089548 -0.042258 -274891.000000 0 0 1
1.319383 -32.445540 -2.173223 32.544996 -1.530154 1.637622 0.087989 -0.042301 131861.000000 0 0 1
2.782683 -32.109840 -1.772623 32.278900 -1.484351 1.625740 0.080005 -0.035294 -832944.000000 0 0 1
3.052383 -32.352040 -0.394023 32.498105 -1.476726 1.582921 0.067539 -0.030703 625550.000000 0 0 1
4.383383 -32.040840 0.055377 32.339335 -1.434834 1.569084 0.047080 -0.025715 776552.000000 0 0 1
4.647583 -30.554540 0.223477 30.906794 -1.419846 1.563566 0.026190 -0.023694 -978864.000000 0 0 1
4.645083 -29.896740 -1.043023 30.273417 -1.416658 1.605257 0.050020 -0.027699 -59840.800000 0 0 1
4.406283 -28.560840 -0.790423 28.909543 -1.417726 1.598141 0.056447 -0.017436 -379057.000000 0 0 1
3.963483 -27.692540 -1.959523 28.043283 -1.428637 1.640728 0.058721 -0.012519 -836956.000000 0 0 1
2.755683 -27.970840 -2.567123 28.223250 -1.472593 1.661880 0.063896 -0.022805 -825329.000000 0 0 1
2.425483 -26.999840 -3.492423 27.332606 -1.481204 1.698922 0.059911 -0.024220 139489.000000 0 0 1
3.071383 -27.192940 -4.902923 27.801583 -1.458325 1.748078 0.060248 -0.021873 17482.800000 0 0 1
2.465683 -28.247840 -5.614623 28.905779 -1.483730 1.766278 0.065421 -0.030807 -259292.000000 0 0 1
2.881483 -28.261240 -6.926423 29.239972 -1.469189 1.809952 0.087366 -0.048667 -153525.000000 0 0 1
2.036883 -29.180440 -7.862223 30.289627 -1.501106 1.833371 0.087272 -0.046878 104594.000000 0 0 1
0.750383 -28.599040 -8.036523 29.716222 -1.544564 1.844649 0.083969 -0.044100 90261.100000 0 0 1
0.379083 -28.475040 -9.430123 29.998314 -1.557484 1.890574 0.098455 -0.045949 -160608.000000 0 0 1
-0.966517 -27.792640 -9.674623 29.444241 1.536034 1.905590 0.084095 -0.046523 -1513780.000000 0 0 1
-1.008917 -26.398740 -9.369523 28.030329 1.532597 1.911620 0.084032 -0.042784 264683.000000 0 0 1
-2.280817 -25.806440 -9.614123 27.633419 1.482644 1.926144 0.097924 -0.034415 699194.000000 0 0 1
-3.517017 -26.356240 -8.891523 28.037118 1.438138 1.893502 0.093160 -0.038272 -1008740.000000 0 0 1
-3.361317 -26.316440 -7.441323 27.554070 1.443757 1.844254 0.103373 -0.038056 -228123.000000 0 0 1
-3.165717 -27.623040 -6.907123 28.648952 1.456690 1.814290 0.119521 -0.030817 322207.000000 0 0 1
-2.403317 -27.668140 -5.525423 28.316642 1.484152 1.767186 0.097494 -0.012709 197355.000000 0 0 1
-3.274617 -27.422840 -4.465223 27.976302 1.451947 1.731089 0.100715 -0.026485 -30164.100000 0 0 1
-2.609217 -27.416240 -3.231023 27.729006 1.475912 1.687583 0.090503 -0.007249 235843.000000 0 0 1
-3.700617 -27.272840 -2.162823 27.607611 1.435931 1.649218 0.103925 -0.021084 240113.000000 0 0 1
-4.627117 -26.219640 -2.272123 26.721570 1.396120 1.655929 0.098992 -0.017928 -43930.400000 0 0 1
-5.387717 -26.184840 -1.067023 26.754661 1.367871 1.610689 0.105371 -0.028908 -40381.200000 0 0 1
-6.380317 -25.016440 -1.022823 25.837509 1.321075 1.610393 0.084284 -0.023084 -134769.000000 0 0 1
-5.742017 -23.772340 -0.814623 24.469543 1.333794 1.604094 0.064594 -0.023104 -224172.000000 0 1 0
-6.479517 -22.928040 0.026577 23.826034 1.295376 1.569681 0.093539 -0.030112 -315347.000000 0 1 0
-5.843117 -21.564840 0.400477 22.346023 1.306194 1.552874 0.064252 -0.027660 -164814.000000 0 1 0
-4.856217 -21.697140 1.401777 22.278099 1.350607 1.507833 0.054762 -0.026528 -186543.000000 0 1 0
-4.191117 -20.484640 1.579877 20.968595 1.368984 1.495380 0.028349 -0.016010 -383414.000000 0 1 0
-3.247217 -20.397640 2.782377 20.841060 1.412925 1.436892 0.029021 -0.008773 -200350.000000 0 1 0
-3.867517 -20.455740 4.023477 21.203381 1.383934 1.379882 0.024750 -0.000975 61669.900000 0 1 0
-2.922717 -20.177440 5.071377 21.009289 1.426946 1.327001 0.028411 -0.011030 1040360.000000 0 1 0
-2.020417 -21.413940 5.563277 22.216862 1.476724 1.317695 0.031560 -0.018271 877593.000000 0 1 0
-1.052817 -21.729640 4.583677 22.232764 1.522383 1.363139 0.039197 -0.016114 -260138.000000 0 1 0
-0.246217 -22.856640 4.797077 23.355911 1.560025 1.363934 0.037454 -0.014031 -974278.000000 0 1 0
0.814583 -23.111940 3.731377 23.425382 -1.535566 1.410827 0.040240 -0.019620 240811.000000 0 1 0
1.917983 -22.208940 3.654877 22.589241 -1.484649 1.408285 0.014457 -0.027554 -251476.000000 0 1 0
2.881383 -22.598140 4.585177 23.237947 -1.443975 1.372179 0.042569 -0.028150 -1067680.000000 0 1 0
3.993483 -21.511440 4.641677 22.365937 -1.387241 1.361744 0.050985 -0.031591 38274.800000 0 1 0
4.829183 -21.504340 3.513877 22.318266 -1.349893 1.412694 0.035239 -0.018527 -480012.000000 0 1 0
5.958083 -20.682740 3.733077 21.845145 -1.290320 1.399065 0.053042 -0.016005 637502.000000 0 1 0
6.754683 -20.482140 2.379377 21.698047 -1.252244 1.460917 0.058704 -0.010884 -3925.160000 0 1 0
7.405183 -21.592340 1.810377 22.898545 -1.240412 1.491653 0.068038 -0.009681 -114295.000000 0 1 0
7.045283 -21.697540 0.449477 22.817127 -1.256832 1.551096 0.056284 -0.012102 475351.000000 0 1 0
8.150483 -22.490640 -0.308323 23.923928 -1.223123 1.583684 0.058940 -0.007563 608246.000000 0 1 0
9.328483 -21.770940 -0.573923 23.692274 -1.165979 1.595023 0.069932 -0.012329 227321.000000 0 1 0
10.352083 -22.531240 -1.257023 24.827455 -1.140108 1.621448 0.075688 -0.016181 761361.000000 0 1 0
11.571983 -21.771640 -1.794823 24.721175 -1.082255 1.643463 0.087005 -0.021795 -198662.000000 0 1 0
11.453083 -20.923640 -2.919823 24.031171 -1.069970 1.692599 0.081027 -0.011597 -199231.000000 0 1 0
12.693383 -20.884940 -3.598323 24.703251 -1.024678 1.716978 0.083609 -0.012642 246378.000000 0 1 0
12.762183 -19.672040 -4.542523 23.885079 -0.995302 1.762144 0.079969 -0.021205 -32647.500000 0 1 0
12.920783 -18.462640 -3.904723 22.870561 -0.960182 1.742368 0.091236 -0.015072 31378.400000 0 1 0
12.950183 -17.350040 -4.799523 22.175810 -0.929599 1.788953 0.093506 -0.026029 -934725.000000 0 1 0
13.468483 -16.137140 -4.018023 21.399809 -0.875295 1.759677 0.099041 -0.020089 1389020.000000 0 1 0
14.825983 -16.208040 -3.499823 22.243181 -0.829902 1.728797 0.093635 -0.016935 1320800.000000 0 1 0
15.784883 -16.071340 -4.550723 22.981723 -0.794390 1.770129 0.100630 -0.021629 374865.000000 0 1 0
17.209383 -15.590440 -4.057323 23.573005 -0.736080 1.743775 0.101084 -0.022654 792743.000000 0 1 0
17.907983 -16.579640 -3.349723 24.633331 -0.746901 1.707202 0.102178 -0.027524 -620615.000000 0 1 0
19.249583 -16.212640 -3.302323 25.383095 -0.699968 1.701265 0.084496 -0.020446 -879656.000000 0 0 1
20.027883 -17.079840 -2.308423 26.422828 -0.706119 1.658273 0.075215 -0.028636 -640241.000000 0 0 1
21.405983 -16.861040 -2.418423 27.356161 -0.667183 1.659317 0.068430 -0.025916 -658884.000000 0 0 1
22.054383 -17.754640 -1.611223 28.358757 -0.677806 1.627643 0.057889 -0.017504 1210450.000000 0 0 1
23.644783 -17.724040 -1.732923 29.601020 -0.643243 1.629372 0.064257 -0.021500 1342170.000000 0 0 1
24.199783 -16.495140 -1.384923 29.319570 -0.598286 1.618049 0.078722 -0.023535 349104.000000 0 0 1
25.540083 -16.678240 -0.934223 30.517738 -0.578497 1.601414 0.110212 -0.020996 651689.000000 0 0 1
26.174883 -15.373540 -0.387223 30.358198 -0.531058 1.583552 0.106763 -0.020107 51197.500000 0 0 1
25.431583 -14.961040 0.721477 29.514720 -0.531762 1.546349 0.094190 -0.021548 364504.000000 0 0 1
26.024083 -13.748840 1.219277 29.457939 -0.486040 1.529394 0.083143 -0.018445 857948.000000 0 0 1
25.106683 -13.017240 2.313577 28.375107 -0.478320 1.489170 0.098066 -0.026398 392426.000000 0 0 1
24.762283 -13.734440 3.509177 28.532785 -0.506407 1.447497 0.107945 -0.021282 -335480.000000 0 0 1
25.774683 -14.123240 4.390277 29.716574 -0.501268 1.422515 0.131298 -0.012375 -455337.000000 0 0 1
25.315083 -14.685640 5.789877 29.833608 -0.525669 1.375485 0.102785 -0.007228 -112397.000000 0 0 1
24.573383 -15.836540 5.525177 29.751887 -0.572470 1.384004 0.106117 -0.012208 -201411.000000 0 0 1
23.897283 -16.238240 6.686077 29.655762 -0.596836 1.343385 0.085739 -0.011051 61158.600000 0 0 1
23.157483 -17.633240 6.554577 29.835594 -0.650788 1.349300 0.075973 -0.010871 118063.000000 0 0 1
24.076583 -18.676340 6.736977 31.206961 -0.659751 1.353203 0.082352 -0.009328 320259.000000 0 0 1
23.397283 -19.949340 6.817177 31.494173 -0.706022 1.352611 0.035186 0.003059 224732.000000 0 0 1
2.414883 23.409412 -3.361523 23.772506 1.468001 1.712676 0.041214 -0.006867 -107996.000000 0 1 0
3.234983 24.425112 -2.887423 24.807023 1.439118 1.687456 0.055226 -0.010514 -180159.000000 0 1 0
3.954783 25.106912 -3.923123 25.717469 1.414562 1.723941 0.070372 -0.007314 101974.000000 0 0 1
4.951883 26.140412 -3.351823 26.815611 1.383581 1.696119 0.057097 -0.003075 -359820.000000 0 0 1
5.877483 25.481212 -2.557023 26.274994 1.344102 1.668268 0.029863 -0.003117 -845763.000000 0 0 1
6.734083 26.307412 -1.816623 27.216317 1.320201 1.637594 0.026483 -0.005397 -28199.700000 0 0 1
7.773183 25.431312 -1.029423 26.612661 1.274160 1.609488 0.004144 -0.015715 -320408.000000 0 0 1
8.746283 25.129012 -1.961623 26.679817 1.235855 1.644387 0.014131 -0.019528 -910514.000000 0 0 1
9.691083 24.179212 -1.488723 26.091525 1.189599 1.627885 0.007007 -0.020016 -261971.000000 0 0 1
10.816483 23.941812 -2.467223 26.387380 1.146461 1.664433 0.032605 -0.018981 -1790140.000000 0 0 1
11.762183 24.963012 -2.564323 27.714196 1.130466 1.663456 0.041346 -0.016612 -382348.000000 0 0 1
12.683383 24.869312 -3.630323 28.151911 1.099180 1.700111 0.059493 -0.027076 813775.000000 0 0 1
13.689783 23.635212 -3.503123 27.537343 1.045803 1.698356 0.071162 -0.022275 -836038.000000 0 0 1
13.151183 22.369112 -3.743123 26.217203 1.039309 1.714059 0.074926 -0.026633 -374838.000000 0 0 1
12.899383 22.030112 -5.111823 26.035565 1.041081 1.768420 0.091250 -0.036776 -725240.000000 0 0 1
11.923383 20.849212 -5.213123 24.577090 1.051305 1.784533 0.082764 -0.034494 -222332.000000 0 1 0
10.644983 21.332612 -4.844923 24.328363 1.107949 1.771284 0.062422 -0.025041 -145802.000000 0 1 0
9.701383 20.274012 -4.771023 22.976402 1.124485 1.779967 0.039979 -0.018707 1294150.000000 0 1 0
8.180183 20.662012 -4.619723 22.697488 1.193826 1.775763 0.024250 -0.015319 1068370.000000 0 1 0
7.841783 21.123912 -3.309123 22.774185 1.215337 1.716614 0.024385 -0.013323 -504273.000000 0 1 0
6.547883 21.654112 -3.339923 22.867672 1.277153 1.717375 0.032263 -0.003821 -277875.000000 0 1 0
6.168683 22.184212 -1.966523 23.109719 1.299582 1.655994 0.032961 -0.008988 -34176.000000 0 1 0
5.849783 21.246212 -0.982623 22.058718 1.302121 1.615357 0.027757 -0.015722 -75623.000000 0 1 0
5.014883 21.881512 -0.031523 22.448844 1.345503 1.572201 0.029743 -0.016043 331705.000000 0 1 0
4.433583 20.981912 1.104177 21.473623 1.362555 1.519353 0.014939 -0.017046 -94362.800000 0 1 0
3.674183 21.669512 2.064877 22.075576 1.402838 1.477123 0.021346 -0.015519 26650.500000 0 1 0
3.271283 20.718512 3.043977 21.194901 1.414197 1.426680 0.027225 -0.018274 4954.140000 0 1 0
2.278483 21.183312 4.149377 21.705794 1.463648 1.378448 0.013607 -0.021365 933784.000000 0 1 0
0.969683 21.441512 3.604977 21.764066 1.525603 1.404390 0.013967 -0.021404 277997.000000 0 1 0
0.077183 21.925012 4.553777 22.393057 1.567276 1.366011 0.011933 -0.025233 -1050730.000000 0 1 0
-1.256617 22.299712 4.013877 22.692894 -1.514505 1.392983 0.016599 -0.014769 -500309.000000 0 1 0
-2.271817 22.638312 4.978077 23.290246 -1.470778 1.355394 0.031939 -0.027175 -428857.000000 0 1 0
-3.455417 22.834112 4.287577 23.488718 -1.420609 1.387229 0.050997 -0.025001 -112055.000000 0 1 0
-4.766917 22.938812 5.134277 23.984857 -1.365902 1.355064 0.070703 -0.039562 303079.000000 0 1 0
-4.961517 24.146212 5.761177 25.314963 -1.368139 1.341205 0.089003 -0.033286 -382590.000000 0 0 1
-6.163417 24.178112 6.486677 25.780725 -1.321195 1.316453 0.106648 -0.035960 23902.400000 0 0 1
-6.543817 25.616712 6.883177 27.320607 -1.320694 1.316111 0.121392 -0.036325 43495.300000 0 0 1
-5.669017 26.094612 7.898277 27.846890 -1.356872 1.283216 0.087871 -0.038819 -58513.500000 0 0 1
-6.088217 27.215712 8.649077 29.198765 -1.350717 1.270070 0.106572 -0.031124 -374930.000000 0 0 1
-6.210317 28.565312 7.845277 30.267036 -1.356720 1.308600 0.126514 -0.032158 92014.200000 0 0 1
-7.344717 28.647812 7.019077 30.395878 -1.319822 1.337771 0.139808 -0.045146 -447313.000000 0 0 1
-7.295117 29.837712 6.295477 31.355076 -1.331007 1.368642 0.145702 -0.042456 415993.000000 0 0 1
-8.680617 30.047612 5.554777 31.765825 -1.289558 1.395026 0.121922 -0.043824 1419330.000000 0 0 1
-9.709417 30.469612 6.435977 32.620420 -1.262310 1.372194 0.106990 -0.040337 -454425.000000 0 0 1
-10.453217 29.487612 7.029577 32.065619 -1.230123 1.349777 0.105098 -0.043694 -561916.000000 0 0 1
-11.565317 30.032012 7.974177 33.155177 -1.203201 1.327904 0.074561 -0.038541 230015.000000 0 0 1
-11.147717 30.606912 9.226777 33.855399 -1.221508 1.294770 0.076352 -0.032397 146487.000000 0 0 1
-12.264217 30.724112 10.096477 34.587872 -1.191004 1.274575 0.088868 -0.021049 195277.000000 0 0 1
-11.763517 31.027912 11.520877 35.126091 -1.208412 1.236625 0.078767 -0.025292 -138437.000000 0 0 1
-11.180517 32.300212 11.560677 36.082640 -1.237561 1.244650 0.082530 -0.026768 396762.000000 0 0 1
-10.167417 32.498412 12.543577 36.288627 -1.267585 1.217853 0.073127 -0.031193 367068.000000 0 0 1
-9.694417 -33.936540 12.621277 37.482891 1.292544 1.227364 0.076273 -0.036607 76708.600000 0 0 1
-10.660917 -33.069440 13.192277 37.165565 1.258936 1.207925 0.074106 -0.018551 -50143.200000 0 0 1
-10.342317 -31.699040 13.064477 35.811635 1.255420 1.197367 0.079414 -0.016708 -250193.000000 0 0 1
-11.156817 -30.686940 13.878777 35.479337 1.222085 1.168884 0.073990 -0.021814 -198712.000000 0 0 1
-10.970017 -30.676040 15.265277 35.977624 1.227359 1.132608 0.071360 -0.025894 218985.000000 0 0 1
-9.761417 -30.068840 15.712077 35.302830 1.256894 1.109549 0.079424 -0.027597 436233.000000 0 0 1
-9.647917 -30.252540 17.274777 36.148533 1.262080 1.072553 0.059621 -0.037989 -194378.000000 0 0 1
-10.601917 -29.516840 18.005477 36.164094 1.225965 1.049641 0.101035 -0.039728 -95560.400000 0 0 1
-11.089717 -30.463640 18.937277 37.545115 1.221677 1.042124 0.064071 -0.040417 -219370.000000 0 0 1
-11.491117 -29.767440 20.239577 37.786066 1.202391 1.005536 0.086207 -0.039210 2264.110000 0 0 1
-10.411917 -29.128740 20.867577 37.314170 1.227505 0.977328 0.082535 -0.038995 230957.000000 0 0 1
-10.955217 -28.473940 22.014077 37.621824 1.203509 0.945742 0.076433 -0.029323 196391.000000 0 0 1
-9.943417 -28.394540 23.151977 37.962291 1.233954 0.914903 0.097671 -0.031650 -196644.000000 0 0 1
-9.835117 -29.569440 23.902277 39.273403 1.249696 0.916486 0.105959 -0.020832 265210.000000 0 0 1
-8.730917 -29.498340 24.797477 39.513237 1.283032 0.892363 0.111634 -0.026408 143613.000000 0 0 1
-8.529817 -30.612740 25.821877 40.947124 1.299053 0.888451 0.118531 -0.028182 13632.000000 0 0 1
-8.141117 -31.911840 25.273077 41.513513 1.321011 0.916260 0.131004 -0.033511 459569.000000 0 0 1
-8.176917 -32.965140 26.186277 42.886869 1.327656 0.913991 0.132909 -0.030235 -255045.000000 0 0 1
-7.936617 33.545412 25.512077 42.885319 -1.338475 0.933667 0.126594 -0.029647 304910.000000 0 0 1
-6.624117 33.306512 24.991477 42.163688 -1.374475 0.936358 0.121006 -0.024951 530050.000000 0 0 1
-6.388217 32.040712 24.359277 40.752802 -1.373999 0.930127 0.121515 -0.021926 -235914.000000 0 0 1
-7.235017 31.631412 23.136277 39.851964 -1.345936 0.951386 0.117248 -0.023632 484359.000000 0 0 1
-8.516717 31.134212 23.550277 39.956090 -1.303780 0.940476 0.102914 -0.030416 760975.000000 0 0 1
-9.439017 30.913512 22.486177 39.374718 -1.274451 0.962973 0.092197 -0.030431 304887.000000 0 0 1
-10.257017 29.609612 22.727477 38.710124 -1.237325 0.943300 0.092220 -0.035317 199314.000000 0 0 1
-9.624017 28.421312 22.277677 37.372283 -1.244296 0.932159 0.081975 -0.026664 212784.000000 0 0 1
-10.323917 27.358912 22.814277 37.088874 -1.209966 0.908252 0.066423 -0.022940 -179014.000000 0 0 1
-9.514217 26.098412 22.473177 35.730815 -1.221217 0.890584 0.055916 -0.022874 768976.000000 0 0 1
-8.228917 25.925612 23.079077 35.672065 -1.263449 0.867180 0.049889 -0.029567 588912.000000 0 0 1
-7.815317 24.559512 22.943677 34.505958 -1.262709 0.843411 0.060234 -0.030734 -118765.000000 0 0 1
-6.490917 24.291512 23.681877 34.540423 -1.309687 0.815330 0.061079 -0.027782 127758.000000 0 0 1
-5.410917 24.784512 22.903977 34.178096 -1.355850 0.836404 0.062392 -0.027641 679526.000000 0 0 1
-4.167117 24.754412 23.624877 34.471446 -1.404022 0.815717 0.093553 -0.026073 678638.000000 0 0 1
-2.889117 25.298212 22.999877 34.312401 -1.457087 0.836173 0.092554 -0.019602 -253155.000000 0 0 1
-2.368017 24.509212 21.978377 33.005424 -1.474478 0.842094 0.083199 -0.022823 4048.590000 0 0 1
-1.648917 25.285112 21.015277 32.919564 -1.505676 0.878401 0.087149 -0.015114 236457.000000 0 0 1
-1.243917 24.352812 19.823077 31.425486 -1.519762 0.888217 0.066695 -0.015038 -693100.000000 0 0 1
-0.256217 23.442912 20.146577 30.911492 -1.559867 0.860906 0.081743 -0.026092 -583117.000000 0 0 1
-0.054917 22.538912 19.085077 29.533807 -1.568360 0.868187 0.069879 -0.022161 -347710.000000 0 0 1
1.070283 21.504312 19.288677 28.907335 1.521067 0.840274 0.066379 -0.017658 314365.000000 0 0 1
2.373483 22.016612 19.047077 29.208830 1.463407 0.860445 0.065110 -0.023149 -378791.000000 0 0 1
3.330183 21.012312 19.064977 28.567127 1.413616 0.840118 0.073493 -0.018950 569638.000000 0 0 1
4.800083 21.571612 19.014677 29.153613 1.351845 0.860282 0.062960 -0.025628 472991.000000 0 0 1
5.772283 20.595512 18.797177 28.475046 1.297538 0.849807 0.077936 -0.022491 -913532.000000 0 0 1
7.006583 21.230912 18.702377 29.148289 1.252033 0.874177 0.098428 -0.025856 -266527.000000 0 0 1
8.204483 20.318812 18.304877 28.552341 1.187029 0.874867 0.092424 -0.016154 248952.000000 0 0 1
8.676883 19.429212 19.342877 28.756381 1.150782 0.833017 0.100723 -0.021390 -300326.000000 0 0 1
9.704783 18.609712 18.884077 28.233182 1.090105 0.838121 0.090228 -0.022358 -343328.000000 0 0 1
10.319083 17.629612 19.899777 28.518202 1.041236 0.798486 0.113645 -0.025022 -1034200.000000 0 0 1
9.499083 16.690412 20.439777 28.046157 1.053382 0.754242 0.121086 -0.024674 -387285.000000 0 0 1
10.159783 15.994612 21.517277 28.671275 1.004896 0.722005 0.117778 -0.033749 512982.000000 0 0 1
9.114183 15.043012 22.138777 28.275183 1.026068 0.671361 0.094855 -0.027599 527421.000000 0 0 1
8.051683 15.775012 22.770877 28.847763 1.098857 0.661053 0.086672 -0.017267 940921.000000 0 0 1
6.915683 14.958312 23.152077 28.418241 1.137736 0.618601 0.083811 -0.015051 955965.000000 0 0 1
7.154383 13.874812 24.297677 28.880317 1.094717 0.571070 0.084597 -0.019874 -451861.000000 0 0 1
7.621783 14.362612 25.557777 30.291520 1.082916 0.566607 0.092738 -0.023727 39922.600000 0 0 1
7.775983 13.269612 26.464777 30.609360 1.040735 0.526448 0.100682 -0.030093 -282298.000000 0 0 1
8.737883 13.643312 27.643777 32.041676 1.001163 0.530124 0.075057 -0.017156 430373.000000 0 0 1
10.120583 13.659112 27.349477 32.202351 0.933119 0.556137 0.117388 -0.017128 113057.000000 0 0 1
10.583083 14.869512 26.782177 32.409706 0.952241 0.598178 0.104408 -0.015411 -487139.000000 0 0 1
11.920883 14.622512 26.064577 32.175884 0.886830 0.626532 0.122331 -0.021364 -26339.800000 0 0 1
11.728783 13.827612 24.929577 30.826142 0.867340 0.628831 0.115031 -0.026002 432733.000000 0 0 1
12.963683 13.345912 24.384377 30.671946 0.799925 0.651779 0.127478 -0.029743 92215.900000 0 0 1
12.849283 12.259412 23.300177 29.296681 0.761910 0.651264 0.103466 -0.028319 6490.150000 0 0 1
12.407083 10.951712 23.667277 28.879330 0.723174 0.610218 0.106547 -0.025039 389568.000000 0 0 1
11.062283 10.897112 24.109877 28.677645 0.777877 0.572184 0.121010 -0.027754 -224946.000000 0 0 1
10.623983 9.509912 24.571477 28.408888 0.730121 0.525801 0.106616 -0.023541 -70474.800000 0 0 1
10.760183 8.487012 23.608477 27.297822 0.667839 0.525948 0.107399 -0.016985 396723.000000 0 0 1
10.326383 7.205912 24.138277 27.225278 0.609258 0.480827 0.102916 -0.019694 102417.000000 0 0 1
10.689183 6.110212 23.101777 26.177957 0.519295 0.489667 0.112133 -0.038247 972147.000000 0 0 1
12.121683 5.981812 22.970077 26.652237 0.458418 0.531901 0.121358 -0.027685 1152390.000000 0 0 1
12.593483 4.986612 22.096977 25.917919 0.377025 0.549903 0.129969 -0.035242 -30997.000000 0 0 1
12.498783 3.495912 22.570877 26.036234 0.272731 0.521842 0.113677 -0.036439 199574.000000 0 0 1
13.614383 3.126712 23.401877 27.253910 0.225748 0.538144 0.115064 -0.027909 466645.000000 0 0 1
13.536583 1.865812 23.998477 27.616069 0.136972 0.517610 0.112574 -0.022441 -414851.000000 0 0 1
14.800783 1.628312 24.827677 28.950443 0.109575 0.540226 0.109763 -0.014230 142872.000000 0 0 1
15.809983 0.889212 24.172277 28.897150 0.056184 0.579944 0.104604 -0.015410 -253683.000000 0 0 1
17.108583 1.395012 24.270677 29.727352 0.081359 0.615573 0.095442 -0.015491 15886.700000 0 0 1
18.109483 0.467812 23.494577 29.667615 0.025827 0.656838 0.089918 -0.016897 155207.000000 0 0 1
18.164983 -0.860788 24.075777 30.172017 -0.047352 0.646909 0.090155 -0.017346 -521545.000000 0 0 1
19.137683 -1.635688 23.491377 30.344212 -0.085262 0.685404 0.070857 -0.003915 -610720.000000 0 0 1
19.138083 -3.171588 23.879877 30.766439 -0.164229 0.682233 0.067403 -0.003697 512431.000000 0 0 1
18.110783 -3.960688 23.232177 29.722409 -0.215303 0.673508 0.060893 -0.004350 593787.000000 0 0 1
18.052983 -5.302388 23.654777 30.225387 -0.285679 0.671944 0.075566 -0.010696 153145.000000 0 0 1
17.060483 -6.224288 22.884377 29.214664 -0.349831 0.670810 0.073120 -0.015929 9431.310000 0 0 1
17.330083 -6.296588 21.495377 28.320135 -0.348503 0.708999 0.076629 -0.017302 77703.200000 0 0 1
16.602283 -7.317088 20.840177 27.631297 -0.415116 0.716325 0.101070 -0.029164 -154845.000000 0 0 1
17.009983 -8.759288 21.156677 28.524895 -0.475536 0.735207 0.096794 -0.037647 -182038.000000 0 0 1
16.712283 -9.215888 22.466777 29.478621 -0.503951 0.704187 0.078389 -0.025254 -237740.000000 0 0 1
17.351683 -10.413088 22.793377 30.480344 -0.540508 0.726045 0.070098 -0.027173 -276323.000000 0 0 1
16.888583 -11.170888 24.060377 31.447015 -0.584380 0.699587 0.085204 -0.040874 388572.000000 0 0 1
15.663083 -11.870388 23.815877 30.877732 -0.648511 0.689921 0.088143 -0.032877 469363.000000 0 0 1
15.496883 -12.970588 24.664777 31.886373 -0.696887 0.686418 0.106030 -0.024556 -252615.000000 0 0 1
14.616783 -14.055288 24.008477 31.426238 -0.765817 0.701364 0.113880 -0.031326 -113974.000000 0 0 1
15.127983 -14.851888 22.969477 31.257501 -0.776189 0.745355 0.119271 -0.033924 -77278.000000 0 0 1
14.082683 -15.694688 22.560177 30.880525 -0.839481 0.751650 0.130983 -0.020489 -129032.000000 0 0 1
14.328683 -16.449688 21.257477 30.459543 -0.854202 0.798346 0.110668 -0.022475 -459995.000000 0 0 1
15.103983 -17.576788 21.346977 31.508209 -0.860920 0.826431 0.130100 -0.026214 -279534.000000 0 0 1
15.167483 -18.175388 20.036477 31.013831 -0.875366 0.868399 0.117521 -0.024580 7156.910000 0 0 1
-24.935717 -32.012440 26.512634 48.471704 0.909030 0.992054 0.061082 -0.031232 -730567.000000 0 0 1
-25.350227 -33.198340 25.782204 49.086514 0.918648 1.017799 0.059242 -0.024140 1302180.000000 0 0 1
-26.692667 -33.692740 26.000524 50.236704 0.900806 1.026799 0.038488 -0.030717 957369.000000 0 0 1
-26.953657 33.575512 27.428694 51.050444 -0.894364 1.003580 0.033412 -0.025361 -725960.000000 0 0 1
-27.795327 -33.533340 28.201534 51.888261 0.878688 0.996189 0.052951 -0.025952 247528.000000 0 0 1
-27.586687 -33.678940 29.559914 52.622094 0.884512 0.974309 0.051915 -0.023765 -132913.000000 0 0 1
-28.697367 -32.946240 30.346874 53.197052 0.854216 0.963729 0.042926 -0.029561 -84692.800000 0 0 1
-28.682647 -31.537140 30.352844 52.331449 0.832764 0.952053 0.029384 -0.016280 -214661.000000 0 0 1
-29.686737 -30.995240 31.147084 53.029691 0.806958 0.943013 0.027165 0.001126 -384840.000000 0 0 1
-30.037267 -29.475740 31.001154 52.269764 0.775963 0.935894 0.013692 -0.003029 18265.100000 0 0 1
-30.562087 -29.189840 29.695534 51.651841 0.762436 0.958293 -0.013346 0.012240 342841.000000 0 0 1
-31.086567 -27.864840 29.581864 51.165522 0.730802 0.954324 -0.000173 0.017299 -88879.000000 0 0 1
-31.735077 -27.385140 28.223534 50.533443 0.711953 0.978205 -0.013492 0.007664 -21461.100000 0 0 1
-30.996417 -27.299840 27.005224 49.349177 0.722073 0.991748 0.003921 0.001866 -204231.000000 0 0 1
-30.091747 -26.233940 26.940754 48.161572 0.717014 0.977155 -0.001803 0.005878 -79147.100000 0 0 1
-29.051107 -26.356040 25.778194 46.937436 0.736795 0.989386 0.005790 0.009467 -7940.260000 0 0 1
-29.547557 -26.243140 24.446144 46.469070 0.726238 1.016819 -0.001333 0.002582 -33006.600000 0 0 1
-28.525837 -26.244940 23.482074 45.320283 0.743778 1.026126 0.009316 0.016100 -401246.000000 0 0 1
-28.980037 -26.594440 22.055624 45.094981 0.742498 1.059747 -0.004914 0.025481 317893.000000 0 0 1
-29.922637 -25.675540 21.448224 44.884561 0.709157 1.072587 -0.011325 0.012235 651180.000000 0 0 1
-30.088177 -25.858840 20.061224 44.457066 0.709946 1.102631 0.001511 0.022779 -47959.000000 0 0 1
-30.623387 -24.539140 19.372824 43.763769 0.675545 1.112224 0.015187 0.014272 -20898.100000 0 0 1
-31.937337 -24.238040 19.753124 44.695212 0.649189 1.113023 0.038634 -0.003771 -233827.000000 0 0 1
-32.490567 -23.144340 19.071224 44.215484 0.618960 1.124836 0.067081 -0.006073 -478684.000000 0 0 1
-33.895937 -22.789540 19.574124 45.292869 0.591919 1.123901 0.085429 -0.004914 188123.000000 0 0 1
-34.828283 -23.758840 19.013424 46.249346 0.598660 1.147128 0.081209 -0.015746 528993.000000 0 0 1
-36.175787 -23.383540 19.212024 47.165447 0.573831 1.151265 0.097221 -0.025058 198664.000000 0 0 1
-37.227047 -24.147740 18.379524 48.028879 0.575433 1.178105 0.123682 -0.027743 86256.000000 0 0 1
37.055951 -25.474540 18.792824 48.736700 -0.602261 1.174939 0.116174 -0.021891 -615412.000000 0 0 1
36.270011 -26.131540 17.887624 48.149124 -0.624334 1.190167 0.122108 -0.016196 -365641.000000 0 0 1
35.513951 -27.387440 18.431624 48.487497 -0.656915 1.180858 0.110704 -0.003693 428850.000000 0 0 1
34.387981 -27.228740 19.288524 47.916434 -0.669727 1.156501 0.101850 -0.005990 212373.000000 0 0 1
34.605771 -26.445740 20.498624 48.136578 -0.652528 1.130903 0.090341 -0.003197 -465888.000000 0 0 1
33.426101 -26.503240 21.510224 47.774634 -0.670391 1.103758 0.077631 -0.005321 -63890.900000 0 0 1
32.265931 -26.069140 20.851824 46.427243 -0.679568 1.105006 0.087066 -0.009941 -163602.000000 0 0 1
31.457391 -25.328040 21.785124 45.887565 -0.677876 1.076116 0.082962 -0.010847 329901.000000 0 0 1
30.539731 -24.177740 21.267324 44.379470 -0.669648 1.071036 0.096470 -0.009751 170846.000000 0 0 1
31.230971 -23.051940 20.785924 44.032035 -0.635849 1.079166 0.097237 -0.006127 117305.000000 0 0 1
32.157991 -22.446840 21.683324 44.812538 -0.609394 1.065728 0.117329 -0.019620 53044.400000 0 0 1
32.732801 -21.196740 20.969724 44.277165 -0.574664 1.077421 0.124315 -0.028269 87278.300000 0 0 1
31.746541 -20.200440 20.924724 43.055135 -0.566687 1.063291 0.113176 -0.035156 197353.000000 0 0 1
32.279841 -19.045640 20.279324 42.614264 -0.533046 1.074831 0.122192 -0.035092 -468393.000000 0 0 1
31.434261 -17.827540 20.535324 41.564810 -0.515905 1.054048 0.096043 -0.029910 -584218.000000 0 0 1
31.284471 -17.487440 21.924424 42.014391 -0.509713 1.021800 0.104207 -0.033979 265578.000000 0 0 1
30.226351 -18.206340 22.534724 41.867850 -0.542133 1.002455 0.098744 -0.027066 -510402.000000 0 0 1
30.065431 -17.816440 24.023434 42.408502 -0.534952 0.968572 0.081018 -0.018983 -5021.300000 0 0 1
29.632131 -16.501840 24.242764 41.690352 -0.508118 0.950230 0.076090 -0.022582 166218.000000 0 0 1
29.338801 -16.290040 25.604404 42.210379 -0.506856 0.919032 0.066914 -0.015379 -231148.000000 0 0 1
29.275901 -14.853840 26.148114 41.969498 -0.469530 0.898190 0.041298 -0.011535 -256883.000000 0 0 1
28.065401 -14.150340 25.935404 40.749773 -0.466995 0.880903 0.061418 -0.010397 116913.000000 0 0 1
28.089601 -12.758840 26.285854 40.530973 -0.426357 0.865135 0.044902 -0.013899 -313052.000000 0 0 1
28.882101 -11.832140 25.353364 40.211545 -0.388815 0.888600 0.064703 -0.023824 -200188.000000 0 0 1
28.391701 -11.718440 23.994764 38.976393 -0.391442 0.907620 0.053892 -0.010126 -241450.000000 0 0 1
29.065601 -10.833740 23.175904 38.720816 -0.356783 0.929121 0.060291 -0.008200 102314.000000 0 0 1
30.086071 -11.515040 22.193124 39.119081 -0.365536 0.967546 0.070667 -0.021841 329062.000000 0 0 1
29.436501 -12.459440 21.353124 38.440878 -0.400400 0.981857 0.076290 -0.026848 145956.000000 0 0 1
29.554821 -13.768240 21.818424 39.231307 -0.435960 0.981052 0.077773 -0.023503 -128297.000000 0 0 1
29.034701 -14.837940 20.852224 38.703922 -0.472442 1.001829 0.073795 -0.025450 -244578.000000 0 0 1
29.695601 -14.870640 19.607924 38.567283 -0.464263 1.037461 0.081071 -0.034458 -295305.000000 0 0 1
29.026801 -15.733440 18.771824 37.979964 -0.496705 1.053818 0.074808 -0.039844 -557342.000000 0 0 1
29.498901 -15.672840 17.308424 37.621863 -0.488375 1.092730 0.092184 -0.044751 -244331.000000 0 0 1
28.975401 -16.546240 16.345524 37.155458 -0.518856 1.115284 0.094958 -0.046042 14447.800000 0 0 1
27.601201 -16.442740 16.020724 35.900607 -0.537271 1.108223 0.072843 -0.047273 -553899.000000 0 0 1
27.253401 -15.409140 14.987124 34.710277 -0.514592 1.124334 0.100240 -0.051542 -622663.000000 0 0 1
27.156301 -15.883940 13.684224 34.307757 -0.529249 1.160516 0.109269 -0.049732 505781.000000 0 0 1
26.019701 -16.724740 13.456924 33.731744 -0.571277 1.160436 0.083471 -0.052573 -196780.000000 0 0 1
25.877901 -17.449440 12.130324 33.485720 -0.593268 1.200112 0.096497 -0.030653 -546253.000000 0 0 1
25.466401 -16.554340 11.088924 32.334934 -0.576408 1.220752 0.120555 -0.033813 -88981.400000 0 0 1
25.534301 -17.193640 9.814124 32.310042 -0.592618 1.262172 0.096392 -0.034879 422805.000000 0 0 1
26.911101 -17.417240 9.091824 33.320097 -0.574414 1.294429 0.108182 -0.024699 772811.000000 0 0 1
27.744101 -18.294640 9.832024 34.656856 -0.582959 1.283150 0.105064 -0.025324 -138818.000000 0 0 1
29.055501 -18.485440 9.340124 35.681529 -0.566621 1.305947 0.119826 -0.016254 148350.000000 0 0 1
29.908791 -19.276640 10.357424 37.059423 -0.572509 1.287542 0.130398 -0.028949 -125852.000000 0 0 1
30.104381 -18.680640 11.627524 37.288596 -0.555378 1.253683 0.142979 -0.045060 154966.000000 0 0 1
30.500941 -19.698840 12.525224 38.408761 -0.573448 1.238618 0.122361 -0.035666 -212484.000000 0 0 1
30.483821 -19.243840 14.013024 38.677559 -0.563103 1.200058 0.122019 -0.028764 9015.630000 0 0 1
30.368551 -20.300040 14.936724 39.464493 -0.589240 1.182637 0.107406 -0.026497 67885.700000 0 0 1
30.248841 -19.752540 16.219424 39.600820 -0.578482 1.148810 0.118016 -0.037861 -69289.800000 0 0 1
30.116041 -20.767840 17.306024 40.469464 -0.603708 1.128925 0.096422 -0.024276 -470324.000000 0 0 1
28.893801 -21.431140 17.217824 39.882314 -0.638181 1.124402 0.057088 -0.010430 -525108.000000 0 0 1
28.651501 -22.601340 18.015424 40.697476 -0.667897 1.112226 0.080511 -0.009882 -225663.000000 0 0 1
27.204301 -23.101940 17.986624 39.966139 -0.704030 1.103979 0.051649 0.002833 -424856.000000 0 0 1
26.283501 -22.215240 18.575124 39.107218 -0.701710 1.075856 0.058566 -0.000528 177884.000000 0 0 1
25.004601 -22.848140 18.504324 38.596341 -0.740364 1.070789 0.066498 -0.006745 258348.000000 0 0 1
23.934201 -22.135540 19.353324 37.912785 -0.746376 1.035066 0.055070 -0.005227 -233239.000000 0 0 1
23.528201 -20.844040 18.870724 36.662712 -0.724980 1.030125 0.049952 -0.013944 419069.000000 0 0 1
22.334301 -20.375840 19.504024 35.977810 -0.739576 0.997847 0.054048 -0.008942 457776.000000 0 0 1
22.375401 -19.931940 20.992024 36.586963 -0.727707 0.959711 0.046603 -0.004025 -392398.000000 0 0 1
22.617801 -21.009540 21.870624 37.832392 -0.748551 0.954407 0.059657 -0.003139 -66487.600000 0 0 1
22.709201 -20.575140 23.198514 38.434558 -0.736135 0.922807 0.065289 -0.002912 138554.000000 0 0 1
23.172901 -21.719740 24.144214 39.895783 -0.753040 0.920802 0.068607 -0.003643 -107099.000000 0 0 1
22.098201 -22.575640 24.386784 39.908711 -0.796085 0.913392 0.071482 -0.001145 5599.190000 0 0 1
22.527601 -23.620740 25.288674 41.291030 -0.809081 0.911641 0.073751 0.001646 -385201.000000 0 0 1
21.436101 -24.328240 26.075384 41.608837 -0.848511 0.893512 0.089573 -0.004303 -638737.000000 0 0 1
20.805601 -25.303640 25.306214 41.395068 -0.882642 0.913051 0.089207 -0.006801 -377011.000000 0 0 1
19.719701 -25.823240 26.017704 41.624839 -0.918622 0.895598 0.091377 -0.011567 -875670.000000 0 0 1
18.787901 -26.658840 25.187004 41.207574 -0.956887 0.913192 0.096414 -0.015358 -692071.000000 0 0 1
18.047701 -25.832540 24.306114 39.797321 -0.960982 0.913792 0.099787 -0.021459 129032.000000 0 0 1
17.754201 -26.578440 23.145564 39.463176 -0.981876 0.944053 0.078184 -0.020066 -581664.000000 0 0 1
16.806501 -25.845940 22.201824 37.992000 -0.994241 0.946679 0.072850 -0.013511 668264.000000 0 0 1
15.513801 -25.646040 22.837284 37.682077 -1.026767 0.919709 0.072419 -0.015755 769874.000000 0 0 1
14.841201 -24.639740 22.147224 36.302583 -1.028667 0.914644 0.059255 -0.019344 -603394.000000 0 0 1
13.396701 -24.371940 22.575924 35.820879 -1.068201 0.888928 0.046079 -0.021840 -234985.000000 0 0 1
12.551301 -25.473840 22.261624 36.083675 -1.112995 0.905942 0.038578 -0.021322 -327477.000000 0 0 1
11.214801 -25.089140 22.458424 35.491090 -1.150441 0.885645 0.046654 -0.021569 415608.000000 0 0 1
10.144901 -26.227640 22.309424 35.895940 -1.201719 0.900137 0.047925 -0.028809 502256.000000 0 0 1
9.852001 -26.643740 20.957524 35.301113 -1.216621 0.935173 0.052489 -0.033262 468853.000000 0 0 1
8.531601 -27.184440 20.917824 35.345966 -1.266690 0.937503 0.062502 -0.030253 235973.000000 0 0 1
8.222701 -27.972140 19.627324 35.146625 -1.284890 0.978291 0.076649 -0.036291 -41415.900000 0 0 1
8.852001 -29.239640 19.701424 36.351899 -1.276828 0.998024 0.077983 -0.029941 284373.000000 0 0 1
8.342401 -30.092540 18.697224 36.397016 -1.300363 1.031302 0.069107 -0.028070 -118389.000000 0 0 1
8.978901 -31.493340 18.668124 37.695490 -1.293060 1.052691 0.063797 -0.018350 -134951.000000 0 0 1
8.586501 -32.373040 19.667224 38.839946 -1.311530 1.039831 0.070543 -0.025134 70186.800000 0 0 1
9.259301 -33.577540 19.423124 39.880366 -1.301725 1.062105 0.070666 -0.024402 -173887.000000 0 0 1
8.976801 33.139712 20.340024 39.906641 1.306267 1.035972 0.090606 -0.036899 -25079.400000 0 0 1
7.793401 32.363212 20.145724 38.909700 1.334485 1.026571 0.080424 -0.034157 284470.000000 0 0 1
7.870801 31.126812 20.833924 38.273754 1.323125 0.995195 0.095282 -0.046180 -127514.000000 0 0 1
6.760701 30.086112 20.574324 37.069988 1.349756 0.982418 0.078797 -0.040879 -875963.000000 0 0 1
5.490101 30.362912 21.030124 37.340510 1.391913 0.972545 0.086963 -0.047200 -1270140.000000 0 0 1
4.629901 29.383612 20.488224 36.119246 1.414514 0.967648 0.101132 -0.040889 599280.000000 0 0 1
3.173901 29.502312 21.047124 36.379135 1.463627 0.953847 0.099166 -0.032898 433269.000000 0 0 1
3.090101 28.962212 22.338824 36.706695 1.464504 0.916531 0.085430 -0.039745 -159697.000000 0 0 1
1.761301 28.632412 22.690924 36.575883 1.509360 0.901570 0.085083 -0.030842 37675.000000 0 0 1
1.639601 27.966612 24.126684 36.971834 1.512236 0.859826 0.100495 -0.026207 -242644.000000 0 0 1
1.663001 28.863412 25.247144 38.383334 1.513244 0.852951 0.107196 -0.032639 104180.000000 0 0 1
1.512001 28.218912 26.492134 38.735336 1.517266 0.817665 0.098144 -0.030580 554346.000000 0 0 1
2.807301 27.592612 27.151854 38.813095 1.469404 0.796023 0.076181 -0.024956 313481.000000 0 0 1
3.293801 26.520312 26.421524 37.580220 1.447230 0.791091 0.091750 -0.026564 -10142.800000 0 0 1
4.033501 25.707312 27.296574 37.712570 1.415164 0.761494 0.060300 -0.011408 -65129.400000 0 0 1
4.543401 24.385012 26.723114 36.460884 1.386589 0.748184 0.057762 -0.009863 188685.000000 0 0 1
3.430601 23.558612 26.469434 35.600676 1.426193 0.732493 0.073521 -0.007044 -368340.000000 0 0 1
3.858201 22.244312 26.243144 34.617881 1.399058 0.710431 0.069621 -0.000827 515564.000000 0 0 1
2.757301 21.108012 26.230374 33.781406 1.440904 0.681746 0.069389 -0.002606 508158.000000 0 0 1
3.251601 19.745212 26.314034 33.058655 1.407583 0.650171 0.077384 0.000317 3820.200000 0 0 1
3.825301 19.229312 25.128734 31.872443 1.374429 0.662567 0.073714 -0.000204 -508974.000000 0 0 1
4.419501 17.825212 25.470614 31.400992 1.327762 0.624697 0.075224 -0.007420 436576.000000 0 0 1
5.573801 17.857412 26.302244 32.276345 1.268250 0.618226 0.068950 -0.006182 957862.000000 0 0 1
6.829701 17.945012 25.606784 32.005868 1.207133 0.643392 0.085644 -0.010782 498065.000000 0 0 1
8.116301 17.904512 26.477694 32.977479 1.145193 0.638648 0.075494 -0.017804 232922.000000 0 0 1
8.491201 19.058012 27.200484 34.280820 1.151653 0.654322 0.071454 -0.017344 119840.000000 0 0 1
8.984301 20.156912 26.408674 34.415647 1.151509 0.696106 0.066290 -0.010972 -397074.000000 0 0 1
9.550701 21.303312 27.216454 35.857807 1.149340 0.709004 0.065020 -0.009784 911962.000000 0 0 1
10.818701 21.009912 27.852254 36.526822 1.095274 0.703605 0.087093 -0.026962 732078.000000 0 0 1
11.140501 21.964312 28.831354 37.918184 1.101398 0.706934 0.101761 -0.040459 -344254.000000 0 0 1
12.215201 21.516312 29.805774 38.736894 1.054452 0.692830 0.123266 -0.041604 690745.000000 0 0 1
13.555001 21.590212 29.272294 38.816781 1.010164 0.716492 0.106844 -0.036994 316194.000000 0 0 1
14.504501 21.613312 30.277014 39.927601 0.979737 0.710098 0.107929 -0.030365 -1211700.000000 0 0 1
15.918301 21.376512 29.831134 40.003051 0.930720 0.729179 0.074808 -0.028212 -999910.000000 0 0 1
16.401101 22.399912 29.072584 40.199095 0.938788 0.762350 0.062246 -0.029583 200166.000000 0 0 1
17.671201 22.104312 28.481904 40.150850 0.896393 0.782189 0.087191 -0.016720 556706.000000 0 0 1
-8.856617 16.689112 4.526277 19.428157 -1.082905 1.335660 0.036261 -0.019929 -103262.000000 0 1 0
-8.538017 18.039612 4.835677 20.535557 -1.128742 1.333086 0.048874 -0.022646 -275477.000000 0 1 0
-7.156717 18.282612 4.867777 20.227895 -1.197683 1.327764 0.041544 -0.020953 -287487.000000 0 1 0
-6.905917 19.669312 5.633577 21.594228 -1.233141 1.306859 0.046927 -0.025140 -90744.300000 0 1 0
-7.005717 20.881012 4.844177 22.551336 -1.247091 1.354302 0.053753 -0.026743 -361462.000000 0 1 0
-8.334117 21.149712 4.447377 23.163484 -1.195427 1.377597 0.057086 -0.029102 41122.300000 0 1 0
-8.450917 22.335712 3.469077 24.131649 -1.209084 1.426540 0.103480 -0.032716 25446.300000 0 1 0
-8.010117 22.245412 2.125677 23.738972 -1.225170 1.481132 0.076570 -0.027433 -489649.000000 0 1 0
-8.495117 21.220512 1.308277 22.895168 -1.190009 1.513623 0.079883 -0.025924 -1135100.000000 0 1 0
-7.882317 21.229212 -0.103023 22.645551 -1.215277 1.575346 0.048651 -0.007223 560438.000000 0 1 0
-6.565717 20.694012 -0.156223 21.711176 -1.263566 1.577992 0.033954 -0.004804 379915.000000 0 1 0
-5.546617 21.596312 0.331077 22.299669 -1.319398 1.555949 0.043290 -0.013302 178244.000000 0 1 0
-4.161417 21.112412 -0.212523 21.519677 -1.376183 1.580672 0.029753 -0.014245 16842.700000 0 1 0
-3.953817 21.362712 -1.586223 21.783347 -1.387787 1.643679 0.023065 -0.016695 248149.000000 0 1 0
-2.586117 21.521612 -1.960023 21.764867 -1.451206 1.660973 0.022689 -0.005061 535141.000000 0 1 0
-2.520817 21.520312 -3.505723 21.949224 -1.454191 1.731203 0.032938 -0.010250 29395.900000 0 1 0
-1.289517 22.017812 -3.951823 22.406780 -1.512296 1.748091 0.050840 -0.008482 -252415.000000 0 1 0
-1.468917 22.380712 -5.297923 23.046083 -1.505257 1.802755 0.061862 -0.018076 -38780.000000 0 1 0
-0.242817 22.971312 -5.996323 23.742283 -1.560226 1.826120 0.067962 -0.018472 297664.000000 0 1 0
0.898883 22.104612 -6.044523 22.933776 1.530154 1.837512 0.053277 -0.008438 144615.000000 0 1 0
1.940483 22.726812 -6.758623 23.789755 1.485620 1.858862 0.055517 -0.002191 -249557.000000 0 1 0
3.190583 21.835812 -6.890323 23.118370 1.425706 1.873441 0.040778 0.008554 -84141.100000 0 1 0
3.095883 20.783412 -7.856323 22.433379 1.422924 1.928588 0.039840 -0.003657 32718.300000 0 1 0
4.118283 19.832912 -7.634323 21.646883 1.366057 1.931225 0.029267 -0.004894 359134.000000 0 1 0
3.993783 18.780312 -8.781923 21.113327 1.361260 1.999775 0.023026 -0.006264 178958.000000 0 1 0
4.243783 19.258612 -10.077523 22.146338 1.353905 2.043216 0.023299 -0.007459 -123851.000000 0 1 0
3.270283 18.707912 -10.924923 21.909693 1.397737 2.092819 0.023658 -0.017796 -459369.000000 0 1 0
3.466883 19.030912 -12.429023 22.992944 1.390601 2.141897 0.026013 -0.023240 110953.000000 0 1 0
3.275383 20.377312 -12.806923 24.289509 1.411423 2.126171 0.045750 -0.028087 38497.200000 0 1 0
3.760483 20.593912 -14.132423 25.258183 1.390184 2.164601 0.064721 -0.027641 230565.000000 0 0 1
4.267383 22.021012 -14.366223 26.636889 1.379382 2.140444 0.070458 -0.030775 409526.000000 0 0 1
3.194083 22.933712 -14.552423 27.348314 1.432412 2.131892 0.085693 -0.033453 -26897.100000 0 0 1
3.697583 24.112312 -15.092123 28.685325 1.418633 2.124836 0.076003 -0.029942 -517287.000000 0 0 1
2.731083 25.238912 -15.404923 29.694665 1.463007 2.116217 0.085738 -0.029132 -545654.000000 0 0 1
1.936783 25.651512 -14.329623 29.446380 1.495436 2.079029 0.107459 -0.040152 -303747.000000 0 0 1
1.554583 26.975612 -14.586323 30.706044 1.513231 2.065796 0.083987 -0.037296 -343323.000000 0 0 1
0.531383 27.486012 -13.509723 30.631288 1.551466 2.027557 0.098732 -0.032730 486017.000000 0 0 1
-0.814817 27.077412 -13.628123 30.324510 -1.540713 2.036901 0.095703 -0.045880 -267095.000000 0 0 1
-1.145217 25.674612 -13.600223 29.076851 -1.526221 2.057521 0.083885 -0.042927 -818937.000000 0 0 1
-1.123817 24.861912 -12.275823 27.750197 -1.525625 2.029035 0.090537 -0.038568 -675670.000000 0 0 1
-2.118117 25.096412 -11.318423 27.612008 -1.486597 1.993151 0.090918 -0.035664 -427454.000000 0 0 1
-2.115317 24.035912 -10.322223 26.244007 -1.483016 1.975033 0.094831 -0.023965 696374.000000 0 0 1
-3.330717 24.041412 -9.304823 25.993516 -1.433132 1.936886 0.079962 -0.021644 789853.000000 0 0 1
-3.118617 24.632212 -8.032923 26.095967 -1.444859 1.883700 0.105361 -0.017488 -229716.000000 0 0 1
-2.830417 26.059212 -8.031923 27.415425 -1.462606 1.868129 0.112263 -0.024319 106985.000000 0 0 1
-2.563517 26.706312 -6.618423 27.633353 -1.475100 1.812656 0.100950 -0.018214 711326.000000 0 0 1
-1.452717 26.041512 -6.000823 26.763419 -1.515069 1.796936 0.108004 -0.022980 228338.000000 0 0 1
-1.136717 26.443712 -4.661423 26.875470 -1.527836 1.745123 0.106952 -0.031090 75446.800000 0 0 1
-2.022217 25.885112 -3.493623 26.197973 -1.492832 1.704549 0.095844 -0.020295 -545081.000000 0 0 1
-3.344217 26.308212 -3.586623 26.761346 -1.444358 1.705223 0.081676 -0.022181 -972260.000000 0 0 1
-4.077017 25.661212 -2.574623 26.110315 -1.413235 1.669562 0.071495 -0.014419 125249.000000 0 0 1
-5.197517 24.690912 -3.044923 25.415091 -1.363322 1.690892 0.061159 -0.019269 -102576.000000 0 0 1
-6.392117 25.305812 -3.423623 26.324218 -1.323377 1.701222 0.047331 -0.015400 -561057.000000 0 0 1
-7.423917 24.399112 -3.722123 25.773734 -1.275427 1.715718 0.030028 -0.015045 476730.000000 0 0 1
-8.787317 25.055412 -4.082723 26.863716 -1.233484 1.723367 0.028737 -0.015767 -246383.000000 0 0 1
-9.514517 25.305512 -2.953823 27.195956 -1.211162 1.679624 0.059123 -0.018969 -1488590.000000 0 0 1
-10.734417 25.863812 -3.308323 28.197685 -1.177395 1.688393 0.076646 -0.023658 -577154.000000 0 0 1
-11.666817 26.133212 -2.123723 28.697902 -1.150910 1.644867 0.103159 -0.026343 -151272.000000 0 0 1
-12.033517 24.927812 -1.425823 27.717040 -1.121056 1.622261 0.111342 -0.023384 674731.000000 0 0 1
-11.006217 24.307212 -0.599223 26.689631 -1.145619 1.593250 0.119228 -0.031620 580933.000000 0 0 1
-11.474617 22.948412 -0.044223 25.657326 -1.107134 1.572520 0.104548 -0.027583 1094.920000 0 0 1
-12.420817 23.063512 1.002777 26.214649 -1.076788 1.532534 0.130010 -0.029736 -156551.000000 0 0 1
-13.181517 21.887612 1.056877 25.572190 -1.028734 1.529455 0.131866 -0.033696 -202768.000000 0 0 1
-14.119517 21.896012 2.301077 26.155134 -0.998054 1.482704 0.141047 -0.042654 42095.500000 0 0 1
-13.565917 21.662612 3.573377 25.808368 -1.011308 1.431892 0.135702 -0.042507 -230355.000000 0 0 1
-13.277417 22.856112 4.269977 26.775443 -1.044529 1.410639 0.142484 -0.044797 185935.000000 0 0 1
-12.924717 22.727412 5.831377 26.787842 -1.053722 1.351352 0.139456 -0.044025 -537726.000000 0 0 1
-11.579717 22.525312 6.109777 26.053961 -1.095952 1.334087 0.128130 -0.040291 -687658.000000 0 0 1
-11.437217 22.150712 7.488977 26.029766 -1.094165 1.278963 0.098415 -0.039790 588256.000000 0 0 1
-10.008617 21.807712 8.058277 25.311747 -1.140526 1.246796 0.091597 -0.036016 635543.000000 0 0 1
-9.267517 23.001812 8.321877 26.157673 -1.187789 1.247026 0.100797 -0.040470 741991.000000 0 0 1
-8.154217 22.714412 9.221077 25.835325 -1.226136 1.205830 0.094731 -0.038734 598144.000000 0 0 1
-8.371917 22.533812 10.752777 26.334082 -1.215074 1.150182 0.080780 -0.038908 96474.100000 0 0 1
-9.361617 21.551012 11.071077 25.974116 -1.160996 1.130470 0.083981 -0.037478 437505.000000 0 0 1
-9.056517 21.009812 12.312577 25.981383 -1.163803 1.077082 0.057889 -0.024035 328648.000000 0 0 1
-10.218617 20.023412 12.656277 25.798033 -1.098916 1.058029 0.059807 -0.021181 163354.000000 0 0 1
-10.274417 18.909712 11.850377 24.567708 -1.073080 1.067454 0.074195 -0.032836 209191.000000 0 1 0
-10.844417 17.798912 12.588577 24.349023 -1.023585 1.027447 0.066757 -0.033970 135540.000000 0 1 0
-11.107317 16.539112 11.696777 23.102582 -0.979401 1.039911 0.070239 -0.036028 52030.100000 0 1 0
-11.704017 15.417712 12.364077 22.968680 -0.921479 1.002376 0.059139 -0.027540 279870.000000 0 1 0
-12.058117 14.369912 11.492377 21.999256 -0.872651 1.021135 0.050635 -0.015992 -52738.200000 0 1 0
-12.295917 13.035912 12.232577 21.697016 -0.814602 0.971828 0.038688 -0.008937 182863.000000 0 1 0
-13.381417 13.213812 13.120077 22.930407 -0.779096 0.961648 0.055729 0.002795 73637.400000 0 1 0
-13.954817 11.942612 13.480977 22.783758 -0.707855 0.937640 0.049520 0.018165 218604.000000 0 1 0
-14.853717 12.151012 14.714277 24.182430 -0.685648 0.916665 0.061588 0.010114 -659750.000000 0 1 0
-16.013917 12.870912 14.546977 25.173805 -0.677013 0.954690 0.087023 -0.002947 -1401110.000000 0 0 1
-16.731317 12.950312 15.730377 26.364603 -0.658695 0.931479 0.076255 0.003150 -1423810.000000 0 0 1
-17.844017 13.899412 15.428077 27.379338 -0.661767 0.972188 0.070120 -0.003371 -874012.000000 0 0 1
-18.936317 13.130312 14.896977 27.439189 -0.606278 0.996899 0.076632 -0.006068 -118699.000000 0 0 1
-19.910617 14.070112 14.519677 28.376429 -0.615184 1.033656 0.097017 -0.023569 565950.000000 0 0 1
-21.102917 13.478312 13.664377 28.525658 -0.568386 1.071258 0.089235 -0.021673 904290.000000 0 0 1
-22.036217 12.616912 14.311077 29.147697 -0.519994 1.057576 0.077878 -0.007169 159138.000000 0 0 1
-23.109117 12.341312 13.434977 29.442110 -0.490511 1.096943 0.072875 -0.007722 206416.000000 0 0 1
-24.146017 11.369812 14.085177 30.177723 -0.440079 1.085194 0.076395 -0.020488 -99705.100000 0 0 1
-24.712517 11.927112 15.209377 31.373391 -0.449659 1.064678 0.064258 -0.018161 71278.700000 0 0 1
-25.771217 11.070212 15.651577 32.119730 -0.405724 1.061814 0.059384 -0.025338 -67876.000000 0 0 1
-26.513367 11.683412 16.819577 33.501625 -0.415061 1.044826 0.055649 -0.017715 -1092310.000000 0 0 1
-27.526287 12.530912 16.411977 34.410365 -0.427198 1.073617 0.058418 -0.009364 -360843.000000 0 0 1
-27.968567 13.273312 17.559877 35.591724 -0.443105 1.054837 0.051213 -0.000443 205161.000000 0 0 1
-29.180597 14.220412 17.352477 36.808094 -0.453456 1.079884 0.063475 -0.008926 245074.000000 0 0 1
-28.808227 15.458412 16.756477 36.737664 -0.492495 1.097175 0.065482 -0.014041 145332.000000 0 0 1
-29.930757 16.329112 16.631677 37.935508 -0.499430 1.116957 0.081386 -0.019167 204453.000000 0 0 1
-29.548657 17.835512 16.385377 38.206141 -0.543061 1.127557 0.096354 -0.022253 520917.000000 0 0 1
-28.697557 18.345512 17.482877 38.285226 -0.568796 1.096572 0.094544 -0.032923 791502.000000 0 0 1
-29.436047 18.738812 18.626077 39.554452 -0.566893 1.080489 0.107363 -0.040378 -888583.000000 0 0 1
-28.554007 19.157912 19.805577 39.681454 -0.590952 1.048220 0.081611 -0.035685 353144.000000 0 0 1
-27.804697 18.196812 20.554377 39.073105 -0.579498 1.016848 0.076057 -0.024321 544294.000000 0 0 1
-27.021267 17.260812 19.813977 37.691885 -0.568452 1.017279 0.083345 -0.022906 -845376.000000 0 0 1
-26.593497 15.992712 20.602377 37.248340 -0.541431 0.984705 0.074901 -0.008114 397213.000000 0 0 1
-27.675617 15.129812 20.959377 37.870126 -0.500294 0.984291 0.065340 -0.010454 535999.000000 0 0 1
-27.145377 13.887312 21.374677 37.237155 -0.472877 0.959396 0.061818 -0.006756 162398.000000 0 0 1
-28.247917 12.860012 21.765077 37.908354 -0.427216 0.959231 0.074172 -0.018984 320906.000000 0 0 1
-28.990647 12.483312 20.599477 37.691234 -0.406603 0.992579 0.081110 -0.017509 704129.000000 0 0 1
-30.041847 11.531712 20.878077 38.358663 -0.366511 0.995259 0.121822 -0.013967 893200.000000 0 0 1
-31.054297 11.319312 19.681077 38.468701 -0.349534 1.033736 0.115445 -0.011944 254790.000000 0 0 1
-30.481847 10.792412 18.493277 37.250778 -0.340287 1.051288 0.130924 -0.011169 355579.000000 0 0 1
-29.828587 9.516112 18.638777 36.437686 -0.308820 1.033838 0.145751 -0.008625 152469.000000 0 0 1
-29.016087 9.143812 17.359777 35.027196 -0.305278 1.052261 0.155137 -0.015453 21504.400000 0 0 1
-29.784237 8.626412 16.229477 34.998738 -0.281916 1.088611 0.148754 -0.009865 933544.000000 0 0 1
-30.605187 9.600412 15.538277 35.641036 -0.303965 1.119685 0.138778 -0.006843 507494.000000 0 0 1
-29.826887 10.682912 14.669577 34.913669 -0.343929 1.137167 0.121856 -0.003940 204345.000000 0 0 1
-29.206377 10.109612 13.509977 33.730345 -0.333235 1.158702 0.137298 -0.020389 450591.000000 0 0 1
-28.378317 11.097712 12.912377 33.094071 -0.372778 1.169978 0.099771 -0.014643 -3511.840000 0 0 1
-28.063517 10.914012 11.373877 32.187602 -0.370904 1.209634 0.136371 -0.011896 415204.000000 0 0 1
-27.207937 9.810212 10.952277 30.926760 -0.346055 1.208806 0.153014 -0.015233 841934.000000 0 0 1
-27.801657 8.548812 11.023677 31.105237 -0.298317 1.208525 0.169642 -0.022359 -277555.000000 0 0 1
-26.821347 7.434212 10.591177 29.779610 -0.270387 1.207185 0.190186 -0.033985 -124695.000000 0 0 1
-26.373427 7.581012 9.254277 28.959817 -0.279903 1.245536 0.183649 -0.026824 301158.000000 0 0 1
-25.861527 6.413012 8.636077 28.009411 -0.243072 1.257362 0.231183 -0.056134 -72068.600000 0 0 1
-25.382527 6.719412 7.183077 27.221678 -0.258790 1.303761 0.207487 -0.039033 333304.000000 0 0 1
-26.463787 7.175412 6.398577 28.156000 -0.264775 1.341539 0.219679 -0.042195 819463.000000 0 0 1
-25.792497 7.668412 5.246777 27.415071 -0.288989 1.378225 0.207995 -0.037593 -222087.000000 0 0 1
-26.721457 8.493112 4.383377 28.379274 -0.307741 1.415719 0.200538 -0.027618 -484449.000000 0 0 1
-27.577387 7.786112 3.507377 28.869318 -0.275174 1.449004 0.231249 -0.035298 110373.000000 0 0 1
-27.125007 6.610512 2.811977 28.060151 -0.239046 1.470415 0.233349 -0.038679 -110696.000000 0 0 1
-26.072007 6.762712 1.636177 26.984456 -0.253793 1.510125 0.216804 -0.033402 1333800.000000 0 0 1
-24.729817 7.052512 2.024677 25.795369 -0.277808 1.492226 0.175286 -0.025279 1093180.000000 0 0 1
-23.821517 7.385312 0.977477 24.959226 -0.300630 1.531623 0.171882 -0.013750 228897.000000 0 1 0
-22.545017 8.094512 1.438177 23.997234 -0.344703 1.510829 0.137011 -0.015876 -31006.600000 0 1 0
-22.904317 9.378812 1.904877 24.823344 -0.388650 1.493983 0.134449 -0.019108 427798.000000 0 1 0
-21.755417 10.058312 2.312977 24.079403 -0.433065 1.474592 0.126738 -0.020450 -174827.000000 0 1 0
-22.106817 11.544112 2.671677 25.082179 -0.481247 1.464077 0.130185 -0.028708 -205184.000000 0 0 1
-20.994117 12.303112 3.038477 24.522476 -0.530082 1.446571 0.117749 -0.031063 82929.700000 0 1 0
-21.451417 13.439112 3.779977 25.594164 -0.559671 1.422565 0.123626 -0.041241 -841667.000000 0 0 1
-20.387317 14.345312 4.374777 25.309471 -0.613164 1.397072 0.087065 -0.033509 -1030840.000000 0 0 1
-19.652717 13.506412 5.167477 24.399903 -0.602120 1.357398 0.070863 -0.035620 -330904.000000 0 1 0
-18.781917 14.273812 5.993977 24.339882 -0.649855 1.321975 0.080646 -0.035840 -238647.000000 0 1 0
-18.141717 13.351812 7.071077 23.609170 -0.634463 1.266622 0.056551 -0.035111 -1229750.000000 0 1 0
-17.122817 12.594812 6.620177 22.263128 -0.634193 1.268869 0.053279 -0.025409 -754162.000000 0 1 0
-16.501217 11.937712 7.705077 21.775384 -0.626288 1.209119 0.042851 -0.020969 -181676.000000 0 1 0
10.878783 -32.751940 -14.801623 37.551638 -1.250105 1.975958 0.036522 -0.013986 -990251.000000 0 0 1
11.867683 -32.764540 -13.823823 37.489400 -1.223285 1.948449 0.020134 -0.010355 -238765.000000 0 0 1
12.321983 -31.415040 -13.671523 36.409430 -1.197004 1.955726 0.032665 -0.020658 52567.400000 0 0 1
13.654183 -31.441040 -12.858123 36.610204 -1.161093 1.929667 0.037585 -0.014087 -124215.000000 0 0 1
14.783283 -31.703740 -13.639923 37.546239 -1.134475 1.942586 0.048011 -0.014107 -1405880.000000 0 0 1
15.883083 -31.197240 -13.023923 37.351877 -1.099881 1.926961 0.053079 -0.005799 -567613.000000 0 0 1
17.246183 -31.783740 -13.520623 38.606272 -1.073644 1.928600 0.074012 -0.012200 443405.000000 0 0 1
17.417983 -33.059240 -12.927723 39.540176 -1.085883 1.903872 0.072120 -0.018934 114927.000000 0 0 1
18.483083 -33.795440 -13.530923 40.826977 -1.070328 1.908606 0.064392 -0.006467 324524.000000 0 0 1
18.612883 32.621012 -13.113023 39.780915 1.052290 1.906709 0.051608 -0.019457 24733.100000 0 0 1
19.228183 32.407812 -11.826123 39.494892 1.035304 1.874896 0.060562 -0.020927 212328.000000 0 0 1
19.550283 31.006412 -11.643523 38.460145 1.008235 1.878365 0.037241 -0.017848 -129916.000000 0 0 1
20.337983 30.859112 -10.325523 38.373621 0.988079 1.843233 0.058203 -0.020607 -172851.000000 0 0 1
21.666083 30.466312 -10.576323 38.851949 0.952627 1.846497 0.061540 -0.026589 -223404.000000 0 0 1
22.326483 30.251612 -9.331423 38.738964 0.935003 1.814068 0.065259 -0.024134 -7721.040000 0 0 1
23.643583 29.467512 -9.442923 38.942548 0.894617 1.815721 0.039328 -0.003857 -27743.400000 0 0 1
24.602883 30.056812 -10.299823 40.184576 0.884849 1.830002 0.050502 -0.018283 -460205.000000 0 0 1
25.797583 29.353812 -10.187023 40.384861 0.849790 1.825800 0.037949 -0.000275 75642.200000 0 0 1
26.954983 29.829812 -11.148823 41.721518 0.835982 1.841303 0.034295 -0.007246 550977.000000 0 0 1
27.577583 31.014812 -10.669523 42.851842 0.843994 1.822430 0.029714 -0.026609 675236.000000 0 0 1
28.804183 31.268612 -11.365123 44.006512 0.826399 1.832017 0.028884 -0.018885 349033.000000 0 0 1
29.299383 32.670812 -11.164823 45.282326 0.839749 1.819926 0.027674 -0.021284 -523322.000000 0 0 1
28.548083 33.696612 -11.822223 45.718920 0.867925 1.832353 0.048498 -0.015427 531751.000000 0 0 1
29.126383 -32.901340 -11.607823 45.448718 -0.846182 1.829063 0.081448 -0.012367 352657.000000 0 0 1
28.041383 -31.840340 -11.929623 44.073148 -0.848754 1.844893 0.062856 -0.009519 -194405.000000 0 0 1
26.988583 -31.933340 -11.013923 43.236886 -0.869122 1.828369 0.074639 -0.018631 69706.100000 0 0 1
25.774683 -31.290240 -11.417323 42.116133 -0.881753 1.845323 0.085073 -0.027637 743220.000000 0 0 1
25.822383 -29.792040 -10.994223 40.929623 -0.856656 1.842749 0.078313 -0.026053 -274448.000000 0 0 1
26.726983 -29.039540 -11.782723 41.188094 -0.826843 1.860920 0.062058 -0.014442 72496.000000 0 0 1
27.045783 -27.790340 -11.176023 40.356919 -0.798975 1.851394 0.067462 -0.017857 17992.600000 0 0 1
27.851383 -26.869140 -12.170223 40.568024 -0.767450 1.875484 0.057233 -0.013299 585279.000000 0 0 1
29.179383 -27.319040 -12.405323 41.852818 -0.752483 1.871721 0.033877 0.001554 205237.000000 0 0 1
29.301883 -28.231040 -13.481723 42.864307 -0.766788 1.890748 0.037942 -0.007006 63300.300000 0 0 1
30.746283 -28.751240 -13.767323 44.288903 -0.751879 1.886886 0.042989 0.001507 575337.000000 0 0 1
31.249883 -29.648540 -12.771823 44.930063 -0.759109 1.859031 0.050534 -0.013355 666859.000000 0 0 1
32.256783 -30.552040 -13.268523 46.367887 -0.758263 1.861011 0.043169 -0.012032 275889.000000 0 0 1
32.777183 -31.578240 -12.280123 47.141600 -0.766770 1.834331 0.030241 -0.006813 -69363.700000 0 0 1
33.661583 -32.466840 -12.927523 48.521323 -0.767333 1.840483 0.024075 -0.009800 -69769.000000 0 0 1
34.389183 -33.385140 -12.135623 49.441449 -0.770585 1.818785 0.031788 -0.010747 116308.000000 0 0 1
33.628083 33.358112 -11.388423 48.716607 0.781368 1.806748 0.019421 -0.011509 397995.000000 0 0 1
32.774983 33.738712 -10.300423 48.151832 0.799886 1.786378 0.012596 -0.017680 82939.300000 0 0 1
32.484283 32.566312 -9.630923 46.995191 0.786659 1.777193 0.019192 -0.018130 -608194.000000 0 0 1
31.764383 32.828512 -8.288423 46.426126 0.801871 1.750288 0.005874 -0.016421 74093.400000 0 0 1
30.595383 33.618012 -8.430223 46.231124 0.832435 1.754172 0.005092 -0.018046 -313485.000000 0 0 1
30.156483 -33.850240 -7.205023 45.903863 -0.843043 1.728407 0.025216 -0.020663 228918.000000 0 0 1
29.188983 -32.631540 -7.234323 44.375101 -0.841027 1.734554 0.043254 -0.024921 -129361.000000 0 0 1
29.770983 -31.386240 -7.523723 43.909155 -0.811804 1.742994 0.020466 -0.023765 52463.200000 0 0 1
28.861983 -30.442740 -8.077723 42.720301 -0.812047 1.761025 0.025492 -0.018488 -56850.700000 0 0 1
27.792583 -29.829040 -7.198623 41.400718 -0.820725 1.745561 0.046364 -0.022288 -439835.000000 0 0 1
27.176783 -28.750340 -7.776123 40.319074 -0.813527 1.764877 0.057027 -0.033003 -336220.000000 0 0 1
26.151783 -28.173240 -6.990423 39.070619 -0.822591 1.750683 0.067052 -0.033031 -129568.000000 0 0 1
25.254583 -27.219740 -7.802223 37.941836 -0.822831 1.777910 0.112305 -0.043354 -700392.000000 0 0 1
24.309183 -28.017540 -8.458023 38.045461 -0.856149 1.794983 0.123065 -0.041533 -62256.600000 0 0 1
23.270583 -27.236140 -9.027923 36.943616 -0.863753 1.817667 0.118424 -0.043632 552360.000000 0 0 1
22.025983 -28.003540 -9.574823 36.891997 -0.904315 1.833339 0.115945 -0.041779 337229.000000 0 0 1
22.391383 -28.812840 -10.640623 38.010218 -0.910156 1.854529 0.131386 -0.039547 -111361.000000 0 0 1
21.298383 -29.395340 -11.305423 38.019991 -0.943783 1.872717 0.111343 -0.036915 -48465.800000 0 0 1
20.775683 -30.745540 -10.857623 38.662711 -0.976545 1.855454 0.119405 -0.040899 -224628.000000 0 0 1
21.735383 -31.768340 -10.903023 40.006627 -0.970764 1.846818 0.112837 -0.034322 -571972.000000 0 0 1
21.387283 -33.008440 -10.324723 40.664148 -0.995875 1.827509 0.095944 -0.034038 -318784.000000 0 0 1
22.507683 33.868112 -10.275723 41.943239 0.984248 1.818307 0.099358 -0.028249 -454625.000000 0 0 1
23.536983 -33.750040 -9.364623 42.198945 -0.961823 1.794575 0.100687 -0.026342 -1091400.000000 0 0 1
24.601383 33.382212 -9.713823 42.590591 0.935693 1.800896 0.074685 -0.026471 -976337.000000 0 0 1
25.950283 33.723712 -9.042723 43.502606 0.914934 1.780189 0.058740 -0.023551 -8669.040000 0 0 1
25.993983 33.349312 -7.687923 42.976364 0.908715 1.750652 0.051002 -0.035400 166148.000000 0 0 1
26.357683 31.983912 -7.481823 42.115030 0.881537 1.749396 0.048181 -0.020675 -507380.000000 0 0 1
26.415883 31.559712 -6.031623 41.595610 0.873890 1.716316 0.050865 -0.024135 -331173.000000 0 0 1
27.369783 32.151612 -5.159523 42.537652 0.865564 1.692389 0.037598 -0.021031 532172.000000 0 0 1
28.537383 31.392212 -4.867923 42.703043 0.832999 1.685039 0.044581 -0.020181 340990.000000 0 0 1
28.223383 30.232412 -3.863123 41.538919 0.819753 1.663931 0.058460 -0.006308 -524499.000000 0 0 1
27.971883 30.645712 -2.541823 41.569782 0.830981 1.631980 0.063202 -0.009168 81732.800000 0 0 1
27.672283 29.632112 -1.587423 40.575081 0.819585 1.609929 0.055602 -0.004176 53153.600000 0 0 1
26.289983 28.954112 -1.671823 39.144588 0.833586 1.613518 0.051246 -0.000060 -400669.000000 0 0 1
25.195783 29.659312 -1.172823 38.934275 0.866589 1.600924 0.054452 0.000050 -82516.500000 0 0 1
23.984583 28.959212 -1.420023 37.628615 0.879084 1.608543 0.045415 0.001319 622889.000000 0 0 1
22.663583 29.590312 -0.927323 37.283837 0.917189 1.595671 0.072719 -0.011994 266172.000000 0 0 1
22.431983 29.237712 0.420177 36.853958 0.916360 1.559395 0.075798 -0.017342 -791122.000000 0 0 1
21.177383 29.758312 0.691977 36.531048 0.952297 1.551853 0.070126 -0.018218 -668589.000000 0 0 1
20.590683 29.206212 2.016777 35.791709 0.956716 1.514419 0.075101 -0.030889 -325165.000000 0 0 1
20.169283 27.883112 1.864877 34.463686 0.944570 1.516659 0.087018 -0.022987 -144551.000000 0 0 1
19.758083 27.268812 3.031577 33.810655 0.943772 1.481012 0.109849 -0.024642 -255031.000000 0 0 1
18.854283 26.070712 2.638177 32.281976 0.944670 1.488982 0.103353 -0.010975 -58830.400000 0 0 1
19.535383 24.984512 2.026277 31.779912 0.907190 1.506993 0.106002 -0.014563 -50870.000000 0 0 1
20.268383 24.187212 2.913477 31.690959 0.873322 1.478732 0.101804 -0.008971 557099.000000 0 0 1
21.439583 23.332012 2.287577 31.769034 0.827642 1.498727 0.074020 -0.001337 518130.000000 0 0 1
20.967883 22.388712 1.326877 30.702885 0.818157 1.527566 0.071679 -0.001422 -548391.000000 0 0 1
21.988183 21.731912 0.685877 30.922914 0.779537 1.548614 0.043459 -0.002404 -841437.000000 0 0 1
21.512683 20.636512 -0.284023 29.811773 0.764614 1.580324 0.084852 -0.003447 -320759.000000 0 0 1
21.321683 21.145212 -1.598123 30.071384 0.781243 1.623966 0.041282 0.006594 427075.000000 0 0 1
21.738883 20.269412 -2.661923 29.841480 0.750432 1.660117 0.086961 -0.003203 78120.600000 0 0 1
21.654283 21.047812 -3.989223 30.460339 0.771197 1.702138 0.058235 -0.010333 -378341.000000 0 0 1
22.535083 22.140412 -4.019223 31.846224 0.776564 1.697341 0.068447 -0.006348 88875.800000 0 0 1
22.282183 23.023812 -5.089823 32.442224 0.801766 1.728336 0.048407 -0.010694 394152.000000 0 0 1
23.469883 24.044312 -5.371423 34.026703 0.797487 1.729318 0.048944 -0.002733 605150.000000 0 0 1
23.691683 25.157112 -4.489823 34.847304 0.815388 1.699998 0.031336 0.000080 22989.400000 0 0 1
23.957183 24.978112 -3.087923 34.747488 0.806258 1.659781 0.040526 0.003108 -386471.000000 0 0 1
22.768483 24.579612 -2.178823 33.575414 0.823631 1.635735 0.030531 -0.000867 -810035.000000 0 0 1
21.843283 25.668212 -1.976923 33.762321 0.865730 1.629384 0.052227 -0.009591 968493.000000 0 0 1
20.684083 25.357912 -1.218523 32.746599 0.886564 1.608016 0.071294 0.000137 132556.000000 0 0 1
19.741283 24.260212 -1.692623 31.323172 0.887739 1.624860 0.092576 -0.018426 -1580530.000000 0 0 1
19.011683 24.610712 -2.828123 31.227064 0.913052 1.661487 0.075980 -0.022214 18362.400000 0 0 1
18.187183 23.524712 -3.262423 29.913694 0.912668 1.680075 0.081357 -0.028949 318016.000000 0 0 1
17.531783 23.937512 -4.611623 30.027237 0.938656 1.724988 0.086857 -0.033688 -118030.000000 0 0 1
16.896383 22.880912 -5.282723 28.929760 0.934729 1.754432 0.095448 -0.037922 -70585.500000 0 0 1
16.363483 23.310212 -6.504323 29.213623 0.958738 1.795325 0.095031 -0.041669 177488.000000 0 0 1
15.590283 22.238312 -7.346923 28.134973 0.959363 1.834990 0.105638 -0.030779 378422.000000 0 0 1
16.480783 21.247612 -7.944323 28.039071 0.911078 1.858061 0.098933 -0.030431 826024.000000 0 0 1
15.774083 20.219512 -8.597723 27.047573 0.908282 1.894283 0.121339 -0.030488 -122694.000000 0 0 1
16.674183 19.012712 -8.870623 26.799245 0.850834 1.908162 0.134899 -0.033093 -18615.900000 0 0 1
17.675383 19.166712 -9.860023 27.874757 0.825855 1.932348 0.128757 -0.032787 -26048.600000 0 0 1
18.428483 17.977612 -9.877323 27.574717 0.773014 1.937138 0.125794 -0.036373 -1391300.000000 0 0 1
19.827783 18.221612 -10.337123 28.844830 0.743210 1.937318 0.101458 -0.034408 -1380240.000000 0 0 1
19.988783 18.381712 -11.719723 29.576861 0.743540 1.978221 0.103238 -0.029155 -1174080.000000 0 0 1
21.237983 18.877312 -11.973323 30.834482 0.726619 1.969593 0.086903 -0.019364 -1078790.000000 0 0 1
21.492183 19.056912 -13.457523 31.720415 0.725413 2.008935 0.082392 -0.023579 -182172.000000 0 0 1
21.834783 17.905512 -14.082223 31.554304 0.686845 2.033406 0.074145 -0.023493 -9185.940000 0 0 1
21.854183 18.245812 -15.420223 32.377434 0.695656 2.067198 0.067424 -0.023109 26649.200000 0 0 1
21.798583 17.037912 -16.400823 32.162955 0.663424 2.105899 0.064184 -0.014884 -126417.000000 0 0 1
22.800483 16.031012 -16.296623 32.286766 0.612803 2.099884 0.083833 -0.017539 215001.000000 0 0 1
23.042983 15.250512 -17.457223 32.685039 0.584646 2.134244 0.080660 -0.015985 -245134.000000 0 0 1
23.758283 15.872812 -18.665223 34.129060 0.588991 2.149455 0.073729 -0.014667 -702910.000000 0 0 1
25.084083 16.272712 -18.407823 35.112111 0.575480 2.122640 0.089541 -0.014541 180170.000000 0 0 1
25.776483 16.464512 -19.650723 36.354616 0.568420 2.141862 0.112859 -0.015573 -51386.900000 0 0 1
27.276783 16.716612 -19.415323 37.422223 0.549815 2.116264 0.091369 -0.013714 -108407.000000 0 0 1
27.597183 17.870212 -18.628423 37.788452 0.574642 2.086292 0.075386 -0.017780 -793878.000000 0 0 1
28.935183 17.892512 -18.267223 38.614482 0.553814 2.063565 0.075500 -0.028025 -879038.000000 0 0 1
29.293283 18.900912 -17.207923 38.877416 0.573015 2.029315 0.083334 -0.021033 -100208.000000 0 0 1
28.726883 18.713712 -15.949023 37.812804 0.577384 2.006214 0.077370 -0.022410 147505.000000 0 0 1
27.411883 19.259812 -15.862523 37.067119 0.612474 2.013009 0.061346 -0.010912 -89548.800000 0 0 1
26.600083 18.868412 -14.661523 35.756701 0.616965 1.993289 0.061415 -0.013177 -663565.000000 0 0 1
26.996583 19.411212 -13.436923 35.863094 0.623380 1.954840 0.057985 -0.016061 -168621.000000 0 0 1
26.186483 19.048912 -12.373923 34.665644 0.628901 1.935798 0.066935 -0.019170 -329468.000000 0 0 1
26.607983 19.867912 -11.120623 35.019808 0.641379 1.893943 0.054716 -0.013983 -189598.000000 0 0 1
26.134983 21.186812 -11.111323 35.431340 0.681212 1.889780 0.056077 -0.009856 -67789.100000 0 0 1
26.461483 21.867712 -9.927823 35.734697 0.690631 1.852321 0.046818 -0.006503 30971.900000 0 0 1
25.631283 21.537112 -8.668923 34.582656 0.698816 1.824171 0.059268 -0.012966 -577615.000000 0 0 1
25.740683 20.151012 -8.292323 33.725490 0.664194 1.819221 0.079398 -0.023340 160936.000000 0 0 1
25.024983 19.733112 -7.122623 32.655432 0.667712 1.790678 0.083092 -0.024475 -219036.000000 0 0 1
23.507083 19.583512 -7.314923 31.457988 0.694595 1.805474 0.084687 -0.029985 -654965.000000 0 0 1
22.811883 20.786212 -7.438723 31.745601 0.738969 1.807318 0.065288 -0.023072 928843.000000 0 0 1
21.464483 20.509112 -7.904623 30.721829 0.762641 1.831020 0.053171 -0.024166 826500.000000 0 0 1
20.593483 21.734112 -8.081523 31.012484 0.812339 1.834429 0.079747 -0.028524 -628163.000000 0 0 1
21.049683 22.600412 -9.108723 32.199947 0.820910 1.857592 0.083130 -0.023765 336397.000000 0 0 1
20.377283 22.430412 -10.384623 32.034316 0.833323 1.900932 0.088614 -0.013186 851381.000000 0 0 1
18.834383 22.625612 -10.502323 31.256217 0.876588 1.913471 0.085168 -0.022076 273937.000000 0 0 1
18.507883 23.971912 -10.208423 31.959446 0.913322 1.895912 0.079788 -0.025351 938281.000000 0 0 1
17.124883 24.381812 -10.294823 31.523289 0.958486 1.903477 0.083783 -0.024124 1122660.000000 0 0 1
16.968683 25.685712 -9.563423 32.235866 0.986986 1.872000 0.078908 -0.028372 -144964.000000 0 0 1
17.636283 26.700212 -10.254023 33.601857 0.987054 1.880905 0.105062 -0.011163 65052.700000 0 0 1
17.458883 27.914812 -9.623323 34.302444 1.011885 1.855156 0.109075 -0.029351 -90545.300000 0 0 1
21.436383 28.889112 33.657529 49.263866 0.932420 0.818648 0.057807 -0.006876 240370.000000 0 0 1
20.063983 29.103612 33.347439 48.596659 0.967221 0.814533 0.085762 -0.016368 276255.000000 0 0 1
19.342383 27.882312 33.158349 47.444991 0.964301 0.796966 0.062261 -0.015323 222682.000000 0 0 1
17.820283 28.150612 33.251319 47.070900 1.006441 0.786384 0.094346 -0.026895 66361.400000 0 0 1
17.248683 28.769112 32.103931 46.431037 1.030704 0.807326 0.082906 -0.024601 -606332.000000 0 0 1
15.968083 29.203112 32.467062 46.496360 1.070418 0.797817 0.139471 -0.032449 -510302.000000 0 0 1
14.996983 29.259812 31.296134 45.392665 1.097163 0.810062 0.117272 -0.041380 -244191.000000 0 0 1
14.668283 28.035212 30.759954 44.128294 1.088754 0.799511 0.120115 -0.044347 705275.000000 0 0 1
13.256083 28.103412 30.483734 43.529111 1.130053 0.794969 0.127303 -0.026385 925897.000000 0 0 1
12.522383 26.748412 30.229584 42.262458 1.132948 0.773768 0.121449 -0.029317 53179.600000 0 0 1
12.659883 26.048612 28.964604 40.960360 1.118403 0.785355 0.113660 -0.027223 732247.000000 0 0 1
13.961183 25.466812 28.810124 40.908390 1.069328 0.789417 0.088252 -0.026538 425748.000000 0 0 1
13.944383 24.542912 27.523294 39.425018 1.054115 0.798032 0.090734 -0.023284 -318606.000000 0 0 1
13.920983 25.247212 26.327304 39.042828 1.066889 0.830755 0.069307 -0.025929 102155.000000 0 0 1
13.856883 24.430312 25.181274 37.722008 1.054843 0.839885 0.079075 -0.032091 -689917.000000 0 0 1
12.509083 23.822012 24.840964 36.620198 1.087266 0.825295 0.085806 -0.028982 -903519.000000 0 0 1
12.545383 22.888512 23.778974 35.308783 1.069407 0.831920 0.102385 -0.033172 -6156.060000 0 0 1
11.436083 22.009112 23.804984 34.378223 1.091587 0.805926 0.116007 -0.029658 40950.700000 0 0 1
11.232483 21.464912 22.402024 32.996390 1.088687 0.824501 0.126324 -0.028283 -319740.000000 0 0 1
10.814083 22.533712 21.582924 33.023252 1.123352 0.858508 0.124868 -0.043877 100806.000000 0 0 1
10.829883 22.288912 20.158424 31.944389 1.118503 0.887894 0.129663 -0.025535 -534494.000000 0 0 1
10.565983 23.517712 19.233424 32.165935 1.148543 0.929863 0.105276 -0.030025 352771.000000 0 0 1
9.190383 23.787012 19.026624 31.816623 1.202102 0.929782 0.106593 -0.033546 167130.000000 0 0 1
8.516583 24.527212 20.013024 32.781663 1.236591 0.914112 0.103392 -0.032086 -847877.000000 0 0 1
7.148483 25.089412 19.696824 32.688595 1.293231 0.924092 0.108291 -0.034887 -537432.000000 0 0 1
7.198483 26.125312 18.705424 32.927844 1.301931 0.966634 0.098869 -0.044731 530685.000000 0 0 1
5.881483 26.506612 18.292524 32.738490 1.352446 0.977922 0.087494 -0.047683 512621.000000 0 0 1
5.917983 27.730012 17.371624 33.252810 1.360536 1.021121 0.098249 -0.044015 168786.000000 0 0 1
6.513683 27.320012 16.138724 32.392430 1.336744 1.049246 0.089553 -0.037213 -25816.000000 0 0 1
7.296583 28.337912 15.586024 33.154208 1.318786 1.081384 0.085916 -0.031176 224955.000000 0 0 1
8.029383 27.990712 14.254124 32.421150 1.291439 1.115582 0.075430 -0.027452 -18664.300000 0 0 1
7.195383 28.111612 13.165024 31.864621 1.320218 1.144881 0.068184 -0.022859 -519469.000000 0 0 1
6.903483 26.912312 12.498824 30.465574 1.319693 1.148057 0.056056 -0.028929 -101127.000000 0 0 1
6.253283 27.069812 11.112724 29.922749 1.343773 1.190301 0.047557 -0.030856 -219615.000000 0 0 1
6.944983 27.669812 10.008224 30.232694 1.324881 1.233391 0.044533 -0.024985 -85143.500000 0 0 1
6.917883 29.117112 10.097224 31.585079 1.337533 1.245401 0.045874 -0.023038 -240216.000000 0 0 1
6.914083 29.711812 8.705824 31.723614 1.342160 1.292802 0.040664 -0.010274 149424.000000 0 0 1
5.750483 29.652212 7.884024 31.216655 1.379243 1.315473 0.022068 -0.010406 16209.400000 0 0 1
5.610783 28.376712 7.231824 29.816404 1.375589 1.325808 0.011148 -0.001512 789947.000000 0 0 1
4.104083 28.014512 6.930624 29.149441 1.425333 1.330735 0.018888 -0.005166 937179.000000 0 0 1
3.509983 29.016612 6.134824 29.865026 1.450417 1.363905 0.039661 -0.005742 -669257.000000 0 0 1
2.168583 28.706012 5.880424 29.382261 1.495395 1.369300 0.036798 -0.008490 -289036.000000 0 0 1
1.434383 29.678012 4.984024 30.127767 1.522502 1.404603 0.056330 -0.016339 -55606.400000 0 0 1
2.143283 29.773012 3.737124 30.083085 1.498933 1.446248 0.045757 -0.022795 718146.000000 0 0 1
1.374983 30.437812 2.702724 30.588489 1.525653 1.482323 0.060138 -0.027942 483383.000000 0 0 1
0.188983 29.666512 2.108824 29.741970 1.564426 1.499833 0.095219 -0.023526 -119061.000000 0 0 1
0.596583 28.694012 1.164124 28.723812 1.550008 1.530257 0.091684 -0.029359 91701.900000 0 0 1
-0.376117 27.666112 0.927524 27.684210 -1.557202 1.537286 0.089187 -0.027865 807253.000000 0 0 1
-1.250017 27.900612 -0.363576 27.930966 -1.526024 1.583814 0.100803 -0.032848 448572.000000 0 0 1
-2.127117 28.990012 -0.353676 29.070096 -1.497553 1.582963 0.114411 -0.026472 -187880.000000 0 0 1
-1.705317 29.924912 -1.333676 30.003119 -1.513871 1.615262 0.112999 -0.029541 97532.100000 0 0 1
-2.901017 30.772512 -1.839876 30.963664 -1.476801 1.630252 0.141007 -0.020958 318540.000000 0 0 1
-4.051617 30.192012 -2.421376 30.558734 -1.437398 1.650116 0.075988 -0.022168 303548.000000 0 0 1
-3.768517 29.401512 -3.569276 29.856161 -1.443317 1.690632 0.073334 -0.022745 -978516.000000 0 0 1
-5.043317 28.990912 -4.278776 29.735769 -1.398558 1.715191 0.069699 -0.017971 -650536.000000 0 0 1
-5.711517 29.901112 -5.082876 30.863142 -1.382056 1.736241 0.063834 -0.015822 -280203.000000 0 0 1
-6.618817 29.256812 -5.928276 30.576367 -1.348310 1.765916 0.055595 -0.023564 -91035.100000 0 0 1
-7.370417 30.214712 -6.900276 31.856956 -1.331534 1.789129 0.058007 -0.016529 2505.460000 0 0 1
-8.240517 31.117312 -6.266276 32.794198 -1.311918 1.763057 0.048041 -0.000444 -106934.000000 0 0 1
-8.617917 32.131012 -7.169276 34.030412 -1.308752 1.783059 0.047687 -0.013501 333349.000000 0 0 1
-9.547317 33.204012 -6.457376 35.147622 -1.290814 1.755567 0.049438 -0.012825 713172.000000 0 0 1
-10.882617 32.788612 -6.229476 35.104569 -1.250334 1.749196 0.061279 -0.009667 -68721.900000 0 0 1
-11.668017 33.885812 -5.779576 36.301437 -1.239179 1.730687 0.063424 -0.012413 1349470.000000 0 0 1
-13.220117 33.576212 -5.821376 36.551633 -1.195703 1.730742 0.095482 -0.014983 1282920.000000 0 0 1
-13.760017 33.441212 -7.142876 36.860187 -1.180442 1.765813 0.096616 -0.017899 -808300.000000 0 0 1
-15.143417 33.466212 -7.058476 37.404979 -1.145866 1.760639 0.119519 -0.025445 -1387390.000000 0 0 1
-15.796017 33.033012 -8.401476 37.566991 -1.124749 1.796344 0.154499 -0.035432 21040.300000 0 0 1
-17.180417 32.807512 -8.488676 37.994173 -1.088390 1.796119 0.175570 -0.033770 -180317.000000 0 0 1
-17.969017 -33.955440 -8.430976 39.331144 1.084067 1.786832 0.164822 -0.034147 -27029.400000 0 0 1
-19.479417 33.706512 -8.865676 39.927144 -1.046776 1.794709 0.156185 -0.039929 1272640.000000 0 0 1
-20.263617 32.998412 -7.924476 39.526025 -1.020089 1.772652 0.148683 -0.040996 204793.000000 0 0 1
-20.649217 33.753112 -6.775676 40.144396 -1.021766 1.740391 0.146576 -0.035294 -508529.000000 0 0 1
-21.103817 32.764212 -5.657576 39.381123 -0.998572 1.714957 0.139775 -0.036844 -634154.000000 0 0 1
-21.041117 33.416612 -4.385776 39.732022 -1.008853 1.681406 0.137672 -0.044720 313422.000000 0 0 1
-22.140417 33.184712 -3.526976 40.048255 -0.982433 1.658979 0.123273 -0.040130 182851.000000 0 0 1
-23.470517 33.894012 -3.856876 41.407061 -0.965143 1.664077 0.140983 -0.046400 -307327.000000 0 0 1
-24.026017 33.578212 -5.112676 41.603909 -0.949727 1.693997 0.143805 -0.049730 -1372640.000000 0 0 1
-25.205357 -33.683340 -5.283876 42.400434 0.928382 1.695740 0.138826 -0.054798 -1327200.000000 0 0 1
-25.428897 -33.435740 -6.761076 42.547499 0.920590 1.730379 0.162016 -0.037540 193488.000000 0 0 1
-24.515017 -32.519740 -7.407176 41.393065 0.924836 1.750713 0.183683 -0.031274 383283.000000 0 0 1
-24.772217 -32.425140 -8.820576 41.747515 0.918407 1.783685 0.138710 -0.025667 130565.000000 0 0 1
-26.026847 -31.728940 -9.397976 42.100408 0.883807 1.795921 0.113506 -0.010974 -276239.000000 0 0 1
-27.257777 -32.281940 -8.978576 43.194038 0.869582 1.780189 0.124846 -0.008115 1102550.000000 0 0 1
-28.481787 -31.772640 -9.570976 43.730040 0.839960 1.791447 0.065956 0.004528 1269090.000000 0 0 1
-28.807047 -30.255740 -9.291776 42.797113 0.809921 1.789651 0.043887 0.017638 -346673.000000 0 0 1
-27.947557 -29.261640 -9.934976 41.665493 0.808364 1.811562 0.058938 0.019277 309142.000000 0 0 1
-28.260467 -29.101540 -11.331176 42.118276 0.800060 1.843184 0.047633 0.010864 -225377.000000 0 0 1
-27.287987 -28.335940 -12.255976 41.203989 0.804236 1.872813 0.092822 0.004585 504306.000000 0 0 1
-26.055077 -29.010740 -12.493976 40.946178 0.839022 1.880873 0.082998 -0.006553 520834.000000 0 0 1
-25.030517 -28.313240 -13.184176 40.024853 0.846860 1.906464 0.072671 -0.009469 534444.000000 0 0 1
-23.663717 -29.024540 -12.987976 39.636889 0.886795 1.904637 0.097991 -0.020987 -56295.300000 0 0 1
-23.425417 -30.158940 -13.779176 40.597753 0.910405 1.917083 0.113604 -0.022535 49684.600000 0 0 1
-24.005017 -31.386440 -13.315276 41.697075 0.917877 1.895822 0.100053 -0.019257 94731.700000 0 0 1
-23.869617 -32.611240 -14.227876 42.844884 0.938951 1.909303 0.113811 -0.018445 96367.000000 0 0 1
-24.730417 -33.612140 -13.704976 43.922612 0.936472 1.888121 0.105968 -0.026214 170325.000000 0 0 1
-24.583917 33.024112 -14.309776 43.585899 -0.930874 1.905312 0.111217 -0.023866 -289260.000000 0 0 1
-25.219947 31.852212 -13.510376 42.815177 -0.901088 1.891834 0.098984 -0.028992 -71738.100000 0 0 1
-24.640517 31.370112 -12.281476 41.738156 -0.904974 1.869468 0.109426 -0.026511 198926.000000 0 0 1
-24.594817 32.345912 -11.228876 42.157451 -0.920692 1.840406 0.146770 -0.031081 259322.000000 0 0 1
-23.681517 31.936012 -10.031076 41.004214 -0.932738 1.817940 0.143560 -0.034829 562653.000000 0 0 1
-24.359017 30.928112 -9.260676 40.443416 -0.903662 1.801825 0.133125 -0.035349 766943.000000 0 0 1
-23.641517 30.658812 -8.045376 39.542536 -0.913917 1.775688 0.126095 -0.033748 425071.000000 0 0 1
-24.280917 29.393812 -7.409776 38.838948 -0.880369 1.762755 0.118700 -0.029980 160059.000000 0 0 1
-24.120617 28.228212 -8.189276 38.022366 -0.863704 1.787878 0.120238 -0.009401 -43186.200000 0 0 1
-24.538917 27.000212 -7.552076 37.258606 -0.833118 1.774904 0.097388 -0.004836 273324.000000 0 0 1
-23.630117 26.397812 -6.411076 36.004566 -0.840665 1.749814 0.102663 -0.001528 -603.637000 0 0 1
-23.689317 27.202712 -5.253576 36.452316 -0.854325 1.715422 0.107774 -0.001703 186034.000000 0 0 1
-22.766817 26.887812 -4.210976 35.482597 -0.868202 1.689754 0.098632 -0.004441 1010710.000000 0 0 1
-21.317817 27.483812 -4.384676 35.057590 -0.911080 1.696195 0.093666 -0.008108 1069540.000000 0 0 1
-20.530017 27.076012 -5.518076 34.424427 -0.922045 1.731786 0.102965 -0.021249 -26280.000000 0 0 1
-19.208317 27.544212 -5.415776 34.014316 -0.961842 1.730697 0.113588 -0.024022 -53221.300000 0 0 1
-18.423817 27.255412 -6.719776 33.577521 -0.976381 1.772284 0.129663 -0.024108 -227548.000000 0 0 1
-18.683517 27.996312 -7.873976 34.566845 -0.982316 1.800604 0.134434 -0.024984 29304.800000 0 0 1
-18.498317 29.409712 -7.803076 35.609084 -1.009335 1.791721 0.136482 -0.033629 -40217.900000 0 0 1
-18.553217 30.056812 -9.205376 36.501681 -1.017774 1.825740 0.125684 -0.030780 -479979.000000 0 0 1
-17.373817 29.902012 -9.931576 35.980773 -1.044446 1.850452 0.129084 -0.032242 -394966.000000 0 0 1
-17.276517 30.770912 -11.016076 36.968649 -1.059200 1.873377 0.123264 -0.027640 521418.000000 0 0 1
-15.856917 30.638012 -11.666676 36.417591 -1.093202 1.896904 0.132439 -0.029549 734307.000000 0 0 1
-15.748117 31.397612 -12.881476 37.413175 -1.105893 1.922293 0.126390 -0.034198 -270655.000000 0 0 1
-16.497117 30.870912 -13.949476 37.679649 -1.080016 1.950034 0.116777 -0.040241 -28183.800000 0 0 1
-16.055217 31.491512 -15.332976 38.530319 -1.099318 1.980073 0.155137 -0.042630 639349.000000 0 0 1
-14.651617 31.472312 -15.567076 38.046158 -1.135095 1.992333 0.154955 -0.048909 198569.000000 0 0 1
-14.294817 31.981712 -16.857376 38.875993 -1.150466 2.019302 0.132694 -0.055833 1620970.000000 0 0 1
-12.704817 32.014312 -17.042976 38.429046 -1.193010 2.030287 0.166201 -0.060518 1501570.000000 0 0 1
-12.149617 30.696712 -17.061276 37.161653 -1.193920 2.047789 0.172491 -0.072363 593331.000000 0 0 1
-10.790117 30.567212 -17.488576 36.832477 -1.231455 2.065549 0.175454 -0.069159 768985.000000 0 0 1
-10.550817 30.716812 -18.998076 37.626708 -1.239936 2.100073 0.193119 -0.069554 -389263.000000 0 0 1
-11.319617 29.798712 -19.765876 37.507157 -1.207763 2.125851 0.149796 -0.071758 272112.000000 0 0 1
-11.033217 29.750912 -21.152976 38.135247 -1.215666 2.158778 0.141690 -0.075093 -293952.000000 0 0 1
-12.306917 29.436612 -22.007676 38.759671 -1.174800 2.174625 0.119968 -0.057067 455258.000000 0 0 1
-13.146017 30.549212 -22.182276 39.976562 -1.164426 2.159018 0.115167 -0.054742 81859.300000 0 0 1
-14.114917 30.784912 -21.178976 39.943594 -1.140895 2.129659 0.101611 -0.049048 -388150.000000 0 0 1
-15.012017 31.994212 -21.475176 41.354243 -1.132082 2.116826 0.120228 -0.046339 116760.000000 0 0 1
-15.875417 31.855212 -22.614076 42.168470 -1.108460 2.136819 0.103630 -0.038708 227585.000000 0 0 1
-16.825717 32.889212 -22.670576 43.344665 -1.097922 2.121199 0.107298 -0.044574 183856.000000 0 0 1
-17.287417 33.170512 -24.122576 44.508834 -1.090358 2.143579 0.098200 -0.036397 162801.000000 0 0 1
-16.141917 33.542912 -24.877976 44.772783 -1.122276 2.159940 0.117828 -0.033841 293340.000000 0 0 1
-16.332417 33.612512 -26.289476 45.691196 -1.118490 2.183856 0.130665 -0.029639 365060.000000 0 0 1
-17.116417 -33.091740 -26.936776 45.974177 1.093451 2.196800 0.110189 -0.027830 62678.600000 0 0 1
-18.485817 -32.993840 -26.644676 46.262919 1.060094 2.184550 0.116016 -0.025849 -425594.000000 0 0 1
-19.031017 -32.093940 -27.571776 46.394002 1.035556 2.207187 0.090590 -0.020458 104669.000000 0 0 1
-20.522817 -31.723340 -27.313476 46.621694 0.996581 2.196729 0.057766 -0.025066 -113572.000000 0 0 1
-21.285317 -32.726440 -27.824076 47.940211 0.994139 2.190005 0.055524 -0.019167 -1646410.000000 0 0 1
-22.628517 -32.443740 -27.569376 48.215315 0.961771 2.179491 0.042254 -0.015082 -394257.000000 0 0 1
-23.597817 -33.614240 -27.657176 49.514579 0.958717 2.163453 0.025324 -0.004192 -359157.000000 0 0 1
-23.543917 33.555112 -26.455276 48.786711 -0.958964 2.143926 0.046212 -0.013063 -443335.000000 0 0 1
-24.561517 32.603012 -26.297476 48.556995 -0.925154 2.143111 0.021429 -0.001086 -203835.000000 0 0 1
-24.170917 31.159012 -26.732676 47.641927 -0.911032 2.166530 0.023087 -0.001358 434060.000000 0 0 1
-23.177917 30.445412 -25.960076 46.239209 -0.920106 2.166909 0.021018 -0.016436 511228.000000 0 0 1
-23.823717 29.541912 -25.089476 45.494789 -0.892142 2.154934 0.029949 -0.012172 -215943.000000 0 0 1
32.325451 10.212012 -25.767793 42.581675 0.305991 2.220736 0.066838 -0.009455 -112751.000000 0 0 1
31.833271 8.899712 -25.703523 41.871626 0.272612 2.231744 0.055851 -0.013160 -353844.000000 0 0 1
30.469601 8.924512 -26.034453 41.058936 0.284929 2.257608 0.068891 -0.015080 -190814.000000 0 0 1
29.915361 7.477012 -25.874503 40.253253 0.244921 2.268935 0.061042 -0.015182 -172467.000000 0 0 1
30.127021 7.036412 -24.531823 39.483652 0.229445 2.241217 0.041319 -0.004205 133316.000000 0 0 1
29.764791 5.707412 -24.299623 38.845707 0.189451 2.246622 0.051706 -0.002275 -48988.400000 0 0 1
29.853951 5.413712 -22.803223 37.954626 0.179390 2.215301 0.050647 -0.002471 -22117.300000 0 0 1
31.117501 5.086912 -22.283123 38.609754 0.162041 2.186015 0.067512 -0.012131 32177.000000 0 0 1
30.894611 4.894312 -20.889723 37.613984 0.157114 2.159606 0.039848 -0.009953 -460247.000000 0 0 1
32.056691 4.533912 -19.970423 38.039526 0.140502 2.123501 0.045993 -0.013552 -359962.000000 0 0 1
32.500721 3.163312 -19.983323 38.283633 0.097025 2.119968 0.063798 -0.011559 677577.000000 0 0 1
33.505251 2.964612 -18.979623 38.621455 0.088252 2.084524 0.078161 -0.021835 360751.000000 0 0 1
34.070151 1.520312 -18.833923 38.958993 0.044593 2.075364 0.083526 -0.023296 162355.000000 0 0 1
33.283181 0.695512 -17.982223 37.836678 0.020894 2.066055 0.094041 -0.015700 23380.500000 0 0 1
33.519711 -0.672788 -18.317823 38.204270 -0.020069 2.070848 0.093234 -0.009057 -251955.000000 0 0 1
32.438951 -1.639388 -17.833123 37.053925 -0.050495 2.072905 0.085223 -0.014516 -128982.000000 0 0 1
32.422501 -1.862388 -16.443123 36.401419 -0.057378 2.039485 0.084913 -0.012393 -554560.000000 0 0 1
31.155681 -1.578888 -15.949023 35.036276 -0.050634 2.043409 0.075491 -0.015343 -677143.000000 0 0 1
30.882841 -1.993588 -14.412923 34.138784 -0.064464 2.006652 0.092043 -0.030228 -154414.000000 0 0 1
30.637461 -3.330588 -14.258123 33.956456 -0.108284 2.004125 0.086420 -0.028491 709044.000000 0 0 1
29.514181 -3.505088 -13.392723 32.599655 -0.118206 1.994154 0.079626 -0.039422 -13597.300000 0 0 1
29.390201 -4.974688 -12.967323 32.506659 -0.167674 1.981127 0.086577 -0.035754 -293268.000000 0 0 1
28.884201 -5.780388 -13.976423 32.604453 -0.197514 2.013812 0.074227 -0.031653 438575.000000 0 0 1
28.630701 -7.125588 -13.548223 32.466065 -0.243924 2.001273 0.073289 -0.031059 -57919.900000 0 0 1
28.031101 -8.154988 -14.609523 32.644825 -0.283112 2.034797 0.051540 -0.018951 105367.000000 0 0 1
26.741001 -7.756788 -15.019923 31.636165 -0.282323 2.065500 0.063449 -0.024796 -8012.250000 0 0 1
26.067301 -8.774588 -15.700523 31.670238 -0.324699 2.089495 0.045759 -0.018940 153625.000000 0 0 1
24.641801 -8.387488 -16.154123 30.635339 -0.328076 2.126220 0.038014 -0.021489 -154444.000000 0 0 1
24.687401 -7.566388 -17.342223 31.104191 -0.297398 2.162231 0.030172 -0.021152 295600.000000 0 0 1
23.376501 -7.299888 -17.826023 30.290531 -0.302680 2.200000 0.072912 -0.022074 437102.000000 0 0 1
23.028801 -7.745488 -19.248423 30.997097 -0.324453 2.240782 0.048801 -0.019835 -155505.000000 0 0 1
23.654201 -6.968788 -20.254123 31.911044 -0.286505 2.258424 0.045633 -0.018833 261215.000000 0 0 1
23.381101 -7.348288 -21.589223 32.661411 -0.304509 2.292948 0.066283 -0.032048 -439817.000000 0 0 1
24.112301 -6.399888 -22.524623 33.611311 -0.259438 2.305207 0.061886 -0.033251 -230337.000000 0 0 1
23.921101 -6.608288 -23.933923 34.477836 -0.269531 2.338080 0.068406 -0.035544 -22883.800000 0 0 1
24.260901 -5.468188 -24.737723 35.077732 -0.221687 2.353538 0.057905 -0.034139 -290546.000000 0 0 1
24.093501 -5.650788 -26.210473 36.047428 -0.230372 2.384900 0.064217 -0.035072 -86106.700000 0 0 1
22.919701 -6.350288 -26.581423 35.668065 -0.270287 2.411697 0.070011 -0.035743 -176067.000000 0 0 1
22.637301 -6.356588 -27.957913 36.530788 -0.273752 2.442342 0.064290 -0.034207 260087.000000 0 0 1
21.356401 -7.146188 -28.330003 36.190509 -0.322904 2.469952 0.060602 -0.038438 102935.000000 0 0 1
21.447001 -8.535288 -28.119773 36.380580 -0.378756 2.454248 0.054796 -0.035930 -248154.000000 0 0 1
20.261901 -9.194988 -28.437293 36.107784 -0.426015 2.477647 0.065614 -0.044620 -456597.000000 0 0 1
20.302701 -10.672888 -28.079103 36.256671 -0.483986 2.456647 0.079902 -0.038055 -920005.000000 0 0 1
19.063001 -11.200188 -27.775523 35.501012 -0.531204 2.469285 0.091514 -0.032590 -509197.000000 0 0 1
19.144001 -12.566288 -27.284233 35.620692 -0.580867 2.443339 0.093952 -0.031062 -174492.000000 0 0 1
19.150201 -13.633888 -28.409243 36.874085 -0.618698 2.450326 0.091022 -0.030893 86124.200000 0 0 1
17.857101 -13.772888 -28.961273 36.705910 -0.656984 2.479990 0.097148 -0.028462 366856.000000 0 0 1
17.925001 -14.704788 -30.060883 37.963049 -0.687027 2.484622 0.081709 -0.030976 -644478.000000 0 0 1
16.600101 -14.791788 -30.802543 37.988906 -0.727857 2.516365 0.087273 -0.029952 -1284720.000000 0 0 1
15.596401 -15.270588 -30.004223 37.103800 -0.774843 2.512661 0.076253 -0.032345 252040.000000 0 0 1
14.494201 -15.755288 -30.831923 37.535562 -0.827064 2.534668 0.078105 -0.040366 1084430.000000 0 0 1
13.335801 -16.446088 -30.043903 36.755319 -0.889456 2.527684 0.084937 -0.045975 683904.000000 0 0 1
13.711501 -17.759288 -29.546723 37.099951 -0.913316 2.492130 0.081887 -0.038021 826533.000000 0 0 1
12.679801 -18.127188 -28.602793 36.159260 -0.960412 2.483275 0.086450 -0.036618 883819.000000 0 0 1
13.034801 -19.485288 -27.952393 36.481759 -0.981210 2.443706 0.087844 -0.034684 88503.500000 0 0 1
14.167601 -19.386988 -27.134023 36.233016 -0.939711 2.417160 0.088409 -0.033236 -274950.000000 0 0 1
14.381701 -20.586188 -26.422383 36.452253 -0.961004 2.381612 0.078117 -0.023001 -15249.600000 0 0 1
15.459301 -20.510188 -25.321703 36.067249 -0.924907 2.349095 0.067429 -0.013252 -38024.800000 0 0 1
16.789001 -20.500988 -25.804533 36.986957 -0.884615 2.342930 0.075952 -0.017370 444394.000000 0 0 1
17.662301 -20.300088 -24.674923 36.508934 -0.854771 2.312927 0.074015 -0.014935 896412.000000 0 0 1
19.182901 -20.642988 -24.836523 37.562874 -0.822044 2.293212 0.053192 -0.008938 689636.000000 0 0 1
19.609501 -21.994188 -25.038213 38.667673 -0.842655 2.275126 0.064735 -0.016426 347567.000000 0 0 1
19.177401 -22.989188 -24.085023 38.423480 -0.875551 2.248275 0.058372 -0.015185 -553495.000000 0 0 1
19.778901 -24.400088 -24.307923 39.717053 -0.889621 2.229418 0.059245 -0.015619 -658844.000000 0 0 1
21.141601 -24.456788 -24.017823 40.273535 -0.857975 2.209764 0.070601 -0.018628 -457470.000000 0 0 1
21.495001 -25.750978 -23.496823 40.954226 -0.875237 2.181854 0.070991 -0.030674 -88254.000000 0 0 1
21.477001 -25.932528 -21.943923 40.190712 -0.879103 2.148372 0.080378 -0.024690 -119234.000000 0 0 1
20.151301 -26.037678 -21.462323 39.302251 -0.912156 2.148479 0.071918 -0.017780 192711.000000 0 0 1
20.092901 -26.186158 -20.047023 38.617647 -0.916309 2.116612 0.071484 -0.018800 -377205.000000 0 0 1
18.771501 -26.805058 -19.599723 38.144849 -0.959871 2.110432 0.065061 -0.019277 -631606.000000 0 0 1
18.477401 -28.124018 -20.026423 39.159065 -0.989518 2.107624 0.066924 -0.021293 314391.000000 0 0 1
17.444901 -28.789518 -19.289823 38.797657 -1.026016 2.091154 0.061205 -0.007336 618206.000000 0 0 1
15.977801 -28.458688 -19.644123 38.093026 -1.059214 2.112607 0.059035 -0.017860 -341849.000000 0 0 1
15.457401 -27.339828 -18.994323 36.703975 -1.056222 2.114724 0.058619 -0.014784 554327.000000 0 0 1
14.164001 -27.084008 -19.601823 36.309694 -1.088946 2.141056 0.051682 -0.006482 1474870.000000 0 0 1
13.264301 -26.082848 -18.753223 34.755431 -1.100336 2.140731 0.048913 -0.009764 -91090.900000 0 0 1
12.711801 -26.670218 -17.601223 34.390311 -1.126020 2.108084 0.044898 -0.011077 97278.300000 0 0 1
11.775301 -25.797298 -16.972423 33.048774 -1.142588 2.110121 0.059242 -0.013775 684553.000000 0 0 1
10.276401 -25.989368 -17.359923 32.900131 -1.194255 2.126634 0.066009 -0.012145 41448.600000 0 0 1
9.680701 -27.219598 -16.905523 33.472663 -1.229095 2.100242 0.070833 -0.004270 1749140.000000 0 0 1
8.218901 -27.120468 -16.958523 33.025167 -1.276542 2.110059 0.071492 -0.000113 1950780.000000 0 0 1
7.633401 -27.780988 -18.204823 34.080312 -1.302643 2.134327 0.073961 -0.002930 -274405.000000 0 0 1
7.854001 -26.962508 -19.356923 34.107956 -1.287346 2.174286 0.074581 -0.012868 332118.000000 0 0 1
7.045801 -27.444258 -20.449523 34.943005 -1.319492 2.195954 0.075704 -0.011003 282361.000000 0 0 1
6.960801 -26.509578 -21.687023 34.950500 -1.314016 2.240185 0.073893 -0.008339 -209155.000000 0 0 1
5.903001 -25.572858 -21.555023 33.962266 -1.343939 2.258385 0.068878 -0.014291 256087.000000 0 0 1
5.762201 -24.873588 -22.758323 34.202918 -1.343152 2.298814 0.055414 -0.012487 -805420.000000 0 0 1
4.324301 -24.415088 -22.920823 33.766259 -1.395498 2.316935 0.035205 -0.004014 -477802.000000 0 0 1
3.471201 -25.532518 -23.183723 34.661848 -1.435673 2.303463 0.034175 -0.004670 -133385.000000 0 0 1
2.129201 -25.206288 -23.429623 34.479526 -1.486525 2.317908 0.024556 -0.011168 347443.000000 0 0 1
1.286501 -26.303048 -24.179223 35.751087 -1.521925 2.313553 0.015524 -0.009535 -252210.000000 0 0 1
1.855501 -26.614898 -25.404153 36.839743 -1.501192 2.331713 0.017212 -0.008939 -206552.000000 0 0 1
1.024401 -27.452588 -26.154913 37.931167 -1.533498 2.331645 0.021238 -0.013140 48690.600000 0 0 1
1.745401 -28.261448 -27.309033 39.338774 -1.509116 2.338106 0.027134 -0.013341 40975.500000 0 0 1
2.241901 -27.515808 -28.423723 39.623905 -1.489499 2.370770 0.033302 -0.014824 61277.800000 0 0 1
2.812201 -28.283908 -29.440343 40.922142 -1.471694 2.373768 0.039075 -0.014740 1572220.000000 0 0 1
4.251301 -29.016068 -29.402143 41.527001 -1.425316 2.357493 0.036589 -0.008024 1300920.000000 0 0 1
4.517301 -29.849008 -28.273763 41.361515 -1.420598 2.323448 0.026246 -0.014476 133950.000000 0 0 1
5.700801 -30.586798 -28.563343 42.236429 -1.386530 2.313487 0.037741 -0.015092 595862.000000 0 0 1
6.193701 -31.435458 -27.389203 42.151138 -1.376259 2.278099 0.057406 -0.021419 -124125.000000 0 0 1
5.187001 -32.376818 -27.213583 42.611529 -1.411939 2.263531 0.046979 -0.029421 -23652.100000 0 0 1
5.770701 -33.425218 -26.571663 43.088275 -1.399836 2.235314 0.070774 -0.035878 -122999.000000 0 0 1
4.720401 33.429241 -26.290313 42.789915 1.430518 2.232427 0.083469 -0.038385 -39363.200000 0 0 1
4.116101 32.791710 -27.438713 42.954877 1.445927 2.263708 0.077815 -0.035700 644059.000000 0 0 1
2.901801 32.172313 -27.014553 42.110144 1.480844 2.267276 0.051220 -0.031571 556706.000000 0 0 1
1.680201 32.333893 -27.959303 42.778807 1.518879 2.283099 0.063015 -0.020811 -116064.000000 0 0 1
1.451001 31.405004 -29.006703 42.775793 1.524626 2.315985 0.080452 -0.028119 -257709.000000 0 0 1
0.435601 31.822724 -29.871313 43.648262 1.557109 2.324528 0.081808 -0.033049 -137096.000000 0 0 1
0.091001 30.719834 -30.890113 43.565072 1.567834 2.358956 0.088553 -0.032979 -106596.000000 0 0 1
1.146501 30.468674 -31.793653 44.051003 1.533185 2.377118 0.088103 -0.033670 -95849.800000 0 0 1
0.764101 29.618514 -32.870873 44.253073 1.545004 2.408029 0.107000 -0.034209 -200012.000000 0 0 1
1.818301 29.244754 33.901444 44.809259 1.508701 0.712741 0.092533 -0.026285 -99326.000000 0 0 1
2.348101 30.334274 33.195151 45.028877 1.493543 0.741884 0.091643 -0.026265 -230982.000000 0 0 1
3.377801 29.974374 32.292864 44.189384 1.458580 0.751328 0.082284 -0.032139 -279006.000000 0 0 1
3.128201 29.105214 31.059064 42.679791 1.463728 0.755800 0.086773 -0.021078 -442368.000000 0 0 1
2.918401 27.735314 31.404174 41.999843 1.465959 0.726173 0.087036 -0.024779 221875.000000 0 0 1
4.070201 26.929224 31.175234 41.396193 1.420787 0.718044 0.085691 -0.023160 -248587.000000 0 0 1
3.846301 25.419254 31.457864 40.626711 1.420621 0.685165 0.094008 -0.027483 81034.600000 0 0 1
2.944301 24.786914 30.564424 39.461931 1.452566 0.684826 0.084265 -0.013767 282816.000000 0 0 1
2.975001 23.366664 30.712134 38.705126 1.444159 0.654274 0.081658 -0.013726 -137753.000000 0 0 1
2.139901 22.524264 29.710794 37.345052 1.476076 0.650840 0.078265 -0.006142 -601502.000000 0 0 1
0.844101 22.350564 30.159134 37.547750 1.533048 0.638114 0.083852 -0.011662 -1366720.000000 0 0 1
0.103001 21.604564 29.272774 36.382180 1.566029 0.635810 0.088933 -0.011305 -700428.000000 0 0 1
-1.304499 21.248164 29.722534 36.559748 -1.509480 0.621536 0.092556 -0.010752 -842069.000000 0 0 1
-2.117699 22.364264 29.913914 37.409720 -1.476387 0.644118 0.091562 -0.013796 610374.000000 0 0 1
-3.485799 21.923464 29.980544 37.304451 -1.413118 0.637356 0.065369 -0.017476 1503840.000000 0 0 1
-4.564399 23.053024 30.314234 38.356595 -1.375329 0.659455 0.047662 -0.025214 795725.000000 0 0 1
-4.710899 23.456034 31.675864 39.695572 -1.372594 0.646877 0.055383 -0.022359 320214.000000 0 0 1
-5.645199 24.539064 31.791364 40.555206 -1.344681 0.669868 0.046694 -0.024363 254801.000000 0 0 1
-5.677299 25.097744 33.199899 42.004306 -1.348333 0.659346 0.071586 -0.020700 168711.000000 0 0 1
-6.658499 26.077984 33.499053 42.971890 -1.320807 0.676838 0.052476 -0.021514 -81499.200000 0 0 1
-6.644499 26.343734 -32.912703 42.677719 -1.323726 2.451507 0.061938 -0.015087 -458320.000000 0 0 1
-8.000099 26.805884 -32.403063 42.807890 -1.280766 2.429416 0.072751 -0.009664 -829205.000000 0 0 1
-8.494799 28.008454 -32.928523 44.055904 -1.276320 2.414975 0.085105 -0.016145 -683294.000000 0 0 1
-9.756699 28.344084 -32.420973 44.155404 -1.239277 2.395353 0.085206 -0.019347 -323017.000000 0 0 1
-9.969499 28.688554 -30.945873 43.359786 -1.236343 2.365563 0.078666 -0.015076 -847467.000000 0 0 1
-9.390499 29.935034 -30.674573 43.877296 -1.266822 2.344933 0.090800 -0.017853 30631.100000 0 0 1
-9.279799 30.027354 -29.285883 42.958347 -1.271062 2.320917 0.107272 -0.023245 156287.000000 0 0 1
-8.464399 31.316034 -28.900073 43.445992 -1.306815 2.298552 0.104509 -0.030101 -589393.000000 0 0 1
-7.087899 31.253604 -29.038043 43.246202 -1.347782 2.306972 0.084502 -0.034019 -1189330.000000 0 0 1
-6.619899 32.457004 -28.498523 43.697207 -1.369597 2.281255 0.107469 -0.034092 31894.300000 0 0 1
-5.073699 32.379226 -28.382973 43.356082 -1.415364 2.284513 0.116643 -0.037239 -3300.530000 0 0 1
-4.324599 33.432088 -27.811903 43.702501 -1.442156 2.260608 0.115680 -0.045088 -79778.500000 0 0 1
-4.165099 -33.317578 -28.538253 44.066324 1.446429 2.275254 0.118808 -0.044532 -17373.800000 0 0 1
-3.135999 -33.378908 -29.753413 44.824676 1.477120 2.296649 0.110281 -0.035190 486768.000000 0 0 1
-3.530099 33.608763 -30.832023 45.745209 -1.466145 2.310399 0.105630 -0.033551 350132.000000 0 0 1
-4.576499 33.927704 -31.755753 46.695409 -1.436716 2.318643 0.112391 -0.028879 305582.000000 0 0 1
-4.216199 -33.103128 -32.933143 46.884809 1.444113 2.349598 0.077230 -0.033987 -275726.000000 0 0 1
-3.886199 -31.804508 -32.620903 45.724748 1.449209 2.365162 0.079043 -0.040875 349391.000000 0 0 1
-3.082099 -31.141598 -33.620043 45.930445 1.472147 2.392016 0.064056 -0.039297 357611.000000 0 0 1
33.169321 17.896712 12.605224 39.741512 0.494790 1.248042 0.115422 -0.022077 851433.000000 0 0 1
34.481961 17.803112 13.199024 40.989884 0.476604 1.242948 0.112351 -0.034706 879040.000000 0 0 1
34.634641 16.643912 14.051424 40.914797 0.447972 1.220228 0.122479 -0.015838 1405560.000000 0 0 1
36.112651 16.491112 14.686324 42.329285 0.428376 1.216475 0.116549 -0.051454 2552100.000000 0 0 1
37.223271 16.050212 13.882824 42.847567 0.407100 1.240837 0.116874 -0.011152 521273.000000 0 0 1
36.993521 14.834512 13.153424 41.971369 0.381371 1.252035 0.147002 -0.034090 530007.000000 0 0 1
-36.172757 14.182612 12.620524 40.852080 -0.373660 1.256726 0.152826 -0.024083 1264410.000000 0 0 1
-35.391169 13.416512 13.515824 40.189739 -0.362353 1.227811 0.139848 -0.032555 -254846.000000 0 0 1
-35.832410 12.118112 13.823224 40.272717 -0.326114 1.220432 0.128728 -0.027052 -214067.000000 0 0 1
-35.070998 11.514112 15.024624 39.853343 -0.317222 1.184244 0.154702 -0.037109 133468.000000 0 0 1
-35.324476 12.300112 16.137924 40.737500 -0.335074 1.163483 0.165928 -0.033980 136959.000000 0 0 1
-34.681722 11.755012 17.254624 40.481158 -0.326788 1.130466 0.153063 -0.015671 -98628.800000 0 0 1
-34.878504 12.586012 18.571124 41.470524 -0.346310 1.106476 0.157483 -0.023763 -502883.000000 0 0 1
-36.164507 12.593312 19.100724 42.793699 -0.335091 1.108120 0.166930 -0.040427 -491467.000000 0 0 1
-36.217517 13.155312 20.390824 43.595372 -0.348413 1.084077 0.183201 -0.040886 -508842.000000 0 0 1
36.951061 13.140812 21.079124 44.524053 0.341679 1.077613 0.184903 -0.057736 -534386.000000 0 0 1
36.534091 11.877312 21.483724 44.015460 0.314324 1.060891 0.151148 -0.037858 -170475.000000 0 0 1
35.379681 11.949212 22.270424 43.479619 0.325713 1.033048 0.163147 -0.041060 -194854.000000 0 0 1
35.387651 10.595612 23.058014 43.545663 0.290920 1.012769 0.122768 -0.032832 226927.000000 0 0 1
36.366621 10.397812 24.092624 44.845291 0.278486 1.003637 0.113799 -0.023829 537579.000000 0 0 1
36.077551 11.166012 25.301704 45.458175 0.300150 0.980517 0.108481 -0.025649 -428972.000000 0 0 1
-37.178587 11.141012 26.165564 46.808185 -0.291147 0.977623 0.104532 -0.027617 55670.400000 0 0 1
-36.153857 12.006212 25.816264 46.018800 -0.320628 0.975210 0.134557 -0.035534 82219.500000 0 0 1
-35.202148 11.572612 24.816414 44.597880 -0.317617 0.980691 0.125101 -0.039004 489766.000000 0 0 1
-34.198082 12.721512 24.418044 43.904288 -0.356133 0.981032 0.137517 -0.042635 748588.000000 0 0 1
-33.168997 13.141412 25.305294 43.740564 -0.377222 0.953869 0.121555 -0.040436 33572.800000 0 0 1
-33.635967 13.806612 26.435444 44.953681 -0.389501 0.942139 0.106783 -0.034234 -886735.000000 0 0 1
-32.692307 14.659012 27.287794 45.036621 -0.421517 0.919897 0.111450 -0.019139 -607331.000000 0 0 1
-32.127877 15.781512 26.641754 44.621067 -0.456590 0.930957 0.122388 -0.024005 100224.000000 0 0 1
-31.326217 16.479012 27.567624 44.864948 -0.484266 0.909098 0.100214 -0.024215 108043.000000 0 0 1
-30.490927 17.673312 27.072034 44.440270 -0.525303 0.915773 0.091055 -0.012382 74929.100000 0 0 1
-31.384607 18.671412 26.645624 45.206243 -0.536678 0.940451 0.089538 -0.021446 476896.000000 0 0 1
-30.834567 19.488812 25.629334 44.580792 -0.563649 0.958319 0.091872 -0.025700 237938.000000 0 0 1
-31.928707 20.467512 25.126004 45.493707 -0.570049 0.985680 0.101312 -0.013633 242150.000000 0 0 1
-32.251687 21.511312 26.025194 46.692810 -0.588221 0.979581 0.097521 -0.020796 41672.900000 0 0 1
-33.549757 21.991812 25.812954 47.702563 -0.580231 0.999024 0.102729 -0.020673 -552129.000000 0 0 1
-33.639287 23.532312 25.599054 48.380604 -0.610423 1.013235 0.107739 -0.019248 -627713.000000 0 0 1
-34.870181 24.014812 25.171254 49.256804 -0.603096 1.034424 0.116523 -0.016029 -601937.000000 0 0 1
-34.790547 25.401112 25.083924 49.847787 -0.630653 1.043487 0.107250 -0.023333 285975.000000 0 0 1
-35.949288 25.889412 24.202434 50.481390 -0.624132 1.070788 0.114544 -0.016954 -62403.200000 0 0 1
-35.741674 25.640112 22.822614 49.555567 -0.622291 1.092186 0.121228 -0.024750 -470110.000000 0 0 1
-36.702227 26.177012 21.973624 50.151067 -0.619548 1.117258 0.125047 -0.029838 -539863.000000 0 0 1
-36.426317 26.018312 20.468924 49.222007 -0.620241 1.141920 0.154592 -0.036316 -26896.700000 0 0 1
-36.558357 24.739212 19.910024 48.424695 -0.594920 1.147076 0.143586 -0.036942 -15030.200000 0 0 1
-36.130087 24.810612 18.585124 47.606265 -0.601745 1.169739 0.148124 -0.041789 -297673.000000 0 0 1
-36.354837 23.557212 17.774424 46.824636 -0.574954 1.181437 0.150644 -0.038214 -153106.000000 0 0 1
36.835291 23.334012 17.427724 46.957856 0.564666 1.190565 0.116349 -0.035985 -568561.000000 0 0 1
36.900571 22.151812 16.690524 46.161981 0.540648 1.200851 0.112505 -0.039415 -208122.000000 0 0 1
35.760461 21.855012 15.716524 44.760040 0.548578 1.212020 0.089862 -0.026082 -316736.000000 0 0 1
34.737961 21.104512 16.301424 43.793410 0.545941 1.189381 0.109109 -0.042439 -254809.000000 0 0 1
33.634271 20.836012 15.466324 42.480710 0.554625 1.198153 0.105366 -0.033191 -663358.000000 0 0 1
32.482971 19.983412 16.111824 41.401340 0.551519 1.171075 0.095670 -0.038025 161394.000000 0 0 1
31.697721 20.725212 16.960724 41.496338 0.579069 1.149736 0.084373 -0.040582 -172279.000000 0 0 1
30.841031 21.691112 16.336324 41.091957 0.612951 1.161945 0.075866 -0.030637 -146728.000000 0 0 1
29.924661 22.422212 17.446424 41.262799 0.643046 1.134250 0.059954 -0.031527 468540.000000 0 0 1
30.613981 23.325012 18.288124 42.611353 0.651078 1.127207 0.020761 -0.020028 -212325.000000 0 0 1
29.826391 23.867412 19.341824 42.817906 0.674870 1.102101 0.014394 -0.012879 -385592.000000 0 0 1
30.654791 24.550012 20.444924 44.276564 0.675261 1.090824 0.008921 -0.014516 307168.000000 0 0 1
31.460131 25.589912 19.887924 45.167609 0.682863 1.114848 0.028388 -0.012347 184476.000000 0 0 1
32.365401 26.093412 20.855624 46.511744 0.678518 1.105828 0.034303 -0.016400 201822.000000 0 0 1
33.526821 26.990912 20.291024 47.584479 0.677815 1.130264 0.058503 -0.021180 658372.000000 0 0 1
34.506101 27.471712 21.223024 48.946733 0.672383 1.122319 0.059204 -0.020183 453213.000000 0 0 1
34.090001 28.297512 22.291824 49.596398 0.692817 1.104630 0.029613 -0.007006 -1622310.000000 0 0 1
35.059101 28.337912 23.377954 50.780966 0.679775 1.092386 0.026966 -0.013566 -420646.000000 0 0 1
36.256211 29.040412 23.028954 51.847768 0.675337 1.110554 0.064914 -0.016397 225806.000000 0 0 1
36.809421 29.706712 24.133614 53.102292 0.679020 1.099015 0.069244 -0.014527 734065.000000 0 0 1
-36.360947 30.492612 23.926684 53.145122 -0.697844 1.103791 0.065580 -0.018572 1167300.000000 0 0 1
-35.207462 29.659412 24.037334 51.933029 -0.700076 1.089586 0.075389 -0.020390 -960091.000000 0 0 1
-34.140055 30.462612 24.281794 51.798837 -0.728536 1.082897 0.079135 -0.014890 -443385.000000 0 0 1
-32.731887 29.871112 23.939854 50.366420 -0.739733 1.075476 0.097978 -0.026832 413298.000000 0 0 1
-32.511697 29.734612 22.528724 49.484351 -0.740813 1.098121 0.087986 -0.016764 126837.000000 0 0 1
-32.919487 28.534812 21.851124 48.738072 -0.714170 1.105891 0.101605 -0.017783 -132392.000000 0 0 1
-32.379997 27.191512 22.357324 47.829828 -0.698521 1.084410 0.100409 -0.016847 563425.000000 0 0 1
-30.953937 27.046112 22.335524 46.781556 -0.718124 1.073054 0.095033 -0.017442 850325.000000 0 0 1
-30.329867 26.024112 23.077694 46.149054 -0.709141 1.047118 0.088524 -0.018146 -125750.000000 0 0 1
-30.038097 26.416012 24.565554 46.942085 -0.721326 1.020058 0.078199 -0.019905 468078.000000 0 0 1
-31.167987 26.516012 25.491374 48.211538 -0.704926 1.013681 0.076505 -0.022541 735632.000000 0 0 1
-30.781837 27.096912 26.679314 48.923919 -0.721818 0.994023 0.087671 -0.027114 -1019940.000000 0 0 1
-31.902977 27.599112 27.544824 50.380832 -0.713193 0.992340 0.078755 -0.027020 -554645.000000 0 0 1
-32.691787 26.509812 27.997014 50.550527 -0.681353 0.983825 0.079115 -0.017906 -220140.000000 0 0 1
-33.585487 26.784712 29.016714 51.839901 -0.673220 0.976728 0.075457 -0.008780 -48579.100000 0 0 1
-34.284943 25.542012 29.650654 52.028962 -0.640288 0.964427 0.069744 -0.007848 312982.000000 0 0 1
-33.432377 24.858612 30.562854 51.669744 -0.639360 0.937874 0.076094 -0.012200 307450.000000 0 0 1
-34.065868 23.679212 31.007884 51.794568 -0.607430 0.928956 0.056261 -0.018094 81141.200000 0 0 1
-33.296437 22.875012 32.102460 51.599290 -0.601955 0.899311 0.076962 -0.029264 172607.000000 0 0 1
-32.141807 22.240312 31.528214 50.217083 -0.605298 0.892023 0.071578 -0.021373 820458.000000 0 0 1
-31.350137 21.427512 32.414317 49.926519 -0.599559 0.864211 0.069917 -0.026128 593218.000000 0 0 1
-30.418737 22.206612 33.384553 50.328536 -0.630598 0.845533 0.070520 -0.023691 -489272.000000 0 0 1
-31.141667 22.818412 -33.395983 51.046792 -0.632356 2.283951 0.085374 -0.033382 373429.000000 0 0 1
-30.918657 22.226612 -32.071143 49.784976 -0.623281 2.270764 0.074730 -0.022054 -15945.000000 0 0 1
-29.583587 22.652512 -31.396283 48.724239 -0.653481 2.270991 0.073825 -0.030459 89943.200000 0 0 1
-29.561837 23.996412 -30.907413 49.040780 -0.681856 2.252657 0.074465 -0.029885 49565.900000 0 0 1
-28.519057 24.137412 -29.964443 47.893831 -0.702378 2.246752 0.079907 -0.024638 18397.600000 0 0 1
-28.543397 25.490912 -29.194153 48.133259 -0.728967 2.222482 0.074520 -0.018700 -54900.500000 0 0 1
-28.376087 26.769212 -29.854833 49.123355 -0.756267 2.224023 0.057805 -0.016855 825928.000000 0 0 1
-29.400967 27.134912 -30.824873 50.506367 -0.745338 2.227256 0.083718 -0.015580 480334.000000 0 0 1
-29.177557 28.623612 -31.267333 51.461510 -0.775815 2.223815 0.070576 -0.017647 -146523.000000 0 0 1
-29.550937 29.664012 -30.357223 51.718202 -0.787308 2.198112 0.063271 -0.017334 86328.500000 0 0 1
-29.376867 30.981812 -30.831723 52.663726 -0.811982 2.196225 0.055011 -0.023720 -130440.000000 0 0 1
-29.839697 32.072912 -29.862643 53.017512 -0.821453 2.169122 0.059931 -0.013076 185528.000000 0 0 1
-29.135117 32.101712 -28.614263 51.943729 -0.833805 2.154203 0.043297 -0.006869 85196.900000 0 0 1
-29.564157 33.198512 -27.863823 52.464971 -0.843240 2.130687 0.028506 0.002868 -169255.000000 0 0 1
-28.579747 33.465412 -26.677563 51.462880 -0.863980 2.115757 0.021271 0.006009 -571193.000000 0 0 1
-27.360897 -33.860940 -26.936443 51.193299 0.891174 2.124888 0.016086 -0.005090 -892794.000000 0 0 1
-27.307387 -32.443340 -27.188333 50.373298 0.871144 2.140921 0.033540 0.000579 -446878.000000 0 0 1
-27.848077 -31.454440 -26.134893 49.476558 0.846136 2.127308 0.037039 -0.001928 -529440.000000 0 0 1
-29.222827 -31.240440 -26.087333 50.104767 0.818755 2.118415 0.018088 -0.003513 -690332.000000 0 0 1
-29.663967 -30.435040 -24.994023 49.304602 0.798228 2.102417 0.025817 -0.004204 -544902.000000 0 0 1
-31.175787 -30.286440 -25.017423 50.150469 0.770929 2.093065 0.022736 -0.006102 -644866.000000 0 0 1
-31.506387 -29.275840 -25.976583 50.244503 0.748717 2.114143 0.012406 -0.002427 -331340.000000 0 0 1
-32.892007 -29.323840 -26.125153 51.227876 0.728110 2.105957 0.014585 -0.005519 -662584.000000 0 0 1
-33.564057 -28.261140 -27.043653 51.542188 0.699835 2.123147 0.029662 -0.011819 -1071480.000000 0 0 1
-34.930228 -28.367740 -27.145223 52.551999 0.682091 2.113602 0.037984 -0.020369 -1132580.000000 0 0 1
-35.451226 -27.516540 -28.144143 52.972089 0.660047 2.130932 0.046236 -0.023996 -370706.000000 0 0 1
-36.938597 -27.815540 -28.316683 54.221755 0.645432 2.120270 0.048719 -0.029618 -766156.000000 0 0 1
36.763911 -27.339640 -27.324303 53.344715 -0.639427 2.108566 0.053762 -0.026447 -1280440.000000 0 0 1
35.467241 -27.730140 -27.570053 52.791985 -0.663577 2.120271 0.062422 -0.035645 -827786.000000 0 0 1
34.340491 -27.167340 -26.679053 51.274804 -0.669301 2.118016 0.073671 -0.027250 -9263.490000 0 0 1
34.232331 -27.656640 -25.376443 50.800650 -0.679546 2.093852 0.069607 -0.024959 169834.000000 0 0 1
33.068301 -27.181440 -24.737423 49.439693 -0.688000 2.094806 0.075315 -0.020334 -35913.600000 0 0 1
32.933531 -27.772340 -23.352423 49.002612 -0.700583 2.067528 0.065066 -0.014413 -230408.000000 0 0 1
32.465541 -29.090140 -23.444923 49.496586 -0.730618 2.064247 0.075557 -0.025809 97253.200000 0 0 1
32.023091 -29.783740 -22.246723 49.065937 -0.749183 2.041378 0.077911 -0.028872 -677112.000000 0 0 1
32.950041 -29.879240 -21.072823 49.219285 -0.736562 2.013232 0.068773 -0.019585 -1444090.000000 0 0 1
34.076071 -30.688240 -21.298923 50.562741 -0.733136 2.005606 0.055246 -0.018538 805380.000000 0 0 1
35.189341 -30.470240 -20.393723 50.819575 -0.713649 1.983728 0.045420 -0.012207 1517780.000000 0 0 1
36.020151 -29.139240 -20.691223 50.741238 -0.680187 1.990817 0.039931 -0.011872 288892.000000 0 0 1
35.239171 -27.947540 -20.381123 49.378683 -0.670508 1.996269 0.043381 -0.002906 489526.000000 0 0 1
35.770421 -26.845240 -21.096223 49.449373 -0.643813 2.011552 0.020573 0.000665 -155417.000000 0 0 1
35.034941 -25.546140 -20.760923 48.073571 -0.630031 2.017347 0.034218 0.011637 -143053.000000 0 0 1
33.745821 -25.493340 -21.309923 47.358248 -0.646981 2.037531 0.050028 -0.000109 249946.000000 0 0 1
32.788431 -24.991340 -20.353923 45.977499 -0.651263 2.029396 0.049176 -0.005987 1064400.000000 0 0 1
31.331931 -24.794440 -20.928423 45.104911 -0.669443 2.053295 0.069253 -0.012979 692640.000000 0 0 1
30.802111 -26.068240 -21.275923 45.617848 -0.702350 2.056007 0.092213 -0.022065 -147481.000000 0 0 1
29.641831 -25.818540 -22.049223 45.071092 -0.716570 2.081980 0.091709 -0.026809 -6500.210000 0 0 1
29.043401 -27.164940 -22.551723 45.716882 -0.751991 2.086665 0.085610 -0.027055 -65771.600000 0 0 1
28.468801 -27.964040 -21.528423 45.342399 -0.776454 2.065529 0.081247 -0.029038 -90553.600000 0 0 1
28.002901 -29.192340 -22.006423 46.050383 -0.806191 2.069033 0.073793 -0.032647 94581.400000 0 0 1
27.134901 -30.013940 -20.955623 45.566189 -0.835734 2.048672 0.075446 -0.020527 450186.000000 0 0 1
27.791701 -30.533840 -19.755623 45.770937 -0.832378 2.017084 0.088004 -0.021346 335088.000000 0 0 1
28.674201 -31.612940 -20.058523 47.158585 -0.834105 2.010136 0.086570 -0.016166 131369.000000 0 0 1
29.554531 -32.103540 -18.885623 47.547601 -0.826716 1.979254 0.061142 -0.012387 -117888.000000 0 0 1
28.949101 -32.753840 -17.750923 47.180078 -0.846982 1.956529 0.067528 -0.013103 -9423.890000 0 0 1
28.465301 -31.926940 -16.711523 45.922520 -0.842655 1.943255 0.049160 -0.014585 -9747.050000 0 0 1
27.866501 -32.783940 -15.552323 45.751539 -0.866300 1.917639 0.052925 -0.011942 -946556.000000 0 0 1
26.529501 -33.106740 -15.729723 45.247042 -0.895244 1.925850 0.059597 -0.009236 -675086.000000 0 0 1
26.121401 33.942812 -14.706723 45.284983 0.914887 1.901554 0.066971 -0.006027 404772.000000 0 0 1
24.571301 33.841612 -14.528323 44.272742 0.942789 1.905146 0.077205 -0.015636 604892.000000 0 0 1
23.981101 -32.900040 -13.998623 43.051914 -0.940931 1.901974 0.079274 -0.009612 239255.000000 0 0 1
22.580301 -33.106740 -13.914723 42.421053 -0.972222 1.904997 0.084481 -0.020414 158291.000000 0 0 1
-0.631917 -7.141088 -28.860123 29.737201 1.482536 2.898116 0.079739 -0.006345 228821.000000 0 0 1
-0.298817 -8.506488 -28.729873 29.964232 1.535683 2.853563 0.075890 -0.000447 11781.400000 0 0 1
-0.762117 -9.196288 -29.886273 31.278456 1.488113 2.842115 0.073451 -0.013987 55787.700000 0 0 1
-0.506617 -10.704288 -29.831163 31.697582 1.523503 2.796718 0.086033 -0.005155 -325104.000000 0 0 1
0.846583 -11.010388 -29.678703 31.666556 -1.494058 2.785383 0.075429 -0.008931 -536192.000000 0 0 1
1.055083 -12.372688 -29.280633 31.804906 -1.485727 2.740494 0.092377 -0.012635 117761.000000 0 0 1
2.476383 -12.522988 -28.708453 31.418672 -1.375568 2.723189 0.078025 -0.010682 34858.700000 0 0 1
3.550483 -12.370288 -29.639823 32.313295 -1.291293 2.731952 0.085849 -0.019838 1124830.000000 0 0 1
4.909383 -12.360488 -29.189403 32.076548 -1.192720 2.714061 0.068445 -0.027709 1098220.000000 0 0 1
5.452683 -13.724688 -28.730093 32.303515 -1.192628 2.666783 0.066016 -0.035380 -1075980.000000 0 0 1
4.837683 -14.304088 -27.598803 31.459562 -1.244670 2.640959 0.061024 -0.025139 -73873.200000 0 0 1
5.649883 -15.259688 -26.931173 31.465335 -1.216197 2.598085 0.060813 -0.028803 -152806.000000 0 0 1
5.460283 -16.783988 -27.279733 32.491549 -1.256269 2.567333 0.028477 -0.022807 -419889.000000 0 0 1
5.675483 -17.047188 -28.683453 33.846096 -1.249411 2.581992 0.046614 -0.036127 221703.000000 0 0 1
5.303183 -18.395988 -28.988373 34.739918 -1.290127 2.557912 0.027445 -0.026314 -514622.000000 0 0 1
5.513783 -18.888388 -30.472943 36.273589 -1.286774 2.568238 0.059144 -0.043494 832200.000000 0 0 1
6.894583 -18.990488 -30.872503 36.895601 -1.222539 2.562123 0.053410 -0.040604 702087.000000 0 0 1
7.083983 -19.683088 -32.122453 38.333520 -1.225327 2.564354 0.064088 -0.041606 69107.400000 0 0 1
8.544683 -19.777988 -32.631533 39.102396 -1.162986 2.558048 0.084093 -0.044027 7977.590000 0 0 1
9.107283 -18.517588 -32.695713 38.663333 -1.113716 2.578581 0.086775 -0.048585 -86291.100000 0 0 1
10.266883 -18.559088 -33.522113 39.668384 -1.065500 2.577471 0.081582 -0.047062 76196.900000 0 0 1
10.773883 -17.138688 -33.903133 39.487132 -1.009591 2.603303 0.082896 -0.039861 -427372.000000 0 0 1
9.834983 -16.562688 33.079335 38.279132 -1.034945 0.527316 0.095215 -0.044451 94124.300000 0 0 1
10.210683 -15.239988 32.826292 37.604265 -0.980495 0.509598 0.092625 -0.040228 268452.000000 0 0 1
9.260083 -14.704788 31.723104 36.170917 -1.008801 0.501144 0.125011 -0.049213 340393.000000 0 0 1
9.399283 -15.408288 30.467414 35.412218 -1.023046 0.534812 0.127762 -0.051060 463851.000000 0 0 1
8.329883 -14.961088 29.619644 34.213220 -1.062770 0.524176 0.126241 -0.038824 481449.000000 0 0 1
8.218583 -15.777088 28.315484 33.439920 -1.090554 0.560937 0.107046 -0.022532 -227301.000000 0 0 1
7.787183 -17.118288 28.502794 34.147991 -1.143871 0.583237 0.111570 -0.030862 369753.000000 0 0 1
7.993083 -17.933588 27.341234 33.660749 -1.151520 0.622782 0.094701 -0.025537 -21696.400000 0 0 1
7.558983 -19.392588 27.563334 34.539080 -1.199125 0.646772 0.094763 -0.033803 509054.000000 0 0 1
8.517083 -20.089988 28.395084 35.811019 -1.169818 0.655219 0.106830 -0.035074 653717.000000 0 0 1
7.862383 -21.051188 29.148974 36.805329 -1.213351 0.656756 0.089423 -0.032448 20852.500000 0 0 1
8.455883 -21.109888 30.616184 38.137646 -1.189803 0.638851 0.097220 -0.038318 28144.300000 0 0 1
7.831383 -20.217788 31.558054 38.288383 -1.201241 0.601973 0.130904 -0.052924 325280.000000 0 0 1
7.851283 -18.800188 31.259014 37.312406 -1.175196 0.577620 0.108728 -0.048419 -120895.000000 0 0 1
7.074683 -18.025788 32.357452 37.709215 -1.196793 0.539281 0.110855 -0.044949 263158.000000 0 0 1
5.761583 -18.500788 32.636188 37.955181 -1.268892 0.535799 0.135653 -0.052585 358033.000000 0 0 1
5.012583 -17.502088 33.332776 37.980561 -1.291864 0.499907 0.134317 -0.041076 116980.000000 0 0 1
3.536783 -17.753288 33.654105 38.213700 -1.374152 0.493497 0.139913 -0.046850 -141094.000000 0 0 1
3.386483 -18.677288 -33.089833 38.147692 -1.391429 2.620777 0.122856 -0.047810 -322399.000000 0 0 1
2.047483 -19.034788 -32.872623 38.041092 -1.463643 2.614225 0.105696 -0.049751 -276770.000000 0 0 1
1.853583 -20.050388 -31.692913 37.548563 -1.478612 2.575590 0.044797 -0.022776 60033.800000 0 0 1
0.728983 -20.937088 -31.868193 38.137577 -1.535993 2.560041 0.067261 -0.033496 585542.000000 0 0 1
0.269683 -21.602688 -30.707783 37.546195 -1.558313 2.528490 0.062086 -0.030751 282727.000000 0 0 1
-0.532817 -20.633988 -29.762043 36.219119 1.544980 2.535222 0.064710 -0.028879 536576.000000 0 0 1
-1.886317 -20.398288 -30.212443 36.502603 1.478584 2.545756 0.090326 -0.041865 1044510.000000 0 0 1
-2.632117 -19.276788 -29.674033 35.483388 1.435092 2.561259 0.116949 -0.032036 442154.000000 0 0 1
-2.018917 -17.885088 -29.936613 34.930691 1.458389 2.600272 0.091051 -0.016276 -183906.000000 0 0 1
-2.782217 -16.872988 -29.344743 33.963987 1.407375 2.613949 0.098900 -0.018620 -81584.800000 0 0 1
-2.239017 -15.576988 -29.650263 33.567750 1.428035 2.653643 0.098541 -0.008745 748951.000000 0 0 1
-3.286717 -14.425888 -29.414263 32.925790 1.346785 2.675543 0.096076 0.006785 563044.000000 0 0 1
-3.430117 -14.224088 -28.031053 31.620093 1.334166 2.660511 0.087690 -0.006099 -93358.200000 0 0 1
-4.438217 -13.332088 -27.622603 30.991136 1.249438 2.671015 0.077941 -0.002756 -324727.000000 0 0 1
-4.360617 -12.904388 -26.140943 29.476891 1.244926 2.661232 0.070046 -0.006291 -254400.000000 0 0 1
-4.671217 -14.011788 -25.236053 29.240534 1.249006 2.612074 0.073829 -0.006355 191243.000000 0 0 1
-4.710717 -13.627788 -23.821523 27.845510 1.237984 2.597290 0.064223 -0.008354 -532836.000000 0 0 1
-5.775217 -12.682288 -23.284023 27.135572 1.143480 2.602282 0.064321 -0.008733 -943715.000000 0 0 1
-7.063717 -13.148088 -23.489423 27.830223 1.077800 2.575542 0.069398 -0.014805 -749731.000000 0 0 1
-8.053217 -12.139788 -23.453423 27.609632 0.985077 2.585767 0.052139 -0.015080 -3755.910000 0 0 1
-9.482817 -12.605788 -23.743223 28.505619 0.925851 2.555180 0.086919 -0.025586 -401898.000000 0 0 1
-10.063817 -13.345988 -22.727423 28.212259 0.924695 2.507462 0.084194 -0.030036 -539856.000000 0 0 1
-11.176017 -14.023788 -23.249523 29.361715 0.897928 2.484598 0.076256 -0.026655 -367687.000000 0 0 1
-11.766617 -14.972688 -22.201823 29.249882 0.904730 2.432633 0.079542 -0.032467 -348534.000000 0 0 1
-11.000117 -16.135688 -22.031723 29.440785 0.972440 2.416353 0.081380 -0.032500 -378244.000000 0 0 1
-11.698817 -17.288788 -21.567823 30.015588 0.975900 2.372517 0.087241 -0.023309 106077.000000 0 0 1
-12.529817 -17.993688 -22.656623 31.529220 0.962528 2.372571 0.080898 -0.020798 708981.000000 0 0 1
-13.706417 -17.259088 -23.055623 31.895199 0.899629 2.378722 0.068011 -0.021985 337028.000000 0 0 1
-14.195917 -17.960788 -24.216323 33.324829 0.901946 2.384266 0.052893 -0.024071 -357123.000000 0 0 1
-15.438317 -17.260088 -24.795323 33.927280 0.841055 2.390344 0.065609 -0.028795 -314051.000000 0 0 1
-16.584417 -17.832088 -24.163423 34.305936 0.821634 2.352305 0.071731 -0.027309 478430.000000 0 0 1
-17.801317 -17.400388 -24.778323 35.123008 0.774009 2.353886 0.065605 -0.032281 812684.000000 0 0 1
-18.467917 -15.997588 -24.435423 34.555414 0.713845 2.356238 0.070903 -0.029206 291891.000000 0 0 1
-19.552117 -16.021888 -23.498623 34.513352 0.686486 2.319727 0.055790 -0.025173 621099.000000 0 0 1
-20.069417 -14.694088 -23.321323 34.096654 0.631987 2.323997 0.062973 -0.033150 333758.000000 0 0 1
-20.725717 -14.374688 -21.931223 33.424026 0.606396 2.286504 0.053101 -0.035939 -77173.900000 0 0 1
-19.759817 -14.340588 -20.909523 32.145155 0.627796 2.279002 0.056023 -0.025147 249013.000000 0 0 1
-20.330717 -14.653488 -19.666123 31.856226 0.624521 2.236153 0.053249 -0.027166 -182004.000000 0 0 1
-20.841317 -13.449788 -18.838323 31.147066 0.573094 2.220334 0.065886 -0.032206 -330331.000000 0 0 1
-21.901917 -12.745488 -19.403123 31.915868 0.527030 2.224267 0.064867 -0.039941 -78298.000000 0 0 1
-22.532817 -11.756988 -18.605523 31.497938 0.480913 2.202710 0.068024 -0.035836 -681197.000000 0 0 1
-23.959217 -11.500488 -19.025123 32.684256 0.447522 2.192091 0.089169 -0.040074 -1003290.000000 0 0 1
-24.262917 -10.687688 -20.112323 33.277941 0.414921 2.219776 0.065267 -0.041521 -161467.000000 0 0 1
-25.642517 -10.929788 -20.277723 34.470059 0.402918 2.199715 0.092960 -0.039728 -327027.000000 0 0 1
-26.427567 -9.985488 -21.181323 35.309697 0.361261 2.214138 0.095548 -0.035754 -246139.000000 0 0 1
-26.214257 -10.210188 -22.578723 36.072620 0.371413 2.247112 0.071864 -0.039002 578525.000000 0 0 1
-27.110317 -9.349088 -23.278223 36.935760 0.332083 2.252653 0.066396 -0.032958 -236399.000000 0 0 1
-27.205707 -9.725488 -24.777123 38.061022 0.343323 2.279677 0.062976 -0.026100 645083.000000 0 0 1
-26.043647 -9.692588 -25.626143 37.801019 0.356285 2.315729 0.045567 -0.030723 1107010.000000 0 0 1
-25.065137 -10.751088 -25.497133 37.335650 0.405191 2.322544 0.047096 -0.022494 289090.000000 0 0 1
-24.051317 -10.758488 -26.634683 37.464880 0.420618 2.361608 0.055011 -0.025575 -197884.000000 0 0 1
-24.626517 -11.166488 -27.864183 38.827419 0.425706 2.371207 0.058938 -0.013841 374557.000000 0 0 1
-23.737317 -10.919488 -28.957953 39.003313 0.431150 2.407514 0.059633 -0.013219 426156.000000 0 0 1
-24.367317 -11.245888 -30.323523 40.493853 0.432389 2.417110 0.063459 -0.012412 555692.000000 0 0 1
-25.250737 -10.294888 -30.976953 41.269311 0.387132 2.419774 0.068230 -0.011041 762872.000000 0 0 1
-24.575117 -9.185188 -31.544823 41.029013 0.357683 2.447824 0.066024 -0.023250 11906.500000 0 0 1
-25.660947 -8.234088 -32.120983 41.929011 0.310501 2.443517 0.064314 -0.018830 -668238.000000 0 0 1
-26.355877 -8.762288 -33.229173 43.308058 0.320965 2.445377 0.081085 -0.022682 1634450.000000 0 0 1
-27.650777 -9.338888 -32.890463 43.972296 0.325715 2.415812 0.084598 -0.021890 1107330.000000 0 0 1
-28.758917 -8.457388 -32.242193 44.024558 0.286016 2.392590 0.063002 -0.005587 25845.800000 0 0 1
-30.053467 -9.078388 -32.291183 45.037190 0.293359 2.370270 0.086013 -0.006143 995671.000000 0 0 1
-31.041457 -8.416888 -31.537223 45.044561 0.264783 2.346381 0.083299 0.000060 446403.000000 0 0 1
-32.484037 -8.966588 -31.432993 46.083027 0.269324 2.321420 0.089649 -0.002091 283594.000000 0 0 1
-32.628347 -10.279288 -30.914013 46.108014 0.305199 2.305638 0.087706 -0.007051 -787556.000000 0 0 1
-33.936007 -10.711088 -31.038093 47.220156 0.305730 2.288035 0.080593 -0.009385 -803633.000000 0 0 1
-34.151631 -12.247788 -30.864723 47.633741 0.344342 2.275698 0.087563 -0.019631 -1028050.000000 0 0 1
-35.490059 -12.582788 -30.810273 48.653301 0.340717 2.256557 0.067980 -0.021518 -970929.000000 0 0 1
-35.649788 -13.973388 -30.746363 49.107044 0.373559 2.247349 0.064504 -0.023977 -239765.000000 0 0 1
-37.053337 -14.409788 -30.332003 50.006221 0.370895 2.222529 0.062578 -0.032336 -252535.000000 0 0 1
-37.263067 -14.452688 -28.958013 49.355677 0.369993 2.197800 0.069695 -0.035061 17994.600000 0 0 1
37.090241 -15.755488 -28.536543 49.378696 -0.401691 2.186964 0.059284 -0.038833 -140207.000000 0 0 1
-37.222107 -15.778588 -26.975893 48.601933 0.400942 2.159204 0.087666 -0.042771 -321834.000000 0 0 1
-35.864426 -15.683588 -26.652003 47.355688 0.412244 2.168571 0.080947 -0.044616 -403152.000000 0 0 1
-35.731213 -15.592588 -25.254573 46.450423 0.411475 2.145622 0.113601 -0.047779 -62984.900000 0 0 1
-34.332970 -15.219188 -24.715923 44.958351 0.417253 2.152863 0.122498 -0.043911 17656.900000 0 0 1
-33.386567 -16.225988 -25.020423 44.765691 0.452388 2.163879 0.121338 -0.042423 265602.000000 0 0 1
-32.108227 -15.852588 -24.498823 43.387038 0.458614 2.170815 0.128615 -0.027959 1239270.000000 0 0 1
-30.956717 -16.913988 -24.730523 43.081319 0.500056 2.182231 0.108875 -0.025088 709802.000000 0 0 1
-30.905637 -17.939288 -23.756123 42.910719 0.525923 2.157498 0.114220 -0.031470 303432.000000 0 0 1
-31.746277 -19.032988 -24.131923 44.186315 0.540077 2.148546 0.111722 -0.030141 183124.000000 0 0 1
-31.409537 -20.304088 -23.331823 44.081617 0.573862 2.128556 0.106584 -0.029870 2506.980000 0 0 1
-30.139647 -20.854888 -23.591923 43.587882 0.605297 2.142719 0.106550 -0.020015 -71720.200000 0 0 1
-29.968097 -22.099888 -22.963423 43.747122 0.635419 2.123409 0.100040 -0.024459 -65893.100000 0 0 1
-28.561707 -22.808288 -23.147223 43.264108 0.673863 2.135329 0.091008 -0.019880 1791370.000000 0 0 1
-27.429337 -22.024888 -22.681523 41.855892 0.676548 2.143487 0.088920 -0.017456 732000.000000 0 0 1
-27.436567 -21.636688 -21.288023 40.915662 0.667756 2.117987 0.097810 -0.030917 -882318.000000 0 0 1
-27.178877 -22.774988 -20.233123 40.826103 0.697466 2.089314 0.087935 -0.023023 -115483.000000 0 0 1
-27.188447 -22.340488 -18.845223 39.918060 0.687828 2.062465 0.092216 -0.024180 77080.500000 0 0 1
-27.240337 -23.452188 -17.982823 40.192325 0.710809 2.034674 0.075040 0.002074 -69924.900000 0 0 1
-27.482977 -23.028688 -16.526523 39.481141 0.697442 2.002692 0.076288 -0.002986 -87612.500000 0 0 1
-28.750247 -22.471588 -16.286823 39.960100 0.663429 1.990596 0.091766 -0.014634 -72187.500000 0 0 1
-28.599177 -21.504688 -15.249223 38.896058 0.644738 1.973656 0.092693 -0.012679 937298.000000 0 0 1
-29.990677 -20.934888 -14.771223 39.444889 0.609414 1.954630 0.095031 -0.008668 733880.000000 0 0 1
-30.682017 -20.144488 -15.701823 39.921596 0.580971 1.975032 0.099323 -0.009616 7576.160000 0 0 1
-31.958777 -19.826988 -15.197723 40.564069 0.555279 1.954826 0.102674 -0.010297 -52681.300000 0 0 1
-32.967167 -19.118988 -16.111923 41.375885 0.525539 1.970780 0.096484 -0.024353 -201175.000000 0 0 1
-33.569287 -19.980988 -17.069623 42.632252 0.536895 1.982741 0.071199 -0.014680 80811.200000 0 0 1
-34.343987 -19.136888 -17.930523 43.211498 0.508364 1.998682 0.062591 -0.014140 621731.000000 0 0 1
-35.500460 -19.906388 -18.727423 44.802492 0.511048 2.002039 0.051735 -0.006689 1796350.000000 0 0 1
-36.686647 -20.334888 -18.019223 45.652055 0.506128 1.976546 0.039956 -0.001297 909670.000000 0 0 1
-36.506077 -21.342888 -16.994923 45.574553 0.529048 1.952933 0.054639 -0.002446 -328644.000000 0 0 1
37.192461 -22.638488 -17.247923 46.832373 -0.546781 1.947966 0.034377 0.020294 -747063.000000 0 0 1
35.840311 -22.557288 -16.999223 45.632584 -0.561745 1.952523 0.028361 0.006147 -846577.000000 0 0 1
35.209651 -23.819688 -17.057623 45.804580 -0.594786 1.952390 0.022539 0.002250 -607153.000000 0 0 1
33.819091 -23.928988 -16.480023 44.586080 -0.615781 1.949399 0.017534 -0.001142 -2406.540000 0 0 1
32.752791 -23.488888 -17.346823 43.879214 -0.622148 1.977225 0.017842 -0.008676 1608480.000000 0 0 1
31.462231 -23.863488 -16.819523 42.921258 -0.648907 1.973459 0.034773 -0.012037 524126.000000 0 0 1
30.201291 -23.710088 -17.627523 42.249447 -0.665570 2.001186 0.059690 -0.013131 -573207.000000 0 0 1
29.984111 -22.311588 -17.901123 41.440368 -0.639723 2.017476 0.052786 -0.009579 532378.000000 0 0 1
28.694301 -22.112088 -18.471423 40.663261 -0.656561 2.042330 0.073507 -0.028826 324334.000000 0 0 1
34.905831 30.133312 -18.498523 49.685298 0.712150 1.952297 0.075863 -0.012611 334427.000000 0 0 1
33.798321 29.962312 -19.369823 49.145260 0.725308 1.975922 0.063645 -0.018878 80837.500000 0 0 1
34.240711 29.466812 -20.614923 49.655758 0.710603 1.998911 0.072264 -0.001860 96696.700000 0 0 1
33.172741 29.615812 -21.755823 49.505988 0.728809 2.025792 0.084756 -0.001889 -744105.000000 0 0 1
32.176101 28.589212 -21.649923 48.180532 0.726438 2.036834 0.071626 -0.002585 46301.400000 0 0 1
31.262911 28.672412 -22.703423 48.113638 0.742203 2.062208 0.096464 0.003172 -13435.900000 0 0 1
30.221191 29.809812 -22.616223 48.098220 0.778545 2.060324 0.073651 -0.002919 -879524.000000 0 0 1
30.761911 31.091512 -22.797323 49.322360 0.790727 2.051283 0.101769 -0.022955 -83553.000000 0 0 1
29.665371 31.960612 -22.650923 49.138368 0.822626 2.049875 0.093931 -0.017836 -158923.000000 0 0 1
30.118981 33.418612 -22.435723 50.272440 0.837284 2.033403 0.096621 -0.021739 210899.000000 0 0 1
30.718701 33.545512 -21.149723 50.162244 0.829357 2.006034 0.081295 -0.025196 1111220.000000 0 0 1
32.162201 33.567112 -21.207523 51.097135 0.806769 1.998787 0.074202 -0.025947 969011.000000 0 0 1
32.881531 33.485412 -19.818223 50.943398 0.794497 1.970369 0.069032 -0.024489 -164748.000000 0 0 1
32.733561 -33.299240 -19.030823 50.423185 -0.793965 1.957807 0.055124 -0.015899 168416.000000 0 0 1
33.194851 -33.527040 -17.716423 50.396748 -0.790377 1.930011 0.040556 -0.021356 -378415.000000 0 0 1
32.996991 -32.285040 -16.801023 49.126363 -0.774493 1.919837 0.042687 -0.007845 429076.000000 0 0 1
34.064501 -31.333340 -16.962023 49.293799 -0.743660 1.922077 0.060821 -0.008385 368939.000000 0 0 1
35.108181 -31.629440 -16.072223 49.913146 -0.733320 1.898642 0.056376 -0.010492 514371.000000 0 0 1
36.512101 -30.956640 -16.335623 50.579637 -0.703242 1.899661 0.060734 -0.006886 767807.000000 0 0 1
37.238541 -31.463540 -17.409423 51.766314 -0.701537 1.913790 0.055875 -0.010020 -185230.000000 0 0 1
-36.153387 -30.650440 -17.666023 50.582657 0.703209 1.927568 0.045577 -0.002448 114233.000000 0 0 1
-35.016426 -31.310840 -18.441123 50.463787 0.729588 1.944894 0.060544 -0.012759 -1301420.000000 0 0 1
-34.472828 -32.392140 -17.769823 50.531111 0.754290 1.930141 0.058842 -0.020902 471895.000000 0 0 1
-33.493507 -33.105640 -18.537323 50.610579 0.779574 1.945798 0.077157 -0.020259 718467.000000 0 0 1
-32.102777 -32.468840 -18.800123 49.378725 0.791067 1.961385 0.066659 -0.022380 -907244.000000 0 0 1
-32.205197 -31.410640 -19.788723 49.146684 0.772909 1.985202 0.062944 -0.013104 821788.000000 0 0 1
-30.950127 -30.948740 -20.344423 48.266245 0.785376 2.005900 0.078852 -0.017163 1189410.000000 0 0 1
-30.001067 -31.985240 -21.083223 48.658215 0.817397 2.018939 0.074746 -0.015224 -22330.500000 0 0 1
-30.589307 -32.652640 -22.170523 49.934284 0.818013 2.030848 0.070379 -0.010130 -8694.630000 0 0 1
-29.719987 -33.603740 -22.787723 50.316690 0.846653 2.040796 0.062075 -0.016691 213855.000000 0 0 1
-30.443687 33.492112 -23.867623 51.168379 -0.833042 2.056072 0.054264 -0.019130 -50779.800000 0 0 1
-31.557997 32.741712 -23.362723 51.124785 -0.803805 2.045387 0.064729 -0.033884 493164.000000 0 0 1
-32.126477 31.861712 -24.316923 51.367226 -0.781260 2.063936 0.069264 -0.026223 215152.000000 0 0 1
-33.051617 32.424312 -25.422183 52.820760 -0.775818 2.072924 0.066463 -0.034370 -247988.000000 0 0 1
-32.413537 33.201112 -26.461373 53.414936 -0.797401 2.089083 0.049833 -0.022610 -505197.000000 0 0 1
-33.324537 -33.810940 -26.965763 54.597223 0.792643 2.087370 0.046601 -0.021556 -453744.000000 0 0 1
-32.746327 -33.016140 -28.161893 54.364323 0.789501 2.115333 0.030275 -0.015982 -139962.000000 0 0 1
-32.713677 -33.685240 -29.416073 55.409254 0.800029 2.130444 0.036314 -0.012629 184996.000000 0 0 1
-33.828187 -33.440540 -30.257453 56.374900 0.779636 2.137339 0.052303 -0.012619 -18247.600000 0 0 1
-33.833937 33.566512 -31.467583 57.110899 -0.781430 2.154347 0.074149 -0.013430 69825.300000 0 0 1
-32.972087 -33.949740 -32.508963 57.415817 0.800006 2.172687 0.084368 -0.021939 -53358.100000 0 0 1
-33.111037 33.106012 -33.619273 57.642036 -0.785322 2.193511 0.078312 -0.028503 -172567.000000 0 0 1
-32.234867 33.602012 32.984785 57.062929 -0.806161 0.954469 0.093972 -0.029291 1278360.000000 0 0 1
-30.856487 33.221112 33.053775 56.109866 -0.822284 0.940864 0.088552 -0.025604 502306.000000 0 0 1
-30.586337 31.852312 32.783357 54.998566 -0.805671 0.932191 0.090304 -0.029919 -416861.000000 0 0 1
-29.074767 31.528212 32.720663 53.944527 -0.825860 0.919068 0.087030 -0.024638 105701.000000 0 0 1
-28.497887 31.357712 -33.823373 54.216752 -0.833141 2.244461 0.086094 -0.020523 1450820.000000 0 0 1
-27.055977 31.164212 -33.806683 53.349093 -0.855845 2.257108 0.073307 -0.019579 1386380.000000 0 0 1
-26.470207 29.810712 33.621806 52.151473 -0.844683 0.870172 0.077081 -0.024336 -499959.000000 0 0 1
-26.757037 28.779612 -33.301383 51.509098 -0.821801 2.273803 0.074854 -0.016515 98847.900000 0 0 1
-26.277777 27.542912 -33.778573 50.893276 -0.808900 2.296569 0.055930 -0.014617 -261300.000000 0 0 1
-26.181897 26.488012 -32.643003 49.524460 -0.791210 2.290456 0.059849 -0.024285 303340.000000 0 0 1
-25.056547 26.630612 -31.749453 48.425693 -0.815842 2.285816 0.058605 -0.016779 571376.000000 0 0 1
-25.190387 27.766112 -30.865463 48.561192 -0.833998 2.259581 0.050813 -0.009390 -581074.000000 0 0 1
-23.992117 27.889912 -29.940193 47.432942 -0.860385 2.253910 0.061632 -0.011786 386039.000000 0 0 1
-22.754017 28.065812 -30.685903 47.403161 -0.889542 2.274884 0.052800 -0.010509 1183890.000000 0 0 1
-21.585317 28.066712 -29.860503 46.317554 -0.915201 2.271415 0.055570 -0.011678 601383.000000 0 0 1
-21.330317 29.271312 -28.898643 46.334907 -0.941060 2.244252 0.038859 -0.000134 -607999.000000 0 0 1
-20.957217 30.464612 -29.608203 47.370277 -0.968224 2.245976 0.037851 0.004267 148561.000000 0 0 1
-20.883317 31.544012 -28.718743 47.496355 -0.986005 2.220125 0.044473 -0.003955 -179369.000000 0 0 1
-20.274817 32.780412 -29.400853 48.477146 -1.016882 2.222434 0.064836 -0.002163 306348.000000 0 0 1
-18.963517 32.568312 -29.913193 48.115580 -1.043516 2.241701 0.070252 -0.006818 129904.000000 0 0 1
-18.635017 33.588912 -30.891923 49.292897 -1.064278 2.248109 0.067660 -0.002496 160936.000000 0 0 1
-17.116117 33.809612 -31.094923 49.019848 -1.102161 2.257942 0.085334 -0.007398 -832426.000000 0 0 1
-16.525117 -33.455440 -29.966583 47.857518 1.112005 2.247418 0.109443 -0.025158 -954349.000000 0 0 1
-15.237517 -33.002040 -30.136453 47.217818 1.138244 2.263010 0.128338 -0.021306 -623676.000000 0 0 1
-14.118217 33.898912 -30.452573 47.705549 -1.176164 2.263142 0.139501 -0.026543 -1079620.000000 0 0 1
-13.930917 32.946812 -29.387523 46.294593 -1.170765 2.258538 0.153499 -0.032377 -240208.000000 0 0 1
-13.412517 31.716212 -29.843923 45.568338 -1.170713 2.284882 0.128135 -0.026999 -102917.000000 0 0 1
-13.153617 30.915712 -28.567123 44.100786 -1.168530 2.275449 0.098915 -0.031273 1034940.000000 0 0 1
-12.009617 31.336612 -27.776273 43.563006 -1.204816 2.262190 0.116469 -0.031463 767212.000000 0 0 1
-12.117517 30.611112 -26.565883 42.303906 -1.193870 2.249747 0.083778 -0.035944 -72965.200000 0 0 1
-11.041817 31.023512 -25.549783 41.679388 -1.228859 2.230658 0.114965 -0.042035 196831.000000 0 0 1
-9.759717 30.568012 -25.969093 41.280131 -1.261748 2.251184 0.119072 -0.033497 -159556.000000 0 0 1
-8.846717 30.927712 -24.929423 40.697222 -1.292191 2.230090 0.135141 -0.035153 900865.000000 0 0 1
-7.378717 30.460012 -25.239443 40.240368 -1.333132 2.248771 0.107142 -0.034226 739404.000000 0 0 1
-7.323217 29.063312 -25.146743 39.123705 -1.323960 2.268878 0.104883 -0.050049 -290475.000000 0 0 1
-6.035917 28.587012 -25.451453 38.748238 -1.362711 2.287419 0.097734 -0.059129 -94679.100000 0 0 1
-5.669317 27.316512 -24.655123 37.231815 -1.366160 2.294555 0.121988 -0.039804 -263628.000000 0 0 1
-6.376417 26.181312 -25.049913 36.791547 -1.331899 2.319733 0.132131 -0.034707 -200674.000000 0 0 1
-6.036517 25.047112 -24.244423 35.377809 -1.334300 2.325812 0.134598 -0.047322 -326169.000000 0 0 1
-6.823517 23.734212 -24.376023 34.699621 -1.290849 2.349682 0.115818 -0.036947 -146048.000000 0 0 1
-6.650917 22.964212 -25.580033 35.013252 -1.288889 2.389969 0.115100 -0.028836 -268074.000000 0 0 1
-7.503017 21.877612 -25.467823 34.402546 -1.240412 2.404296 0.095705 -0.033077 -550038.000000 0 0 1
-7.457817 20.861712 -26.617963 34.631575 -1.227466 2.447452 0.082523 -0.022802 731664.000000 0 0 1
-6.297017 20.049212 -26.918933 34.150436 -1.266474 2.478749 0.107365 -0.035283 453694.000000 0 0 1
-5.932817 19.102612 -25.875113 32.705191 -1.269665 2.483503 0.087142 -0.035845 -838660.000000 0 0 1
-4.705517 18.282712 -26.102183 32.213714 -1.318888 2.515429 0.095563 -0.049348 -662397.000000 0 0 1
-4.858917 17.449712 -27.226573 32.701495 -1.299223 2.554544 0.089446 -0.039201 20988.500000 0 0 1
-3.692017 16.647112 -27.288293 32.177760 -1.352548 2.583088 0.088893 -0.042955 22270.200000 0 0 1
-3.262817 16.193512 -28.670343 33.088734 -1.371969 2.618881 0.092713 -0.037501 -212006.000000 0 0 1
-2.569317 17.229812 -29.301813 34.089060 -1.422767 2.605217 0.102081 -0.039245 -89905.600000 0 0 1
-2.396717 17.069712 -30.732533 35.236457 -1.431301 2.630437 0.102611 -0.047950 299949.000000 0 0 1
-1.604117 18.294712 -31.364933 36.345958 -1.483338 2.611886 0.107529 -0.027493 101799.000000 0 0 1
-0.266017 18.323212 -30.892493 35.918755 -1.556279 2.606195 0.124601 -0.037984 -9906.500000 0 0 1
0.480983 19.351812 -31.526353 36.995066 1.545947 2.590929 0.129194 -0.016089 152347.000000 0 0 1
0.469583 20.759012 -30.898703 37.227502 1.548179 2.549898 0.123413 -0.019805 -88442.100000 0 0 1
1.219883 20.750812 -29.705173 36.255780 1.512077 2.531024 0.140283 -0.042057 -251047.000000 0 0 1
0.990083 21.943012 -29.025053 36.399584 1.525706 2.493772 0.143418 -0.047976 -39773.200000 0 0 1
2.076483 22.197812 -27.985893 35.780788 1.477523 2.468903 0.150563 -0.047899 -160655.000000 0 0 1
3.310583 22.612212 -28.498793 36.530169 1.425422 2.465692 0.113866 -0.044160 -404853.000000 0 0 1
4.329283 22.748112 -27.516683 35.963691 1.382731 2.442030 0.110962 -0.043269 300578.000000 0 0 1
4.841283 24.132212 -27.244023 36.715643 1.372810 2.406886 0.111251 -0.038693 -373701.000000 0 0 1
5.656283 24.608912 -28.285933 37.916831 1.344873 2.412831 0.088992 -0.037795 -58684.900000 0 0 1
6.144283 25.903812 -28.118223 38.722011 1.337904 2.383511 0.078274 -0.035296 -492279.000000 0 0 1
6.899383 26.398412 -29.354013 40.076623 1.315159 2.392706 0.084654 -0.033129 247209.000000 0 0 1
8.252283 25.946112 -29.314123 40.007733 1.262859 2.393094 0.076179 -0.034443 113336.000000 0 0 1
9.045483 26.576512 -30.290073 41.299155 1.242738 2.394152 0.087776 -0.035220 -689454.000000 0 0 1
10.514083 26.527712 -29.924433 41.348967 1.193446 2.379952 0.097489 -0.031900 -51382.600000 0 0 1
11.343283 27.495112 -30.639713 42.701794 1.179513 2.371042 0.131592 -0.040395 1632850.000000 0 0 1
12.693683 27.640112 -30.125713 42.809624 1.140278 2.351407 0.112520 -0.042312 1677240.000000 0 0 1
13.604383 28.663212 -30.887733 44.279916 1.127651 2.342778 0.120703 -0.041420 242932.000000 0 0 1
13.124083 29.991812 -30.736013 44.904931 1.158311 2.324671 0.115475 -0.035209 429153.000000 0 0 1
14.075983 30.847912 -31.339073 46.172118 1.142714 2.316848 0.134682 -0.036904 235691.000000 0 0 1
13.617383 32.343212 -31.507983 47.162161 1.172295 2.302419 0.135199 -0.041384 839233.000000 0 0 1
12.482683 32.468412 -32.396563 47.534750 1.203761 2.320654 0.114772 -0.041457 993038.000000 0 0 1
11.649283 33.572712 -32.067273 47.865883 1.236809 2.304924 0.103782 -0.031441 57202.600000 0 0 1
10.409583 33.778512 -32.946463 48.319941 1.271859 2.321071 0.087156 -0.029086 -72218.500000 0 0 1
10.670083 -33.414340 33.682947 48.630337 -1.261704 0.805664 0.084016 -0.020381 -490645.000000 0 0 1
9.511183 -33.319240 32.932780 47.803790 -1.292735 0.810804 0.088278 -0.025019 -704731.000000 0 0 1
9.637083 -32.532840 31.584904 46.355854 -1.282805 0.821181 0.093889 -0.017102 4265.820000 0 0 1
9.414983 -31.128940 31.650394 45.380615 -1.277092 0.798973 0.084832 -0.026325 24637.700000 0 0 1
9.801783 -30.529840 30.442554 44.214196 -1.260136 0.811344 0.111868 -0.021953 -563155.000000 0 0 1
9.521083 -29.032040 30.438564 43.127909 -1.253898 0.787281 0.096412 -0.039591 552777.000000 0 0 1
8.150883 -28.623840 30.343984 42.503158 -1.293380 0.775711 0.063545 -0.028308 585637.000000 0 0 1
7.527683 -28.735240 31.638014 43.397511 -1.314587 0.753895 0.054351 -0.017580 500919.000000 0 0 1
5.953683 -28.514540 31.563714 42.951058 -1.364959 0.745312 0.051886 -0.022044 1533830.000000 0 0 1
5.161183 -29.619440 31.096124 43.254109 -1.398279 0.768553 0.073600 -0.026964 256681.000000 0 0 1
5.379283 -30.077240 29.775734 42.663467 -1.393819 0.798306 0.084223 -0.030952 -754126.000000 0 0 1
4.923683 -29.138240 28.625844 41.142662 -1.403401 0.801304 0.062290 -0.033765 -485135.000000 0 0 1
3.525183 -29.171840 28.532014 40.957282 -1.450537 0.800109 0.090914 -0.040714 -90097.500000 0 0 1
3.046983 -28.499840 27.329694 39.603499 -1.464289 0.809193 0.108360 -0.047143 -528189.000000 0 0 1
1.554483 -28.711540 27.113544 39.521048 -1.516708 0.814746 0.113166 -0.047180 -529779.000000 0 0 1
1.119983 -29.962140 26.609684 40.088146 -1.533434 0.844936 0.126721 -0.052985 50204.400000 0 0 1
1.019583 -31.053140 27.486524 41.483081 -1.537975 0.846517 0.148205 -0.054261 -923274.000000 0 0 1
1.249483 -32.458340 26.815964 42.121265 -1.532320 0.880667 0.143949 -0.051284 -352601.000000 0 0 1
2.576883 -32.779340 26.512524 42.237890 -1.492345 0.892207 0.131261 -0.048832 -268595.000000 0 0 1
3.157583 -31.966840 25.501324 41.014226 -1.472339 0.899799 0.127603 -0.049972 -871008.000000 0 0 1
4.677083 -32.167340 25.507004 41.318520 -1.426410 0.905457 0.129724 -0.043568 -74852.000000 0 0 1
5.478583 -31.569040 24.509944 40.340507 -1.398965 0.917791 0.118980 -0.049619 214482.000000 0 0 1
6.827983 -31.400340 24.884864 40.643070 -1.356680 0.911858 0.091646 -0.043951 459096.000000 0 0 1
7.861383 -31.594940 23.716064 40.280185 -1.326931 0.941251 0.079611 -0.034647 188070.000000 0 0 1
9.167283 -31.138440 23.960454 40.345320 -1.284481 0.934918 0.072226 -0.006982 231458.000000 0 0 1
9.935083 -31.236040 22.748324 39.898400 -1.262850 0.964100 0.057671 -0.005877 394834.000000 0 0 1
11.009583 -30.131140 22.498024 39.182363 -1.220478 0.959185 0.037341 -0.011063 -213272.000000 0 0 1
12.144983 -30.387240 23.262044 40.149815 -1.190571 0.952827 0.044847 -0.002888 -570848.000000 0 0 1
13.131583 -29.392040 23.032344 39.583069 -1.150629 0.949766 0.041744 -0.007398 41755.900000 0 0 1
14.452683 -29.624040 23.770274 40.638525 -1.116900 0.946015 0.062457 -0.008666 -286565.000000 0 0 1
14.247783 -29.441240 25.188344 41.282425 -1.120079 0.914550 0.062130 -0.004755 330368.000000 0 0 1
15.427083 -29.277940 25.961774 42.061935 -1.085847 0.905583 0.072914 -0.010565 -40150.600000 0 0 1
-10.936417 -13.809688 25.347114 30.867278 0.900991 0.607348 0.068940 -0.039489 -43678.700000 0 0 1
-9.544117 -13.887288 25.121084 30.249228 0.968675 0.590845 0.060026 -0.034176 -460451.000000 0 0 1
-8.997017 -14.225588 26.363924 31.278909 1.006855 0.568210 0.056166 -0.031913 -228121.000000 0 0 1
-7.462017 -14.394388 26.291684 30.889039 1.092539 0.552595 0.076786 -0.034477 -165741.000000 0 0 1
-7.017417 -15.518988 25.571344 30.724205 1.146129 0.587576 0.080834 -0.034012 -15492.800000 0 0 1
-6.895717 -15.308088 24.155604 29.417370 1.147558 0.607401 0.088288 -0.036116 -462438.000000 0 0 1
-6.271417 -16.473888 23.349334 29.255957 1.207048 0.646652 0.088457 -0.029717 321532.000000 0 0 1
-7.084317 -17.638488 23.104224 29.918372 1.188877 0.688434 0.095300 -0.037278 79610.500000 0 0 1
-7.473417 -18.417088 24.235114 31.342971 1.185311 0.686888 0.096565 -0.038792 45333.500000 0 0 1
-8.201417 -19.818288 23.913384 32.122853 1.178424 0.731108 0.091457 -0.033346 943271.000000 0 0 1
-9.593717 -19.687988 23.631404 32.219552 1.117370 0.747414 0.080205 -0.032839 182107.000000 0 0 1
-10.238317 -20.902888 23.459284 33.046813 1.115339 0.781468 0.073819 -0.028502 -1371510.000000 0 0 1
-11.729217 -20.782688 23.502734 33.494375 1.056984 0.793027 0.070047 -0.027854 -1218020.000000 0 0 1
-12.277017 -20.672288 24.798594 34.540395 1.034883 0.769930 0.074203 -0.028918 -621416.000000 0 0 1
-13.642217 -20.399888 24.818304 34.902918 0.981360 0.779782 0.062079 -0.016412 -417703.000000 0 0 1
-14.177517 -20.208888 26.295324 36.067232 0.959032 0.753843 0.064285 -0.014786 -360220.000000 0 0 1
-14.092417 -21.308388 27.184434 37.304652 0.986480 0.754354 0.054635 -0.014629 17886.600000 0 0 1
-12.985717 -21.394988 28.060824 37.600322 1.025281 0.728322 0.060778 -0.014247 184214.000000 0 0 1
-12.628517 -22.803088 28.505664 38.626845 1.065035 0.740731 0.066617 -0.010186 427133.000000 0 0 1
-13.668517 -23.267588 29.398634 39.905998 1.039657 0.742623 0.057475 -0.009159 545973.000000 0 0 1
-13.488017 -24.596588 29.837624 40.953663 1.069206 0.754564 0.076330 -0.011248 141508.000000 0 0 1
-14.616617 -25.162128 30.747024 42.333883 1.044541 0.757875 0.071387 -0.021205 242543.000000 0 0 1
-14.466417 -24.691988 32.069627 42.981769 1.040828 0.728578 0.111762 -0.023559 -4511.830000 0 0 1
-15.482717 -25.155298 32.930853 44.237367 1.019068 0.731142 0.088369 -0.025418 43569.000000 0 0 1
-15.189417 -24.648888 -33.474163 44.258396 1.018527 2.428488 0.086908 -0.026873 202233.000000 0 0 1
-15.087217 -23.275888 -33.191403 43.255755 0.995694 2.445462 0.096103 -0.029692 484506.000000 0 0 1
-16.310517 -22.552188 -33.417603 43.489888 0.944646 2.447133 0.089622 -0.029825 532111.000000 0 0 1
-16.217017 -21.033488 -33.223763 42.534900 0.913984 2.467213 0.075551 -0.030807 -84742.200000 0 0 1
-16.235217 -20.714088 -31.863713 41.327375 0.906026 2.451218 0.076778 -0.029398 81839.600000 0 0 1
-16.263117 -19.318688 -31.708723 40.535710 0.871063 2.469052 0.069413 -0.030772 -320065.000000 0 0 1
-16.362217 -18.861988 -30.222593 39.203340 0.856247 2.451079 0.096640 -0.028829 -660298.000000 0 0 1
-17.539517 -19.202988 -29.572023 39.381391 0.830641 2.420241 0.094562 -0.028443 -632769.000000 0 0 1
-17.534217 -18.952388 -28.175693 38.216638 0.824247 2.399806 0.077157 -0.027800 340381.000000 0 0 1
-16.666417 -19.960988 -27.306413 37.707435 0.875105 2.380619 0.076861 -0.017698 423148.000000 0 0 1
-15.283217 -19.920088 -27.576053 37.293771 0.916361 2.403016 0.076070 -0.021277 -413875.000000 0 0 1
-14.632217 -20.941288 -26.876943 37.081119 0.960926 2.381562 0.063857 -0.019137 262654.000000 0 0 1
-13.126017 -21.058088 -27.246403 36.852434 1.013403 2.402883 0.104500 -0.026498 -374454.000000 0 0 1
-12.421717 -19.971588 -26.692573 35.576071 1.014379 2.419306 0.099017 -0.036728 676507.000000 0 0 1
-10.995517 -20.098688 -26.626553 35.125944 1.070201 2.431085 0.087322 -0.044809 1221120.000000 0 0 1
-10.313117 -21.288188 -25.828833 35.023934 1.119664 2.400102 0.115606 -0.044178 -531637.000000 0 0 1
-10.467417 -22.529388 -26.488913 36.315323 1.135858 2.388262 0.113605 -0.041716 61237.000000 0 0 1
-10.293817 -23.534288 -25.510143 36.202110 1.158473 2.352739 0.154519 -0.044129 -180400.000000 0 0 1
-10.380717 -24.978988 -26.083943 37.577669 1.176933 2.338013 0.149475 -0.033595 -1592860.000000 0 0 1
-9.255317 -25.377038 -26.772283 38.031698 1.221075 2.351735 0.141829 -0.036931 -558401.000000 0 0 1
-9.301517 -26.679818 -27.268743 39.267229 1.235338 2.338438 0.138836 -0.033234 -241492.000000 0 0 1
-8.891917 -27.738158 -26.260473 39.218415 1.260580 2.304460 0.143857 -0.034031 -667253.000000 0 0 1
-9.903217 -27.987128 -25.329023 39.024511 1.230697 2.277137 0.135087 -0.036674 -221001.000000 0 0 1
-9.773017 -29.155708 -24.543823 39.344204 1.247366 2.244421 0.173973 -0.043082 -453055.000000 0 0 1
-10.733417 -29.167108 -23.355923 38.877057 1.218179 2.215252 0.175618 -0.043133 -162607.000000 0 0 1
-10.656217 -28.091438 -22.486523 37.527691 1.208226 2.213295 0.129748 -0.049101 180580.000000 0 0 1
-11.501817 -26.995038 -22.883223 37.211097 1.168018 2.233128 0.133142 -0.041255 114395.000000 0 0 1
-11.585117 -25.859148 -21.818523 35.762528 1.149600 2.226976 0.132825 -0.042156 -54053.200000 0 0 1
-12.227017 -26.335928 -20.643823 35.626514 1.136138 2.188851 0.102221 -0.040860 237504.000000 0 0 1
-12.422717 -25.229748 -19.759623 34.370144 1.113260 2.183286 0.091132 -0.035681 79422.000000 0 0 1
-13.076617 -25.608608 -18.384223 34.128850 1.098678 2.139655 0.111105 -0.043055 11897.000000 0 0 1
-14.423817 -26.005898 -18.423023 34.982296 1.064401 2.125438 0.124127 -0.044601 -197254.000000 0 0 1
-14.855317 -26.392068 -17.119423 34.789314 1.058125 2.085284 0.116036 -0.040603 117626.000000 0 0 1
-16.400617 -26.437868 -16.998723 35.452753 1.015551 2.070853 0.120433 -0.046978 -587981.000000 0 0 1
-16.947517 -25.171498 -16.844923 34.706974 0.978228 2.077556 0.098707 -0.033616 817308.000000 0 0 1
-18.337617 -25.152648 -16.434823 35.199820 0.940837 2.056579 0.117623 -0.030847 1910540.000000 0 0 1
-19.446117 -25.659638 -17.476823 36.633425 0.922291 2.068118 0.105574 -0.029703 -134270.000000 0 0 1
-19.619517 -27.054548 -17.742123 37.837243 0.943368 2.058848 0.110688 -0.034148 201273.000000 0 0 1
-19.991917 -27.797458 -16.578123 38.042208 0.947301 2.021704 0.121454 -0.043282 -688666.000000 0 0 1
-21.462417 -28.211948 -16.491023 39.096076 0.920447 2.006234 0.098909 -0.028947 -419912.000000 0 0 1
-21.772117 -29.249698 -17.364523 40.386837 0.930919 2.015239 0.084257 -0.028477 -439646.000000 0 0 1
-22.986517 -29.822688 -16.963923 41.298273 0.914133 1.994090 0.079255 -0.019262 -417460.000000 0 0 1
-23.454017 -30.672058 -18.098523 42.642967 0.917972 2.009117 0.065423 -0.026824 -253699.000000 0 0 1
-22.896117 -31.950228 -18.088523 43.269434 0.949004 2.002087 0.055837 -0.026149 97510.200000 0 0 1
-23.337217 -32.622618 -19.226223 44.480429 0.949830 2.017772 0.054152 -0.007413 174148.000000 0 0 1
-22.730117 33.841553 -19.256523 45.085725 -0.979343 2.012089 0.028822 -0.003582 7694.760000 0 0 1
-23.376117 32.923546 -18.412923 44.378356 -0.953382 1.998638 0.050665 -0.009793 263352.000000 0 0 1
-22.560117 31.762984 -18.196223 42.999401 -0.953215 2.007742 0.031647 -0.010877 44461.200000 0 0 1
-23.348317 30.481204 -17.845923 42.340579 -0.917140 2.005879 0.060376 -0.025498 213695.000000 0 0 1
-24.033817 30.453794 -16.583023 42.190692 -0.902682 1.974742 0.056436 -0.028282 237432.000000 0 0 1
-24.687317 29.259094 -16.222723 41.578058 -0.869943 1.971618 0.062474 -0.023840 209290.000000 0 0 1
-23.715317 28.089644 -15.844023 40.030955 -0.869637 1.977729 0.068256 -0.026334 218933.000000 0 0 1
-22.970517 27.592484 -16.932523 39.695089 -0.876555 2.011487 0.046059 -0.017075 -91017.800000 0 0 1
-22.671717 26.226094 -16.832023 38.537407 -0.857960 2.022802 0.042193 -0.018674 -297967.000000 0 0 1
-21.848017 25.732564 -18.038823 38.274009 -0.866859 2.061569 0.027917 -0.016031 -1017740.000000 0 0 1
-21.757017 24.311824 -18.160523 37.339485 -0.840798 2.078718 0.050323 -0.029027 237290.000000 0 0 1
-20.956017 23.831524 -19.222723 37.102685 -0.849513 2.115419 0.037562 -0.019885 570988.000000 0 0 1
-19.480317 24.309624 -19.372423 36.684211 -0.895238 2.127142 0.023908 -0.020174 -332810.000000 0 0 1
-18.581417 23.826754 -18.379223 35.366355 -0.908460 2.117274 0.037186 -0.026262 -121883.000000 0 0 1
-17.545217 24.750354 -18.148623 35.352329 -0.954130 2.109897 0.056979 -0.030537 -402691.000000 0 0 1
-17.621117 25.889184 -17.110623 35.686510 -0.973185 2.070847 0.073458 -0.040838 -447668.000000 0 0 1
-18.633017 26.821374 -17.401823 37.005389 -0.963631 2.060372 0.035751 -0.021069 -83496.900000 0 0 1
-18.370717 28.015774 -16.668323 37.419244 -0.990405 2.032471 0.050400 -0.032352 399836.000000 0 0 1
-19.376917 29.216784 -16.939123 38.936092 -0.985189 2.020889 0.024243 -0.023772 496674.000000 0 0 1
-19.382417 29.793864 -18.210823 39.937281 -0.994034 2.044276 0.007617 -0.019741 325492.000000 0 0 1
-20.067217 28.977014 -19.183323 40.129296 -0.965107 2.069216 -0.002913 -0.009506 -275979.000000 0 0 1
-19.894317 29.496924 -20.601823 41.113105 -0.977422 2.095667 0.006755 -0.014830 426935.000000 0 0 1
-20.797817 30.575314 -20.933723 42.492584 -0.973472 2.085922 0.019170 -0.011157 593190.000000 0 0 1
-20.866617 30.711224 -22.316123 43.319791 -0.973999 2.111977 0.020630 -0.009461 -317225.000000 0 0 1
-21.613117 31.939108 -22.783423 44.791939 -0.975881 2.104412 0.024891 -0.018094 -536252.000000 0 0 1
-21.003217 33.194156 -22.591223 45.313910 -1.006652 2.092721 0.017520 -0.021943 -149291.000000 0 0 1
-21.381817 -33.753298 -23.525123 46.366999 1.006127 2.102924 0.041340 -0.018659 -182752.000000 0 0 1
-20.345917 -32.571808 -23.622323 45.087617 1.012450 2.122243 0.057164 -0.022467 214529.000000 0 0 1
-20.285117 -31.715668 -22.471223 43.844332 1.001772 2.108917 0.054334 -0.024995 147922.000000 0 0 1
-19.487517 -32.367118 -21.497423 43.468757 1.028851 2.088112 0.058168 -0.031016 -593611.000000 0 0 1
-19.286717 -31.575878 -20.254623 42.181314 1.022470 2.071656 0.077310 -0.037692 -333831.000000 0 0 1
-18.493417 -30.454498 -20.552823 41.132730 1.025065 2.094015 0.106887 -0.045057 -86599.400000 0 0 1
-18.034017 -29.904708 -19.345223 39.921861 1.028138 2.076676 0.095945 -0.039785 44498.700000 0 0 1
-16.814617 -28.971438 -19.620723 38.820720 1.044924 2.100664 0.120747 -0.045203 -51303.700000 0 0 1
-15.722917 -29.708448 -20.072623 39.149868 1.084031 2.109137 0.124142 -0.050749 -1272670.000000 0 0 1
-14.636917 -28.892758 -20.301423 38.225366 1.101887 2.130692 0.114415 -0.052872 -44761.700000 0 0 1
-13.267117 -29.666508 -20.595423 38.474531 1.150266 2.135659 0.161176 -0.054034 1243230.000000 0 0 1
-12.693617 -30.224608 -19.400223 38.092302 1.173189 2.105162 0.154607 -0.049459 391511.000000 0 0 1
-12.113417 -29.247728 -18.488223 36.660317 1.178138 2.099381 0.115871 -0.046494 -521277.000000 0 0 1
-11.248717 -29.853928 -17.349223 36.315096 1.210456 2.068878 0.125696 -0.031348 -194398.000000 0 0 1
-11.852417 -30.573378 -16.288123 36.613033 1.200963 2.031828 0.150075 -0.046181 -66942.000000 0 0 1
-12.416517 -31.824408 -16.679923 38.015558 1.198804 2.025021 0.162571 -0.046933 893264.000000 0 0 1
-13.515517 -32.363618 -15.643023 38.402827 1.175198 1.990336 0.140450 -0.045833 547906.000000 0 0 1
-12.879717 -32.643258 -14.395623 37.930244 1.194989 1.960083 0.133371 -0.036871 429858.000000 0 0 1
-13.795817 -33.156308 -13.449023 38.347641 1.176502 1.929129 0.126608 -0.026807 -403019.000000 0 0 1
-13.151517 -33.752458 -12.199223 38.223185 1.199247 1.895637 0.114182 -0.029094 -175723.000000 0 0 1
-12.518217 -32.737058 -11.447723 36.871006 1.205565 1.886495 0.092137 -0.012530 29602.400000 0 0 1
-12.137617 -33.212808 -10.194823 36.801451 1.220425 1.851490 0.093690 -0.015994 154212.000000 0 0 1
-10.834817 -32.565688 -9.630923 35.646486 1.249610 1.844375 0.085866 -0.022206 299104.000000 0 0 1
-9.662517 -33.078768 -10.218323 35.944169 1.286597 1.859055 0.073784 -0.021543 -671407.000000 0 0 1
-8.539617 -32.420848 -9.697323 34.900925 1.313247 1.852355 0.065415 -0.026270 390720.000000 0 0 1
-7.225817 -32.961408 -10.394223 35.308735 1.354990 1.869604 0.070817 -0.042964 608820.000000 0 0 1
-6.739717 33.738979 -9.777123 35.767787 -1.373631 1.847670 0.063062 -0.020711 -265698.000000 0 0 1
-5.524017 33.428864 -10.407523 35.444608 -1.407029 1.868816 0.073147 -0.018086 103898.000000 0 0 1
-4.748317 32.244853 -9.699223 34.005175 -1.424589 1.860040 0.071207 -0.020757 469557.000000 0 0 1
-4.192517 32.632509 -8.439223 33.965840 -1.443020 1.821889 0.083632 -0.030737 119831.000000 0 0 1
-3.473217 31.552704 -7.826423 32.693871 -1.461161 1.812529 0.079299 -0.031824 367051.000000 0 0 1
-2.921117 31.795824 -6.409523 32.566690 -1.479182 1.768902 0.084059 -0.031709 282219.000000 0 0 1
-2.003217 32.901432 -6.347723 33.568001 -1.509986 1.761042 0.074874 -0.029650 123331.000000 0 0 1
-1.915617 33.536701 -5.083523 33.973844 -1.513738 1.720991 0.084803 -0.031758 1190180.000000 0 0 1
-0.669517 33.023994 -4.227923 33.300266 -1.550525 1.698104 0.090949 -0.036990 549927.000000 0 0 1
0.615383 33.112478 -4.739623 33.455626 1.552214 1.712943 0.092270 -0.035088 -279470.000000 0 0 1
1.567483 32.428651 -3.922323 32.702584 1.522498 1.691025 0.088250 -0.031756 126969.000000 0 0 1
3.007583 32.372476 -4.435423 32.813042 1.478157 1.706384 0.075689 -0.019789 83653.400000 0 0 1
3.717583 33.568053 -4.073523 34.018056 1.460498 1.690830 0.067543 -0.021996 772977.000000 0 0 1
5.137383 33.461243 -4.262423 34.120605 1.418454 1.696046 0.067009 -0.018521 1016190.000000 0 0 1
5.964083 -33.311378 -3.639423 34.036210 -1.393633 1.677929 0.065175 -0.018022 43194.800000 0 0 1
5.942483 -32.151828 -4.401423 32.991297 -1.388033 1.704607 0.070690 -0.025320 -190294.000000 0 0 1
6.279683 -30.969368 -3.680523 31.813243 -1.370738 1.686748 0.061831 -0.030786 67405.900000 0 0 1
6.155283 -29.681778 -4.583123 30.657797 -1.366319 1.720852 0.071265 -0.026802 66006.300000 0 0 1
7.227283 -29.488118 -5.494123 30.853981 -1.330443 1.749820 0.082151 -0.029125 -223412.000000 0 0 1
6.986283 -28.548428 -6.542323 30.110179 -1.330796 1.789823 0.079671 -0.024039 -71576.800000 0 0 1
7.207083 -27.079528 -6.200923 28.700076 -1.310681 1.788573 0.070979 -0.016567 831777.000000 0 0 1
6.263583 -26.668068 -5.191723 27.881398 -1.340106 1.758097 0.068107 -0.020155 288141.000000 0 0 1
6.842483 -25.532588 -4.535323 26.819802 -1.308959 1.740716 0.056079 -0.019934 69909.300000 0 0 1
6.037683 -24.927388 -3.350223 25.866045 -1.333162 1.700683 0.057510 -0.019729 -150209.000000 0 0 1
4.957883 -24.210588 -3.892023 25.017615 -1.368807 1.727002 0.063176 -0.020776 -485484.000000 0 0 1
4.092683 -23.786588 -2.853023 24.304147 -1.400406 1.688456 0.048392 -0.013617 51694.900000 0 1 0
2.799583 -23.085988 -3.261723 23.482746 -1.450118 1.710146 0.054227 -0.015531 111299.000000 0 1 0
1.949983 -23.799488 -4.125523 24.232994 -1.489045 1.741874 0.062148 -0.018950 -293271.000000 0 1 0
0.658783 -23.219888 -4.134823 23.594363 -1.542432 1.746952 0.056306 -0.019053 200360.000000 0 1 0
-15.590617 23.024612 17.958524 33.101490 -0.975586 0.997351 -0.001946 -0.016460 -231201.000000 0 0 1
-15.799817 22.603712 19.295424 33.658214 -0.960747 0.960299 0.000521 -0.013220 253521.000000 0 0 1
-15.286517 23.556512 20.272424 34.634636 -0.995174 0.945519 0.005026 -0.011499 -920730.000000 0 0 1
-15.437817 23.154412 21.742624 35.315643 -0.982748 0.907566 0.026526 -0.018980 -287151.000000 0 0 1
-14.489217 22.254412 22.282924 34.665904 -0.993668 0.872660 0.011741 -0.012546 902711.000000 0 0 1
-13.106117 22.632412 22.244424 34.333813 -1.045897 0.865989 -0.001042 -0.017512 451596.000000 0 0 1
-12.636517 23.677512 23.341864 35.568929 -1.080559 0.854967 0.043448 -0.019206 -361357.000000 0 0 1
-12.660617 23.202412 24.662474 36.150805 -1.071292 0.820014 0.032222 -0.013878 -11464.200000 0 0 1
-12.362617 24.197212 25.585704 37.322481 -1.098458 0.815464 0.083683 -0.022704 111239.000000 0 0 1
-11.777917 23.748412 26.965224 37.813089 -1.110398 0.776859 0.080841 -0.019841 -370997.000000 0 0 1
-10.424817 23.434212 26.939964 37.196784 -1.152230 0.760843 0.047663 -0.020914 -996171.000000 0 0 1
-10.028217 22.750412 28.040594 37.475609 -1.155625 0.725397 0.035816 -0.023686 -1264530.000000 0 0 1
-8.549417 22.392312 28.069114 36.910477 -1.206076 0.706768 0.035093 -0.026691 -229727.000000 0 0 1
-7.652617 23.435112 28.405914 37.612005 -1.255168 0.714783 0.045315 -0.028400 147429.000000 0 0 1
-7.441117 24.393712 27.344014 37.391422 -1.274720 0.750583 0.048301 -0.020883 -613914.000000 0 0 1
-6.408917 25.524612 27.696104 38.205421 -1.324794 0.759869 0.049616 -0.029306 720927.000000 0 0 1
-5.090817 25.000512 27.617334 37.598658 -1.369914 0.745823 0.064240 -0.026479 -765568.000000 0 0 1
-4.112517 25.922612 27.816254 38.244458 -1.413462 0.756376 0.078162 -0.020994 282168.000000 0 0 1
-2.650817 25.356612 27.953484 37.833607 -1.466633 0.739429 0.077315 -0.023157 684988.000000 0 0 1
-2.028517 25.037212 26.746304 36.692528 -1.489953 0.754038 0.084860 -0.029618 54203.800000 0 0 1
-0.653617 24.748012 26.926624 36.577785 -1.544392 0.743437 0.097535 -0.016932 327652.000000 0 0 1
0.159383 24.545412 25.650074 35.502520 1.564303 0.763405 0.090085 -0.023967 138773.000000 0 0 1
-0.248917 23.297212 25.013154 34.183035 -1.560112 0.749922 0.096657 -0.021492 177230.000000 0 0 1
0.343683 23.161212 23.702824 33.141872 1.555959 0.773897 0.102919 -0.022851 168216.000000 0 0 1
-0.067817 21.904612 22.923804 31.706740 -1.567700 0.762669 0.080165 -0.024938 36771.000000 0 0 1
0.524683 20.761712 23.466904 31.337191 1.545530 0.724469 0.098191 -0.023657 -312056.000000 0 0 1
0.190683 19.606412 22.750424 30.033806 1.561071 0.711331 0.085636 -0.020775 286416.000000 0 0 1
1.220483 18.435512 22.945404 29.459281 1.504690 0.677910 0.084116 -0.011571 366356.000000 0 0 1
2.351183 18.547612 22.107124 28.952839 1.444704 0.701994 0.075018 -0.015075 464393.000000 0 0 1
3.322783 17.474912 22.131024 28.393584 1.382894 0.677029 0.067013 -0.015673 65172.400000 0 0 1
4.620083 17.749512 21.395124 28.180519 1.316153 0.708687 0.074557 -0.017708 -660004.000000 0 0 1
5.492583 18.419012 22.257224 29.407694 1.280990 0.712316 0.076437 -0.010167 95622.700000 0 0 1
6.748083 18.685512 21.598324 29.345742 1.224232 0.743661 0.084857 -0.018239 1170160.000000 0 0 1
7.917583 19.283712 22.462624 30.645050 1.181199 0.748084 0.101370 -0.025673 334367.000000 0 0 1
7.667383 20.539912 23.166684 31.896269 1.213524 0.757853 0.081144 -0.018576 18552.700000 0 0 1
7.303683 21.699012 22.428124 32.050142 1.246117 0.795704 0.089767 -0.028598 1151360.000000 0 0 1
5.960783 22.445612 22.876094 32.598345 1.311222 0.792937 0.068122 -0.021695 1196460.000000 0 0 1
5.874483 23.772312 22.382024 33.175101 1.328535 0.830288 0.056599 -0.031689 1005120.000000 0 0 1
4.741883 24.447412 23.008424 33.904999 1.379213 0.824922 0.043457 -0.020947 753250.000000 0 0 1
4.405383 25.785412 22.322024 34.388480 1.401582 0.864378 0.054018 -0.020673 -11790.900000 0 0 1
3.977083 25.820812 20.930824 33.475825 1.417971 0.895342 0.054517 -0.026589 1064350.000000 0 0 1
2.789583 25.066912 20.556524 32.537709 1.459967 0.886955 0.076459 -0.034870 672507.000000 0 0 1
2.220483 25.349712 19.149524 31.847177 1.483425 0.925676 0.064792 -0.032152 -348967.000000 0 0 1
1.544983 26.625812 19.184824 32.853893 1.512836 0.947218 0.076376 -0.039106 302074.000000 0 0 1
1.313083 27.085412 17.903424 32.494250 1.522355 0.987268 0.088465 -0.031661 132361.000000 0 0 1
0.211483 28.183612 17.911724 33.394469 1.563293 1.004669 0.078863 -0.017324 305803.000000 0 0 1
0.742583 29.448312 18.360224 34.710982 1.545585 1.013439 0.092447 -0.017109 -139322.000000 0 0 1
-0.213417 30.440412 18.440824 35.591125 -1.563785 1.026133 0.081205 -0.009131 -440363.000000 0 0 1
0.343983 31.804412 18.964024 37.030705 1.559981 1.033150 0.089219 -0.004517 -236291.000000 0 0 1
0.813483 31.687012 20.277524 37.628532 1.545130 1.001681 0.099421 -0.013975 -35720.200000 0 0 1
1.165683 32.932512 20.891224 39.017334 1.535415 1.005774 0.104501 -0.017483 95122.600000 0 0 1
1.707883 32.811712 22.330024 39.726002 1.518792 0.973872 0.108532 -0.037882 113270.000000 0 0 1
0.652683 32.467112 23.189984 39.903818 1.550696 0.950659 0.105113 -0.028430 249940.000000 0 0 1
1.100183 32.482212 24.514754 40.709675 1.536939 0.924561 0.112299 -0.033960 320546.000000 0 0 1
-0.080117 32.032212 25.429584 40.899055 -1.568295 0.899803 0.106826 -0.027033 632339.000000 0 0 1
-1.172217 32.966712 25.433514 41.653833 -1.535254 0.913988 0.112910 -0.027098 596594.000000 0 0 1
-2.126417 32.794612 26.484564 42.207112 -1.506047 0.892470 0.116915 -0.027755 299886.000000 0 0 1
-1.677717 33.050812 27.953734 43.319535 -1.520078 0.869391 0.123967 -0.034258 227156.000000 0 0 1
-0.576117 32.216112 28.401354 42.951678 -1.552915 0.848326 0.129222 -0.033016 751359.000000 0 0 1
-0.139217 32.716912 29.641034 44.147554 -1.566541 0.834689 0.126915 -0.034843 -53779.900000 0 0 1
1.104983 31.948512 30.199584 43.976621 1.536224 0.813830 0.113118 -0.029622 563955.000000 0 0 1
2.389683 31.978312 29.614164 43.649991 1.496207 0.825151 0.103229 -0.034850 237554.000000 0 0 1
2.528283 31.719912 28.245814 42.548455 1.491258 0.844841 0.102432 -0.036306 -111957.000000 0 0 1
4.021783 31.566012 27.778824 42.240394 1.444070 0.853119 0.092566 -0.032587 838736.000000 0 0 1
4.625983 30.371812 28.226644 41.720380 1.419646 0.827705 0.091505 -0.036954 -662109.000000 0 0 1
5.971983 30.342312 27.866554 41.627698 1.376460 0.837364 0.105803 -0.046287 -1063630.000000 0 0 1
6.710983 29.223112 28.557684 41.407352 1.345064 0.809754 0.108629 -0.032299 -290422.000000 0 0 1
6.861883 29.429612 29.932404 42.533943 1.341726 0.790163 0.113851 -0.045675 -118717.000000 0 0 1
7.445183 28.326912 30.545504 42.318701 1.313779 0.764401 0.095693 -0.042346 -344090.000000 0 0 1
7.506883 28.326612 32.103915 43.467362 1.311740 0.739842 0.122853 -0.044271 -455201.000000 0 0 1
6.288883 28.298112 32.809339 43.781113 1.352113 0.723649 0.107689 -0.041304 -538792.000000 0 0 1
6.394483 28.193912 -33.589183 44.317257 1.347766 2.430924 0.114216 -0.041576 -34977.900000 0 0 1
6.474383 26.666912 -33.187123 43.063058 1.332618 2.450678 0.105374 -0.036701 -416467.000000 0 0 1
7.708683 26.065712 -33.449153 43.100939 1.283252 2.459199 0.106115 -0.041252 -354061.000000 0 0 1
7.623183 24.644112 -33.428173 42.224257 1.270801 2.484353 0.100178 -0.035474 -617552.000000 0 0 1
8.981383 24.003112 -33.619233 42.273720 1.212748 2.490257 0.110824 -0.039853 -1245970.000000 0 0 1
9.454483 24.095412 32.896479 41.858744 1.196879 0.666658 0.099662 -0.034695 -188834.000000 0 0 1
10.742583 23.562812 32.746773 41.748777 1.143036 0.669105 0.104577 -0.044831 -471820.000000 0 0 1
11.055283 22.079612 33.078238 41.278303 1.106588 0.641253 0.107965 -0.044677 -1275360.000000 0 0 1
10.405383 21.122512 32.345765 40.008511 1.113070 0.629245 0.103150 -0.041708 -271442.000000 0 0 1
10.144683 19.844412 32.888807 39.728942 1.098220 0.595568 0.096661 -0.041781 -195552.000000 0 0 1
8.798083 19.621712 33.577793 39.873374 1.149286 0.569611 0.101190 -0.042415 -443636.000000 0 0 1
8.733383 20.308412 -33.055443 39.766391 1.164666 2.552132 0.113519 -0.037585 -645189.000000 0 0 1
7.484683 20.424312 -32.456613 39.071789 1.219534 2.551145 0.119217 -0.029518 -646885.000000 0 0 1
7.578983 20.989212 -31.057743 38.243580 1.224277 2.518544 0.127411 -0.034197 -321481.000000 0 0 1
7.589783 22.405812 -30.977893 38.977622 1.244186 2.489410 0.126911 -0.038142 -21860.900000 0 0 1
7.932683 22.883512 -29.694633 38.319105 1.237105 2.457401 0.093279 -0.032147 -870401.000000 0 0 1
9.406783 22.946712 -29.377113 38.445467 1.181750 2.440479 0.091675 -0.025473 -508682.000000 0 0 1
10.129983 21.673812 -29.349763 37.865278 1.133581 2.457686 0.099402 -0.032566 457407.000000 0 0 1
11.512383 21.880712 -29.071653 38.163615 1.086454 2.436827 0.111973 -0.021414 969450.000000 0 0 1
12.354483 20.566212 -28.845173 37.518613 1.029849 2.447795 0.117403 -0.025343 349854.000000 0 0 1
12.500883 19.781012 -30.039903 38.078291 1.007205 2.479811 0.118317 -0.025966 836166.000000 0 0 1
11.301183 19.058212 -30.430793 37.642600 1.035553 2.512248 0.128631 -0.030283 742037.000000 0 0 1
11.364283 18.088412 -31.610853 38.152111 1.009854 2.547306 0.135881 -0.041128 -375169.000000 0 0 1
11.887883 16.815112 -31.209363 37.391096 0.955404 2.558336 0.127185 -0.028202 314270.000000 0 0 1
11.926483 15.800312 -32.212293 37.809029 0.924214 2.590539 0.118515 -0.029603 449782.000000 0 0 1
13.054783 15.894612 -33.332183 39.167594 0.883182 2.588710 0.104382 -0.011805 422883.000000 0 0 1
13.150283 17.181612 33.858074 40.180927 0.917531 0.568628 0.112340 -0.025769 -90722.700000 0 0 1
13.750283 17.200212 32.565602 39.312033 0.896406 0.594573 0.114191 -0.029688 349244.000000 0 0 1
12.784683 16.896212 31.362834 37.849140 0.923047 0.594145 0.119638 -0.035152 -1160700.000000 0 0 1
13.213483 17.488312 30.163814 37.286631 0.923746 0.628396 0.118501 -0.034290 6466.400000 0 0 1
12.334683 17.250012 29.094244 36.002532 0.950039 0.629849 0.105650 -0.032921 1481760.000000 0 0 1
10.809083 17.680612 29.266124 35.860093 1.022071 0.616132 0.078970 -0.028063 778660.000000 0 0 1
10.109283 16.970412 30.257614 36.134688 1.033544 0.578367 0.091753 -0.025568 -1388200.000000 0 0 1
8.736883 17.189312 30.199844 35.830659 1.100551 0.568240 0.080374 -0.026920 -353335.000000 0 0 1
8.014983 16.238512 31.204734 36.078589 1.112299 0.525825 0.082247 -0.031184 9835.220000 0 0 1
8.288583 16.679212 32.540476 37.493723 1.109599 0.519855 0.090333 -0.025091 161626.000000 0 0 1
7.852383 15.678612 33.453198 37.770295 1.106482 0.482794 0.110432 -0.030675 -44776.300000 0 0 1
7.855983 16.029012 -32.860863 37.396283 1.115092 2.643970 0.108915 -0.031824 206562.000000 0 0 1
6.730383 16.782812 -32.419423 37.121150 1.189404 2.632816 0.102330 -0.028787 253719.000000 0 0 1
6.797283 16.763412 -31.028413 35.916256 1.185572 2.613778 0.116780 -0.036950 114868.000000 0 0 1
5.715583 17.626212 -30.323283 35.536639 1.257228 2.593071 0.115304 -0.035876 -440943.000000 0 0 1
5.746783 17.688512 -28.923093 34.386833 1.256666 2.570128 0.123122 -0.039202 210654.000000 0 0 1
4.953183 18.774812 -28.459593 34.452518 1.312853 2.542864 0.128133 -0.038633 1468920.000000 0 0 1
3.371983 18.716612 -28.493263 34.257085 1.392548 2.553045 0.146594 -0.045640 115406.000000 0 0 1
2.878783 17.850112 -27.480913 32.895508 1.410898 2.559657 0.151939 -0.046845 -521640.000000 0 0 1
1.577683 17.353812 -27.593213 32.634786 1.480133 2.578326 0.146260 -0.045101 255378.000000 0 0 1
0.432183 18.412412 -27.431263 33.040549 1.547328 2.550317 0.144095 -0.049457 -300701.000000 0 0 1
0.151283 18.899812 -26.113583 32.235772 1.562792 2.515086 0.156854 -0.057030 -199713.000000 0 0 1
-0.776417 19.943712 -26.039253 32.808492 -1.531886 2.487621 0.162174 -0.048193 -328185.000000 0 0 1
-1.252217 20.235812 -24.637223 31.906878 -1.508994 2.453030 0.147562 -0.054464 -434421.000000 0 0 1
-2.167117 19.331112 -24.125423 30.990713 -1.459157 2.463025 0.136174 -0.048657 -317390.000000 0 0 1
-2.657317 19.813112 -22.860023 30.367769 -1.437473 2.423060 0.133546 -0.048074 -97833.500000 0 0 1
-3.643417 18.890512 -22.125423 29.319963 -1.380266 2.425871 0.109227 -0.036680 -210182.000000 0 0 1
-4.955217 19.049412 -22.617423 29.983030 -1.316312 2.425446 0.107077 -0.024347 -668494.000000 0 0 1
-5.860717 18.256212 -21.948423 29.143962 -1.260163 2.423563 0.090715 -0.031969 771888.000000 0 0 1
-7.419517 18.501612 -22.114723 29.772803 -1.189411 2.408013 0.107208 -0.019189 1156850.000000 0 0 1
-7.946317 19.588812 -21.438823 30.107949 -1.185424 2.363232 0.074104 -0.017993 -135436.000000 0 0 1
-7.465817 20.864212 -21.821723 31.100504 -1.227164 2.348509 0.088666 -0.027780 -293291.000000 0 0 1
-8.005517 21.898412 -20.769223 31.224819 -1.220314 2.298492 0.104200 -0.035178 446020.000000 0 0 1
-7.291517 21.927912 -19.511823 30.244185 -1.249776 2.272007 0.115891 -0.039055 169146.000000 0 0 1
-7.568517 23.056212 -18.747623 30.665040 -1.253615 2.228584 0.126059 -0.038069 -26255.800000 0 0 1
-6.816517 23.057112 -17.353923 29.652216 -1.283348 2.195983 0.135662 -0.047669 397774.000000 0 0 1
-5.493117 23.514312 -17.575023 29.866011 -1.341305 2.199952 0.128673 -0.050974 -313245.000000 0 0 1
-4.771517 23.463712 -16.337823 28.986852 -1.370175 2.169569 0.107853 -0.044052 410251.000000 0 0 1
-3.257217 23.777312 -16.376523 29.054440 -1.434655 2.169594 0.098091 -0.041939 289086.000000 0 0 1
-2.983417 25.134012 -16.685123 30.315221 -1.452649 2.153625 0.086142 -0.044767 740109.000000 0 0 1
-1.654717 25.324312 -17.220823 30.669457 -1.505548 2.166991 0.090905 -0.047737 1010770.000000 0 0 1
-1.230017 26.818012 -17.266123 31.919237 -1.524963 2.142341 0.091518 -0.063236 -29730.500000 0 0 1
-2.030017 27.620312 -18.121823 33.096874 -1.497431 2.150216 0.109948 -0.065555 124742.000000 0 0 1
-1.501517 28.911312 -18.331523 34.266065 -1.518908 2.135276 0.115000 -0.061770 -848598.000000 0 0 1
-2.528217 29.707612 -19.144823 35.432447 -1.485898 2.141612 0.160679 -0.061595 508652.000000 0 0 1
-3.641317 30.312712 -18.486223 35.691177 -1.451244 2.115248 0.134794 -0.055133 456296.000000 0 0 1
-4.648817 29.348812 -18.189123 34.839754 -1.413703 2.120084 0.107566 -0.056768 69126.800000 0 0 1
-5.902617 29.888112 -17.413523 35.090894 -1.375815 2.090059 0.146777 -0.045521 995080.000000 0 0 1
-6.631217 30.965312 -18.028723 36.439792 -1.359833 2.088348 0.186448 -0.046445 311550.000000 0 0 1
-6.277817 32.228512 -17.544823 37.227795 -1.378415 2.061541 0.178696 -0.070583 -200702.000000 0 0 1
-7.155417 33.381012 -18.084223 38.633289 -1.359636 2.057935 0.172520 -0.051183 217734.000000 0 0 1
-8.526417 33.290012 -17.723323 38.665758 -1.320061 2.046960 0.181455 -0.066841 387529.000000 0 0 1
-9.207717 -33.433240 -18.071923 39.104450 1.302053 2.051209 0.210224 -0.057709 12685.100000 0 0 1
29.644183 -20.240688 -26.215183 44.448834 -0.599081 2.201587 0.079267 -0.011526 235225.000000 0 0 1
29.416683 -21.363588 -25.391973 44.345196 -0.628121 2.180468 0.077225 -0.011287 1243520.000000 0 0 1
27.994783 -21.678288 -25.296853 43.515363 -0.658916 2.191161 0.069412 -0.016865 1512740.000000 0 0 1
27.628683 -23.160888 -24.881223 43.804636 -0.697657 2.174875 0.068039 -0.009772 8041.610000 0 0 1
27.997083 -24.210088 -25.669173 45.042996 -0.712987 2.177158 0.072522 0.000853 -465379.000000 0 0 1
29.369083 -24.429288 -25.915073 46.161934 -0.693834 2.166867 0.068750 0.000369 -134394.000000 0 0 1
29.657183 -25.749748 -26.559303 47.413022 -0.714992 2.165386 0.069772 -0.009707 -163894.000000 0 0 1
29.671283 -26.847818 -25.691613 47.552596 -0.735484 2.141564 0.085768 -0.020043 -314710.000000 0 0 1
29.675683 -28.079048 -26.332883 48.605554 -0.757760 2.143334 0.079675 -0.019605 581356.000000 0 0 1
28.489083 -28.646958 -27.224243 48.717917 -0.788161 2.163751 0.078432 -0.019395 218778.000000 0 0 1
28.271783 -28.028318 -28.486863 48.952852 -0.781074 2.191889 0.054593 -0.017582 52188.400000 0 0 1
29.161983 -28.278548 -29.561593 50.239281 -0.770019 2.199895 0.041887 -0.019212 -422541.000000 0 0 1
29.472883 -29.735638 -30.116773 51.574015 -0.789836 2.194385 0.044518 -0.016452 -33662.400000 0 0 1
30.166383 -30.641258 -29.249323 52.004041 -0.793207 2.168134 0.047751 -0.020137 869202.000000 0 0 1
31.480683 -30.316648 -28.801573 52.341792 -0.766564 2.153471 0.054211 -0.020902 125252.000000 0 0 1
32.699483 -30.228418 -29.715163 53.535076 -0.746150 2.159231 0.053001 -0.019654 -601203.000000 0 0 1
32.672083 -29.094748 -30.570513 53.371581 -0.727546 2.180697 0.059718 -0.025699 427250.000000 0 0 1
33.960583 -28.784998 -31.092493 54.301385 -0.703099 2.180459 0.056125 -0.031205 278922.000000 0 0 1
33.786483 -27.470428 -31.872273 53.962882 -0.682654 2.202640 0.047255 -0.023639 105758.000000 0 0 1
33.701283 -26.226308 -31.198563 52.886161 -0.661306 2.201755 0.053654 -0.009768 -542815.000000 0 0 1
32.489783 -26.040958 -30.545653 51.640628 -0.675662 2.203720 0.061196 -0.005071 -659704.000000 0 0 1
32.493683 -24.636188 -29.869113 50.546465 -0.648718 2.203000 0.058542 -0.012420 -238468.000000 0 0 1
33.386983 -24.593288 -28.761853 50.465480 -0.634878 2.177218 0.065525 -0.008456 420872.000000 0 0 1
33.340083 -23.362788 -28.071783 49.451047 -0.611224 2.174467 0.059906 -0.010876 449747.000000 0 0 1
34.476783 -23.263188 -26.977253 49.574153 -0.593577 2.146207 0.069517 -0.023439 321836.000000 0 0 1
34.132783 -23.935888 -25.741113 48.995699 -0.611570 2.123952 0.070960 -0.031602 15976.700000 0 0 1
33.128583 -23.371788 -24.948123 47.604121 -0.614399 2.122425 0.083483 -0.013077 -402726.000000 0 0 1
33.481583 -22.124088 -24.093723 46.808110 -0.583919 2.111494 0.080444 -0.006930 -230747.000000 0 0 1
33.640883 -20.982688 -24.976523 46.859459 -0.557683 2.132949 0.083677 -0.020889 152175.000000 0 0 1
33.824783 -19.849888 -24.173223 46.070367 -0.530690 2.123162 0.068991 -0.036066 -22243.300000 0 0 1
33.805983 -18.523088 -24.982623 45.935615 -0.501247 2.145828 0.055068 -0.042176 -168190.000000 0 0 1
32.568883 -18.284588 -25.598173 45.280512 -0.511563 2.171623 0.074920 -0.028137 -96833.200000 0 0 1
32.599583 -17.048888 -26.309083 45.227926 -0.481861 2.191613 0.070395 -0.016305 -308834.000000 0 0 1
31.507283 -16.893688 -27.365633 45.022033 -0.492174 2.224118 0.064135 -0.001783 377719.000000 0 0 1
30.199083 -16.750788 -26.801803 43.713958 -0.506428 2.230797 0.065407 -0.002037 560332.000000 0 0 1
29.277683 -16.264988 -27.741203 43.489159 -0.507088 2.262549 0.041748 -0.009219 1314280.000000 0 0 1
27.807783 -15.915888 -27.227693 42.046826 -0.519843 2.275170 0.029656 -0.009716 1230800.000000 0 0 1
27.150583 -16.972988 -26.547513 41.593352 -0.558702 2.263037 0.058298 -0.000346 101406.000000 0 0 1
27.227183 -16.773288 -25.140013 40.677794 -0.552137 2.237028 0.070622 -0.003018 -345983.000000 0 0 1
26.601683 -17.853488 -24.352623 40.242351 -0.591094 2.220749 0.076463 -0.005924 -303927.000000 0 0 1
26.772083 -17.635588 -22.959823 39.432371 -0.582488 2.192300 0.074986 0.003296 119522.000000 0 0 1
26.222383 -18.701788 -22.194723 39.114907 -0.619530 2.174170 0.075923 0.008088 -75536.500000 0 0 1
25.951483 -18.300088 -20.730623 37.922703 -0.614184 2.149160 0.080844 -0.001854 -52858.800000 0 0 1
24.877083 -17.408388 -20.519823 36.646751 -0.610576 2.165104 0.077749 -0.013625 -47278.600000 0 0 1
24.945483 -16.073788 -20.963623 36.333418 -0.572398 2.185822 0.073313 -0.009924 -262051.000000 0 0 1
26.100683 -15.181688 -20.436023 36.460394 -0.526824 2.165785 0.057923 -0.008857 74167.400000 0 0 1
26.100583 -14.752488 -19.098923 35.547788 -0.514451 2.137999 0.052672 -0.018060 -192448.000000 0 0 1
27.151783 -13.848888 -18.913623 35.871105 -0.471659 2.126176 0.031799 -0.013911 -490117.000000 0 0 1
27.089183 -12.965988 -17.659223 34.839473 -0.446415 2.102351 0.032346 -0.024459 -515950.000000 0 0 1
27.521983 -13.494788 -16.403923 34.765753 -0.455880 2.062174 0.032118 -0.017213 288200.000000 0 0 1
27.628983 -12.431288 -15.482623 34.023657 -0.422801 2.043230 0.024353 -0.017203 -361628.000000 0 0 1
28.377683 -12.865388 -14.227323 34.252414 -0.425647 1.999143 0.037325 -0.030371 -736689.000000 0 0 1
27.855383 -13.948188 -13.573323 33.981016 -0.464236 1.981701 0.076538 -0.044152 -31754.500000 0 0 1
28.485083 -14.074988 -12.335523 34.083286 -0.458931 1.941126 0.094762 -0.047274 -289611.000000 0 0 1
27.964983 -15.277688 -11.512423 33.881911 -0.500010 1.917480 0.103812 -0.060254 -115768.000000 0 0 1
26.620683 -15.112888 -11.147023 32.577850 -0.516340 1.920017 0.095402 -0.064152 -29510.600000 0 0 1
25.977983 -16.295388 -10.716823 32.484544 -0.560235 1.907000 0.085950 -0.061774 -183262.000000 0 0 1
24.477683 -16.230388 -10.419923 31.163396 -0.585508 1.911727 0.099495 -0.063414 -303941.000000 0 0 1
24.086883 -15.498988 -9.252623 30.099960 -0.571765 1.883252 0.095652 -0.057036 -36957.600000 0 0 1
22.704283 -15.286488 -9.168623 28.865634 -0.592572 1.894026 0.107670 -0.055257 -573602.000000 0 0 1
22.292083 -15.144788 -7.693123 28.026518 -0.596752 1.848860 0.093643 -0.045854 -548363.000000 0 0 1
22.514883 -13.875188 -7.138323 27.393365 -0.552295 1.834425 0.105145 -0.038466 280905.000000 0 0 1
22.476083 -13.860788 -5.709723 27.016601 -0.552602 1.783743 0.114330 -0.031392 508073.000000 0 0 1
23.611683 -14.715888 -4.942723 28.257733 -0.557337 1.746617 0.104887 -0.023737 762993.000000 0 0 1
24.857083 -14.030888 -5.001923 28.978607 -0.513879 1.744273 0.097540 -0.034606 -136842.000000 0 0 1
25.799683 -14.660488 -4.221823 29.972944 -0.516741 1.712121 0.110135 -0.045756 673968.000000 0 0 1
27.296383 -14.194588 -4.495523 31.093224 -0.479533 1.715887 0.116573 -0.042725 1135800.000000 0 0 1
27.812083 -13.179088 -3.662523 30.993780 -0.442519 1.689243 0.140396 -0.035550 -412415.000000 0 0 1
29.015483 -12.712688 -4.169623 31.951470 -0.412943 1.701668 0.152157 -0.033189 -672466.000000 0 0 1
29.590983 -11.535288 -3.383723 31.939611 -0.371704 1.676937 0.164465 -0.042832 -1195320.000000 0 0 1
30.144983 -11.993088 -2.177623 32.516092 -0.378649 1.637817 0.171063 -0.044023 339860.000000 0 0 1
30.903983 -11.069788 -1.368323 32.855269 -0.343961 1.612455 0.188416 -0.037340 199677.000000 0 0 1
32.271183 -10.721588 -1.984523 34.063471 -0.320761 1.629089 0.177936 -0.033140 -945904.000000 0 0 1
32.228583 -10.036288 -3.241523 33.910413 -0.301891 1.666533 0.175959 -0.037998 274700.000000 0 0 1
33.409983 -10.367388 -3.955723 35.204509 -0.300887 1.683398 0.167358 -0.039685 199218.000000 0 0 1
33.103783 -10.117788 -5.455223 35.042682 -0.296622 1.727106 0.160485 -0.045133 181368.000000 0 0 1
32.162783 -11.108788 -5.868323 34.529509 -0.332564 1.741576 0.143780 -0.049784 433305.000000 0 0 1
31.736983 -10.910788 -7.189723 34.321619 -0.331130 1.781840 0.132605 -0.047054 -281406.000000 0 0 1
30.521383 -11.727188 -7.643723 33.578390 -0.366837 1.800448 0.119151 -0.048075 -142303.000000 0 0 1
30.750083 -13.158188 -7.786023 34.341341 -0.404331 1.799510 0.104319 -0.044310 274420.000000 0 0 1
29.521283 -13.848188 -7.905923 33.552676 -0.438617 1.808660 0.098424 -0.041695 135677.000000 0 0 1
29.704483 -15.327588 -7.738723 34.310044 -0.476368 1.798307 0.102405 -0.047960 69471.600000 0 0 1
30.258583 -15.939688 -8.918023 35.343835 -0.484843 1.825875 0.109726 -0.056257 416758.000000 0 0 1
30.695683 -17.279288 -8.642523 36.269711 -0.512710 1.811396 0.103684 -0.051327 -109709.000000 0 0 1
31.115783 -17.998488 -9.936723 37.294450 -0.524413 1.840494 0.082843 -0.060893 -428723.000000 0 0 1
32.158683 -17.323288 -10.587023 38.031070 -0.494112 1.852902 0.082501 -0.051200 -42941.400000 0 0 1
32.430183 -17.835388 -11.880123 38.871007 -0.502815 1.881396 0.066564 -0.038533 131951.000000 0 0 1
31.489183 -17.353588 -13.053123 38.250486 -0.503685 1.919047 0.061928 -0.046020 307530.000000 0 0 1
31.876083 -16.051288 -13.447123 38.138611 -0.466486 1.931129 0.060005 -0.037170 367529.000000 0 0 1
31.134483 -15.591888 -14.581823 37.750398 -0.464281 1.967380 0.049074 -0.039209 -1131550.000000 0 0 1
31.752283 -14.309888 -15.265723 38.026605 -0.423413 1.983894 0.041056 -0.023559 441910.000000 0 0 1
32.883683 -14.586488 -16.085223 39.406048 -0.417501 1.991269 0.020617 -0.028974 309519.000000 0 0 1
34.060183 -14.882488 -15.376323 40.224568 -0.411946 1.963039 0.034929 -0.031653 -833730.000000 0 0 1
35.144883 -15.432188 -16.363123 41.726095 -0.413754 1.973770 0.039088 -0.034182 -191479.000000 0 0 1
36.473583 -15.477588 -15.908323 42.696051 -0.401321 1.952600 0.049930 -0.038535 -74938.700000 0 0 1
-37.254834 -15.990088 -16.933423 43.935708 0.405430 1.966452 0.057139 -0.039603 -137224.000000 0 0 1
-35.727934 -15.751288 -16.797723 42.505904 0.415234 1.977066 0.083921 -0.034211 637703.000000 0 0 1
-34.953434 -16.428888 -15.776123 41.719743 0.439379 1.958588 0.073224 -0.037608 585715.000000 0 0 1
-35.250634 -16.086888 -14.458623 41.357550 0.428128 1.927941 0.063671 -0.042983 -916226.000000 0 0 1
-34.798734 -16.955488 -13.323723 40.938516 0.453391 1.902291 0.053451 -0.038305 -719271.000000 0 0 1
-33.509334 -16.537388 -12.959823 39.551456 0.458447 1.904633 0.112656 -0.037741 -341633.000000 0 0 1
-33.035434 -17.302088 -11.880823 39.138934 0.482461 1.879218 0.116840 -0.024447 -968137.000000 0 0 1
-31.571534 -17.029788 -11.603223 37.701595 0.494671 1.883639 0.140179 -0.024220 -897031.000000 0 0 1
-31.331934 -15.694788 -11.243023 36.802473 0.464383 1.881256 0.140942 -0.040124 -273448.000000 0 0 1
-29.989334 -15.553488 -10.860823 35.485612 0.478443 1.881851 0.166473 -0.038765 -213679.000000 0 0 1
-29.788834 -15.414988 -9.319323 34.811583 0.477530 1.841809 0.162172 -0.034805 -181247.000000 0 0 1
-30.036434 -16.649788 -8.726523 35.433812 0.506154 1.819633 0.133864 -0.030692 76312.000000 0 0 1
-30.408034 -16.695388 -7.329323 35.455656 0.502110 1.779016 0.151210 -0.034684 -20622.900000 0 0 1
-30.850834 -18.077988 -6.794623 36.397178 0.530047 1.758578 0.127778 -0.033037 -36300.200000 0 0 1
-32.000334 -18.666688 -7.351823 37.769246 0.528070 1.766698 0.101480 -0.032285 -166099.000000 0 0 1
-31.891334 -19.133288 -8.704523 38.195663 0.540385 1.800709 0.096296 -0.028577 -520281.000000 0 0 1
-33.113934 -19.939288 -9.172823 39.727176 0.541993 1.803794 0.078935 -0.028013 -538414.000000 0 0 1
-34.214734 -19.117188 -9.459523 40.318699 0.509530 1.807623 0.066083 -0.023760 -713091.000000 0 0 1
-35.317834 -19.965888 -9.523123 41.673445 0.514529 1.801351 0.045839 -0.029761 -991585.000000 0 0 1
-36.571334 -19.286388 -10.054223 42.550143 0.485298 1.809343 0.039626 -0.040663 -613905.000000 0 0 1
-36.638334 -19.055688 -11.421123 42.847740 0.479600 1.840609 0.035046 -0.039714 687554.000000 0 0 1
36.535583 -18.723488 -11.727223 42.695967 -0.473576 1.849041 0.053518 -0.044776 342507.000000 0 0 1
36.165683 -18.479088 -13.204823 42.705980 -0.472374 1.885151 0.046574 -0.039048 -327120.000000 0 0 1
35.875183 -19.709988 -13.821423 43.203520 -0.502386 1.896435 0.037648 -0.027213 190689.000000 0 0 1
35.239883 -19.489488 -15.070823 42.997898 -0.505183 1.928903 0.030893 -0.020535 -794077.000000 0 0 1
34.038983 -20.384788 -15.251123 42.506337 -0.539585 1.937774 0.042068 -0.025686 -2338750.000000 0 0 1
33.059683 -20.003488 -14.304823 41.203278 -0.544141 1.925355 0.048025 -0.031703 519029.000000 0 0 1
31.789083 -20.639888 -14.528123 40.590851 -0.575866 1.936832 0.054635 -0.032228 640391.000000 0 0 1
31.093283 -20.245088 -15.809923 40.331247 -0.577154 1.973603 0.051760 -0.030395 -2061660.000000 0 0 1
30.638283 -18.938288 -15.797923 39.331127 -0.553640 1.984130 0.061338 -0.035434 538103.000000 0 0 1
29.760483 -18.641088 -16.910923 38.976350 -0.559584 2.019587 0.047972 -0.028641 123879.000000 0 0 1
28.896383 -17.418988 -16.632823 37.617455 -0.542482 2.028798 0.050863 -0.022894 -851053.000000 0 0 1
27.863383 -17.645688 -15.731423 36.540609 -0.564541 2.015864 0.070656 -0.039830 -79867.400000 0 0 1
27.263083 -16.440688 -15.290723 35.318241 -0.542651 2.018549 0.046906 -0.031835 316689.000000 0 0 1
25.829383 -16.622288 -14.655523 34.032952 -0.571822 2.015984 0.058569 -0.043655 2109600.000000 0 0 1
24.655183 -17.096488 -15.382323 33.716225 -0.606299 2.044549 0.072579 -0.041355 1669670.000000 0 0 1
24.310683 -16.215988 -16.467923 33.543406 -0.588255 2.083969 0.067050 -0.029001 -416939.000000 0 0 1
23.278183 -16.771688 -17.501623 33.607591 -0.624345 2.118542 0.063990 -0.024843 1216180.000000 0 0 1
21.911683 -16.786088 -17.041623 32.439352 -0.653713 2.123909 0.071191 -0.023889 573802.000000 0 0 1
21.098283 -17.302988 -18.045823 32.713647 -0.686886 2.155113 0.074110 -0.019752 -289408.000000 0 0 1
19.635283 -17.633488 -17.749023 31.804277 -0.731737 2.162855 0.068686 -0.019628 71044.000000 0 0 1
18.751783 -16.510688 -17.760223 30.653837 -0.721929 2.188764 0.077269 -0.027687 -203033.000000 0 0 1
17.427783 -16.965788 -17.746323 30.108098 -0.771966 2.201137 0.090421 -0.028278 -323063.000000 0 0 1
16.446883 -15.886788 -17.233823 28.633803 -0.768078 2.216637 0.094196 -0.025750 -203824.000000 0 0 1
15.957983 -15.012588 -18.218423 28.494666 -0.754882 2.264465 0.096346 -0.026286 176944.000000 0 0 1
14.689683 -14.512788 -17.843323 27.290877 -0.779341 2.283418 0.105098 -0.022640 683937.000000 0 0 1
13.664683 -14.431788 -19.039023 27.522436 -0.812694 2.334725 0.092967 -0.024630 360029.000000 0 0 1
13.841383 -13.099588 -19.610123 27.344835 -0.757871 2.370489 0.101677 -0.038222 -23250.700000 0 0 1
13.228583 -12.997388 -20.849023 27.903571 -0.776583 2.414607 0.097434 -0.031309 -279629.000000 0 0 1
13.362883 -11.585788 -21.461323 27.809810 -0.714288 2.452334 0.096189 -0.028057 616478.000000 0 0 1
14.648783 -11.203388 -21.981423 28.692956 -0.652906 2.443534 0.084563 -0.019289 274186.000000 0 0 1
14.604183 -9.836388 -22.329523 28.436672 -0.592741 2.473875 0.069236 -0.024178 -504531.000000 0 0 1
15.935283 -9.286788 -22.785823 29.315037 -0.527663 2.461118 0.068130 -0.023516 -632778.000000 0 0 1
16.171283 -9.691288 -24.109423 30.605485 -0.539897 2.477942 0.101664 -0.025697 718719.000000 0 0 1
17.533983 -9.498788 -24.516823 31.602882 -0.496476 2.458744 0.086143 -0.036826 407983.000000 0 0 1
22.138983 4.744312 -6.989923 23.696035 0.211104 1.870234 0.135730 0.023638 27424.900000 0 1 0
22.245683 6.148212 -6.968623 24.108767 0.269647 1.864030 0.138234 0.020843 616160.000000 0 1 0
21.580183 6.689112 -5.845423 23.337041 0.300574 1.823971 0.121694 0.017224 -380742.000000 0 1 0
21.325983 8.190012 -5.873023 23.587417 0.366672 1.822433 0.102667 0.018026 -731500.000000 0 1 0
20.157883 8.501412 -6.579523 22.845227 0.399107 1.862938 0.049798 0.000456 -117880.000000 0 1 0
20.010583 9.828212 -6.927623 23.345431 0.456543 1.872078 0.066170 0.004109 -300683.000000 0 1 0
19.586683 10.875312 -5.909423 23.169632 0.506857 1.828696 0.093225 0.000798 578196.000000 0 1 0
20.594083 11.121712 -4.872123 23.907035 0.495167 1.776029 0.103566 0.008043 941388.000000 0 1 0
20.378583 12.371912 -4.237923 24.213856 0.545626 1.746723 0.126056 -0.006720 218641.000000 0 1 0
21.411283 12.655312 -3.099823 25.064095 0.533819 1.694790 0.124223 -0.021217 -305359.000000 0 0 1
22.668083 13.064212 -3.589223 26.408297 0.522830 1.707131 0.117121 -0.023727 -312813.000000 0 0 1
23.522283 13.446812 -2.579023 27.217015 0.519323 1.665696 0.116471 -0.029144 -197013.000000 0 0 1
24.358683 12.360912 -1.850823 27.378151 0.469593 1.638450 0.115706 -0.022258 -601194.000000 0 0 1
25.465283 11.812312 -2.535323 28.185798 0.434319 1.660868 0.103914 -0.020315 55502.900000 0 0 1
26.055883 10.790712 -1.795723 28.259036 0.392634 1.634384 0.112850 -0.021520 -503699.000000 0 0 1
27.497683 10.518312 -2.230223 29.525097 0.365344 1.646405 0.113022 -0.020011 -593636.000000 0 0 1
28.359783 11.599012 -2.033923 30.707511 0.388237 1.637080 0.098154 -0.029549 566850.000000 0 0 1
29.717483 11.192712 -2.266823 31.836207 0.360205 1.642059 0.085779 -0.028356 864829.000000 0 0 1
30.807283 12.229812 -1.904123 33.200643 0.377898 1.628180 0.071358 -0.031552 -152187.000000 0 0 1
30.715883 12.631712 -0.545623 33.216311 0.390161 1.587223 0.107625 -0.035810 585418.000000 0 0 1
31.695583 13.543312 -0.030023 34.467843 0.403812 1.571667 0.094228 -0.044776 696903.000000 0 0 1
33.119683 13.018812 0.382577 35.588611 0.374530 1.560046 0.102312 -0.042471 637690.000000 0 0 1
34.060183 13.978912 0.751577 36.824868 0.389455 1.550385 0.102013 -0.054295 558777.000000 0 0 1
34.983983 14.457612 -0.276723 37.854698 0.391888 1.578107 0.124496 -0.039186 421901.000000 0 0 1
34.494383 15.644012 -1.153323 37.893637 0.425780 1.601237 0.082055 -0.022004 72845.300000 0 0 1
33.323183 15.345012 -1.903623 36.735918 0.431544 1.622639 0.082359 -0.015664 36662.300000 0 0 1
33.018683 16.321212 -2.851823 36.942500 0.459079 1.648069 0.066619 0.000861 173399.000000 0 0 1
31.742383 16.047712 -3.687223 35.758965 0.468087 1.674093 0.063443 -0.015838 -395217.000000 0 0 1
31.936583 15.102212 -4.734623 35.643215 0.441718 1.704024 0.042719 -0.012178 349556.000000 0 0 1
30.790583 14.968112 -5.571723 34.686431 0.452487 1.732126 0.041270 -0.021129 929437.000000 0 0 1
29.591283 14.186512 -4.922023 33.183241 0.447045 1.719674 0.047027 -0.021702 789479.000000 0 0 1
28.476083 13.793612 -5.745423 32.158372 0.451084 1.750421 0.080870 -0.032951 941437.000000 0 0 1
27.354283 13.358012 -4.997723 30.849157 0.454271 1.733519 0.080411 -0.012980 346405.000000 0 0 1
26.116783 13.103612 -5.880223 29.805503 0.465032 1.769386 0.079059 -0.014757 -224011.000000 0 0 1
26.433883 12.039712 -6.799023 29.831720 0.427389 1.800730 0.070292 -0.004529 899079.000000 0 0 1
25.381483 11.636312 -7.713923 28.967707 0.429864 1.840342 0.101265 -0.009327 651205.000000 0 0 1
24.934083 12.645812 -8.784123 29.305049 0.469367 1.875225 0.113651 -0.012346 102765.000000 0 0 1
24.323383 13.877612 -8.333523 29.217506 0.518481 1.860036 0.101478 -0.021989 279069.000000 0 0 1
24.332983 14.819712 -9.379623 29.994920 0.547039 1.888838 0.106122 -0.026757 -1015230.000000 0 0 1
23.436483 16.055412 -9.226723 29.869339 0.600629 1.884836 0.092918 -0.020302 590213.000000 0 0 1
22.033783 15.802912 -9.236223 28.644850 0.622185 1.899102 0.122077 -0.023376 647906.000000 0 0 1
21.451883 15.280012 -8.035023 27.535861 0.618928 1.866907 0.133480 -0.032870 -381574.000000 0 0 1
20.019883 14.768012 -8.378823 26.250611 0.635561 1.895667 0.161638 -0.014961 7568.680000 0 0 1
19.189883 14.957612 -7.254023 25.389025 0.662086 1.860549 0.191452 -0.048853 -271084.000000 0 0 1
17.915483 14.423112 -7.520123 24.197994 0.677821 1.886804 0.185952 -0.055286 -369072.000000 0 1 0
16.891783 14.754612 -6.424423 23.330326 0.717968 1.849769 0.173214 -0.037790 -188464.000000 0 1 0
17.092383 13.993112 -5.225123 22.699309 0.686025 1.803068 0.166192 -0.032381 159132.000000 0 1 0
16.475083 14.654012 -4.179523 22.441855 0.726964 1.758128 0.138637 -0.023918 -218765.000000 0 1 0
15.983583 13.662412 -3.076223 21.250872 0.707261 1.716064 0.088804 -0.014509 -676462.000000 0 1 0
16.985583 13.054012 -2.339823 21.549757 0.655258 1.679588 0.078350 -0.017061 -125833.000000 0 1 0
16.510983 12.497612 -1.140723 20.738952 0.647920 1.625828 0.054988 -0.011637 -5638.260000 0 1 0
16.560383 13.482512 0.108277 21.355003 0.683305 1.565726 0.053793 -0.011979 -605523.000000 0 1 0
15.581983 14.479112 -0.024823 21.270719 0.748727 1.571963 0.061378 -0.012366 320725.000000 0 1 0
15.605383 15.231612 1.172277 21.838137 0.773278 1.517090 0.057104 -0.010736 127827.000000 0 1 0
14.307683 16.075012 1.298277 21.559251 0.843502 1.510541 0.056635 -0.003218 159378.000000 0 1 0
14.380683 17.200212 0.427177 22.423956 0.874442 1.551745 0.067991 -0.005044 324509.000000 0 1 0
13.587683 18.228212 1.026377 22.758433 0.930233 1.525682 0.057050 -0.012572 182591.000000 0 1 0
13.528283 19.468712 0.137777 23.707892 0.963520 1.564985 0.047972 -0.008581 -91790.600000 0 1 0
12.874783 19.342912 -1.132423 23.263505 0.983527 1.619494 0.043325 -0.017941 -191494.000000 0 1 0
12.285283 20.503912 -1.562123 23.953680 1.030989 1.636057 0.048793 -0.022441 398061.000000 0 1 0
10.739983 20.445212 -1.334623 23.132988 1.087110 1.628522 0.040436 -0.024794 388036.000000 0 1 0
10.442783 20.410612 0.035677 22.926972 1.097884 1.569240 0.032016 -0.025527 -1059360.000000 0 1 0
9.088883 20.201212 0.254177 22.153134 1.148011 1.559322 0.023902 -0.024786 -502727.000000 0 1 0
8.783283 20.159412 1.767177 22.060618 1.159905 1.490605 0.016273 -0.020691 17753.500000 0 1 0
8.531283 21.400912 2.311977 23.154418 1.191462 1.470779 0.012905 -0.011645 -32726.400000 0 1 0
7.426083 21.299312 3.175477 22.779180 1.235321 1.430938 0.006997 -0.019658 -106024.000000 0 1 0
6.943083 22.663312 3.786177 24.003484 1.273517 1.412400 0.008404 -0.009581 -3898.180000 0 1 0
7.625883 23.057812 4.945477 24.784562 1.251392 1.369909 0.015717 -0.011412 63864.300000 0 1 0
7.231883 24.344912 5.384477 25.960883 1.282040 1.361872 0.016052 -0.008724 -123311.000000 0 0 1
7.935383 24.788512 6.663177 26.867053 1.260981 1.320175 0.019253 -0.011311 -235499.000000 0 0 1
7.407583 24.097012 7.763877 26.378325 1.272558 1.272044 0.032177 -0.028714 187506.000000 0 0 1
7.929983 24.429612 9.067477 27.238019 1.256921 1.231421 0.036795 -0.031478 74406.600000 0 0 1
7.304783 23.501412 10.167277 26.627988 1.269440 1.179024 0.043182 -0.032137 459286.000000 0 0 1
5.959183 23.730412 10.556877 26.647551 1.324764 1.163458 0.041229 -0.027653 229385.000000 0 0 1
5.511483 22.593612 11.316077 25.863127 1.331529 1.117938 0.042454 -0.028603 132355.000000 0 0 1
4.181483 22.818512 12.062577 26.147180 1.389558 1.091298 0.035597 -0.032255 78936.600000 0 0 1
3.071983 22.985412 11.217677 25.760484 1.437934 1.120246 0.025724 -0.027640 -394469.000000 0 0 1
1.973883 23.557912 11.902477 26.467723 1.487203 1.104369 0.035532 -0.021393 -594811.000000 0 0 1
0.887883 23.908512 10.934077 26.305119 1.533677 1.142124 0.039378 -0.009282 -1304400.000000 0 0 1
1.184583 24.947112 10.040977 26.918076 1.523348 1.188535 0.040317 -0.018311 -352633.000000 0 0 1
0.318783 25.178212 8.969377 26.730015 1.558136 1.228603 0.026388 -0.014885 574835.000000 0 0 1
-1.117417 25.758212 9.239377 27.387957 -1.527443 1.226694 0.038879 -0.027318 926584.000000 0 0 1
-1.985917 24.904212 9.963677 26.896812 -1.491222 1.191313 0.051336 -0.024731 176399.000000 0 0 1
-3.290517 25.443512 10.036177 27.548587 -1.442184 1.197906 0.070521 -0.028617 64211.000000 0 0 1
-4.462217 24.626512 10.633577 27.192819 -1.391546 1.169031 0.081661 -0.032654 239481.000000 0 0 1
-4.764217 24.489912 12.025377 27.695906 -1.378658 1.121654 0.066698 -0.021548 177134.000000 0 0 1
-5.548917 25.594912 12.466577 29.005267 -1.357303 1.126521 0.078565 -0.020998 65940.100000 0 0 1
-6.119317 25.547512 13.916277 29.728508 -1.335699 1.083643 0.058254 -0.017140 399975.000000 0 0 1
-7.264717 24.711512 14.038977 29.334754 -1.284871 1.071761 0.057426 -0.021445 230182.000000 0 0 1
-7.777617 24.664312 15.355677 30.076842 -1.265327 1.034974 0.035924 0.000103 -240262.000000 0 0 1
-8.986217 23.758212 15.571577 29.793938 -1.209191 1.020849 0.033802 -0.011956 706424.000000 0 0 1
-10.229617 24.360012 15.115977 30.439251 -1.173224 1.051125 0.032065 -0.008000 186853.000000 0 0 1
-11.250017 23.432712 15.257977 30.140682 -1.123196 1.039994 0.036405 -0.015241 880603.000000 0 0 1
-12.681617 24.098412 14.996177 31.087653 -1.086376 1.067422 0.037860 -0.017793 1208080.000000 0 0 1
-13.178917 24.947412 16.004677 32.437739 -1.084791 1.054806 0.021597 -0.010998 25073.200000 0 0 1
-14.186917 25.811912 15.515577 33.290487 -1.068240 1.085957 0.022419 -0.005192 -77374.300000 0 0 1
-14.737617 26.706612 16.702377 34.776571 -1.066546 1.069826 0.025193 -0.003407 231349.000000 0 0 1
-15.855917 26.124312 17.366477 35.149456 -1.025289 1.054025 0.022999 -0.010476 298631.000000 0 0 1
-16.303017 26.960412 18.403877 36.487736 -1.026927 1.042126 0.048558 -0.019258 -836666.000000 0 0 1
-17.539417 26.517212 19.144177 37.111901 -0.986424 1.028797 0.038983 -0.019469 -912657.000000 0 0 1
-18.705217 26.923812 18.485877 37.636477 -0.963605 1.057365 0.033595 -0.011121 136438.000000 0 0 1
-19.866317 26.282012 19.032377 38.047944 -0.923536 1.046942 0.039850 -0.013666 -31261.400000 0 0 1
-21.152017 26.546012 18.286977 38.555312 -0.898006 1.076622 0.052385 -0.023323 -905803.000000 0 0 1
-21.662517 27.890112 18.377077 39.810048 -0.910419 1.090977 0.042245 -0.022925 304161.000000 0 0 1
-22.159117 28.219912 17.097477 39.745611 -0.905127 1.126112 0.070067 -0.022318 -518041.000000 0 0 1
-23.297517 29.231612 17.183377 41.140368 -0.897889 1.139909 0.055038 -0.028868 -40661.900000 0 0 1
-24.530717 28.709112 17.651277 41.683771 -0.863720 1.133539 0.052762 -0.029791 1024130.000000 0 0 1
-25.577877 29.705912 17.660077 42.994736 -0.859930 1.147520 0.059478 -0.034977 1572140.000000 0 0 1
-27.019767 29.313112 18.144777 43.801361 -0.826086 1.143676 0.077526 -0.032776 395343.000000 0 0 1
-27.824297 28.556812 17.287877 43.457493 -0.798390 1.161666 0.102562 -0.026017 299831.000000 0 0 1
-29.165767 28.398812 17.732677 44.402503 -0.772076 1.159975 0.145188 -0.036156 424964.000000 0 0 1
-29.411837 27.168712 18.682277 44.183962 -0.745774 1.134231 0.133535 -0.034832 -488994.000000 0 0 1
-29.588107 26.001512 17.967777 43.294061 -0.720968 1.142835 0.146719 -0.037632 198229.000000 0 0 1
-29.817847 24.875212 18.797177 43.141790 -0.695273 1.119973 0.141720 -0.027294 -63172.800000 0 0 1
-30.133967 23.559712 17.953877 42.254676 -0.663565 1.131948 0.145239 -0.037509 -222245.000000 0 0 1
-31.373337 23.666212 17.286177 42.932363 -0.646274 1.156400 0.166286 -0.040533 79724.700000 0 0 1
-31.458667 22.625512 16.327977 42.049546 -0.623505 1.172007 0.156537 -0.047444 -85779.800000 0 0 1
-31.863397 21.213012 16.832477 41.816267 -0.587367 1.156513 0.147857 -0.046875 1171080.000000 0 0 1
-33.310497 21.058512 16.902577 42.880616 -0.563752 1.165624 0.150507 -0.037912 1533620.000000 0 0 1
-33.589157 19.664812 16.959977 42.456767 -0.529653 1.159864 0.131926 -0.035965 422697.000000 0 0 1
-34.979248 19.391412 16.315277 43.194478 -0.506191 1.183467 0.128340 -0.045840 297601.000000 0 0 1
-34.908852 19.531412 14.900577 42.686429 -0.510106 1.214217 0.092170 -0.037241 505701.000000 0 0 1
-36.218377 19.462412 14.343077 43.546299 -0.493089 1.235154 0.101035 -0.033386 333520.000000 0 0 1
-36.279527 19.858912 12.850577 43.309558 -0.500834 1.269546 0.084802 -0.018479 -125089.000000 0 0 1
-36.086307 21.236812 12.684277 43.750595 -0.531921 1.276651 0.070610 -0.021061 84344.500000 0 0 1
-36.309927 21.726412 11.349377 43.809315 -0.539213 1.308744 0.041097 -0.014436 -99799.000000 0 0 1
-35.366659 21.206612 10.246877 42.491404 -0.540141 1.327244 0.073098 -0.019614 -507155.000000 0 0 1
-35.606571 19.896112 9.789177 41.946527 -0.509556 1.335252 0.088232 -0.016091 681153.000000 0 0 1
-34.434790 19.275412 9.223077 40.526058 -0.510310 1.341201 0.105105 -0.022838 738591.000000 0 0 1
-33.687297 18.245112 10.115377 39.623717 -0.496373 1.312653 0.087124 -0.031335 110493.000000 0 0 1
-33.072727 18.873712 11.246377 39.705204 -0.518576 1.283618 0.093232 -0.028917 382837.000000 0 0 1
-32.572047 17.883212 12.159977 39.097475 -0.502102 1.254533 0.105314 -0.043014 164255.000000 0 0 1
-32.056237 18.551812 13.485777 39.416218 -0.524631 1.221605 0.091237 -0.022593 191369.000000 0 0 1
-30.785537 19.155312 13.389977 38.651866 -0.556596 1.217039 0.111072 -0.030452 -191151.000000 0 0 1
-30.943127 20.597812 13.461077 39.534131 -0.587310 1.223356 0.126243 -0.030622 471455.000000 0 0 1
-29.582757 21.353512 13.453177 38.885729 -0.625223 1.217527 0.140799 -0.037644 170356.000000 0 0 1
-28.900387 21.217212 14.676077 38.740027 -0.633280 1.182259 0.137972 -0.036866 -335538.000000 0 0 1
-27.821177 22.111312 14.735477 38.471577 -0.671541 1.177730 0.154461 -0.040924 -313036.000000 0 0 1
-27.008187 21.893112 16.035277 38.286820 -0.681177 1.138651 0.130556 -0.044745 -68448.100000 0 0 1
-26.364307 20.625712 16.180577 37.179399 -0.663876 1.120533 0.135401 -0.046347 502352.000000 0 0 1
-25.665307 20.404012 17.392677 37.115184 -0.671687 1.083076 0.110307 -0.034871 318331.000000 0 0 1
-24.732117 19.161112 17.630177 35.911683 -0.659151 1.057638 0.116622 -0.033679 267721.000000 0 0 1
-24.350317 19.235012 19.001477 36.386532 -0.668570 1.021354 0.102055 -0.035222 517501.000000 0 0 1
-23.385917 18.216612 19.337677 35.393386 -0.661777 0.992779 0.089513 -0.029085 374483.000000 0 0 1
-22.968217 18.174812 20.818777 35.934444 -0.669415 0.952860 0.086947 -0.028928 670684.000000 0 0 1
-24.000017 17.619012 21.658777 36.817564 -0.633263 0.941875 0.086323 -0.015425 766084.000000 0 0 1
-23.561217 17.740312 23.015977 37.411025 -0.645384 0.908132 0.104126 -0.015675 592803.000000 0 0 1
-24.425017 16.860612 24.004777 38.171861 -0.604187 0.890709 0.100221 -0.013274 2876.790000 0 0 1
-24.116317 15.515312 23.720077 37.215100 -0.571688 0.879706 0.100903 -0.026997 103612.000000 0 0 1
-24.765317 14.622212 24.604477 37.848518 -0.533354 0.863110 0.107126 -0.033429 34921.500000 0 0 1
21.599683 24.850112 33.099383 46.686652 0.855262 0.782761 0.064870 -0.006292 174761.000000 0 0 1
22.544783 23.871112 32.667054 46.316667 0.813965 0.787953 0.077972 -0.016205 228517.000000 0 0 1
22.348783 22.560512 33.234925 45.967434 0.790113 0.762647 0.077598 -0.023178 859316.000000 0 0 1
21.110483 21.678012 32.743205 44.583698 0.798661 0.745983 0.078693 -0.031557 938696.000000 0 0 1
21.439883 21.046312 31.546364 43.563619 0.776135 0.761003 0.088882 -0.025438 350948.000000 0 0 1
20.415983 20.152912 31.128734 42.331434 0.778914 0.744602 0.082543 -0.022622 33531.900000 0 0 1
20.689483 19.599312 29.647834 41.123980 0.758346 0.765642 0.073897 -0.011054 166949.000000 0 0 1
21.903883 18.826812 29.634444 41.381508 0.709995 0.772558 0.065230 -0.013915 465508.000000 0 0 1
22.058983 18.119812 28.394224 40.263609 0.687669 0.788080 0.052072 -0.015232 -502083.000000 0 0 1
23.182283 17.083012 28.417684 40.457537 0.635064 0.792022 0.065793 -0.018411 429481.000000 0 0 1
24.460583 17.756012 28.286374 41.397041 0.627900 0.818531 0.076552 -0.012996 709198.000000 0 0 1
25.466683 16.897312 28.816124 42.005239 0.585812 0.814802 0.070616 -0.007747 -446913.000000 0 0 1
26.802583 17.575612 29.030694 43.244211 0.580402 0.834808 0.086000 -0.016085 -598621.000000 0 0 1
27.646783 17.580512 27.894554 43.029352 0.566397 0.865489 0.066218 -0.005442 -177912.000000 0 0 1
28.960483 17.930912 28.250364 44.252799 0.554382 0.878397 0.083166 -0.007104 377494.000000 0 0 1
30.047083 17.545312 27.184914 44.155234 0.528517 0.907564 0.068667 -0.000271 337430.000000 0 0 1
30.029283 18.342912 26.063074 43.789314 0.548348 0.933291 0.078180 -0.007581 430918.000000 0 0 1
31.146483 18.024212 25.233904 43.951399 0.524604 0.959253 0.082057 -0.002206 230080.000000 0 0 1
31.573383 19.175512 24.265754 44.197348 0.545793 0.989591 0.099731 -0.017049 277243.000000 0 0 1
30.587183 19.623912 23.303694 43.171007 0.570428 1.000597 0.075713 -0.013228 627958.000000 0 0 1
31.078683 20.649912 22.432524 43.537587 0.586459 1.029503 0.059818 -0.020063 -150907.000000 0 0 1
31.620983 20.116312 21.119824 43.018595 0.566591 1.057621 0.077402 -0.033932 -149408.000000 0 0 1
30.628383 19.528612 20.304124 41.613964 0.567608 1.061096 0.082861 -0.035124 32681.500000 0 0 1
31.185083 18.812712 19.241324 41.190485 0.542813 1.084754 0.099054 -0.041034 -342608.000000 0 0 1
32.096383 17.619512 19.529924 41.497505 0.502042 1.080793 0.120140 -0.053545 -196927.000000 0 0 1
31.399683 16.519612 20.111824 40.783859 0.484315 1.055110 0.122628 -0.050611 834614.000000 0 0 1
32.355683 15.471912 20.237524 41.180428 0.446042 1.057059 0.119369 -0.049819 -163256.000000 0 0 1
31.673583 14.094712 20.576024 40.314383 0.418687 1.035159 0.122080 -0.044065 513427.000000 0 0 1
30.999283 13.934112 21.831424 40.394629 0.422436 0.999820 0.094060 -0.041409 571418.000000 0 0 1
29.872383 14.806512 22.057724 39.976684 0.460169 0.986318 0.101140 -0.029119 -249720.000000 0 0 1
29.148083 14.204812 23.291674 39.923545 0.453462 0.947879 0.063987 -0.013054 -237141.000000 0 0 1
28.738083 12.915312 22.912254 38.957080 0.422367 0.942038 0.070897 -0.016560 -183569.000000 0 0 1
28.288383 12.213012 24.025784 39.072094 0.407559 0.908526 0.063111 -0.009407 -126637.000000 0 0 1
27.731383 10.790512 23.749524 38.072360 0.371082 0.897202 0.081470 -0.007094 713236.000000 0 0 1
26.508883 10.828512 22.987804 36.720793 0.387801 0.894363 0.064109 0.006306 648296.000000 0 0 1
26.226483 9.546712 22.415424 35.796918 0.349101 0.894148 0.079117 0.001382 557460.000000 0 0 1
24.999283 9.561012 21.440724 34.294048 0.365287 0.895405 0.070562 -0.001342 1934890.000000 0 0 1
23.653583 9.542512 21.984424 33.672933 0.383458 0.859414 0.060489 -0.006287 2033710.000000 0 0 1
22.638783 9.122312 21.041224 32.225210 0.383047 0.859333 0.053264 0.001957 429332.000000 0 0 1
21.206283 9.143112 21.573324 31.602393 0.407069 0.819416 0.049728 -0.006812 -255981.000000 0 0 1
21.040883 8.307812 22.718124 32.060125 0.376051 0.783270 0.066021 -0.006044 465987.000000 0 0 1
19.686583 8.420412 23.152264 31.535570 0.404175 0.746363 0.073799 -0.004030 489998.000000 0 0 1
19.382583 7.738712 24.479264 32.168409 0.379869 0.705986 0.078403 -0.001122 -124565.000000 0 0 1
19.497483 6.346512 24.466094 31.922089 0.314688 0.697529 0.072532 -0.004086 182055.000000 0 0 1
19.227283 5.661312 25.680894 32.576789 0.286350 0.662725 0.086617 -0.015236 194938.000000 0 0 1
19.842483 4.182212 25.693624 32.731901 0.207730 0.668145 0.086761 -0.018608 -28149.500000 0 0 1
21.238683 4.093012 25.705444 33.594705 0.190381 0.699501 0.100908 -0.012558 -336887.000000 0 0 1
21.597283 2.693012 25.669684 33.654533 0.124052 0.703256 0.079126 -0.006025 301811.000000 0 0 1
23.119783 2.446712 25.504134 34.510456 0.105435 0.739173 0.093055 -0.012784 299226.000000 0 0 1
23.912583 2.843212 26.585344 35.870266 0.118345 0.736011 0.106732 -0.028150 -137990.000000 0 0 1
25.258083 3.078212 26.225224 36.540505 0.121272 0.770299 0.112604 -0.025924 576648.000000 0 0 1
26.244983 3.202512 27.443744 38.107929 0.121423 0.766766 0.097921 -0.035470 -499571.000000 0 0 1
26.625283 1.973512 27.967114 38.664711 0.073986 0.762192 0.093580 -0.042649 176418.000000 0 0 1
27.518183 1.991912 29.075564 40.082496 0.072259 0.759191 0.099768 -0.027271 389372.000000 0 0 1
28.979583 2.415612 28.799364 40.927433 0.083163 0.790248 0.101815 -0.031438 -1120310.000000 0 0 1
29.145883 3.790712 28.364184 40.845794 0.129334 0.803181 0.089702 -0.015764 540179.000000 0 0 1
30.481083 4.267812 28.145264 41.706912 0.139111 0.830056 0.079999 -0.014039 839200.000000 0 0 1
31.279383 3.545012 26.975884 41.456787 0.112852 0.862292 0.073853 -0.015512 -503317.000000 0 0 1
30.680883 3.737912 25.739244 40.221850 0.121234 0.876387 0.071262 -0.014201 -26077.100000 0 0 1
30.734883 2.527912 25.040404 39.724617 0.082064 0.888793 0.068612 0.011126 -214264.000000 0 0 1
30.204083 2.585812 23.576254 38.403291 0.085403 0.909789 0.078833 -0.002403 112375.000000 0 0 1
30.915683 3.431112 22.691124 38.502456 0.110531 0.940552 0.079363 -0.003456 102102.000000 0 0 1
32.260183 3.001312 22.443224 39.413520 0.092768 0.964985 0.074248 -0.006412 143494.000000 0 0 1
32.943383 4.210212 21.747824 39.698365 0.127112 0.991032 0.087443 -0.015028 -800028.000000 0 0 1
32.605583 4.544312 20.437724 38.748876 0.138480 1.015211 0.085035 -0.014603 -266353.000000 0 0 1
33.135883 5.750112 19.929024 39.092410 0.171820 1.035853 0.086424 -0.010145 979763.000000 0 0 1
34.693383 5.742412 19.608424 40.262841 0.164032 1.062133 0.060144 -0.010073 1341750.000000 0 0 1
35.568983 5.780312 20.744124 41.579842 0.161102 1.048469 0.060595 -0.008371 400497.000000 0 0 1
35.608283 6.964512 21.568124 42.209456 0.193149 1.034474 0.074834 -0.015363 -504661.000000 0 0 1
36.295683 6.559512 22.890874 43.409629 0.178794 1.015350 0.066349 -0.020392 401772.000000 0 0 1
35.465983 5.708012 23.707034 43.039991 0.159575 0.987457 0.062977 -0.011812 694530.000000 0 0 1
36.155083 5.347012 24.901724 44.225292 0.146827 0.972706 0.067720 -0.014546 60925.800000 0 0 1
35.477983 4.216612 25.690314 44.005219 0.118297 0.947393 0.063702 -0.011091 -55631.700000 0 0 1
35.410183 3.078412 24.903164 43.399600 0.086718 0.959645 0.069320 -0.013260 6302.900000 0 0 1
35.208783 1.966512 25.726014 43.650353 0.055795 0.940523 0.069904 -0.018787 -158993.000000 0 0 1
35.065483 0.678112 24.923384 43.025841 0.019336 0.952969 0.057666 -0.017525 -754685.000000 0 0 1
33.929283 0.564712 24.138404 41.643459 0.016642 0.952504 0.070285 -0.013938 -694769.000000 0 0 1
33.874183 -0.722388 23.562074 41.269280 -0.021322 0.963152 0.064825 -0.013137 -307521.000000 0 0 1
32.575783 -1.114488 22.871814 39.818885 -0.034199 0.958930 0.073475 -0.012470 -134234.000000 0 0 1
31.442183 -1.299888 23.702174 39.396619 -0.041319 0.925257 0.077124 -0.005296 73107.000000 0 0 1
30.529683 -2.264288 23.178594 38.398382 -0.074031 0.922744 0.086510 -0.009014 14862.100000 0 0 1
29.058883 -1.946288 23.409314 37.365796 -0.066878 0.893754 0.058810 0.001452 -429821.000000 0 0 1
28.626883 -0.714988 22.854944 36.638205 -0.024971 0.897200 0.065623 0.007982 -157510.000000 0 0 1
27.242783 -0.512888 23.068054 35.701084 -0.018824 0.868275 0.075580 0.003678 361805.000000 0 0 1
26.778883 0.967812 22.914204 35.257708 0.036125 0.863335 0.065820 0.014426 82751.200000 0 0 1
26.674783 1.464312 21.575824 34.339546 0.054840 0.891419 0.063838 0.007796 190303.000000 0 0 1
25.716283 2.509112 21.516824 33.624345 0.097261 0.876405 0.077829 0.004720 24176.800000 0 0 1
25.651783 3.366512 20.270424 32.866966 0.130493 0.906200 0.076895 0.002003 -38555.400000 0 0 1
25.214283 2.723412 19.084424 31.739443 0.107594 0.925689 0.072724 0.006689 230457.000000 0 0 1
24.966183 3.738612 18.080124 31.051222 0.148643 0.949281 0.091334 -0.005561 -3090.750000 0 0 1
24.522383 3.268912 16.694824 29.845438 0.132522 0.977163 0.090876 -0.008392 450728.000000 0 0 1
25.575183 2.620512 15.966524 30.263624 0.102107 1.015045 0.095556 -0.014142 594646.000000 0 0 1
25.293283 2.573412 14.576924 29.306302 0.101394 1.050198 0.106145 -0.028297 32299.200000 0 0 1
24.297683 1.528812 13.963924 28.066098 0.062837 1.050039 0.110837 -0.005330 278834.000000 0 0 1
22.925283 1.847312 14.103524 26.979447 0.080406 1.020722 0.099657 0.000598 720384.000000 0 0 1
22.172883 0.690012 13.644024 26.043660 0.031110 1.019384 0.101525 -0.006213 -40196.500000 0 0 1
20.665483 0.620212 14.014524 24.977064 0.030003 0.975087 0.082285 -0.021866 -52.794100 0 1 0
19.706583 1.254312 13.195124 23.749400 0.063564 0.981714 0.103655 -0.021665 375572.000000 0 1 0
19.692983 1.037712 11.791524 22.976737 0.052646 1.031894 0.110114 -0.019978 -1455540.000000 0 1 0
19.512783 -0.422788 11.184724 22.495011 -0.021664 1.050417 0.106167 -0.015465 302657.000000 0 1 0
20.670483 -1.269088 11.241124 23.563580 -0.061319 1.073496 0.121675 -0.034709 180231.000000 0 1 0
21.663883 -0.825888 10.371224 24.032649 -0.038104 1.124589 0.124999 -0.031776 -1294990.000000 0 1 0
22.883683 -1.756188 10.425424 25.207868 -0.076594 1.144416 0.151355 -0.053501 -535050.000000 0 0 1
23.585583 -1.617788 11.595224 26.331468 -0.068485 1.114801 0.131575 -0.054797 -342211.000000 0 0 1
24.668783 -2.506188 11.696024 27.415813 -0.101246 1.130048 0.091925 -0.054149 -24326.700000 0 0 1
25.297783 -2.556688 13.096024 28.601055 -0.100722 1.095180 0.113815 -0.033910 48606.400000 0 0 1
25.990683 -1.423988 13.597724 29.367353 -0.054734 1.089395 0.114000 -0.027903 164742.000000 0 0 1
26.115283 -1.614188 14.980824 30.150269 -0.061732 1.050806 0.093534 -0.018270 37268.600000 0 0 1
27.164083 -0.677288 15.628924 31.346601 -0.024928 1.048831 0.131619 -0.022222 645936.000000 0 0 1
28.515083 -1.000188 15.297324 32.374658 -0.035061 1.078661 0.130740 -0.020269 228315.000000 0 0 1
29.415783 -0.040488 15.720224 33.352891 -0.001376 1.079998 0.107624 -0.023428 -144220.000000 0 0 1
30.867683 -0.504388 15.952424 34.749793 -0.016339 1.093854 0.103358 -0.021006 271583.000000 0 0 1
31.603883 -0.842488 14.762324 34.891853 -0.026651 1.133946 0.134120 -0.028355 810959.000000 0 0 1
32.969383 -1.061088 15.133124 36.292114 -0.032173 1.140675 0.133210 -0.034808 599049.000000 0 0 1
33.715883 -1.977988 14.140324 36.614505 -0.058599 1.174294 0.129756 -0.044428 -50862.600000 0 0 1
33.792783 -1.446188 12.818124 36.171093 -0.042770 1.208551 0.139387 -0.048457 323287.000000 0 0 1
34.625883 -2.195588 11.936224 36.691223 -0.063324 1.239451 0.134001 -0.044426 141622.000000 0 0 1
34.520883 -1.664288 10.536324 36.131362 -0.048174 1.274885 0.161392 -0.032733 197246.000000 0 0 1
35.251983 -0.447488 10.327024 36.736222 -0.012693 1.285843 0.124732 -0.029749 784374.000000 0 0 1
34.326483 0.641412 10.155524 35.802982 0.018683 1.283198 0.126787 -0.033724 65205.700000 0 0 1
34.919683 1.980212 9.613324 36.272876 0.056647 1.302563 0.124202 -0.039940 -142769.000000 0 0 1
35.170283 1.938112 8.188524 36.162923 0.055051 1.342381 0.115735 -0.032955 150621.000000 0 0 1
35.892583 3.065012 7.768424 36.851326 0.085187 1.358398 0.112035 -0.028876 -295648.000000 0 0 1
36.093783 3.092812 6.215124 36.755332 0.085479 1.400885 0.122472 -0.031119 -109044.000000 0 0 1
36.621783 4.331512 5.826924 37.334569 0.117730 1.414083 0.123001 -0.010217 13184.400000 0 0 1
36.482183 4.429912 4.428924 37.016066 0.120835 1.450860 0.137011 -0.016100 -126667.000000 0 0 1
36.768683 5.844912 3.908524 37.434952 0.157645 1.466197 0.148977 -0.025848 620572.000000 0 0 1
35.814383 6.864112 4.315324 36.720677 0.189362 1.453007 0.143393 -0.034949 528916.000000 0 0 1
36.195283 8.126812 3.793524 37.289870 0.220864 1.468889 0.134284 -0.035972 -401862.000000 0 0 1
35.053483 9.158112 3.701324 36.418642 0.255549 1.468988 0.156301 -0.036664 1229800.000000 0 0 1
33.981083 9.095712 2.695524 35.280474 0.261539 1.494319 0.182204 -0.045476 1588850.000000 0 0 1
33.135083 7.951412 2.708624 34.183261 0.235516 1.491475 0.186338 -0.042506 -80110.800000 0 0 1
31.838083 7.998612 1.860224 32.880112 0.246134 1.514190 0.205589 -0.048416 206389.000000 0 0 1
31.957383 7.835812 0.457224 32.907193 0.240452 1.556902 0.205021 -0.040436 151509.000000 0 0 1
30.681283 7.636212 -0.111676 31.617485 0.243932 1.574328 0.176083 -0.038533 -117809.000000 0 0 1
30.850583 7.557112 -1.709176 31.808642 0.240228 1.624555 0.142532 -0.028476 138189.000000 0 0 1
29.827883 6.859112 -2.417476 30.701697 0.226027 1.649619 0.155465 -0.032201 791435.000000 0 0 1
30.262483 6.705612 -3.747776 31.222251 0.218058 1.691122 0.155915 -0.027616 -83878.500000 0 0 1
29.369483 5.850312 -4.707576 30.314253 0.196623 1.726720 0.171868 -0.018724 -217902.000000 0 0 1
29.351483 4.454512 -4.527376 30.030807 0.150615 1.722131 0.173436 -0.018518 858906.000000 0 0 1
28.164983 4.029512 -5.173476 28.918300 0.142104 1.750664 0.152692 -0.007716 313.958000 0 0 1
28.020983 2.458912 -5.095276 28.586423 0.087528 1.749995 0.183558 -0.008285 -215757.000000 0 0 1
27.859083 1.957012 -3.787176 28.183348 0.070132 1.705580 0.192293 -0.013859 439630.000000 0 0 1
27.786283 0.586812 -3.735976 28.042457 0.021116 1.704419 0.186645 -0.023709 -43602.400000 0 0 1
27.733283 0.340012 -2.215876 27.823744 0.012259 1.650521 0.180609 -0.028168 562723.000000 0 0 1
29.056783 0.461312 -1.688576 29.109461 0.015875 1.628837 0.172108 -0.019446 756747.000000 0 0 1
29.092983 0.130712 -0.306476 29.094891 0.004493 1.581330 0.180130 -0.019077 1155420.000000 0 0 1
30.531283 0.608712 0.158824 30.537764 0.019935 1.565595 0.200161 -0.027331 1231370.000000 0 0 1
31.647583 -0.118588 -0.322476 31.649448 -0.003747 1.580986 0.175246 -0.025510 -246025.000000 0 0 1
32.799583 0.469212 0.191524 32.803498 0.014304 1.564958 0.139786 -0.031432 -547501.000000 0 0 1
-3.328617 -21.634788 -8.499623 23.481638 1.418139 1.941175 0.046214 0.008366 10135.700000 0 1 0
-3.624917 -22.235788 -7.238623 23.663642 1.409196 1.881676 0.041951 0.004138 -340634.000000 0 1 0
-2.611217 -23.142488 -6.857223 24.277865 1.458439 1.857141 0.057642 -0.006446 105133.000000 0 1 0
-2.848117 -23.859088 -5.490423 24.647771 1.451986 1.795436 0.057044 -0.002553 -23023.900000 0 1 0
-2.711517 -22.944988 -4.369423 23.514180 1.453167 1.757703 0.045216 -0.003781 -63238.400000 0 1 0
-3.159717 -23.594488 -3.167923 24.014983 1.437671 1.703096 0.056472 -0.011254 -44866.200000 0 1 0
-2.755217 -22.846888 -1.901323 23.090833 1.450781 1.653231 0.054783 -0.015186 -647238.000000 0 1 0
-1.387017 -22.786688 -1.676623 22.890348 1.510002 1.644108 0.052466 -0.013005 -1194600.000000 0 1 0
-1.185017 -22.599388 -0.352023 22.633173 1.518409 1.586350 0.038581 -0.014230 572273.000000 0 1 0
0.328383 -22.588988 0.044177 22.591418 -1.556260 1.568841 0.043747 -0.011792 554864.000000 0 1 0
0.986083 -21.449888 -0.417823 21.476607 -1.524857 1.590252 0.026635 -0.011723 -248367.000000 0 1 0
2.240083 -21.242788 0.213877 21.361643 -1.465733 1.560784 0.021249 -0.009615 254803.000000 0 1 0
3.058183 -20.132888 -0.490523 20.369740 -1.420049 1.594880 0.026013 -0.013214 72938.000000 0 1 0
3.743883 -20.593188 -1.610223 20.992591 -1.390958 1.647576 0.023438 -0.006785 -347803.000000 0 1 0
4.602083 -19.586188 -2.148123 20.233941 -1.340017 1.677161 0.030561 -0.005790 179009.000000 0 1 0
5.475583 -20.114988 -3.290923 21.105093 -1.305022 1.727365 0.031450 -0.006176 -777090.000000 0 1 0
6.388783 -21.126088 -2.870623 22.256878 -1.277128 1.700133 0.036085 -0.008476 595459.000000 0 1 0
7.284483 -21.580988 -3.925523 23.113037 -1.245263 1.741464 0.044354 -0.012059 1438150.000000 0 1 0
8.400983 -20.581188 -4.417723 22.664468 -1.183252 1.766971 0.067528 -0.018470 -68095.800000 0 1 0
7.992783 -19.797388 -5.459123 22.036860 -1.187079 1.821130 0.043195 -0.007852 -631380.000000 0 1 0
9.122883 -19.274888 -6.084323 22.175827 -1.128733 1.848728 0.061325 -0.008697 -467176.000000 0 1 0
8.852583 -18.131588 -7.078423 21.382862 -1.116600 1.908194 0.045390 -0.005036 39444.000000 0 1 0
9.793383 -18.110688 -8.170323 22.150882 -1.075081 1.948566 0.057511 0.007120 619719.000000 0 1 0
9.785183 -16.823688 -8.830523 21.372048 -1.043993 1.996741 0.060222 0.006053 -71656.800000 0 1 0
10.624283 -16.764788 -10.116923 22.277470 -1.005947 2.042195 0.067419 0.002980 -186005.000000 0 1 0
10.038483 -17.312788 -11.296223 22.980610 -1.045339 2.084670 0.069539 0.005128 554802.000000 0 1 0
9.095983 -16.390288 -11.884323 22.194945 -1.064152 2.135839 0.047157 -0.012791 479514.000000 0 1 0
8.191083 -16.908188 -13.021523 22.859150 -1.119670 2.176866 0.058180 -0.017707 43859.100000 0 1 0
7.482983 -18.104388 -12.691523 23.341779 -1.178857 2.145666 0.055539 -0.006551 39710.700000 0 1 0
6.831383 -18.714288 -13.730223 24.195276 -1.220790 2.174233 0.063724 -0.007991 -47707.000000 0 1 0
5.577783 -19.528588 -13.332323 24.294614 -1.292583 2.151697 0.063452 -0.007758 -86783.200000 0 1 0
5.956083 -20.707788 -12.674523 24.998619 -1.290731 2.102507 0.072249 -0.015785 135467.000000 0 1 0
4.893483 -21.591188 -12.284723 25.318768 -1.347919 2.077391 0.105658 -0.014114 349056.000000 0 0 1
5.223983 -23.110888 -12.271623 26.683251 -1.348492 2.048679 0.076946 -0.016160 -512018.000000 0 0 1
5.489483 -23.670388 -13.570323 27.831194 -1.342911 2.080128 0.100114 -0.025521 -32926.800000 0 0 1
5.153383 -25.040028 -13.638423 28.975282 -1.367825 2.060871 0.082693 -0.022320 -496838.000000 0 0 1
3.684883 -25.329378 -13.897923 29.125728 -1.426331 2.068228 0.096786 -0.033445 -777004.000000 0 0 1
2.783383 -24.749788 -12.929823 28.062066 -1.458806 2.049645 0.109806 -0.033733 132520.000000 0 0 1
1.424383 -24.858988 -13.318023 28.237704 -1.513560 2.061946 0.098482 -0.044917 141782.000000 0 0 1
0.734883 -26.157218 -12.909723 29.178778 -1.542709 2.029109 0.092462 -0.038479 -1104350.000000 0 0 1
1.146283 -27.282458 -13.658723 30.532068 -1.528806 2.034604 0.086721 -0.031571 106596.000000 0 0 1
0.755383 -28.549318 -13.139623 31.436982 -1.544344 2.002003 0.086887 -0.032987 1084060.000000 0 0 1
-0.726017 -29.059338 -13.376223 31.998368 1.545818 2.002070 0.081725 -0.038666 1428330.000000 0 0 1
-1.781117 -28.403568 -12.673123 31.153541 1.508171 1.989740 0.072916 -0.038847 347665.000000 0 0 1
-3.030017 -28.920358 -13.053023 31.873963 1.466406 1.992724 0.079259 -0.045044 81403.400000 0 0 1
-4.330917 -28.165868 -12.660123 31.182554 1.418227 1.988869 0.071313 -0.035472 728501.000000 0 0 1
-4.872917 -28.247478 -11.301323 30.812096 1.399970 1.946344 0.062623 -0.042655 329509.000000 0 0 1
-5.410417 -29.476398 -10.942923 31.904204 1.389266 1.920898 0.063714 -0.045515 -699389.000000 0 0 1
-6.037717 -29.611838 -9.504923 31.680571 1.369658 1.875514 0.058728 -0.036332 269987.000000 0 0 1
-7.357217 -29.148918 -9.269023 31.459543 1.323559 1.869868 0.057077 -0.031415 5301.770000 0 0 1
-7.523017 -27.741228 -9.403023 30.242162 1.305980 1.886962 0.060657 -0.034393 -1087350.000000 0 0 1
-8.934517 -27.241858 -9.030323 30.058130 1.253880 1.875938 0.051893 -0.025647 553091.000000 0 0 1
-10.090717 -27.582258 -9.777723 30.954925 1.220080 1.892169 0.072671 -0.030029 307645.000000 0 0 1
-10.265217 -28.944188 -10.083423 32.323616 1.229980 1.888043 0.094014 -0.040295 -906538.000000 0 0 1
-11.518017 -29.276088 -10.950623 33.311713 1.195969 1.905757 0.096965 -0.038946 129330.000000 0 0 1
-11.368117 -28.552558 -12.183723 33.059428 1.191888 1.948234 0.110802 -0.045446 362576.000000 0 0 1
-12.059417 -29.179548 -13.265023 34.246699 1.178892 1.968538 0.115966 -0.040330 -137521.000000 0 0 1
-12.302417 -28.200768 -14.427123 33.981976 1.159441 2.009264 0.120818 -0.042522 -557476.000000 0 0 1
-13.343417 -27.280648 -14.483323 33.645909 1.115893 2.015802 0.105114 -0.052806 -167528.000000 0 0 1
-13.111817 -26.213148 -13.551923 32.290920 1.106989 2.003891 0.107203 -0.042323 392805.000000 0 0 1
-14.206817 -25.103128 -13.703623 31.934151 1.055799 2.014316 0.124041 -0.039236 249193.000000 0 0 1
-13.970917 -24.279088 -14.833923 31.697096 1.048639 2.057811 0.117412 -0.036028 275052.000000 0 0 1
-15.041917 -23.378388 -15.083623 31.627899 0.999067 2.067931 0.128330 -0.037929 -214427.000000 0 0 1
-14.931917 -22.521988 -16.362023 31.589838 0.985341 2.115251 0.116462 -0.037298 628419.000000 0 0 1
-13.792117 -21.625188 -16.487023 30.490870 1.003060 2.142089 0.099651 -0.026891 1077550.000000 0 0 1
-13.774217 -20.859288 -17.664923 30.608634 0.987187 2.185997 0.080986 -0.019481 -565472.000000 0 0 1
-13.879117 -19.331588 -17.507023 29.543799 0.948125 2.205053 0.079755 -0.016872 436752.000000 0 0 1
-12.669517 -18.617788 -17.178823 28.324030 0.973274 2.222461 0.085047 -0.011305 983241.000000 0 0 1
-12.905317 -17.250888 -17.320623 27.643161 0.928515 2.247952 0.090725 -0.011428 -410425.000000 0 0 1
-11.586617 -16.533688 -17.504323 26.721038 0.959541 2.285080 0.106518 -0.023032 -146740.000000 0 0 1
-10.913517 -16.168188 -16.272423 25.402892 0.977047 2.266041 0.109499 -0.019296 1704260.000000 0 0 1
-9.506517 -15.892288 -16.571723 24.850768 1.031713 2.300769 0.103443 -0.015116 1276040.000000 0 1 0
-8.797317 -15.127088 -15.391623 23.305013 1.044046 2.292204 0.089554 -0.012614 27445.500000 0 1 0
-8.248917 -15.885488 -14.323523 22.925023 1.091849 2.245670 0.085047 -0.013658 -129765.000000 0 1 0
-7.086617 -16.598688 -14.663723 23.254276 1.167285 2.253099 0.079540 -0.009253 -437236.000000 0 1 0
-6.511717 -17.418588 -13.465723 22.959429 1.213045 2.197528 0.064834 -0.008101 -394474.000000 0 1 0
-5.943917 -16.637988 -12.416223 21.594337 1.227678 2.183371 0.063170 -0.012861 243229.000000 0 1 0
-5.577217 -17.408788 -11.253323 21.466451 1.260760 2.122605 0.048860 -0.015481 -298623.000000 0 1 0
-4.458217 -18.465488 -11.398523 22.153471 1.333895 2.111250 0.053351 -0.014658 -804446.000000 0 1 0
-3.176517 -17.968388 -11.631023 21.638714 1.395821 2.138278 0.047231 -0.008415 -608977.000000 0 1 0
-2.242617 -19.036088 -11.561723 22.384714 1.453528 2.113556 0.032546 -0.001533 -230136.000000 0 1 0
-0.799817 -18.629588 -11.798823 22.066116 1.527890 2.134953 0.034043 0.007032 -1227580.000000 0 1 0
-0.522817 -18.194688 -13.148923 22.454714 1.542070 2.196386 0.044464 0.000538 68264.700000 0 1 0
0.791883 -17.681088 -13.365223 22.178303 -1.526039 2.217584 0.055770 -0.001898 1031710.000000 0 1 0
1.834683 -18.858388 -13.511623 23.271631 -1.473814 2.190268 0.059759 -0.007713 -349377.000000 0 1 0
1.531483 -19.607288 -14.665323 24.532894 -1.492847 2.211528 0.067263 -0.005625 232595.000000 0 1 0
0.893783 -20.848688 -14.353123 25.327432 -1.527953 2.173295 0.076364 -0.011156 -641346.000000 0 0 1
0.977883 -21.895988 -15.460423 26.821917 -1.526166 2.185125 0.084320 -0.019081 814941.000000 0 0 1
2.239383 -22.454388 -15.862823 27.583392 -1.471395 2.183506 0.119292 -0.024701 679932.000000 0 0 1
3.276083 -21.573388 -16.269723 27.218517 -1.420090 2.211481 0.116638 -0.026954 -215107.000000 0 0 1
4.634883 -22.284588 -16.407223 28.058546 -1.365734 2.195368 0.108452 -0.026487 -112377.000000 0 0 1
4.776483 -23.003988 -17.615323 29.364909 -1.366068 2.214143 0.099004 -0.025594 -434115.000000 0 0 1
6.050883 -23.521388 -17.816323 30.121259 -1.319006 2.203698 0.106144 -0.024858 -438764.000000 0 0 1
6.541183 -23.453588 -19.263123 31.047154 -1.298809 2.240109 0.082603 -0.017039 -12880.000000 0 0 1
6.651983 -22.126988 -19.662623 30.339269 -1.278764 2.275872 0.102063 -0.027494 -101865.000000 0 0 1
7.177383 -22.106888 -20.941123 31.285140 -1.256865 2.304148 0.087226 -0.016202 -56979.500000 0 0 1
7.516283 -20.699688 -21.461023 30.749750 -1.222489 2.343293 0.073972 -0.020679 -19142.500000 0 0 1
6.352983 -19.919888 -21.576523 30.045111 -1.262067 2.371919 0.088417 -0.027716 -178798.000000 0 0 1
6.607983 -18.584488 -21.947323 29.508196 -1.229173 2.409490 0.093301 -0.028362 7225.910000 0 0 1
5.344083 -17.796788 -22.351023 29.066357 -1.279079 2.448018 0.081443 -0.032351 -1356170.000000 0 0 1
4.903983 -18.161888 -23.628923 30.203133 -1.307070 2.469200 0.055451 -0.027285 22189.500000 0 0 1
3.790083 -17.403188 -24.046923 29.924742 -1.356364 2.504082 0.065544 -0.021679 1006440.000000 0 0 1
2.439383 -17.339888 -23.242923 29.100787 -1.431033 2.495935 0.068933 -0.015808 -413754.000000 0 0 1
2.561683 -16.691988 -21.985123 27.722379 -1.418517 2.486590 0.077230 -0.022121 -813157.000000 0 0 1
1.349483 -16.141588 -21.547023 26.956375 -1.487387 2.496975 0.075256 -0.018857 -106378.000000 0 0 1
1.476783 -15.204488 -20.290823 25.398324 -1.473972 2.496267 0.064584 -0.021594 -97406.700000 0 0 1
2.288883 -14.061088 -20.487223 24.953547 -1.409430 2.533982 0.063814 -0.017496 -96226.700000 0 1 0
2.447583 -13.451588 -19.225723 23.591615 -1.390810 2.523420 0.066390 -0.016320 165859.000000 0 1 0
3.579983 -12.408788 -19.246023 23.177655 -1.289920 2.550567 0.069077 -0.022140 36442.900000 0 1 0
4.911383 -12.884988 -19.214223 23.650179 -1.206627 2.519112 0.080818 -0.026787 308310.000000 0 1 0
5.970683 -11.983588 -19.500023 23.653886 -1.108559 2.539920 0.085792 -0.019416 770978.000000 0 1 0
6.296283 -10.860488 -18.407523 22.280715 -1.045405 2.543061 0.089923 -0.020001 -261542.000000 0 1 0
5.317483 -9.825988 -18.382523 21.511458 -1.074761 2.595472 0.062304 -0.009903 -24177.900000 0 1 0
5.495083 -8.740288 -19.241723 21.836494 -1.009536 2.649133 0.073206 -0.020246 -304760.000000 0 1 0
4.767783 -8.950388 -20.601023 22.961780 -1.081340 2.684156 0.079030 -0.026104 -214764.000000 0 1 0
3.374383 -8.791988 -20.445123 22.509744 -1.204331 2.709948 0.075222 -0.029513 -497075.000000 0 1 0
2.758183 -9.292788 -21.602823 23.677953 -1.282270 2.719809 0.067021 -0.022669 -259750.000000 0 1 0
1.242783 -9.051388 -21.576623 23.431235 -1.434346 2.741048 0.053946 -0.023543 -156206.000000 0 1 0
0.969783 -7.694788 -21.799923 23.138429 -1.445426 2.799791 0.057516 -0.022604 -126213.000000 0 1 0
-0.432617 -7.514588 -21.921623 23.177872 1.513290 2.810844 0.051305 -0.019529 318776.000000 0 1 0
-0.825917 -6.374888 -22.856823 23.743540 1.441956 2.867438 0.055966 -0.018390 -92312.300000 0 1 0
-0.583117 -6.798388 -24.143423 25.089101 1.485233 2.866159 0.049996 -0.012373 -393601.000000 0 0 1
-1.145217 -6.024088 -25.213043 25.948000 1.382932 2.903018 0.057976 -0.016993 125748.000000 0 0 1
-0.887317 -4.545888 -25.440763 25.858941 1.378029 2.961508 0.071714 -0.019674 -106719.000000 0 0 1
-1.375117 -4.044488 -26.673753 27.013662 1.243060 2.982789 0.060357 -0.016217 -41193.200000 0 0 1
-0.886417 -2.727588 -26.931023 27.083306 1.256581 3.035498 0.045215 -0.013954 -421715.000000 0 0 1
-1.442217 -1.581788 -26.072903 26.160625 0.831520 3.059677 0.051282 -0.023216 1048100.000000 0 0 1
-2.856217 -1.300288 -26.007363 26.196023 0.427210 3.021505 0.047946 -0.025049 986637.000000 0 0 1
-3.493817 -0.877188 -27.204633 27.442089 0.245984 3.009945 0.064451 -0.018042 221775.000000 0 0 1
-5.042417 -0.998888 -27.060513 27.544420 0.195565 2.953870 0.083611 -0.029969 503704.000000 0 0 1
-5.641617 -0.084088 -26.164663 26.766107 0.014904 2.929201 0.097450 -0.025962 -427252.000000 0 0 1
-7.023617 -0.288088 -26.116933 27.046411 0.040994 2.878668 0.098252 -0.037383 -128836.000000 0 0 1
-7.874917 0.756412 -25.284213 26.492978 -0.095760 2.838353 0.101417 -0.029461 -166697.000000 0 0 1
-8.067517 2.066112 -25.835363 27.144421 -0.250714 2.829765 0.111317 -0.031879 583887.000000 0 0 1
-9.039617 2.187412 -26.885453 28.448673 -0.237417 2.808547 0.115919 -0.036436 1416660.000000 0 0 1
-10.521617 1.655112 -26.803623 28.842295 -0.156027 2.763354 0.115067 -0.027469 -82874.600000 0 0 1
-11.419317 2.072312 -27.756663 30.085339 -0.179521 2.745557 0.124704 -0.031478 -712246.000000 0 0 1
-12.622917 1.377312 -27.539923 30.326265 -0.108682 2.709571 0.072711 -0.018553 -540760.000000 0 0 1
-13.726017 2.126812 -28.316963 31.540089 -0.153725 2.685564 0.052865 -0.009592 -860166.000000 0 0 1
-14.983117 1.506612 -28.172763 31.944768 -0.100217 2.650718 0.032145 -0.005876 -453258.000000 0 0 1
-15.975417 2.174412 -28.863423 33.061143 -0.135279 2.632181 0.021313 -0.011250 -391668.000000 0 0 1
-16.785517 3.322612 -28.257853 33.034824 -0.195419 2.597111 0.023544 0.005918 -328068.000000 0 0 1
-16.141517 4.618312 -28.221353 32.837815 -0.278669 2.604923 0.049707 0.002559 115470.000000 0 0 1
-15.976417 5.292612 -29.485443 33.950684 -0.319898 2.622921 0.047384 -0.006605 -782815.000000 0 0 1
-17.169317 5.883012 -30.224433 35.254951 -0.330109 2.600818 0.031366 0.002593 -615986.000000 0 0 1
-17.810817 6.879212 -29.482963 35.125402 -0.368586 2.566907 0.033529 0.006273 -115395.000000 0 0 1
-18.825717 7.485512 -30.253993 36.410776 -0.378454 2.551533 0.036868 0.004364 -228499.000000 0 0 1
-19.679017 8.458812 -29.417393 36.389534 -0.405962 2.512230 0.041925 0.002491 -65782.000000 0 0 1
-18.978017 9.631612 -28.964593 35.942742 -0.469641 2.507912 0.053365 0.004563 846340.000000 0 0 1
-19.936617 10.576012 -28.460433 36.322403 -0.487735 2.471156 0.073740 -0.000384 476897.000000 0 0 1
-9.254817 25.403012 30.873564 41.038294 -1.221422 0.719233 0.059765 -0.017717 -922463.000000 0 0 1
-9.692717 26.739812 30.926744 42.017017 -1.223045 0.743576 0.069946 -0.009788 218146.000000 0 0 1
-8.868017 27.584312 31.721584 42.962714 -1.259744 0.740174 0.069144 -0.022697 979424.000000 0 0 1
-7.508117 28.044112 31.061864 42.516860 -1.309206 0.751629 0.073433 -0.018618 786314.000000 0 0 1
-7.744017 29.137712 30.220504 42.687877 -1.311028 0.784218 0.095382 -0.024203 631813.000000 0 0 1
-6.568317 29.258712 29.418134 42.007637 -1.349966 0.794972 0.088180 -0.017769 484570.000000 0 0 1
-6.674517 30.463212 28.522474 42.262134 -1.355104 0.829975 0.106307 -0.016307 -174487.000000 0 0 1
-6.561517 31.620512 29.326874 43.623111 -1.366192 0.833514 0.112684 -0.022176 266469.000000 0 0 1
-6.264017 32.811412 28.686264 44.030993 -1.382157 0.861234 0.124194 -0.026542 -349811.000000 0 0 1
-6.646917 -33.927740 29.526254 45.465071 1.377333 0.863965 0.126485 -0.030697 -213168.000000 0 0 1
-5.939717 -33.828640 30.747094 46.098166 1.396986 0.840633 0.120154 -0.028021 -120127.000000 0 0 1
-6.745817 -33.308340 31.747314 46.506381 1.370973 0.819421 0.120958 -0.029021 -222780.000000 0 0 1
-7.645317 33.621412 32.530982 47.403744 -1.347204 0.814471 0.100176 -0.032835 -3558.010000 0 0 1
-7.127917 32.898212 33.631693 47.583508 -1.357429 0.785842 0.119715 -0.027932 16434.000000 0 0 1
-7.238417 31.488212 33.352416 46.435824 -1.344845 0.769516 0.111302 -0.019576 -52014.400000 0 0 1
-6.975717 30.667112 -33.208003 45.737335 -1.347136 2.383370 0.094066 -0.023012 -890052.000000 0 0 1
-5.635817 30.391512 -32.995413 45.211765 -1.387439 2.388821 0.086920 -0.018442 -1011030.000000 0 0 1
-5.416117 30.294612 -31.612513 44.118576 -1.393884 2.369619 0.106400 -0.024479 -158118.000000 0 0 1
-4.001817 29.891512 -31.150403 43.357405 -1.437710 2.372377 0.100310 -0.031645 184906.000000 0 0 1
-3.462217 28.596112 -31.423573 42.628224 -1.450310 2.399645 0.102799 -0.024660 156467.000000 0 0 1
-3.050717 28.389312 -32.788773 43.478311 -1.463747 2.425141 0.100474 -0.021250 -296149.000000 0 0 1
-2.360617 27.042212 -33.035823 42.757681 -1.483723 2.453768 0.099022 -0.027048 -1070470.000000 0 0 1
-1.197417 26.820912 -32.279193 41.985014 -1.526181 2.447800 0.113613 -0.028791 -16841.900000 0 0 1
-0.527717 25.597312 -32.540313 41.404985 -1.550183 2.474952 0.120634 -0.024469 274319.000000 0 0 1
-0.011317 25.404212 33.817024 42.296160 -1.570351 0.644285 0.097621 -0.013764 -1046260.000000 0 0 1
-1.048617 25.024912 32.966770 41.402339 -1.528918 0.649719 0.103367 -0.012830 -323088.000000 0 0 1
-0.691617 24.980112 31.579984 40.271326 -1.543117 0.669422 0.117316 -0.013544 87726.400000 0 0 1
-0.445617 26.335712 30.834914 40.553177 -1.553877 0.706933 0.096195 -0.015282 572158.000000 0 0 1
-1.624217 27.136412 30.831024 41.104439 -1.511014 0.722635 0.089595 -0.016374 299670.000000 0 0 1
-1.389517 28.336312 30.083964 41.351205 -1.521799 0.756091 0.082364 -0.013469 757637.000000 0 0 1
-2.497217 29.455412 30.222604 42.276035 -1.486219 0.774333 0.093008 -0.019412 648198.000000 0 0 1
-2.253517 30.161412 31.440334 43.626639 -1.496220 0.766031 0.107832 -0.018530 42843.600000 0 0 1
-3.142217 31.228712 31.703074 44.611555 -1.470514 0.780379 0.106974 -0.016109 -38861.200000 0 0 1
-2.641017 31.899512 32.963860 45.947468 -1.488193 0.770698 0.120084 -0.019071 -54166.400000 0 0 1
-1.385017 32.471212 32.745246 46.136200 -1.528168 0.781651 0.120762 -0.024564 -521704.000000 0 0 1
-0.794017 33.114612 33.861714 47.369015 -1.546823 0.774388 0.104439 -0.017886 246649.000000 0 0 1
0.675583 33.548912 33.652623 47.523519 1.550662 0.783956 0.112002 -0.026721 80585.100000 0 0 1
0.794083 -33.343740 32.672603 46.689769 -1.546986 0.795706 0.129719 -0.038344 45477.100000 0 0 1
2.104083 -32.827940 32.587955 46.304164 -1.506790 0.790092 0.099919 -0.037501 -148299.000000 0 0 1
2.089983 -31.350840 32.053635 44.885172 -1.504230 0.775423 0.105318 -0.035497 -192341.000000 0 0 1
1.560783 -30.356840 32.908234 44.798724 -1.519427 0.745749 0.099150 -0.023587 206852.000000 0 0 1
1.806783 -29.040640 32.466849 43.597242 -1.508661 0.730712 0.077540 -0.033726 -42971.000000 0 0 1
1.603983 -28.093940 33.640878 43.858305 -1.513765 0.696588 0.068032 -0.035251 830604.000000 0 0 1
0.201583 -27.880940 33.865754 43.866579 -1.563566 0.688788 0.059792 -0.032648 631598.000000 0 0 1
-0.127117 -27.469040 -32.676293 42.688458 1.566169 2.442552 0.056840 -0.028451 -119969.000000 0 0 1
-1.639117 -27.460940 -32.402863 42.505711 1.511178 2.437683 0.091529 -0.035500 -126610.000000 0 0 1
-2.000117 -26.946640 -31.127573 41.219506 1.496707 2.426704 0.075905 -0.034276 759664.000000 0 0 1
-3.356617 -26.475140 -31.097613 40.978793 1.444685 2.432374 0.093465 -0.036262 680848.000000 0 0 1
-3.832617 -25.829940 -29.783433 39.609691 1.423492 2.421770 0.095914 -0.045011 -239753.000000 0 0 1
-4.058417 -26.724740 -28.712343 39.434517 1.420088 2.386345 0.099886 -0.041517 -110804.000000 0 0 1
-4.424917 -26.047740 -27.510763 38.143240 1.402526 2.376400 0.111253 -0.036248 476677.000000 0 0 1
-3.299417 -25.481040 -26.545803 36.943866 1.442028 2.372503 0.105778 -0.034751 303919.000000 0 0 1
-2.531817 -24.497140 -27.171613 36.671740 1.467810 2.405267 0.100007 -0.039545 -250569.000000 0 0 1
-1.398717 -24.257840 -26.380723 35.865607 1.513200 2.397265 0.070957 -0.035426 -1048430.000000 0 0 1
-0.508717 -23.029740 -26.773223 35.319020 1.548710 2.431099 0.043012 -0.027634 683374.000000 0 0 1
0.222083 -23.212540 -28.009113 36.378314 -1.561229 2.449543 0.006705 -0.024684 588872.000000 0 0 1
1.180483 -24.275240 -28.023893 37.094735 -1.522206 2.427165 -0.000632 -0.015162 -305028.000000 0 0 1
1.898083 -24.628040 -29.362543 38.370588 -1.493878 2.442204 0.003060 -0.020853 291379.000000 0 0 1
2.957483 -23.747240 -29.650333 38.102760 -1.446894 2.462539 0.022283 -0.016423 226208.000000 0 0 1
3.680983 -23.998040 -30.860033 39.265725 -1.418596 2.474992 0.043145 -0.018464 185.525000 0 0 1
4.709783 -22.841040 -31.183593 38.939846 -1.367448 2.499450 0.060127 -0.028294 527131.000000 0 0 1
5.910483 -22.718640 -30.412483 38.418609 -1.316278 2.484233 0.038838 -0.027977 1125670.000000 0 0 1
6.831383 -23.809940 -30.567443 39.343991 -1.291389 2.460568 0.054465 -0.017623 -184935.000000 0 0 1
7.630683 -23.990040 -31.887693 40.627261 -1.262839 2.473305 0.062217 -0.019132 -636249.000000 0 0 1
6.957983 -24.776540 -32.844933 41.726252 -1.297019 2.476975 0.044928 -0.022364 -221819.000000 0 0 1
7.219983 -24.670440 33.594327 42.300562 -1.286090 0.653137 0.065415 -0.026102 -175981.000000 0 0 1
6.696983 -23.354440 32.967340 40.952716 -1.291536 0.635104 0.084894 -0.036466 302259.000000 0 0 1
5.281383 -23.225740 33.011223 40.707110 -1.347205 0.625031 0.091990 -0.038132 216512.000000 0 0 1
4.863483 -22.119640 32.320098 39.465436 -1.354368 0.611223 0.115817 -0.056837 437006.000000 0 0 1
3.486483 -21.455040 32.692664 39.259197 -1.409703 0.586760 0.113607 -0.062810 1560980.000000 0 0 1
2.259983 -22.159440 32.471604 39.377066 -1.469160 0.601244 0.102938 -0.054681 579645.000000 0 0 1
1.978883 -23.145740 33.473365 40.744416 -1.485507 0.606681 0.092196 -0.049705 -18491.900000 0 0 1
0.611983 -23.870940 33.338122 41.007641 -1.545165 0.621556 0.097647 -0.047328 296483.000000 0 0 1
0.630283 -24.798740 32.362065 40.775949 -1.545386 0.654002 0.099378 -0.044845 -862868.000000 0 0 1
-0.637717 -25.261840 32.058509 40.820525 1.545557 0.667531 0.118924 -0.052249 -767029.000000 0 0 1
-0.683317 -26.370040 31.003174 40.706790 1.544890 0.704984 0.117447 -0.047458 1038160.000000 0 0 1
-2.042217 -26.738940 30.662094 40.734574 1.494568 0.718599 0.122288 -0.047444 1195420.000000 0 0 1
-1.988417 -27.875340 29.890034 40.919464 1.499584 0.751801 0.131032 -0.046081 -651932.000000 0 0 1
-3.175917 -28.046040 28.991694 40.462144 1.458037 0.772004 0.146037 -0.040794 -77462.000000 0 0 1
-4.432217 -28.195640 29.672994 41.171898 1.414877 0.765971 0.148101 -0.041731 466816.000000 0 0 1
-5.449817 -28.469840 28.723774 40.807934 1.381660 0.789955 0.158494 -0.030357 778845.000000 0 0 1
-6.754317 -28.899940 29.520834 41.860566 1.341204 0.788065 0.145085 -0.023804 1348010.000000 0 0 1
-7.861517 -29.492340 28.780994 41.951724 1.310292 0.814750 0.153581 -0.021238 713184.000000 0 0 1
-9.042117 -29.557440 29.518574 42.740477 1.273920 0.808413 0.126171 -0.018263 -466141.000000 0 0 1
-9.185717 -30.780540 30.458244 44.266507 1.280784 0.811977 0.105929 -0.016339 -528630.000000 0 0 1
-9.401417 -32.038940 29.836854 44.778546 1.285371 0.841533 0.120894 -0.017880 -257382.000000 0 0 1
-10.740617 -32.260040 29.498174 45.013479 1.249401 0.856192 0.118315 -0.018666 -489416.000000 0 0 1
-10.946417 -33.686940 28.864464 45.692354 1.256614 0.887035 0.144749 -0.022283 -182623.000000 0 0 1
-10.693117 33.213012 29.810184 45.892199 -1.259320 0.863778 0.142117 -0.018918 322036.000000 0 0 1
-10.384217 31.943812 29.230104 44.526824 -1.256494 0.854679 0.134556 -0.031945 -30899.200000 0 0 1
-10.697917 30.875812 30.241404 44.523069 -1.237259 0.824083 0.118963 -0.013799 987442.000000 0 0 1
-12.120217 30.629112 30.287204 44.747702 -1.193995 0.827330 0.116681 -0.008811 1001150.000000 0 0 1
-12.488017 29.464612 31.061274 44.597271 -1.169916 0.800311 0.105280 -0.017115 175153.000000 0 0 1
-12.644717 29.543112 32.549130 45.739809 -1.166380 0.779002 0.110478 -0.023613 -621776.000000 0 0 1
-13.802917 30.184212 32.970079 46.782830 -1.141897 0.788729 0.109253 -0.017600 -412054.000000 0 0 1
-14.004017 29.997912 -33.491093 47.091830 -1.134033 2.361981 0.115704 -0.024948 -411305.000000 0 0 1
-15.407017 30.291912 -32.964703 47.346042 -1.100278 2.340957 0.107067 -0.018598 -366073.000000 0 0 1
-15.632717 29.819612 -31.612543 46.183806 -1.087943 2.324706 0.083830 -0.008510 -1603980.000000 0 0 1
-16.923717 29.938612 -31.197693 46.433056 -1.056297 2.307548 0.091522 -0.012131 -1227420.000000 0 0 1
-17.074917 29.643012 -29.676153 45.287249 -1.048197 2.285359 0.095860 -0.016522 54160.800000 0 0 1
-16.982617 28.252712 -29.448183 44.202041 -1.029571 2.299922 0.083590 -0.015718 128274.000000 0 0 1
-16.988817 28.007912 -28.094363 43.155026 -1.025558 2.279711 0.060386 -0.012592 -26433.500000 0 0 1
-17.377317 26.544012 -27.744683 42.146448 -0.991152 2.289344 0.056269 -0.013960 203186.000000 0 0 1
-18.741217 26.323612 -28.044133 42.785969 -0.952092 2.285577 0.073173 -0.013503 49104.000000 0 0 1
-19.304417 25.243812 -27.332113 41.916046 -0.917942 2.281105 0.058749 -0.011191 368392.000000 0 0 1
-20.749617 24.838312 -27.686063 42.591154 -0.874847 2.278437 0.038103 -0.011628 100767.000000 0 0 1
-21.847617 25.617912 -27.279813 43.333404 -0.864664 2.251748 0.040615 -0.012064 -128088.000000 0 0 1
-23.051217 24.956312 -27.576803 43.756784 -0.825061 2.252645 0.060389 -0.016449 -365242.000000 0 0 1
-24.006917 24.949312 -26.398373 43.539342 -0.804646 2.222209 0.069670 -0.020138 -609969.000000 0 0 1
-24.716917 26.126412 -26.165843 44.476586 -0.813113 2.199759 0.042101 -0.012709 586659.000000 0 0 1
-25.830397 26.069912 -25.241063 44.541676 -0.790013 2.173272 0.050826 -0.016510 740418.000000 0 0 1
-25.604257 25.621712 -23.730023 43.303164 -0.785739 2.150765 0.055026 -0.011154 -980450.000000 0 0 1
-25.727587 24.237212 -23.378223 42.377971 -0.755579 2.155149 0.076002 -0.010966 510927.000000 0 0 1
-27.009507 23.590112 -23.261423 42.744597 -0.717923 2.146226 0.078235 -0.009865 625447.000000 0 0 1
-27.869707 23.875912 -22.003623 42.789474 -0.708370 2.110906 0.086269 -0.010760 -27961.800000 0 0 1
-27.265627 23.612212 -20.733123 41.603045 -0.713714 2.092498 0.080186 -0.004061 532073.000000 0 0 1
-26.295257 24.556312 -20.248123 41.284857 -0.751215 2.083401 0.082336 -0.006719 290041.000000 0 0 1
-25.314027 23.953112 -19.200923 39.789784 -0.757782 2.074371 0.069773 -0.013003 -132432.000000 0 0 1
-25.836027 23.616412 -17.934423 39.330379 -0.740544 2.044285 0.080558 -0.013572 -182227.000000 0 0 1
-24.836517 23.459712 -16.968223 38.146182 -0.756898 2.031771 0.075126 -0.023560 -241334.000000 0 0 1
-25.408407 23.711712 -15.546423 38.072610 -0.750870 1.991427 0.071684 -0.024108 21687.100000 0 0 1
-25.810337 24.991812 -15.218723 39.017607 -0.769288 1.971480 0.076369 -0.023520 -83672.000000 0 0 1
-26.394357 25.018712 -13.938723 38.947221 -0.758648 1.936801 0.058216 -0.022121 257276.000000 0 0 1
-26.494067 26.387812 -13.268523 39.677524 -0.783389 1.911774 0.064682 -0.012303 878027.000000 0 0 1
-25.137327 26.704312 -12.949123 38.893254 -0.815615 1.910216 0.080534 -0.019108 535958.000000 0 0 1
-25.020217 27.754912 -11.958223 39.234493 -0.837170 1.880513 0.079902 -0.013499 -1066840.000000 0 0 1
-23.651617 28.013512 -11.418923 38.399839 -0.869625 1.872732 0.091032 -0.022157 -944536.000000 0 0 1
-23.038117 26.923412 -10.734023 37.024913 -0.863008 1.864933 0.086744 -0.024139 1012160.000000 0 0 1
-21.731817 27.163112 -10.191823 36.248859 -0.896026 1.855802 0.084919 -0.028301 446617.000000 0 0 1
-20.822717 26.075412 -9.689523 34.747654 -0.896936 1.853397 0.130677 -0.034451 -106126.000000 0 0 1
-20.327817 25.216512 -10.696823 34.110330 -0.892328 1.889773 0.111743 -0.034695 352326.000000 0 0 1
-19.252117 24.412112 -10.215723 32.725467 -0.903027 1.888267 0.112018 -0.031330 117979.000000 0 0 1
-18.902917 23.244912 -11.165223 31.973558 -0.888054 1.927515 0.106733 -0.033411 -208250.000000 0 0 1
-17.910317 22.328512 -10.741923 30.573367 -0.894759 1.929808 0.081244 -0.028001 302109.000000 0 0 1
-17.482117 21.386312 -11.670023 29.986466 -0.885509 1.970534 0.096492 -0.023890 47856.500000 0 0 1
-17.179417 20.165912 -10.847023 28.626111 -0.865198 1.959426 0.084149 -0.023910 678842.000000 0 0 1
-18.385217 19.505112 -10.383823 28.745249 -0.814946 1.940390 0.073510 -0.016466 1004320.000000 0 0 1
-18.115617 18.285012 -9.723523 27.514798 -0.790052 1.931991 0.099084 -0.031866 -509602.000000 0 0 1
-19.385217 17.390812 -9.827023 27.835182 -0.731220 1.931618 0.078687 -0.008752 -45093.900000 0 0 1
-19.758217 16.912012 -11.139423 28.292932 -0.707937 1.975469 0.063358 -0.012968 13196.100000 0 0 1
-20.380917 17.858212 -11.959623 29.619758 -0.719522 1.986432 0.070563 -0.014307 -797830.000000 0 0 1
-21.002417 17.279712 -13.225323 30.242340 -0.688459 2.023403 0.070267 -0.016776 -440444.000000 0 0 1
-20.155617 17.053712 -14.279723 30.016470 -0.702227 2.066590 0.068781 -0.023596 -239141.000000 0 0 1
-20.941417 16.596412 -15.358623 30.819979 -0.670161 2.092472 0.092904 -0.017394 293236.000000 0 0 1
-20.087117 16.449912 -16.632923 30.834169 -0.686177 2.140558 0.103748 -0.023450 -341937.000000 0 0 1
-19.726517 17.623912 -17.318023 31.617268 -0.729164 2.150456 0.085329 -0.027242 103035.000000 0 0 1
-18.770717 17.304312 -18.303323 31.413224 -0.744772 2.192798 0.078983 -0.019457 -386990.000000 0 0 1
-17.832817 18.430412 -18.759523 31.774347 -0.801876 2.202349 0.062150 -0.015424 -195358.000000 0 0 1
-16.829817 18.667612 -17.776323 30.785063 -0.837125 2.186378 0.070543 -0.020299 175429.000000 0 0 1
-16.085217 19.784612 -18.233123 31.346640 -0.888169 2.191566 0.075410 -0.018492 -179673.000000 0 0 1
34.081531 29.714612 2.396577 45.279714 0.717054 1.517843 0.086486 -0.019186 271642.000000 0 0 1
35.334101 30.013812 1.808377 46.396097 0.704163 1.531810 0.097889 -0.024057 341336.000000 0 0 1
35.067081 30.882412 0.767477 46.733420 0.722030 1.554373 0.081384 -0.015643 -25179.600000 0 0 1
36.288551 31.149012 -0.112323 47.823974 0.709333 1.573145 0.063104 -0.019588 -343546.000000 0 0 1
-37.093697 31.630912 0.519577 48.751686 -0.706077 1.560138 0.051790 -0.015886 -773629.000000 0 0 1
-36.023996 31.618312 -0.348423 47.932946 -0.720358 1.578065 0.033157 -0.012287 -119345.000000 0 0 1
-34.877335 32.631912 -0.000223 47.762644 -0.752149 1.570801 0.029915 -0.012125 704418.000000 0 0 1
-34.128880 32.411112 1.201277 47.081883 -0.759588 1.545279 0.018211 -0.009043 120464.000000 0 0 1
-33.651837 33.573812 1.721777 47.566916 -0.784238 1.534591 0.011782 -0.008939 -273955.000000 0 0 1
-32.849097 33.370912 3.042377 46.924801 -0.793278 1.505916 0.028453 -0.006981 -107832.000000 0 0 1
-32.456337 -33.305340 3.607477 46.644114 0.798308 1.493379 0.039675 -0.006057 99774.700000 0 0 1
-31.794607 -33.524640 4.845077 46.457220 0.811878 1.466315 0.049353 -0.012141 -469761.000000 0 0 1
-31.587177 -32.249440 5.664077 45.495691 0.795772 1.445975 0.068434 -0.012018 488752.000000 0 0 1
-32.681427 -31.581640 6.346577 45.888503 0.768286 1.432047 0.069385 -0.012850 702048.000000 0 0 1
-33.239087 -32.390640 7.369677 46.992580 0.772471 1.413320 0.066076 -0.024877 -81310.300000 0 0 1
-34.232312 -31.705040 8.459277 47.419617 0.747089 1.391444 0.091588 -0.024935 1191030.000000 0 0 1
-35.550023 -31.383140 8.058977 48.100444 0.723224 1.402458 0.077874 -0.027678 442277.000000 0 0 1
-36.369977 -32.540040 7.837977 49.427354 0.729876 1.411548 0.054049 -0.023586 -408303.000000 0 0 1
36.659591 -32.284140 7.558377 49.429954 -0.722019 1.417283 0.053648 -0.022700 22742.600000 0 0 1
35.866611 -32.615440 8.669177 49.247694 -0.737959 1.393842 0.053716 -0.026177 -81400.400000 0 0 1
34.505101 -32.566640 8.297777 48.166805 -0.756505 1.397661 0.039362 -0.013213 -454621.000000 0 0 1
33.587891 -32.481440 9.477177 47.676066 -0.768653 1.370681 0.060505 -0.035190 -826593.000000 0 0 1
32.229661 -32.237140 9.247677 46.513479 -0.785514 1.370646 0.064475 -0.039828 -7654.710000 0 0 1
31.370371 -32.145140 10.364377 46.095884 -0.797596 1.344014 0.075463 -0.036446 182820.000000 0 0 1
31.313381 -30.793540 11.097177 45.298093 -0.777028 1.323296 0.081464 -0.038439 -518504.000000 0 0 1
30.627211 -29.718140 10.482577 43.944036 -0.770335 1.329930 0.060022 -0.035933 15094.800000 0 0 1
31.178811 -29.162140 9.342677 43.701651 -0.751989 1.355350 0.065435 -0.038506 -664481.000000 0 0 1
30.582611 -27.830340 9.011277 42.320527 -0.738316 1.356224 0.064208 -0.032684 -533451.000000 0 0 1
31.110631 -27.242940 7.862077 42.093484 -0.719215 1.382916 0.063301 -0.032357 -242066.000000 0 0 1
30.554541 -25.994140 7.543377 40.818841 -0.704927 1.384927 0.075242 -0.032110 -151541.000000 0 0 1
30.826741 -25.512840 6.093377 40.476193 -0.691357 1.419680 0.063397 -0.025137 -707603.000000 0 0 1
32.137341 -25.210140 5.792677 41.254272 -0.665187 1.429917 0.068623 -0.026347 -1258130.000000 0 0 1
32.248881 -24.699340 4.481277 40.867219 -0.653598 1.460921 0.056847 -0.022069 -1177060.000000 0 0 1
33.617251 -24.351540 3.980777 41.700883 -0.626899 1.475190 0.066796 -0.020341 -1468090.000000 0 0 1
34.271661 -25.530440 3.700577 42.895738 -0.640257 1.484420 0.060443 -0.016027 -711208.000000 0 0 1
35.621661 -25.184740 3.493777 43.765058 -0.615413 1.490881 0.068960 -0.019932 1314.120000 0 0 1
36.636441 -26.355440 3.528277 45.269049 -0.623613 1.492777 0.063761 -0.015306 -19071.100000 0 0 1
36.641231 -26.960440 4.806177 45.744338 -0.634348 1.465536 0.049153 -0.017517 -138513.000000 0 0 1
37.204381 -28.246840 4.746077 46.952904 -0.649385 1.469542 0.040955 -0.015969 -868653.000000 0 0 1
36.638241 -29.086040 5.899977 47.150484 -0.670993 1.445337 0.047847 -0.018749 302857.000000 0 0 1
35.345061 -29.638540 5.752677 46.484510 -0.697808 1.446724 0.029763 -0.015204 -272408.000000 0 0 1
34.322161 -28.689140 5.931277 45.124910 -0.696238 1.438974 0.042483 -0.016357 -2393920.000000 0 0 1
33.041191 -29.408840 6.252377 44.673173 -0.727300 1.430377 0.057920 -0.018058 -1192760.000000 0 0 1
32.398521 -30.038940 5.183377 44.484486 -0.747625 1.454010 0.032734 -0.018395 -334785.000000 0 0 1
31.660101 -29.183840 4.361977 43.279156 -0.744722 1.469838 0.042786 -0.020463 -1296560.000000 0 0 1
30.236931 -29.658340 4.070077 42.549438 -0.775738 1.474995 0.054624 -0.023451 -155012.000000 0 0 1
30.281191 -30.875340 3.368777 43.377250 -0.795113 1.493056 0.058805 -0.012323 211130.000000 0 0 1
28.967901 -31.382440 3.583277 42.858333 -0.825386 1.487091 0.080816 -0.013924 374851.000000 0 0 1
28.698801 -32.727540 2.852077 43.621639 -0.850891 1.505367 0.081755 -0.011030 -192060.000000 0 0 1
28.660101 -32.630440 1.439477 43.453643 -0.850087 1.537664 0.076050 -0.006657 206161.000000 0 0 1
28.601001 33.949412 0.978877 44.402004 0.870696 1.548749 0.067280 0.000523 -162669.000000 0 0 1
28.422701 33.798812 -0.516623 44.164199 0.871587 1.582494 0.058180 -0.003901 -625571.000000 0 0 1
29.393301 -33.490540 -1.263223 44.577776 -0.850462 1.599138 0.057256 -0.007205 -390455.000000 0 0 1
28.993401 -33.481340 -2.623123 44.367761 -0.857111 1.629953 0.051808 -0.004345 -558825.000000 0 0 1
30.040521 -32.978240 -3.579623 44.752775 -0.831981 1.650868 0.048907 -0.006181 -562120.000000 0 0 1
30.318621 -31.630140 -3.373723 43.943902 -0.806566 1.647645 0.036510 -0.006086 -206787.000000 0 0 1
31.152011 -31.217140 -4.407023 44.321321 -0.786442 1.670394 0.032902 -0.006339 -387109.000000 0 0 1
31.723321 -29.764440 -4.327923 43.715236 -0.753551 1.669961 0.020628 -0.000727 70248.300000 0 0 1
30.811451 -28.677640 -4.712723 42.355192 -0.749545 1.682294 0.029726 -0.011222 802063.000000 0 0 1
31.384291 -27.345840 -4.726023 41.893961 -0.716743 1.683846 0.030803 -0.017687 151388.000000 0 0 1
32.343461 -27.016940 -5.891223 42.552568 -0.695906 1.709688 0.044010 -0.022029 641228.000000 0 0 1
33.622161 -27.660540 -5.721223 43.912271 -0.688423 1.701455 0.035955 -0.005033 263174.000000 0 0 1
34.639271 -27.171340 -6.542223 44.507993 -0.665161 1.718321 0.052793 -0.016119 -257538.000000 0 0 1
34.703671 -27.780440 -7.993523 45.166293 -0.675048 1.748713 0.047836 -0.025458 -790550.000000 0 0 1
33.519551 -27.628540 -8.748723 44.310683 -0.689355 1.769543 0.038584 -0.022380 -214050.000000 0 0 1
33.305821 -28.733640 -9.645823 45.032673 -0.711833 1.786665 0.025413 -0.007359 199867.000000 0 0 1
33.009131 -30.170540 -8.995423 45.615588 -0.740500 1.769298 0.018745 -0.002345 -370068.000000 0 0 1
34.113881 -30.834140 -8.442623 46.752315 -0.734943 1.752374 0.029468 -0.002239 -887113.000000 0 0 1
33.758051 -31.966340 -7.685823 47.122444 -0.758144 1.734632 0.030940 -0.008057 -569416.000000 0 0 1
34.914911 -32.811240 -7.199323 48.450580 -0.754347 1.719940 0.031018 -0.003287 -530265.000000 0 0 1
34.695701 33.884212 -6.455123 48.924432 0.773566 1.703123 0.027132 -0.007741 -265284.000000 0 0 1
34.181221 -33.941640 -5.129223 48.442747 -0.781881 1.676877 0.031484 -0.005986 31272.800000 0 0 1
34.012391 32.577512 -4.545623 47.315956 0.763854 1.667014 0.023429 -0.010522 180455.000000 0 0 1
32.973231 31.822512 -5.153723 46.113632 0.767641 1.682792 0.032744 -0.023795 211428.000000 0 0 1
33.135971 30.423612 -4.978623 45.258981 0.742750 1.681022 0.034929 -0.009786 -263612.000000 0 0 1
31.906391 29.675412 -5.470323 43.915513 0.749186 1.695685 0.050903 -0.026194 -471084.000000 0 0 1
31.729351 29.785212 -6.869023 44.057848 0.753804 1.727344 0.024900 -0.019336 -1052500.000000 0 0 1
30.422181 29.549112 -7.220423 43.020851 0.770841 1.739430 0.009874 -0.012906 -1141700.000000 0 0 1
30.293711 29.250812 -8.722223 43.004605 0.767885 1.775034 0.018973 -0.013360 -465016.000000 0 0 1
30.894071 28.030112 -9.061823 42.687790 0.736832 1.784705 0.037496 -0.019585 66587.600000 0 0 1
31.188321 27.800012 -10.445423 43.065750 0.728021 1.815786 0.028353 -0.014599 -92687.900000 0 0 1
32.433481 28.534412 -10.955723 44.566480 0.721532 1.819171 0.051413 -0.015802 418627.000000 0 0 1
33.689871 27.978312 -10.440523 45.019971 0.693044 1.804836 0.049142 -0.021574 1590400.000000 0 0 1
34.843361 28.663812 -10.908223 46.418350 0.688399 1.808013 0.059965 -0.016702 271392.000000 0 0 1
35.160351 29.971712 -10.149523 47.302923 0.705903 1.787042 0.055539 -0.024626 -737338.000000 0 0 1
35.795741 29.814312 -8.885823 47.425585 0.694483 1.759274 0.051404 -0.023622 122270.000000 0 0 1
35.878961 31.125012 -8.230723 48.205922 0.714567 1.742378 0.032620 -0.024185 -1033890.000000 0 0 1
36.887391 31.163212 -7.091823 48.806960 0.701479 1.716616 0.051370 -0.014754 -940577.000000 0 0 1
-36.310797 31.347412 -7.397323 48.537146 -0.712170 1.723798 0.065860 -0.015550 -823481.000000 0 0 1
-35.664872 30.145112 -7.854723 47.354065 -0.701720 1.737439 0.071169 -0.016037 -547396.000000 0 0 1
-34.193180 30.405412 -8.253623 46.494999 -0.726830 1.749258 0.101158 -0.010800 -171451.000000 0 0 1
-33.347927 30.771412 -7.125823 45.931921 -0.745237 1.726564 0.090130 -0.011842 1522220.000000 0 0 1
-31.977077 31.046912 -7.511423 45.198071 -0.770640 1.737760 0.104718 -0.018254 1101610.000000 0 0 1
-31.696037 32.218612 -8.488923 45.986297 -0.793574 1.756458 0.073429 -0.014700 -882091.000000 0 0 1
-31.719827 33.534912 -7.914423 46.833490 -0.813206 1.740602 0.057644 -0.000477 453805.000000 0 0 1
-30.684067 33.811112 -6.969223 46.187372 -0.833845 1.722265 0.080616 -0.009578 210390.000000 0 0 1
-30.889187 -32.662240 -6.327923 45.398308 0.813290 1.710638 0.063989 0.002422 218867.000000 0 0 1
-31.917177 -32.568040 -5.354023 45.913495 0.795491 1.687673 0.059119 -0.002001 260404.000000 0 0 1
-31.558867 -33.134740 -4.123523 45.944276 0.809752 1.660668 0.065379 -0.009654 570780.000000 0 0 1
-32.850027 -33.171140 -3.232923 46.796374 0.790262 1.639936 0.061656 -0.011073 318467.000000 0 0 1
-33.239677 -31.900440 -2.788323 46.155053 0.764842 1.631245 0.055788 -0.007495 -50274.300000 0 0 1
-34.031997 -31.949640 -1.617023 46.707292 0.753849 1.605424 0.061142 -0.012561 -146277.000000 0 0 1
-34.738498 -30.619940 -1.344823 46.326585 0.722466 1.599830 0.071258 -0.008028 158140.000000 0 0 1
-35.548291 -30.647540 -0.169723 46.935930 0.711499 1.574412 0.049301 -0.010521 -328159.000000 0 0 1
-36.214997 -29.426640 -0.046823 46.663212 0.682349 1.571800 0.056445 -0.011577 -694216.000000 0 0 1
37.163361 -29.470240 0.926477 47.439106 -0.670453 1.551265 0.050803 -0.004011 -2244600.000000 0 0 1
36.017761 -30.030040 0.474277 46.896773 -0.694988 1.560683 0.028108 -0.002701 -1054780.000000 0 0 1
34.992311 -30.096740 1.454577 46.177823 -0.710326 1.539292 0.030309 -0.007655 641136.000000 0 0 1
34.155121 -28.791740 1.776077 44.706722 -0.700399 1.531059 0.021534 0.006773 -398922.000000 0 0 1
33.121711 -28.493840 0.857177 43.699902 -0.710430 1.551180 0.018131 -0.002719 87376.300000 0 0 1
32.425871 -27.319540 1.209377 42.417649 -0.700137 1.542281 0.018142 -0.004158 -118722.000000 0 0 1
31.176791 -26.929140 0.351677 41.198235 -0.712426 1.562260 0.019422 -0.024939 670912.000000 0 0 1
30.035431 -27.757640 0.635977 40.902545 -0.746006 1.555247 0.025863 -0.006683 498344.000000 0 0 1
30.099331 -29.099340 0.175977 41.866123 -0.768508 1.566593 0.026564 -0.000506 -977543.000000 0 0 1
29.621311 -29.191840 -1.257123 41.607282 -0.778096 1.601015 0.033981 -0.008377 339159.000000 0 0 1
28.201201 -29.231040 -1.416823 40.641959 -0.803328 1.605664 0.046182 -0.002649 623681.000000 0 0 1
27.835201 -29.390440 -2.820823 40.577745 -0.812569 1.640369 0.047282 -0.004858 -854485.000000 0 0 1
26.459201 -29.970840 -2.988723 40.090810 -0.847548 1.645414 0.072487 -0.013534 -719370.000000 0 0 1
25.476701 -28.954340 -3.100723 38.691479 -0.849202 1.651022 0.084310 -0.015939 -131963.000000 0 0 1
24.221801 -29.529940 -3.415723 38.345536 -0.883832 1.659992 0.080822 -0.015489 515757.000000 0 0 1
23.091801 -28.440140 -3.580123 36.808832 -0.888815 1.668213 0.085340 -0.018895 390718.000000 0 0 1
23.218901 -27.611040 -4.716223 36.383096 -0.871593 1.700789 0.083774 -0.024207 69946.700000 0 0 1
22.524301 -26.384540 -4.564223 34.990287 -0.864162 1.701612 0.088380 -0.035541 48803.400000 0 0 1
22.111701 -25.831040 -5.980723 34.524469 -0.862822 1.744906 0.085054 -0.049924 -454576.000000 0 0 1
20.866201 -26.292340 -6.407423 34.172219 -0.899956 1.759417 0.092372 -0.048521 -739013.000000 0 0 1
20.341101 -25.473640 -7.445123 33.437951 -0.896961 1.795333 0.092724 -0.046877 817799.000000 0 0 1
18.802501 -25.672140 -7.702623 32.740238 -0.938649 1.808287 0.086381 -0.041605 1052060.000000 0 0 1
18.039201 -25.137740 -6.603023 31.637298 -0.948346 1.781052 0.093556 -0.044381 625162.000000 0 0 1
16.644101 -25.191240 -6.930023 30.978216 -0.986929 1.796412 0.091864 -0.042050 826607.000000 0 0 1
15.756701 -24.359240 -5.952623 29.615535 -0.996641 1.773172 0.080364 -0.029025 85553.900000 0 0 1
15.506901 -25.015640 -4.710223 29.806584 -1.015881 1.729488 0.061542 -0.031393 106755.000000 0 0 1
14.957901 -24.095640 -3.751823 28.607951 -1.015243 1.702321 0.074838 -0.029451 143874.000000 0 0 1
14.628501 -24.697440 -2.379923 28.803136 -1.036052 1.653518 0.081005 -0.026294 509634.000000 0 0 1
13.677901 -25.765740 -2.364823 29.266888 -1.082770 1.651687 0.068868 -0.026700 335156.000000 0 0 1
14.407701 -26.986940 -2.405923 30.686565 -1.080416 1.649280 0.079573 -0.026465 137575.000000 0 0 1
13.552401 -28.273040 -2.375423 31.443203 -1.123813 1.646415 0.076196 -0.011625 -314281.000000 0 0 1
12.994301 -28.438840 -1.101123 31.286290 -1.142202 1.605999 0.097759 -0.023748 -239836.000000 0 0 1
12.360601 -29.708940 -1.008923 32.193532 -1.176525 1.602141 0.087500 -0.022292 213851.000000 0 0 1
13.291601 -30.852140 -0.442823 33.596388 -1.164010 1.583977 0.084871 -0.020671 84496.200000 0 0 1
14.325101 -31.067440 -1.365923 34.238284 -1.138753 1.610702 0.075902 -0.018152 -712186.000000 0 0 1
15.016801 -32.244040 -1.090823 35.586125 -1.134944 1.601454 0.073841 -0.013306 -440467.000000 0 0 1
16.380701 -32.274640 -1.797223 36.238236 -1.101134 1.620411 0.065396 -0.011073 308450.000000 0 0 1
17.262701 -31.220540 -1.334223 35.700184 -1.065708 1.608178 0.079090 -0.009581 369356.000000 0 0 1
18.471501 -31.144540 -2.062323 36.268883 -1.035474 1.627689 0.088526 -0.008399 295516.000000 0 0 1
19.451101 -30.107840 -1.410723 35.872239 -0.997205 1.610133 0.096307 -0.009738 211613.000000 0 0 1
19.070901 -28.745340 -1.635523 34.535037 -0.985029 1.618172 0.085192 -0.016695 482139.000000 0 0 1
19.863301 -27.867240 -0.790823 34.230968 -0.951542 1.593901 0.075643 -0.006880 235331.000000 0 0 1
19.321501 -26.413940 -0.745823 32.734888 -0.939248 1.593582 0.073722 -0.012000 -178760.000000 0 0 1
19.315101 -25.611040 -1.932623 32.136172 -0.924631 1.630971 0.083919 -0.017803 33234.400000 0 0 1
18.430001 -26.001340 -2.953323 32.007136 -0.954182 1.663199 0.093180 -0.029338 -350045.000000 0 0 1
32.748281 -28.679340 13.513377 45.580323 -0.719255 1.269798 0.084499 -0.043688 -158416.000000 0 0 1
33.669891 -29.324240 14.364777 46.903299 -0.716522 1.259531 0.112229 -0.032832 115857.000000 0 0 1
33.027061 -30.133640 15.328977 47.263099 -0.739620 1.240490 0.093677 -0.020948 33561.300000 0 0 1
34.002931 -30.526040 16.453977 48.567188 -0.731569 1.225168 0.097679 -0.017549 -464869.000000 0 0 1
33.449961 -31.196440 17.532177 48.984640 -0.750553 1.204766 0.082668 -0.013153 -270469.000000 0 0 1
34.277351 -31.480840 18.617877 50.125896 -0.742897 1.190256 0.076096 -0.015134 -268493.000000 0 0 1
35.229811 -32.698940 18.680777 51.568708 -0.748158 1.200115 0.069045 -0.013095 171458.000000 0 0 1
36.255671 -32.662440 17.697877 51.908800 -0.733308 1.222878 0.082631 -0.017167 50978.600000 0 0 1
36.967321 -33.866940 17.755877 53.186686 -0.741657 1.230421 0.065353 -0.008904 15162.000000 0 0 1
-36.309797 -33.884740 16.828277 52.438229 0.750864 1.244100 0.078798 -0.020766 475821.000000 0 0 1
-35.244706 -33.040540 17.291977 51.311588 0.753131 1.227068 0.081317 -0.021165 421216.000000 0 0 1
-34.263744 -32.952240 16.290177 50.251608 0.765889 1.240660 0.109050 -0.020270 -329463.000000 0 0 1
-33.016247 -32.114240 16.685477 48.987775 0.771550 1.223236 0.078592 -0.018637 312314.000000 0 0 1
-31.973447 -32.093440 15.718777 47.951748 0.787271 1.236818 0.090149 -0.029408 124808.000000 0 0 1
-32.125767 -31.202240 14.620377 47.110510 0.770816 1.255243 0.109783 -0.037364 -476418.000000 0 0 1
-30.828637 -31.052140 13.813877 45.885330 0.789010 1.265001 0.087358 -0.040540 -272308.000000 0 0 1
-29.722597 -30.564740 14.512377 45.036043 0.799366 1.242702 0.077881 -0.046130 -853015.000000 0 0 1
-28.634507 -30.513140 13.641377 44.012202 0.817149 1.255661 0.066385 -0.035235 -112469.000000 0 0 1
-27.265337 -30.430640 14.369777 43.311811 0.840205 1.232612 0.053047 -0.036885 1147970.000000 0 0 1
-26.150997 -30.321440 13.440077 42.236241 0.859114 1.246954 0.050335 -0.027977 124244.000000 0 0 1
-24.987617 -30.004740 14.147677 41.530979 0.876379 1.223184 0.030550 -0.019166 127292.000000 0 0 1
-23.680717 -30.040140 13.288177 40.493975 0.903229 1.236450 0.030919 -0.012361 666535.000000 0 0 1
-23.205617 -31.378240 12.915077 41.108318 0.934020 1.251212 0.031973 -0.028402 15832.300000 0 0 1
-21.964517 -31.355740 12.253777 40.196735 0.959739 1.261021 0.018455 -0.025009 -43206.500000 0 0 1
-21.556617 -32.817240 11.972177 41.048654 0.989608 1.274836 0.017536 -0.019398 366168.000000 0 0 1
-22.480817 -33.410040 11.041477 41.755624 0.978507 1.303183 0.023950 -0.019696 510784.000000 0 0 1
-22.275917 33.084212 10.998377 41.373250 -0.978209 1.301728 0.042104 -0.012056 57259.700000 0 0 1
-23.303117 32.419412 10.083177 41.179169 -0.947563 1.323420 0.033316 -0.005642 606.808000 0 0 1
-23.069717 32.924312 8.782177 41.150319 -0.959608 1.355725 0.028841 -0.009271 -209489.000000 0 0 1
-24.204917 32.901212 7.954177 41.612939 -0.936520 1.378466 0.037669 -0.009668 -691373.000000 0 0 1
-23.945117 33.276612 6.469077 41.503620 -0.947051 1.414290 0.041871 -0.010473 -469624.000000 0 0 1
-23.247417 32.328212 5.641777 40.216729 -0.947362 1.430048 0.032093 -0.010696 121432.000000 0 0 1
-21.899117 32.035712 5.931877 39.256150 -0.971173 1.419108 0.049382 -0.015328 -317820.000000 0 0 1
-20.913617 33.152112 5.481577 39.578903 -1.008010 1.431852 0.055825 -0.020358 -740380.000000 0 0 1
-20.879017 -33.596540 6.330377 40.059138 1.014744 1.412105 0.048243 -0.018644 -82812.100000 0 0 1
-20.363817 -33.813940 7.631577 40.203340 1.028738 1.379813 0.035198 -0.018742 -540458.000000 0 0 1
-20.459817 -32.538340 8.503377 39.365659 1.009476 1.353070 0.017146 -0.012781 -586688.000000 0 0 1
-19.622817 -31.574440 7.941877 38.014124 1.014734 1.360327 0.027318 -0.020400 -178515.000000 0 0 1
-19.507117 -30.330740 8.589677 37.071066 0.999254 1.336963 0.027287 -0.023554 -110507.000000 0 0 1
-18.941317 -30.284240 10.062377 37.110108 1.011873 1.296210 0.012053 -0.014854 -160320.000000 0 0 1
-17.569817 -30.553340 10.175577 36.684430 1.048922 1.289729 0.027244 -0.021681 -273059.000000 0 0 1
-17.092217 -30.355240 11.515477 36.690472 1.057972 1.251546 0.054482 -0.022730 412215.000000 0 0 1
-15.710817 -31.015440 11.804577 36.716963 1.101924 1.243481 0.057511 -0.024728 488813.000000 0 0 1
-14.688817 -30.382540 11.072177 35.516942 1.120466 1.253769 0.070100 -0.020187 342487.000000 0 0 1
-13.729917 -31.262540 10.418677 35.698822 1.156976 1.274637 0.075862 -0.013949 912039.000000 0 0 1
-12.659717 -30.467940 9.617677 34.366605 1.176992 1.287153 0.098927 -0.014664 270120.000000 0 0 1
-11.792517 -29.764940 10.499477 33.693533 1.193580 1.253902 0.115439 -0.020979 128080.000000 0 0 1
-10.859917 -28.978340 9.750477 32.446168 1.212236 1.265566 0.119318 -0.020755 405636.000000 0 0 1
-9.756617 -28.317940 10.625177 31.780367 1.238995 1.229901 0.142906 -0.016603 -6267.070000 0 0 1
-10.107017 -27.267840 11.486977 31.267196 1.215839 1.194605 0.124852 -0.025471 -448909.000000 0 0 1
-9.163717 -27.026240 12.513377 31.160487 1.243894 1.157557 0.113544 -0.014555 256765.000000 0 0 1
-9.514617 -25.707040 13.266977 30.453120 1.216313 1.120033 0.104763 -0.024029 151787.000000 0 0 1
-9.108317 -24.510840 12.653677 29.049239 1.215007 1.120098 0.094478 -0.025229 137777.000000 0 0 1
-9.882917 -24.059040 11.512477 28.443744 1.181034 1.154096 0.089197 -0.022456 121507.000000 0 0 1
-9.270617 -22.852540 10.914477 26.968662 1.185411 1.154135 0.087639 -0.026062 -99036.100000 0 0 1
-8.095417 -23.085240 10.166577 26.491949 1.233520 1.176931 0.077944 -0.024198 -256725.000000 0 0 1
-7.599017 -21.864240 9.691477 25.094119 1.236302 1.174282 0.074876 -0.024146 756854.000000 0 0 1
-6.277617 -22.001640 8.827377 24.523524 1.292857 1.202576 0.071191 -0.028893 735400.000000 0 1 0
-5.174617 -22.416240 9.603477 24.929726 1.343928 1.175348 0.060456 -0.032190 -152629.000000 0 1 0
-4.124717 -22.683740 8.654177 24.626412 1.390926 1.211710 0.056914 -0.030262 348328.000000 0 1 0
-2.866017 -23.316440 9.271277 25.255237 1.448492 1.194904 0.060819 -0.029846 49382.900000 0 0 1
-2.258817 -22.617740 10.362177 24.980776 1.471257 1.143067 0.057939 -0.025821 -405257.000000 0 1 0
-1.117617 -23.323140 10.786077 25.720758 1.522914 1.138064 0.069375 -0.036402 -89259.100000 0 0 1
-0.333117 -22.462040 11.811177 25.380270 1.555967 1.086745 0.070694 -0.034433 -358038.000000 0 0 1
-0.819317 -22.393640 13.146977 25.980558 1.534226 1.040219 0.072671 -0.031068 -543910.000000 0 0 1
0.117283 -22.363140 14.189677 26.485293 -1.565552 1.005392 0.094167 -0.032251 -302091.000000 0 0 1
1.064383 -21.100240 14.410977 25.573997 -1.520395 0.972179 0.077361 -0.026224 420748.000000 0 0 1
2.017283 -20.958340 13.395377 24.955111 -1.474840 1.004182 0.072553 -0.028795 -269952.000000 0 1 0
2.686183 -19.674040 13.445577 23.980554 -1.435101 0.975581 0.063633 -0.016547 555514.000000 0 1 0
4.169083 -19.869340 13.031877 24.124713 -1.363972 1.000136 0.076669 -0.004745 224909.000000 0 1 0
4.434783 -20.225340 11.685277 23.775563 -1.354944 1.057005 0.073042 -0.005987 -1203840.000000 0 1 0
5.794383 -20.447040 11.528077 24.177529 -1.294652 1.073775 0.104711 -0.008118 -541166.000000 0 1 0
6.095883 -21.187440 10.202377 24.293125 -1.290651 1.137384 0.100303 -0.019744 -316890.000000 0 1 0
5.813183 -20.391940 9.038977 23.050541 -1.293090 1.167842 0.079694 -0.017009 -429840.000000 0 1 0
5.969483 -21.125040 7.843277 23.311350 -1.295398 1.227644 0.082358 -0.024833 162979.000000 0 1 0
7.412183 -21.515440 7.385577 23.924911 -1.239025 1.256972 0.089468 -0.015403 322618.000000 0 1 0
8.245183 -20.486840 6.858477 23.124281 -1.188169 1.269674 0.086007 -0.021646 116291.000000 0 1 0
8.757383 -19.433640 7.710877 22.667505 -1.147419 1.223695 0.082572 -0.012943 -161340.000000 0 1 0
9.687683 -19.857940 8.839677 23.797666 -1.116916 1.190225 0.078171 -0.006297 -439327.000000 0 1 0
9.105383 -20.210940 10.059277 24.342949 -1.147512 1.144796 0.091133 -0.010275 -471361.000000 0 1 0
10.094783 -20.063940 11.069577 25.040006 -1.104647 1.112885 0.086525 -0.000165 564206.000000 0 0 1
9.424883 -20.111940 12.460577 25.467323 -1.132565 1.059536 0.100947 -0.006678 124490.000000 0 0 1
9.188483 -21.452340 12.863477 26.647705 -1.166116 1.067034 0.086768 -0.015991 -196522.000000 0 0 1
8.656183 -21.539640 14.162477 27.193039 -1.188677 1.022994 0.115214 -0.023219 44335.200000 0 0 1
8.847683 -22.924340 14.875077 28.724115 -1.202459 1.026449 0.105205 -0.037460 67859.300000 0 0 1
8.168183 -24.032540 14.245177 29.106825 -1.243165 1.059383 0.117837 -0.037328 -44329.000000 0 0 1
8.394783 -25.229240 14.928677 30.493480 -1.249580 1.059200 0.124658 -0.048973 -22405.800000 0 0 1
8.402683 -26.458040 13.967577 31.076135 -1.263285 1.104632 0.135038 -0.059378 -276356.000000 0 0 1
9.558383 -26.418240 13.170577 31.028216 -1.223639 1.132419 0.119509 -0.044604 -355891.000000 0 0 1
9.518383 -27.371040 12.090477 31.399890 -1.236124 1.175536 0.110921 -0.043201 -472020.000000 0 0 1
10.823783 -27.640540 11.343277 31.777723 -1.197560 1.205788 0.095549 -0.038130 -1099580.000000 0 0 1
11.720583 -28.376240 12.079577 32.992412 -1.179098 1.195947 0.072373 -0.042732 -319584.000000 0 0 1
12.916483 -28.443240 11.297777 33.218868 -1.144526 1.223772 0.101192 -0.039406 -125191.000000 0 0 1
13.922283 -29.363740 12.011577 34.645883 -1.128057 1.216750 0.080627 -0.027749 -749168.000000 0 0 1
14.531283 -28.768540 13.146177 34.808175 -1.103069 1.183512 0.061913 -0.027193 1051850.000000 0 0 1
15.487483 -29.606840 13.875577 36.179535 -1.088836 1.177192 0.048541 -0.019312 117163.000000 0 0 1
16.845483 -29.880640 13.300077 36.790148 -1.057451 1.200907 0.058442 -0.017370 -1458790.000000 0 0 1
17.515083 -28.708640 13.004577 36.056666 -1.022985 1.201810 0.053196 -0.022368 -615998.000000 0 0 1
18.835983 -28.940340 12.622177 36.764887 -0.993820 1.220345 0.045746 -0.019741 -824069.000000 0 0 1
19.628983 -27.655240 12.517177 36.149537 -0.953540 1.217214 0.025577 -0.017869 -106638.000000 0 0 1
21.028283 -27.809540 12.301177 36.971316 -0.923369 1.231608 0.019083 -0.019047 364789.000000 0 0 1
21.583883 -26.485440 12.142677 36.259994 -0.887015 1.229320 0.017740 -0.016142 -737835.000000 0 0 1
23.031583 -26.691840 11.769477 37.167577 -0.858878 1.248590 0.025289 -0.017025 -1159690.000000 0 0 1
23.939783 -27.292840 12.645677 38.443797 -0.850753 1.235616 0.037373 -0.020041 210536.000000 0 0 1
25.031383 -27.772240 11.848877 39.220701 -0.837258 1.263893 0.039829 -0.028186 -289518.000000 0 0 1
26.091983 -28.428540 12.777977 40.647881 -0.828228 1.251016 0.058188 -0.024611 184639.000000 0 0 1
27.229183 -27.692840 13.197077 41.018102 -0.793840 1.243232 0.047226 -0.020963 515377.000000 0 0 1
28.232183 -27.614340 12.178177 41.326940 -0.774335 1.271677 0.035969 -0.020505 265995.000000 0 0 1
29.577783 -26.966440 12.685277 41.987503 -0.739249 1.263880 0.069792 -0.033242 335858.000000 0 0 1
29.608183 -25.608040 13.006777 41.250364 -0.713079 1.250010 0.077386 -0.029846 -401476.000000 0 0 1
28.854783 -25.273040 14.128877 40.877258 -0.719323 1.217874 0.070013 -0.022507 -478517.000000 0 0 1
29.634483 -25.235540 15.482277 41.889569 -0.705399 1.192221 0.069178 -0.005439 -37651.200000 0 0 1
29.944883 -26.500840 16.067177 43.094602 -0.724459 1.188734 0.078534 -0.007227 557833.000000 0 0 1
30.698983 -26.300440 17.307277 43.973658 -0.708383 1.166271 0.090152 0.003789 516766.000000 0 0 1
31.108183 -27.583040 18.055277 45.326992 -0.725408 1.161097 0.088759 0.011442 603668.000000 0 0 1
29.966583 -28.219740 18.641277 45.186802 -0.755386 1.145558 0.060210 0.006695 688018.000000 0 0 1
30.403983 -29.245340 19.552777 46.497346 -0.765976 1.136785 0.084818 0.002362 102676.000000 0 0 1
29.252283 -30.149340 20.046477 46.546107 -0.800499 1.125550 0.078195 -0.005391 -561209.000000 0 0 1
28.417583 -29.407540 20.942877 45.945256 -0.802516 1.097500 0.078262 -0.003232 935817.000000 0 0 1
27.348283 -30.182740 21.531577 46.070980 -0.834627 1.084498 0.076375 -0.007617 566861.000000 0 0 1
26.144783 -30.575540 20.663277 45.225926 -0.863356 1.096300 0.102263 -0.016572 -970830.000000 0 0 1
26.335983 -31.693340 19.800477 45.717729 -0.877459 1.122864 0.105134 -0.022354 -56797.400000 0 0 1
25.541583 -31.759840 18.641977 44.817220 -0.893494 1.141803 0.095721 -0.012744 -432023.000000 0 0 1
25.957583 -30.830240 17.519077 43.945624 -0.870993 1.160748 0.087354 -0.005381 -156847.000000 0 0 1
27.085083 -31.257340 16.780377 44.634114 -0.856790 1.185370 0.094790 -0.019878 199359.000000 0 0 1
27.401983 -30.238340 15.817977 43.765675 -0.834566 1.201001 0.079616 -0.030192 -476048.000000 0 0 1
28.567483 -30.510240 14.874577 44.364726 -0.818271 1.228895 0.092406 -0.032701 -624419.000000 0 0 1
28.436583 -31.642840 13.975877 44.779836 -0.838715 1.253392 0.105175 -0.029436 365849.000000 0 0 1
28.924983 -32.835840 14.578277 46.123456 -0.848636 1.249211 0.091848 -0.032786 101818.000000 0 0 1
28.319783 33.869912 13.775377 46.248698 0.874407 1.268352 0.122243 -0.035790 43244.500000 0 0 1
28.719383 33.931212 12.441077 46.161786 0.868396 1.297912 0.127909 -0.036918 460561.000000 0 0 1
28.126683 32.823812 11.716277 44.785981 0.862311 1.306111 0.127446 -0.036042 -299218.000000 0 0 1
28.751383 32.525212 10.360277 44.630335 0.846907 1.336524 0.134361 -0.041724 -462417.000000 0 0 1
30.006083 31.943912 10.573677 45.084157 0.816668 1.334059 0.118929 -0.046230 -148105.000000 0 0 1
30.656683 31.391612 9.441677 44.882188 0.797242 1.358847 0.118957 -0.050469 -442849.000000 0 0 1
32.130483 31.107012 9.703677 45.762162 0.769215 1.357128 0.093399 -0.051719 -545612.000000 0 0 1
32.385283 30.123812 10.691077 45.503294 0.749236 1.333627 0.073839 -0.039088 937517.000000 0 0 1
33.781583 29.975512 11.019977 46.488349 0.725772 1.331470 0.084765 -0.039683 979619.000000 0 0 1
34.037583 29.050912 12.230977 46.390833 0.706520 1.303991 0.064026 -0.028216 -114925.000000 0 0 1
33.751383 27.709512 11.843077 45.246341 0.687409 1.305965 0.058857 -0.032028 181601.000000 0 0 1
33.926783 26.813612 12.915577 45.131015 0.668821 1.280559 0.054234 -0.026465 -104222.000000 0 0 1
33.500683 25.437712 12.507877 43.884165 0.649439 1.281769 0.041494 -0.023799 100794.000000 0 0 1
34.538783 24.795212 11.779477 44.119000 0.622635 1.300525 0.034379 -0.008630 151952.000000 0 0 1
34.713683 23.422612 12.140577 43.601057 0.593569 1.288620 0.047681 -0.007936 -721060.000000 0 0 1
33.717283 22.459112 11.543577 42.125064 0.587611 1.293214 0.044500 -0.008455 -746847.000000 0 0 1
32.505883 22.512412 12.230177 41.388626 0.605718 1.270822 0.081717 -0.024813 -1266090.000000 0 0 1
31.442583 22.231712 11.396377 40.159214 0.615447 1.283063 0.096152 -0.018470 -171162.000000 0 0 1
30.104383 22.067812 12.189077 39.266217 0.632560 1.255160 0.089729 -0.013661 571705.000000 0 0 1
29.525283 23.259912 12.774677 39.698340 0.667255 1.243173 0.093094 -0.014953 462946.000000 0 0 1
28.419783 22.884212 13.596977 38.939042 0.677916 1.214094 0.120177 -0.026861 124642.000000 0 0 1
24.877583 9.340812 25.666874 36.945004 0.359184 0.802749 0.057478 -0.012575 -411497.000000 0 0 1
24.533983 8.214012 26.395844 36.961154 0.323071 0.775386 0.071677 -0.024163 -907123.000000 0 0 1
23.167883 8.060612 26.285904 35.953762 0.334822 0.750859 0.070977 -0.020871 -1028520.000000 0 0 1
22.613283 6.850912 27.070824 35.932229 0.294170 0.717601 0.092793 -0.027612 -319839.000000 0 0 1
22.728783 6.858112 28.487194 37.083035 0.293049 0.694771 0.095361 -0.027997 -519802.000000 0 0 1
23.908483 6.312612 28.988004 38.102086 0.258141 0.706254 0.089684 -0.028656 -579632.000000 0 0 1
23.994683 6.206812 30.488154 39.291180 0.253126 0.682570 0.083062 -0.035197 -134325.000000 0 0 1
24.198783 7.470512 31.155234 40.150196 0.299432 0.682549 0.111346 -0.033037 184706.000000 0 0 1
24.348183 7.303012 32.532563 41.286022 0.291402 0.663275 0.097114 -0.031794 -42467.500000 0 0 1
24.463383 8.662612 33.286432 42.207635 0.340327 0.662210 0.114958 -0.026769 -644906.000000 0 0 1
25.658183 9.351412 33.139378 42.941933 0.349499 0.689247 0.098972 -0.030305 -756267.000000 0 0 1
25.879083 10.083412 -33.558943 43.561506 0.371540 2.450234 0.109040 -0.025677 166067.000000 0 0 1
27.210883 10.872012 -33.673073 44.637525 0.380115 2.425486 0.093640 -0.026620 -93513.800000 0 0 1
27.215483 12.171012 33.544902 44.878463 0.420531 0.726565 0.086501 -0.029256 118778.000000 0 0 1
26.723783 13.190912 -33.480683 44.823173 0.458516 2.414260 0.078508 -0.032343 -297821.000000 0 0 1
26.531583 14.534712 33.650679 45.249872 0.501173 0.732263 0.071589 -0.030248 -842483.000000 0 0 1
27.710483 15.185312 33.313142 45.915465 0.501305 0.758989 0.071541 -0.028328 -541986.000000 0 0 1
27.580983 16.573412 33.010477 46.098592 0.541081 0.772620 0.083465 -0.029303 -136589.000000 0 0 1
27.845083 17.560612 -33.599853 47.039067 0.562655 2.366415 0.077176 -0.033273 -192486.000000 0 0 1
27.070083 17.425612 -32.419753 45.688967 0.571949 2.359691 0.071494 -0.034153 -57283.600000 0 0 1
27.723683 16.648012 -31.441993 45.103856 0.540785 2.342144 0.075693 -0.033774 -673055.000000 0 0 1
26.864183 16.074212 -30.328713 43.587790 0.539206 2.340340 0.067705 -0.027974 -390771.000000 0 0 1
26.160483 14.933112 -30.856663 43.121947 0.518693 2.368232 0.077296 -0.023519 154675.000000 0 0 1
25.530483 14.277812 -29.744363 41.717965 0.509914 2.364545 0.090631 -0.028426 -143588.000000 0 0 1
24.723783 13.080812 -30.224953 41.181560 0.486639 2.394907 0.077781 -0.018623 -2786.630000 0 0 1
23.601983 13.258112 -31.120033 41.246667 0.511810 2.425667 0.080134 -0.024958 1088660.000000 0 0 1
22.925883 12.057712 -31.509773 40.790321 0.484186 2.453536 0.072012 -0.020029 45014.600000 0 0 1
22.022683 11.425412 -30.430553 39.262669 0.478576 2.457591 0.072827 -0.019430 288565.000000 0 0 1
20.826683 12.189712 -30.123153 38.597204 0.529535 2.466180 0.088914 -0.018206 872478.000000 0 0 1
19.993183 11.422112 -29.300413 37.265348 0.519049 2.475536 0.080206 -0.013466 -443542.000000 0 0 1
18.741183 12.083012 -28.736613 36.373397 0.572662 2.481678 0.073768 -0.009609 -53655.200000 0 0 1
17.759283 12.351212 -29.735863 36.771811 0.607685 2.512666 0.058571 -0.005915 -23714.400000 0 0 1
16.630383 12.913412 -29.114363 35.930098 0.660243 2.515470 0.056562 -0.011128 -380300.000000 0 0 1
15.503383 13.379412 -30.073493 36.383767 0.711993 2.543771 0.067874 -0.015382 199669.000000 0 0 1
14.762483 12.492512 -30.876733 36.433040 0.702303 2.582040 0.070771 -0.021133 -637716.000000 0 0 1
13.741383 11.857312 -30.181253 35.218312 0.711930 2.600170 0.065935 -0.025035 -857802.000000 0 0 1
12.752883 11.194612 -31.158413 35.479600 0.720419 2.642895 0.072284 -0.023215 -155538.000000 0 0 1
12.239783 12.227712 -31.987063 36.366212 0.784905 2.645779 0.078041 -0.019587 -492445.000000 0 0 1
11.186983 11.780712 -32.775533 36.580997 0.811243 2.681410 0.079468 -0.012970 -531851.000000 0 0 1
10.567683 12.769112 -33.812513 37.656502 0.879453 2.685816 0.091378 -0.010656 100784.000000 0 0 1
11.420283 13.116812 32.922044 37.233514 0.854430 0.486008 0.082176 -0.004673 428688.000000 0 0 1
10.708583 13.389812 31.719484 36.056712 0.896204 0.495542 0.086523 -0.019751 -289334.000000 0 0 1
11.596283 13.313512 30.474444 35.219527 0.854227 0.525105 0.107799 -0.021183 -42704.700000 0 0 1
12.091883 11.976412 30.232684 34.693850 0.780601 0.512720 0.094463 -0.021916 315176.000000 0 0 1
12.415883 11.885912 28.833984 33.568254 0.763594 0.537550 0.102200 -0.015491 -305752.000000 0 0 1
12.908983 10.530212 28.340104 32.873830 0.684258 0.531423 0.100822 -0.013213 217571.000000 0 0 1
11.954483 9.445212 28.351824 32.186140 0.668674 0.493098 0.100836 -0.014775 321715.000000 0 0 1
12.445683 8.251912 27.851944 31.602529 0.585483 0.492148 0.093006 -0.019958 -501205.000000 0 0 1
11.597583 7.009212 28.224584 31.309106 0.543625 0.447616 0.066692 -0.017276 383691.000000 0 0 1
10.265283 7.088912 27.697154 30.376982 0.604370 0.423196 0.062701 -0.027341 510084.000000 0 0 1
9.534683 5.861412 27.845654 30.010777 0.551192 0.382177 0.060712 -0.028382 288940.000000 0 0 1
10.123783 4.551312 27.144704 29.326445 0.422493 0.388165 0.061252 -0.022363 362059.000000 0 0 1
11.264083 3.979112 27.808874 30.266258 0.339573 0.405747 0.057737 -0.017685 571385.000000 0 0 1
11.461083 2.748812 27.158764 29.605926 0.235392 0.409444 0.055156 -0.020346 -332148.000000 0 0 1
11.827183 1.677112 28.118714 30.550892 0.140862 0.401721 0.033670 -0.019619 128958.000000 0 0 1
10.815083 1.455612 29.097654 31.076652 0.133787 0.358800 0.019969 -0.011898 82797.400000 0 0 1
11.005083 0.251512 29.837184 31.803029 0.022850 0.353442 0.012657 -0.008188 -12048.200000 0 0 1
9.972983 0.108212 30.958554 32.525438 0.010850 0.311660 0.043862 -0.001252 -205885.000000 0 0 1
10.221183 1.005612 32.037509 33.643510 0.098069 0.310228 0.012247 -0.009865 404818.000000 0 0 1
9.093583 1.260312 32.904197 34.160911 0.137716 0.272088 0.044410 -0.014297 396796.000000 0 0 1
9.295783 2.528212 33.758856 35.106463 0.265551 0.277973 0.043576 -0.015736 -114762.000000 0 0 1
9.179283 3.830012 33.186391 34.644837 0.395284 0.291190 0.034605 -0.016929 119501.000000 0 0 1
10.249683 4.105512 32.310689 34.145158 0.380981 0.329283 0.019459 -0.015961 -302202.000000 0 0 1
10.212083 5.469812 31.509344 33.571479 0.491737 0.352320 0.023341 -0.019524 14239.500000 0 0 1
10.307183 6.605012 32.376236 34.613362 0.569892 0.361498 0.033072 -0.025159 131608.000000 0 0 1
10.445083 7.787912 31.617814 34.197039 0.640683 0.390871 0.041711 -0.020469 -348601.000000 0 0 1
10.612283 9.066312 32.446196 35.321016 0.706998 0.406251 0.074674 -0.030792 501888.000000 0 0 1
9.467383 9.569112 33.175308 35.802238 0.790742 0.385457 0.086182 -0.033964 679469.000000 0 0 1
8.994583 8.777512 -33.567953 35.843475 0.773185 2.783352 0.081176 -0.031781 -714638.000000 0 0 1
7.495783 8.842012 -33.321703 35.280360 0.867612 2.806814 0.085300 -0.035826 -636730.000000 0 0 1
7.164983 8.201412 -32.122993 33.918827 0.852744 2.814732 0.089702 -0.033479 -554858.000000 0 0 1
5.802683 8.407112 -31.877433 33.474190 0.966670 2.831479 0.081810 -0.037654 -468396.000000 0 0 1
5.433583 7.786112 -30.578213 32.018346 0.961511 2.840529 0.081589 -0.030400 -616618.000000 0 0 1
6.038283 8.277512 -29.410703 31.144301 0.940558 2.806368 0.085682 -0.040285 119285.000000 0 0 1
5.497383 7.631612 -28.290653 29.813147 0.946547 2.820630 0.083846 -0.035051 902535.000000 0 0 1
3.988583 7.785212 -27.868363 29.208970 1.097335 2.837446 0.071683 -0.029746 983382.000000 0 0 1
3.051783 7.055112 -28.703603 29.715060 1.162537 2.879931 0.061439 -0.021697 9353.920000 0 0 1
1.778783 7.228112 -28.118813 29.087408 1.329499 2.882803 0.074622 -0.017861 -541996.000000 0 0 1
0.671483 6.617112 -28.957063 29.711084 1.469666 2.915820 0.079296 -0.030612 -750964.000000 0 0 1
0.489483 7.341812 -30.125973 31.011547 1.504224 2.902038 0.074662 -0.030842 36270.400000 0 0 1
-0.397117 6.660612 -30.994843 31.704916 -1.511245 2.929553 0.108386 -0.027870 -504546.000000 0 0 1
-0.631817 7.387912 -32.310563 33.150458 -1.485484 2.916011 0.117654 -0.032861 553748.000000 0 0 1
0.537783 7.801712 -33.057373 33.969778 1.501974 2.909298 0.088000 -0.028863 1301580.000000 0 0 1
1.398083 6.769312 -33.642533 34.345280 1.367127 2.938953 0.089897 -0.034458 607468.000000 0 0 1
1.367083 6.637612 32.682875 33.378093 1.367677 0.204457 0.123765 -0.043919 -398677.000000 0 0 1
0.300383 5.794212 32.324443 32.841022 1.519001 0.177601 0.121717 -0.042901 -318962.000000 0 0 1
0.078683 5.672512 30.947134 31.462814 1.556926 0.181302 0.136308 -0.040881 109809.000000 0 0 1
0.997283 4.676612 30.174404 30.550939 1.360694 0.157164 0.137244 -0.038479 113167.000000 0 0 1
0.874683 4.711312 28.763814 29.160221 1.387230 0.165076 0.124704 -0.036315 -512911.000000 0 0 1
1.770183 3.850412 28.178104 28.494995 1.139873 0.149276 0.114801 -0.032845 -553741.000000 0 0 1
1.862383 4.179212 26.680374 27.069847 1.151582 0.169837 0.112476 -0.024209 171771.000000 0 0 1
2.363983 5.509612 26.382594 27.055230 1.165487 0.223452 0.093811 -0.025653 66311.600000 0 0 1
2.314183 5.791212 24.976284 25.743122 1.190633 0.244692 0.070054 -0.018094 -559425.000000 0 0 1
2.921983 7.171112 24.566414 25.757941 1.183870 0.305351 0.049394 -0.021443 335426.000000 0 0 1
4.329583 7.341112 24.563174 25.999744 1.037931 0.333975 0.043192 -0.020713 30404.200000 0 0 1
4.905183 6.842612 23.365124 24.835683 0.948845 0.345848 0.045458 -0.025546 -623784.000000 0 1 0
6.440083 6.789912 23.425484 25.225599 0.811834 0.380068 0.057451 -0.025912 -199482.000000 0 0 1
7.100583 5.946812 24.361734 26.062941 0.697198 0.363306 0.064385 -0.025282 -23109.700000 0 0 1
6.869183 4.572712 24.451764 25.806668 0.587323 0.325478 0.072605 -0.025253 -913501.000000 0 0 1
7.112683 3.666712 23.215504 24.555949 0.475984 0.331938 0.081259 -0.026251 577313.000000 0 1 0
6.186483 3.752412 22.104724 23.258804 0.545222 0.316338 0.053432 -0.020328 354161.000000 0 1 0
4.905983 3.201212 22.376224 23.130322 0.578139 0.256050 0.052935 -0.017131 -13130.200000 0 1 0
3.852583 3.424112 21.286024 21.901181 0.726583 0.237573 0.030003 -0.011768 -55155.300000 0 1 0
3.410283 4.773212 21.168524 21.966337 0.950429 0.270340 0.019666 -0.022924 -423405.000000 0 1 0
2.260883 4.887612 20.393724 21.092755 1.137535 0.258169 0.013357 -0.020800 -891645.000000 0 1 0
1.679083 6.274012 20.485024 21.489968 1.309299 0.307026 0.010616 -0.027108 -4906.680000 0 1 0
2.491283 7.283812 19.891924 21.329534 1.241239 0.369245 0.007978 -0.019575 179502.000000 0 1 0
1.801483 8.499312 20.156524 21.949239 1.361931 0.406970 0.010813 -0.019672 632062.000000 0 1 0
2.606683 9.772612 19.788324 22.223332 1.310132 0.472507 0.014963 -0.023701 -456699.000000 0 1 0
2.746583 9.963212 18.411624 21.113910 1.301805 0.511495 0.009404 -0.021033 -576905.000000 0 1 0
3.566683 11.039512 18.085024 21.486278 1.258299 0.570370 0.018598 -0.027063 384557.000000 0 1 0
5.094983 10.738112 18.195824 21.733704 1.127775 0.578622 0.034404 -0.032346 -191295.000000 0 1 0
5.476983 9.845012 17.181324 20.545546 1.063113 0.580378 0.040732 -0.024840 -188780.000000 0 1 0
6.789583 9.337612 17.281624 20.783261 0.942099 0.588964 0.032755 -0.029058 86400.700000 0 1 0
6.908383 7.848412 17.854424 20.690669 0.849014 0.529774 0.042991 -0.029376 -334515.000000 0 1 0
6.538783 7.695612 19.248624 21.736781 0.866490 0.483158 0.055891 -0.026675 -80068.800000 0 1 0
6.646183 6.381712 19.734724 21.779745 0.765101 0.436813 0.046375 -0.028846 -27412.800000 0 1 0
8.063383 5.832312 20.050124 22.383955 0.626198 0.460712 0.078871 -0.026404 115576.000000 0 1 0
8.897883 5.881112 18.873324 21.678610 0.584039 0.514383 0.076914 -0.031506 -502077.000000 0 1 0
10.223783 5.534812 19.170524 22.420278 0.496190 0.545143 0.087052 -0.029163 -164908.000000 0 1 0
10.515783 4.045012 19.030624 22.115796 0.367214 0.534548 0.097195 -0.026934 -289038.000000 0 1 0
9.961183 3.270312 20.130724 22.697272 0.317219 0.480157 0.107850 -0.028119 212587.000000 0 1 0
10.141083 1.898712 19.971824 22.479333 0.185087 0.476834 0.112944 -0.042422 -40294.300000 0 1 0
9.470683 1.019812 21.059124 23.113211 0.107268 0.424780 0.114909 -0.039309 70952.800000 0 1 0
9.961383 1.135012 22.364424 24.508873 0.113452 0.421434 0.107018 -0.030692 -202486.000000 0 1 0
9.262483 0.240312 23.140854 24.926902 0.025939 0.380851 0.120264 -0.040120 -685838.000000 0 1 0
9.692983 0.435412 24.595484 26.440146 0.044890 0.375750 0.101966 -0.031037 663436.000000 0 0 1
11.035783 0.044412 24.925094 27.258958 0.004024 0.416818 0.094729 -0.029211 726830.000000 0 0 1
11.278183 -1.351988 24.855844 27.328341 -0.119307 0.428654 0.091743 -0.032317 -1109620.000000 0 0 1
12.693183 -1.821488 24.597614 27.739454 -0.142528 0.480557 0.075307 -0.025206 -626690.000000 0 0 1
12.776883 -3.246188 24.762094 28.052589 -0.248803 0.489214 0.087845 -0.023119 526694.000000 0 0 1
14.127883 -3.665488 24.970594 28.923406 -0.253853 0.528954 0.075712 -0.017324 468680.000000 0 0 1
14.176783 -5.141588 25.343004 29.490421 -0.347923 0.536772 0.073170 -0.024781 11989.900000 0 0 1
13.770683 -5.880988 24.172674 28.434765 -0.403619 0.554603 0.099265 -0.027889 225079.000000 0 0 1
13.471483 -7.183588 24.497264 28.865216 -0.489888 0.557316 0.097550 -0.031925 -187145.000000 0 0 1
13.337383 -7.970088 23.186214 27.910726 -0.538635 0.590383 0.116418 -0.038288 133756.000000 0 0 1
12.774983 -9.263688 23.334754 28.169608 -0.627402 0.594611 0.116313 -0.028339 -219827.000000 0 0 1
12.872183 -10.078988 22.170524 27.546528 -0.664292 0.635392 0.106020 -0.030731 -142654.000000 0 0 1
12.176583 -11.417988 22.341424 27.888687 -0.753258 0.641678 0.118875 -0.026909 1419600.000000 0 0 1
10.733383 -11.230488 22.270724 27.153536 -0.808027 0.609075 0.121181 -0.021274 1013700.000000 0 0 1
10.086383 -12.493688 22.275624 27.459621 -0.891609 0.624571 0.110013 -0.018816 1099500.000000 0 0 1
8.518983 -12.398688 22.450624 27.024638 -0.968789 0.590349 0.090766 -0.018535 1471830.000000 0 0 1
7.791083 -11.807888 21.345624 25.607867 -0.987549 0.585280 0.085244 -0.026519 1143650.000000 0 0 1
6.377583 -11.780788 21.652924 25.461925 -1.074615 0.554044 0.068099 -0.028688 1400970.000000 0 0 1
5.635483 -10.583788 20.970124 24.156186 -1.081516 0.519423 0.054946 -0.032108 216876.000000 0 1 0
5.923883 -9.344088 21.535424 24.211131 -1.005772 0.474581 0.061012 -0.027755 -296425.000000 0 1 0
5.029383 -8.336388 21.107024 23.244279 -1.027950 0.432186 0.044598 -0.019610 119636.000000 0 1 0
5.452983 -6.941288 21.595824 23.330154 -0.904906 0.388016 0.058605 -0.025268 -61642.900000 0 1 0
4.515683 -5.934488 21.267624 22.537111 -0.920342 0.337241 0.032391 -0.022690 -67634.100000 0 1 0
5.041583 -4.591488 21.386624 22.447427 -0.738708 0.308656 0.069374 -0.046867 -95238.200000 0 1 0
-8.196717 -15.123388 -20.424023 26.702879 1.074124 2.441624 0.084733 -0.015983 -97709.800000 0 0 1
-7.514617 -14.982488 -19.219923 25.501958 1.105901 2.424416 0.060839 -0.015440 -575868.000000 0 0 1
-6.773017 -13.827588 -19.276023 24.670651 1.115327 2.467597 0.061666 -0.021622 -184484.000000 0 1 0
-5.879217 -13.646188 -18.029223 23.363144 1.163996 2.452298 0.040746 -0.017249 315261.000000 0 1 0
-4.817017 -14.584588 -17.851123 23.549447 1.251795 2.431079 0.033753 -0.010125 3621.090000 0 1 0
-3.930417 -13.969988 -16.953123 22.316297 1.296539 2.433609 0.024602 -0.006888 -675859.000000 0 1 0
-3.004417 -14.916188 -16.247823 22.260075 1.372036 2.388985 0.034642 -0.002742 805570.000000 0 1 0
-1.747017 -15.038488 -16.976423 22.746585 1.455145 2.413325 0.043782 -0.008313 733800.000000 0 1 0
-0.897417 -16.013088 -16.435323 22.963976 1.514812 2.368423 0.057077 0.002872 188765.000000 0 1 0
0.198983 -16.511888 -17.430923 24.010813 -1.558746 2.383228 0.048256 0.015691 336298.000000 0 1 0
-0.370017 -17.128888 -18.582023 25.275033 1.549198 2.396747 0.063467 -0.012446 26232.700000 0 0 1
-0.548417 -18.562488 -18.531723 26.235310 1.541261 2.355147 0.061417 -0.000622 -204624.000000 0 0 1
-1.075317 -19.191588 -19.844923 27.627782 1.514824 2.372146 0.066380 -0.013797 -41961.200000 0 0 1
-2.454717 -18.901088 -19.973923 27.608592 1.441647 2.379608 0.086603 -0.025702 -198947.000000 0 0 1
-2.831017 -19.071188 -21.317823 28.743250 1.423428 2.406343 0.059014 -0.037611 335639.000000 0 0 1
-3.756017 -17.918188 -21.820023 28.483022 1.364168 2.443503 0.083130 -0.042012 536511.000000 0 0 1
-3.060117 -16.665188 -21.733723 27.558075 1.389196 2.479409 0.074307 -0.033005 214388.000000 0 0 1
-3.339717 -16.065888 -20.468123 26.233767 1.365839 2.465815 0.074972 -0.024998 359685.000000 0 0 1
-2.365717 -14.871588 -20.151523 25.156403 1.413042 2.499843 0.061714 -0.013322 164401.000000 0 0 1
-2.435217 -13.876688 -21.159323 25.420655 1.397075 2.554162 0.043778 -0.013319 -66345.000000 0 0 1
-1.556517 -12.791888 -20.980323 24.621720 1.449712 2.590793 0.028733 -0.002953 12242.200000 0 1 0
-1.418017 -11.816688 -22.153723 25.148207 1.451366 2.648613 0.034753 -0.002715 675699.000000 0 0 1
-2.642717 -11.086288 -22.310423 25.052838 1.336786 2.669316 0.033195 -0.006319 614440.000000 0 0 1
-2.656517 -10.290588 -23.427123 25.725151 1.318162 2.715699 0.037005 0.001904 133797.000000 0 0 1
-3.641817 -9.085488 -23.449623 25.410504 1.189567 2.746165 0.029305 0.003907 192954.000000 0 0 1
-5.029917 -9.345788 -23.375523 25.672142 1.077057 2.715386 0.060337 -0.004766 346284.000000 0 0 1
-5.718917 -8.176188 -23.744123 25.755377 0.960433 2.743777 0.043798 -0.005614 -846724.000000 0 0 1
-7.246817 -8.154388 -23.602623 26.001812 0.844259 2.708638 0.045848 -0.014959 15484.000000 0 0 1
-7.980617 -8.603288 -24.739323 27.381397 0.822927 2.698683 0.054581 -0.016215 265901.000000 0 0 1
-8.116117 -7.584988 -25.693863 27.992463 0.751584 2.733514 0.054438 -0.024355 -888874.000000 0 0 1
-8.941617 -7.996688 -26.889753 29.444156 0.729669 2.721978 0.039350 -0.026409 49664.500000 0 0 1
-9.782117 -6.904888 -27.308933 29.818536 0.614654 2.728385 0.057456 -0.033771 85915.200000 0 0 1
-10.680217 -7.427288 -28.251333 31.102563 0.607649 2.710066 0.055806 -0.028909 190990.000000 0 0 1
-11.697117 -6.387088 -28.840933 31.771321 0.499797 2.708724 0.068017 -0.034935 382622.000000 0 0 1
-11.089117 -5.527688 -29.791863 32.265755 0.462430 2.747454 0.051216 -0.026175 409641.000000 0 0 1
-12.001617 -4.998388 -30.746443 33.382127 0.394629 2.741552 0.073345 -0.026030 325029.000000 0 0 1
-11.257017 -3.830888 -31.472573 33.644003 0.328017 2.780351 0.064054 -0.028748 352089.000000 0 0 1
-10.178217 -4.208788 -32.299143 34.125425 0.392098 2.812956 0.051251 -0.019979 184734.000000 0 0 1
-9.783117 -3.148488 -33.161933 34.717951 0.311361 2.841067 0.053163 -0.017064 206516.000000 0 0 1
-8.558917 -3.389388 33.739086 34.972402 0.377059 0.266363 0.041945 -0.017056 -315121.000000 0 0 1
-7.307317 -3.233888 -33.518013 34.457395 0.416645 2.907555 0.044941 -0.019244 -793310.000000 0 0 1
-6.348217 -3.753988 33.400305 34.204863 0.534031 0.217323 0.040629 -0.017978 -116158.000000 0 0 1
-4.923417 -3.408488 33.845614 34.371258 0.605540 0.175113 0.066776 -0.024453 -330657.000000 0 0 1
-4.626717 -2.066388 33.757900 34.136084 0.420040 0.148992 0.089017 -0.039587 -1251840.000000 0 0 1
-3.281517 -1.800388 33.900764 34.106767 0.501802 0.109964 0.093046 -0.039539 -846975.000000 0 0 1
-3.008017 -0.382088 -33.514863 33.651749 0.126347 3.051365 0.098067 -0.041633 -119099.000000 0 0 1
-3.291917 -0.208588 -32.131103 32.299969 0.063279 3.039293 0.088631 -0.037193 -68609.000000 0 0 1
-3.830817 1.045212 -31.824883 32.071651 -0.266360 3.017462 0.107071 -0.039907 -772697.000000 0 0 1
-4.293017 1.044512 -30.377813 30.697435 -0.238667 2.997162 0.129081 -0.049651 505564.000000 0 0 1
-5.349317 0.121212 -30.098743 30.570643 -0.022655 2.965659 0.114334 -0.047154 992496.000000 0 0 1
-6.676017 0.538212 -30.478763 31.205991 -0.080445 2.925282 0.119183 -0.048392 640262.000000 0 0 1
-7.706617 -0.595888 -30.262053 31.233617 0.077168 2.891517 0.096328 -0.043570 163799.000000 0 0 1
-8.164717 -0.951688 -28.966903 30.110625 0.116037 2.865090 0.080133 -0.041351 262610.000000 0 0 1
-9.158817 -1.968588 -28.995743 30.471501 0.211718 2.829097 0.063130 -0.031496 196910.000000 0 0 1
-9.495217 -2.645588 -27.652893 29.357124 0.271732 2.799183 0.062719 -0.032048 460745.000000 0 0 1
-10.425217 -1.868688 -26.850053 28.863515 0.177363 2.765868 0.065881 -0.028164 660045.000000 0 0 1
-10.846817 -2.611488 -25.685033 28.003468 0.236264 2.731814 0.061443 -0.026388 223651.000000 0 0 1
-11.840717 -1.831588 -24.787623 27.531501 0.153469 2.691339 0.062766 -0.025121 -14208.900000 0 0 1
-11.200717 -0.711588 -24.327023 26.791164 0.063445 2.709339 0.066177 -0.019654 -169064.000000 0 0 1
-11.966317 0.046812 -23.396923 26.279477 -0.003912 2.668825 0.067811 -0.023465 -25970.600000 0 0 1
-11.221417 1.246812 -22.797923 25.440519 -0.110656 2.681759 0.086279 -0.025550 19740.100000 0 0 1
-11.143717 2.329212 -23.745723 26.333762 -0.206049 2.694532 0.074008 -0.022238 -23729.900000 0 0 1
-10.324217 3.372512 -23.248323 25.660238 -0.315733 2.704546 0.084808 -0.018127 -191499.000000 0 0 1
-10.309517 4.663312 -24.162723 26.680888 -0.424791 2.703634 0.103229 -0.024810 -54860.800000 0 0 1
-11.552917 5.316112 -24.225223 27.360416 -0.431265 2.658175 0.097989 -0.021740 -476101.000000 0 0 1
-12.318817 4.833912 -25.282673 28.536529 -0.373938 2.659390 0.085928 -0.017428 245100.000000 0 0 1
-13.633317 5.693212 -25.471093 29.445824 -0.395582 2.615977 0.077724 -0.006219 782250.000000 0 0 1
-13.430217 7.060612 -25.942303 30.053719 -0.484016 2.612366 0.082311 -0.009003 -103311.000000 0 0 1
-14.677017 7.632712 -26.266373 31.041834 -0.479555 2.579535 0.081171 -0.002146 -74548.900000 0 0 1
-14.671717 9.139112 -26.076593 31.285321 -0.557093 2.556225 0.107619 -0.006437 -270097.000000 0 0 1
-14.735317 9.586312 -24.704023 30.320219 -0.576774 2.523130 0.140257 -0.020428 226825.000000 0 0 1
-14.670817 10.996012 -24.624323 30.700202 -0.643191 2.501583 0.143384 -0.016601 -131380.000000 0 0 1
-14.461617 11.484612 -23.202323 29.654383 -0.671160 2.469346 0.142267 -0.028031 516471.000000 0 0 1
-15.639117 11.307812 -22.407223 29.572491 -0.626027 2.430585 0.154507 -0.030092 534177.000000 0 0 1
-15.370517 11.592712 -21.064923 28.537251 -0.646195 2.401128 0.141880 -0.025796 185066.000000 0 0 1
-16.670917 11.689712 -20.242623 28.711193 -0.611533 2.353280 0.139561 -0.027954 617288.000000 0 0 1
-17.646117 12.705912 -20.525223 29.901679 -0.624049 2.327356 0.127929 -0.027850 736453.000000 0 0 1
-18.431717 13.024812 -19.386223 29.752303 -0.615177 2.280471 0.115248 -0.017569 397396.000000 0 0 1
-19.930117 13.403412 -19.543023 30.964346 -0.592044 2.253826 0.107274 -0.025368 376899.000000 0 0 1
-20.235417 14.570612 -20.287223 32.145703 -0.624059 2.253770 0.087010 -0.025193 68309.900000 0 0 1
-21.604417 14.904812 -20.217123 33.130594 -0.603913 2.227141 0.088643 -0.021874 -44531.300000 0 0 1
-21.994617 16.164812 -20.965223 34.418089 -0.633795 2.225764 0.085070 -0.014619 -136766.000000 0 0 1
-22.058617 16.046912 -22.373823 35.279936 -0.628923 2.257744 0.086447 -0.011299 65621.100000 0 0 1
-22.021917 17.306512 -23.021423 36.255566 -0.666070 2.258774 0.072716 0.002916 -49495.500000 0 0 1
-21.673617 17.191012 -24.549423 36.985818 -0.670567 2.296621 0.071603 0.002297 730996.000000 0 0 1
-20.296917 16.772012 -24.653723 36.070365 -0.690593 2.323329 0.081305 -0.007911 1046770.000000 0 0 1
-19.720317 16.679112 -25.941803 36.606841 -0.702041 2.358393 0.075175 -0.008612 40135.600000 0 0 1
-19.245717 18.025112 -26.569063 37.432838 -0.752660 2.359982 0.056290 -0.001955 -661754.000000 0 0 1
-20.236317 18.877512 -27.092203 38.727980 -0.750672 2.345566 0.054546 -0.003983 -59015.900000 0 0 1
-19.827917 20.231412 -27.183593 39.260718 -0.795470 2.335588 0.036554 -0.001501 18069.900000 0 0 1
-20.979317 21.292112 -27.439003 40.575665 -0.792798 2.313447 0.062577 -0.003448 672836.000000 0 0 1
-21.654917 21.754212 -26.264303 40.397955 -0.787686 2.278564 0.070469 -0.004272 34546.600000 0 0 1
-22.757517 20.971112 -25.920203 40.367673 -0.744569 2.268035 0.101522 -0.012528 -911773.000000 0 0 1
-23.569317 21.467012 -24.739323 40.353183 -0.738752 2.230737 0.096995 -0.003766 -400915.000000 0 0 1
-23.016017 21.209512 -23.469923 39.120553 -0.744573 2.214220 0.072367 -0.005541 -40938.800000 0 0 1
-23.757617 21.627512 -22.329723 39.125313 -0.738499 2.178183 0.064338 -0.009198 -199240.000000 0 0 1
-23.350317 20.838112 -21.102823 37.746435 -0.728607 2.164058 0.063185 -0.007619 -95103.600000 0 0 1
-21.974117 21.049512 -20.850323 36.887392 -0.763911 2.171524 0.063540 -0.010170 -50269.600000 0 0 1
-21.286017 20.104112 -20.078823 35.502520 -0.756851 2.171909 0.060942 -0.014421 -288865.000000 0 0 1
-21.916917 19.678812 -18.747323 34.915168 -0.731644 2.137601 0.071967 -0.020387 -994406.000000 0 0 1
-22.872317 18.650012 -18.947323 35.070883 -0.684059 2.141540 0.102806 -0.024443 127184.000000 0 0 1
-23.582617 18.249512 -17.792323 34.723929 -0.658594 2.108766 0.091499 -0.023945 -120906.000000 0 0 1
-24.724817 19.141812 -17.293723 35.732315 -0.658806 2.075993 0.064267 -0.020727 -1153060.000000 0 0 1
-25.736397 19.326112 -18.221023 36.984678 -0.644093 2.085945 0.061095 -0.009749 -719089.000000 0 0 1
-26.632667 20.267012 -17.712923 37.865530 -0.650493 2.057579 0.071962 -0.010984 -172868.000000 0 0 1
-28.069467 20.196212 -18.373423 39.158200 -0.623699 2.059192 0.051492 0.010331 937571.000000 0 0 1
-28.826497 19.031112 -18.133523 39.012495 -0.583509 2.054220 0.035872 0.004988 161528.000000 0 0 1
-29.191437 18.805812 -16.769223 38.561709 -0.572304 2.020687 0.044065 -0.003058 -696033.000000 0 0 1
-30.217377 17.662612 -16.471923 38.683096 -0.528958 2.010661 0.023291 -0.003685 -243720.000000 0 0 1
-29.711437 16.367612 -16.596223 37.763776 -0.503523 2.025810 0.044528 -0.010599 -16189.100000 0 0 1
-30.639757 15.411912 -16.128323 37.900455 -0.466048 2.010360 0.037193 -0.004554 24276.200000 0 0 1
-29.955547 14.284012 -15.345623 36.563040 -0.444949 2.003915 0.084536 -0.012915 557642.000000 0 0 1
-29.196547 14.843512 -14.214823 35.704753 -0.470345 1.980264 0.102981 -0.017191 418828.000000 0 0 1
-29.984237 14.776612 -13.058023 35.887528 -0.457881 1.943205 0.067830 -0.010735 -37648.300000 0 0 1
-29.299947 15.358812 -11.816723 35.128548 -0.482814 1.913872 0.098820 -0.030120 -218490.000000 0 0 1
-29.046447 16.742112 -11.748723 35.525017 -0.522879 1.907859 0.094986 -0.022993 828795.000000 0 0 1
-30.170757 17.606212 -11.437423 36.756875 -0.528238 1.887214 0.054153 -0.014074 584262.000000 0 0 1
-29.772797 19.082412 -11.657223 37.235047 -0.569976 1.889221 0.112910 -0.016429 -197419.000000 0 0 1
-28.901347 19.630512 -10.723223 36.546304 -0.596646 1.868593 0.066581 -0.021553 -335860.000000 0 0 1
-28.021287 20.499112 -11.366023 36.532076 -0.631591 1.887172 0.053430 -0.022770 -45309.300000 0 0 1
-27.071907 21.310112 -10.433923 35.998274 -0.666867 1.864861 0.063725 -0.016017 702852.000000 0 0 1
-27.790177 22.378512 -9.857323 37.017003 -0.677944 1.840340 0.073611 -0.011593 605980.000000 0 0 1
-26.908777 23.501512 -9.911223 37.076079 -0.717910 1.841408 0.091627 -0.011229 610252.000000 0 0 1
-27.435587 24.648912 -9.012723 37.967215 -0.731946 1.810466 0.108145 0.008372 207033.000000 0 0 1
-27.125137 24.453612 -7.644723 37.312115 -0.733649 1.777143 0.086722 0.007264 -769065.000000 0 0 1
-28.266597 24.571212 -6.901923 38.083874 -0.715574 1.753033 0.108846 -0.001949 -802984.000000 0 0 1
-28.140457 23.952812 -5.509223 37.362736 -0.705183 1.718788 0.105949 0.000893 -8434.430000 0 0 1
-28.160337 22.553212 -5.584323 36.508035 -0.675281 1.724361 0.111257 -0.003968 66931.200000 0 0 1
-28.081607 21.873612 -4.336423 35.858557 -0.661761 1.692024 0.102730 0.000024 -15451.200000 0 0 1
-27.981727 20.348312 -4.478123 34.886737 -0.628749 1.699513 0.124507 -0.006221 -111269.000000 0 0 1
-27.047447 19.742912 -5.343923 33.910241 -0.630536 1.729046 0.106064 -0.019723 -63257.700000 0 0 1
-27.216037 19.839812 -6.734423 34.346517 -0.629909 1.768148 0.091889 -0.012636 -557061.000000 0 0 1
-28.030457 18.754512 -7.440223 34.536866 -0.589669 1.787927 0.103845 -0.015969 -207098.000000 0 0 1
-27.465677 17.440112 -7.479223 33.383524 -0.565743 1.796754 0.103078 -0.020036 165411.000000 0 0 1
-27.578077 16.906612 -8.791023 33.521126 -0.549956 1.836153 0.075805 -0.027613 -102900.000000 0 0 1
-27.388397 15.384212 -8.827523 32.630100 -0.511786 1.844743 0.124693 -0.039110 -10853.700000 0 0 1
-28.370537 14.667712 -8.108723 32.951184 -0.477159 1.819433 0.112874 -0.031653 -75807.400000 0 0 1
-28.321457 13.279612 -8.406523 32.390162 -0.438450 1.833342 0.117178 -0.038253 -171721.000000 0 0 1
-29.195727 12.534612 -7.401023 32.623337 -0.405533 1.799652 0.108687 -0.035746 -736850.000000 0 0 1
-30.573587 12.723012 -7.589323 33.973770 -0.394346 1.796085 0.139576 -0.028861 -548042.000000 0 0 1
-31.234527 11.772112 -6.768423 34.058623 -0.360430 1.770857 0.164082 -0.035526 -210399.000000 0 0 1
-31.663977 10.468012 -7.530623 34.189135 -0.319286 1.792881 0.151728 -0.031114 -850879.000000 0 0 1
-30.662187 9.653612 -8.061823 33.141438 -0.305013 1.816517 0.144926 -0.027229 -483807.000000 0 0 1
-31.088867 8.320812 -8.275823 33.230149 -0.261517 1.822491 0.125618 -0.016345 -362591.000000 0 0 1
-29.978077 7.299112 -8.555723 32.018159 -0.238834 1.841298 0.161364 -0.019124 -359673.000000 0 0 1
-29.344527 7.492212 -9.794023 31.830133 -0.249978 1.883568 0.157537 -0.027162 -331428.000000 0 0 1
-28.454697 6.448812 -9.953723 30.827480 -0.222869 1.899572 0.165827 -0.035834 -877160.000000 0 0 1
-27.526467 6.560312 -11.181723 30.426551 -0.233963 1.947115 0.124731 -0.026844 209547.000000 0 0 1
-26.513307 7.580312 -11.059423 29.710729 -0.278477 1.952214 0.153416 -0.028736 930336.000000 0 0 1
-25.638577 7.586012 -12.181823 29.381644 -0.287675 1.998307 0.135486 -0.009967 79675.400000 0 0 1
-32.504637 25.620012 -33.113833 53.004361 -0.667502 2.245592 0.058741 -0.015760 -302409.000000 0 0 1
-33.193047 26.748212 -33.541453 54.242734 -0.678290 2.237449 0.057706 -0.017038 90545.700000 0 0 1
-32.847357 27.208612 33.009029 53.933787 -0.691781 0.912173 0.068566 -0.020542 -288061.000000 0 0 1
-33.611117 28.476412 32.649245 54.832348 -0.702885 0.932986 0.072170 -0.028805 -267974.000000 0 0 1
-33.336517 28.905712 31.357234 54.130764 -0.714332 0.952943 0.092874 -0.022651 170064.000000 0 0 1
-33.891977 30.163112 31.053994 54.980268 -0.727250 0.970580 0.102515 -0.028172 -122974.000000 0 0 1
-33.540207 30.574412 29.635644 54.203427 -0.739173 0.992320 0.092783 -0.034043 359790.000000 0 0 1
-32.209817 31.014312 29.352904 53.487875 -0.766491 0.989896 0.087906 -0.027749 508354.000000 0 0 1
-32.018917 31.562512 28.081544 53.009209 -0.778220 1.012492 0.084035 -0.027353 -768400.000000 0 0 1
-30.561727 31.593912 27.666604 51.938765 -0.802003 1.009035 0.085247 -0.026213 -899365.000000 0 0 1
-30.133887 30.326812 27.156504 50.648221 -0.788589 1.004893 0.100045 -0.029754 571576.000000 0 0 1
-28.903737 30.406512 26.430284 49.583685 -0.810730 1.008602 0.077520 -0.022053 185896.000000 0 0 1
-29.015337 30.929712 24.975804 49.217147 -0.817323 1.038560 0.074215 -0.024892 -390992.000000 0 0 1
-29.203087 32.310012 24.932314 50.183437 -0.835864 1.050862 0.056721 -0.028660 347244.000000 0 0 1
-30.276497 32.747912 24.095194 50.691916 -0.824592 1.075462 0.066231 -0.026661 72692.900000 0 0 1
-30.754597 -33.814140 24.492924 51.856963 0.832747 1.078879 0.065890 -0.020484 -601930.000000 0 0 1
-31.340427 -33.729340 25.790404 52.773437 0.822095 1.060197 0.063767 -0.029265 125873.000000 0 0 1
-31.179287 -32.515040 26.445634 52.237413 0.806366 1.039956 0.043723 -0.026924 -258157.000000 0 0 1
-31.580657 -32.545640 27.920164 53.254973 0.800445 1.018935 0.068985 -0.026825 -172261.000000 0 0 1
-32.963867 -32.740040 28.084874 54.288920 0.781992 1.027077 0.050137 -0.027226 -204857.000000 0 0 1
-33.180247 -33.043240 29.466174 55.326665 0.783329 1.009144 0.057408 -0.023011 38489.000000 0 0 1
-34.678010 -33.310040 29.715234 56.525377 0.765280 1.017262 0.069026 -0.029041 -12917.300000 0 0 1
-34.959103 -33.614740 31.039834 57.580907 0.765796 1.001470 0.068223 -0.027237 -1551900.000000 0 0 1
-36.290887 -33.741540 31.282914 58.601542 0.749012 1.007680 0.048842 -0.026058 -1531620.000000 0 0 1
-36.590077 33.951012 32.818386 59.737353 -0.748004 0.989177 0.042089 -0.021558 -59550.900000 0 0 1
-36.266547 32.704012 33.329657 59.124283 -0.733791 0.971911 0.040014 -0.021000 479333.000000 0 0 1
-37.228397 32.317712 -33.490063 59.598425 -0.714905 2.167512 0.043093 -0.018371 830200.000000 0 0 1
-36.917277 30.907712 -33.055943 58.402631 -0.697025 2.172443 0.047011 -0.017997 310730.000000 0 0 1
-35.840355 30.689612 -32.160073 57.102133 -0.708132 2.169053 0.048671 -0.024667 -184724.000000 0 0 1
-35.539354 29.295412 -31.990323 56.077157 -0.689389 2.177874 0.056756 -0.025201 450753.000000 0 0 1
-34.357464 29.115812 -30.991873 54.668656 -0.703005 2.173539 0.056100 -0.019282 215141.000000 0 0 1
-34.718675 29.354712 -29.649863 54.278908 -0.701877 2.148677 0.072085 -0.025422 -246689.000000 0 0 1
-34.564294 30.724812 -29.319393 54.757020 -0.726658 2.135831 0.060003 -0.026674 251022.000000 0 0 1
-35.697998 31.165412 -28.341693 55.216678 -0.717713 2.109800 0.058657 -0.021292 450956.000000 0 0 1
-35.571510 30.542012 -27.018503 54.112349 -0.709471 2.093591 0.064734 -0.039721 -176521.000000 0 0 1
-36.618627 30.983612 -26.196493 54.654956 -0.702235 2.070661 0.107320 -0.032770 -265483.000000 0 0 1
-36.459397 30.686712 -24.659023 53.656587 -0.699637 2.048309 0.096140 -0.031805 -430712.000000 0 0 1
-36.022938 31.769212 -23.867023 53.633661 -0.722734 2.031971 0.108113 -0.035181 91405.500000 0 0 1
-36.235647 31.552312 -22.473723 53.043743 -0.716420 2.008304 0.094872 -0.037712 138080.000000 0 0 1
36.863421 31.584312 -21.856523 53.237093 0.708424 1.993854 0.081610 -0.034065 282917.000000 0 0 1
36.185801 32.871112 -21.835123 53.541523 0.737436 1.990858 0.091980 -0.041637 257035.000000 0 0 1
36.643941 33.834812 -20.919323 54.085034 0.745561 1.967940 0.092650 -0.040645 -352652.000000 0 0 1
36.688011 33.561312 -19.364523 53.360627 0.740919 1.942174 0.094806 -0.035037 -530420.000000 0 0 1
-36.989467 32.540412 -19.011423 52.806564 -0.721498 1.939086 0.082878 -0.042594 -367650.000000 0 0 1
-36.600547 32.569712 -17.621623 52.066378 -0.727190 1.916061 0.071658 -0.027822 403766.000000 0 0 1
-35.466681 31.504012 -17.383223 50.522912 -0.726297 1.922040 0.090172 -0.030463 486172.000000 0 0 1
-34.968694 31.353912 -16.054623 49.634950 -0.730949 1.900174 0.065450 -0.014233 816026.000000 0 0 1
-33.804277 30.487912 -16.094223 48.283184 -0.733861 1.910629 0.089674 -0.016540 677512.000000 0 0 1
-33.311687 30.075812 -14.707523 47.228531 -0.734393 1.887475 0.092025 -0.016111 -729780.000000 0 0 1
-34.251482 29.324912 -13.993323 47.211519 -0.708062 1.871714 0.066437 -0.007913 -108664.000000 0 0 1
-33.807047 28.980612 -12.713923 46.308056 -0.708680 1.848919 0.087766 -0.004710 572593.000000 0 0 1
-34.955151 28.213012 -11.921723 46.475414 -0.679068 1.830213 0.084779 -0.012281 517622.000000 0 0 1
-34.572106 28.005712 -10.602723 45.738038 -0.680849 1.804739 0.090548 -0.007147 642197.000000 0 0 1
-35.354900 26.987412 -9.908323 45.568237 -0.651977 1.789986 0.113956 -0.019579 208506.000000 0 0 1
-34.549344 26.340812 -8.792623 44.326129 -0.651397 1.770483 0.118998 -0.007920 -94113.200000 0 0 1
-34.253376 27.203112 -7.720323 44.417411 -0.671178 1.745497 0.122896 -0.009027 -180778.000000 0 0 1
-33.200607 26.643312 -7.008423 43.142373 -0.676260 1.733968 0.114527 -0.014154 -556911.000000 0 0 1
-32.812687 27.255312 -5.635023 43.026479 -0.693143 1.702140 0.120564 -0.018684 -249361.000000 0 0 1
-31.784937 26.495112 -5.067023 41.688702 -0.694881 1.692642 0.125666 -0.014114 21414.000000 0 0 1
-31.395057 26.968612 -3.797023 41.561677 -0.709701 1.662283 0.116156 -0.018541 -280863.000000 0 0 1
-30.520557 25.997012 -2.999423 40.203800 -0.705531 1.645471 0.110149 -0.020344 -207829.000000 0 0 1
-31.177347 24.890012 -2.459423 39.969844 -0.673726 1.632367 0.101274 -0.002823 -122588.000000 0 0 1
-30.247917 23.957412 -1.952123 38.635538 -0.669865 1.621344 0.095254 -0.009940 -147446.000000 0 0 1
-30.918717 22.775712 -1.307923 38.424091 -0.634890 1.604842 0.095275 -0.006354 -171564.000000 0 0 1
-31.483477 22.024912 -2.363623 38.495360 -0.610438 1.632235 0.101997 -0.004196 -40662.200000 0 0 1
-32.237887 20.894512 -1.985023 38.468198 -0.575063 1.622421 0.113762 -0.008621 152583.000000 0 0 1
-32.600697 20.070812 -3.266923 38.422854 -0.551852 1.655925 0.150530 -0.005228 -151084.000000 0 0 1
-31.557397 19.233012 -3.634423 37.134715 -0.547347 1.668825 0.132117 -0.008325 -274234.000000 0 0 1
-31.897827 18.588312 -4.849723 37.235957 -0.527636 1.701410 0.141916 -0.009477 115879.000000 0 0 1
-30.922687 17.475512 -5.298523 35.912121 -0.514389 1.718878 0.141196 -0.020032 -110404.000000 0 0 1
-30.771717 16.360212 -4.431023 35.131027 -0.488657 1.697262 0.169215 -0.023419 -213191.000000 0 0 1
-29.969867 15.384512 -5.018623 34.059693 -0.474257 1.718683 0.168939 -0.034833 -136425.000000 0 0 1
-29.587677 14.303812 -3.911023 33.095706 -0.450311 1.689246 0.171565 -0.035884 207082.000000 0 0 1
-30.721757 13.519612 -3.572223 33.754511 -0.414562 1.676824 0.197212 -0.037303 285867.000000 0 0 1
-30.484087 12.389112 -2.701023 33.016135 -0.386022 1.652697 0.183092 -0.043536 671719.000000 0 0 1
-31.791897 11.619712 -2.249823 33.923504 -0.350410 1.637166 0.192731 -0.035870 915927.000000 0 0 1
-32.594057 11.097112 -3.302923 34.589416 -0.328155 1.666431 0.179640 -0.024198 1239180.000000 0 0 1
-33.822727 10.467612 -2.872123 35.521780 -0.300135 1.651740 0.184225 -0.024625 634251.000000 0 0 1
-34.713688 10.104912 -4.027323 36.378135 -0.283265 1.681731 0.148153 -0.028137 -318844.000000 0 0 1
-34.193739 8.957512 -4.699323 35.658553 -0.256206 1.702968 0.147141 -0.025151 807257.000000 0 0 1
-35.185374 8.299612 -5.493123 36.565947 -0.231648 1.721592 0.140659 -0.015086 296059.000000 0 0 1
-34.590613 7.231212 -6.458323 35.923681 -0.206083 1.751558 0.154847 -0.016805 67093.500000 0 0 1
-33.695507 6.300812 -5.879323 34.780078 -0.184858 1.740655 0.148528 -0.026488 443986.000000 0 0 1
-33.347007 5.248412 -6.737523 34.423290 -0.156107 1.767794 0.162242 -0.035035 -782729.000000 0 0 1
-32.221087 4.341612 -6.289623 33.115063 -0.133938 1.761890 0.159369 -0.040266 -393720.000000 0 0 1
-30.965817 5.014312 -6.363223 32.008057 -0.160537 1.770930 0.151776 -0.039963 470549.000000 0 0 1
-30.008067 4.100312 -5.827023 30.842354 -0.135799 1.760868 0.160183 -0.038582 -77415.400000 0 0 1
-28.567417 4.627212 -5.624323 29.481204 -0.160581 1.762750 0.161272 -0.039709 -47771.900000 0 0 1
-27.958337 4.769512 -6.864923 29.181227 -0.168967 1.808273 0.174770 -0.032827 298993.000000 0 0 1
-26.548637 4.589212 -6.737923 27.772119 -0.171169 1.815856 0.177032 -0.040422 339171.000000 0 0 1
-25.757177 4.750112 -8.043123 27.398678 -0.182370 1.868744 0.160277 -0.031870 -436473.000000 0 0 1
-26.047747 3.815212 -9.030023 27.831318 -0.145436 1.901232 0.163116 -0.044066 339532.000000 0 0 1
-25.141387 3.840612 -10.169923 27.391001 -0.151589 1.951191 0.168601 -0.040607 46879.400000 0 0 1
-25.573187 3.129312 -11.405023 28.175433 -0.121762 1.987541 0.145091 -0.043257 -470102.000000 0 0 1
-26.564757 3.781012 -12.155223 29.457288 -0.141382 1.996146 0.147776 -0.026001 99285.000000 0 0 1
-27.034377 2.901512 -13.142723 30.199461 -0.106917 2.021054 0.142216 -0.032375 -397590.000000 0 0 1
-27.903397 3.676012 -14.080923 31.470383 -0.130986 2.034690 0.134421 -0.028269 -802746.000000 0 0 1
-27.097827 4.431512 -14.925323 31.252132 -0.162103 2.068692 0.114985 -0.019978 311782.000000 0 0 1
-27.778707 5.423812 -15.713723 32.372757 -0.192825 2.077616 0.147442 -0.029437 -26607.800000 0 0 1
-28.660137 4.885812 -16.856923 33.607000 -0.168851 2.096232 0.105177 -0.015788 -354300.000000 0 0 1
-29.966357 4.543512 -16.495923 34.507123 -0.150474 2.069223 0.118625 -0.028898 -380732.000000 0 0 1
-30.702817 4.050912 -17.612323 35.626770 -0.131182 2.087891 0.125297 -0.024770 1201100.000000 0 0 1
-32.236107 3.818012 -17.286323 36.777177 -0.117890 2.060119 0.127902 -0.029265 834102.000000 0 0 1
-32.521987 2.752412 -16.424623 36.537975 -0.084431 2.037026 0.132648 -0.038593 136123.000000 0 0 1
-32.403267 1.438612 -17.016823 36.628043 -0.044368 2.053962 0.142624 -0.043139 -285753.000000 0 0 1
-32.534487 0.395612 -15.938423 36.230963 -0.012159 2.026297 0.164527 -0.039295 -498208.000000 0 0 1
-32.163877 -0.931388 -16.385423 36.109064 0.028950 2.041794 0.172947 -0.018146 426189.000000 0 0 1
-32.270417 -1.877688 -15.359823 35.788681 0.058121 2.014382 0.177512 -0.027689 -122499.000000 0 0 1
-31.809607 -3.266788 -15.851023 35.690025 0.102339 2.031000 0.164128 -0.017597 -103103.000000 0 0 1
-32.759047 -3.717788 -16.775523 36.991827 0.113005 2.041477 0.181111 -0.022514 -28320.500000 0 0 1
-32.353167 -4.717988 -17.676223 37.167670 0.144807 2.066420 0.176745 -0.011630 -201259.000000 0 0 1
-33.271017 -4.803188 -18.892223 38.560955 0.143375 2.082807 0.175470 -0.003727 -139659.000000 0 0 1
-32.887437 -5.900488 -19.727123 38.801529 0.177526 2.104135 0.182351 -0.000556 411121.000000 0 0 1
-33.744317 -6.030288 -20.865823 40.130112 0.176839 2.117594 0.169374 -0.004295 83425.500000 0 0 1
-33.563057 -7.258088 -21.795523 40.671900 0.212973 2.136354 0.171232 0.000046 -360738.000000 0 0 1
-32.413617 -7.046788 -22.563523 40.117482 0.214071 2.168126 0.160592 -0.005883 -226995.000000 0 0 1
-32.207337 -7.988988 -23.615723 40.728845 0.243141 2.189314 0.145869 -0.000364 738200.000000 0 0 1
-30.780117 -7.894788 -24.283723 39.993030 0.251077 2.223327 0.126507 -0.002991 543333.000000 0 0 1
-30.546767 -6.743288 -25.131873 40.127147 0.217268 2.247602 0.114882 -0.007543 55453.600000 0 0 1
-30.745277 -6.947388 -26.566573 41.222822 0.222234 2.271117 0.087138 -0.008379 -683419.000000 0 0 1
-32.167407 -6.959288 -27.110083 42.639540 0.213062 2.259837 0.110066 -0.008389 -720892.000000 0 0 1
-32.853337 -8.112888 -26.743023 43.131774 0.242099 2.239578 0.114215 -0.008873 -991865.000000 0 0 1
-34.148131 -8.146788 -27.258193 44.446305 0.234194 2.231007 0.114025 -0.012490 19854.400000 0 0 1
-34.972180 -9.326588 -26.602633 44.919247 0.260620 2.204623 0.109804 -0.020179 -196313.000000 0 0 1
-34.695413 -10.597588 -27.172213 45.325596 0.296446 2.213659 0.113678 -0.005470 -263703.000000 0 0 1
-35.640799 -11.594388 -26.906083 46.137118 0.314514 2.193430 0.097224 -0.008598 207907.000000 0 0 1
-36.951567 -11.573388 -27.767123 47.648449 0.303526 2.192905 0.082362 -0.008289 616590.000000 0 0 1
36.700351 -10.511188 -27.289563 46.926763 -0.278939 2.191411 0.074230 -0.010197 114339.000000 0 0 1
35.954921 -10.080388 -28.397393 46.912498 -0.273344 2.220973 0.069518 -0.010513 120769.000000 0 0 1
34.875041 -8.991088 -28.060673 45.656429 -0.252314 2.232682 0.068725 -0.001306 761451.000000 0 0 1
33.694821 -9.490988 -27.422743 44.468265 -0.274561 2.235316 0.049435 -0.003637 281763.000000 0 0 1
32.743241 -8.464088 -27.321713 43.476851 -0.252961 2.250316 0.027913 0.003887 101682.000000 0 0 1
31.542131 -8.854588 -26.405003 42.077713 -0.273679 2.249172 0.022834 0.005373 48357.000000 0 0 1
31.836091 -9.050288 -25.073853 41.522795 -0.276971 2.219128 0.014975 0.011847 95790.900000 0 0 1
30.776371 -9.689588 -24.361723 40.429774 -0.305014 2.217512 0.006792 0.010416 158853.000000 0 0 1
31.050361 -9.879588 -22.884123 39.817261 -0.308051 2.183069 -0.001363 0.011352 -110205.000000 0 0 1
31.941911 -10.923088 -22.587723 40.617788 -0.329501 2.160487 -0.002652 0.011042 -6562.240000 0 0 1
32.152211 -10.850888 -21.201123 40.012423 -0.325482 2.129236 -0.000574 0.008554 -121403.000000 0 0 1
33.003961 -12.004288 -20.644523 40.737706 -0.348847 2.102227 0.018406 0.006883 -960130.000000 0 0 1
34.298351 -12.084888 -21.114823 42.050649 -0.338763 2.096854 0.038092 0.004204 -972316.000000 0 0 1
34.989331 -13.032188 -20.335823 42.516313 -0.356544 2.069521 0.074530 0.001820 461140.000000 0 0 1
36.513971 -13.135888 -20.674223 43.968683 -0.345334 2.060318 0.101798 -0.013225 806590.000000 0 0 1
-37.099307 -12.009988 -20.566023 44.085822 0.313079 2.056126 0.132695 -0.012064 1053980.000000 0 0 1
37.247831 -10.970688 -21.523823 44.396304 -0.286433 2.076944 0.137415 0.002705 -661122.000000 0 0 1
-36.764677 -11.246388 -22.984023 44.792723 0.296863 2.109612 0.112946 -0.000266 139700.000000 0 0 1
37.158071 -12.339888 -23.705623 45.770641 -0.320633 2.115216 0.102834 0.000414 787777.000000 0 0 1
35.817721 -12.108288 -24.149823 44.863501 -0.325992 2.139210 0.108769 0.000171 264509.000000 0 0 1
35.384211 -13.266788 -25.041153 45.333314 -0.358714 2.156011 0.084344 -0.022970 -441060.000000 0 0 1
35.294051 -14.607888 -24.483323 45.370624 -0.392424 2.140793 0.082704 -0.035889 572761.000000 0 0 1
34.219951 -14.870588 -23.587823 44.142098 -0.409939 2.134548 0.060856 -0.025528 -107949.000000 0 0 1
-30.173797 7.668412 -19.318923 36.639914 -0.248873 2.126174 0.092584 -0.014550 -544924.000000 0 0 1
-28.869997 7.218312 -19.448123 35.550109 -0.245005 2.149647 0.091988 -0.010185 -1117550.000000 0 0 1
-28.197907 7.925612 -20.402923 35.696170 -0.274001 2.179216 0.097761 -0.016979 187041.000000 0 0 1
-26.772497 7.306812 -20.593323 34.557793 -0.266434 2.209194 0.088305 -0.010903 -128559.000000 0 0 1
-25.849807 7.601012 -19.605823 33.322307 -0.285985 2.199837 0.089580 -0.004523 -83064.300000 0 0 1
-24.769017 6.668212 -19.737823 32.365891 -0.262981 2.226648 0.092790 -0.019233 740687.000000 0 0 1
-23.399617 7.166012 -19.187223 31.097320 -0.297176 2.235728 0.070659 -0.012059 593404.000000 0 0 1
-22.837417 8.273712 -19.904323 31.403566 -0.347579 2.257283 0.064742 -0.004382 -198453.000000 0 0 1
-21.537417 8.609312 -19.511223 30.309543 -0.380280 2.270161 0.075150 -0.003556 -46499.700000 0 0 1
-20.793717 9.594412 -20.469423 30.715284 -0.432301 2.300199 0.086741 -0.006730 41429.100000 0 0 1
-20.392317 9.020612 -21.725623 31.132310 -0.416477 2.343185 0.095777 -0.012610 92834.800000 0 0 1
-19.846317 9.986012 -22.593623 31.687040 -0.466178 2.364598 0.087684 -0.011830 421747.000000 0 0 1
-18.819117 9.462812 -23.659523 31.677705 -0.465909 2.414158 0.111012 -0.006690 453209.000000 0 0 1
-19.420617 8.565912 -24.566223 32.465897 -0.415406 2.429013 0.087096 -0.000272 577645.000000 0 0 1
-18.443117 7.959412 -25.423683 32.401612 -0.407418 2.472916 0.083104 0.005789 61833.000000 0 0 1
-19.026717 6.760812 -26.145563 33.035057 -0.341417 2.483972 0.059965 0.012318 -28923.200000 0 0 1
-19.391617 5.700312 -25.280303 32.366990 -0.285904 2.467145 0.074517 0.009668 376408.000000 0 0 1
-20.070117 4.706412 -26.042193 33.213788 -0.230337 2.472005 0.063978 0.003859 -545028.000000 0 0 1
-20.246817 3.295012 -25.387143 32.638899 -0.161328 2.461984 0.066150 0.002643 186436.000000 0 0 1
-19.130517 2.419612 -25.314043 31.821879 -0.125811 2.490615 0.060710 0.009110 797308.000000 0 0 1
-17.981517 2.888112 -24.588723 30.598716 -0.159255 2.504094 0.058740 0.009302 -65637.800000 0 0 1
-17.272117 1.745812 -23.811023 29.467587 -0.100735 2.511616 0.057225 -0.003209 -29788.800000 0 0 1
-17.968017 1.090412 -22.765623 29.022615 -0.060612 2.472540 0.053105 -0.002962 607130.000000 0 0 1
-19.230817 0.468812 -23.076423 30.042726 -0.024373 2.446696 0.055722 -0.004849 693688.000000 0 0 1
-19.741017 -0.556988 -22.013423 29.573785 0.028207 2.410366 0.072236 -0.011593 -6396.770000 0 0 1
-18.984717 -1.727588 -21.910923 29.042944 0.090749 2.425584 0.068374 -0.018800 -75175.600000 0 0 1
-19.319617 -2.347088 -20.683823 28.400298 0.120895 2.386628 0.090416 -0.019711 265940.000000 0 0 1
-18.718617 -3.798688 -20.568623 28.069287 0.200217 2.393195 0.058628 -0.027856 240527.000000 0 0 1
-19.167317 -4.554588 -21.683523 29.296851 0.233296 2.404062 0.061406 -0.032143 289737.000000 0 0 1
-19.367017 -5.900688 -21.407423 29.464847 0.295742 2.384071 0.072501 -0.030146 -166932.000000 0 0 1
-19.352817 -6.816288 -22.623023 30.541684 0.338644 2.404947 0.056199 -0.038130 51026.100000 0 0 1
-18.038717 -6.796588 -23.162023 30.134170 0.360328 2.447493 0.052385 -0.026376 355114.000000 0 0 1
-17.959917 -7.791288 -24.137723 31.078810 0.409314 2.460145 0.078638 -0.039120 -79261.000000 0 0 1
-16.526617 -7.820588 -24.674823 30.710544 0.441988 2.503888 0.089068 -0.041521 -909173.000000 0 0 1
-16.386317 -8.664888 -25.794653 31.764064 0.486412 2.518487 0.100896 -0.062906 172000.000000 0 0 1
-15.127417 -8.667888 -26.450943 31.680016 0.520324 2.558822 0.115963 -0.059605 576241.000000 0 0 1
-14.060717 -9.543588 -25.688753 30.800907 0.596315 2.557161 0.108716 -0.052249 -83149.000000 0 0 1
-13.492617 -8.974488 -24.496923 29.371608 0.586945 2.557176 0.098484 -0.037509 -417789.000000 0 0 1
-12.633517 -9.825688 -23.879623 28.746935 0.661024 2.551132 0.076749 -0.034685 -903153.000000 0 0 1
-11.842417 -9.121688 -22.783423 27.249447 0.656339 2.560942 0.072318 -0.024424 -229525.000000 0 0 1
-12.488717 -8.807488 -21.574223 26.438362 0.614231 2.525287 0.073602 -0.024866 139850.000000 0 0 1
-11.606417 -7.993988 -20.835123 25.153829 0.603140 2.546878 0.069543 -0.017369 -509674.000000 0 0 1
-12.074717 -7.832988 -19.424523 24.175744 0.575468 2.503900 0.057343 -0.020643 773430.000000 0 1 0
-13.215317 -6.992488 -19.134423 24.283032 0.486671 2.478310 0.048836 -0.018425 963453.000000 0 1 0
-14.478617 -7.609388 -19.342423 25.331057 0.483886 2.439644 0.051113 -0.035482 292751.000000 0 0 1
-15.644717 -6.560388 -19.271723 25.674796 0.397063 2.419779 0.060298 -0.019627 220448.000000 0 0 1
-15.826217 -5.958488 -18.000323 24.697861 0.360081 2.387395 0.052331 -0.019858 188433.000000 0 1 0
-15.206317 -4.716588 -17.875423 23.937607 0.300763 2.413959 0.045122 -0.015775 -837710.000000 0 1 0
-15.007417 -4.229488 -16.427923 22.649233 0.274702 2.382294 0.059531 -0.013153 -662792.000000 0 1 0
-16.133917 -3.912988 -15.678223 22.834654 0.237938 2.327595 0.096109 -0.022756 -428264.000000 0 1 0
-16.455517 -2.529088 -15.874623 23.003999 0.152499 2.332397 0.054149 -0.021154 -79385.000000 0 1 0
-17.678917 -2.202388 -15.007723 23.294342 0.123939 2.270858 0.053713 -0.027966 -157718.000000 0 1 0
-17.360217 -2.380788 -13.628823 22.198876 0.136290 2.231841 0.075611 -0.028224 375045.000000 0 1 0
-18.364317 -1.879288 -12.787423 22.456581 0.101979 2.176607 0.080948 -0.030222 -94084.100000 0 1 0
-17.924117 -0.539088 -12.092623 21.628595 0.030067 2.164100 0.075621 -0.026745 -4017.190000 0 1 0
-17.710617 0.434512 -13.065823 22.012961 -0.024529 2.206261 0.100947 -0.027451 97005.100000 0 1 0
-16.932817 1.430612 -12.520423 21.107532 -0.084287 2.205791 0.099811 -0.019928 -1157810.000000 0 1 0
-16.355517 2.349312 -13.640923 21.426548 -0.142664 2.260925 0.096292 -0.011933 163485.000000 0 1 0
-15.607317 1.704512 -14.677823 21.492608 -0.108781 2.322555 0.091944 -0.026736 225062.000000 0 1 0
-14.318217 1.421212 -14.171523 20.195624 -0.098935 2.348595 0.082567 -0.025326 -1332460.000000 0 1 0
-13.608717 0.399312 -15.009623 20.264387 -0.029334 2.404893 0.066749 -0.031235 -509208.000000 0 1 0
-13.421017 0.852612 -16.297823 21.129829 -0.063443 2.451706 0.076441 -0.030657 242120.000000 0 1 0
-12.749117 -0.175688 -17.049923 21.290155 0.013780 2.499486 0.024664 -0.021637 -21006.300000 0 1 0
-12.276317 0.415512 -18.354523 22.085495 -0.033834 2.551819 0.049851 -0.029897 64565.900000 0 1 0
-11.071917 1.167012 -18.272623 21.397149 -0.105015 2.594373 0.033603 -0.015496 -57626.100000 0 1 0
-10.847717 2.104012 -19.284823 22.226206 -0.191580 2.621275 0.056150 -0.017593 267899.000000 0 1 0
-9.402117 2.632112 -19.139323 21.485844 -0.272961 2.669872 0.039870 -0.015370 -645447.000000 0 1 0
-8.432617 1.725312 -19.574723 21.383533 -0.201814 2.727324 0.039439 -0.007738 -279532.000000 0 1 0
-7.107117 2.051712 -19.175323 20.552704 -0.281043 2.773410 0.033079 -0.007030 624549.000000 0 1 0
-6.463817 3.147412 -20.052723 21.302554 -0.453135 2.797345 0.038265 -0.008633 -966388.000000 0 1 0
-6.072817 2.718612 -21.348623 22.361432 -0.420914 2.839471 0.035040 -0.010715 99607.200000 0 1 0
-5.961717 3.802812 -22.257323 23.353626 -0.567802 2.833971 0.047133 -0.010798 -243034.000000 0 1 0
-5.398217 3.352812 -23.643523 24.482611 -0.555787 2.879027 0.066612 -0.020025 377590.000000 0 1 0
-4.014617 3.034712 -23.691923 24.220525 -0.647276 2.932287 0.079761 -0.024109 -59303.500000 0 1 0
-3.654117 2.589412 -24.980523 25.378813 -0.616494 2.964195 0.109347 -0.022572 885644.000000 0 0 1
-2.287417 1.817612 -24.835323 25.006584 -0.671448 3.024490 0.074195 -0.027996 335041.000000 0 0 1
-1.147917 2.614812 -24.668323 24.833065 -1.157123 3.026342 0.065640 -0.031704 -251425.000000 0 1 0
0.100683 1.972412 -24.749423 24.828098 1.519795 3.061962 0.063129 -0.023933 183384.000000 0 1 0
0.573683 1.114512 -23.532823 23.566183 1.095427 3.088377 0.062416 -0.026305 -520933.000000 0 1 0
-0.009217 -0.168688 -23.526823 23.527429 1.516212 3.134412 0.054997 -0.026981 175291.000000 0 1 0
0.686783 -0.944988 -22.556223 22.586453 -0.942333 3.089849 0.053557 -0.022396 56894.300000 0 1 0
0.003883 -2.351488 -22.446223 22.569059 -1.569145 3.037212 0.063328 -0.030130 -51057.600000 0 1 0
-1.275717 -2.210588 -21.883623 22.031956 1.047390 3.025487 0.051896 -0.023776 -963734.000000 0 1 0
-2.275317 -2.551388 -22.818823 23.073477 0.842533 2.992885 0.060937 -0.022562 -670260.000000 0 1 0
-3.240017 -1.366388 -22.796923 23.066521 0.399091 2.988552 0.078338 -0.024887 -1122140.000000 0 1 0
-4.056817 -1.362688 -21.632223 22.051479 0.324060 2.946282 0.065977 -0.018132 354875.000000 0 1 0
-4.985317 -0.282888 -21.598723 22.168406 0.056684 2.914398 0.043746 -0.022855 108183.000000 0 1 0
-6.304617 -0.411288 -22.359823 23.235297 0.065144 2.866211 0.062930 -0.014457 -534951.000000 0 1 0
-7.093217 -1.454188 -21.798423 22.969537 0.202209 2.820891 0.077631 -0.006476 964661.000000 0 1 0
-8.516917 -1.165088 -21.889323 23.516755 0.135953 2.767383 0.061189 -0.004301 1214530.000000 0 1 0
-9.255617 -2.470388 -21.547823 23.581305 0.260827 2.723259 0.049336 -0.008486 -380722.000000 0 1 0
-9.361317 -3.319988 -22.658123 24.739586 0.340811 2.728454 0.086175 -0.006697 47041.400000 0 1 0
-9.773017 -4.636688 -22.302723 24.787541 0.442990 2.690005 0.059960 -0.003279 5977.220000 0 1 0
-10.852817 -5.306688 -23.203323 26.159869 0.454784 2.661564 0.053586 -0.012175 956616.000000 0 0 1
-12.169717 -4.807388 -22.975523 26.440265 0.376214 2.623892 0.045530 -0.022687 19008.100000 0 0 1
-13.197717 -5.591088 -23.478723 27.508006 0.400719 2.593506 0.055636 -0.032859 -127037.000000 0 0 1
-14.614917 -5.181788 -23.016923 27.752936 0.340727 2.548741 0.045060 -0.038080 30851.300000 0 0 1
-14.974817 -3.887788 -23.367323 28.024843 0.254014 2.556765 0.068589 -0.037884 -1078520.000000 0 0 1
-16.346117 -3.943788 -23.573623 28.956255 0.236743 2.521994 0.091145 -0.037671 -936553.000000 0 0 1
-16.893217 -2.665188 -24.175623 29.613253 0.156477 2.525908 0.067550 -0.032214 -604713.000000 0 0 1
-16.600917 -2.444088 -25.498283 30.524194 0.146176 2.559559 0.058429 -0.035865 -65119.300000 0 0 1
-17.057917 -1.224488 -26.059993 31.170421 0.071661 2.560838 0.046338 -0.028266 321072.000000 0 0 1
-18.560217 -1.043488 -26.456033 32.334072 0.056163 2.529085 0.045555 -0.024089 260428.000000 0 0 1
-18.788517 -1.789088 -27.625083 33.456754 0.094936 2.542230 0.065024 -0.036345 63115.700000 0 0 1
-18.594917 -0.992388 -28.765193 34.266486 0.053318 2.567077 0.042318 -0.031545 -373018.000000 0 0 1
-18.488917 -1.700788 -30.067043 35.337795 0.091731 2.588391 0.049512 -0.035419 1348180.000000 0 0 1
-19.764317 -2.308788 -30.430763 36.359181 0.116289 2.562480 0.049474 -0.038654 1123750.000000 0 0 1
-19.693317 -2.894788 -31.739473 37.464659 0.145948 2.581459 0.058154 -0.041229 -104813.000000 0 0 1
-21.105417 -3.369388 -32.182753 38.633159 0.158310 2.555367 0.038443 -0.033789 1352360.000000 0 0 1
-22.185717 -2.394688 -32.339293 39.290844 0.107522 2.537600 0.036526 -0.036542 1226790.000000 0 0 1
-22.714817 -1.863588 -31.150693 38.597947 0.081860 2.509945 0.027209 -0.017796 -961029.000000 0 0 1
-23.811517 -0.850788 -31.472333 39.474294 0.035715 2.493583 0.018931 -0.014970 -432056.000000 0 0 1
-23.318717 0.394612 -31.889393 39.507615 -0.016921 2.510140 0.023453 -0.019086 573252.000000 0 0 1
-24.352817 1.270112 -32.342703 40.505843 -0.052107 2.495546 0.020713 -0.013885 370301.000000 0 0 1
-23.740217 2.541312 -33.028553 40.754649 -0.106641 2.515672 0.030129 -0.014116 -358025.000000 0 0 1
-23.150517 3.528712 -32.152483 39.776631 -0.151260 2.512099 0.027950 -0.016564 551812.000000 0 0 1
-24.079417 4.170912 -31.283213 39.697030 -0.171513 2.478430 0.035457 -0.012698 348422.000000 0 0 1
-25.168467 5.063112 -32.009703 41.033010 -0.198519 2.465616 0.022589 -0.016437 -104159.000000 0 0 1
-26.131467 4.280012 -32.649263 42.037441 -0.162346 2.460160 0.039578 -0.025462 -601465.000000 0 0 1
-26.982337 5.066012 -33.435323 43.262360 -0.185592 2.454117 0.065952 -0.034050 259102.000000 0 0 1
-28.403237 4.504512 -33.746793 44.338251 -0.157282 2.435837 0.081349 -0.024948 320312.000000 0 0 1
-28.320377 3.291012 33.378387 43.897508 -0.115688 0.706912 0.082234 -0.021744 -480566.000000 0 0 1
-29.496327 2.943912 32.740837 44.166303 -0.099477 0.735779 0.089225 -0.025858 -711480.000000 0 0 1
-29.499017 1.387612 32.533122 43.937700 -0.047005 0.737075 0.095743 -0.011583 -115864.000000 0 0 1
-29.785447 0.640112 33.760816 45.026384 -0.021487 0.723035 0.103417 -0.012620 284937.000000 0 0 1
-30.054637 -0.708088 33.540155 45.041365 0.023556 0.730783 0.096390 -0.010866 -626384.000000 0 0 1
-29.869837 -1.492288 -32.957473 44.504259 0.049918 2.404680 0.062083 -0.003436 -228928.000000 0 0 1
-28.548307 -1.773688 -32.561763 43.340745 0.062050 2.420821 0.065942 -0.009802 358734.000000 0 0 1
-27.770507 -0.676788 -32.090723 42.443770 0.024366 2.428093 0.056857 -0.010347 -499606.000000 0 0 1
-28.003187 -0.322088 -30.593083 41.475522 0.011501 2.400332 0.063204 -0.003970 -449248.000000 0 0 1
-27.326887 -1.157988 -29.675013 40.357231 0.042350 2.396918 0.043377 -0.010410 356244.000000 0 0 1
-27.192287 -0.576288 -28.335113 39.276344 0.021190 2.376661 0.052953 -0.011274 -532124.000000 0 0 1
-26.037277 -1.281488 -27.634723 37.990261 0.049178 2.385345 0.053267 -0.014898 -378876.000000 0 0 1
-26.285617 -2.567588 -27.129643 37.862167 0.097371 2.369621 0.031758 -0.009884 318469.000000 0 0 1
-25.310117 -2.832288 -26.125493 36.485137 0.111440 2.368936 0.059859 -0.027362 212927.000000 0 0 1
-25.518787 -4.264888 -25.517843 36.339483 0.165597 2.349289 0.059066 -0.029091 -162128.000000 0 0 1
-26.663887 -4.283488 -24.713323 36.606822 0.159287 2.311899 0.062140 -0.015438 -305879.000000 0 0 1
-26.744077 -5.442188 -24.039723 36.369923 0.200750 2.292918 0.064178 -0.018063 -160358.000000 0 0 1
-28.011147 -5.337588 -23.191723 36.755547 0.188295 2.253602 0.080540 -0.016625 -220773.000000 0 0 1
-28.111487 -6.442288 -22.267023 36.435958 0.225279 2.228281 0.104584 -0.021266 -584904.000000 0 0 1
-29.132957 -6.196688 -21.375123 36.660933 0.209580 2.193273 0.150601 -0.012408 -405972.000000 0 0 1
-29.469987 -7.397688 -20.400023 36.597361 0.245943 2.162069 0.168838 -0.013572 269469.000000 0 0 1
-28.377557 -7.626988 -19.523723 35.279349 0.262563 2.157242 0.168457 -0.023327 239019.000000 0 0 1
-28.668027 -8.547488 -18.541123 35.195007 0.289762 2.125641 0.198977 -0.022519 -164963.000000 0 0 1
-29.259407 -7.921288 -17.275523 34.889875 0.264389 2.088797 0.193508 -0.023020 -183721.000000 0 0 1
-28.326227 -7.150788 -16.569823 33.586722 0.247278 2.086727 0.172312 -0.033912 80979.300000 0 0 1
-28.841577 -6.808688 -15.314023 33.357369 0.231828 2.047767 0.163062 -0.029130 244952.000000 0 0 1
-27.890357 -5.885488 -14.459923 31.962483 0.207971 2.040254 0.177922 -0.030389 322240.000000 0 0 1
-27.937327 -4.520788 -14.764923 31.920757 0.160428 2.051665 0.177053 -0.024194 -42316.300000 0 0 1
-26.934247 -3.803588 -14.104723 30.640890 0.140290 2.049156 0.158142 -0.033855 -188939.000000 0 0 1
-13.954517 21.083212 -4.832923 25.740775 -0.986116 1.759671 0.100064 -0.039048 -193750.000000 0 0 1
-14.156317 20.551812 -6.111623 25.692999 -0.967619 1.810970 0.125079 -0.048795 154204.000000 0 0 1
-15.064917 19.479912 -5.957223 25.335887 -0.912514 1.808148 0.121515 -0.056860 112542.000000 0 0 1
-15.532917 18.747612 -7.200723 25.388873 -0.878901 1.858361 0.151863 -0.062325 -192780.000000 0 0 1
-14.448917 18.068512 -7.829623 24.424277 -0.896254 1.897125 0.129843 -0.054679 277566.000000 0 1 0
-14.734717 17.144412 -8.861223 24.280939 -0.860843 1.944371 0.114415 -0.055089 -589757.000000 0 1 0
-15.174517 15.766112 -8.374123 23.429942 -0.804516 1.936291 0.107690 -0.051880 -397337.000000 0 1 0
-16.499517 15.809712 -7.937423 24.190571 -0.764051 1.905110 0.110918 -0.042752 -515439.000000 0 1 0
-16.829917 14.681912 -7.169523 23.456485 -0.717338 1.881420 0.108879 -0.035659 -109202.000000 0 1 0
-18.183017 14.945512 -6.492623 24.416072 -0.687982 1.839950 0.114019 -0.037568 15876.200000 0 1 0
-19.285117 14.877212 -7.362423 25.445086 -0.657079 1.864339 0.116547 -0.033635 -680820.000000 0 0 1
-20.524717 15.169812 -6.796923 26.411841 -0.636488 1.831069 0.088481 -0.031743 242392.000000 0 0 1
-21.690517 14.580712 -7.669723 27.237847 -0.591835 1.856240 0.088984 -0.022660 243214.000000 0 0 1
-21.832917 13.197712 -7.565323 26.609960 -0.543712 1.859077 0.120445 -0.034106 130779.000000 0 0 1
-22.727417 12.735512 -8.571923 27.426385 -0.510762 1.888665 0.123439 -0.036123 245580.000000 0 0 1
-23.160017 11.217612 -8.292823 27.036866 -0.451051 1.882544 0.127475 -0.029971 591027.000000 0 0 1
-22.092517 10.223512 -8.283423 25.714093 -0.433414 1.898781 0.136421 -0.030376 866374.000000 0 0 1
-22.476117 9.098612 -7.503823 25.382433 -0.384648 1.870912 0.146053 -0.038876 508279.000000 0 0 1
-21.187117 8.287212 -7.128323 23.840822 -0.372849 1.874437 0.119425 -0.022679 331799.000000 0 1 0
-20.775817 7.312712 -8.083023 23.461577 -0.338439 1.922526 0.107857 -0.019252 -93005.900000 0 1 0
-19.862217 6.449312 -7.495623 22.187511 -0.313963 1.915407 0.095801 -0.012168 -631060.000000 0 1 0
-19.549817 5.200112 -8.355923 21.887392 -0.259973 1.962506 0.081277 -0.022885 628072.000000 0 1 0
-20.662617 4.267012 -8.456423 22.730205 -0.203646 1.951996 0.109616 -0.024676 1463250.000000 0 1 0
-20.337017 3.274512 -9.434823 22.656844 -0.159642 2.000303 0.103263 -0.022462 740766.000000 0 1 0
-21.337117 2.024512 -9.319623 23.371491 -0.094599 1.980961 0.111868 -0.026081 739723.000000 0 1 0
-21.217717 1.266212 -8.123423 22.754885 -0.059606 1.935847 0.115921 -0.023967 505093.000000 0 1 0
-22.174617 0.202812 -8.057623 23.594068 -0.009146 1.919320 0.115557 -0.018890 87532.200000 0 1 0
-21.907817 -1.048788 -8.971123 23.696697 0.047836 1.959059 0.099323 -0.038981 -11347.100000 0 1 0
-20.672417 -1.703188 -8.745623 22.510788 0.082204 1.969808 0.075821 -0.024871 360433.000000 0 1 0
-20.614717 -3.040088 -9.133923 22.751642 0.146416 1.983909 0.061814 -0.022007 -301553.000000 0 1 0
-21.535717 -4.096488 -8.435623 23.488892 0.187973 1.938134 0.061641 -0.023168 43396.800000 0 1 0
-21.258117 -4.444388 -7.078123 22.842065 0.206099 1.885855 0.062678 -0.023679 927453.000000 0 1 0
-22.375217 -5.074988 -6.386023 23.815691 0.223039 1.842262 0.090551 -0.023554 722454.000000 0 1 0
-22.526917 -6.624488 -6.661023 24.407275 0.286008 1.847214 0.104383 -0.033132 -565404.000000 0 1 0
-21.541117 -7.358588 -6.020623 23.546049 0.329178 1.829364 0.097902 -0.034240 36911.900000 0 1 0
-21.638117 -8.801788 -6.272623 24.187298 0.386331 1.833130 0.105010 -0.029716 39531.400000 0 1 0
-20.437517 -9.705988 -5.844323 23.367807 0.443375 1.823581 0.094256 -0.028880 1021890.000000 0 1 0
-19.239417 -9.692688 -6.655823 22.547801 0.466678 1.870448 0.067078 -0.018419 589184.000000 0 1 0
-18.354017 -10.553488 -6.005323 22.007043 0.521831 1.847184 0.069529 -0.013284 51115.000000 0 1 0
-17.273417 -11.228288 -6.919323 21.732980 0.576398 1.894815 0.036178 -0.010983 -100988.000000 0 1 0
-16.389617 -10.370988 -7.531623 20.806304 0.564173 1.941195 0.051845 -0.033046 -116142.000000 0 1 0
-16.785017 -9.980488 -8.834223 21.433395 0.536445 1.995632 0.055922 -0.033752 153810.000000 0 1 0
-15.817317 -10.474688 -9.970823 21.431843 0.584924 2.054695 0.059070 -0.021359 536840.000000 0 1 0
-15.963517 -11.855988 -10.199723 22.347990 0.638808 2.044746 0.071379 -0.021678 -151089.000000 0 1 0
-15.009217 -12.264388 -11.134523 22.353286 0.685095 2.092221 0.069479 -0.004399 -18507.800000 0 1 0
-15.285017 -13.678688 -11.641823 23.585383 0.729995 2.087024 0.077998 -0.011309 228247.000000 0 1 0
-16.161517 -13.639688 -12.757723 24.698081 0.700978 2.113610 0.072855 -0.009414 105244.000000 0 1 0
-16.389617 -14.885588 -13.375223 25.866907 0.737345 2.114231 0.059296 -0.007124 -60528.200000 0 0 1
-16.899017 -14.860688 -14.831723 26.951750 0.721306 2.153528 0.070617 -0.011331 -28122.200000 0 0 1
-16.954417 -16.115988 -15.459023 28.038522 0.760051 2.154777 0.056267 -0.002010 100892.000000 0 0 1
-17.402517 -16.054388 -16.756723 29.006529 0.745125 2.186690 0.061830 -0.005159 -379897.000000 0 0 1
-17.699917 -17.383888 -17.448523 30.330473 0.776391 2.183743 0.075497 -0.020618 -720890.000000 0 0 1
-18.958217 -17.832888 -17.075423 31.128700 0.754821 2.151417 0.045667 -0.008033 -978571.000000 0 0 1
-19.828717 -17.964188 -18.203923 32.361596 0.736103 2.168222 0.042424 -0.008403 2419260.000000 0 0 1
-21.377417 -17.795988 -17.726323 32.983536 0.694227 2.138182 0.039520 -0.009300 2027600.000000 0 0 1
-21.772417 -16.584388 -17.120123 32.282792 0.650957 2.129771 0.041274 -0.000430 341157.000000 0 0 1
-21.363117 -16.539388 -15.746423 31.271136 0.658812 2.098493 0.038635 -0.001461 -443984.000000 0 0 1
-21.370517 -15.117388 -15.127023 30.233446 0.615672 2.094789 0.064166 -0.013131 -279323.000000 0 0 1
-22.616617 -14.497588 -14.951423 30.744698 0.570033 2.078657 0.092403 -0.011849 180079.000000 0 0 1
-22.454417 -13.109188 -14.595723 29.817558 0.528433 2.082314 0.099492 -0.011339 90747.600000 0 0 1
-23.818417 -12.487288 -14.213223 30.418170 0.482875 2.056986 0.116043 -0.019290 88183.100000 0 0 1
-24.457117 -13.000888 -13.069523 30.626558 0.488590 2.011679 0.144603 -0.013139 798104.000000 0 0 1
-25.643297 -12.279188 -12.737423 31.154439 0.446582 1.991987 0.171096 -0.022001 -31334.400000 0 0 1
-26.479347 -12.820488 -11.599523 31.623878 0.450903 1.946359 0.174284 -0.024230 -429125.000000 0 0 1
-27.493127 -11.945188 -11.193323 31.997656 0.409872 1.928172 0.155982 -0.029974 214755.000000 0 0 1
-28.218737 -12.398488 -10.049623 32.419354 0.413980 1.885977 0.161331 -0.031753 -72047.800000 0 0 1
-29.124147 -11.414588 -9.337223 32.644946 0.373529 1.860871 0.157857 -0.036656 345059.000000 0 0 1
-28.363347 -10.363488 -8.730123 31.434000 0.350313 1.852225 0.161258 -0.039991 809094.000000 0 0 1
-29.295547 -9.462088 -8.123423 31.839444 0.312410 1.828786 0.193495 -0.037740 721173.000000 0 0 1
-28.574487 -8.256588 -7.432023 30.657911 0.281288 1.815654 0.178686 -0.033913 493295.000000 0 0 1
-27.755367 -8.619288 -6.310423 29.740107 0.301103 1.784607 0.159894 -0.038121 516785.000000 0 0 1
-27.023387 -7.595988 -5.601723 28.624147 0.274019 1.767767 0.148183 -0.036271 124915.000000 0 0 1
-27.776127 -6.486788 -4.858323 28.934321 0.229426 1.739504 0.179629 -0.036920 -247012.000000 0 0 1
-28.658547 -6.857488 -3.786623 29.709863 0.234866 1.698597 0.185885 -0.040712 606493.000000 0 0 1
-28.030437 -7.160288 -2.546523 29.042381 0.250099 1.658592 0.185331 -0.037781 -1063.720000 0 0 1
-27.259437 -5.932088 -1.813623 27.956319 0.214275 1.635715 0.180472 -0.038594 207778.000000 0 0 1
-28.059947 -4.895488 -1.358523 28.516171 0.172727 1.618455 0.200754 -0.042598 -175855.000000 0 0 1
-27.298657 -4.070888 -0.519623 27.605413 0.148033 1.589621 0.182606 -0.053995 -238368.000000 0 0 1
-28.087337 -2.881188 0.148977 28.235119 0.102222 1.565520 0.201059 -0.055894 -575208.000000 0 0 1
-29.083277 -3.219488 1.027177 29.278955 0.110250 1.535707 0.192942 -0.052876 -723816.000000 0 0 1
-28.685637 -3.685088 2.310377 29.013505 0.127765 1.491081 0.179395 -0.049854 -77071.000000 0 0 1
-29.863807 -3.921288 3.297077 30.300069 0.130559 1.461766 0.175121 -0.048113 303890.000000 0 0 1
-30.495457 -5.185588 3.160377 31.094231 0.168434 1.468982 0.179411 -0.044460 379929.000000 0 0 1
-31.640897 -5.334988 3.999977 32.335867 0.167039 1.446778 0.169659 -0.039294 586996.000000 0 0 1
-32.269657 -6.784588 3.727877 33.185214 0.207228 1.458223 0.160118 -0.031455 -16484.600000 0 0 1
-31.628707 -7.812488 4.480077 32.885881 0.242159 1.434140 0.155889 -0.026426 238974.000000 0 0 1
-31.921917 -9.142988 4.094677 33.456978 0.278949 1.448102 0.145421 -0.022626 -210909.000000 0 0 1
-31.028477 -10.161588 4.807877 33.002120 0.316484 1.424592 0.135985 -0.014229 -110737.000000 0 0 1
-31.289387 -10.271988 6.149977 33.501667 0.317205 1.386177 0.115856 -0.016456 583232.000000 0 0 1
-30.347437 -11.192388 6.723277 33.036933 0.353331 1.365857 0.106653 -0.014281 213969.000000 0 0 1
-30.488667 -11.366788 8.234977 33.564528 0.356858 1.322918 0.101392 -0.019222 -108914.000000 0 0 1
-30.204027 -10.201288 8.943377 33.110927 0.325717 1.297296 0.110482 -0.017049 469027.000000 0 0 1
-30.494907 -10.339588 10.357477 33.824899 0.326895 1.259588 0.117155 -0.021960 -245675.000000 0 0 1
-30.236117 -8.998988 11.152177 33.460060 0.289275 1.230997 0.105918 -0.017953 -197439.000000 0 0 1
-28.918667 -8.522388 11.028477 32.102145 0.286589 1.220109 0.102841 -0.029690 129644.000000 0 0 1
-28.625457 -7.408788 11.914177 31.878748 0.253261 1.187765 0.110526 -0.029385 -3035.450000 0 0 1
-27.567767 -6.460188 11.324077 30.495090 0.230185 1.190343 0.118338 -0.028417 -200292.000000 0 0 1
-28.118347 -5.565588 10.366577 30.480865 0.195409 1.223772 0.130632 -0.025537 195830.000000 0 0 1
-27.304687 -4.439388 10.205777 29.485793 0.161177 1.217358 0.128462 -0.026361 -463165.000000 0 0 1
-27.539077 -3.636188 8.937677 29.180553 0.131278 1.259504 0.148118 -0.027316 -20411.000000 0 0 1
-26.854767 -4.169988 7.793177 28.271910 0.154049 1.291530 0.125684 -0.019908 314211.000000 0 0 1
-27.151997 -3.430888 6.629577 28.159425 0.125692 1.333135 0.149008 -0.042581 -235901.000000 0 0 1
-26.287357 -3.706588 5.389077 27.088855 0.140079 1.370519 0.135499 -0.029201 626933.000000 0 0 1
-24.868417 -3.501488 5.521577 25.713545 0.139881 1.354377 0.150893 -0.044647 1029770.000000 0 0 1
-24.190917 -3.987888 4.431677 24.914724 0.163381 1.391971 0.151790 -0.040258 -1098580.000000 0 1 0
-22.698017 -3.750688 4.419577 23.426487 0.163763 1.381002 0.142615 -0.037425 -606678.000000 0 1 0
-22.302917 -2.363788 4.271177 22.830912 0.105591 1.382609 0.114710 -0.038422 -166888.000000 0 1 0
-20.932817 -2.152588 4.468377 21.512388 0.102473 1.361561 0.088419 -0.031465 -492185.000000 0 1 0
-20.546917 -0.711988 4.763677 21.103918 0.034638 1.343109 0.072770 -0.037864 -647460.000000 0 1 0
-20.654117 0.229212 3.718477 20.987428 -0.011097 1.392680 0.074009 -0.033759 282384.000000 0 1 0
-21.934617 0.781912 3.510877 22.227574 -0.035632 1.412181 0.083264 -0.051025 -259374.000000 0 1 0
-21.950817 1.953012 2.530777 22.182368 -0.088739 1.456458 0.104175 -0.033198 129505.000000 0 1 0
-21.087717 3.001612 3.004177 21.511080 -0.141390 1.430681 0.071207 -0.037455 349985.000000 0 1 0
-21.213517 4.231412 2.298377 21.753176 -0.196884 1.464942 0.083338 -0.025409 139202.000000 0 1 0
-20.416717 4.386712 0.928477 20.903292 -0.211641 1.526364 0.059693 -0.009601 -515937.000000 0 1 0
-21.012017 5.138512 -0.129823 21.631597 -0.239844 1.576798 0.099267 0.001470 1204520.000000 0 1 0
-22.156517 4.571712 -0.825123 22.638300 -0.203481 1.607252 0.138916 -0.015404 777036.000000 0 1 0
-21.847017 3.380512 -1.760923 22.177034 -0.153518 1.650283 0.141042 -0.014284 -185328.000000 0 1 0
-21.409317 2.191712 -1.061123 21.547353 -0.102016 1.620062 0.090277 -0.011974 366264.000000 0 1 0
-20.899817 1.202512 -1.885123 21.019088 -0.057474 1.660603 0.075956 -0.010790 -300569.000000 0 1 0
-19.993517 0.219512 -1.151723 20.027865 -0.010979 1.628334 0.064950 -0.012244 -369998.000000 0 1 0
-20.761917 -0.463688 -0.209223 20.768148 0.022330 1.580871 0.080076 -0.021365 865884.000000 0 1 0
-19.952717 -1.198088 0.760277 20.003108 0.059974 1.532779 0.063678 -0.016358 467760.000000 0 1 0
-19.238817 -2.525688 0.339677 19.406869 0.130534 1.553292 0.039696 -0.013378 450708.000000 0 1 0
-18.352317 -3.067188 1.323677 18.653882 0.165598 1.499777 0.032366 -0.013372 822075.000000 0 1 0
-17.706417 -4.299288 0.996577 18.248130 0.238200 1.516157 0.027668 -0.007271 26421.800000 0 1 0
-18.675517 -5.455988 0.657977 19.467297 0.284236 1.536991 0.034178 -0.011304 2128.430000 0 1 0
-19.344917 -5.975088 1.803877 20.326865 0.299576 1.481936 0.061925 -0.017836 435346.000000 0 1 0
-20.235517 -7.017188 1.501777 21.470268 0.333800 1.500792 0.063120 -0.021741 -167657.000000 0 1 0
-21.115617 -7.435188 2.685877 22.546956 0.338560 1.451389 0.090281 -0.021144 -14102.800000 0 1 0
-20.346617 -8.197988 3.618377 22.232510 0.383018 1.407317 0.085852 -0.017777 1085040.000000 0 1 0
-21.092517 -8.518088 4.808877 23.250320 0.383816 1.362462 0.094189 -0.021592 134902.000000 0 1 0
-20.261517 -9.344888 5.791777 23.052130 0.432140 1.316828 0.088069 -0.012922 -68035.100000 0 1 0
-19.700817 -10.456288 5.110277 22.881676 0.487947 1.345562 0.093582 -0.010302 464637.000000 0 1 0
-18.972317 -11.283888 6.020077 22.880478 0.536554 1.304552 0.108638 -0.016128 195572.000000 0 1 0
-18.506117 -12.661888 5.432077 23.071784 0.600043 1.333123 0.095291 -0.015801 324201.000000 0 1 0
-19.536917 -13.611588 5.253977 24.383821 0.608515 1.353623 0.132146 -0.017841 444523.000000 0 1 0
-18.883417 -14.859088 5.048777 24.553332 0.666693 1.363694 0.109503 -0.017600 709971.000000 0 1 0
-19.778717 -15.893388 4.278777 25.731408 0.676908 1.403734 0.121517 -0.012439 555088.000000 0 0 1
-19.014517 -17.071088 3.932077 25.854113 0.731594 1.418117 0.112990 -0.026154 938506.000000 0 0 1
-19.555017 -18.092988 4.837377 27.076838 0.746584 1.391178 0.101548 -0.025147 51955.500000 0 0 1
-18.682817 -19.307988 4.982977 27.325375 0.801853 1.387413 0.108717 -0.028839 -1048090.000000 0 0 1
-18.795917 -20.159088 3.827277 27.826667 0.820377 1.432819 0.107870 -0.031286 255559.000000 0 0 1
-17.949217 -21.292888 3.841277 28.112575 0.870399 1.433728 0.098782 -0.030299 1822190.000000 0 0 1
-16.367317 -21.030488 3.846977 26.925262 0.909449 1.427430 0.113406 -0.031794 1113860.000000 0 0 1
-15.623417 -22.209088 3.977277 27.443642 0.957746 1.425359 0.099291 -0.029687 1181420.000000 0 0 1
-14.196417 -21.873488 3.927877 26.370741 0.995108 1.421292 0.099906 -0.027869 1468380.000000 0 0 1
-13.363117 -23.157988 4.073277 27.045460 1.047429 1.419613 0.112421 -0.022969 -326979.000000 0 0 1
-13.415917 -23.979388 2.941677 27.634242 1.060706 1.464144 0.107239 -0.027321 -37174.700000 0 0 1
-12.939017 -25.272398 3.209677 28.572965 1.097609 1.458226 0.088939 -0.030490 -89322.300000 0 0 1
19.237783 19.141212 -24.039323 36.254204 0.782882 2.295718 0.062203 0.013565 1091970.000000 0 0 1
18.207483 19.219012 -25.079453 36.467270 0.812419 2.329147 0.062277 0.008675 1403850.000000 0 0 1
18.903083 19.132412 -26.349373 37.651895 0.791427 2.345935 0.068112 0.009581 696636.000000 0 0 1
17.939183 19.400012 -27.519453 38.150950 0.824501 2.376518 0.075383 0.001869 99077.700000 0 0 1
17.589483 20.724412 -27.717323 38.821916 0.867039 2.365935 0.076467 0.003303 545771.000000 0 0 1
16.758583 20.941812 -28.883943 39.416897 0.895906 2.393196 0.075693 -0.000588 315365.000000 0 0 1
16.383283 22.379612 -29.219363 40.286848 0.938874 2.382242 0.094016 -0.012035 2832.040000 0 0 1
15.317383 22.903612 -28.440803 39.598951 0.981335 2.372039 0.088140 -0.006437 405179.000000 0 0 1
15.080183 24.246212 -28.768983 40.533259 1.014386 2.359957 0.089573 -0.007854 -170796.000000 0 0 1
14.195283 24.961212 -27.741773 39.927110 1.053714 2.338953 0.085923 -0.012872 630440.000000 0 0 1
12.848483 24.453912 -27.727803 39.139601 1.087023 2.358072 0.086778 -0.019848 599761.000000 0 0 1
12.160183 25.214012 -26.726233 38.702816 1.121426 2.333046 0.069937 -0.012045 613880.000000 0 0 1
10.652383 24.842312 -26.468203 37.830933 1.165711 2.345696 0.069899 -0.017747 791451.000000 0 0 1
9.842483 25.671712 -25.744383 37.665428 1.204683 2.323345 0.065065 -0.014765 -271858.000000 0 0 1
9.587783 26.999112 -26.207483 38.829239 1.229572 2.311682 0.063320 -0.014753 -592678.000000 0 0 1
9.165283 27.986212 -25.120723 38.707637 1.254311 2.277047 0.068661 -0.022533 -355576.000000 0 0 1
10.151483 28.413212 -24.195223 38.675212 1.227650 2.246697 0.068694 -0.016325 -233023.000000 0 0 1
9.669983 29.221612 -23.139123 38.507534 1.251220 2.215421 0.079865 -0.030140 127793.000000 0 0 1
10.700283 29.641712 -22.020023 38.444877 1.224367 2.180676 0.066390 -0.028000 412810.000000 0 0 1
11.677483 30.612312 -22.368023 39.671220 1.206371 2.169818 0.055367 -0.032671 319757.000000 0 0 1
12.497283 30.842112 -21.237023 39.476944 1.185814 2.138812 0.043904 -0.025595 -827457.000000 0 0 1
13.720183 31.682812 -21.449423 40.646300 1.162129 2.126698 0.036841 -0.020039 -294105.000000 0 0 1
14.843983 31.030412 -22.046923 40.857032 1.124603 2.140772 0.032824 -0.018801 -451845.000000 0 0 1
15.764883 31.971312 -22.439623 42.121645 1.112688 2.132624 0.030536 -0.017560 -728551.000000 0 0 1
16.932983 31.261112 -23.170423 42.436441 1.074377 2.148382 0.014710 -0.007826 -46192.000000 0 0 1
17.701483 30.554412 -22.214923 41.718310 1.045704 2.132346 0.018362 -0.002785 223369.000000 0 0 1
18.920883 30.114612 -22.837823 42.266486 1.009831 2.141625 0.029644 -0.003201 355488.000000 0 0 1
19.876183 29.464112 -21.848723 41.720058 0.977329 2.121983 0.018739 0.006316 -403914.000000 0 0 1
20.573683 30.286512 -20.974723 42.195832 0.974097 2.091027 0.024882 0.005270 490768.000000 0 0 1
21.594983 29.602212 -20.228123 41.854643 0.940541 2.075210 0.029720 0.008922 645784.000000 0 0 1
22.181083 30.348412 -19.033223 42.134192 0.939644 2.039498 0.038847 -0.002885 -450372.000000 0 0 1
23.161783 31.305212 -19.237123 43.434449 0.933810 2.029627 0.042818 -0.007733 -457629.000000 0 0 1
23.898783 31.454212 -18.067823 43.439216 0.921055 1.999765 0.049457 -0.009345 -569713.000000 0 0 1
25.126583 32.375112 -18.177323 44.831999 0.910794 1.988272 0.059567 -0.010980 696851.000000 0 0 1
26.313683 31.694012 -18.627723 45.209649 0.877886 1.995477 0.060001 -0.011644 -51854.300000 0 0 1
27.408783 32.551712 -18.511923 46.406321 0.870961 1.981124 0.061579 -0.015502 668844.000000 0 0 1
28.763783 31.890812 -19.009723 46.965398 0.836907 1.987513 0.071818 -0.020416 935574.000000 0 0 1
29.222383 30.804212 -18.258023 46.219071 0.811744 1.976899 0.060040 -0.011808 -613511.000000 0 0 1
30.454183 30.382112 -18.741223 46.922952 0.784213 1.981663 0.052721 -0.005815 -546280.000000 0 0 1
31.047483 29.093612 -18.133823 46.251702 0.752921 1.973675 0.058619 -0.015498 -418299.000000 0 0 1
31.436783 29.341512 -16.802823 46.168501 0.750938 1.943297 0.048471 -0.008204 68636.800000 0 0 1
31.730583 28.150612 -16.079223 45.363292 0.725685 1.933127 0.060303 -0.007872 -131960.000000 0 0 1
32.264783 28.456812 -14.638823 45.443388 0.722768 1.898778 0.066748 -0.005097 334218.000000 0 0 1
33.519383 29.118512 -14.621823 46.746492 0.715254 1.888925 0.038348 0.003088 -34168.300000 0 0 1
33.535883 30.546612 -14.689523 47.681579 0.738785 1.883966 0.041377 -0.005819 -776902.000000 0 0 1
34.971583 31.019612 -14.757023 49.020380 0.725583 1.876578 0.048779 -0.010391 -492648.000000 0 0 1
35.718883 30.911512 -13.563423 49.145972 0.713373 1.850408 0.046086 -0.011639 -538767.000000 0 0 1
37.041883 31.277412 -13.842823 50.418264 0.701222 1.848928 0.051679 -0.018022 -119977.000000 0 0 1
-36.624534 31.586312 -12.602323 49.978697 -0.711670 1.825702 0.058680 -0.017052 -164210.000000 0 0 1
-37.133934 32.720712 -11.919523 50.908242 -0.722305 1.807128 0.065979 -0.017027 457955.000000 0 0 1
-36.262034 33.169412 -10.902223 50.338886 -0.740885 1.789103 0.054673 -0.004589 213557.000000 0 0 1
-36.944134 -33.550240 -10.178923 50.932290 0.737291 1.772003 0.053188 0.004333 636217.000000 0 0 1
-35.986834 -32.825940 -9.379423 49.604114 0.739496 1.761027 0.048832 0.005327 725140.000000 0 0 1
-35.597834 -33.537040 -8.184523 49.587552 0.755599 1.736607 0.044735 0.000052 245382.000000 0 0 1
-35.085634 -32.613140 -7.008123 48.412110 0.748892 1.716066 0.051223 0.000776 735540.000000 0 0 1
-36.132434 -31.700540 -6.579723 48.515666 0.720155 1.706836 0.046066 0.004393 283992.000000 0 0 1
-35.824134 -30.820140 -5.570723 47.584478 0.710454 1.688136 0.065880 0.005574 -559367.000000 0 0 1
-36.995734 -30.003840 -5.026423 47.897596 0.681417 1.675931 0.053425 0.005783 -30641.800000 0 0 1
36.654483 -30.880740 -4.314423 48.122609 -0.700113 1.660572 0.031937 0.003266 221609.000000 0 0 1
35.326483 -30.448240 -4.109823 46.818227 -0.711368 1.658692 0.027127 0.001390 29247.200000 0 0 1
35.062283 -29.549640 -2.833523 45.940982 -0.700285 1.632513 0.030725 0.003713 -516693.000000 0 0 1
35.656783 -28.303540 -3.012223 45.624227 -0.670935 1.636867 0.062441 -0.006926 203111.000000 0 0 1
35.035583 -27.337840 -2.186423 44.493034 -0.662605 1.619957 0.052350 -0.010952 -61988.500000 0 0 1
35.485883 -25.899640 -2.393223 43.997350 -0.630485 1.625218 0.065052 -0.024862 -293852.000000 0 0 1
34.973683 -25.365840 -3.592823 43.353117 -0.627494 1.653765 0.068748 -0.025910 448825.000000 0 0 1
35.008483 -23.982940 -3.573923 42.585775 -0.600629 1.654818 0.072953 -0.034052 -209061.000000 0 0 1
34.709583 -23.413540 -4.977923 42.163121 -0.593444 1.689136 0.078754 -0.042102 -297341.000000 0 0 1
35.789883 -23.487640 -5.877823 43.210343 -0.580767 1.707248 0.077912 -0.045901 242486.000000 0 0 1
35.333183 -23.147840 -7.184123 42.847030 -0.579973 1.739261 0.061876 -0.045302 -210162.000000 0 0 1
36.451983 -22.986040 -8.246923 43.876154 -0.562605 1.759880 0.053135 -0.042612 -257882.000000 0 0 1
37.076783 -24.150040 -8.684023 45.092400 -0.577325 1.764590 0.051822 -0.026837 57413.300000 0 0 1
-36.408834 -23.815840 -9.598423 44.552522 0.579268 1.787939 0.067582 -0.021447 383206.000000 0 0 1
-35.807934 -25.069640 -10.289123 44.906136 0.610803 1.801975 0.067373 -0.020166 171024.000000 0 0 1
-35.062834 -25.964240 -9.435323 44.638206 0.637397 1.783776 0.070074 -0.011598 303999.000000 0 0 1
-35.829834 -26.951140 -8.794023 45.688903 0.644907 1.764481 0.060282 -0.011012 52335.200000 0 0 1
-34.924634 -28.163940 -8.438023 45.652358 0.678644 1.756697 0.054787 0.005126 139711.000000 0 0 1
-34.461434 -28.860940 -9.548523 45.953440 0.697184 1.780108 0.059226 -0.000219 138341.000000 0 0 1
-33.604334 -29.901240 -9.121623 45.897053 0.727153 1.770869 0.058956 0.005376 38666.100000 0 0 1
-32.993034 -30.822440 -10.251123 46.299553 0.751398 1.794055 0.062495 0.007973 -98884.100000 0 0 1
-31.835934 -30.260840 -10.822423 45.236821 0.760038 1.812379 0.044528 0.014806 -36043.000000 0 0 1
-31.437434 -30.960240 -11.976423 45.719618 0.777751 1.835842 0.028033 0.011699 -261871.000000 0 0 1
-31.758134 -30.219740 -13.261323 45.800376 0.760582 1.864549 0.023815 0.014539 61366.400000 0 0 1
-30.980634 -29.027540 -13.356123 44.505997 0.752863 1.875591 0.027016 0.014519 199710.000000 0 0 1
-31.385534 -28.288940 -14.510623 44.675206 0.733553 1.901599 0.021803 0.016718 273482.000000 0 0 1
-30.275634 -27.319140 -15.028923 43.460533 0.734111 1.923894 0.037571 0.006322 -222151.000000 0 0 1
-29.124234 -27.968240 -15.435523 43.228449 0.765153 1.935924 0.054060 0.000988 -347967.000000 0 0 1
-28.148434 -27.030840 -15.945123 42.157415 0.765147 1.958678 0.071926 0.004709 971957.000000 0 0 1
-26.847234 -27.757640 -16.439123 41.970291 0.802069 1.973258 0.088194 -0.008252 168302.000000 0 0 1
-27.022134 -28.567940 -17.594023 43.079840 0.813198 1.991502 0.086511 -0.011964 22287.000000 0 0 1
-27.188334 -27.920740 -18.823423 43.279262 0.798687 2.020756 0.071915 -0.008298 147068.000000 0 0 1
-25.858434 -27.330740 -19.382023 42.323643 0.813072 2.046482 0.076292 -0.011733 328862.000000 0 0 1
-25.380234 -26.186240 -18.720723 40.991962 0.801027 2.045070 0.084139 -0.010071 142309.000000 0 0 1
-23.956834 -26.250840 -18.698323 40.157985 0.831057 2.055130 0.081529 -0.026234 351723.000000 0 0 1
-23.380734 -25.209340 -17.761523 38.699370 0.823014 2.047622 0.086970 -0.023789 -296100.000000 0 0 1
-23.613134 -25.429240 -16.401423 38.382718 0.822413 2.012315 0.089623 -0.020968 186170.000000 0 0 1
-23.186434 -24.268740 -15.663023 37.039341 0.808201 2.007412 0.098538 -0.024063 -26460.000000 0 0 1
-23.593234 -24.366340 -14.175523 36.760096 0.801517 1.966679 0.086590 -0.024120 125467.000000 0 0 1
-24.990134 -24.208740 -14.001123 37.504684 0.769517 1.953378 0.066943 -0.012425 160689.000000 0 0 1
-25.357934 -23.914040 -12.662123 37.084168 0.756102 1.919248 0.065412 -0.008673 -454717.000000 0 0 1
-26.863234 -23.795140 -12.466723 37.990278 0.724908 1.905147 0.060799 0.003588 -744299.000000 0 0 1
-27.599834 -24.985340 -12.692623 39.333456 0.735720 1.899369 0.068705 0.001823 649405.000000 0 0 1
-28.827134 -24.977640 -11.960923 39.974365 0.713974 1.874666 0.060596 0.005767 1269860.000000 0 0 1
-30.148034 -24.279940 -12.497723 40.676929 0.677999 1.883091 0.067485 -0.000106 64968.700000 0 0 1
-30.237134 -22.863040 -12.225023 39.830316 0.647409 1.882759 0.072398 0.003031 467689.000000 0 0 1
-30.823434 -22.508240 -10.971923 39.712568 0.630729 1.850721 0.084913 -0.000878 -88933.600000 0 0 1
-32.250734 -22.993840 -10.614423 41.006006 0.619378 1.832628 0.060334 -0.000913 733827.000000 0 0 1
-33.468234 -22.442340 -11.168823 41.815355 0.590691 1.841177 0.077064 -0.013983 1239690.000000 0 0 1
-33.635234 -22.451340 -12.564223 42.346799 0.588576 1.872030 0.066775 -0.006796 -137215.000000 0 0 1
-35.048434 -21.951240 -13.027023 43.358425 0.559542 1.875960 0.035108 -0.012229 1157750.000000 0 0 1
-35.996734 -23.031240 -13.081423 44.691459 0.569182 1.867851 0.044878 -0.006123 -210487.000000 0 0 1
37.204783 -22.651340 -13.180523 45.508299 -0.546886 1.864636 0.049398 -0.013728 -366522.000000 0 0 1
36.116883 -23.732540 -12.912123 45.104164 -0.581353 1.861132 0.048760 -0.010339 81985.400000 0 0 1
35.948483 -24.755240 -13.870823 45.798636 -0.603055 1.878494 0.031656 0.003513 -48200.700000 0 0 1
35.315683 -25.856540 -13.303923 45.746612 -0.631982 1.865878 0.037366 -0.008265 -173998.000000 0 0 1
35.102583 -27.130140 -14.145723 46.565409 -0.657985 1.879456 0.039420 -0.004088 294824.000000 0 0 1
34.150183 -26.892140 -15.158723 46.034868 -0.667052 1.906346 0.035597 -0.009254 -20323.500000 0 0 1
34.196183 -28.021340 -16.019923 47.023530 -0.686476 1.918435 0.040031 0.003375 110666.000000 0 0 1
33.333983 -27.852440 -17.296623 46.755599 -0.696049 1.949737 0.039966 -0.000708 1152030.000000 0 0 1
31.911383 -27.773440 -17.107923 45.633117 -0.716179 1.955087 0.059508 -0.003055 730506.000000 0 0 1
31.153883 -27.726740 -18.272423 45.532604 -0.727259 1.983737 0.057899 -0.007997 -276954.000000 0 0 1
29.645583 -27.799140 -18.016523 44.455010 -0.753266 1.988076 0.060956 -0.011094 -332275.000000 0 0 1
29.195683 -26.819840 -17.144623 43.192937 -0.743010 1.978967 0.051120 -0.011501 180280.000000 0 0 1
27.769283 -26.851840 -17.114523 42.249986 -0.768603 1.987860 0.083716 -0.014526 588241.000000 0 0 1
27.220483 -25.970440 -15.942823 40.860642 -0.761901 1.971619 0.077872 -0.021354 -21735.000000 0 0 1
27.419783 -24.561240 -16.121223 40.186974 -0.730461 1.983574 0.076053 -0.029394 -80802.800000 0 0 1
27.379583 -23.811040 -14.924623 39.234571 -0.715800 1.961019 0.081979 -0.030268 -192307.000000 0 0 1
27.009683 -22.321440 -15.139823 38.170459 -0.690647 1.978647 0.085799 -0.035552 -163056.000000 0 0 1
25.641683 -22.100240 -15.361623 37.173862 -0.711355 1.996802 0.096903 -0.031585 -117448.000000 0 0 1
25.306283 -20.757540 -15.707523 36.304404 -0.686969 2.018239 0.090430 -0.038253 -328000.000000 0 0 1
23.809283 -20.449640 -15.821223 35.147985 -0.709635 2.037709 0.087557 -0.036533 -377755.000000 0 0 1
23.156483 -20.526040 -14.542823 34.191150 -0.725254 2.010133 0.096409 -0.038969 264914.000000 0 0 1
21.791483 -20.165840 -14.673423 33.118563 -0.746672 2.029802 0.087151 -0.038171 134528.000000 0 0 1
21.524883 -18.778440 -14.072823 31.843284 -0.717359 2.028557 0.075189 -0.035753 -211375.000000 0 0 1
21.191583 -18.853840 -12.682523 31.070836 -0.727087 1.991257 0.075392 -0.051088 25096.100000 0 0 1
20.816083 -17.617440 -12.113223 29.839800 -0.702364 1.988805 0.086645 -0.060801 91411.300000 0 0 1
19.866583 -17.760240 -10.891923 28.787866 -0.729477 1.958811 0.094751 -0.051454 259453.000000 0 0 1
20.535183 -18.141040 -9.669323 29.056615 -0.723575 1.910041 0.101493 -0.060254 183035.000000 0 0 1
19.623183 -18.346040 -8.626323 28.214534 -0.751775 1.881512 0.086251 -0.054988 -186163.000000 0 0 1
20.258483 -18.988440 -7.395123 28.734210 -0.753049 1.831089 0.079306 -0.049172 566258.000000 0 0 1
21.254583 -18.237240 -6.662723 28.787951 -0.709142 1.804355 0.086210 -0.045068 881448.000000 0 0 1
22.055683 -19.036140 -5.803923 29.707126 -0.712047 1.767432 0.092823 -0.039421 -362503.000000 0 0 1
23.436383 -18.439040 -5.595223 30.340876 -0.666622 1.756270 0.089378 -0.036813 -933038.000000 0 0 1
24.395083 -18.556940 -6.619223 31.357523 -0.650304 1.783485 0.081581 -0.056201 160972.000000 0 0 1
25.387283 -17.593040 -6.284423 31.520203 -0.606003 1.771519 0.096506 -0.051938 -262796.000000 0 0 1
26.522783 -17.559140 -7.335823 32.643464 -0.584793 1.797458 0.097571 -0.064071 246896.000000 0 0 1
27.513683 -18.580040 -7.210723 33.973743 -0.593957 1.784667 0.112350 -0.074138 542092.000000 0 0 1
27.425583 -19.565640 -8.239223 34.682296 -0.619668 1.810652 0.112036 -0.077627 -33608.500000 0 0 1
28.346183 -20.839840 -8.103523 36.103630 -0.633955 1.797177 0.104751 -0.078881 -366211.000000 0 0 1
29.674183 -20.467240 -8.291823 36.989450 -0.603802 1.796885 0.106268 -0.068148 -866558.000000 0 0 1
30.541583 -21.532940 -8.096123 38.236148 -0.614098 1.784151 0.108519 -0.066471 -482110.000000 0 0 1
-30.189127 29.160812 4.597077 42.224039 -0.768074 1.461707 0.050122 -0.020585 -31189.600000 0 0 1
-29.756117 30.096512 3.607277 42.476334 -0.791085 1.485770 0.043937 -0.014641 -167922.000000 0 0 1
-28.990837 31.078612 4.249577 42.713085 -0.820140 1.471140 0.043213 -0.005009 73125.100000 0 0 1
-28.560167 32.304112 3.362677 43.249813 -0.846834 1.492968 0.051222 -0.008929 176726.000000 0 0 1
-27.719467 31.922112 2.273577 42.338625 -0.855747 1.517071 0.061340 -0.006445 243342.000000 0 0 1
-27.200747 32.934212 1.458477 42.739561 -0.880454 1.536665 0.069086 -0.019385 832170.000000 0 0 1
-25.975937 33.818012 1.957377 42.687686 -0.915806 1.524927 0.075695 -0.018556 675730.000000 0 0 1
-24.726117 33.220612 1.731177 41.448605 -0.930953 1.529017 0.064445 -0.022594 -36142.800000 0 0 1
-23.662317 33.767612 2.508777 41.309210 -0.959574 1.510027 0.067777 -0.019985 634137.000000 0 0 1
-22.253017 33.309912 2.079377 40.113225 -0.981830 1.518935 0.068975 -0.025198 113224.000000 0 0 1
-21.765017 33.897512 0.905777 40.293643 -1.000007 1.548315 0.089389 -0.037476 -319907.000000 0 0 1
-20.415917 33.543712 0.728977 39.274949 -1.024051 1.552234 0.099106 -0.037759 -484586.000000 0 0 1
-19.768117 -33.656440 -0.515423 39.035882 1.039730 1.584001 0.110514 -0.040282 135648.000000 0 0 1
-19.456117 -32.258840 -0.491323 37.675120 1.028082 1.583838 0.110780 -0.045815 311209.000000 0 0 1
-18.496917 -31.830840 0.449877 36.817668 1.044389 1.558577 0.113266 -0.035399 -277889.000000 0 0 1
-18.224017 -30.336140 0.463177 35.392241 1.029836 1.557709 0.106044 -0.037852 158532.000000 0 0 1
-17.329417 -29.796740 -0.524023 34.473599 1.044025 1.585998 0.095760 -0.024674 486519.000000 0 0 1
-17.484217 -28.383140 -0.535623 33.340477 1.018690 1.586862 0.083264 -0.020893 -32962.500000 0 0 1
-16.503017 -27.713140 -1.527323 32.290872 1.033696 1.618113 0.068917 -0.018346 -293695.000000 0 0 1
-16.735817 -28.099640 -2.838323 32.828850 1.033627 1.657363 0.062265 -0.014368 304257.000000 0 0 1
-15.703217 -27.702340 -3.739623 32.062368 1.055105 1.687698 0.055122 -0.010854 170706.000000 0 0 1
-16.163017 -27.706840 -5.221023 32.498787 1.042703 1.732148 0.071916 -0.015064 1073780.000000 0 0 1
-17.327917 -26.836140 -5.347723 32.388783 0.997455 1.736666 0.074083 -0.010594 806445.000000 0 0 1
-17.754417 -26.763140 -6.707623 32.809712 0.985065 1.776688 0.087575 -0.015649 314253.000000 0 0 1
-18.477317 -25.459740 -7.039723 32.236118 0.942999 1.790950 0.060960 -0.007469 439326.000000 0 0 1
-17.490517 -24.430940 -7.086723 30.870871 0.949468 1.802422 0.051296 -0.008025 566121.000000 0 0 1
-18.059517 -23.148640 -7.335423 30.262421 0.908274 1.815629 0.043752 -0.003102 -25221.500000 0 0 1
-17.082417 -22.004740 -6.971223 28.716119 0.910671 1.816010 0.060579 -0.004226 430099.000000 0 0 1
-16.029317 -21.999340 -7.934523 28.352542 0.941115 1.854437 0.083344 -0.012801 -386171.000000 0 0 1
-14.974717 -21.160240 -7.594123 27.012379 0.954933 1.855773 0.105306 -0.032361 -141100.000000 0 0 1
-13.911217 -20.900440 -8.666723 26.560543 0.983536 1.903184 0.097074 -0.023819 -46406.500000 0 0 1
-14.352317 -20.121040 -9.733323 26.562809 0.951201 1.945962 0.112695 -0.021066 -210513.000000 0 0 1
-13.414117 -20.134940 -10.789023 26.490703 0.983109 1.990266 0.102877 -0.014493 72058.000000 0 0 1
-13.843417 -19.221540 -11.984223 26.546740 0.946639 2.039173 0.111672 -0.017598 -796884.000000 0 0 1
-14.954217 -19.802440 -12.621223 27.839908 0.923994 2.041317 0.095067 0.001914 -348483.000000 0 0 1
-15.283917 -19.004640 -13.756223 28.000145 0.893487 2.084368 0.092778 -0.015614 97370.800000 0 0 1
-16.496417 -19.583840 -14.521923 29.437133 0.870761 2.086699 0.092312 -0.018884 473965.000000 0 0 1
-17.704417 -19.522540 -13.773423 29.736898 0.834198 2.052372 0.081941 -0.016429 -538636.000000 0 0 1
-18.823017 -19.715440 -14.566023 30.905882 0.808551 2.061563 0.070639 -0.009574 -898743.000000 0 0 1
-20.084817 -19.326940 -13.762323 31.085881 0.766171 2.029426 0.050396 0.003441 821852.000000 0 0 1
-21.239817 -19.814440 -14.524123 32.476022 0.750693 2.034458 0.069203 -0.011151 229869.000000 0 0 1
-22.449917 -19.613440 -13.867423 32.878431 0.718067 2.006203 0.064094 -0.009573 -377892.000000 0 0 1
-23.623917 -20.204840 -14.692723 34.383152 0.707546 2.012326 0.081235 -0.017533 -299797.000000 0 0 1
-23.718517 -19.728440 -16.018623 34.761698 0.693817 2.049707 0.078698 -0.023606 473746.000000 0 0 1
-24.585717 -20.558240 -16.805623 36.187397 0.696420 2.053759 0.095252 -0.037748 1067.120000 0 0 1
-24.957517 -19.937840 -18.185723 36.757525 0.674052 2.088341 0.095255 -0.027600 -574808.000000 0 0 1
-23.865417 -19.693640 -19.009323 36.314624 0.689917 2.121705 0.074110 -0.025028 -490545.000000 0 0 1
-24.137717 -19.762540 -20.363923 37.254217 0.686064 2.149120 0.078368 -0.029605 -741939.000000 0 0 1
-23.212417 -19.004140 -21.302523 36.793629 0.686043 2.188265 0.056636 -0.024138 -1299600.000000 0 0 1
-21.947817 -19.546740 -21.253323 36.269622 0.727598 2.196887 0.039037 -0.017760 -470889.000000 0 0 1
-21.041417 -18.993240 -22.238523 36.028271 0.734283 2.236041 0.038182 -0.018525 542274.000000 0 0 1
-19.645717 -19.638640 -22.197623 35.557908 0.785218 2.244989 0.044509 -0.012609 -92105.500000 0 0 1
-19.687517 -20.908840 -22.845823 36.697541 0.815474 2.242785 0.045094 -0.005270 608047.000000 0 0 1
-18.363017 -21.436640 -23.017723 36.421772 0.862473 2.254898 0.051087 -0.003999 575065.000000 0 0 1
-18.280417 -22.739940 -23.879423 37.702856 0.893688 2.256682 0.065088 -0.005994 -110161.000000 0 0 1
-18.304817 -22.394840 -25.280483 38.414815 0.885555 2.289078 0.068827 -0.004862 205427.000000 0 0 1
-18.264017 -23.628840 -25.936123 39.554758 0.912766 2.285908 0.076063 -0.012660 -8117.150000 0 0 1
-18.183217 -23.548640 -27.483403 40.503151 0.913266 2.316583 0.075849 -0.002600 -223078.000000 0 0 1
-16.846117 -23.340740 -27.847963 40.051103 0.945623 2.339649 0.071041 -0.009955 -258452.000000 0 0 1
-16.753717 -23.373540 -29.280553 41.040957 0.948896 2.365202 0.092020 -0.010005 -33576.200000 0 0 1
-15.346217 -23.321340 -29.895853 40.904197 0.988795 2.390399 0.061628 -0.020310 147035.000000 0 0 1
-14.564217 -24.495740 -29.681813 41.148119 1.034386 2.376532 0.081307 -0.023342 466394.000000 0 0 1
-13.271317 -24.450840 -30.264743 41.108711 1.073517 2.398253 0.099498 -0.030839 714802.000000 0 0 1
-12.355617 -25.654940 -29.816983 41.229718 1.121971 2.379209 0.110908 -0.032568 -91843.800000 0 0 1
-12.479217 -26.833840 -30.557533 42.538790 1.135493 2.372217 0.118263 -0.030159 245468.000000 0 0 1
-11.566517 -27.842840 -30.188973 42.665937 1.177067 2.356844 0.131834 -0.042930 64524.400000 0 0 1
-10.131617 -27.872740 -30.760903 42.729059 1.222150 2.374463 0.134522 -0.047560 -127241.000000 0 0 1
-9.232517 -26.963140 -30.202983 41.526744 1.240897 2.385196 0.132725 -0.053626 -339309.000000 0 0 1
-8.263017 -26.584440 -31.138653 41.768716 1.269441 2.412084 0.129086 -0.043531 -17377.000000 0 0 1
-7.396117 -25.365540 -30.642333 40.460669 1.287081 2.430021 0.142350 -0.044824 291934.000000 0 0 1
-8.114517 -24.121240 -30.660643 39.846639 1.246283 2.448801 0.147510 -0.043565 268651.000000 0 0 1
-9.006617 -23.931040 -29.571823 39.093561 1.210836 2.428645 0.132827 -0.037639 -236119.000000 0 0 1
-9.358517 -22.450040 -29.472573 38.212808 1.175841 2.451638 0.123905 -0.042532 -444165.000000 0 0 1
-10.051617 -21.932340 -30.579743 38.951036 1.141061 2.473624 0.108834 -0.038813 110836.000000 0 0 1
-10.383417 -20.577040 -30.402593 38.151639 1.103466 2.492923 0.103372 -0.037434 334539.000000 0 0 1
-11.069417 -19.865740 -31.673083 38.991843 1.062433 2.518882 0.073298 -0.027226 483918.000000 0 0 1
-11.733717 -18.623040 -31.444183 38.382735 1.008563 2.530859 0.069644 -0.029471 -37465.300000 0 0 1
-12.535417 -18.359240 -32.522913 39.394647 0.971718 2.542002 0.070987 -0.019691 -716368.000000 0 0 1
-13.245717 -16.974040 -32.471723 38.961261 0.908152 2.556093 0.067226 -0.024280 -397855.000000 0 0 1
-12.447517 -15.839640 -32.563493 38.291199 0.904746 2.587574 0.064641 -0.021828 -212882.000000 0 0 1
-11.720817 -15.369740 -31.442883 36.908825 0.919286 2.590412 0.044580 -0.016808 153051.000000 0 0 1
-11.517217 -13.832740 -31.426733 36.216440 0.876488 2.621449 0.042803 -0.010575 -21694.600000 0 0 1
-10.814317 -13.060040 -32.430683 36.595946 0.879186 2.659836 0.043141 -0.013971 40407.000000 0 0 1
-11.160917 -13.267640 -33.785113 37.974073 0.871426 2.667460 0.055034 -0.018533 -802758.000000 0 0 1
-11.967817 -12.142640 33.424216 37.521334 0.792649 0.471681 0.055397 -0.011407 1028990.000000 0 0 1
-13.334717 -11.945340 33.848404 38.291256 0.730494 0.486505 0.037830 -0.014004 885751.000000 0 0 1
-14.060217 -11.128440 32.907983 37.476222 0.669527 0.498913 0.032845 -0.018714 499466.000000 0 0 1
-15.277617 -10.400640 33.474967 38.238100 0.597707 0.504461 0.048796 -0.020619 -116173.000000 0 0 1
-14.865617 -9.468840 -33.423323 37.785765 0.567155 2.656320 0.055634 -0.021270 239806.000000 0 0 1
-15.903717 -8.869340 -32.620123 37.358611 0.508728 2.632449 0.066594 -0.027500 376990.000000 0 0 1
-15.385017 -7.807040 -31.608813 36.010633 0.469585 2.641970 0.068549 -0.038932 -3347.790000 0 0 1
-14.925817 -6.566540 -32.194023 36.088150 0.414461 2.672755 0.069152 -0.044840 404939.000000 0 0 1
-15.847917 -5.473040 -32.166703 36.274060 0.332524 2.661103 0.073332 -0.039549 60238.900000 0 0 1
-16.242917 -4.789740 -30.863293 35.203932 0.286755 2.639755 0.079036 -0.044123 -256941.000000 0 0 1
-16.835617 -5.679340 -29.914453 34.793209 0.325353 2.605632 0.090665 -0.046553 -113578.000000 0 0 1
-16.977717 -5.200140 -28.593403 33.658090 0.297219 2.585881 0.088710 -0.052772 324386.000000 0 0 1
-15.691817 -4.766340 -27.800823 32.277498 0.294891 2.608632 0.093242 -0.051756 314691.000000 0 0 1
-15.083817 -3.707340 -28.488953 32.448210 0.241005 2.642427 0.089036 -0.047719 -1059680.000000 0 0 1
-13.964117 -3.252940 -27.818973 31.296540 0.228868 2.665698 0.081265 -0.037380 -582306.000000 0 0 1
-13.685817 -1.837440 -28.398783 31.577977 0.133461 2.689014 0.058520 -0.021404 2947.120000 0 0 1
-13.454017 -1.896440 -29.772063 32.725873 0.140035 2.713456 0.061949 -0.029372 22551.100000 0 0 1
-13.548117 -0.696440 -30.436753 33.323151 0.051360 2.722311 0.063869 -0.034857 -70788.400000 0 0 1
-13.822217 -0.887440 -31.991563 34.861172 0.064116 2.733009 0.065049 -0.041917 231368.000000 0 0 1
-15.165317 -1.233440 -32.301293 35.705486 0.081154 2.701375 0.054457 -0.044945 392467.000000 0 0 1
-15.252217 -1.431440 -33.704053 37.022187 0.093577 2.714984 0.048969 -0.038883 132311.000000 0 0 1
-16.687217 -1.784440 33.659284 37.611099 0.106530 0.462523 0.038627 -0.041842 143969.000000 0 0 1
-16.797717 -1.900440 32.227771 36.392364 0.112658 0.483089 0.054325 -0.042159 -315320.000000 0 0 1
-18.085517 -1.966440 31.685524 36.536628 0.108305 0.521192 0.044810 -0.036000 -402116.000000 0 0 1
-18.148217 -1.987440 30.128574 35.228378 0.109077 0.544790 0.063743 -0.028265 -95746.700000 0 0 1
-17.526217 -0.833440 29.591984 34.402738 0.047518 0.535206 0.068591 -0.013677 58836.400000 0 0 1
-17.526217 -0.687440 28.152924 33.169684 0.039203 0.557171 0.074381 -0.019339 -147403.000000 0 0 1
-16.818517 0.615560 27.714974 32.424700 -0.036584 0.545730 0.067136 -0.016235 -48294.900000 0 0 1
-17.382417 1.819560 28.189894 33.168197 -0.104298 0.554987 0.067571 -0.016613 956440.000000 0 0 1
-18.701617 2.225560 27.747624 33.535566 -0.118447 0.596318 0.073517 -0.021314 1032040.000000 0 0 1
-18.800617 2.883560 26.344724 32.493423 -0.152190 0.625328 0.073649 -0.021107 -357926.000000 0 0 1
-18.282817 4.192560 26.401264 32.386196 -0.225420 0.617720 0.071722 -0.013771 197354.000000 0 0 1
-18.790317 4.926560 25.325014 31.917132 -0.256415 0.654321 0.066671 -0.008284 -495859.000000 0 0 1
-18.735917 6.456560 25.572874 32.352644 -0.331864 0.659267 0.062849 -0.006400 337342.000000 0 0 1
-17.422617 6.951560 25.376484 31.556896 -0.379641 0.636552 0.044324 -0.009128 145409.000000 0 0 1
-16.997917 7.034560 24.021734 30.256535 -0.392387 0.653542 0.036920 -0.009292 344915.000000 0 0 1
-15.772917 8.026560 23.872204 29.716875 -0.470728 0.637945 0.036347 -0.011933 906706.000000 0 0 1
-14.555817 7.525560 24.417804 29.406377 -0.477166 0.591047 0.024045 -0.007525 -225786.000000 0 0 1
-13.531317 8.198560 23.736474 28.526007 -0.544743 0.587914 0.041864 -0.018607 38403.200000 0 0 1
-12.112317 7.965560 24.333604 28.324594 -0.581728 0.537292 0.030064 -0.017448 631716.000000 0 0 1
-11.078217 8.730560 23.734644 27.609471 -0.667432 0.536201 0.035444 -0.024136 435039.000000 0 0 1
-9.860217 8.823560 24.459034 27.808693 -0.729971 0.495888 0.046399 -0.025373 276189.000000 0 0 1
-9.690017 10.181560 25.192564 28.848325 -0.810129 0.508909 0.060152 -0.036243 -500955.000000 0 0 1
-10.552517 10.340560 26.308374 30.173056 -0.775254 0.511694 0.038361 -0.025732 316929.000000 0 0 1
-10.579917 11.646560 26.907474 31.170324 -0.833351 0.529143 0.049746 -0.025114 -399931.000000 0 0 1
-11.346917 12.778560 26.141484 31.231735 -0.844670 0.578988 0.045426 -0.027311 -132623.000000 0 0 1
-12.742517 12.665560 26.038764 31.635508 -0.782369 0.603971 0.037340 -0.027912 -300251.000000 0 0 1
-13.070717 11.965560 24.902224 30.563688 -0.741285 0.618473 0.035283 -0.023563 84481.400000 0 0 1
-14.609617 11.849560 24.644534 31.003322 -0.681460 0.651954 0.009395 -0.017191 551451.000000 0 0 1
-15.295717 13.033560 24.268774 31.508824 -0.705715 0.691608 0.013220 -0.022982 674122.000000 0 0 1
-16.562817 12.885560 23.614614 31.591368 -0.661170 0.726503 0.028291 -0.009638 559206.000000 0 0 1
-16.636417 12.192560 22.228024 30.323488 -0.632456 0.748031 0.023584 -0.002616 -412530.000000 0 0 1
-16.415017 10.765560 22.130224 29.582036 -0.580467 0.725607 0.039982 -0.005196 50506.700000 0 0 1
-16.290017 10.385560 20.811424 28.396124 -0.567567 0.748226 0.049363 -0.013459 -39984.700000 0 0 1
-16.542917 8.881560 20.532824 27.823498 -0.492714 0.740744 0.041804 -0.008153 386406.000000 0 0 1
-17.897517 8.496560 20.665724 28.628391 -0.443231 0.764308 0.058765 -0.007959 -303641.000000 0 0 1
-18.084117 7.141560 20.355824 28.149542 -0.376109 0.762471 0.044785 -0.002695 1213310.000000 0 0 1
-19.604417 6.941560 20.754624 29.381505 -0.340306 0.786420 0.086774 -0.020103 1115250.000000 0 0 1
-19.944017 7.417560 22.035424 30.632399 -0.356067 0.767930 0.074467 -0.022621 484453.000000 0 0 1
-21.356317 7.504560 22.253824 31.743399 -0.337919 0.793922 0.074232 -0.025477 566351.000000 0 0 1
-21.782717 8.278560 23.542804 33.125291 -0.363192 0.780275 0.090967 -0.029077 -818707.000000 0 0 1
-21.851617 9.709560 23.375944 33.439549 -0.418138 0.796727 0.090847 -0.022715 1157940.000000 0 0 1
-20.596517 10.354560 23.027014 32.583382 -0.465832 0.785959 0.081270 -0.019786 1779860.000000 0 0 1
-19.442717 10.194560 24.112904 32.609514 -0.482928 0.738552 0.082407 -0.020297 -148643.000000 0 0 1
-19.891817 10.697560 25.347074 33.949909 -0.493418 0.727857 0.088551 -0.019553 290810.000000 0 0 1
-19.140417 10.271560 26.486684 34.254998 -0.492530 0.686891 0.083452 -0.013793 180839.000000 0 0 1
-31.172017 -14.075488 20.762924 40.011411 0.424136 1.025203 0.068818 -0.004845 -239629.000000 0 0 1
-30.638287 -15.355988 20.790624 40.084424 0.464609 1.025501 0.070292 -0.000078 -308234.000000 0 0 1
-31.418267 -16.383188 20.180224 40.776927 0.480663 1.053084 0.070649 0.000212 -2355.620000 0 0 1
-31.420467 -16.594588 18.643924 40.127571 0.485910 1.087595 0.081051 -0.008204 -8766.990000 0 0 1
-31.935547 -15.487488 17.921824 39.760951 0.451544 1.103203 0.085251 -0.024425 -112469.000000 0 0 1
-31.470087 -15.312288 16.613224 38.740570 0.452843 1.127596 0.093134 -0.025424 -487053.000000 0 0 1
-32.237047 -14.158088 15.835524 38.606249 0.413825 1.148145 0.087574 -0.030695 -695703.000000 0 0 1
-33.461827 -14.488888 15.274124 39.533790 0.408625 1.174119 0.098705 -0.028455 877148.000000 0 0 1
-34.578659 -14.500288 16.254824 40.867607 0.397069 1.161740 0.103913 -0.031019 637110.000000 0 0 1
-35.151020 -13.129688 16.568624 41.018316 0.357474 1.154985 0.100900 -0.030740 -266862.000000 0 0 1
-36.422677 -13.232288 17.222824 42.406727 0.348472 1.152577 0.085592 -0.031414 521220.000000 0 0 1
-36.992167 -11.951388 17.387324 42.586091 0.312493 1.150220 0.079713 -0.021283 -644379.000000 0 0 1
36.468841 -11.969488 18.422024 42.574828 -0.317134 1.123314 0.083286 0.000449 -926403.000000 0 0 1
36.987841 -12.438588 19.674424 43.702423 -0.324408 1.103817 0.082928 -0.003647 98131.400000 0 0 1
36.193871 -12.132888 20.809224 43.476741 -0.323447 1.071704 0.078082 -0.011384 -643772.000000 0 0 1
36.819551 -12.493488 22.209824 44.777705 -0.327126 1.051808 0.072211 -0.014067 67417.800000 0 0 1
-36.585867 -11.746988 22.597724 44.577735 0.310682 1.039179 0.067683 -0.009559 -536493.000000 0 0 1
-35.356048 -12.347988 22.326924 43.600624 0.336004 1.033194 0.063106 -0.014257 -87355.600000 0 0 1
-34.137385 -11.406188 22.588924 42.493784 0.322464 1.010329 0.081121 -0.017385 300658.000000 0 0 1
-34.052429 -10.271988 21.755024 41.693677 0.292972 1.021857 0.104991 -0.018868 -439401.000000 0 0 1
-32.731857 -9.815388 21.779324 40.522281 0.291340 1.003368 0.115525 -0.024186 -572282.000000 0 0 1
-32.424567 -8.564488 20.944724 39.539657 0.258238 1.012533 0.133534 -0.017000 17050.000000 0 0 1
-32.664827 -8.627588 19.557824 39.037606 0.258228 1.046043 0.128228 -0.019229 494023.000000 0 0 1
-34.004167 -8.902788 19.152924 40.029708 0.256067 1.071887 0.115442 -0.022438 107854.000000 0 0 1
-34.334838 -8.585888 17.675924 39.560547 0.245038 1.107603 0.115794 -0.028130 723478.000000 0 0 1
-35.728348 -8.806988 17.408424 40.707875 0.241681 1.128913 0.075799 -0.026447 977293.000000 0 0 1
-36.176827 -8.421788 16.098124 40.482575 0.228721 1.161836 0.091160 -0.028321 219282.000000 0 0 1
36.828151 -8.365588 15.886024 40.971472 -0.223362 1.172625 0.085021 -0.027604 10272.500000 0 0 1
36.091061 -9.564988 15.820724 40.550573 -0.259068 1.170004 0.086663 -0.012591 462016.000000 0 0 1
34.704371 -9.228088 15.687324 39.187282 -0.259892 1.158934 0.078025 -0.013461 411578.000000 0 0 1
33.818011 -10.477288 15.700124 38.728869 -0.300436 1.153396 0.083772 -0.024006 -297477.000000 0 0 1
33.748491 -11.167888 16.946324 39.380963 -0.319573 1.125952 0.072943 -0.027811 -258099.000000 0 0 1
32.640701 -12.024988 16.912924 38.678969 -0.352976 1.118242 0.079170 -0.032010 -32732.400000 0 0 1
32.221131 -12.672488 18.244224 39.136235 -0.374715 1.085837 0.069481 -0.026632 111941.000000 0 0 1
32.991351 -13.811388 18.593224 40.309945 -0.396469 1.091386 0.088431 -0.023901 23265.400000 0 0 1
33.044031 -13.809288 20.022624 41.030597 -0.395846 1.061008 0.083658 -0.014976 -173511.000000 0 0 1
33.651941 -15.066888 20.619624 42.244918 -0.420962 1.060888 0.087569 -0.011376 -64640.100000 0 0 1
33.995761 -14.881088 22.010224 43.146361 -0.412607 1.035461 0.080028 -0.017068 -4619.170000 0 0 1
34.345581 -16.151388 22.608724 44.177377 -0.439575 1.033551 0.082904 -0.009077 -33358.000000 0 0 1
34.847891 -15.864188 24.011014 45.194875 -0.427204 1.010689 0.087606 -0.014678 426333.000000 0 0 1
36.113241 -15.200188 24.054534 45.976434 -0.398396 1.020203 0.089153 -0.006841 431190.000000 0 0 1
36.401141 -14.979988 25.414014 46.854191 -0.390402 0.997497 0.082404 0.000777 -662165.000000 0 0 1
-36.882187 -14.158088 25.663704 47.110220 0.366527 0.994695 0.079682 -0.002029 -625845.000000 0 0 1
-35.627023 -14.792788 25.618324 46.307773 0.393552 0.984573 0.046602 0.008164 -236391.000000 0 0 1
-34.658175 -13.870088 26.002504 45.493941 0.380676 0.962391 0.053771 -0.003377 -45542.700000 0 0 1
-33.166687 -14.230788 25.825054 44.378799 0.405312 0.949705 0.055873 -0.006897 -114080.000000 0 0 1
-32.778287 -14.478688 24.451954 43.381408 0.415943 0.971998 0.049644 -0.000735 78528.700000 0 0 1
-31.421687 -14.828588 24.302614 42.400784 0.440934 0.960434 0.060603 -0.010182 178329.000000 0 0 1
-30.915807 -16.258388 24.771654 42.822390 0.484146 0.953939 0.058890 -0.001501 -517727.000000 0 0 1
-31.068307 -16.409688 26.128504 43.786028 0.485937 0.931375 0.063156 -0.007161 31023.200000 0 0 1
-30.752447 -17.764988 26.520444 44.324279 0.523844 0.929384 0.057374 -0.011461 -34643.900000 0 0 1
-30.275097 -17.854088 27.991344 44.931785 0.532833 0.898257 0.073563 -0.019503 864105.000000 0 0 1
-29.062457 -17.116988 28.299574 44.028213 0.532272 0.872701 0.077106 -0.021826 871375.000000 0 0 1
-28.516007 -17.575588 29.517034 44.646604 0.552348 0.848478 0.102890 -0.030861 257280.000000 0 0 1
-27.158197 -16.966388 29.920764 43.825541 0.558401 0.819312 0.091982 -0.031342 -101524.000000 0 0 1
-27.379797 -15.723688 30.591144 43.962549 0.521294 0.801200 0.120174 -0.038121 -471426.000000 0 0 1
-26.303607 -14.873788 30.393554 42.858808 0.514640 0.782497 0.099029 -0.037287 -794906.000000 0 0 1
-26.271947 -13.553688 31.130914 42.930775 0.476286 0.759556 0.106714 -0.037609 -243986.000000 0 0 1
-25.551047 -13.679388 32.327636 43.417251 0.491545 0.730890 0.106016 -0.037997 56766.600000 0 0 1
-25.320197 -12.444788 32.887978 43.331331 0.456822 0.709038 0.101761 -0.029160 -271907.000000 0 0 1
-24.597417 -12.523788 -33.573053 43.462950 0.470941 2.453490 0.111155 -0.024283 -490869.000000 0 0 1
-23.237517 -12.835188 -33.572133 42.799677 0.504644 2.472527 0.065971 -0.018304 -509705.000000 0 0 1
-23.017817 -14.219088 -33.563473 43.110429 0.553364 2.463143 0.068474 -0.030143 -348305.000000 0 0 1
-22.960517 -14.860388 -32.159903 42.217009 0.574415 2.436846 0.075270 -0.029221 368838.000000 0 0 1
-21.778717 -14.553688 -31.397853 40.889455 0.589100 2.446308 0.049305 -0.016893 551167.000000 0 0 1
-21.753817 -15.400488 -30.209693 40.286836 0.616038 2.418655 0.070807 -0.025529 503306.000000 0 0 1
-20.436217 -15.307288 -29.360013 38.909670 0.642878 2.425793 0.075820 -0.029096 618056.000000 0 0 1
-20.174917 -14.110688 -28.673363 37.792863 0.610335 2.432108 0.068799 -0.026007 -120636.000000 0 0 1
-20.977817 -13.885488 -27.552393 37.309649 0.584704 2.401608 0.079652 -0.028510 -216800.000000 0 0 1
-20.501617 -12.583488 -26.883773 36.074890 0.550490 2.411663 0.080185 -0.027253 348964.000000 0 0 1
-19.267017 -12.777188 -26.192013 34.935598 0.585574 2.418439 0.080001 -0.033443 214532.000000 0 0 1
-18.863817 -11.505088 -25.727903 33.913649 0.547669 2.432004 0.081888 -0.034918 514134.000000 0 0 1
-17.444817 -11.596788 -25.081113 32.678270 0.586688 2.445754 0.090895 -0.038226 -80308.100000 0 0 1
-17.446717 -12.269288 -23.845823 31.992915 0.612899 2.411851 0.098128 -0.037039 428934.000000 0 0 1
-16.144317 -12.436988 -23.294423 30.950731 0.656407 2.422842 0.104324 -0.041515 987236.000000 0 0 1
-15.113717 -13.440688 -23.958623 31.354300 0.726874 2.440481 0.087963 -0.035980 282215.000000 0 0 1
-14.344417 -12.778588 -24.968523 31.503678 0.727732 2.485790 0.096260 -0.043760 64636.300000 0 0 1
-13.620217 -13.687788 -25.743003 32.180243 0.787873 2.498030 0.088388 -0.040969 -603073.000000 0 0 1
-12.625117 -13.146388 -26.752753 32.371761 0.805622 2.543520 0.073367 -0.034917 44954.300000 0 0 1
-13.345817 -12.404788 -27.702923 33.157828 0.748870 2.559814 0.101045 -0.043175 200997.000000 0 0 1
-12.414417 -11.782188 -28.554903 33.291443 0.759275 2.601624 0.095566 -0.035639 193255.000000 0 0 1
-13.124317 -10.710388 -29.414643 33.943796 0.684464 2.619082 0.053207 -0.028973 36575.200000 0 0 1
-12.286517 -9.734288 -29.980793 33.831388 0.670012 2.659837 0.050557 -0.024497 104476.000000 0 0 1
-11.832117 -9.965788 -31.347813 34.957135 0.699987 2.683166 0.058653 -0.012482 63073.300000 0 0 1
-11.185317 -8.761888 -31.974163 34.988985 0.664499 2.723426 0.048857 -0.014201 -780345.000000 0 0 1
-9.807017 -8.674888 -31.935373 34.515204 0.724219 2.752504 0.038683 -0.014765 -965072.000000 0 0 1
-9.298917 -7.370188 -32.263903 34.376576 0.670204 2.789182 0.039368 -0.017352 118735.000000 0 0 1
-7.761117 -7.178388 -32.209743 33.900320 0.746412 2.824452 0.053242 -0.017032 -249078.000000 0 0 1
-7.259617 -7.222088 -30.896763 32.549509 0.782807 2.821555 0.042800 -0.011046 -950259.000000 0 0 1
-7.427417 -6.003488 -30.107393 31.585812 0.679774 2.834424 0.037184 -0.009069 -636670.000000 0 0 1
-6.797417 -4.645088 -30.467393 31.560161 0.599471 2.877674 0.043015 -0.016683 -736495.000000 0 0 1
-5.431417 -4.709688 -30.199003 31.042893 0.714349 2.907889 0.058434 -0.019619 -724367.000000 0 0 1
-4.870217 -3.410088 -30.426493 31.001922 0.610855 2.948622 0.069767 -0.029620 -479670.000000 0 0 1
-3.394017 -3.298588 -30.074743 30.444871 0.771140 2.985503 0.067184 -0.019831 -1737500.000000 0 0 1
-2.581317 -4.047088 -30.873493 31.244434 1.003031 2.987347 0.076987 -0.023600 -953822.000000 0 0 1
-1.222417 -3.756688 -30.754443 31.007140 1.256205 3.013837 0.085259 -0.022512 -372508.000000 0 0 1
-0.602217 -2.396788 -31.075863 31.173972 1.324632 3.062235 0.088747 -0.026166 -475726.000000 0 0 1
0.831383 -2.396688 -31.035853 31.139356 -1.236896 3.060036 0.091150 -0.017281 776244.000000 0 0 1
1.398983 -1.116988 -31.293283 31.344447 -0.673782 3.084448 0.043490 -0.014052 -9688.370000 0 0 1
1.445283 -0.107388 -30.118343 30.153191 -0.074166 3.093511 0.044657 -0.019200 -583677.000000 0 0 1
0.183383 0.299312 -29.656763 29.658840 1.021103 3.129757 0.069318 -0.019645 -601527.000000 0 0 1
0.293983 1.383012 -28.851603 28.886227 1.361346 3.092625 0.083572 -0.037641 -356775.000000 0 0 1
-1.049717 1.865312 -28.307403 28.388208 -1.058212 3.066124 0.072654 -0.033085 -342525.000000 0 0 1
-1.787817 2.668512 -29.207853 29.383940 -0.980512 3.032061 0.057895 -0.045399 -147125.000000 0 0 1
-1.907917 3.963012 -28.656483 28.992061 -1.122114 2.989295 0.105246 -0.037606 274128.000000 0 0 1
-3.269917 4.545812 -29.149013 29.682010 -0.947218 2.951799 0.132839 -0.038172 239961.000000 0 0 1
-3.176217 4.928212 -30.508133 31.066409 -0.998299 2.951727 0.129149 -0.041782 -642901.000000 0 0 1
-4.397617 5.418212 -30.940873 31.718034 -0.889000 2.919769 0.132773 -0.029427 -1251160.000000 0 0 1
-4.377017 6.131212 -32.331343 33.197376 -0.950808 2.912675 0.136217 -0.031299 -18215.400000 0 0 1
-3.970717 5.386312 -33.509033 34.170663 -0.935546 2.944487 0.155506 -0.036583 617951.000000 0 0 1
-2.844617 4.509012 -33.379343 33.802419 -1.007984 2.983211 0.139139 -0.038296 -70871.400000 0 0 1
-2.549717 3.818812 33.127200 33.443919 -0.982097 0.137733 0.128800 -0.036484 259070.000000 0 0 1
-3.540217 2.871112 32.689787 33.006038 -0.681412 0.138542 0.115473 -0.041007 231564.000000 0 0 1
-3.195117 2.194412 31.446054 31.684042 -0.601813 0.122644 0.118918 -0.036852 -35316.600000 0 0 1
-3.166217 3.097512 30.163564 30.487048 -0.774430 0.145804 0.120690 -0.033136 -259557.000000 0 0 1
-4.318817 3.860512 29.929834 30.485253 -0.729425 0.191180 0.093220 -0.030296 -298920.000000 0 0 1
-4.110817 4.832612 28.930824 29.618331 -0.865930 0.215882 0.093200 -0.029370 -125691.000000 0 0 1
-5.401117 5.603512 28.676734 29.714078 -0.803788 0.265013 0.099712 -0.019863 -53706.700000 0 0 1
-5.263817 6.294812 27.450644 28.650833 -0.874360 0.290469 0.096136 -0.016278 -22569.300000 0 0 1
-6.408617 7.093812 27.201774 28.832777 -0.836101 0.337962 0.081963 -0.012236 -23812.300000 0 0 1
-6.380817 7.843112 25.807854 27.717766 -0.887844 0.373395 0.084268 -0.017241 -711000.000000 0 0 1
-5.386917 8.778312 25.886704 27.860349 -1.020392 0.378664 0.093777 -0.019774 -768282.000000 0 0 1
-5.422517 9.581012 24.703274 27.045354 -1.055779 0.419232 0.093392 -0.023050 245247.000000 0 0 1
-4.425617 10.772012 24.758984 27.361096 -1.180977 0.439658 0.087838 -0.024684 -611065.000000 0 0 1
-4.642317 11.683112 23.718054 26.843850 -1.192574 0.487394 0.092981 -0.030609 213803.000000 0 0 1
-4.051417 12.976512 23.945904 27.535616 -1.268174 0.516336 0.080084 -0.025457 273478.000000 0 0 1
-2.475217 13.047612 23.916624 27.356384 -1.383318 0.506885 0.057206 -0.014520 807150.000000 0 0 1
-1.790717 12.360112 25.022164 27.965831 -1.426919 0.462946 0.057751 -0.013576 77712.000000 0 0 1
-1.972817 13.001212 26.276954 29.383700 -1.420204 0.464000 0.077719 -0.014138 -1069770.000000 0 0 1
-1.264017 12.413712 27.493834 30.192861 -1.469322 0.426046 0.080558 -0.017703 512780.000000 0 0 1
0.143183 12.630712 27.358834 30.134053 1.559461 0.432539 0.073324 -0.013344 53897.100000 0 0 1
0.820783 12.265712 28.574434 31.106585 1.503979 0.406279 0.063030 -0.027106 951084.000000 0 0 1
2.363683 12.360512 28.275634 30.949648 1.381849 0.418742 0.068122 -0.023422 879260.000000 0 0 1
2.885183 13.681912 28.340844 31.602570 1.362966 0.458338 0.070344 -0.024342 -832844.000000 0 0 1
4.265983 13.652512 28.182934 31.604864 1.267940 0.469648 0.073720 -0.021273 -445655.000000 0 0 1
4.955783 15.029112 28.508464 32.606234 1.252278 0.506752 0.079844 -0.026210 -137963.000000 0 0 1
4.929983 15.363512 29.896694 33.972850 1.260287 0.494898 0.085216 -0.016558 23229.100000 0 0 1
3.909183 16.264812 30.243354 34.561340 1.334924 0.505230 0.067377 -0.011259 -202028.000000 0 0 1
4.021683 17.692412 29.603014 34.720797 1.347283 0.549852 0.080082 -0.013199 -416749.000000 0 0 1
5.089083 18.494212 29.995854 35.604576 1.302271 0.568941 0.109342 -0.011579 -403753.000000 0 0 1
5.552883 19.379212 29.045004 35.355347 1.291735 0.606731 0.088595 -0.012540 225205.000000 0 0 1
6.583083 20.391512 29.634514 36.569866 1.258524 0.626041 0.088588 -0.013395 198996.000000 0 0 1
6.007783 21.244612 30.550514 37.692982 1.295201 0.625775 0.076549 -0.020961 343077.000000 0 0 1
7.053383 22.029812 31.126164 38.780161 1.260935 0.639103 0.073528 -0.021893 403561.000000 0 0 1
7.244883 23.478012 30.600224 39.243841 1.271485 0.676536 0.078551 -0.013785 -96604.200000 0 0 1
7.735583 23.574812 29.273974 38.374165 1.253737 0.703077 0.058039 -0.013081 215872.000000 0 0 1
8.031183 24.889212 28.906134 38.981243 1.258667 0.735434 0.066695 -0.018594 -51346.100000 0 0 1
8.726183 24.952212 27.523374 38.161436 1.234375 0.765212 0.084179 -0.020069 -204694.000000 0 0 1
7.916183 24.496312 26.455424 36.913746 1.258231 0.771763 0.075548 -0.019526 219684.000000 0 0 1
8.519983 24.572612 25.177394 36.198128 1.237040 0.801619 0.088354 -0.026200 -179926.000000 0 0 1
28.591201 2.530212 7.318577 29.621281 0.088266 1.321139 0.170812 -0.017787 2769.110000 0 0 1
29.243401 3.615212 7.968677 30.524516 0.123001 1.306678 0.166720 -0.034695 181429.000000 0 0 1
29.003201 3.657812 9.329477 30.685573 0.125455 1.261871 0.171029 -0.022022 -326403.000000 0 0 1
29.851681 4.706012 10.069577 31.853819 0.156360 1.249161 0.166145 -0.025972 -130751.000000 0 0 1
29.503621 6.083812 9.966077 31.730098 0.203355 1.251299 0.159656 -0.025371 -89660.600000 0 0 1
30.283701 6.711212 8.977777 32.291537 0.218087 1.289061 0.152881 -0.038768 -333695.000000 0 0 1
29.881361 8.191412 8.675877 32.175546 0.267558 1.297775 0.159362 -0.042429 -447381.000000 0 0 1
28.663001 8.276512 8.000477 30.888119 0.281106 1.308794 0.174369 -0.036540 -483118.000000 0 0 1
28.730101 9.256112 7.030177 30.992220 0.311674 1.341968 0.176514 -0.059401 382511.000000 0 0 1
27.490801 9.325312 6.094577 29.662256 0.327035 1.363857 0.161891 -0.046837 1011630.000000 0 0 1
26.234801 9.807412 6.589877 28.772844 0.357746 1.339714 0.157574 -0.042846 902171.000000 0 0 1
25.251901 9.715412 5.541977 27.618132 0.367282 1.368760 0.171036 -0.044255 1818150.000000 0 0 1
23.872901 10.427812 5.971977 26.726750 0.411827 1.345448 0.117193 -0.033076 1317780.000000 0 0 1
23.913101 11.849612 6.125377 27.381927 0.460064 1.345186 0.116280 -0.033113 1556460.000000 0 0 1
22.549001 12.379912 6.176877 26.455122 0.502093 1.335136 0.113211 -0.021007 1518010.000000 0 0 1
22.382201 13.887512 6.332677 27.091118 0.555336 1.334859 0.096029 -0.014736 -120219.000000 0 0 1
22.602601 14.682212 5.189977 27.447782 0.576080 1.380566 0.104525 -0.020309 269996.000000 0 0 1
22.528801 16.055012 5.517077 28.209013 0.619161 1.373949 0.114083 -0.023728 -183024.000000 0 0 1
22.002801 16.829412 4.301377 28.033091 0.652954 1.416748 0.114290 -0.032253 438872.000000 0 0 1
20.590201 16.898912 4.108177 26.951933 0.687252 1.417774 0.118056 -0.019438 581306.000000 0 0 1
20.225301 17.641012 2.979077 27.002648 0.717256 1.460246 0.124138 -0.026148 -582138.000000 0 0 1
18.718401 17.722912 2.791777 25.928250 0.758087 1.462914 0.102759 -0.016596 -830706.000000 0 0 1
17.991101 18.314412 3.838977 25.958334 0.794303 1.422362 0.103911 -0.022419 449222.000000 0 0 1
16.620301 18.145212 3.470177 24.850055 0.829233 1.430694 0.076946 -0.028652 -463288.000000 0 1 0
15.677801 18.897312 4.328477 24.932660 0.878247 1.396306 0.097315 -0.039860 -548560.000000 0 1 0
14.310601 18.623012 4.081477 23.838379 0.915600 1.398734 0.098593 -0.042675 491179.000000 0 1 0
13.469801 19.675712 4.574977 24.279612 0.970488 1.381234 0.074105 -0.043548 -182200.000000 0 1 0
11.976101 19.447712 4.403377 23.260056 1.018833 1.380336 0.055886 -0.033219 -215684.000000 0 1 0
11.314601 18.749212 5.459977 22.569104 1.027829 1.326449 0.039425 -0.041484 1154040.000000 0 1 0
9.884401 18.972512 5.461277 22.079020 1.090502 1.320851 0.032498 -0.027986 1250610.000000 0 1 0
9.238801 18.468212 6.761377 21.728932 1.106945 1.254373 0.024900 -0.020900 -537162.000000 0 1 0
9.434801 19.326712 7.880277 22.904934 1.116654 1.219577 0.045519 -0.030908 -152039.000000 0 1 0
8.610801 18.950312 8.957477 22.660463 1.144299 1.164412 0.043564 -0.017622 298086.000000 0 1 0
7.354901 19.831012 9.217077 23.072020 1.215644 1.159834 0.049198 -0.023316 737261.000000 0 1 0
6.379001 19.856012 8.178177 22.401684 1.259948 1.197089 0.040057 -0.034833 80807.300000 0 1 0
6.299401 21.142312 7.644677 23.347824 1.281219 1.237219 0.038828 -0.025002 -907019.000000 0 1 0
5.125301 21.402912 6.713577 23.009247 1.335755 1.274712 0.015196 -0.009085 117896.000000 0 1 0
3.844601 21.609012 7.316677 23.135775 1.394722 1.249023 0.008446 -0.008735 339614.000000 0 1 0
3.630401 22.815312 8.022877 24.455773 1.412998 1.236551 0.016286 -0.014338 -588186.000000 0 1 0
3.677601 24.157212 7.180777 25.468788 1.419720 1.284976 0.030196 -0.011926 -316532.000000 0 0 1
2.754601 24.079012 6.132577 24.999903 1.456893 1.322963 0.012035 -0.011278 -73207.200000 0 1 0
3.047101 24.964412 5.119777 25.665518 1.449339 1.369968 0.030780 -0.009289 -325096.000000 0 0 1
1.768201 25.252412 4.348777 25.685067 1.500889 1.400665 0.035968 -0.011186 319394.000000 0 0 1
0.701501 25.869412 5.073677 26.371590 1.543686 1.377197 0.044976 -0.019052 191461.000000 0 0 1
-0.463099 26.091312 4.328477 26.451970 -1.553049 1.406422 0.055032 -0.020033 310861.000000 0 0 1
-1.653699 26.762512 5.075077 27.289616 -1.509083 1.383736 0.063084 -0.023674 322157.000000 0 0 1
-2.737399 26.965312 4.189477 27.425774 -1.469627 1.417439 0.103621 -0.028511 -56651.600000 0 0 1
-3.755499 27.652812 4.897777 28.333196 -1.435813 1.397060 0.100512 -0.028168 676402.000000 0 0 1
-4.982699 28.100712 4.018577 28.820587 -1.395305 1.430906 0.112120 -0.030778 814477.000000 0 0 1
-4.511799 29.127612 3.171077 29.645064 -1.417120 1.463623 0.114123 -0.024357 323815.000000 0 0 1
-5.520999 29.425212 2.243177 30.022597 -1.385325 1.496010 0.123783 -0.036996 -48456.200000 0 0 1
-4.879099 30.236812 1.065977 30.646479 -1.410812 1.536006 0.116574 -0.026017 400746.000000 0 0 1
-4.353899 31.575512 1.287477 31.900266 -1.433772 1.530426 0.114233 -0.028786 668077.000000 0 0 1
-3.231599 31.619012 2.180577 31.858438 -1.468946 1.502297 0.120597 -0.030598 -319582.000000 0 0 1
-2.529599 32.961312 2.207777 33.131876 -1.494202 1.504111 0.128951 -0.038894 -559213.000000 0 0 1
-1.840499 33.082612 1.002777 33.148940 -1.515220 1.540541 0.123989 -0.028162 -270472.000000 0 0 1
-0.976399 -33.751340 0.895677 33.777338 1.541875 1.544276 0.109863 -0.035344 109795.000000 0 0 1
0.477501 -33.768540 1.399077 33.800884 -1.556657 1.529393 0.089094 -0.029927 -194141.000000 0 0 1
0.530901 -33.495440 2.779977 33.614798 -1.554948 1.488001 0.080649 -0.031642 219132.000000 0 0 1
1.718301 -33.856440 3.469477 34.077095 -1.520087 1.468807 0.053378 -0.025524 120003.000000 0 0 1
1.487801 -33.673040 4.975077 34.071081 -1.526641 1.424252 0.043169 -0.022566 94899.700000 0 0 1
0.501001 33.403412 5.535877 33.862735 1.555799 1.406579 0.074773 -0.027604 -149506.000000 0 0 1
-0.006899 33.809212 6.764977 34.479382 -1.570592 1.373312 0.091990 -0.024122 180559.000000 0 0 1
0.941801 33.596912 7.978777 34.544180 1.542771 1.337719 0.076996 -0.017012 37904.000000 0 0 1
1.060101 32.252612 8.213277 33.298839 1.537939 1.321571 0.076064 -0.018984 227992.000000 0 0 1
2.146401 32.068012 9.106177 33.404893 1.503963 1.294702 0.080694 -0.010303 -134307.000000 0 0 1
2.690001 30.668012 9.372977 32.180984 1.483307 1.275254 0.067942 -0.016363 176589.000000 0 0 1
1.988901 29.790812 10.283977 31.578606 1.504133 1.239084 0.085017 -0.022153 441803.000000 0 0 1
2.630401 28.531212 10.206077 30.415671 1.478862 1.228604 0.063607 -0.022683 54807.900000 0 0 1
2.374001 27.581812 11.389977 29.935327 1.484937 1.180474 0.059268 -0.026762 -518721.000000 0 0 1
2.761701 28.087312 12.644377 30.925788 1.472786 1.149590 0.071078 -0.023681 -81098.000000 0 0 1
2.709201 27.200112 13.796677 30.619179 1.471521 1.103371 0.077304 -0.023797 -122802.000000 0 0 1
1.252101 26.755812 14.120277 30.279092 1.524033 1.085650 0.062960 -0.022075 279500.000000 0 0 1
0.381801 27.735912 14.663977 31.376086 1.557032 1.084492 0.076610 -0.020709 218617.000000 0 0 1
-0.146499 28.689012 13.729677 31.805422 -1.565690 1.124445 0.090791 -0.023647 -663452.000000 0 0 1
-0.947899 29.769112 14.441377 33.100633 -1.538965 1.119328 0.087926 -0.020689 236224.000000 0 0 1
-2.222799 29.485012 14.990177 33.151352 -1.495551 1.101595 0.067233 -0.014027 420237.000000 0 0 1
-2.849799 30.695412 15.436777 34.476423 -1.478220 1.106550 0.071257 -0.010754 840274.000000 0 0 1
-4.220999 30.501912 16.188077 34.788465 -1.433285 1.086790 0.049312 0.001680 702136.000000 0 0 1
-5.269799 30.025512 15.386677 34.147503 -1.397055 1.103365 0.055840 -0.005181 473957.000000 0 0 1
-6.406599 29.549212 16.109477 34.259534 -1.357290 1.081258 0.051132 -0.005710 327542.000000 0 0 1
-7.656999 29.193412 15.273077 33.825313 -1.314289 1.102319 0.039474 -0.013643 8924.000000 0 0 1
-8.655699 28.594712 16.075477 33.926386 -1.276862 1.077157 0.043585 -0.013438 -390308.000000 0 0 1
-9.634099 28.013812 15.222277 33.306264 -1.239561 1.096132 0.051200 -0.015050 -59295.800000 0 0 1
-10.811499 27.503012 16.089577 33.647863 -1.196250 1.072220 0.043327 -0.007372 -291590.000000 0 0 1
-11.517499 28.593712 16.680877 35.050033 -1.187880 1.074791 0.041823 -0.016171 298300.000000 0 0 1
-11.126499 29.010012 18.004577 35.910229 -1.204560 1.045606 0.052497 -0.023444 -255787.000000 0 0 1
-11.877799 30.334912 18.359777 37.394791 -1.197591 1.057592 0.055592 -0.021544 778422.000000 0 0 1
-13.223099 30.043512 18.799877 37.827217 -1.156179 1.050666 0.067235 -0.019199 954991.000000 0 0 1
-13.969799 31.229912 19.023777 39.145457 -1.150172 1.063316 0.078565 -0.026611 -287005.000000 0 0 1
-15.143999 30.900712 19.934777 39.769210 -1.115112 1.045740 0.089745 -0.030423 -477707.000000 0 0 1
-14.856699 30.989912 21.318777 40.442384 -1.123761 1.015565 0.099206 -0.031028 982612.000000 0 0 1
-15.995999 30.611012 22.146677 41.029030 -1.089266 1.000620 0.090979 -0.030181 944747.000000 0 0 1
-15.599399 30.519312 23.638777 41.636059 -1.098283 0.967029 0.102207 -0.025503 -111130.000000 0 0 1
-14.649499 29.483912 23.925777 40.698301 -1.109661 0.942359 0.091985 -0.028329 755478.000000 0 0 1
-14.196599 29.352312 25.305177 41.272916 -1.120304 0.910795 0.109756 -0.031365 -11086.200000 0 0 1
-13.624899 30.577112 26.043177 42.412790 -1.151615 0.909626 0.116755 -0.029932 -612782.000000 0 0 1
-14.541799 31.631112 26.248477 43.600157 -1.139880 0.924759 0.114098 -0.027084 344242.000000 0 0 1
-13.934899 32.752012 26.912677 44.622504 -1.168530 0.923391 0.119096 -0.027783 67340.900000 0 0 1
-15.006499 33.663012 27.581277 46.033903 -1.151452 0.928356 0.121945 -0.026367 33545.100000 0 0 1
-15.747099 33.005012 28.582777 46.414191 -1.125626 0.907370 0.090124 -0.025958 237387.000000 0 0 1
-15.069299 32.770512 29.816977 46.797888 -1.139787 0.880010 0.106724 -0.019173 -699486.000000 0 0 1
-15.928099 31.932812 30.696177 47.070841 -1.108109 0.860409 0.095085 -0.016387 -244502.000000 0 0 1
-17.149599 32.602812 30.968277 48.125734 -1.086553 0.871751 0.085536 -0.014041 -170815.000000 0 0 1
-17.827399 32.081312 32.068377 48.738153 -1.063592 0.852673 0.064711 -0.013138 -158077.000000 0 0 1
-19.268099 32.581812 32.214377 49.705133 -1.036742 0.865697 0.064460 -0.008358 -302889.000000 0 0 1
-19.282899 33.859912 32.723477 50.883689 -1.053112 0.872252 0.079055 -0.009816 -626658.000000 0 0 1
-20.556399 -33.507240 32.777077 51.182394 1.020516 0.875781 0.062083 -0.008173 -709514.000000 0 0 1
-20.525299 -31.967840 33.146477 50.417454 1.000022 0.853379 0.075590 -0.010644 -339973.000000 0 0 1
-20.278499 -31.676640 -33.311469 50.242224 1.001361 2.295639 0.066227 -0.015364 -606058.000000 0 0 1
-21.233799 -32.015540 -32.379769 50.242596 0.985174 2.271124 0.051804 -0.008921 -548918.000000 0 0 1
-21.030299 -31.231040 -30.997269 48.769684 0.978162 2.259562 0.064227 -0.012573 194664.000000 0 0 1
-21.120199 -29.841440 -31.147469 48.028525 0.954890 2.276435 0.086079 -0.018677 -137896.000000 0 0 1
-20.603199 -29.294240 -30.015769 46.728907 0.957846 2.268342 0.094320 -0.016666 -117920.000000 0 0 1
-20.801699 -27.769540 -29.904469 45.805407 0.927882 2.282149 0.088939 -0.022356 801487.000000 0 0 1
-22.164999 -27.490440 -29.544969 46.042553 0.892238 2.267494 0.088657 -0.016803 698358.000000 0 0 1
-22.388199 -26.108040 -29.671069 45.422831 0.861952 2.282625 0.078693 -0.016143 732939.000000 0 0 1
-23.595999 -25.594440 -28.781669 45.168917 0.826002 2.261657 0.082972 -0.012204 537475.000000 0 0 1
-23.489099 -25.798840 -27.377369 44.349051 0.832226 2.236123 0.084526 -0.012940 360658.000000 0 0 1
-22.568699 -24.972040 -26.656469 42.936189 0.835908 2.240609 0.087108 -0.022277 77839.400000 0 0 1
-22.518399 -25.331840 -25.153569 42.207612 0.844127 2.209243 0.082351 -0.014221 -403737.000000 0 0 1
-23.592599 -24.863940 -24.404569 42.076232 0.811629 2.189535 0.077864 -0.017972 -217452.000000 0 0 1
-23.615299 -25.598540 -23.200969 41.847970 0.825675 2.158451 0.073571 -0.015242 -331086.000000 0 0 1
-24.880899 -25.345240 -22.310969 41.943053 0.794643 2.131680 0.070544 -0.015123 296521.000000 0 0 1
-26.075499 -25.916440 -22.774669 43.246723 0.782339 2.125418 0.093809 -0.013358 -226315.000000 0 0 1
-26.117799 -27.386040 -22.913069 44.239613 0.809097 2.115227 0.078284 -0.010502 -364366.000000 0 0 1
-27.601899 -27.880140 -22.896669 45.424933 0.790413 2.099084 0.060659 -0.011220 990380.000000 0 0 1
-28.358299 -27.693840 -21.706269 45.191858 0.773544 2.071809 0.065233 -0.008015 387401.000000 0 0 1
-29.482799 -26.838440 -21.916469 45.495812 0.738481 2.073418 0.052914 -0.003046 340613.000000 0 0 1
-30.248599 -26.466140 -20.660569 45.191741 0.718804 2.045613 0.061485 -0.004544 -416774.000000 0 0 1
-30.909099 -27.479740 -20.007369 45.943480 0.726732 2.021365 0.070366 -0.001917 -275768.000000 0 0 1
-31.412899 -27.097040 -18.773669 45.535376 0.711769 1.995760 0.074628 0.008397 -301190.000000 0 0 1
-32.522099 -28.010640 -18.183969 46.614801 0.711006 1.971526 0.056849 0.010777 867823.000000 0 0 1
-33.813999 -28.054040 -18.820269 47.797680 0.692565 1.975502 0.054934 0.010004 1982500.000000 0 0 1
-34.719999 -26.898740 -18.670769 47.724398 0.659143 1.972754 0.046640 0.015999 722432.000000 0 0 1
-35.266599 -26.451040 -17.259769 47.342266 0.643521 1.943972 0.047877 0.017687 -879883.000000 0 0 1
-34.289099 -25.925240 -16.450669 46.027002 0.647380 1.936293 0.043775 0.020464 -157237.000000 0 0 1
-34.869699 -25.271540 -15.317769 45.707557 0.627139 1.912535 0.041555 0.016865 161140.000000 0 0 1
-34.718499 -26.130040 -14.031569 45.662218 0.645180 1.883141 0.061092 0.018527 -80517.200000 0 0 1
-35.405299 -27.361340 -14.026169 46.892554 0.657936 1.874559 0.062226 0.015218 261971.000000 0 0 1
-35.164599 -28.027040 -12.791869 46.751427 0.672924 1.847945 0.046824 0.002932 -34273.900000 0 0 1
-35.849899 -29.365140 -12.537969 48.007577 0.686287 1.835027 0.054221 0.003612 84099.600000 0 0 1
-35.160999 -30.278640 -13.363369 48.287385 0.710928 1.851203 0.050283 0.003598 567367.000000 0 0 1
-35.691899 -31.553040 -13.078569 49.401974 0.723927 1.838728 0.036403 -0.002291 -339644.000000 0 0 1
-35.361099 -32.717440 -13.920769 50.146047 0.746585 1.852096 0.044242 0.005234 99894.800000 0 0 1
-33.991999 -33.075940 -13.731369 49.376354 0.771740 1.852608 0.038727 0.003749 709271.000000 0 0 1
-33.601499 33.906012 -14.749869 49.962356 -0.789909 1.870482 0.069278 -0.018844 -25629.600000 0 0 1
-32.119399 -33.900240 -15.156369 49.097837 0.812366 1.884619 0.070198 -0.014547 9778.770000 0 0 1
-31.751399 33.115312 -16.168869 48.643679 -0.806421 1.909637 0.094487 -0.021228 724721.000000 0 0 1
-30.330999 33.317312 -16.349969 47.930515 -0.832283 1.918902 0.095280 -0.020578 690246.000000 0 0 1
9.623783 20.037112 -9.165723 24.043991 1.123034 1.961897 0.053232 -0.005107 96138.400000 0 1 0
8.336783 19.454612 -9.404023 23.160732 1.165944 1.988905 0.043463 -0.019621 329387.000000 0 1 0
7.820083 19.544712 -10.707323 23.617710 1.190193 2.041328 0.048332 -0.022293 279290.000000 0 1 0
7.816683 18.300612 -11.589123 23.028693 1.167126 2.098149 0.044760 -0.013242 683757.000000 0 1 0
9.084183 18.092612 -12.229623 23.652244 1.105475 2.114209 0.079338 -0.019676 567717.000000 0 1 0
8.952883 16.918712 -12.976123 23.125239 1.084086 2.166539 0.075771 -0.029469 -329806.000000 0 1 0
10.209083 16.538012 -13.739523 23.801380 1.017746 2.186162 0.102987 -0.023883 -233775.000000 0 1 0
10.119483 15.191712 -14.212223 23.133943 0.983173 2.232352 0.113004 -0.040193 10580.100000 0 1 0
11.145483 14.981412 -15.156623 24.049692 0.931176 2.252634 0.134158 -0.038713 -310175.000000 0 1 0
11.059283 13.539512 -15.781023 23.551365 0.885886 2.305097 0.130661 -0.042081 -388047.000000 0 1 0
11.238283 12.457212 -14.901323 22.439486 0.836794 2.297042 0.124159 -0.037714 -417190.000000 0 1 0
12.355283 12.271812 -14.096423 22.404453 0.782009 2.251293 0.146735 -0.042035 -28488.200000 0 1 0
13.646483 11.730512 -14.820223 23.312452 0.710041 2.259739 0.176850 -0.047437 445199.000000 0 1 0
14.194583 12.597512 -15.772823 24.677225 0.725859 2.264209 0.152475 -0.039489 738574.000000 0 1 0
15.332383 11.938312 -16.386623 25.419022 0.661576 2.271375 0.166753 -0.051227 726240.000000 0 0 1
15.907983 12.702512 -17.578123 26.896248 0.673825 2.283066 0.123005 -0.040345 -251525.000000 0 0 1
16.747483 13.751712 -17.214123 27.675147 0.687488 2.242099 0.090948 -0.032933 -21596.300000 0 0 1
17.559083 14.213112 -18.314023 29.081564 0.680474 2.252024 0.062150 -0.017528 406708.000000 0 0 1
18.742583 15.111712 -17.865923 29.980651 0.678557 2.209201 0.049099 -0.011560 -220242.000000 0 0 1
18.503583 16.415712 -17.401923 30.243761 0.725678 2.183876 0.056557 -0.015019 -54168.300000 0 0 1
18.034783 17.358112 -18.358323 31.041673 0.766282 2.203601 0.051400 -0.005218 -28484.500000 0 0 1
17.868083 18.744512 -17.711623 31.373981 0.809331 2.170663 0.049826 -0.001215 730890.000000 0 0 1
19.077583 19.494312 -17.519023 32.417565 0.796202 2.141730 0.050076 -0.005400 684671.000000 0 0 1
18.671683 20.810212 -17.227123 32.840073 0.839510 2.123014 0.045916 0.000443 560287.000000 0 0 1
19.826583 21.813912 -17.555623 34.309474 0.833088 2.107940 0.054188 -0.003719 629978.000000 0 0 1
20.892683 21.946812 -16.643123 34.571090 0.810000 2.073067 0.053781 -0.007832 -298010.000000 0 0 1
20.562983 22.636412 -15.465523 34.269896 0.833358 2.039002 0.050594 -0.001922 -203982.000000 0 0 1
21.826483 23.116912 -14.733423 35.040844 0.814103 2.004753 0.050611 -0.006645 -489253.000000 0 0 1
22.264683 22.142412 -13.780823 34.291596 0.782645 1.984356 0.060678 -0.009379 -689856.000000 0 0 1
23.517283 22.365712 -13.212523 35.040811 0.760305 1.957417 0.057019 -0.009174 134445.000000 0 0 1
24.648183 21.713012 -14.142823 35.763211 0.722172 1.977362 0.054102 -0.004571 -58965.000000 0 0 1
24.906483 22.398912 -15.383823 36.860631 0.732440 2.001325 0.058518 -0.009671 -193165.000000 0 0 1
25.643683 23.586512 -15.242823 38.029800 0.743636 1.983200 0.047490 -0.008539 -415692.000000 0 0 1
26.289283 24.037012 -16.613423 39.305345 0.740675 2.007192 0.048028 -0.008209 -522777.000000 0 0 1
27.143483 23.094912 -17.140523 39.546696 0.704985 2.019086 0.051193 -0.013296 -320446.000000 0 0 1
27.358583 23.485912 -18.426023 40.491955 0.709378 2.043229 0.042743 -0.007311 -720594.000000 0 0 1
27.978583 22.404112 -19.396623 40.755053 0.675204 2.066819 0.041123 -0.011244 875160.000000 0 0 1
29.406683 22.288712 -19.410023 41.692789 0.648568 2.055051 0.049246 -0.007313 666585.000000 0 0 1
29.798383 21.436312 -20.500523 42.044388 0.623614 2.080126 0.054938 -0.007310 -345455.000000 0 0 1
31.169983 21.794712 -21.044923 43.467989 0.610203 2.076185 0.098227 -0.018264 -527103.000000 0 0 1
31.209183 23.033812 -21.724323 44.458023 0.635807 2.081336 0.073044 -0.006013 307475.000000 0 0 1
32.484183 23.612912 -21.484423 45.545276 0.628556 2.062032 0.117294 0.002339 297333.000000 0 0 1
32.753183 25.076912 -21.991223 46.746512 0.653431 2.060581 0.110595 0.003271 -109185.000000 0 0 1
33.073883 25.309912 -23.367523 47.754733 0.653192 2.082110 0.099412 0.001947 -61234.000000 0 0 1
32.044283 24.965012 -24.261123 47.314796 0.661853 2.109193 0.086852 -0.000260 -249014.000000 0 0 1
32.341283 25.119512 -25.756963 48.377367 0.660372 2.132250 0.095732 -0.011389 -478971.000000 0 0 1
32.500383 26.435312 -26.173903 49.398115 0.682849 2.129227 0.103927 -0.008833 -509580.000000 0 0 1
31.375183 27.227912 -26.453313 49.249762 0.714747 2.137822 0.084384 -0.001284 142707.000000 0 0 1
30.700983 26.858012 -27.844103 49.388230 0.718731 2.169752 0.086258 0.004298 432100.000000 0 0 1
30.041683 25.561312 -27.865603 48.294670 0.704994 2.185836 0.078793 -0.005300 210741.000000 0 0 1
29.752283 25.195012 -29.227473 48.726093 0.702649 2.214088 0.080974 -0.009989 47116.100000 0 0 1
28.941283 23.849712 -29.412973 47.660566 0.689248 2.235892 0.097363 -0.017441 286849.000000 0 0 1
27.590783 23.974612 -29.037623 46.682083 0.715385 2.242128 0.091436 -0.016840 -59701.500000 0 0 1
26.841883 22.786312 -29.251753 45.775187 0.703860 2.264034 0.100226 -0.029590 551441.000000 0 0 1
25.466883 22.913812 -28.512503 44.570929 0.732677 2.264918 0.079458 -0.021672 305158.000000 0 0 1
25.563383 22.761512 -27.073833 43.641327 0.727483 2.240013 0.057003 -0.009716 242077.000000 0 0 1
24.302883 22.846012 -26.444463 42.566184 0.754509 2.241140 0.045413 -0.006617 -48235.000000 0 0 1
24.380983 22.805112 -24.903323 41.649501 0.752014 2.211708 0.049214 -0.000776 -196545.000000 0 0 1
24.896283 21.683912 -24.278223 40.981081 0.716543 2.204862 0.047587 -0.001522 118926.000000 0 0 1
25.232583 21.998712 -22.923623 40.572393 0.717036 2.171236 0.043165 -0.004277 -35793.500000 0 0 1
25.751283 20.676912 -22.288723 39.842821 0.676535 2.164478 0.053968 -0.000246 -139606.000000 0 0 1
27.015983 20.239712 -22.699023 40.678679 0.642973 2.162780 0.030672 0.000407 -337437.000000 0 0 1
27.183983 18.848212 -22.659523 40.095860 0.606254 2.171392 0.065617 -0.003855 938060.000000 0 0 1
28.557283 18.399312 -23.308323 41.198677 0.572354 2.172144 0.089539 -0.016280 2065820.000000 0 0 1
29.736483 18.596212 -22.487423 41.662474 0.558863 2.140939 0.119811 -0.031974 1911840.000000 0 0 1
30.901783 17.857912 -22.952923 42.434206 0.524005 2.142310 0.108956 -0.022439 1020290.000000 0 0 1
32.104283 17.714612 -22.023623 42.773034 0.504211 2.111682 0.105425 -0.017654 -60317.700000 0 0 1
32.701183 18.985412 -21.738223 43.616093 0.526012 2.092548 0.105844 -0.024230 -116719.000000 0 0 1
33.917183 18.730112 -21.075623 44.106397 0.504554 2.068986 0.118964 -0.022213 131999.000000 0 0 1
34.384183 19.785012 -20.042023 44.445488 0.522143 2.038609 0.094731 -0.025781 49449.700000 0 0 1
33.552783 19.797612 -18.929223 43.313395 0.533067 2.023090 0.112657 -0.025452 -183589.000000 0 0 1
34.098783 20.709012 -18.005123 43.769563 0.545787 1.994744 0.099316 -0.008036 214843.000000 0 0 1
33.408983 20.722812 -16.625623 42.684967 0.555196 1.970881 0.114108 -0.019990 5448.560000 0 0 1
33.821483 19.633112 -15.832023 42.190102 0.525952 1.955468 0.109002 -0.028576 272123.000000 0 0 1
33.564583 19.823512 -14.403023 41.557189 0.533485 1.924722 0.101410 -0.023135 47794.700000 0 0 1
34.227083 18.579212 -13.653923 41.268753 0.497316 1.908004 0.094831 -0.022169 340949.000000 0 0 1
35.646083 18.538012 -13.647523 42.432959 0.479565 1.898242 0.082766 -0.023431 366788.000000 0 0 1
36.234883 17.341812 -13.059123 42.240335 0.446377 1.885108 0.063796 -0.002545 313064.000000 0 0 1
36.296583 17.314412 -11.480823 41.821527 0.445100 1.848886 0.088742 -0.015111 -534484.000000 0 0 1
37.063083 18.348112 -10.935223 42.777382 0.459680 1.829297 0.072187 -0.012725 -56853.000000 0 0 1
36.638683 18.753012 -9.633823 42.271493 0.473072 1.800720 0.085065 -0.013277 252615.000000 0 0 1
35.566183 19.911512 -9.681423 41.894530 0.510370 1.803995 0.083807 -0.011597 721343.000000 0 0 1
34.283483 19.487612 -10.092023 40.705935 0.516879 1.821334 0.097199 -0.026806 -210709.000000 0 0 1
33.245983 20.440912 -10.078323 40.307553 0.551259 1.823513 0.073277 -0.004686 805106.000000 0 0 1
31.878283 19.714212 -10.329623 38.878994 0.553855 1.839712 0.059737 -0.008877 444259.000000 0 0 1
31.673283 19.366412 -11.679323 38.918650 0.548791 1.875589 0.091296 -0.015762 -236088.000000 0 0 1
30.358683 18.910012 -11.888723 37.690581 0.557078 1.891706 0.071429 -0.017061 -10108.900000 0 0 1
30.339483 18.204912 -13.200323 37.764422 0.540449 1.927881 0.107200 -0.024926 -71470.800000 0 0 1
31.039583 16.970312 -13.055923 37.708147 0.500330 1.924352 0.096381 -0.024406 207944.000000 0 0 1
30.846883 16.072912 -14.170123 37.558768 0.480349 1.957652 0.078605 -0.025519 -198925.000000 0 0 1
32.161783 15.633912 -14.823823 38.711048 0.452468 1.963768 0.094911 -0.027636 -106353.000000 0 0 1
33.038983 14.879312 -14.010123 38.849091 0.423150 1.939739 0.078697 -0.028109 95696.000000 0 0 1
34.070783 14.308612 -14.783123 39.800695 0.397600 1.951344 0.092410 -0.025603 -41301.900000 0 0 1
34.875483 13.246812 -13.971423 39.836892 0.363000 1.929132 0.081168 -0.031462 -157666.000000 0 0 1
35.701483 13.845012 -12.979223 40.431924 0.369945 1.897597 0.082542 -0.014364 185315.000000 0 0 1
36.201083 12.859012 -12.092623 40.275354 0.341309 1.875750 0.065926 -0.010922 63238.600000 0 0 1
-37.211134 13.314512 -11.138323 41.061015 -0.343615 1.845501 0.090590 -0.004905 -616134.000000 0 0 1
-35.944734 13.391812 -11.668423 40.093848 -0.356636 1.866097 0.071499 -0.004281 -279375.000000 0 0 1
-34.980834 14.010112 -10.778423 39.193321 -0.380944 1.849393 0.057041 -0.011903 1113630.000000 0 0 1
-33.555334 14.330312 -11.365523 38.216402 -0.403618 1.872764 0.104593 -0.020829 1305290.000000 0 0 1
-32.716634 13.233412 -11.806723 37.214245 -0.384367 1.893639 0.101261 -0.027951 740454.000000 0 0 1
-32.266734 12.343712 -10.767623 36.186338 -0.365375 1.872933 0.140441 -0.019098 -855371.000000 0 0 1
-31.318034 11.252612 -11.204823 35.113937 -0.344937 1.895575 0.155009 -0.022552 -607241.000000 0 0 1
-31.851134 10.366112 -12.169223 35.637635 -0.314643 1.919278 0.124749 -0.012100 -85245.800000 0 0 1
-31.088734 9.213512 -12.442223 34.730492 -0.288116 1.937190 0.139080 -0.014399 -343144.000000 0 0 1
-31.149034 8.751712 -13.894123 35.212234 -0.273901 1.976409 0.139897 -0.018259 241955.000000 0 0 1
-32.422034 8.268512 -14.304623 36.389268 -0.249705 1.974797 0.112261 -0.012293 464553.000000 0 0 1
-32.262534 7.268412 -15.258023 36.421260 -0.221590 2.003065 0.129871 -0.029965 -49686.700000 0 0 1
-33.563834 6.777712 -15.927823 37.764585 -0.199255 2.006189 0.127825 -0.035086 -198877.000000 0 0 1
-34.451634 6.052112 -15.096723 38.097955 -0.173895 1.978237 0.154064 -0.039766 -509242.000000 0 0 1
-35.385534 5.427812 -15.881123 39.163851 -0.152204 1.988327 0.121004 -0.046321 -1565410.000000 0 0 1
-36.491134 4.861712 -15.051023 39.771502 -0.132450 1.958904 0.105674 -0.044838 -721105.000000 0 0 1
36.923083 4.314412 -15.720123 40.361497 0.116321 1.970867 0.106115 -0.040091 657194.000000 0 0 1
35.834783 4.127512 -14.780623 38.982494 0.114676 1.959685 0.117585 -0.034655 827683.000000 0 0 1
34.783983 3.157612 -15.354123 38.152917 0.090530 1.984973 0.103770 -0.032657 7376.640000 0 0 1
35.361783 1.823812 -15.354123 38.594444 0.051530 1.979949 0.115970 -0.036965 848339.000000 0 0 1
34.372483 0.815412 -15.081223 37.544317 0.023718 1.984159 0.094141 -0.022882 410531.000000 0 0 1
33.903183 0.802612 -13.638423 36.552381 0.023669 1.953166 0.120960 -0.029338 -140061.000000 0 0 1
34.994883 0.497312 -12.772823 37.256331 0.014210 1.920731 0.136060 -0.034207 456379.000000 0 0 1
34.638683 0.281512 -11.408023 36.469996 0.008127 1.888942 0.139504 -0.024621 -143323.000000 0 0 1
34.545783 1.543212 -10.488323 36.135821 0.044642 1.865282 0.145159 -0.032217 -293372.000000 0 0 1
33.505883 2.345312 -10.958223 35.330261 0.069883 1.886163 0.130613 -0.024626 -16922.900000 0 0 1
33.754283 3.695912 -10.610823 35.575286 0.109060 1.873670 0.138077 -0.032704 430611.000000 0 0 1
32.625383 4.665612 -11.102923 34.777269 0.142043 1.895743 0.126204 -0.029697 285443.000000 0 0 1
32.929483 5.091612 -12.408723 35.556318 0.153407 1.927287 0.113289 -0.027664 986647.000000 0 0 1
31.944383 6.004112 -12.938923 34.984406 0.185788 1.949642 0.106011 -0.025671 283819.000000 0 0 1
32.320083 6.470612 -14.365623 35.955913 0.197592 1.981805 0.064050 -0.022874 -361687.000000 0 0 1
32.118683 5.518312 -15.353323 36.024798 0.170149 2.011071 0.046414 -0.011767 273998.000000 0 0 1
32.419483 6.113412 -16.597823 36.930806 0.186383 2.036924 0.037042 -0.013252 -1089910.000000 0 0 1
31.437483 7.168812 -17.171123 36.531557 0.224200 2.060127 0.049617 -0.012419 191073.000000 0 0 1
30.315283 6.701912 -17.915523 35.845473 0.217574 2.094163 0.031384 -0.006954 525112.000000 0 0 1
29.348083 5.977512 -17.196723 34.536472 0.200928 2.092006 0.019873 0.001174 -1451910.000000 0 0 1
28.079083 5.751912 -18.015923 33.853993 0.202052 2.131952 0.024392 -0.007544 -539696.000000 0 0 1
28.199383 4.849412 -19.075323 34.388805 0.170303 2.158794 0.031258 0.000105 984129.000000 0 0 1
26.995883 4.975512 -19.862923 33.883169 0.182261 2.197179 0.034238 0.004293 762470.000000 0 0 1
26.503883 3.662512 -20.527023 33.722818 0.137318 2.225215 0.040017 -0.005086 -87585.200000 0 0 1
26.042683 2.726512 -19.556823 32.682174 0.104314 2.212292 0.035384 -0.004742 371537.000000 0 0 1
25.410483 1.618712 -20.202823 32.503337 0.063617 2.241531 0.048419 -0.006362 -408445.000000 0 0 1
24.415283 0.825912 -19.330223 31.151977 0.033815 2.240194 0.054560 -0.009250 -813125.000000 0 0 1
23.271083 1.606812 -19.244023 30.239999 0.068938 2.260588 0.063327 -0.020033 -644412.000000 0 0 1
22.291683 0.934212 -18.508123 28.988662 0.041884 2.263293 0.072401 -0.020620 -42881.500000 0 0 1
20.895683 1.559712 -18.265923 27.797594 0.074505 2.287767 0.079769 -0.029545 -752553.000000 0 0 1
20.121583 1.596912 -19.448023 28.029517 0.079197 2.337605 0.079200 -0.028204 406881.000000 0 0 1
19.001183 2.473412 -19.392823 27.262507 0.129444 2.362195 0.066268 -0.020175 937669.000000 0 0 1
17.802983 2.065012 -18.467023 25.734052 0.115476 2.371161 0.116943 -0.036437 -531852.000000 0 0 1
18.070283 2.369412 -17.115023 25.001465 0.130378 2.324797 0.133299 -0.038348 394628.000000 0 0 1
16.894083 2.168812 -16.356623 23.614675 0.127679 2.335948 0.108887 -0.024099 520531.000000 0 1 0
15.905583 3.374312 -16.219223 22.965991 0.209047 2.354952 0.122172 -0.025486 105583.000000 0 1 0
15.363783 3.878612 -17.410323 23.541640 0.247285 2.403204 0.108982 -0.016950 548284.000000 0 1 0
14.112483 4.491312 -17.124523 22.640303 0.308116 2.428547 0.115374 -0.033808 235214.000000 0 1 0
-21.013317 -21.714688 -17.499323 34.918669 0.801811 2.095718 0.079074 -0.028587 -36070.000000 0 0 1
-20.389417 -22.418588 -18.567723 35.539861 0.832764 2.120516 0.085922 -0.032286 504790.000000 0 0 1
-21.214517 -22.419188 -19.715323 36.624714 0.813000 2.139223 0.081505 -0.024070 -58621.900000 0 0 1
-20.720917 -23.429788 -20.756423 37.538520 0.846676 2.156681 0.061287 -0.021224 -143263.000000 0 0 1
-20.744217 -24.775788 -20.337323 38.180740 0.873735 2.132536 0.068377 -0.025821 564492.000000 0 0 1
-19.980317 -25.547078 -21.278923 38.789932 0.907067 2.151447 0.064717 -0.031985 -125947.000000 0 0 1
-20.242217 -27.073148 -21.143623 39.871738 0.928778 2.129740 0.073174 -0.007423 -70240.600000 0 0 1
-21.500117 -27.521938 -21.613423 41.071306 0.907625 2.124971 0.068386 0.009538 107218.000000 0 0 1
-21.547917 -28.915888 -21.383923 41.925094 0.930379 2.106040 0.096136 -0.021973 151692.000000 0 0 1
-22.963017 -29.520008 -21.621323 43.199683 0.909690 2.094969 0.089318 -0.021847 293078.000000 0 0 1
-23.612017 -29.393908 -22.871123 44.097817 0.894049 2.116062 0.073161 -0.023273 -180709.000000 0 0 1
-23.090217 -30.052378 -23.990723 44.853744 0.915665 2.135145 0.070384 -0.026979 -636284.000000 0 0 1
-23.494117 -29.397908 -25.295603 45.343997 0.896558 2.162601 0.058654 -0.017679 -376243.000000 0 0 1
-24.860517 -29.653728 -25.527193 46.357593 0.873098 2.153949 0.053259 -0.013641 158484.000000 0 0 1
-25.428227 -28.726968 -26.459253 46.603921 0.846236 2.174563 0.058075 -0.003718 -156708.000000 0 0 1
-24.929417 -28.769738 -27.910423 47.203447 0.856792 2.203441 0.056387 -0.016773 -782960.000000 0 0 1
-25.356197 -29.871008 -28.639143 48.532611 0.866967 2.201980 0.037500 -0.004050 234045.000000 0 0 1
-24.981717 -29.903978 -30.059373 49.212803 0.874841 2.227872 0.071896 -0.004531 185212.000000 0 0 1
-25.610997 -31.161788 -30.698373 50.688956 0.882860 2.221344 0.060025 -0.005784 205298.000000 0 0 1
-25.031417 -32.419118 -30.292123 50.942946 0.913289 2.207600 0.048525 -0.008110 -4458.030000 0 0 1
-25.851997 -33.496898 -30.652363 52.248783 0.913506 2.197727 0.051896 -0.009450 -183038.000000 0 0 1
-25.151187 33.026254 -30.624303 51.586467 -0.919943 2.206383 0.040482 -0.009198 995323.000000 0 0 1
-23.975317 32.864374 -31.452073 51.420966 -0.940530 2.228952 0.034311 -0.010874 795916.000000 0 0 1
-23.549817 31.536404 -31.480433 50.399963 -0.929378 2.245431 0.046760 -0.008123 -202488.000000 0 0 1
-22.429017 31.163244 -32.475673 50.287949 -0.946953 2.272860 0.043850 -0.005723 -142491.000000 0 0 1
-22.676617 30.961214 -33.826223 51.157004 -0.938642 2.293245 0.044399 -0.008137 -215695.000000 0 0 1
-22.108617 29.748524 33.633302 50.049621 -0.931672 0.833891 0.049478 -0.005080 -124245.000000 0 0 1
-22.116317 29.553374 32.120408 48.931114 -0.928351 0.854705 0.039295 -0.010497 -119116.000000 0 0 1
-21.281317 30.389254 31.358364 48.577239 -0.959875 0.869071 0.047369 -0.013970 171757.000000 0 0 1
-21.514517 30.221414 29.975304 47.694099 -0.952131 0.891185 0.048938 -0.014920 -287011.000000 0 0 1
-21.029917 31.436714 29.198484 47.781542 -0.981207 0.913368 0.047457 -0.024210 -257132.000000 0 0 1
-21.883517 32.568714 29.323754 48.984609 -0.979167 0.929004 0.032853 -0.017209 -31538.900000 0 0 1
-21.350617 33.745737 28.726414 49.191772 -1.006686 0.947188 0.053672 -0.033573 -160384.000000 0 0 1
-22.224317 -32.904108 28.753624 49.024193 0.976754 0.944042 0.070801 -0.040067 -239414.000000 0 0 1
-22.201217 -32.357508 30.076174 49.441669 0.969445 0.916859 0.059227 -0.021445 35846.600000 0 0 1
-23.381017 -31.684168 30.471164 49.790062 0.935058 0.912218 0.087159 -0.022488 1493.070000 0 0 1
-23.595817 -30.188158 30.076364 48.710113 0.907361 0.905292 0.094527 -0.024744 -418597.000000 0 0 1
-24.262117 -30.045278 28.868544 48.215784 0.891488 0.928874 0.046333 -0.021014 -342006.000000 0 0 1
-24.244117 -28.707008 28.458384 47.135434 0.869483 0.922590 0.060258 -0.029680 -145582.000000 0 0 1
-25.417457 -28.341708 27.475664 46.949032 0.839740 0.945641 0.077659 -0.024799 -576458.000000 0 0 1
-26.661817 -28.214858 28.072044 47.905849 0.813691 0.944703 0.112812 -0.025263 -465560.000000 0 0 1
-27.394537 -29.396858 28.310094 49.153813 0.820641 0.957032 0.086007 -0.022369 -672153.000000 0 0 1
-28.216177 -30.056628 27.143174 49.358945 0.816971 0.988535 0.065952 0.002721 -868387.000000 0 0 1
-27.549167 -30.468698 25.992634 48.609826 0.835677 1.006620 0.050892 -0.004553 -395664.000000 0 0 1
-28.308807 -30.368318 24.798454 48.358935 0.820483 1.032353 0.034306 -0.000009 -325744.000000 0 0 1
-27.408797 -30.340738 23.550884 47.185238 0.836125 1.048219 0.031297 -0.002487 -378818.000000 0 0 1
-26.716427 -29.115258 23.289164 45.867754 0.828337 1.038230 0.025399 -0.012281 538162.000000 0 0 1
-26.048377 -28.972018 22.023424 44.754072 0.838486 1.056297 0.047350 -0.017852 476018.000000 0 0 1
-24.776317 -29.862078 21.891624 44.551687 0.878211 1.057128 0.047700 -0.024496 -611210.000000 0 0 1
-25.080787 -31.222228 21.525224 45.466566 0.894047 1.077616 0.045348 -0.028987 179151.000000 0 0 1
-23.935717 -32.020318 21.322024 45.308366 0.928887 1.080828 0.048865 -0.019325 -76320.800000 0 0 1
-23.174317 -32.592568 22.513024 45.892926 0.952706 1.058069 0.070177 -0.025870 -87387.400000 0 0 1
-22.538217 -31.584998 23.309804 45.265111 0.951019 1.029833 0.089357 -0.035984 59220.300000 0 0 1
-22.000317 -32.164108 24.481574 46.020552 0.970888 1.009870 0.095698 -0.046812 -56752.700000 0 0 1
-20.885217 -31.327628 25.171514 45.290371 0.982791 0.981495 0.096369 -0.032584 293488.000000 0 0 1
-19.591317 -31.401958 24.575944 44.428366 1.012997 0.984645 0.117119 -0.035060 901921.000000 0 0 1
-18.566217 -30.695158 25.276484 43.883912 1.026812 0.956988 0.132462 -0.033892 111244.000000 0 0 1
-17.874617 -31.379638 26.437134 44.756068 1.053011 0.938878 0.102928 -0.038925 -851983.000000 0 0 1
-18.624517 -31.553158 27.656844 45.906159 1.037571 0.924211 0.102413 -0.031627 432306.000000 0 0 1
-17.927017 -32.105578 28.785274 46.698373 1.061544 0.906623 0.103125 -0.024245 -235539.000000 0 0 1
-18.376517 -31.491818 30.140264 47.306093 1.042573 0.880024 0.104266 -0.020771 272213.000000 0 0 1
-17.817417 -30.134858 30.170384 46.214955 1.036831 0.859486 0.108284 -0.018743 625401.000000 0 0 1
-18.021617 -29.458088 31.384814 46.664378 1.021766 0.833127 0.100279 -0.012699 -142502.000000 0 0 1
-17.694717 -27.983038 31.290064 45.554599 1.006938 0.813623 0.111107 -0.015617 774791.000000 0 0 1
-18.706317 -27.227318 30.531044 44.982194 0.968820 0.824756 0.113078 -0.022228 1192660.000000 0 0 1
-18.778017 -27.406548 29.084034 44.154431 0.970096 0.851721 0.110835 -0.016027 -411810.000000 0 0 1
-17.512017 -27.057448 28.288314 42.883621 0.996381 0.850439 0.099751 -0.013586 -323892.000000 0 0 1
-17.186817 -25.696458 28.194474 41.840447 0.981291 0.831380 0.080727 -0.009953 580456.000000 0 0 1
-16.174217 -25.545808 27.176724 40.654248 1.006361 0.838627 0.070819 -0.003212 238335.000000 0 0 1
-16.227917 -24.147288 26.571604 39.401611 0.979084 0.830673 0.053564 0.001166 7171.080000 0 0 1
-17.340517 -23.896888 25.709124 39.149889 0.943069 0.854382 0.068177 -0.012679 346114.000000 0 0 1
-17.292717 -22.702088 24.943754 37.902687 0.919834 0.852504 0.067260 -0.020937 -286496.000000 0 0 1
-17.624017 -21.293788 25.506044 37.611031 0.879416 0.825549 0.070224 -0.011378 -459569.000000 0 0 1
-17.103017 -20.375688 24.596194 36.230575 0.872498 0.824561 0.068653 -0.007624 79843.300000 0 0 1
-17.630217 -19.069388 24.849844 35.944135 0.824593 0.807446 0.082315 0.001009 -89974.900000 0 0 1
-17.084317 -18.034388 23.895234 34.468757 0.812445 0.804817 0.067158 -0.014444 313742.000000 0 0 1
-15.687717 -17.842088 24.080564 33.827771 0.849562 0.778656 0.073164 -0.019255 12043.900000 0 0 1
-15.317317 -16.622488 23.418614 32.547792 0.826239 0.767693 0.079903 -0.018414 374717.000000 0 0 1
-13.837117 -16.191288 23.666154 31.838820 0.863636 0.732790 0.083227 -0.029998 -161961.000000 0 0 1
-12.978117 -17.156788 23.131784 31.589022 0.923185 0.749143 0.069638 -0.025054 -1168660.000000 0 0 1
-11.643817 -16.824988 23.265344 30.982816 0.965423 0.721356 0.066845 -0.030318 -825674.000000 0 0 1
-11.007717 -15.982388 22.104124 29.414263 0.967667 0.720499 0.080993 -0.028095 -418179.000000 0 0 1
-10.700617 -16.677088 20.922824 28.816541 1.000324 0.758207 0.099366 -0.028103 881895.000000 0 0 1
-9.317817 -17.090888 20.992424 28.628692 1.071652 0.747685 0.089536 -0.025100 620550.000000 0 0 1
-9.009217 -18.281288 20.062024 28.598187 1.112917 0.793277 0.095079 -0.021009 31268.100000 0 0 1
-8.997317 -18.021788 18.676524 27.469057 1.107752 0.823155 0.094929 -0.021636 -193025.000000 0 0 1
-8.612817 -19.207588 18.016924 27.707790 1.149268 0.862886 0.094357 -0.023426 231070.000000 0 0 1
-8.357917 -18.851188 16.508424 26.414960 1.153476 0.895710 0.089616 -0.027049 1040710.000000 0 0 1
-7.196317 -18.009488 16.276324 25.318913 1.190648 0.872580 0.100936 -0.032523 616674.000000 0 0 1
-7.204217 -17.589288 14.917524 24.162291 1.182059 0.905378 0.114439 -0.037913 834318.000000 0 1 0
-5.964917 -16.645188 14.676724 22.979311 1.226696 0.877998 0.085147 -0.031317 633539.000000 0 1 0
-6.147617 -15.429188 15.451724 22.684991 1.191635 0.821474 0.083407 -0.034468 520744.000000 0 1 0
-4.954317 -14.660288 15.637624 22.000104 1.244904 0.780165 0.052250 -0.019537 -234652.000000 0 1 0
-5.246817 -13.496088 16.645324 22.062191 1.200012 0.715946 0.029563 -0.010891 -128826.000000 0 1 0
-4.949417 -13.838488 17.984224 23.225692 1.227317 0.685149 0.040355 -0.010781 338041.000000 0 1 0
-5.749317 -14.853388 18.643524 24.520578 1.201485 0.706988 0.077143 -0.023251 475979.000000 0 1 0
-7.033517 -14.303488 19.343724 25.064712 1.113783 0.689206 0.110396 -0.029301 312176.000000 0 0 1
-6.813117 -13.532888 20.478624 25.474137 1.104393 0.636975 0.099262 -0.025589 -775093.000000 0 0 1
-7.975317 -12.882588 20.847824 25.772049 1.016467 0.628464 0.101635 -0.025793 -511849.000000 0 0 1
-7.764117 -11.861788 22.015424 26.185156 0.991230 0.572111 0.086264 -0.021379 -333511.000000 0 0 1
-7.084517 -10.680388 21.578324 25.097512 0.985114 0.535959 0.056439 -0.016492 164702.000000 0 0 1
-6.803317 -9.863488 22.670324 25.642096 0.966984 0.486220 0.052629 -0.015003 65188.100000 0 0 1
-5.535917 -10.209788 23.488194 26.202698 1.073948 0.459208 0.046830 -0.003811 -133320.000000 0 0 1
-5.613617 -11.382588 24.226084 27.349207 1.112623 0.482569 0.066896 -0.004831 -1003890.000000 0 0 1
-4.310017 -11.727988 24.512994 27.513793 1.218619 0.471397 0.054726 0.001146 -932447.000000 0 0 1
-4.178517 -12.942488 25.399374 28.811390 1.258508 0.491610 0.068216 -0.011975 251907.000000 0 0 1
-2.836917 -13.315988 25.738284 29.117398 1.360889 0.486556 0.065684 -0.016400 565029.000000 0 0 1
-2.711617 -14.408588 26.640254 30.408278 1.384778 0.503114 0.075866 -0.020049 -79638.800000 0 0 1
-2.869217 -15.802488 25.992974 30.554635 1.391186 0.553472 0.076715 -0.038053 1463480.000000 0 0 1
-1.601817 -16.309788 25.442864 30.264076 1.472898 0.572231 0.090836 -0.042656 1561050.000000 0 0 1
-1.803917 -17.555188 24.818304 30.453029 1.468399 0.618119 0.095955 -0.042460 -287033.000000 0 0 1
-0.444417 -18.270488 24.697074 30.723829 1.546477 0.637072 0.109209 -0.046794 524595.000000 0 0 1
0.219183 -18.630088 25.916454 31.918502 -1.559032 0.623299 0.124906 -0.047261 212771.000000 0 0 1
0.882383 -17.654988 26.693094 32.015597 -1.520859 0.584926 0.138175 -0.049344 -415053.000000 0 0 1
1.314783 -18.299988 27.980344 33.459197 -1.499073 0.580383 0.140264 -0.047828 -748479.000000 0 0 1
2.371583 -19.217588 27.933424 33.988472 -1.448010 0.606146 0.129276 -0.053357 490608.000000 0 0 1
3.240783 -19.337888 29.104634 35.093251 -1.404752 0.592851 0.130211 -0.054285 1221040.000000 0 0 1
4.255583 -18.149688 29.193434 34.637808 -1.340485 0.568295 0.145694 -0.046995 -357842.000000 0 0 1
3.602183 -16.963288 29.647454 34.346767 -1.361553 0.529261 0.138117 -0.054507 190145.000000 0 0 1
4.504483 -15.906088 29.833794 34.107906 -1.294830 0.506004 0.155096 -0.068364 21664.200000 0 0 1
3.745583 -14.724188 30.500454 34.075046 -1.321697 0.462149 0.161397 -0.058984 406838.000000 0 0 1
3.368283 -15.093188 31.860093 35.414900 -1.351228 0.451889 0.132488 -0.059623 7941.520000 0 0 1
2.631183 -14.048188 32.450850 35.458883 -1.385645 0.414871 0.132421 -0.042370 -70041.200000 0 0 1
1.706883 -14.433888 33.627900 36.634495 -1.453088 0.407965 0.103665 -0.031636 295380.000000 0 0 1
2.432583 -14.919888 -33.059733 36.351980 -1.409175 2.712718 0.107223 -0.038477 153922.000000 0 0 1
1.596683 -15.217688 -31.953503 35.428149 -1.466256 2.695000 0.123626 -0.039631 87093.500000 0 0 1
2.360183 -15.661188 -30.719563 34.562043 -1.421219 2.665568 0.085963 -0.022162 -129663.000000 0 0 1
1.464683 -16.101588 -29.727793 33.840037 -1.480081 2.643468 0.092397 -0.018687 -334533.000000 0 0 1
2.006683 -16.102388 -28.443823 32.746981 -1.446815 2.623154 0.068548 -0.019175 -243392.000000 0 0 1
1.578883 -17.319088 -27.614963 32.634795 -1.479883 2.579575 0.065151 -0.024344 -132790.000000 0 0 1
2.161183 -18.512888 -28.061713 33.687646 -1.454583 2.555299 0.039555 -0.017730 -80065.500000 0 0 1
1.890383 -19.616188 -27.235773 33.617789 -1.474724 2.515221 0.031628 -0.023986 -310913.000000 0 0 1
2.946483 -20.765888 -27.455853 34.550365 -1.429847 2.489246 0.013513 -0.017408 284936.000000 0 0 1
4.294383 -20.531888 -27.128503 34.292212 -1.364612 2.483398 0.036578 -0.015656 -31587.200000 0 0 1
4.598183 -20.380388 -25.719683 33.136168 -1.348894 2.459383 0.053355 -0.021724 -840621.000000 0 0 1
5.717883 -21.337588 -25.241553 33.542851 -1.308975 2.422671 0.039825 -0.019618 -236162.000000 0 0 1
5.419183 -22.721488 -25.335023 34.460078 -1.336666 2.396757 0.062470 -0.021561 154322.000000 0 0 1
5.635483 -23.271188 -26.660223 35.833983 -1.333205 2.409822 0.038411 -0.013555 -192678.000000 0 0 1
5.248883 -24.791288 -26.829003 36.904663 -1.362155 2.384712 0.039684 -0.006976 8713.410000 0 0 1
6.033683 -25.705198 -26.082123 37.113875 -1.340244 2.350065 0.044306 -0.009792 -526047.000000 0 0 1
5.598983 -27.038568 -26.070743 37.975208 -1.366608 2.327489 0.040974 -0.010487 -303884.000000 0 0 1
6.335183 -28.047898 -25.140933 38.195362 -1.348654 2.289248 0.054291 -0.006832 -478477.000000 0 0 1
7.587483 -28.353448 -25.675483 38.996389 -1.309319 2.289496 0.069287 -0.016792 -488870.000000 0 0 1
8.176483 -29.565578 -25.170743 39.680532 -1.300986 2.257944 0.075983 -0.014571 -1030300.000000 0 0 1
9.547383 -29.778088 -25.723833 40.492007 -1.260533 2.259170 0.092733 -0.022929 -1096020.000000 0 0 1
9.474083 -29.902448 -27.168373 41.497411 -1.263969 2.284583 0.086368 -0.016191 177364.000000 0 0 1
10.785583 -29.961718 -27.683493 42.194895 -1.225260 2.286417 0.090601 -0.035209 243334.000000 0 0 1
10.667383 -29.880388 -29.188923 43.111760 -1.227897 2.314546 0.090367 -0.019217 -252374.000000 0 0 1
10.363883 -31.071928 -29.852443 44.317526 -1.248855 2.309870 0.083282 -0.027404 145372.000000 0 0 1
10.066183 -30.810988 -31.186913 44.980758 -1.255021 2.336909 0.090252 -0.039854 -235698.000000 0 0 1
-36.074497 -4.338188 -5.192723 36.703591 0.119682 1.712750 0.168399 -0.041627 -41897.100000 0 0 1
-35.616048 -3.580488 -4.068023 36.025985 0.100194 1.683957 0.180989 -0.044228 67479.000000 0 0 1
-34.864549 -2.440988 -4.382223 35.223558 0.069899 1.695531 0.196524 -0.043758 -311594.000000 0 0 1
-35.550340 -1.127788 -4.887523 35.902457 0.031713 1.707354 0.179217 -0.031978 -398025.000000 0 0 1
-36.443847 -0.587788 -3.932523 36.660117 0.016127 1.678273 0.164720 -0.038331 95578.500000 0 0 1
37.187391 0.323912 -4.518123 37.462253 0.008710 1.691695 0.164513 -0.033587 196022.000000 0 0 1
36.247781 0.912312 -3.438923 36.421973 0.025163 1.665356 0.172090 -0.036048 -288038.000000 0 0 1
36.954171 1.729112 -2.560123 37.083079 0.046757 1.639889 0.201753 -0.041573 -443650.000000 0 0 1
36.136591 2.450312 -1.693523 36.259140 0.067703 1.617519 0.181707 -0.043171 -702019.000000 0 0 1
36.978691 3.479412 -0.872023 37.152258 0.093816 1.594270 0.179768 -0.044788 523775.000000 0 0 1
-36.860627 4.505512 -1.616023 37.170109 -0.121628 1.614286 0.204367 -0.049694 488901.000000 0 0 1
-35.820237 4.036012 -2.456923 36.130530 -0.112201 1.638850 0.183853 -0.028594 -840456.000000 0 0 1
-34.814854 5.152512 -2.876823 35.311450 -0.146931 1.652357 0.168809 -0.036711 -35785.600000 0 0 1
-33.933607 5.433812 -1.824523 34.414312 -0.158783 1.623838 0.165376 -0.042424 159105.000000 0 0 1
-33.237967 6.653312 -2.059923 33.959863 -0.197561 1.631491 0.169898 -0.048892 132631.000000 0 0 1
-32.519927 7.313512 -0.823523 33.342335 -0.221213 1.595498 0.171882 -0.049848 426053.000000 0 0 1
-31.216767 6.803412 -0.489723 31.953290 -0.214585 1.586123 0.190103 -0.048446 1027820.000000 0 0 1
-30.816167 7.171612 0.833277 31.650632 -0.228652 1.544466 0.190134 -0.041253 -58447.800000 0 0 1
-30.714477 8.641612 1.279577 31.932646 -0.274263 1.530714 0.204694 -0.045760 72801.600000 0 0 1
-31.983517 9.283112 1.472977 33.336034 -0.282485 1.526596 0.203910 -0.047159 619682.000000 0 0 1
-31.864487 10.593112 1.929477 33.634542 -0.320949 1.513399 0.206319 -0.040257 881621.000000 0 0 1
-33.267537 11.308012 1.810477 35.183490 -0.327659 1.519315 0.210900 -0.040129 228037.000000 0 0 1
-33.657357 11.571112 0.419277 35.593315 -0.331133 1.559016 0.193422 -0.039030 528011.000000 0 0 1
-34.774436 12.444412 0.330877 36.935542 -0.343661 1.561838 0.186760 -0.031021 1003700.000000 0 0 1
-36.177897 11.819912 0.681377 38.065927 -0.315784 1.552895 0.190437 -0.043097 -126603.000000 0 0 1
-36.793187 11.104112 -0.316623 38.433581 -0.293106 1.579035 0.184955 -0.039058 681356.000000 0 0 1
36.422681 10.693512 0.134977 37.960257 0.285570 1.567241 0.185246 -0.044162 1028170.000000 0 0 1
35.843331 9.548012 -0.693023 37.099719 0.260336 1.589477 0.192500 -0.039522 203296.000000 0 0 1
35.256801 9.849212 -1.968223 36.659553 0.272412 1.624511 0.178955 -0.036844 95643.200000 0 0 1
34.677601 8.704612 -2.487923 35.839866 0.245934 1.640270 0.176272 -0.043699 -110538.000000 0 0 1
34.217391 8.829512 -3.978223 35.561445 0.252533 1.682900 0.140047 -0.027087 758286.000000 0 0 1
32.961441 9.535112 -4.070423 34.553484 0.281594 1.688871 0.148761 -0.031155 933928.000000 0 0 1
32.700811 9.662812 -5.454323 34.532052 0.287315 1.729410 0.117336 -0.021544 212756.000000 0 0 1
31.317711 10.279112 -5.831323 33.473325 0.317142 1.745898 0.130805 -0.027403 419157.000000 0 0 1
30.258071 9.348712 -5.683123 32.175257 0.299662 1.748358 0.124988 -0.016168 121572.000000 0 0 1
29.003201 9.950812 -5.874223 31.220359 0.330509 1.760078 0.135818 -0.009747 -173397.000000 0 0 1
27.836501 8.945012 -5.791023 29.806374 0.310919 1.766328 0.153877 0.007899 -274859.000000 0 0 1
27.805601 8.121112 -6.961323 29.792011 0.284163 1.806641 0.142394 -0.002953 330566.000000 0 0 1
26.692801 7.240112 -6.997423 28.528735 0.264866 1.818601 0.170844 -0.003523 97677.400000 0 0 1
26.682401 6.329612 -8.210923 28.625753 0.232915 1.861720 0.162256 -0.014642 -206045.000000 0 0 1
27.763601 5.439912 -8.171923 29.448098 0.193486 1.851990 0.161699 -0.015438 225629.000000 0 0 1
27.764601 4.523712 -9.249823 29.612434 0.161512 1.888476 0.131760 -0.011157 -290953.000000 0 0 1
28.735201 3.321612 -9.111823 30.327713 0.115083 1.875956 0.132453 -0.010478 706081.000000 0 0 1
30.123981 3.751212 -9.149923 31.705629 0.123888 1.863550 0.127163 -0.011098 1425520.000000 0 0 1
30.898331 3.264112 -8.076623 32.102852 0.105250 1.825115 0.099571 -0.013945 -253543.000000 0 0 1
31.208011 1.714112 -8.025323 32.268931 0.054870 1.822135 0.089664 -0.012642 -678927.000000 0 0 1
30.113151 0.903812 -7.625523 31.076797 0.030005 1.818705 0.126137 -0.019632 552381.000000 0 0 1
30.538361 -0.373388 -7.073823 31.349160 -0.012226 1.798403 0.117753 -0.026154 -27604.100000 0 0 1
30.387731 -1.521088 -8.058723 31.474925 -0.050014 1.829716 0.099266 -0.026009 -744984.000000 0 0 1
31.284891 -1.540588 -9.101123 32.618219 -0.049204 1.853569 0.106015 -0.029690 -221032.000000 0 0 1
31.136771 -2.698488 -9.904623 32.785391 -0.086450 1.877696 0.095179 -0.040658 199334.000000 0 0 1
32.278301 -2.926788 -10.959623 34.213566 -0.090426 1.896874 0.101459 -0.035171 550218.000000 0 0 1
33.589261 -3.139888 -10.447223 35.316311 -0.093208 1.871109 0.114375 -0.031847 677514.000000 0 0 1
34.472541 -3.475588 -11.530023 36.515438 -0.100482 1.892051 0.131844 -0.043450 -142815.000000 0 0 1
35.850361 -3.941988 -11.066523 37.726059 -0.109517 1.868514 0.146071 -0.033478 -481877.000000 0 0 1
35.780321 -5.146188 -10.348423 37.600591 -0.142848 1.849615 0.132543 -0.030287 858363.000000 0 0 1
37.085811 -5.497188 -9.879323 38.770832 -0.147157 1.828451 0.151722 -0.025539 440917.000000 0 0 1
37.049281 -6.769588 -9.006223 38.724522 -0.180725 1.805517 0.145524 -0.031353 -253527.000000 0 0 1
36.614241 -6.519988 -7.713923 37.981804 -0.176225 1.775314 0.139303 -0.031599 264732.000000 0 0 1
36.325931 -7.795388 -7.154623 37.835565 -0.211390 1.761040 0.135232 -0.029866 -206863.000000 0 0 1
36.264031 -7.943988 -5.587323 37.542044 -0.215653 1.720180 0.131434 -0.031054 -517186.000000 0 0 1
-37.030757 -7.756788 -4.935523 38.155001 0.206483 1.700514 0.135840 -0.018571 302732.000000 0 0 1
-37.106277 -8.248088 -3.636523 38.185482 0.218727 1.666174 0.150784 -0.022771 -362346.000000 0 0 1
-36.722267 -9.693088 -3.415123 38.133239 0.258071 1.660474 0.146868 -0.032204 -370517.000000 0 0 1
37.120701 -10.495088 -4.366123 38.822111 -0.275537 1.683500 0.126359 -0.022390 19141.900000 0 0 1
-36.582877 -11.313388 -5.131823 38.634638 0.299925 1.704020 0.118901 -0.024444 -403479.000000 0 0 1
37.258801 -11.834488 -6.418523 39.616547 -0.307551 1.733530 0.106598 -0.026507 -16425.900000 0 0 1
37.039931 -10.876488 -7.385823 39.304005 -0.285614 1.759835 0.121454 -0.029391 132900.000000 0 0 1
36.332191 -11.474788 -8.467923 39.030816 -0.305916 1.789490 0.113556 -0.034271 42426.000000 0 0 1
36.481161 -10.960988 -9.881023 39.352928 -0.291875 1.824600 0.088068 -0.032114 -251753.000000 0 0 1
35.901981 -9.693088 -10.097023 38.533856 -0.263700 1.835921 0.095449 -0.030747 418428.000000 0 0 1
36.121191 -9.412888 -11.462423 39.047791 -0.254922 1.868733 0.095876 -0.030310 -312951.000000 0 0 1
35.149081 -8.351188 -11.991323 38.065628 -0.233268 1.891271 0.097236 -0.028028 -226491.000000 0 0 1
35.582601 -7.756488 -13.200923 38.736920 -0.214628 1.918547 0.101919 -0.023997 1061260.000000 0 0 1
34.546911 -6.901088 -13.739623 37.813903 -0.197165 1.942656 0.084129 -0.027626 546269.000000 0 0 1
34.913811 -6.272588 -15.100023 38.552954 -0.177763 1.973242 0.079381 -0.018656 708572.000000 0 0 1
35.950001 -5.268488 -14.937923 39.284871 -0.145515 1.960859 0.082557 -0.014423 1163920.000000 0 0 1
35.328981 -4.024688 -15.228723 38.681378 -0.113431 1.975446 0.105733 -0.022129 993494.000000 0 0 1
36.390691 -2.842288 -15.276323 39.569268 -0.077947 1.967159 0.109665 -0.023161 542852.000000 0 0 1
37.141961 -2.762188 -16.459323 40.719335 -0.074232 1.986916 0.111576 -0.020313 1211870.000000 0 0 1
-36.052917 -2.204288 -16.290823 39.624015 0.061064 1.994495 0.154099 -0.019634 1208350.000000 0 0 1
-35.876624 -0.679588 -16.142623 39.346896 0.018940 1.993540 0.142241 -0.020801 -738993.000000 0 0 1
-36.314527 0.195512 -17.223323 40.192362 -0.005384 2.013653 0.114836 -0.020767 253263.000000 0 0 1
-36.286377 1.530112 -16.841423 40.033435 -0.042143 2.004995 0.132670 -0.042200 -235794.000000 0 0 1
-36.538627 2.563512 -17.938623 40.785255 -0.070044 2.026207 0.103001 -0.040342 8709.560000 0 0 1
-35.514757 2.659412 -18.914823 40.325438 -0.074742 2.059016 0.117897 -0.033538 288157.000000 0 0 1
-35.425927 3.936012 -19.500823 40.629676 -0.110652 2.071411 0.103213 -0.031396 -206565.000000 0 0 1
-34.428520 3.928512 -20.663723 40.345330 -0.113615 2.108507 0.098918 -0.026426 -541231.000000 0 0 1
-33.061667 3.868712 -20.350723 39.015287 -0.116485 2.119532 0.103136 -0.026445 -394048.000000 0 0 1
-32.433547 4.256612 -21.523923 39.157796 -0.130495 2.152767 0.086104 -0.022209 -356714.000000 0 0 1
-30.941957 4.613012 -21.398923 37.902486 -0.147996 2.170719 0.121880 -0.018086 881584.000000 0 0 1
-29.981557 3.585812 -21.009823 36.785384 -0.119035 2.178698 0.113859 -0.008623 1080920.000000 0 0 1
-28.633527 3.965912 -21.218723 35.858632 -0.137630 2.204003 0.097197 -0.006749 -56916.500000 0 0 1
-27.637627 2.949812 -20.685623 34.647291 -0.106329 2.210595 0.116777 -0.012379 -379337.000000 0 0 1
-27.478777 2.915812 -19.328223 33.721882 -0.105716 2.181160 0.119905 -0.010718 -296611.000000 0 0 1
-26.550977 1.982112 -18.900123 32.651153 -0.074515 2.188114 0.121386 -0.018225 -662412.000000 0 0 1
-25.850657 2.366312 -17.584023 31.353688 -0.091283 2.166182 0.110624 -0.020242 740111.000000 0 0 1
-24.816717 3.391912 -17.793523 30.724322 -0.135837 2.188463 0.107807 -0.019082 766882.000000 0 0 1
-24.134817 3.662912 -16.614923 29.529002 -0.150619 2.168402 0.124316 -0.027955 -417135.000000 0 0 1
-22.946317 4.602012 -16.801423 28.809717 -0.197930 2.193442 0.115470 -0.028348 -424062.000000 0 0 1
-21.857217 4.077112 -17.506823 28.299286 -0.184414 2.237796 0.144531 -0.034611 6264.900000 0 0 1
-20.674217 4.804512 -17.228623 27.337374 -0.228339 2.252636 0.123056 -0.028960 -517778.000000 0 0 1
-19.413117 4.309912 -17.902323 26.757010 -0.218467 2.303754 0.140905 -0.034408 -832136.000000 0 0 1
-19.080517 3.162512 -17.219423 25.895485 -0.164252 2.298235 0.175821 -0.041102 -309546.000000 0 0 1
-17.983717 2.497112 -17.778423 25.411060 -0.137972 2.345680 0.134433 -0.037838 -746780.000000 0 0 1
-17.879417 1.127612 -17.103323 24.768300 -0.062984 2.333022 0.147762 -0.036186 623520.000000 0 1 0
-18.758717 0.094412 -17.633123 25.745395 -0.005033 2.325268 0.111477 -0.033267 816388.000000 0 0 1
-20.089217 0.230412 -17.150223 26.415145 -0.011469 2.277404 0.123741 -0.039904 -227992.000000 0 0 1
-21.018517 -0.944688 -17.489423 27.359649 0.044915 2.264308 0.107429 -0.037486 -384898.000000 0 0 1
-20.838217 -2.042688 -16.662723 26.759114 0.097714 2.242976 0.096496 -0.031668 508455.000000 0 0 1
-21.750117 -3.034188 -17.116523 27.843298 0.138608 2.232859 0.093877 -0.020353 154974.000000 0 0 1
-21.943217 -4.232688 -16.142723 27.568241 0.190552 2.196361 0.104685 -0.028182 108772.000000 0 0 1
-22.538317 -3.772088 -14.896123 27.278175 0.165826 2.148477 0.098375 -0.030876 531749.000000 0 0 1
-22.711717 -4.764588 -13.936323 27.069253 0.206787 2.111617 0.097297 -0.042403 -265828.000000 0 0 1
-22.987517 -4.239988 -12.530123 26.521829 0.182397 2.062860 0.107485 -0.047737 -655634.000000 0 0 1
-24.012317 -3.316188 -12.423423 27.238390 0.137236 2.044404 0.098549 -0.043607 -51312.200000 0 0 1
-24.352817 -2.955088 -11.082423 26.918624 0.120754 1.995116 0.114783 -0.049932 115497.000000 0 0 1
-25.491277 -1.865388 -10.970023 27.814138 0.073047 1.976216 0.164260 -0.051479 290051.000000 0 0 1
-25.625607 -1.376588 -9.632623 27.410840 0.053668 1.929880 0.153437 -0.052315 319201.000000 0 0 1
-26.122377 -0.075388 -9.610523 27.834267 0.002886 1.923330 0.162580 -0.049486 -298725.000000 0 0 1
-26.508227 0.372712 -8.188123 27.746538 -0.014059 1.870361 0.174656 -0.046017 -188804.000000 0 0 1
-25.393357 0.501412 -7.347923 26.439855 -0.019743 1.852415 0.160311 -0.039290 90849.300000 0 0 1
-25.875107 0.932512 -6.125123 26.606538 -0.036023 1.803091 0.174495 -0.047375 308380.000000 0 0 1
-24.755417 1.348612 -5.119823 25.315252 -0.054424 1.774444 0.132811 -0.032777 218751.000000 0 0 1
-24.354717 2.685512 -5.227323 25.053724 -0.109823 1.780985 0.154503 -0.037832 -24368.000000 0 0 1
-22.952817 2.781412 -5.148223 23.686964 -0.120592 1.789889 0.132446 -0.020922 -180954.000000 0 1 0
-22.431617 4.215712 -5.345723 23.441980 -0.185769 1.800861 0.127648 -0.024690 -262302.000000 0 1 0
-22.804517 5.044612 -4.266223 23.742257 -0.217705 1.751467 0.124682 -0.028219 573341.000000 0 1 0
-22.634217 6.383812 -4.682623 23.978903 -0.274902 1.767340 0.128079 -0.027781 -524022.000000 0 1 0
-23.258717 7.412012 -3.711823 24.691769 -0.308502 1.721695 0.136804 -0.025001 -212972.000000 0 1 0
-22.691217 7.484112 -2.386023 24.012421 -0.318589 1.670327 0.129528 -0.019656 1403720.000000 0 1 0
-21.292717 7.820612 -2.259223 22.795742 -0.351995 1.670067 0.131965 -0.020505 725778.000000 0 1 0
-20.803117 9.269312 -2.532523 22.915136 -0.419167 1.681540 0.116301 -0.018981 -458175.000000 0 1 0
-20.646817 9.594912 -3.966623 23.110333 -0.435024 1.743289 0.101730 -0.018661 395062.000000 0 1 0
-20.232917 10.913012 -4.026323 23.338295 -0.494645 1.744184 0.116922 -0.016416 -315166.000000 0 1 0
-19.951017 11.443912 -5.460223 23.639379 -0.520782 1.803881 0.103226 -0.022460 44839.600000 0 1 0
-18.831317 10.871212 -6.106323 22.585148 -0.523557 1.844573 0.077831 -0.027964 93229.900000 0 1 0
-18.804917 11.398212 -7.404923 23.202953 -0.544914 1.895615 0.081748 -0.022618 226840.000000 0 1 0
-17.578517 10.981112 -8.262523 22.312740 -0.558376 1.950134 0.077276 -0.018042 -26878.600000 0 1 0
-17.438317 9.581412 -8.536723 21.651189 -0.502418 1.976085 0.082115 -0.017245 360928.000000 0 1 0
-18.304917 8.948512 -9.504223 22.482795 -0.454695 2.007255 0.092057 -0.014176 -22006.500000 0 1 0
-18.391517 9.638412 -10.900423 23.451356 -0.482716 2.054216 0.107268 -0.019178 -204747.000000 0 1 0
-17.164217 9.600212 -11.604823 22.835199 -0.509967 2.103889 0.094514 -0.018991 32592.800000 0 1 0
-17.050117 10.531212 -12.711423 23.731691 -0.553305 2.136051 0.092630 -0.021613 263788.000000 0 1 0
-15.889817 10.196612 -13.704723 23.329736 -0.570523 2.198683 0.072508 -0.016251 116248.000000 0 1 0
-15.902617 8.994512 -14.500623 23.325148 -0.514741 2.241674 0.080110 -0.024073 33512.500000 0 1 0
-15.725017 7.808712 -13.751023 22.301183 -0.460907 2.235219 0.073931 -0.020365 -318043.000000 0 1 0
-15.924117 6.509512 -14.622223 22.577879 -0.388055 2.275273 0.095616 -0.020184 -206527.000000 0 1 0
-14.763717 6.187912 -15.344723 22.174718 -0.396888 2.335041 0.103626 -0.031384 232348.000000 0 1 0
-14.911817 4.994512 -16.089723 22.498591 -0.323193 2.367626 0.106694 -0.032388 66027.000000 0 1 0
32.713041 -15.676888 27.800164 45.702921 -0.446889 0.916905 0.049848 0.003351 -26070.100000 0 0 1
31.808481 -14.613588 28.075174 44.872617 -0.430663 0.894814 0.067442 -0.003543 178844.000000 0 0 1
30.916681 -14.829788 29.147574 45.003831 -0.447251 0.866276 0.062016 -0.006561 115720.000000 0 0 1
31.605201 -14.866788 30.559224 46.408795 -0.439681 0.852000 0.063611 -0.019277 230142.000000 0 0 1
32.060541 -13.557988 30.997004 46.610209 -0.400080 0.843268 0.054796 -0.017969 47019.100000 0 0 1
32.304291 -13.594988 32.405938 47.734010 -0.398343 0.824552 0.040876 -0.016149 -91465.000000 0 0 1
32.454401 -12.177788 32.961204 47.833331 -0.358970 0.810571 0.061633 -0.008875 -28962.900000 0 0 1
32.350181 -12.158988 -33.478183 48.116150 -0.359520 2.340300 0.038941 -0.020675 236696.000000 0 0 1
32.722171 -10.858188 -32.961323 47.697898 -0.320397 2.333728 0.044703 -0.008650 -256450.000000 0 0 1
32.322861 -10.563488 -31.494933 46.349600 -0.315870 2.317888 0.053947 -0.010623 1022710.000000 0 0 1
30.911101 -10.356488 -31.266723 45.170355 -0.323287 2.335323 0.074465 -0.013920 1221420.000000 0 0 1
30.572851 -9.880888 -29.950573 43.924571 -0.312595 2.321104 0.064478 -0.009563 1076900.000000 0 0 1
29.025401 -9.562888 -29.782203 42.672032 -0.318266 2.343303 0.069432 -0.001862 1477720.000000 0 0 1
28.457601 -9.550288 -28.483463 41.380559 -0.323787 2.329980 0.066771 -0.012680 474914.000000 0 0 1
27.911101 -10.770388 -27.975243 40.959065 -0.368277 2.322665 0.104426 -0.019644 -740247.000000 0 0 1
27.434101 -10.734288 -26.479073 39.610556 -0.372963 2.302967 0.093851 -0.016305 -234268.000000 0 0 1
26.561001 -9.641688 -26.125323 38.483521 -0.348210 2.317019 0.077488 -0.022429 577120.000000 0 0 1
25.348801 -9.463088 -26.820603 38.097985 -0.357293 2.351796 0.067062 -0.022582 116192.000000 0 0 1
24.220701 -10.532288 -26.632303 37.508012 -0.410181 2.360356 0.078906 -0.013846 -393357.000000 0 0 1
24.704301 -11.761088 -27.169363 38.559045 -0.444325 2.352680 0.077951 -0.015372 182748.000000 0 0 1
23.755701 -12.818488 -27.007683 38.184577 -0.494821 2.356458 0.085437 -0.028171 214287.000000 0 0 1
24.251001 -14.179888 -27.525883 39.330071 -0.529104 2.346010 0.089255 -0.010966 -35480.500000 0 0 1
24.223201 -14.173488 -28.924813 40.302556 -0.529407 2.371278 0.084786 -0.028540 564205.000000 0 0 1
25.420701 -14.804788 -29.365833 41.566163 -0.527371 2.355314 0.072592 -0.026374 -239427.000000 0 0 1
25.531301 -14.804788 -30.907403 42.735192 -0.525485 2.379265 0.072942 -0.032577 -29459.500000 0 0 1
24.567701 -15.559188 -31.635943 42.970840 -0.564559 2.398262 0.084404 -0.028182 282413.000000 0 0 1
24.911001 -15.724388 -33.003193 44.238276 -0.563062 2.412880 0.079975 -0.027637 70726.400000 0 0 1
25.129501 -14.464688 -33.912193 44.617887 -0.522289 2.434199 0.042669 -0.020159 -1075860.000000 0 0 1
24.019201 -13.684088 33.779822 43.649200 -0.517853 0.685831 0.066941 -0.022799 -1040180.000000 0 0 1
24.276501 -12.625588 32.895384 42.788553 -0.479578 0.693850 0.039664 -0.012034 298244.000000 0 0 1
23.131401 -11.538288 32.955645 41.883986 -0.462699 0.665138 0.054371 -0.021068 731001.000000 0 0 1
21.803701 -11.920088 32.695076 41.066505 -0.500306 0.649892 0.045881 -0.021303 58773.200000 0 0 1
21.417401 -12.186988 31.384354 39.902448 -0.517331 0.665631 0.038146 -0.010708 1503590.000000 0 0 1
19.815901 -12.256588 31.188714 38.931090 -0.553928 0.641622 0.050872 -0.011510 1887420.000000 0 0 1
19.169801 -11.045688 31.393874 38.406559 -0.522738 0.613897 0.052392 -0.017586 -1634790.000000 0 0 1
18.165001 -11.286588 32.247715 38.694566 -0.555961 0.585581 0.049699 -0.013636 -1244730.000000 0 0 1
17.274201 -10.059288 32.559039 38.205736 -0.527326 0.550615 0.064623 -0.014967 -1293500.000000 0 0 1
16.459001 -9.637688 31.530864 36.850768 -0.529732 0.544017 0.094660 -0.017196 212884.000000 0 0 1
15.650201 -8.429488 31.868085 36.490545 -0.494063 0.508811 0.107885 -0.017475 1216170.000000 0 0 1
14.565301 -8.699488 32.963712 37.073378 -0.538413 0.475317 0.114729 -0.017952 -531303.000000 0 0 1
13.605601 -9.608188 32.422285 36.450435 -0.614871 0.474569 0.112012 -0.019448 303167.000000 0 0 1
12.461201 -9.928788 33.188550 36.814972 -0.672772 0.447583 0.105416 -0.017939 682161.000000 0 0 1
11.128101 -9.242688 32.801450 35.849645 -0.693106 0.415356 0.128050 -0.021487 71897.400000 0 0 1
11.277001 -7.810988 32.897685 35.643232 -0.605774 0.395065 0.119065 -0.022577 -31015.400000 0 0 1
10.156401 -7.127288 32.409291 34.703211 -0.611902 0.365629 0.121441 -0.017619 -42187.700000 0 0 1
10.530001 -5.641888 32.066877 34.219825 -0.491869 0.356613 0.112010 -0.013699 124853.000000 0 0 1
10.744001 -4.835488 33.200680 35.229258 -0.422907 0.341009 0.103972 -0.018778 159916.000000 0 0 1
11.056801 -3.522588 32.800679 34.792901 -0.308424 0.340042 0.055783 -0.012084 -209659.000000 0 0 1
10.969701 -2.556088 -33.788553 35.616488 -0.228929 2.819823 0.058420 -0.017299 -321865.000000 0 0 1
9.661401 -2.297988 -33.339053 34.786719 -0.233513 2.852085 0.055835 -0.004362 -442760.000000 0 0 1
9.646501 -1.479688 -32.167533 33.615393 -0.152205 2.847028 0.062232 -0.005521 146201.000000 0 0 1
8.204501 -1.146988 -31.699393 32.764019 -0.138900 2.885971 0.071740 -0.003248 -86243.700000 0 0 1
7.531701 -0.404088 -32.639833 33.499977 -0.053600 2.914495 0.055428 -0.003877 122873.000000 0 0 1
6.210401 -0.094588 -32.185613 32.779440 -0.015229 2.950958 0.069707 -0.007404 583405.000000 0 0 1
5.374101 0.794612 -33.107913 33.550652 0.146796 2.978956 0.100745 -0.011007 163670.000000 0 0 1
5.948901 2.088512 -33.156783 33.750904 0.337632 2.953683 0.070629 -0.011303 38803.800000 0 0 1
5.264401 2.868212 33.730576 34.259193 0.498866 0.175896 0.096667 -0.016930 231165.000000 0 0 1
5.695401 4.364612 33.841664 34.594011 0.653877 0.208936 0.070708 -0.021356 211366.000000 0 0 1
5.243501 5.058112 32.750622 33.551186 0.767404 0.218890 0.095476 -0.035885 -378937.000000 0 0 1
6.030401 6.177012 32.633593 33.756075 0.797408 0.258607 0.080504 -0.037699 -72606.900000 0 0 1
5.383101 7.224112 31.688294 32.944097 0.930402 0.276998 0.091425 -0.042056 -465860.000000 0 0 1
4.260801 7.915512 32.125646 33.359659 1.076992 0.272843 0.109775 -0.046016 -425460.000000 0 0 1
4.016601 9.197512 31.519344 33.078638 1.159053 0.308266 0.119504 -0.050467 -260554.000000 0 0 1
3.659101 9.336712 30.032104 31.662130 1.197288 0.322272 0.108404 -0.048355 152066.000000 0 0 1
2.369001 8.840912 29.713384 31.091141 1.308988 0.298813 0.114138 -0.050396 21578.400000 0 0 1
2.324201 8.624512 28.301044 29.677149 1.307562 0.305719 0.092184 -0.037383 -96528.000000 0 0 1
1.036701 7.905712 27.865464 28.983773 1.440407 0.278692 0.093111 -0.030632 406719.000000 0 0 1
-0.146999 8.645012 28.196394 29.492278 -1.553794 0.297541 0.094522 -0.029352 -443010.000000 0 0 1
-1.174999 8.302712 27.337544 28.594701 -1.430210 0.297626 0.091437 -0.022063 -496199.000000 0 0 1
-2.586599 8.538012 27.876994 29.269693 -1.276634 0.309722 0.085595 -0.022118 -214254.000000 0 0 1
-3.002599 9.845712 28.071064 29.898800 -1.274791 0.351465 0.097630 -0.023638 -336001.000000 0 0 1
-4.228399 9.816212 28.773394 30.694390 -1.164060 0.355664 0.078105 -0.007638 -42355.300000 0 0 1
-4.643599 11.146812 29.454994 31.834118 -1.176074 0.389063 0.076176 -0.003016 72446.700000 0 0 1
-4.748299 12.425312 28.845834 31.765025 -1.205774 0.432071 0.068512 -0.014707 39570.200000 0 0 1
-5.695299 12.430112 27.814944 30.993793 -1.141156 0.456874 0.060448 -0.017102 -347122.000000 0 0 1
-5.976499 13.811412 27.220244 31.103300 -1.162403 0.505038 0.044843 -0.012210 -678989.000000 0 0 1
-4.929799 14.328812 26.511994 30.536921 -1.239434 0.519244 0.042190 -0.014405 -838803.000000 0 0 1
-5.241299 15.689412 26.260414 31.036079 -1.248386 0.562123 0.044071 -0.014741 913039.000000 0 0 1
-4.108999 16.474112 25.456054 30.598871 -1.326362 0.588223 0.075119 -0.020659 791427.000000 0 0 1
-3.912299 16.187612 24.085254 29.282150 -1.333659 0.604963 0.056560 -0.007107 -41182.600000 0 0 1
-2.827099 16.916212 23.533394 29.119947 -1.405203 0.629786 0.051442 -0.010137 260241.000000 0 0 1
-2.663399 16.667312 22.019324 27.744253 -1.412338 0.654005 0.060088 -0.016441 -155424.000000 0 0 1
-2.121499 15.460612 21.601124 26.648449 -1.434428 0.625627 0.052118 -0.013749 -194900.000000 0 0 1
-2.230199 15.393812 20.180024 25.478944 -1.426921 0.656673 0.055993 -0.014190 268081.000000 0 0 1
-1.292799 14.262512 19.667724 24.329199 -1.480400 0.629368 0.050744 -0.020399 -87473.200000 0 1 0
-1.772699 12.952812 19.826724 23.749037 -1.434783 0.582948 0.052407 -0.017678 -506450.000000 0 1 0
-1.015699 12.125112 19.043824 22.599053 -1.487223 0.568550 0.046012 -0.014335 -482570.000000 0 1 0
-1.578799 10.697412 18.899724 21.774452 -1.424267 0.519682 0.023086 -0.019008 -562525.000000 0 1 0
-1.665399 9.870412 20.043024 22.403602 -1.403644 0.463185 0.031285 -0.024997 548546.000000 0 1 0
-2.677899 10.140412 21.029624 23.499876 -1.312609 0.462629 0.057612 -0.024155 1101720.000000 0 1 0
-4.201099 10.273212 20.707724 23.494636 -1.182609 0.492019 0.055108 -0.022723 192976.000000 0 1 0
-4.854399 9.067012 20.459024 22.898636 -1.079238 0.465805 0.064057 -0.031533 255726.000000 0 1 0
-6.257099 9.348412 20.545624 23.423636 -0.980958 0.500939 0.065541 -0.023967 526295.000000 0 1 0
-7.129899 8.085912 20.609024 23.258316 -0.848146 0.481950 0.062292 -0.025075 -123696.000000 0 1 0
-7.140799 7.505912 21.919124 24.244127 -0.810321 0.441527 0.067985 -0.035536 326605.000000 0 1 0
-8.000099 6.354512 21.942324 24.204276 -0.671258 0.435765 0.059085 -0.026432 378319.000000 0 1 0
-7.931499 5.390212 23.176024 25.081689 -0.596900 0.392328 0.054127 -0.027333 -176848.000000 0 0 1
-8.671199 5.832012 24.277534 26.431055 -0.592080 0.406468 0.039242 -0.019375 -140294.000000 0 0 1
-8.758699 4.872812 25.289564 27.203329 -0.507697 0.377336 0.037976 -0.003670 89115.500000 0 0 1
-9.855799 5.291912 26.316564 28.595500 -0.492756 0.401939 0.032824 0.000087 8156.640000 0 0 1
-9.507999 6.419712 27.090954 29.419968 -0.593881 0.400578 0.031561 -0.000091 -18029.400000 0 0 1
-10.562199 6.712812 27.994694 30.664715 -0.566150 0.420393 0.042364 -0.004629 193736.000000 0 0 1
-10.267099 7.873312 28.940134 31.700689 -0.654197 0.420419 0.049693 -0.008795 -366599.000000 0 0 1
-9.109699 7.637512 29.676964 31.969366 -0.697717 0.380999 0.045558 -0.006512 -261938.000000 0 0 1
-8.730299 8.799112 30.375984 32.807665 -0.789324 0.387436 0.055009 -0.013150 52866.100000 0 0 1
-7.722799 8.620812 31.529834 33.587057 -0.840289 0.351813 0.072085 -0.016557 359494.000000 0 0 1
-6.422699 8.187812 31.167094 32.858470 -0.905627 0.322249 0.060406 -0.016230 -109527.000000 0 0 1
-5.692699 7.845412 32.298343 33.721510 -0.943089 0.291561 0.103927 -0.017020 -604800.000000 0 0 1
-4.223899 7.484512 32.144722 33.273749 -1.057001 0.261247 0.082220 -0.020025 -121153.000000 0 0 1
-3.402199 8.618412 31.823151 33.144606 -1.194816 0.283327 0.075128 -0.029459 -2191.320000 0 0 1
-2.059599 8.365612 32.177711 33.311116 -1.329399 0.261609 0.091173 -0.042357 653072.000000 0 0 1
-0.924199 9.347412 31.710854 33.072745 -1.472244 0.287974 0.106869 -0.041298 605227.000000 0 0 1
-0.956599 10.592412 32.373007 34.075296 -1.480731 0.317422 0.100089 -0.051335 32058.100000 0 0 1
-1.240699 11.677212 31.519484 33.635910 -1.464944 0.356631 0.083366 -0.034067 -114368.000000 0 0 1
-1.610699 13.007312 32.291765 34.850288 -1.447593 0.385567 0.081982 -0.048038 570345.000000 0 0 1
-0.485899 13.679712 32.900587 35.634523 -1.535292 0.394267 0.125145 -0.046297 640844.000000 0 0 1
-0.884199 14.704912 33.808574 36.878664 -1.510739 0.410925 0.124944 -0.041891 1405370.000000 0 0 1
0.429301 15.034612 -33.185343 36.434747 1.542250 2.716052 0.102234 -0.040260 1689360.000000 0 0 1
1.517901 15.580512 33.894364 37.334759 1.473680 0.432669 0.111331 -0.033052 426920.000000 0 0 1
2.486201 16.085212 -33.050183 36.840600 1.417445 2.683987 0.117400 -0.034432 -169707.000000 0 0 1
3.679201 16.791012 -33.678403 37.811498 1.355088 2.669662 0.120609 -0.024714 -114374.000000 0 0 1
3.323801 18.103312 33.805808 38.491690 1.389217 0.498580 0.103295 -0.017690 -262163.000000 0 0 1
4.452701 18.699512 33.254517 38.410430 1.337031 0.524114 0.085040 -0.000292 -185111.000000 0 0 1
4.285201 20.232412 33.001283 38.946092 1.362082 0.559806 0.084211 -0.018453 -135655.000000 0 0 1
4.166501 20.963512 -33.675713 39.885864 1.374603 2.576057 0.095888 -0.029242 113675.000000 0 0 1
4.109701 22.351812 33.916754 40.826943 1.388963 0.590353 0.081100 -0.025149 28231.300000 0 0 1
4.035001 23.049412 -32.553173 40.090718 1.397494 2.518346 0.101810 -0.029591 87658.000000 0 0 1
3.786601 24.459512 -32.551393 40.892533 1.417205 2.491492 0.103130 -0.031067 146710.000000 0 0 1
3.606101 24.870012 -31.217763 40.075805 1.426802 2.463814 0.111810 -0.032456 130072.000000 0 0 1
2.940701 26.295412 -31.119383 40.847428 1.459426 2.436952 0.104638 -0.045946 663425.000000 0 0 1
3.899201 27.373112 -30.920793 41.479952 1.429302 2.411990 0.094635 -0.039686 598699.000000 0 0 1
3.317301 28.508012 -30.359633 41.778206 1.454954 2.384282 0.090390 -0.036724 40736.800000 0 0 1
4.385601 29.646012 -30.133593 42.498858 1.423929 2.358939 0.092257 -0.039433 522116.000000 0 0 1
5.246901 29.292012 -29.065353 41.597436 1.393552 2.344416 0.083833 -0.043417 -445734.000000 0 0 1
5.930301 30.453112 -28.754743 42.301249 1.378468 2.318233 0.089793 -0.044737 -254403.000000 0 0 1
7.051201 30.346612 -27.639423 41.648217 1.342492 2.296471 0.090138 -0.039528 516467.000000 0 0 1
8.232001 29.751612 -28.113543 41.752791 1.300859 2.309504 0.084153 -0.034974 -100539.000000 0 0 1
9.423301 30.438312 -28.400843 42.683689 1.270568 2.298798 0.090861 -0.036731 121668.000000 0 0 1
9.385601 31.715812 -29.317083 44.198117 1.283079 2.296030 0.106341 -0.040510 -1069020.000000 0 0 1
8.869101 32.892312 -28.675633 44.529283 1.307420 2.270476 0.097980 -0.036129 242251.000000 0 0 1
8.562901 -33.948040 -29.600433 45.847337 -1.323715 2.272645 0.083472 -0.029784 18844.900000 0 0 1
7.346101 33.818512 -30.547143 46.160425 1.356898 2.293961 0.074646 -0.025539 -347775.000000 0 0 1
7.377401 32.745012 -31.447953 45.996039 1.349198 2.323631 0.071713 -0.021633 -431160.000000 0 0 1
6.174501 32.601612 -32.139593 46.194620 1.383621 2.340250 0.075915 -0.022113 -497648.000000 0 0 1
6.277301 31.843212 -33.481543 46.630552 1.376160 2.371746 0.085597 -0.031097 -159413.000000 0 0 1
6.974301 32.579412 33.400848 47.177066 1.359908 0.784150 0.109231 -0.034109 -71684.400000 0 0 1
7.082901 31.886212 32.148679 45.830508 1.352215 0.793340 0.114890 -0.034858 580571.000000 0 0 1
6.157301 32.635812 31.070124 45.479238 1.384321 0.818699 0.109516 -0.037154 699460.000000 0 0 1
6.819101 33.760412 30.542384 46.033713 1.371493 0.845338 0.113159 -0.037021 218853.000000 0 0 1
6.090701 -33.502640 29.515084 45.062886 -1.390963 0.856646 0.097986 -0.042728 63693.300000 0 0 1
18.591483 -21.947288 29.362774 41.103518 -0.867990 0.775085 0.090102 -0.007678 -543685.000000 0 0 1
17.682783 -20.828588 29.468254 40.185680 -0.866902 0.747630 0.087069 -0.005071 -280312.000000 0 0 1
16.353983 -21.207988 29.542214 39.874477 -0.913913 0.736416 0.092435 -0.005292 -599192.000000 0 0 1
15.842183 -21.852588 30.890614 41.021219 -0.943516 0.718126 0.092646 -0.017740 -794319.000000 0 0 1
16.571483 -22.970988 31.352104 42.252039 -0.945846 0.734709 0.106572 -0.026046 -20053.400000 0 0 1
16.098683 -23.455588 32.594374 43.263442 -0.969292 0.717590 0.112157 -0.038150 507175.000000 0 0 1
17.112183 -24.450588 33.302548 44.718204 -0.960159 0.730681 0.102140 -0.042865 612121.000000 0 0 1
16.939983 -25.817568 32.991788 45.188139 -0.990116 0.752330 0.128123 -0.042464 441674.000000 0 0 1
17.958283 -26.480438 33.754486 46.508911 -0.974871 0.758652 0.124905 -0.046047 403113.000000 0 0 1
17.762583 -28.022708 33.687628 47.282532 -1.005848 0.777777 0.133356 -0.038460 8540.570000 0 0 1
18.127383 -28.528198 32.464584 46.865865 -1.004739 0.805553 0.126912 -0.045937 268078.000000 0 0 1
17.548683 -29.811668 32.289784 47.321475 -1.038763 0.819825 0.125333 -0.051042 112495.000000 0 0 1
18.291883 -30.488368 31.122794 47.252110 -1.030404 0.851768 0.120401 -0.042219 359517.000000 0 0 1
19.598283 -30.952568 31.424074 48.266205 -1.006342 0.861820 0.112674 -0.048932 104323.000000 0 0 1
20.088083 -31.587548 30.272904 48.143047 -1.004362 0.890773 0.091663 -0.036585 -140707.000000 0 0 1
21.534383 -32.134648 30.437204 49.221831 -0.980400 0.904132 0.084135 -0.034559 444925.000000 0 0 1
22.472683 -31.124798 30.812724 49.225994 -0.945445 0.894455 0.076801 -0.032030 -516710.000000 0 0 1
23.731783 -31.406908 30.307224 49.680169 -0.923706 0.914677 0.058508 -0.025301 -999697.000000 0 0 1
24.542383 -30.102248 30.307004 49.264474 -0.886795 0.908170 0.043710 -0.020062 -225397.000000 0 0 1
25.778283 -30.308168 29.657314 49.625207 -0.865989 0.930259 0.040755 -0.021319 -530691.000000 0 0 1
26.557983 -29.180018 29.612984 49.332836 -0.832406 0.926959 0.036145 -0.017778 415476.000000 0 0 1
27.736583 -29.388928 28.561574 49.485257 -0.814315 0.955533 0.043709 -0.022595 1367560.000000 0 0 1
28.748383 -30.319028 29.011144 50.866094 -0.811983 0.963872 0.039338 -0.018845 78907.100000 0 0 1
29.901183 -30.342868 28.242624 51.111801 -0.792730 0.985357 0.041077 -0.027425 -192337.000000 0 0 1
30.932083 -31.367428 28.758654 52.609595 -0.792386 0.992447 0.029420 -0.023559 73413.700000 0 0 1
30.427683 -32.679778 28.534334 52.990754 -0.821070 1.002167 0.021380 -0.018931 380752.000000 0 0 1
31.417983 -33.662808 28.774204 54.297598 -0.819877 1.012272 0.031116 -0.016632 -331924.000000 0 0 1
30.694483 32.928424 29.225864 53.671068 0.820496 0.994960 0.017058 -0.013281 -456582.000000 0 0 1
30.141883 32.952343 30.472574 54.064478 0.829913 0.972018 0.025925 -0.013048 733152.000000 0 0 1
29.039683 33.863225 30.753044 54.182754 0.861931 0.967233 0.019428 -0.012597 520089.000000 0 0 1
27.700483 33.715779 29.976744 52.940303 0.883030 0.968863 0.030361 -0.012246 94848.200000 0 0 1
26.966883 32.544535 30.422684 52.075898 0.878849 0.946904 0.040376 -0.013773 -61321.600000 0 0 1
25.604483 32.641670 30.090524 51.249466 0.905633 0.943277 0.047933 -0.017034 -4010.320000 0 0 1
24.904083 31.303804 30.019364 50.013035 0.898768 0.927007 0.061472 -0.025583 -415186.000000 0 0 1
25.333483 30.583504 28.931854 49.134389 0.879013 0.941185 0.078257 -0.035223 -123315.000000 0 0 1
24.626383 29.391684 28.776134 47.941586 0.873387 0.927004 0.098942 -0.050699 -380009.000000 0 0 1
24.114083 29.086034 27.294014 46.609543 0.878585 0.945190 0.111410 -0.050826 290245.000000 0 0 1
22.867483 29.757204 27.123044 46.304130 0.915580 0.944981 0.134540 -0.048729 105257.000000 0 0 1
22.172583 29.185104 26.017434 44.947754 0.921102 0.953494 0.145428 -0.051538 -740756.000000 0 0 1
20.730083 29.615634 25.959914 44.505496 0.960090 0.948015 0.121349 -0.049399 -983780.000000 0 0 1
20.575883 31.002914 25.584614 45.156617 0.984867 0.968453 0.149224 -0.059433 58640.600000 0 0 1
19.239083 31.414484 25.339744 44.711461 1.021289 0.968253 0.104844 -0.046271 -350247.000000 0 0 1
19.063283 32.804560 24.683514 45.263935 1.044377 0.994021 0.110569 -0.042283 -184687.000000 0 0 1
19.714583 33.002637 23.446634 45.028696 1.032317 1.023121 0.103170 -0.042706 -147511.000000 0 0 1
21.115783 33.041925 23.426884 45.677828 1.002150 1.032269 0.115339 -0.046569 -660003.000000 0 0 1
21.678983 33.477334 22.089924 45.592487 0.996130 1.064996 0.111038 -0.044286 -319852.000000 0 0 1
21.347383 -33.192838 21.562424 44.971251 -0.999264 1.070744 0.086566 -0.028015 193004.000000 0 0 1
21.767983 -33.126218 20.213724 44.494787 -0.989430 1.099217 0.087484 -0.026157 -19504.700000 0 0 1
21.495183 -31.685278 19.710524 43.063958 -0.974717 1.095386 0.087860 -0.021685 58292.900000 0 0 1
22.252683 -30.672618 20.384224 43.029153 -0.943167 1.077274 0.084810 -0.021868 322347.000000 0 0 1
22.045283 -29.383868 19.782924 41.722539 -0.927134 1.076793 0.085126 -0.018456 7725.260000 0 0 1
22.779583 -28.987948 18.449224 41.226016 -0.904756 1.106813 0.064944 -0.015123 -220263.000000 0 0 1
22.314183 -29.594608 17.254824 40.883891 -0.924743 1.135097 0.049539 -0.016832 238263.000000 0 0 1
22.758683 -28.917448 16.079024 40.158579 -0.904019 1.158856 0.049730 -0.010296 145041.000000 0 0 1
22.134383 -29.542488 14.764124 39.757627 -0.927782 1.190330 0.046344 -0.015255 267642.000000 0 0 1
22.821483 -30.775298 14.545624 40.981877 -0.932724 1.207959 0.039592 -0.010430 279927.000000 0 0 1
22.989183 -31.172538 13.192524 40.917873 -0.935355 1.242517 0.048184 -0.014173 434216.000000 0 0 1
21.736483 -31.455008 12.270424 40.155393 -0.966113 1.260256 0.041247 -0.016367 464402.000000 0 0 1
21.061083 -32.680838 12.464024 40.828401 -0.998334 1.260566 0.044161 -0.014768 -1126490.000000 0 0 1
19.835083 -32.707428 11.856824 40.047355 -1.025655 1.270221 0.060115 -0.008804 -819583.000000 0 0 1
18.837583 -33.483458 12.773624 40.486565 -1.058336 1.249810 0.064265 -0.012028 -87028.900000 0 0 1
18.499683 -32.802228 13.993624 40.175191 -1.057286 1.215023 0.059042 -0.008325 636423.000000 0 0 1
19.352983 -33.178118 15.105224 41.273397 -1.042743 1.196111 0.057480 -0.011831 -379424.000000 0 0 1
19.372283 -32.144548 16.190624 40.874119 -1.028422 1.163521 0.048986 -0.010639 1065110.000000 0 0 1
18.072583 -31.739538 16.682324 40.153661 -1.053179 1.142346 0.053516 -0.015633 1334940.000000 0 0 1
17.037783 -32.589718 17.150424 40.577245 -1.089078 1.134417 0.054537 -0.010827 21026.500000 0 0 1
17.408083 -33.388058 18.390824 41.904966 -1.090186 1.116456 0.032555 -0.016691 -242811.000000 0 0 1
18.123283 33.294726 18.246324 42.070423 1.072318 1.122191 0.035020 -0.012914 270610.000000 0 0 1
18.442083 32.766828 19.528524 42.369077 1.058158 1.091771 0.038433 -0.019787 -58825.700000 0 0 1
19.150083 31.401524 19.362924 41.565661 1.023169 1.086213 0.053416 -0.021832 -197363.000000 0 0 1
18.306683 30.304484 19.116524 40.236027 1.027374 1.075708 0.038157 -0.023764 -329348.000000 0 0 1
19.083283 29.233904 18.611324 39.562282 0.992470 1.081017 0.045643 -0.026936 -62343.400000 0 0 1
18.422783 27.877274 18.368324 38.130521 0.986829 1.068177 0.053083 -0.021050 -295559.000000 0 0 1
18.075683 27.211634 19.553424 38.072821 0.984460 1.031445 0.064266 -0.032412 -39486.900000 0 0 1
18.124183 25.786194 19.346524 36.982452 0.958151 1.020280 0.066098 -0.033743 -479728.000000 0 0 1
17.759183 24.977714 20.630224 36.944294 0.952725 0.978323 0.083919 -0.031197 943969.000000 0 0 1
16.437083 25.180344 21.181124 36.781346 0.992473 0.957133 0.082569 -0.029474 764490.000000 0 0 1
15.510183 24.292524 20.596024 35.424408 1.002565 0.950339 0.067252 -0.030621 -1241640.000000 0 0 1
14.155583 24.429164 21.244924 35.334280 1.045621 0.925725 0.087608 -0.039573 -725166.000000 0 0 1
13.454983 25.561724 20.724524 35.551992 1.086274 0.948459 0.075014 -0.039059 358096.000000 0 0 1
12.203583 25.810634 21.364024 35.658628 1.129135 0.928387 0.074970 -0.043977 639295.000000 0 0 1
11.280483 26.785794 20.558924 35.600525 1.172202 0.955146 0.061720 -0.036152 13957.800000 0 0 1
11.527683 28.068924 21.002624 36.903416 1.181107 0.965356 0.053493 -0.034594 29164.100000 0 0 1
11.174983 28.989094 19.963424 36.929474 1.202861 0.999667 0.065489 -0.037878 -66808.800000 0 0 1
11.681983 30.456824 20.138324 38.335870 1.204543 1.017714 0.057505 -0.039007 -291740.000000 0 0 1
11.202283 31.271294 21.213324 39.413069 1.226809 1.002460 0.066325 -0.034952 -489532.000000 0 0 1
11.686983 30.977784 22.522124 40.043160 1.210037 0.973455 0.053195 -0.029090 -112740.000000 0 0 1
11.292183 31.872524 23.710374 41.298341 1.230303 0.959262 0.053057 -0.026260 243940.000000 0 0 1
9.966583 31.618804 24.139724 41.009850 1.265444 0.941430 0.061828 -0.030874 -115619.000000 0 0 1
9.765883 32.272351 25.374204 42.198665 1.276948 0.925665 0.059859 -0.030199 937751.000000 0 0 1
8.300583 32.129106 25.976314 42.141998 1.317974 0.906634 0.128032 -0.048462 1804220.000000 0 0 1
7.196983 32.975248 25.523004 42.315331 1.355912 0.923337 0.113887 -0.046945 1145130.000000 0 0 1
6.696183 32.621084 24.222664 41.179016 1.368337 0.941930 0.113016 -0.056482 -203436.000000 0 0 1
5.765683 31.395194 24.051614 39.967254 1.389172 0.925065 0.107813 -0.060358 -368083.000000 0 0 1
6.251183 30.235674 24.679774 39.526756 1.366920 0.896457 0.084629 -0.048261 -352878.000000 0 0 1
5.462483 29.095674 24.377144 38.348951 1.385214 0.881925 0.069013 -0.040715 -670179.000000 0 0 1
6.334483 27.846024 24.529424 37.645974 1.347120 0.861129 0.081363 -0.036405 826381.000000 0 0 1
7.371883 27.529064 23.561304 36.977412 1.309150 0.879961 0.079838 -0.041818 660698.000000 0 0 1
8.486383 28.364604 23.509374 37.805556 1.280084 0.899694 0.089348 -0.044124 -764534.000000 0 0 1
9.716483 27.919944 24.307924 38.272816 1.235893 0.882629 0.076227 -0.050382 -832213.000000 0 0 1
9.529283 28.022464 25.751454 39.232678 1.243005 0.854789 0.080706 -0.040982 -234372.000000 0 0 1
10.702983 27.819004 26.460174 39.857140 1.203517 0.844807 0.084907 -0.025140 -528634.000000 0 0 1
11.869783 28.787514 26.424314 40.839405 1.179711 0.867114 0.066206 -0.023760 -688647.000000 0 0 1
11.610783 29.949194 27.202614 42.092121 1.200953 0.868118 0.079250 -0.034009 383395.000000 0 0 1
12.777183 30.754874 27.307854 43.067825 1.177040 0.883996 0.077667 -0.021661 84686.100000 0 0 1
12.568783 31.855234 28.380794 44.476956 1.194989 0.878767 0.070244 -0.032334 -62386.100000 0 0 1
12.476583 31.401554 29.722694 45.001791 1.192599 0.849341 0.067718 -0.050124 94904.400000 0 0 1
11.202083 31.568594 30.311644 45.175862 1.229808 0.835280 0.099388 -0.044829 -168452.000000 0 0 1
11.158483 31.308194 31.805094 46.003029 1.228424 0.807413 0.117285 -0.044799 -241002.000000 0 0 1
11.144083 29.988264 32.282918 45.449679 1.214997 0.780872 0.125108 -0.042712 205563.000000 0 0 1
10.944183 29.824334 33.665071 46.288260 1.219098 0.756429 0.152904 -0.038030 -29033.200000 0 0 1
11.001083 28.341014 -33.737073 45.413951 1.200531 2.408157 0.144353 -0.040628 960832.000000 0 0 1
12.337183 27.812514 -33.892313 45.545920 1.153291 2.410035 0.148653 -0.030949 1029310.000000 0 0 1
12.224483 26.417724 -33.732473 44.555738 1.137400 2.429636 0.152125 -0.041772 357265.000000 0 0 1
13.636383 25.770774 -33.831573 44.661606 1.084108 2.430285 0.150025 -0.040145 426207.000000 0 0 1
13.758983 24.357094 -33.596053 43.718101 1.056596 2.447243 0.130267 -0.043376 -66039.700000 0 0 1
13.796583 23.892694 -32.277743 42.462444 1.047131 2.434337 0.130734 -0.041165 -90562.600000 0 0 1
13.925383 22.327564 -32.265223 41.635093 1.013143 2.457436 0.104832 -0.047637 1029540.000000 0 0 1
15.259483 21.920664 -32.660823 42.191192 0.962677 2.456112 0.107262 -0.033150 1019150.000000 0 0 1
15.387983 20.502064 -32.680463 41.534772 0.926938 2.476439 0.103606 -0.028582 443095.000000 0 0 1
16.813183 20.047764 -33.109333 42.199809 0.872925 2.472823 0.125369 -0.038530 -110287.000000 0 0 1
17.786983 20.232164 -32.173403 41.962424 0.849624 2.444512 0.090312 -0.033643 -78015.000000 0 0 1
19.078983 19.800664 -32.618213 42.661712 0.803958 2.441183 0.100889 -0.034839 989585.000000 0 0 1
20.279483 20.181764 -31.690553 42.694873 0.782983 2.407228 0.076227 -0.024434 452816.000000 0 0 1
20.644983 21.552064 -31.962293 43.729795 0.806891 2.390442 0.051552 -0.024753 -162220.000000 0 0 1
21.405783 22.128764 -30.894603 43.616123 0.802004 2.357926 0.039657 -0.011795 -17105.200000 0 0 1
20.717183 22.453964 -29.567683 42.516232 0.825607 2.339835 0.039749 -0.015322 -396308.000000 0 0 1
20.004683 23.639404 -29.599253 42.838353 0.868487 2.333602 0.037099 0.000466 -600738.000000 0 0 1
19.642683 24.069974 -28.322913 42.040290 0.886336 2.310012 0.046340 0.006057 -3675.080000 0 0 1
20.744683 24.677124 -27.377543 42.294588 0.871759 2.274841 0.050603 -0.003487 258733.000000 0 0 1
21.488283 25.734444 -27.941783 43.643454 0.875075 2.265592 0.037506 0.006086 -510665.000000 0 0 1
20.839883 26.970724 -28.144493 44.202185 0.912934 2.261036 0.046892 0.003443 -51892.800000 0 0 1
21.689283 27.998594 -29.027303 45.792254 0.911701 2.257370 0.039098 0.001986 144021.000000 0 0 1
21.934983 27.746144 -30.422043 46.652895 0.901838 2.281139 0.050405 0.000367 -24591.100000 0 0 1
22.591383 26.597164 -30.934023 46.633609 0.866656 2.296072 0.045518 0.002069 609814.000000 0 0 1
23.996483 26.247414 -30.352763 46.755194 0.830168 2.277309 0.054230 -0.008305 490981.000000 0 0 1
25.063883 27.103484 -30.747633 48.043876 0.824476 2.265282 0.061211 -0.006442 1332090.000000 0 0 1
26.373683 26.495974 -30.540083 48.273227 0.787711 2.255767 0.083321 -0.014436 1544120.000000 0 0 1
27.518583 27.448694 -31.044543 49.744013 0.784127 2.244758 0.061871 -0.007581 117018.000000 0 0 1
27.603383 28.571614 -30.200033 49.903165 0.802632 2.220779 0.047487 -0.006898 320460.000000 0 0 1
28.663983 29.452014 -30.556833 51.212938 0.798957 2.210132 0.050886 -0.012709 411301.000000 0 0 1
28.606883 30.712044 -29.681223 51.405820 0.820872 2.186325 0.036030 -0.001772 -18309.100000 0 0 1
29.154283 30.534314 -28.399353 50.880642 0.808515 2.162958 0.063508 -0.004649 264635.000000 0 0 1
28.700083 31.548094 -27.475903 50.733640 0.832634 2.143102 0.051233 -0.003646 -535951.000000 0 0 1
28.930483 31.187534 -25.980953 49.846214 0.822924 2.119079 0.074718 -0.006205 -251028.000000 0 0 1
28.105883 30.240414 -25.374463 48.459123 0.821966 2.121898 0.044790 0.001778 -278965.000000 0 0 1
26.766983 30.530984 -25.110793 47.740593 0.850996 2.124668 0.028687 0.005462 -402323.000000 0 0 1
26.160683 29.752044 -23.918923 46.278292 0.849542 2.113963 0.030756 0.011826 161934.000000 0 0 1
26.647483 30.341684 -22.725723 46.337507 0.850130 2.083390 0.060846 -0.001422 197506.000000 0 0 1
25.963483 29.821994 -21.627823 45.069019 0.854455 2.071317 0.052501 -0.003833 34325.200000 0 0 1
3.243983 -26.118598 -19.337623 32.659581 -1.447227 2.204454 0.071086 -0.020398 -14703.200000 0 0 1
3.318283 -27.260378 -18.508923 33.116755 -1.449667 2.163854 0.079619 -0.014549 274988.000000 0 0 1
3.026183 -26.954038 -17.170923 32.101691 -1.458993 2.135176 0.093892 -0.020060 -196136.000000 0 0 1
3.285483 -28.054198 -16.138723 32.531382 -1.454215 2.089894 0.088409 -0.016406 240749.000000 0 0 1
4.650283 -28.388318 -15.928423 32.882159 -1.408429 2.076484 0.084042 -0.020368 278067.000000 0 0 1
4.782883 -29.195778 -14.792123 33.076825 -1.408418 2.034434 0.087381 -0.030030 -1063830.000000 0 0 1
6.199083 -29.577638 -14.526123 33.530189 -1.364200 2.018864 0.085716 -0.021570 -1000760.000000 0 0 1
7.010483 -28.737698 -13.694623 32.596700 -1.331522 2.004377 0.082980 -0.010796 83925.100000 0 0 1
8.327783 -29.229958 -13.635823 33.311831 -1.293244 1.992525 0.079316 -0.008483 -238023.000000 0 0 1
8.690683 -30.143748 -12.401323 33.733757 -1.290100 1.947249 0.069268 -0.015979 -718746.000000 0 0 1
8.922383 -29.491298 -11.177023 32.776080 -1.277008 1.918789 0.073837 -0.029888 91363.100000 0 0 1
9.116483 -30.347228 -10.038123 33.238960 -1.278967 1.877585 0.080295 -0.023216 611308.000000 0 0 1
10.399983 -31.266228 -10.076423 34.456799 -1.249682 1.867570 0.063392 -0.018851 81311.000000 0 0 1
11.544183 -30.599308 -9.624023 34.091167 -1.210038 1.856990 0.059437 -0.016071 -508097.000000 0 0 1
12.530083 -31.530288 -9.251723 35.167548 -1.192535 1.837005 0.053595 -0.015400 180092.000000 0 0 1
13.727983 -30.805208 -8.558423 34.794611 -1.151575 1.819316 0.066363 -0.017671 298453.000000 0 0 1
14.648683 -30.028628 -9.313423 34.684900 -1.116937 1.842648 0.057937 -0.027953 583218.000000 0 0 1
15.575183 -29.436588 -8.403223 34.346954 -1.084133 1.817962 0.070734 -0.031079 -261137.000000 0 0 1
16.885183 -28.941218 -9.017023 34.698851 -1.042650 1.833679 0.084077 -0.038279 -403274.000000 0 0 1
16.957683 -27.647208 -9.608823 33.826922 -1.020611 1.858821 0.090874 -0.033786 203284.000000 0 0 1
16.267983 -27.508708 -10.876623 33.759106 -1.036742 1.898831 0.077836 -0.027475 -274663.000000 0 0 1
15.770283 -26.101698 -11.126123 32.462149 -1.027304 1.920630 0.076272 -0.024832 -1465100.000000 0 0 1
14.905483 -25.618178 -10.104423 31.313956 -1.043843 1.899357 0.066543 -0.028478 237847.000000 0 0 1
14.480983 -24.304688 -10.416823 30.148415 -1.033463 1.923587 0.050264 -0.016965 308872.000000 0 0 1
13.640683 -24.075288 -11.700923 30.043291 -1.055310 1.970851 0.042847 -0.012599 -419062.000000 0 0 1
14.461983 -23.473588 -12.699123 30.355000 -1.018626 2.002428 0.041685 -0.008041 215109.000000 0 0 1
13.890383 -23.637688 -13.999423 30.784199 -1.039517 2.042899 0.058881 -0.011341 93486.600000 0 0 1
14.643983 -22.912988 -15.146723 31.126749 -1.002113 2.079006 0.051108 -0.011866 -238238.000000 0 0 1
15.849883 -23.513488 -15.513023 32.322698 -0.977682 2.071385 0.051136 -0.015458 -174116.000000 0 0 1
16.355683 -22.850388 -16.674823 32.675654 -0.949563 2.106345 0.059449 -0.018244 -684440.000000 0 0 1
17.303683 -23.756088 -17.435223 34.172448 -0.941270 2.106229 0.068354 -0.015711 824455.000000 0 0 1
18.493883 -24.212088 -16.739223 34.762775 -0.918504 2.073193 0.085826 -0.020058 1547250.000000 0 0 1
19.635583 -23.333188 -16.875623 34.853701 -0.871240 2.076227 0.093436 -0.021801 374395.000000 0 0 1
20.980683 -23.993388 -16.532223 35.905238 -0.852286 2.049288 0.080644 -0.023141 -33857.700000 0 0 1
21.533283 -24.788688 -17.580323 37.245525 -0.855561 2.062368 0.092864 -0.017227 -132937.000000 0 0 1
22.605483 -25.476448 -16.969923 38.053063 -0.845037 2.033036 0.102851 -0.013529 -39377.000000 0 0 1
23.356883 -26.510438 -17.830823 39.576326 -0.848553 2.038169 0.096320 -0.012957 -228805.000000 0 0 1
24.103383 -25.921018 -18.860223 40.107110 -0.821717 2.060366 0.104032 -0.022196 53711.700000 0 0 1
24.745383 -26.795458 -19.763023 41.483824 -0.825153 2.067356 0.090600 -0.025765 356650.000000 0 0 1
26.032083 -26.191528 -20.378423 42.177549 -0.788451 2.075054 0.077002 -0.028149 52557.500000 0 0 1
25.588683 -25.158408 -21.202423 41.680558 -0.776920 2.104457 0.095141 -0.027694 334175.000000 0 0 1
26.088183 -23.912888 -20.700023 40.998908 -0.741921 2.100053 0.102195 -0.024064 -174730.000000 0 0 1
24.988683 -22.815788 -20.689923 39.661914 -0.739976 2.119589 0.124059 -0.018248 -86.596600 0 0 1
24.701083 -22.172888 -21.952123 39.795429 -0.731514 2.155107 0.123989 -0.017550 323462.000000 0 0 1
24.092783 -23.005788 -22.944723 40.449831 -0.762323 2.173946 0.084931 -0.020656 -830617.000000 0 0 1
23.506983 -22.158888 -24.073623 40.288136 -0.755886 2.211221 0.075391 -0.019400 -203863.000000 0 0 1
24.383883 -21.523288 -24.972623 41.005580 -0.723166 2.225602 0.073135 -0.010513 -221048.000000 0 0 1
23.695683 -20.490588 -25.591943 40.451170 -0.712989 2.255783 0.061389 -0.006753 -119896.000000 0 0 1
24.293983 -20.040288 -26.933303 41.439276 -0.689745 2.278310 0.065085 -0.011702 -548858.000000 0 0 1
23.564183 -19.067388 -27.576593 40.979318 -0.680306 2.308972 0.062542 -0.012392 -229704.000000 0 0 1
23.979883 -18.793588 -28.938033 42.019561 -0.664737 2.330463 0.068145 -0.018679 -539257.000000 0 0 1
23.165783 -17.757488 -29.661463 41.614712 -0.654003 2.364227 0.097703 -0.028101 -865091.000000 0 0 1
21.945183 -18.189788 -30.179993 41.512545 -0.692101 2.384752 0.091054 -0.026536 -364702.000000 0 0 1
21.228383 -17.161288 -30.798343 41.154489 -0.679849 2.416381 0.097457 -0.031677 -23431.400000 0 0 1
19.941083 -17.781388 -31.407643 41.234265 -0.728208 2.436711 0.084567 -0.025793 -67572.900000 0 0 1
20.058283 -18.263988 -32.691063 42.480744 -0.738611 2.448933 0.080586 -0.025821 -176204.000000 0 0 1
18.903483 -18.956888 -33.018023 42.507589 -0.786809 2.460295 0.095181 -0.029933 -552517.000000 0 0 1
19.115983 -19.805688 33.553568 43.399631 -0.803117 0.687035 0.102047 -0.027559 319024.000000 0 0 1
20.059383 -20.825588 33.908184 44.562865 -0.804136 0.706087 0.094370 -0.019670 430116.000000 0 0 1
20.349683 -21.540988 32.734099 44.154785 -0.813829 0.735718 0.088238 -0.022335 -174122.000000 0 0 1
21.151983 -22.810488 33.009112 45.357758 -0.823106 0.755761 0.074026 -0.022574 -390391.000000 0 0 1
20.510883 -23.772888 33.780617 46.119157 -0.858927 0.748862 0.089828 -0.026250 -131951.000000 0 0 1
20.706183 -23.550388 -32.657673 45.275715 -0.849576 2.376483 0.097348 -0.029895 -125511.000000 0 0 1
19.844983 -24.466788 -31.770723 44.741769 -0.889324 2.360424 0.101952 -0.034019 -177102.000000 0 0 1
20.138683 -25.849958 -31.889843 45.724709 -0.908954 2.342603 0.113537 -0.049422 222036.000000 0 0 1
21.204983 -26.323128 -31.065883 45.909122 -0.892671 2.314043 0.091846 -0.046345 298125.000000 0 0 1
21.118983 -27.899168 -31.073483 46.796756 -0.922846 2.296964 0.097872 -0.052387 198799.000000 0 0 1
19.845783 -28.318508 -30.622613 46.190231 -0.959530 2.295572 0.111521 -0.053027 23677.800000 0 0 1
19.853783 -29.767998 -30.611413 47.088906 -0.982597 2.278482 0.107890 -0.051393 642818.000000 0 0 1
18.444683 -30.343248 -30.241653 46.642005 -1.024612 2.276248 0.147384 -0.061071 542164.000000 0 0 1
17.399983 -30.242228 -31.155353 46.776146 -1.048696 2.299700 0.157680 -0.067871 -246741.000000 0 0 1
17.300683 -31.408178 -31.944153 48.023080 -1.067313 2.298536 0.161803 -0.060340 -365945.000000 0 0 1
15.834683 -31.775358 -32.237543 47.954872 -1.108484 2.308037 0.161370 -0.062423 -161746.000000 0 0 1
15.159483 -30.855898 -33.048593 47.687586 -1.114133 2.336470 0.164038 -0.059657 -1100600.000000 0 0 1
13.837083 -31.202588 -33.208743 47.622337 -1.153395 2.342469 0.117127 -0.046088 -791822.000000 0 0 1
12.914183 -30.211528 33.904524 47.212597 -1.166845 0.769693 0.111937 -0.034622 100342.000000 0 0 1
12.297183 -29.191858 -33.136393 45.841093 -1.172103 2.378719 0.120515 -0.042168 -212729.000000 0 0 1
11.517383 -28.474968 33.787351 45.662446 -1.186439 0.737819 0.101678 -0.037134 -528990.000000 0 0 1
10.426883 -27.618498 -33.381013 44.562241 -1.209807 2.417480 0.104548 -0.036792 -716849.000000 0 0 1
9.336483 -28.327558 -32.938463 44.436053 -1.252418 2.405735 0.096968 -0.025339 -921902.000000 0 0 1
8.505683 -27.470688 -32.194353 43.167832 -1.270530 2.412524 0.049255 -0.017890 88047.700000 0 0 1
7.331483 -28.101398 -31.390563 42.764549 -1.315591 2.395037 0.040126 -0.011703 769869.000000 0 0 1
6.278283 -28.718998 -32.149023 43.563257 -1.355571 2.400876 0.041244 -0.012006 662172.000000 0 0 1
6.628483 -29.993418 -32.572463 44.771724 -1.353294 2.385501 0.039898 -0.013823 -682702.000000 0 0 1
5.349383 -30.758958 -32.928033 45.376037 -1.398606 2.382804 0.054613 -0.017776 68690.500000 0 0 1
4.732083 -31.191218 -31.700723 44.723825 -1.420232 2.358607 0.060952 -0.026177 204962.000000 0 0 1
3.825383 -32.256368 -31.875893 45.510212 -1.452755 2.346771 0.083374 -0.048527 -200135.000000 0 0 1
2.943283 -32.577368 -30.594083 44.787786 -1.480693 2.322781 0.065777 -0.048395 1356820.000000 0 0 1
1.882383 -31.671428 -30.192483 43.797360 -1.511431 2.331412 0.064460 -0.044076 1911630.000000 0 0 1
0.737183 -31.510108 -31.083173 44.267302 -1.547405 2.349237 0.052680 -0.007811 525727.000000 0 0 1
-0.188617 -30.387548 -30.657153 43.165955 1.564589 2.360601 0.048229 -0.004975 -129246.000000 0 0 1
-0.968417 -30.689498 -29.500313 42.579944 1.539251 2.336191 0.039263 -0.015166 284265.000000 0 0 1
-1.642717 -29.541978 -28.932463 41.382537 1.515247 2.345000 0.069045 -0.016792 310398.000000 0 0 1
-2.320717 -29.713388 -27.573643 40.602672 1.492851 2.317345 0.067651 -0.019568 501253.000000 0 0 1
-1.364117 -29.897628 -26.504223 39.977529 1.525202 2.295586 0.051078 -0.017515 404238.000000 0 0 1
-2.079917 -29.960808 -25.311743 39.276716 1.501486 2.271096 0.063701 -0.018831 -19897.900000 0 0 1
-1.189117 -30.237908 -24.078623 38.672021 1.531491 2.242904 0.047664 -0.019139 75975.400000 0 0 1
-1.849717 -30.492578 -22.840323 38.143140 1.510209 2.212805 0.070347 -0.028505 -435523.000000 0 0 1
-0.889917 -30.764978 -21.854223 37.747621 1.541878 2.188244 0.065490 -0.023212 9024.130000 0 0 1
-1.384317 -30.716048 -20.375623 36.885742 1.525759 2.156035 0.047692 -0.016019 2321.510000 0 0 1
-1.496517 -29.444288 -19.830523 35.531047 1.520015 2.162912 0.048031 -0.020380 -349524.000000 0 0 1
-0.286117 -29.006188 -19.286423 34.833991 1.560933 2.157557 0.060511 -0.028567 -213733.000000 0 0 1
-0.450317 -27.604518 -18.699523 33.344930 1.554485 2.166137 0.055990 -0.027937 389674.000000 0 0 1
-1.283717 -27.700798 -17.516323 32.799447 1.524487 2.134172 0.062263 -0.031716 476776.000000 0 0 1
-1.453517 -26.423378 -16.957723 31.430431 1.515843 2.140677 0.072131 -0.030826 226948.000000 0 0 1
-2.130917 -26.376258 -15.530823 30.683127 1.490182 2.101532 0.073537 -0.029476 71609.800000 0 0 1
-2.036117 -25.081088 -14.910623 29.249503 1.489793 2.105718 0.066135 -0.022590 378490.000000 0 0 1
-2.839717 -25.025868 -13.730223 28.685834 1.457808 2.069903 0.065829 -0.023433 -43606.400000 0 0 1
-2.630817 -23.706888 -12.957923 27.144898 1.460276 2.068446 0.065125 -0.015704 -229536.000000 0 0 1
-1.451717 -23.815388 -12.214323 26.804289 1.509915 2.043938 0.076779 -0.025802 -621804.000000 0 0 1
-1.144517 -22.630588 -11.554223 25.435281 1.520265 2.042337 0.069268 -0.019624 229698.000000 0 0 1
0.143683 -22.645088 -10.687023 25.040630 -1.564451 2.011734 0.080447 -0.027299 325263.000000 0 0 1
0.398483 -21.346888 -10.175523 23.651421 -1.552131 2.015543 0.064049 -0.021137 585202.000000 0 1 0
1.662183 -21.340288 -9.480523 23.410491 -1.493064 1.987741 0.062665 -0.020488 911603.000000 0 1 0
2.079183 -19.921188 -9.099623 21.999543 -1.466802 1.997231 0.046546 -0.013639 -925968.000000 0 1 0
2.306083 -19.087488 -10.240823 21.783587 -1.450563 2.060219 0.044667 -0.006975 654743.000000 0 1 0
3.364783 -18.141388 -9.965123 20.969869 -1.387405 2.066001 0.032336 -0.009391 2282830.000000 0 1 0
4.867683 -18.654088 -9.756723 21.607013 -1.315544 2.039302 0.054725 -0.016330 1102750.000000 0 1 0
4.945783 -19.102588 -8.407623 21.448957 -1.317453 1.973582 0.050357 -0.016324 -784144.000000 0 1 0
6.033583 -19.957688 -8.360723 22.463640 -1.277214 1.952163 0.054782 -0.009528 -796276.000000 0 1 0
5.779183 -21.085388 -7.315123 23.054361 -1.303281 1.893676 0.054982 -0.007756 99093.100000 0 1 0
4.752083 -21.918588 -7.825223 23.753756 -1.357295 1.906497 0.061185 -0.023786 55969.900000 0 1 0
4.482483 -23.049888 -7.000623 24.503035 -1.378725 1.860538 0.075170 -0.021135 -114396.000000 0 1 0
3.728283 -24.120888 -7.764923 25.612719 -1.417443 1.878810 0.080922 -0.017410 95288.800000 0 0 1
4.391883 -24.647188 -8.894523 26.568498 -1.394457 1.912165 0.095749 -0.029187 -518728.000000 0 0 1
3.526583 -25.572928 -9.434423 27.484901 -1.433758 1.921180 0.100200 -0.040093 -173130.000000 0 0 1
4.129383 -26.639538 -10.393123 28.891760 -1.417011 1.938771 0.087595 -0.037486 232820.000000 0 0 1
4.974183 -27.572008 -9.695223 29.647183 -1.392309 1.903945 0.105130 -0.041437 -31404.000000 0 0 1
5.469983 -28.500508 -10.595423 30.894379 -1.381176 1.920859 0.113382 -0.027282 -298129.000000 0 0 1
4.873983 -29.903788 -10.566623 32.088094 -1.409228 1.906359 0.098156 -0.035005 -534782.000000 0 0 1
3.516483 -29.973318 -10.894923 32.085274 -1.454010 1.917247 0.110056 -0.033625 -367638.000000 0 0 1
3.199083 -31.365408 -10.791923 33.323994 -1.469154 1.900591 0.098026 -0.035716 251004.000000 0 0 1
1.821983 -31.747938 -11.412623 33.786080 -1.513470 1.915365 0.082707 -0.043879 172215.000000 0 0 1
1.763083 -31.535688 -12.785223 34.074478 -1.514947 1.955424 0.087531 -0.047436 297171.000000 0 0 1
1.473983 -32.698218 -13.475023 35.396643 -1.525748 1.961335 0.086490 -0.041920 -214311.000000 0 0 1
0.993783 -32.471898 -14.951823 35.762673 -1.540201 2.002132 0.093968 -0.039118 -489223.000000 0 0 1
-0.241117 -31.846868 -15.039223 35.220156 1.563225 2.011976 0.097075 -0.032903 -506358.000000 0 0 1
-0.691317 -31.547338 -16.349323 35.538892 1.548886 2.048837 0.065914 -0.030973 -461381.000000 0 0 1
-1.932217 -30.671718 -16.351523 34.811781 1.507883 2.059761 0.072444 -0.020565 -661493.000000 0 0 1
-3.097717 -31.286558 -15.899723 35.231318 1.472107 2.039012 0.088929 -0.029565 -440599.000000 0 0 1
-4.087417 -31.375728 -16.907523 35.874889 1.441253 2.061551 0.097803 -0.019481 -574841.000000 0 0 1
-5.521917 -31.336088 -16.422323 35.806908 1.396371 2.047256 0.111751 -0.029155 -1126750.000000 0 0 1
-5.842117 -30.051248 -15.959123 34.523926 1.378786 2.051342 0.093184 -0.018358 1285430.000000 0 0 1
-7.209217 -29.828738 -15.509623 34.384224 1.333657 2.038758 0.097356 -0.031293 1462000.000000 0 0 1
-7.826217 -30.659208 -14.348923 34.743752 1.320869 1.996534 0.097297 -0.037832 -205194.000000 0 0 1
-8.233817 -31.959998 -14.705923 36.131723 1.318651 1.989973 0.117801 -0.034294 53950.200000 0 0 1
-9.247217 -32.412488 -13.826623 36.431524 1.292882 1.960078 0.101371 -0.026658 47510.700000 0 0 1
-9.490217 -33.904758 -13.927123 37.862404 1.297873 1.947476 0.154547 -0.039668 406498.000000 0 0 1
-8.358317 33.127452 -13.783423 36.841176 -1.323647 1.954256 0.147498 -0.040819 541687.000000 0 0 1
-8.494817 31.959079 -14.587723 36.143412 -1.311000 1.986252 0.174055 -0.047810 -69999.800000 0 0 1
-8.096617 -22.189488 -3.232623 23.840689 1.220923 1.706808 0.084401 -0.019883 369748.000000 0 1 0
-7.533817 -21.175388 -4.079723 22.842933 1.228980 1.750359 0.055773 -0.016575 188550.000000 0 1 0
-6.317617 -21.392588 -4.770923 22.810454 1.283640 1.781507 0.045590 -0.005040 500223.000000 0 1 0
-6.039217 -20.262588 -5.773223 21.917453 1.281132 1.837349 0.041487 -0.018582 311407.000000 0 1 0
-6.967117 -20.312588 -6.847423 22.539502 1.240376 1.879471 0.055267 -0.024464 21713.000000 0 1 0
-6.711317 -19.302888 -7.801923 21.874946 1.236186 1.935487 0.032681 -0.015917 -375793.000000 0 1 0
-7.642717 -19.412688 -9.017323 22.728302 1.195735 1.978764 0.036282 -0.026014 64604.200000 0 1 0
-7.223317 -20.317388 -10.004523 23.771055 1.229209 2.005200 0.041207 -0.017132 374165.000000 0 1 0
-8.232817 -20.302288 -11.034623 24.530085 1.185547 2.037383 0.073409 -0.017775 635867.000000 0 1 0
-7.964417 -21.198588 -12.238723 25.740987 1.211408 2.066279 0.072968 -0.018040 -128420.000000 0 0 1
-6.818917 -20.866688 -12.992923 25.509456 1.254951 2.105211 0.073844 -0.008727 -188236.000000 0 0 1
-6.788117 -21.441888 -14.269723 26.635655 1.264197 2.136177 0.061599 -0.006942 256285.000000 0 0 1
-5.633817 -20.738688 -15.034423 26.227218 1.305540 2.181248 0.052730 -0.004746 426590.000000 0 0 1
-4.338817 -20.866188 -14.425323 25.735444 1.365782 2.165814 0.043948 -0.006828 774365.000000 0 0 1
-3.283617 -20.240288 -15.138623 25.487827 1.409966 2.206762 0.050547 -0.002595 166794.000000 0 0 1
-3.261817 -18.690888 -15.360723 24.411894 1.398023 2.251360 0.054326 0.003439 -1219120.000000 0 1 0
-4.287417 -18.133888 -16.115023 24.635621 1.338629 2.283835 0.063472 0.002469 -459375.000000 0 1 0
-4.262417 -18.369588 -17.564723 25.770709 1.342795 2.320712 0.080817 -0.010264 -1323800.000000 0 0 1
-5.570017 -18.133588 -18.285423 26.347842 1.272779 2.337827 0.074943 -0.000518 -825419.000000 0 0 1
-6.520117 -19.028888 -17.755623 26.830443 1.240691 2.293976 0.064891 -0.005599 -25037.200000 0 0 1
-7.772117 -18.886188 -18.431823 27.510471 1.180395 2.304996 0.062889 -0.013086 97300.800000 0 0 1
-8.787117 -19.854188 -17.849123 28.106821 1.154128 2.258864 0.083265 -0.017071 -540135.000000 0 0 1
-8.542917 -21.195588 -18.201923 29.215482 1.187662 2.243398 0.074036 -0.010175 422356.000000 0 0 1
-9.454717 -22.138588 -17.638223 29.843185 1.167174 2.203132 0.093221 -0.015773 210715.000000 0 0 1
-9.064017 -23.579188 -18.019123 31.029394 1.203804 2.190399 0.102374 -0.026738 -604269.000000 0 0 1
-9.271617 -23.871688 -19.383623 32.117678 1.200335 2.218703 0.097687 -0.029644 363108.000000 0 0 1
-8.422217 -24.856988 -19.948123 32.965606 1.244110 2.220712 0.120347 -0.041650 1473790.000000 0 0 1
-6.840217 -24.693588 -19.970323 32.486546 1.300568 2.232835 0.107981 -0.036342 947043.000000 0 0 1
-6.246317 -23.631388 -20.745323 32.059747 1.312383 2.274549 0.132257 -0.038425 436422.000000 0 0 1
-5.902017 -22.407688 -20.034123 30.631754 1.313253 2.283698 0.107848 -0.036504 -524320.000000 0 0 1
-4.943517 -22.479888 -18.874423 29.766215 1.354333 2.257626 0.107525 -0.026081 436280.000000 0 0 1
-3.607417 -22.976888 -19.138323 30.120197 1.415066 2.259321 0.085522 -0.035284 881536.000000 0 0 1
-2.788117 -22.600588 -18.084323 29.079252 1.448052 2.241960 0.052554 -0.027210 -367313.000000 0 0 1
-1.295917 -22.927888 -18.257223 29.337581 1.514335 2.242493 0.068970 -0.031804 -132876.000000 0 0 1
-0.550317 -22.064588 -19.129523 29.207662 1.545860 2.284911 0.084091 -0.036569 286598.000000 0 0 1
0.787183 -22.575888 -19.045823 29.547145 -1.535942 2.271284 0.067035 -0.036452 270273.000000 0 0 1
1.743083 -21.837788 -19.979623 29.649834 -1.491146 2.310207 0.061675 -0.033521 -296395.000000 0 0 1
1.382783 -21.814088 -21.329423 30.540315 -1.507492 2.343959 0.055765 -0.040025 -1186670.000000 0 0 1
2.380883 -21.350588 -22.137923 30.848077 -1.459741 2.371209 0.029919 -0.038398 -1412440.000000 0 0 1
2.121983 -21.419088 -23.617823 31.954369 -1.472049 2.402546 0.058338 -0.044526 -537833.000000 0 0 1
1.347283 -20.455288 -24.263723 31.764166 -1.505027 2.440086 0.050529 -0.040774 -401619.000000 0 0 1
-0.019417 -20.496088 -23.919623 31.499815 1.569849 2.433122 0.074491 -0.042630 -420931.000000 0 0 1
-0.880317 -19.423388 -24.635623 31.384023 1.525505 2.473450 0.098779 -0.040934 -294731.000000 0 0 1
-0.492517 -18.106688 -24.301923 30.309704 1.543602 2.501076 0.049925 -0.034459 -203735.000000 0 0 1
-1.291017 -17.088588 -24.862423 30.196467 1.495391 2.538094 0.079008 -0.043301 -27231.600000 0 0 1
-0.800317 -15.646788 -24.475623 29.060602 1.519692 2.572197 0.061272 -0.016071 256872.000000 0 0 1
0.324583 -15.292988 -25.262453 29.532564 -1.549575 2.597138 0.070238 -0.022609 -78577.200000 0 0 1
1.001483 -14.106288 -24.830623 28.575342 -1.499920 2.623879 0.066557 -0.018505 243826.000000 0 0 1
0.523183 -12.797588 -25.471353 28.510381 -1.529938 2.675667 0.063468 -0.003645 -70980.600000 0 0 1
1.263683 -11.624688 -25.177413 27.760266 -1.462515 2.706803 0.046787 -0.003347 -5563.330000 0 0 1
0.720883 -10.487288 -25.811093 27.869614 -1.502166 2.754836 0.050275 -0.001687 -939961.000000 0 0 1
1.403083 -9.156488 -25.496103 27.126761 -1.418745 2.793097 0.059717 -0.006204 724336.000000 0 0 1
2.792883 -9.023688 -25.820173 27.493790 -1.270642 2.790878 0.072155 -0.015940 636567.000000 0 0 1
3.075683 -9.161288 -27.235253 28.898928 -1.246894 2.800624 0.075018 -0.016716 513757.000000 0 0 1
4.555783 -8.817688 -27.686773 29.411973 -1.093906 2.797386 0.100649 -0.022843 242125.000000 0 0 1
4.580683 -7.486388 -28.061383 29.401868 -1.021696 2.838467 0.102509 -0.018909 670077.000000 0 0 1
5.853683 -7.029488 -28.562403 29.991502 -0.876413 2.831646 0.112812 -0.021611 -45486.300000 0 0 1
6.949883 -6.888588 -27.487243 29.177081 -0.780969 2.799585 0.122842 -0.028105 -509586.000000 0 0 1
7.644783 -8.091888 -27.132013 29.326907 -0.813802 2.752247 0.092617 -0.027688 97255.600000 0 0 1
8.543983 -8.550488 -28.089583 30.579980 -0.785779 2.735221 0.107891 -0.036616 -902025.000000 0 0 1
9.134183 -9.970688 -27.706153 30.829837 -0.829155 2.687547 0.101501 -0.028665 -880.971000 0 0 1
8.116083 -10.943088 -27.571633 30.754137 -0.932652 2.682642 0.104844 -0.040732 108640.000000 0 0 1
8.265383 -11.977288 -26.627863 30.344935 -0.966754 2.641433 0.095929 -0.042867 -460322.000000 0 0 1
9.158783 -13.130888 -27.102783 31.477998 -0.961751 2.608043 0.093532 -0.049643 -189642.000000 0 0 1
8.536883 -13.902588 -28.117383 32.507654 -1.020110 2.615840 0.099875 -0.056193 -78846.700000 0 0 1
9.288883 -15.055588 -28.383973 33.445538 -1.017990 2.584248 0.098760 -0.056557 -21460.900000 0 0 1
8.719583 -15.816488 -29.609203 34.682810 -1.066958 2.593873 0.076776 -0.054939 -35624.800000 0 0 1
8.905983 -15.120888 -30.844053 35.486806 -1.038515 2.624317 0.086207 -0.050479 75128.700000 0 0 1
8.210383 -15.709688 -31.882533 36.478769 -1.089208 2.634175 0.098293 -0.047929 -812610.000000 0 0 1
6.988183 -14.967788 -32.420253 36.386016 -1.133993 2.670358 0.111156 -0.043575 -320009.000000 0 0 1
7.288283 -13.840188 -33.284103 36.776370 -1.086094 2.702271 0.137785 -0.045694 -235020.000000 0 0 1
6.159683 -13.215588 -33.822733 36.831654 -1.134641 2.734576 0.109982 -0.048485 -342988.000000 0 0 1
6.518383 -11.951788 33.261636 35.939824 -1.071500 0.388492 0.149583 -0.042040 -388726.000000 0 0 1
7.081583 -12.158388 32.056831 35.008793 -1.043386 0.413601 0.149505 -0.037903 -111159.000000 0 0 1
7.159583 -10.939088 31.293824 33.914992 -0.991267 0.395735 0.155550 -0.039681 -369154.000000 0 0 1
7.696083 -11.194088 29.888234 32.830532 -0.968500 0.426597 0.153020 -0.036288 -9159.030000 0 0 1
6.714283 -11.613988 28.985044 31.938990 -1.046620 0.433472 0.147890 -0.027564 268116.000000 0 0 1
7.376383 -11.803888 27.719184 31.017672 -1.012261 0.465365 0.127492 -0.031397 272040.000000 0 0 1
6.512083 -12.396888 26.600604 30.061307 -1.087114 0.484563 0.113662 -0.031357 68911.200000 0 0 1
6.205683 -13.808788 26.799774 30.780205 -1.148441 0.514209 0.117762 -0.025422 121334.000000 0 0 1
5.758783 -14.374388 25.537574 29.865604 -1.189749 0.545085 0.087234 -0.024150 -393098.000000 0 0 1
4.359683 -14.971088 25.459724 29.855282 -1.287426 0.549528 0.090662 -0.032639 -417056.000000 0 0 1
3.366383 -13.981188 25.532314 29.303672 -1.334514 0.512950 0.087337 -0.039389 625121.000000 0 0 1
2.087883 -14.425188 25.017874 28.954090 -1.427056 0.527530 0.079072 -0.033888 454832.000000 0 0 1
1.140783 -13.315388 24.692494 28.077040 -1.485331 0.496080 0.066025 -0.030485 -1088150.000000 0 0 1
1.533083 -12.394488 23.667004 26.760059 -1.447731 0.485557 0.042994 -0.015845 15592.100000 0 0 1
0.644683 -11.304588 23.420554 26.014067 -1.513830 0.450330 0.039675 -0.006056 614639.000000 0 0 1
-0.804417 -11.609688 22.951014 25.732877 1.501618 0.469279 0.036072 -0.007351 -70680.600000 0 0 1
-0.863917 -12.305888 21.696624 24.958460 1.500708 0.516993 0.027797 -0.006967 -383061.000000 0 1 0
-2.176017 -12.719288 21.439624 25.023445 1.401357 0.541801 0.042894 -0.016782 -253535.000000 0 0 1
-2.208517 -13.585388 20.145624 24.398493 1.409641 0.599370 0.056880 -0.019686 106301.000000 0 1 0
-1.451717 -14.788888 20.163324 25.047521 1.472947 0.635116 0.073297 -0.021931 -186336.000000 0 0 1
-1.421417 -15.577788 19.000424 24.611055 1.479802 0.688771 0.079510 -0.025564 -385942.000000 0 1 0
-2.514117 -16.639488 18.842524 25.263295 1.420837 0.728993 0.070043 -0.029689 -272303.000000 0 0 1
-2.299117 -17.540488 17.784724 25.084877 1.440464 0.782743 0.058965 -0.033009 -223752.000000 0 0 1
-3.276817 -18.573688 17.818924 25.946743 1.396171 0.813788 0.074943 -0.028342 153244.000000 0 0 1
-2.838717 -19.914888 17.202724 26.468751 1.429208 0.863310 0.071006 -0.025324 -389885.000000 0 0 1
-1.806917 -20.567088 17.854824 27.295875 1.483167 0.857775 0.078745 -0.032581 -746319.000000 0 0 1
-1.812917 -21.937388 17.540224 28.145961 1.488343 0.897984 0.082907 -0.045348 -210864.000000 0 0 1
-0.666217 -22.816588 18.075524 29.116406 1.541606 0.901031 0.102303 -0.037798 -176262.000000 0 0 1
0.527783 -22.623888 17.362624 28.523316 -1.547472 0.916354 0.116487 -0.046629 -409160.000000 0 0 1
1.519183 -23.497888 17.914724 29.587092 -1.506234 0.920413 0.120326 -0.044965 -156634.000000 0 0 1
2.804783 -23.464688 17.093624 29.165911 -1.451829 0.944581 0.118097 -0.053595 -570907.000000 0 0 1
3.460983 -22.259188 17.201224 28.343111 -1.416546 0.918651 0.106208 -0.035056 232731.000000 0 0 1
4.743683 -22.201188 16.554624 28.097168 -1.360294 0.940738 0.086630 -0.031442 870129.000000 0 0 1
5.325483 -20.804888 16.792724 27.261690 -1.320204 0.907164 0.077426 -0.026689 -480759.000000 0 0 1
5.643983 -20.540188 18.182924 28.006653 -1.302637 0.864217 0.072906 -0.025650 73370.600000 0 0 1
6.189683 -19.277488 18.543724 27.455481 -1.260111 0.829275 0.062877 -0.010151 1071400.000000 0 0 1
7.464383 -18.726588 17.812724 26.901585 -1.191499 0.847120 0.080870 -0.016183 367371.000000 0 0 1
6.999783 -18.163888 16.574924 25.566617 -1.202967 0.865442 0.074342 -0.015344 407889.000000 0 0 1
8.056483 -17.704988 15.752624 25.030355 -1.143759 0.890092 0.090089 -0.016409 72125.700000 0 0 1
7.546183 -16.815588 14.608724 23.518582 -1.148973 0.900579 0.066294 -0.006892 434721.000000 0 1 0
6.484983 -17.429488 13.862224 23.194898 -1.214597 0.930241 0.058789 -0.002431 633191.000000 0 1 0
5.810783 -16.604688 12.927924 21.831447 -1.234168 0.937047 0.041806 -0.003859 177085.000000 0 1 0
6.465183 -16.665588 11.532024 21.272705 -1.200733 0.997857 0.048415 -0.006047 -195044.000000 0 1 0
7.830083 -16.358688 11.520724 21.485901 -1.124374 1.004868 0.056895 -0.000412 -469706.000000 0 1 0
8.482383 -16.775688 10.339424 21.454096 -1.102651 1.067938 0.062868 -0.001100 588852.000000 0 1 0
9.729083 -15.892388 10.021724 21.157930 -1.021465 1.077351 0.054742 -0.004683 610488.000000 0 1 0
10.443483 -16.414788 8.935024 21.409023 -1.004166 1.140271 0.059310 -0.003924 -644058.000000 0 1 0
11.685783 -15.827688 8.664424 21.497569 -0.934817 1.155958 0.060826 -0.009058 365556.000000 0 1 0
12.620783 -16.781388 7.821524 22.407039 -0.925972 1.214223 0.064486 -0.013740 311086.000000 0 1 0
12.986883 -17.936488 8.545124 23.735962 -0.944112 1.202520 0.077097 -0.014974 158566.000000 0 1 0
13.884183 -18.715788 7.765324 24.563215 -0.932536 1.249142 0.072577 -0.011717 374477.000000 0 1 0
14.437383 -20.049388 8.405024 26.097134 -0.946713 1.242884 0.074968 -0.010552 -320652.000000 0 0 1
13.453283 -20.961088 8.751224 26.399658 -1.000192 1.232914 0.082540 -0.008376 -478314.000000 0 0 1
13.981883 -22.201188 9.172824 27.794361 -1.008766 1.234467 0.065516 -0.008008 -47199.000000 0 0 1
12.995583 -22.997288 10.027924 28.254552 -1.056440 1.207975 0.083450 -0.017810 25870.200000 0 0 1
12.843983 -22.477588 11.330524 28.259346 -1.051662 1.158245 0.091721 -0.018208 -502639.000000 0 0 1
12.030583 -23.192988 12.211024 28.840228 -1.092288 1.133599 0.102796 -0.023469 -317542.000000 0 0 1
12.477183 -24.620588 12.566024 30.327519 -1.101741 1.143574 0.082887 -0.027973 -375723.000000 0 0 1
13.465683 -24.727488 13.540724 31.242991 -1.072137 1.122534 0.053965 -0.023680 -365385.000000 0 0 1
13.534883 -26.024468 14.084024 32.539603 -1.091212 1.123170 0.059058 -0.039735 211774.000000 0 0 1
14.708783 -26.180058 15.100624 33.612090 -1.058915 1.104858 0.050036 -0.030342 53813.700000 0 0 1
14.547683 -25.364418 16.203324 33.429575 -1.050055 1.064776 0.048891 -0.026497 16469.700000 0 0 1
15.279283 -25.911098 17.249024 34.675212 -1.037999 1.050145 0.049236 -0.025596 -830104.000000 0 0 1
15.042483 -25.238498 18.617624 34.783243 -1.033313 1.005996 0.054131 -0.018890 -184065.000000 0 0 1
15.535383 -23.902588 18.758724 34.125820 -0.994459 0.988800 0.047960 -0.021190 709767.000000 0 0 1
16.947883 -23.885688 18.993824 34.907337 -0.953695 0.995455 0.060425 -0.019418 409386.000000 0 0 1
17.526783 -22.429588 19.056824 34.255468 -0.907492 0.980852 0.064768 -0.023496 -117132.000000 0 0 1
17.537683 -21.719988 17.828224 33.123614 -0.891533 1.002457 0.055198 -0.022489 1205900.000000 0 0 1
16.332983 -20.926388 17.626224 31.864774 -0.908061 0.984647 0.065243 -0.022019 506134.000000 0 0 1
16.679183 -19.737588 16.686924 30.760705 -0.869185 0.997415 0.054086 -0.016257 -26818.800000 0 0 1
17.450383 -18.661688 17.173724 30.784919 -0.818929 0.978989 0.057527 -0.018896 168918.000000 0 0 1
18.833483 -18.966288 17.059824 31.708954 -0.788912 1.002718 0.064000 -0.018077 -567433.000000 0 0 1
19.732983 -17.757188 17.150224 31.604407 -0.732745 0.997204 0.067417 -0.026092 -592552.000000 0 0 1
19.851883 -17.177988 18.460424 32.093111 -0.713314 0.957930 0.063666 -0.025626 72103.400000 0 0 1
20.517683 -15.950688 18.496624 31.898666 -0.660815 0.952245 0.068349 -0.031504 -566300.000000 0 0 1
20.983883 -15.505788 19.877024 32.800136 -0.636384 0.919769 0.058856 -0.020110 -896533.000000 0 0 1
22.028983 -16.263188 20.351824 34.116918 -0.635947 0.931624 0.057077 -0.025086 -829703.000000 0 0 1
22.163283 -15.910788 21.721524 34.873900 -0.622632 0.898404 0.048704 -0.015429 46162.100000 0 0 1
34.695651 -1.031488 -7.726323 35.560487 -0.029721 1.789816 0.128921 -0.017321 470065.000000 0 0 1
35.998951 -0.951988 -8.296723 36.954923 -0.026439 1.797236 0.162323 -0.023779 434593.000000 0 0 1
36.870291 -1.918488 -7.739123 37.722579 -0.051987 1.777422 0.182864 -0.033950 -361752.000000 0 0 1
-36.255757 -1.910888 -8.331723 37.249819 0.052657 1.796376 0.191332 -0.033889 -92886.000000 0 0 1
-35.404312 -2.966688 -7.877023 36.391126 0.083599 1.788978 0.190103 -0.027867 578771.000000 0 0 1
-34.121467 -2.939288 -8.478023 35.281593 0.085930 1.813467 0.249340 -0.032249 -28373.300000 0 0 1
-33.050807 -3.885188 -7.972623 34.220071 0.117015 1.805938 0.238225 -0.028204 -196973.000000 0 0 1
-32.575967 -3.602588 -6.628023 33.438046 0.110143 1.770336 0.227784 -0.036763 10385.500000 0 0 1
-31.559247 -4.513288 -6.338223 32.504290 0.142047 1.767050 0.225310 -0.037902 -275786.000000 0 0 1
-31.078297 -4.310788 -4.871823 31.751820 0.137828 1.724839 0.217588 -0.052265 35464.400000 0 0 1
-30.390847 -3.105388 -4.608523 30.894749 0.101828 1.720524 0.219451 -0.053640 505745.000000 0 0 1
-29.976697 -2.952188 -3.232323 30.294648 0.098166 1.677696 0.216072 -0.058248 -131797.000000 0 0 1
-29.624347 -1.555388 -2.710623 29.788733 0.052456 1.661917 0.236222 -0.059903 -896589.000000 0 0 1
-28.248027 -1.358388 -2.682823 28.407636 0.048051 1.665377 0.207344 -0.050624 -319501.000000 0 0 1
-27.945467 -0.051888 -2.243423 28.035420 0.001857 1.650903 0.217824 -0.059444 -441410.000000 0 0 1
-26.487417 0.296412 -1.950723 26.560806 -0.011190 1.644306 0.201387 -0.040340 -349313.000000 0 0 1
-25.913797 -0.274288 -0.800423 25.927606 0.010584 1.601673 0.189148 -0.045159 93443.800000 0 0 1
-24.507917 -0.345088 -0.880423 24.526154 0.014080 1.606701 0.143598 -0.041536 309517.000000 0 1 0
-23.859217 -1.128888 0.333377 23.888235 0.047279 1.556840 0.116677 -0.047088 -93948.000000 0 1 0
-24.144417 -2.493688 0.138577 24.273248 0.102917 1.565087 0.137635 -0.041084 388455.000000 0 1 0
-23.364617 -3.381688 0.918877 23.625949 0.143737 1.531894 0.118336 -0.036307 -124256.000000 0 1 0
-23.745317 -4.870788 0.663277 24.248806 0.202320 1.543440 0.118943 -0.032335 -308852.000000 0 1 0
-24.923817 -5.296688 1.300377 25.513575 0.209400 1.519806 0.136929 -0.039769 -37873.500000 0 0 1
-25.005917 -6.682488 1.315277 25.916818 0.261134 1.520025 0.117537 -0.034028 256323.000000 0 0 1
-26.334827 -7.274388 1.883877 27.385924 0.269507 1.501952 0.141292 -0.030193 293645.000000 0 0 1
-26.478647 -6.946188 3.245377 27.566297 0.256551 1.452793 0.132656 -0.026734 594463.000000 0 0 1
-27.741937 -7.405588 3.735977 28.955402 0.260863 1.441410 0.137206 -0.017232 480874.000000 0 0 1
-27.845877 -7.692988 5.275077 29.366671 0.269547 1.390188 0.125402 -0.026406 -175223.000000 0 0 1
-27.059417 -8.755788 5.787377 29.023604 0.312944 1.370048 0.117739 -0.011247 14751.200000 0 0 1
-26.898637 -8.854288 7.239177 29.229108 0.318001 1.320522 0.108280 -0.011958 284680.000000 0 0 1
-26.169197 -7.617488 7.914377 28.381162 0.283259 1.288189 0.118146 -0.014447 239800.000000 0 0 1
-24.793917 -7.385388 7.676377 26.985349 0.289502 1.282348 0.140011 -0.023187 175449.000000 0 0 1
-24.326017 -6.134688 8.129077 26.371792 0.247035 1.257445 0.134247 -0.032339 693668.000000 0 0 1
-22.902617 -5.759588 7.573977 24.800561 0.246373 1.260443 0.131422 -0.028325 802861.000000 0 1 0
-21.853517 -6.528688 8.105877 24.205479 0.290308 1.229321 0.133582 -0.038804 102701.000000 0 1 0
-20.596517 -6.147288 7.583277 22.792800 0.290046 1.231626 0.117780 -0.032446 591478.000000 0 1 0
-19.380617 -6.331088 8.540677 22.105071 0.315743 1.174107 0.129789 -0.034110 280537.000000 0 1 0
-19.282117 -5.337188 9.560477 22.174046 0.270034 1.125023 0.120611 -0.034699 -197269.000000 0 1 0
-18.306017 -5.616488 10.508977 21.842477 0.297694 1.068858 0.125705 -0.041081 -568171.000000 0 1 0
-18.206817 -4.495988 11.571977 22.036623 0.242096 1.017935 0.128838 -0.028044 -158028.000000 0 1 0
-19.215517 -4.598688 12.528177 23.395283 0.234903 1.005696 0.131256 -0.018892 -152967.000000 0 1 0
-19.164617 -3.408688 13.332577 23.593629 0.176023 0.970251 0.117974 -0.011601 -61605.000000 0 1 0
-20.340117 -3.322988 14.296877 25.083128 0.161941 0.964315 0.108556 -0.004544 -192397.000000 0 0 1
-20.250317 -4.258188 15.346377 25.762740 0.207258 0.932683 0.107318 -0.005488 636160.000000 0 0 1
-21.507517 -4.271988 16.027477 27.160692 0.196076 0.939616 0.088865 0.008192 593759.000000 0 0 1
-21.387417 -5.125588 17.297877 27.980526 0.235218 0.904331 0.080339 0.013553 632162.000000 0 0 1
-22.579317 -5.095188 18.094777 29.380392 0.221940 0.907295 0.072108 0.013349 1129990.000000 0 0 1
-22.236517 -5.733488 19.350477 30.029594 0.252345 0.870584 0.079343 0.014645 -237704.000000 0 0 1
-23.195517 -5.336188 20.443277 31.375699 0.226118 0.861152 0.068334 0.010928 -1061250.000000 0 0 1
-22.911417 -3.992588 20.733877 31.157141 0.172529 0.842684 0.067069 0.016245 308325.000000 0 0 1
-23.272917 -3.625288 22.035377 32.254135 0.154531 0.818688 0.062573 0.002287 -104463.000000 0 0 1
-23.233017 -2.107888 22.386977 32.332538 0.090480 0.805989 0.065064 0.005349 5740.020000 0 0 1
-24.225017 -1.389288 21.682077 32.540652 0.057287 0.841551 0.081904 -0.002778 -18578.400000 0 0 1
-24.218317 -0.010188 22.022777 32.734228 0.000421 0.832843 0.088917 -0.007868 318260.000000 0 0 1
-25.470017 0.703312 21.411077 33.281386 -0.027606 0.871950 0.105801 -0.012281 593457.000000 0 0 1
-26.667067 0.352112 22.061377 34.611570 -0.013203 0.879678 0.116085 -0.017858 668656.000000 0 0 1
-27.831947 1.159012 21.766777 35.351848 -0.041619 0.907499 0.118297 -0.017361 1682640.000000 0 0 1
-28.976587 1.018212 22.852877 36.917927 -0.035125 0.903304 0.106036 -0.017962 248621.000000 0 0 1
-28.780977 1.820012 24.031077 37.538643 -0.063153 0.876078 0.101774 -0.023908 934306.000000 0 0 1
-29.972047 1.899112 24.858577 38.985627 -0.063278 0.879373 0.090649 -0.023773 623159.000000 0 0 1
-29.706257 2.695912 26.123177 39.650347 -0.090504 0.851523 0.104688 -0.027334 609778.000000 0 0 1
-28.725487 2.052712 26.981677 39.463630 -0.071338 0.817962 0.073720 -0.030771 908522.000000 0 0 1
-28.344967 2.917012 28.073377 40.000758 -0.102550 0.792846 0.071397 -0.035200 417717.000000 0 0 1
-27.031357 2.705012 28.899277 39.663328 -0.099737 0.754499 0.081183 -0.030661 372992.000000 0 0 1
-27.147837 1.769612 29.923077 40.441651 -0.065092 0.737864 0.077843 -0.025965 1255030.000000 0 0 1
-25.878757 1.653312 30.619977 40.125136 -0.063800 0.702681 0.058670 -0.032043 1009810.000000 0 0 1
-25.885997 0.513412 31.637777 40.881504 -0.019831 0.685836 0.055804 -0.031883 -95151.600000 0 0 1
-25.930657 -0.751188 30.985177 40.410945 0.028961 0.697030 0.049979 -0.036452 -290848.000000 0 0 1
-26.490267 -1.718388 31.806677 41.428877 0.064778 0.695487 0.052628 -0.035998 -610509.000000 0 0 1
-27.166917 -2.805888 30.922077 41.256384 0.102918 0.723475 0.059359 -0.028798 854322.000000 0 0 1
-28.471697 -2.486688 30.388477 41.716672 0.087118 0.754741 0.070850 -0.025832 705497.000000 0 0 1
-28.619617 -1.346588 29.563177 41.168887 0.047017 0.769735 0.070436 -0.023784 -800129.000000 0 0 1
-30.076357 -1.118188 29.109377 41.871153 0.037161 0.802080 0.089566 -0.025633 824486.000000 0 0 1
-30.988137 -0.856588 30.183077 43.266806 0.027635 0.798749 0.106511 -0.022596 -451925.000000 0 0 1
-32.322887 -0.635488 29.838277 43.994268 0.019658 0.825444 0.090766 -0.022302 -393976.000000 0 0 1
-33.098287 -0.306188 31.085977 45.408461 0.009251 0.816761 0.089377 -0.017617 -306667.000000 0 0 1
-33.496417 -1.491088 31.813377 46.220388 0.044485 0.811657 0.118726 -0.026774 32900.600000 0 0 1
-34.361890 -1.127588 32.867877 47.563729 0.032803 0.807886 0.136412 -0.022905 64776.100000 0 0 1
-34.752554 -2.353688 33.722477 48.481804 0.067624 0.801584 0.140658 -0.023766 238657.000000 0 0 1
-35.599132 -3.252188 33.003477 48.652897 0.091103 0.825288 0.115174 -0.023249 -23908.800000 0 0 1
-35.908764 -4.417688 33.746577 49.475113 0.122410 0.820177 0.103850 -0.015615 657230.000000 0 0 1
-37.230107 -5.098288 33.243777 50.171926 0.136093 0.846515 0.096737 -0.012885 532396.000000 0 0 1
36.114111 -4.479888 33.661277 49.571968 -0.123418 0.824344 0.107421 -0.021197 -377108.000000 0 0 1
34.972221 -5.124588 33.150777 48.459175 -0.145498 0.817431 0.103705 -0.017668 -201296.000000 0 0 1
33.580101 -4.750188 33.686477 47.801320 -0.140526 0.788770 0.121153 -0.018109 -221063.000000 0 0 1
33.328461 -5.229488 -32.850069 47.087800 -0.155639 2.342887 0.105928 -0.017977 121892.000000 0 0 1
32.888801 -6.550888 -32.716569 46.850413 -0.196610 2.343844 0.103613 -0.017358 624287.000000 0 0 1
31.365131 -6.840588 -33.052969 46.076717 -0.214733 2.370782 0.073030 -0.008527 1000210.000000 0 0 1
30.422651 -6.401988 -32.100969 44.687754 -0.207409 2.372209 0.070231 -0.010046 472281.000000 0 0 1
29.118701 -6.610588 -32.637569 44.235840 -0.223238 2.400614 0.071143 -0.004951 811913.000000 0 0 1
27.858701 -6.150788 -31.833069 42.746739 -0.217299 2.410867 0.076602 -0.021750 890492.000000 0 0 1
26.651201 -6.735388 -32.306369 42.418786 -0.247540 2.436583 0.050935 -0.013791 -181484.000000 0 0 1
25.589801 -6.533488 -31.431769 41.054604 -0.249976 2.442784 0.043195 -0.014023 -680169.000000 0 0 1
24.322401 -7.262688 -31.914969 40.778561 -0.290173 2.469693 0.037938 -0.022039 -354075.000000 0 0 1
24.172101 -8.698288 -31.931769 40.982784 -0.345421 2.464106 0.047001 -0.019901 29330.500000 0 0 1
24.126301 -9.271188 -30.675469 40.112563 -0.366879 2.441426 0.055998 -0.024509 -214850.000000 0 0 1
23.824801 -10.795188 -30.546569 40.215048 -0.425435 2.433464 0.065691 -0.023754 -156683.000000 0 0 1
22.587901 -11.160188 -31.099069 40.023932 -0.458899 2.460701 0.065138 -0.028667 -382634.000000 0 0 1
22.509001 -12.576288 -31.144669 40.432766 -0.509515 2.450081 0.071836 -0.029448 -992717.000000 0 0 1
21.352801 -13.162088 -31.994269 40.654839 -0.552399 2.476684 0.067820 -0.026346 535787.000000 0 0 1
20.033701 -12.816188 -31.597469 39.547489 -0.569123 2.496386 0.063735 -0.025896 172163.000000 0 0 1
19.741201 -11.432188 -31.887969 39.207812 -0.524912 2.520609 0.056287 -0.025881 -815332.000000 0 0 1
18.314801 -11.038988 -31.388569 37.980698 -0.542429 2.543542 0.060057 -0.032853 641470.000000 0 0 1
17.241101 -11.457888 -32.227369 38.303291 -0.586548 2.570616 0.055405 -0.024188 -400861.000000 0 0 1
16.070601 -11.234588 -31.515569 37.117533 -0.610106 2.585028 0.094621 -0.032026 -117864.000000 0 0 1
14.684001 -11.496788 -32.158769 37.175024 -0.664256 2.616074 0.093618 -0.027422 26702.700000 0 0 1
14.560001 -12.865788 -32.543269 37.902328 -0.723702 2.603346 0.102483 -0.033485 713484.000000 0 0 1
13.316701 -13.231288 -33.158969 38.104051 -0.782181 2.626448 0.095731 -0.038719 693136.000000 0 0 1
12.072901 -13.420288 -32.267469 36.973621 -0.838202 2.631534 0.094295 -0.040970 -209718.000000 0 0 1
11.287801 -12.259788 -32.116469 36.182654 -0.826652 2.662949 0.150732 -0.037481 -644936.000000 0 0 1
10.450601 -12.301488 -31.001569 34.951952 -0.866570 2.661553 0.144459 -0.043302 -768488.000000 0 0 1
9.232201 -11.459188 -31.318269 34.603186 -0.892614 2.702338 0.125164 -0.030294 -754524.000000 0 0 1
9.471601 -10.047088 -31.278869 34.190976 -0.814874 2.725879 0.136248 -0.025442 -180348.000000 0 0 1
8.334401 -9.342788 -31.700869 34.083647 -0.842381 2.765455 0.126076 -0.023379 -203084.000000 0 0 1
8.513701 -7.831888 -31.965969 33.994775 -0.743710 2.794366 0.130133 -0.023528 -132171.000000 0 0 1
8.626401 -6.974788 -30.843769 32.778050 -0.679926 2.796336 0.121073 -0.026738 420480.000000 0 0 1
9.200301 -5.709788 -31.206069 33.031288 -0.555435 2.807605 0.109265 -0.016361 109712.000000 0 0 1
9.431501 -4.825388 -29.997569 31.813389 -0.472904 2.802097 0.107304 -0.014019 796941.000000 0 0 1
8.128301 -4.346088 -29.629869 31.030419 -0.491010 2.840002 0.113053 -0.019635 853765.000000 0 0 1
8.225201 -3.301488 -28.693369 30.031037 -0.381701 2.842001 0.118881 -0.021159 234839.000000 0 0 1
6.838701 -2.704588 -28.401069 29.337746 -0.376606 2.888220 0.097851 -0.021242 -628040.000000 0 0 1
6.168701 -2.065788 -29.413069 30.123894 -0.323144 2.923923 0.080830 -0.011516 -236799.000000 0 0 1
4.804901 -1.820888 -29.224269 29.672556 -0.362242 2.967547 0.085347 -0.019295 89590.000000 0 0 1
3.698701 -2.893688 -29.155869 29.531653 -0.663887 2.981894 0.065380 -0.023621 -360002.000000 0 0 1
3.691801 -3.503488 -27.881669 28.342394 -0.759233 2.961038 0.075866 -0.018801 -53505.700000 0 0 1
2.630901 -4.424288 -27.928869 28.399255 -1.034320 2.959333 0.073482 -0.014643 33016.500000 0 0 1
2.625801 -5.432488 -26.731169 27.403689 -1.120556 2.919592 0.060348 -0.018409 -158053.000000 0 0 1
2.480401 -4.809188 -25.480869 26.049095 -1.094618 2.932340 0.056790 -0.022268 16847.700000 0 0 1
2.906201 -5.689588 -24.504969 25.324117 -1.098552 2.886554 0.068339 -0.029004 -145950.000000 0 0 1
2.893201 -5.176388 -23.020169 23.771701 -1.061129 2.889471 0.078899 -0.039044 -616102.000000 0 1 0
3.812801 -4.184888 -22.807369 23.499507 -0.831889 2.898286 0.077028 -0.037052 -627847.000000 0 1 0
3.713501 -3.640288 -21.541869 22.160639 -0.775443 2.904726 0.075352 -0.035511 32436.200000 0 1 0
4.745601 -2.535088 -21.168469 21.841508 -0.490630 2.892698 0.083299 -0.039477 -205885.000000 0 1 0
6.011301 -3.045888 -20.850169 21.912159 -0.468988 2.828983 0.077105 -0.040930 -534638.000000 0 1 0
6.821101 -1.983088 -20.369669 21.572748 -0.282929 2.806049 0.088990 -0.036413 858480.000000 0 1 0
8.314101 -2.437388 -20.167069 21.949392 -0.285173 2.735822 0.096831 -0.034007 373423.000000 0 1 0
9.044601 -2.611688 -21.377869 23.358917 -0.281110 2.726778 0.108598 -0.045611 775715.000000 0 1 0
10.354301 -3.171288 -21.290669 23.886423 -0.297206 2.671065 0.098474 -0.044738 1653430.000000 0 1 0
11.527801 -2.446688 -20.510569 23.655019 -0.209139 2.620088 0.093055 -0.038414 176981.000000 0 1 0
11.318601 -2.393288 -19.110069 22.339053 -0.208378 2.597226 0.080277 -0.024335 328444.000000 0 1 0
12.479601 -2.011088 -18.376669 22.304414 -0.159776 2.539060 0.082090 -0.030303 250507.000000 0 1 0
12.856201 -0.514588 -18.234069 22.316540 -0.040005 2.527099 0.076617 -0.033900 24656.700000 0 1 0
13.365301 0.084212 -19.421469 23.576086 0.006301 2.538840 0.089709 -0.035264 290793.000000 0 1 0
13.570601 1.453412 -19.159969 23.523988 0.106693 2.522640 0.117192 -0.049666 -244724.000000 0 1 0
13.893401 2.335112 -20.387769 24.781857 0.166517 2.536922 0.094681 -0.037799 -97141.200000 0 1 0
15.215701 2.212112 -20.864169 25.917649 0.144372 2.506502 0.090651 -0.031563 104693.000000 0 0 1
15.439501 3.202812 -21.793469 26.899656 0.204542 2.515249 0.088676 -0.034413 948217.000000 0 0 1
16.921801 3.144412 -22.344669 28.204945 0.183725 2.485243 0.057052 -0.023384 979277.000000 0 0 1
17.046101 2.028112 -23.184769 28.848159 0.118421 2.504255 0.047615 -0.020989 -129138.000000 0 0 1
18.278701 1.353412 -23.044769 29.444932 0.073908 2.469691 0.042774 -0.018550 -415459.000000 0 0 1
9.382483 26.410412 3.144177 28.203310 1.229446 1.459082 0.020124 -0.001901 128766.000000 0 0 1
9.389883 26.951112 4.445877 28.884220 1.235544 1.416261 0.032063 -0.007672 207252.000000 0 0 1
10.725983 26.971312 4.915177 29.439044 1.192291 1.403050 0.044436 -0.008380 63073.000000 0 0 1
10.904883 27.797512 6.248777 30.506808 1.196948 1.364504 0.041202 -0.014263 -134290.000000 0 0 1
10.438583 27.153312 7.389377 30.014484 1.203783 1.322045 0.040572 -0.019718 -42277.900000 0 0 1
10.469283 28.011712 8.528177 31.096490 1.213125 1.292988 0.044384 -0.016839 -273649.000000 0 0 1
10.281983 27.139312 9.811177 30.635284 1.208646 1.244795 0.045850 -0.021470 1417420.000000 0 0 1
11.479183 26.399312 10.269677 30.564057 1.160630 1.228124 0.065736 -0.019829 1488870.000000 0 0 1
12.046483 25.442712 9.390877 29.675544 1.128593 1.248810 0.063067 -0.026503 -305224.000000 0 0 1
13.319783 24.781612 9.916177 29.830781 1.077611 1.231934 0.065653 -0.033843 859061.000000 0 0 1
14.518483 25.589212 10.054477 31.091584 1.054717 1.241494 0.076064 -0.033244 1104270.000000 0 0 1
15.605683 24.890412 10.603677 31.233122 1.010778 1.224410 0.074703 -0.033868 172474.000000 0 0 1
16.931483 25.619012 10.838477 32.565034 0.986800 1.231498 0.070970 -0.035367 -93265.400000 0 0 1
17.695783 26.047412 9.675477 32.942727 0.974052 1.272695 0.078881 -0.035436 1153550.000000 0 0 1
19.113683 26.043712 9.828177 33.766861 0.937674 1.275462 0.101760 -0.046396 827422.000000 0 0 1
19.790983 26.915212 10.941977 35.154495 0.936764 1.254284 0.096241 -0.043361 -763919.000000 0 0 1
19.914183 28.290012 10.612977 36.187494 0.957438 1.273143 0.087043 -0.046904 -548293.000000 0 0 1
18.848783 29.048112 11.048277 36.347405 0.995208 1.261946 0.072059 -0.034863 -709060.000000 0 0 1
19.205083 30.539712 11.296577 37.803728 1.009429 1.267339 0.060884 -0.016171 -875729.000000 0 0 1
19.470883 31.419312 10.178777 38.339222 1.016010 1.302082 0.081585 -0.036135 706908.000000 0 0 1
18.423483 31.449212 9.176677 37.585756 1.040871 1.324150 0.091920 -0.036245 67665.900000 0 0 1
17.040583 31.892512 9.578977 37.406825 1.080077 1.311836 0.091486 -0.037052 -1387520.000000 0 0 1
17.025083 33.312212 9.867477 38.690102 1.098327 1.312908 0.079921 -0.033010 503757.000000 0 0 1
15.685083 33.745912 10.084877 38.555326 1.135704 1.306149 0.100961 -0.033364 688101.000000 0 0 1
15.707483 -32.638940 10.232577 37.639488 -1.122261 1.295474 0.094803 -0.041180 35757.300000 0 0 1
16.308583 -31.950940 9.175777 37.027387 -1.098843 1.320377 0.093948 -0.039556 -158274.000000 0 0 1
16.463183 -30.579840 9.379677 35.974177 -1.076928 1.307014 0.068858 -0.022701 33549.500000 0 0 1
17.373483 -29.878840 8.316077 35.549123 -1.044117 1.334676 0.053064 -0.027145 197397.000000 0 0 1
16.789583 -29.994640 7.064577 35.092404 -1.060496 1.368098 0.059537 -0.034919 76585.200000 0 0 1
17.652783 -29.460040 6.084677 34.878905 -1.030957 1.395448 0.044130 -0.014451 5811.520000 0 0 1
17.004783 -29.573640 4.734777 34.440978 -1.048964 1.432884 0.065944 -0.014409 -55288.300000 0 0 1
17.121083 -30.894340 4.128177 35.561687 -1.064748 1.454449 0.069517 -0.019703 -53248.200000 0 0 1
16.976183 -30.838240 2.755877 35.309810 -1.067576 1.492668 0.072814 -0.013268 -179063.000000 0 0 1
17.158283 -32.232140 2.132777 36.576855 -1.081617 1.512454 0.077941 -0.013352 -541871.000000 0 0 1
18.466283 -32.711040 2.206377 37.628232 -1.056868 1.512126 0.089916 -0.003315 -752608.000000 0 0 1
18.601083 -33.940840 1.602977 38.736939 -1.069456 1.529403 0.108833 -0.013746 296086.000000 0 0 1
20.021983 33.325412 1.653877 38.912699 1.029787 1.528281 0.099177 -0.015032 390466.000000 0 0 1
20.377283 32.945912 2.950977 38.850676 1.016880 1.494766 0.093595 -0.026422 662731.000000 0 0 1
21.788083 32.681812 2.952477 39.389574 0.982789 1.495770 0.091198 -0.014402 748503.000000 0 0 1
22.327283 32.339112 4.352777 39.538240 0.966535 1.460482 0.090626 -0.013249 -304431.000000 0 0 1
21.635683 31.234112 4.944377 38.316046 0.964991 1.441394 0.088756 -0.030045 200003.000000 0 0 1
22.378783 30.505012 5.915977 38.293139 0.937868 1.415683 0.073772 -0.030064 25912.500000 0 0 1
21.498583 29.605612 6.791777 37.213029 0.942724 1.387257 0.084646 -0.038045 -422671.000000 0 0 1
20.703783 28.783312 6.008877 35.961539 0.947236 1.402917 0.096328 -0.038108 -213336.000000 0 0 1
19.703483 28.236012 6.873277 35.110419 0.961539 1.373762 0.096198 -0.045529 -252094.000000 0 0 1
18.301383 28.321112 6.292177 34.301858 0.997090 1.386316 0.116155 -0.042977 -423381.000000 0 0 1
17.660183 29.628512 6.227577 35.050157 1.033284 1.392172 0.105217 -0.053069 424140.000000 0 0 1
17.976083 30.392812 5.032477 35.667750 1.036681 1.429231 0.111181 -0.047182 -189055.000000 0 0 1
17.887983 31.934312 5.123477 36.959846 1.060194 1.431726 0.113818 -0.041391 872223.000000 0 0 1
16.597883 32.497812 5.437077 36.893892 1.098595 1.422887 0.106550 -0.037770 384960.000000 0 0 1
16.631583 33.861812 5.483877 38.122234 1.114245 1.426446 0.102926 -0.039637 -63846.200000 0 0 1
15.275583 -33.339540 5.705377 37.113606 -1.141159 1.416457 0.088541 -0.037176 517308.000000 0 0 1
14.319283 -33.482540 4.637677 36.710086 -1.166671 1.444125 0.091899 -0.030392 74342.300000 0 0 1
13.476783 -32.364140 4.597177 35.358101 -1.176223 1.440410 0.093182 -0.028984 -404706.000000 0 0 1
12.361483 -32.466540 3.568277 34.922988 -1.206998 1.468442 0.085889 -0.025156 -748775.000000 0 0 1
11.489483 -31.414540 3.509577 33.633297 -1.220171 1.466258 0.092657 -0.031283 -1019790.000000 0 0 1
10.801383 -31.373140 2.340677 33.262931 -1.239220 1.500369 0.083689 -0.020737 -1184200.000000 0 0 1
9.942783 -30.078140 2.400477 31.769730 -1.251539 1.495166 0.094188 -0.023467 326983.000000 0 0 1
9.144483 -29.632740 1.285877 31.038272 -1.271474 1.529356 0.092909 -0.009152 1064170.000000 0 0 1
8.102383 -30.553940 0.857677 31.621630 -1.311580 1.543670 0.067330 -0.016836 -137579.000000 0 0 1
8.429383 -31.190640 -0.520023 32.313789 -1.306848 1.586890 0.079515 -0.016343 -846608.000000 0 0 1
9.524183 -32.017340 -0.607923 33.409425 -1.281663 1.588993 0.074858 -0.028168 -807365.000000 0 0 1
9.703283 -32.631040 -1.834223 34.092563 -1.281760 1.624624 0.067256 -0.012819 -199301.000000 0 0 1
10.954283 -33.516840 -1.924923 35.314023 -1.254911 1.625332 0.060241 -0.011946 -93622.700000 0 0 1
11.060583 33.300912 -1.054123 35.105532 1.250120 1.600828 0.059908 -0.007463 -300951.000000 0 0 1
12.353883 32.752512 -1.096923 35.022117 1.210108 1.602122 0.070851 -0.011420 -196668.000000 0 0 1
12.738783 31.688312 -0.006123 34.152975 1.188565 1.570976 0.069289 -0.014674 -899804.000000 0 0 1
12.994383 32.253512 1.314677 34.797577 1.187807 1.533007 0.076466 -0.021955 -310539.000000 0 0 1
14.254383 32.772212 1.602777 35.773932 1.160525 1.525978 0.090941 -0.023870 -1065690.000000 0 0 1
15.457083 31.862512 1.561877 35.448280 1.119125 1.526721 0.099269 -0.030663 -1281870.000000 0 0 1
15.825083 31.542612 0.227277 35.290527 1.105786 1.564356 0.096398 -0.031851 -383811.000000 0 0 1
16.503383 30.317012 0.170977 34.518286 1.072293 1.565843 0.110331 -0.025796 -157496.000000 0 0 1
17.373483 30.128112 -1.087923 34.795468 1.047720 1.602068 0.098669 -0.027989 198135.000000 0 0 1
18.453083 31.017912 -1.291523 36.115027 1.034123 1.606565 0.078986 -0.021671 97020.500000 0 0 1
18.191383 32.115912 -2.119723 36.970954 1.055427 1.628163 0.081843 -0.022807 -876417.000000 0 0 1
19.494083 32.659712 -2.637123 38.126506 1.032671 1.640019 0.092259 -0.018939 -673201.000000 0 0 1
20.392783 33.085412 -1.628823 38.899398 1.018429 1.612681 0.088410 -0.014722 410415.000000 0 0 1
21.386383 33.899412 -2.297323 40.147543 1.007982 1.628050 0.092780 -0.014799 -842809.000000 0 0 1
22.434183 -33.353640 -1.366623 40.219716 -0.978686 1.604782 0.091564 -0.005814 -311025.000000 0 0 1
23.430483 33.708412 -0.808723 41.059695 0.963371 1.590494 0.085364 -0.005329 726180.000000 0 0 1
24.244783 32.932912 -1.703023 40.930263 0.936194 1.612416 0.090493 -0.006769 -378676.000000 0 0 1
25.046483 33.678512 -2.817823 42.065527 0.931344 1.637833 0.078503 -0.011615 -963519.000000 0 0 1
24.214883 -33.629940 -3.780123 41.612772 -0.946747 1.661762 0.082581 -0.026706 178221.000000 0 0 1
24.983083 -32.969840 -4.802523 41.644076 -0.922350 1.686377 0.080219 -0.021828 66294.900000 0 0 1
24.117683 -32.533240 -5.994723 40.939114 -0.932871 1.717755 0.077071 -0.032487 -233925.000000 0 0 1
23.202583 -31.518940 -5.699523 39.551081 -0.936220 1.715405 0.090545 -0.028235 170601.000000 0 0 1
22.434483 -31.126540 -6.845923 38.974789 -0.946279 1.747362 0.091851 -0.034581 105144.000000 0 0 1
21.445583 -29.986940 -6.567523 37.446789 -0.949965 1.747091 0.103299 -0.035362 119709.000000 0 0 1
20.248583 -30.341740 -5.885323 36.949470 -0.982320 1.730758 0.099564 -0.030505 -258082.000000 0 0 1
19.490683 -29.156840 -5.937323 35.570491 -0.981541 1.738498 0.112968 -0.043395 98265.500000 0 0 1
18.168483 -29.205840 -5.140723 34.777894 -1.014297 1.719156 0.096229 -0.027965 -452163.000000 0 0 1
17.072983 -29.895740 -5.619123 34.882898 -1.051910 1.732587 0.090268 -0.031351 -318928.000000 0 0 1
16.086083 -29.854540 -4.559723 34.217638 -1.076581 1.704450 0.071010 -0.020492 -185873.000000 0 0 1
14.799383 -30.540940 -4.971623 34.299968 -1.119565 1.716254 0.056589 -0.015455 -638336.000000 0 0 1
14.960283 -31.945940 -4.908223 35.615219 -1.132829 1.709049 0.053286 -0.006380 194023.000000 0 0 1
13.685883 -32.565440 -5.030923 35.680828 -1.172949 1.712266 0.053397 -0.001368 321982.000000 0 0 1
13.810583 33.845012 -5.218223 36.924881 1.183366 1.712591 0.053888 -0.007530 -33543.300000 0 0 1
14.111483 33.233612 -3.966723 36.322745 1.169252 1.680222 0.062933 -0.014245 25853.400000 0 0 1
14.541683 31.835312 -4.045623 35.232296 1.142320 1.685877 0.069809 -0.019773 536500.000000 0 0 1
13.468983 30.735012 -4.434723 33.848504 1.157774 1.702191 0.062114 -0.017574 708603.000000 0 0 1
12.607683 30.290112 -3.387023 32.983579 1.176376 1.673666 0.056720 -0.013443 415344.000000 0 0 1
13.190683 29.186212 -2.662123 32.139010 1.146323 1.653723 0.070694 -0.021304 11543.100000 0 0 1
12.093083 28.396612 -1.939023 30.925233 1.168194 1.633538 0.051275 -0.016308 264138.000000 0 0 1
11.440383 29.077712 -0.886823 31.259913 1.195956 1.599169 0.048819 -0.014747 -415197.000000 0 0 1
10.431283 28.326912 -0.286423 30.187872 1.217960 1.580284 0.023024 -0.000854 358760.000000 0 0 1
9.272983 29.171812 0.353977 30.612222 1.263022 1.559233 0.016924 0.006856 873135.000000 0 0 1
8.185983 28.382512 0.815177 29.550665 1.290000 1.543207 0.015669 -0.001853 -103001.000000 0 0 1
7.057283 29.181512 1.076877 30.042063 1.333511 1.534943 0.024209 -0.003748 -44368.000000 0 0 1
5.902183 28.448312 1.774677 29.108275 1.366228 1.509790 0.023228 -0.003308 41865.500000 0 0 1
5.471583 27.346212 1.042377 27.907706 1.373318 1.533437 0.034859 -0.009312 -603207.000000 0 0 1
4.257083 26.876112 1.538877 27.254656 1.413705 1.514303 0.037190 -0.014301 -160614.000000 0 0 1
3.764183 25.621812 0.773277 25.908382 1.424927 1.540945 0.041606 -0.014731 605818.000000 0 0 1
2.455283 25.168612 1.120677 25.312909 1.473551 1.526509 0.058920 -0.019251 329584.000000 0 0 1
1.947883 24.378212 0.107977 24.456147 1.491063 1.566381 0.050968 -0.018207 1417680.000000 0 1 0
0.546583 23.636712 0.388977 23.646230 1.547676 1.554346 0.046199 -0.020788 1801690.000000 0 1 0
-0.547217 24.507812 0.534277 24.519742 -1.548472 1.549005 0.059654 -0.028527 -835252.000000 0 1 0
-1.741817 23.866712 0.852077 23.945352 -1.497944 1.535205 0.040731 -0.024335 -486333.000000 0 1 0
-2.874817 24.858512 1.100077 25.048360 -1.455661 1.526864 0.073852 -0.033801 -186338.000000 0 0 1
-4.072517 24.263912 1.608877 24.655857 -1.404504 1.505497 0.074942 -0.026060 310216.000000 0 1 0
-4.923917 25.237312 2.180177 25.805426 -1.378112 1.486210 0.070513 -0.024209 344057.000000 0 0 1
-6.245317 25.510712 1.408377 26.301785 -1.330707 1.517224 0.077461 -0.029980 130833.000000 0 0 1
-6.177317 26.472912 0.354877 27.186398 -1.341553 1.557742 0.088048 -0.028856 -494460.000000 0 0 1
-7.417317 26.568012 -0.276923 27.585368 -1.298546 1.580835 0.084209 -0.024340 -323310.000000 0 0 1
-7.514717 27.655612 -1.342723 28.689837 -1.305478 1.617615 0.080373 -0.016192 37902.500000 0 0 1
-7.548617 28.971912 -0.820623 29.950404 -1.315914 1.598199 0.106081 -0.027010 -57165.100000 0 0 1
-7.692717 29.895612 -1.906823 30.928328 -1.318941 1.632488 0.094197 -0.026275 -149743.000000 0 0 1
-7.616517 31.394812 -1.375523 32.334774 -1.332790 1.613349 0.076433 -0.023684 -392451.000000 0 0 1
-7.927417 32.421612 -2.322523 33.457420 -1.330991 1.640269 0.063845 -0.005534 406952.000000 0 0 1
-7.051617 32.599012 -3.473423 33.533349 -1.357765 1.674564 0.063770 -0.009920 2112900.000000 0 0 1
-5.507617 32.976812 -3.246723 33.590849 -1.405309 1.667602 0.091083 -0.010494 1193120.000000 0 0 1
-5.304217 -33.643740 -2.719923 34.167733 1.414425 1.650486 0.091237 -0.019137 49959.700000 0 0 1
-4.983617 -33.803640 -1.340123 34.195299 1.424422 1.609997 0.123852 -0.035422 -220035.000000 0 0 1
-4.710217 -32.480640 -0.549223 32.824987 1.426784 1.587529 0.132148 -0.035754 552048.000000 0 0 1
-5.832717 -31.590140 -0.409023 32.126700 1.388215 1.583528 0.110962 -0.025441 336303.000000 0 0 1
-5.872117 -30.606440 -1.393923 31.195816 1.381241 1.615494 0.120008 -0.022155 -9.468030 0 0 1
-7.263717 -29.943640 -1.424123 30.844956 1.332814 1.616983 0.128319 -0.031076 14382.600000 0 0 1
-7.485017 -29.155440 -0.283523 30.102252 1.319496 1.580215 0.114675 -0.024641 -55327.300000 0 0 1
-8.663417 -28.371440 -0.417223 29.667617 1.274432 1.584860 0.074352 -0.017821 383843.000000 0 0 1
-9.014617 -27.641840 0.884977 29.088105 1.255550 1.540368 0.074236 -0.015244 -216871.000000 0 0 1
-7.897517 -26.888640 1.257577 28.052651 1.285118 1.525952 0.096074 -0.028014 -268601.000000 0 0 1
-7.998517 -26.436340 2.566477 27.738839 1.276995 1.478141 0.106573 -0.021406 398283.000000 0 0 1
-8.828817 -25.135240 2.915777 26.799815 1.233006 1.461782 0.102805 -0.020044 224151.000000 0 0 1
-8.073517 -23.953540 2.975377 25.452046 1.245705 1.453627 0.106882 -0.025658 -115733.000000 0 0 1
-8.868217 -22.744240 3.096877 24.607649 1.199018 1.444612 0.118528 -0.036664 338505.000000 0 1 0
-8.042517 -21.496440 3.571877 23.227943 1.212786 1.416409 0.067243 -0.019747 575229.000000 0 1 0
-7.473917 -21.708540 4.874277 23.470806 1.239222 1.361600 0.079221 -0.017005 -289531.000000 0 1 0
-6.796817 -20.573740 5.317477 22.310336 1.251721 1.330139 0.048268 -0.014933 -18382.300000 0 1 0
-7.698617 -19.483140 5.995777 21.790154 1.194484 1.292040 0.056201 -0.017721 340249.000000 0 1 0
-8.426217 -19.926540 7.121777 22.776915 1.170736 1.252788 0.070202 -0.022851 -65141.200000 0 1 0
-9.176017 -18.886740 7.690277 22.361767 1.118537 1.219726 0.054886 -0.023466 -305109.000000 0 1 0
-28.177167 28.413712 -5.406123 40.379672 -0.789578 1.705082 0.130420 -0.011978 3555.890000 0 0 1
-27.505157 29.284812 -4.513923 40.429066 -0.816725 1.682680 0.116428 -0.025008 246128.000000 0 0 1
-26.282087 28.642712 -4.148623 39.094297 -0.828351 1.677115 0.103996 -0.016990 -292292.000000 0 0 1
-25.352847 29.504112 -3.354823 39.045029 -0.860929 1.656824 0.088274 -0.014028 -876535.000000 0 0 1
-25.803617 29.780912 -2.072523 39.459152 -0.856830 1.623344 0.066331 -0.022973 -80735.800000 0 0 1
-25.267687 30.986812 -1.509523 40.011463 -0.886715 1.608533 0.062766 -0.023810 -465.454000 0 0 1
-23.949117 30.834812 -0.741023 39.049903 -0.910431 1.589774 0.049225 -0.016525 354290.000000 0 0 1
-22.795117 30.555112 -1.521823 38.151647 -0.929839 1.610696 0.079276 -0.016565 1200460.000000 0 0 1
-21.566117 30.509112 -0.757723 37.369472 -0.955471 1.591074 0.071814 -0.013524 1398680.000000 0 0 1
-20.483817 29.555212 -1.415123 35.987496 -0.964737 1.610129 0.088930 -0.023929 967340.000000 0 0 1
-19.226317 29.665812 -0.731123 35.358820 -0.995760 1.591475 0.095685 -0.023503 -335819.000000 0 0 1
-18.300917 28.829812 -1.309923 34.173052 -1.005187 1.609138 0.101091 -0.024844 -614911.000000 0 0 1
-16.905617 29.225312 -0.781223 33.771719 -1.046367 1.593931 0.107480 -0.028564 -254949.000000 0 0 1
-16.563617 28.614712 0.456777 33.066052 -1.046074 1.556982 0.105486 -0.031084 -571303.000000 0 0 1
-15.319017 29.013112 0.920477 32.821947 -1.084998 1.542748 0.112916 -0.036977 -407476.000000 0 0 1
-14.704317 28.105112 1.997977 31.782167 -1.088769 1.507890 0.122160 -0.037515 -489830.000000 0 0 1
-15.439917 28.227712 3.172477 32.330471 -1.070277 1.472512 0.114978 -0.041216 -223543.000000 0 0 1
-14.864717 27.705812 4.354377 31.741651 -1.078361 1.433181 0.133591 -0.049686 128907.000000 0 0 1
-13.684017 28.490012 4.965577 31.993594 -1.123025 1.414961 0.117124 -0.040626 37199.400000 0 0 1
-14.102317 29.675812 5.637877 33.336388 -1.127175 1.400859 0.090738 -0.040016 -10936.800000 0 0 1
-14.167317 30.816912 4.760177 34.249879 -1.139884 1.431361 0.088433 -0.035299 99975.500000 0 0 1
-13.989517 32.170412 5.543977 35.515879 -1.160607 1.414057 0.096473 -0.032694 227254.000000 0 0 1
-15.126517 32.535612 6.322377 36.432815 -1.135603 1.396378 0.099359 -0.037372 183349.000000 0 0 1
-14.862417 33.605312 7.207977 37.445472 -1.154394 1.377095 0.078325 -0.033374 341941.000000 0 0 1
-16.077417 -33.818640 8.062877 38.303965 1.127021 1.358713 0.064733 -0.027815 429021.000000 0 0 1
-16.221717 33.295412 9.201377 38.162729 -1.117436 1.327288 0.045094 -0.028502 404284.000000 0 0 1
-17.355917 33.718412 9.968377 39.211321 -1.095433 1.313753 0.044918 -0.025639 -186140.000000 0 0 1
-17.519017 32.968212 11.355577 39.022661 -1.082352 1.275525 0.041985 -0.014105 332526.000000 0 0 1
-16.658217 33.372812 12.420477 39.312962 -1.107825 1.249351 0.055696 -0.022425 864651.000000 0 0 1
-15.280917 33.021012 12.238477 38.388461 -1.137379 1.246327 0.068081 -0.021366 248702.000000 0 0 1
-14.328817 33.049712 13.429877 38.444246 -1.161703 1.213936 0.069140 -0.019150 -292377.000000 0 0 1
-14.570117 32.196812 14.564077 38.223492 -1.145838 1.179892 0.055122 -0.011137 316304.000000 0 0 1
-13.857117 30.923512 14.567177 36.884765 -1.149516 1.164796 0.037632 -0.013429 235411.000000 0 0 1
-14.633717 29.745312 13.904877 35.948224 -1.113596 1.173634 0.037712 -0.013065 79654.600000 0 0 1
-14.723117 30.014712 12.506777 35.694153 -1.114753 1.212812 0.041720 -0.010747 312832.000000 0 0 1
-15.887417 29.465512 11.901077 35.528327 -1.076293 1.229218 0.038093 -0.008531 166715.000000 0 0 1
-15.864417 29.403212 10.377377 34.984547 -1.076014 1.269637 0.043841 -0.011872 -145903.000000 0 0 1
-15.152817 28.222012 9.994877 33.555735 -1.078055 1.268347 0.047607 -0.017038 268385.000000 0 0 1
-15.176417 27.973512 8.569677 32.958767 -1.073708 1.307762 0.066651 -0.023274 -672898.000000 0 0 1
-14.433517 26.743012 8.190377 31.473757 -1.075886 1.307537 0.077122 -0.029973 712039.000000 0 0 1
-13.005317 26.960312 8.167477 31.027477 -1.121338 1.304424 0.093311 -0.032879 911304.000000 0 0 1
-12.325117 25.749012 7.954177 29.634255 -1.124363 1.299053 0.103849 -0.037015 380785.000000 0 0 1
-11.032917 25.856212 7.075177 28.988395 -1.167484 1.324236 0.136806 -0.043795 331060.000000 0 0 1
-11.241317 26.214912 5.748777 29.097031 -1.165700 1.371915 0.140185 -0.041179 633989.000000 0 0 1
-10.073117 25.965112 4.954177 28.287781 -1.200722 1.394754 0.143519 -0.032435 406486.000000 0 0 1
-10.192917 26.460512 3.518377 28.573295 -1.203103 1.447348 0.136662 -0.033132 36198.500000 0 0 1
-10.174717 27.873212 3.339077 29.859508 -1.220790 1.458736 0.127028 -0.024483 56037.700000 0 0 1
-10.553017 28.235212 2.043077 30.212042 -1.213119 1.503120 0.125417 -0.025264 -66118.600000 0 0 1
-10.284017 29.672712 1.608977 31.445502 -1.237170 1.519607 0.137567 -0.031775 61884.900000 0 0 1
-11.093217 30.687512 2.173177 32.703295 -1.223923 1.504296 0.125894 -0.035153 -16350.800000 0 0 1
-10.691317 32.012712 1.848677 33.801414 -1.248472 1.516077 0.115574 -0.026797 -313064.000000 0 0 1
-11.552417 33.013312 2.685577 35.079188 -1.234182 1.494164 0.099299 -0.030280 806228.000000 0 0 1
-12.896617 33.252912 2.273277 35.738588 -1.200821 1.507145 0.108564 -0.032868 249548.000000 0 0 1
-13.070517 33.816512 0.946577 36.266939 -1.201971 1.544693 0.085876 -0.022051 -560520.000000 0 0 1
-14.571317 -33.831440 0.599577 36.840862 1.164105 1.554521 0.088042 -0.020248 509971.000000 0 0 1
-15.202917 32.901412 0.187777 36.244542 -1.137946 1.565615 0.084138 -0.018678 -351520.000000 0 0 1
-15.315917 32.749312 -1.226723 36.174571 -1.133344 1.604714 0.096291 -0.023088 -168371.000000 0 0 1
-14.088917 32.481912 -2.145523 35.470769 -1.161541 1.631320 0.090070 -0.013076 -29462.800000 0 0 1
-13.505117 31.213212 -2.058923 34.071864 -1.162444 1.631262 0.089584 -0.011462 262833.000000 0 0 1
-12.089617 31.266712 -1.963823 33.580094 -1.201842 1.629311 0.077273 -0.010333 57255.600000 0 0 1
-11.510617 29.882012 -2.208323 32.098374 -1.203111 1.639649 0.043970 -0.010952 -236866.000000 0 0 1
-11.738917 29.241812 -3.459623 31.699443 -1.189047 1.680152 0.061258 -0.023447 93085.400000 0 0 1
-10.682217 29.524712 -4.364823 31.699685 -1.223643 1.708928 0.047710 -0.012373 215345.000000 0 0 1
-10.923317 28.927512 -5.788523 31.458334 -1.209739 1.755857 0.047377 -0.008466 -111835.000000 0 0 1
-11.049817 27.508012 -5.739623 30.194907 -1.188830 1.762046 0.053066 -0.012053 89977.400000 0 0 1
-10.935017 26.953312 -7.042423 29.927434 -1.185384 1.808341 0.043124 -0.014084 -10253.500000 0 0 1
-11.563617 25.554812 -7.133823 28.942306 -1.145863 1.819847 0.065127 -0.021714 670027.000000 0 0 1
-10.592717 24.607412 -6.621323 27.596599 -1.164303 1.813093 0.029680 -0.015396 904321.000000 0 0 1
-11.111417 23.269212 -6.765923 26.658910 -1.125297 1.827399 0.089796 -0.033863 12202.000000 0 0 1
-10.495717 22.184612 -5.880523 25.236830 -1.128893 1.805972 0.065385 -0.033512 490139.000000 0 0 1
-9.083117 22.031312 -6.113623 24.601994 -1.179747 1.821929 0.057029 -0.025332 1152110.000000 0 1 0
-8.425917 20.868012 -5.512523 23.170194 -1.187043 1.811014 0.053200 -0.018106 266023.000000 0 1 0
-8.232617 20.929512 -3.936123 22.832291 -1.196036 1.744055 0.051587 -0.020032 1027670.000000 0 1 0
-9.469517 20.828612 -3.161923 23.097631 -1.144091 1.708121 0.062836 -0.024037 942036.000000 0 1 0
-10.057417 19.583612 -3.082523 22.229967 -1.096357 1.709910 0.056980 -0.022710 138893.000000 0 1 0
-11.431117 19.493412 -2.344723 22.719183 -1.040430 1.674185 0.061242 -0.024582 403215.000000 0 1 0
-11.453617 19.505012 -0.920923 22.637997 -1.039831 1.611488 0.066061 -0.023430 17310.600000 0 1 0
-11.230517 18.249312 -0.420723 21.432193 -1.019135 1.590428 0.062524 -0.020396 -196667.000000 0 1 0
-11.077117 18.218912 1.114677 21.351201 -1.024514 1.518566 0.066728 -0.020362 357341.000000 0 1 0
-12.299217 18.311712 1.844077 22.135721 -0.979346 1.487392 0.090550 -0.023037 316151.000000 0 1 0
-12.112517 18.272712 3.229577 22.159315 -0.985424 1.424532 0.088143 -0.025060 289769.000000 0 1 0
-13.465317 18.296512 4.002977 23.067313 -0.936348 1.396379 0.089950 -0.028728 379853.000000 0 1 0
-14.010717 16.972912 4.084977 22.384525 -0.880714 1.387277 0.069869 -0.030235 112281.000000 0 1 0
-15.259617 16.972412 4.732777 23.309179 -0.838488 1.366331 0.082757 -0.041226 -80568.300000 0 1 0
-15.474317 15.667012 5.535277 22.705705 -0.791586 1.324531 0.055438 -0.033324 -547373.000000 0 1 0
-14.615017 15.505012 6.640277 22.318095 -0.814938 1.268693 0.052790 -0.019827 -73296.400000 0 1 0
-15.173717 15.911512 7.884977 23.357884 -0.809128 1.226460 0.057009 -0.021745 -206165.000000 0 1 0
-14.064017 15.855012 9.015777 23.031765 -0.845188 1.168590 0.049149 -0.012806 1601970.000000 0 1 0
-12.925317 16.720612 8.821077 22.900962 -0.912726 1.175389 0.056942 -0.023542 383130.000000 0 1 0
-12.054217 16.364712 7.794877 21.768510 -0.935928 1.204585 0.053864 -0.022341 -2368900.000000 0 1 0
-10.915117 17.271712 7.616177 21.804998 -1.007204 1.213987 0.072760 -0.026194 -1470960.000000 0 1 0
-9.876817 17.227412 8.533577 21.613819 -1.050226 1.164924 0.063168 -0.029520 -522391.000000 0 1 0
-9.180817 18.464312 8.437977 22.280432 -1.109376 1.182387 0.061976 -0.031329 -780158.000000 0 1 0
-7.929717 18.545212 9.281377 22.202460 -1.166735 1.139517 0.059800 -0.027042 -799146.000000 0 1 0
-6.962917 17.686912 8.723177 20.914179 -1.195753 1.140551 0.044043 -0.025962 -342955.000000 0 1 0
-5.639417 17.734212 9.198777 20.758680 -1.262912 1.111710 0.042277 -0.029765 754260.000000 0 1 0
-4.722217 18.888012 8.636477 21.298945 -1.325807 1.153283 0.033243 -0.028427 -957057.000000 0 1 0
-5.039617 20.139912 9.062677 22.652724 -1.325601 1.159203 0.042167 -0.031639 -177148.000000 0 1 0
-4.565817 21.137612 8.184477 23.122089 -1.358060 1.208986 0.047633 -0.034477 508171.000000 0 1 0
-3.122617 21.717412 8.344177 23.473858 -1.427991 1.207383 0.040463 -0.029226 877353.000000 0 1 0
-2.042917 20.793612 8.223677 22.453879 -1.472863 1.195823 0.024794 -0.016717 89210.100000 0 1 0
-0.822017 21.510212 8.250377 23.052845 -1.532600 1.204789 0.018516 -0.011890 912900.000000 0 1 0
0.476783 20.642612 8.108377 22.183113 1.547703 1.196605 0.012963 -0.003716 765416.000000 0 1 0
0.845183 19.987912 9.293077 22.058836 1.528537 1.135934 0.017406 -0.008866 338691.000000 0 1 0
2.248683 19.693712 9.334977 21.909830 1.457106 1.130659 0.014736 -0.008894 737691.000000 0 1 0
2.783783 18.944712 10.527977 21.851541 1.424898 1.068094 0.011479 -0.030952 340586.000000 0 1 0
4.188483 18.682112 10.540277 21.855483 1.350246 1.067550 0.035651 -0.014457 526183.000000 0 1 0
4.548483 17.918012 11.725677 21.891445 1.322198 1.005545 0.038151 -0.026378 -1241840.000000 0 1 0
6.004683 17.877812 11.978577 22.341859 1.246761 1.004927 0.053369 -0.030903 -1943730.000000 0 1 0
6.891283 17.300112 11.102377 21.680554 1.191724 1.033181 0.042412 -0.031877 -278209.000000 0 1 0
7.722583 16.371212 11.802077 21.608885 1.130030 0.993014 0.050307 -0.033225 -223646.000000 0 1 0
9.034583 15.926012 11.165877 21.446173 1.054780 1.023188 0.047440 -0.035633 -684957.000000 0 1 0
10.113483 16.787212 11.082177 22.514610 1.028576 1.056156 0.059681 -0.035597 -473196.000000 0 1 0
11.156083 16.190812 10.332077 22.211537 0.967465 1.086973 0.053254 -0.038923 145257.000000 0 1 0
12.208883 17.262012 9.950177 23.367497 0.955209 1.130936 0.060326 -0.035681 285726.000000 0 1 0
13.187683 16.896112 8.998977 23.245971 0.908049 1.173290 0.066087 -0.027672 175996.000000 0 1 0
14.251283 17.836212 8.922477 24.512040 0.896660 1.198233 0.074788 -0.029078 168295.000000 0 1 0
15.220183 17.627712 7.779677 24.554298 0.858561 1.248405 0.078103 -0.021565 -929418.000000 0 1 0
15.798583 16.347212 7.757277 24.020864 0.802463 1.241963 0.097737 -0.041613 -490085.000000 0 1 0
16.887783 16.329312 6.896777 24.482834 0.768587 1.285233 0.102728 -0.030581 29082.700000 0 1 0
18.259583 16.711412 7.561977 25.881792 0.741157 1.274297 0.106013 -0.028646 -179381.000000 0 0 1
18.654983 15.492712 8.261077 25.617922 0.693056 1.242456 0.110601 -0.023150 20778.600000 0 0 1
19.805183 15.797412 9.018177 26.891095 0.673300 1.228810 0.107706 -0.022864 -130270.000000 0 0 1
20.153483 14.764412 10.120177 26.954939 0.632271 1.185916 0.100945 -0.018145 -79183.900000 0 0 1
20.733183 13.638512 9.527177 26.582720 0.581847 1.204246 0.102802 -0.024180 -12592.300000 0 0 1
20.644683 12.500812 10.344577 26.258018 0.544470 1.165862 0.102342 -0.037786 -461569.000000 0 0 1
21.499483 11.342112 9.819577 26.216319 0.485446 1.186874 0.094350 -0.029358 -597665.000000 0 0 1
22.856583 11.652112 10.129177 27.582519 0.471451 1.194765 0.100716 -0.042848 726075.000000 0 0 1
23.877483 10.831012 9.605977 27.923464 0.425850 1.219611 0.137607 -0.035735 106061.000000 0 0 1
23.822683 9.365312 9.979577 27.474011 0.374566 1.199056 0.144628 -0.039410 -1555460.000000 0 0 1
22.848983 8.652912 9.305977 26.144792 0.362011 1.206877 0.150910 -0.038769 -24436.800000 0 0 1
22.768083 7.282412 9.676077 25.788478 0.309568 1.186174 0.145409 -0.038395 44858.200000 0 0 1
23.868783 6.337112 9.066877 26.307529 0.259511 1.218931 0.165623 -0.042213 390452.000000 0 0 1
23.806083 6.214012 7.658577 25.768146 0.255329 1.269026 0.152723 -0.030202 158025.000000 0 0 1
24.977283 5.675212 7.108577 26.582035 0.223422 1.300081 0.159606 -0.030492 -121968.000000 0 0 1
24.741283 5.260712 5.608777 25.908774 0.209509 1.352587 0.159134 -0.032153 448224.000000 0 0 1
23.707983 4.248812 5.583777 24.724470 0.177332 1.342991 0.145769 -0.025913 994662.000000 0 1 0
23.529883 3.933812 4.219877 24.226796 0.165652 1.395721 0.147498 -0.028945 -107534.000000 0 1 0
22.453183 2.833612 3.989177 22.980172 0.125537 1.396320 0.124005 -0.024778 85651.800000 0 1 0
22.839683 1.507512 4.415177 23.311317 0.065908 1.380245 0.143726 -0.026485 1294640.000000 0 1 0
21.823383 0.518412 4.033077 22.198976 0.023750 1.388103 0.115126 -0.024339 491466.000000 0 1 0
22.317683 -0.912388 4.163577 22.721065 -0.040859 1.386508 0.129472 -0.026780 -529391.000000 0 1 0
22.495483 -1.335088 5.472777 23.190095 -0.059280 1.332553 0.131922 -0.032573 671462.000000 0 1 0
22.684683 -2.756388 5.669177 23.544258 -0.120916 1.327619 0.122088 -0.033768 -418266.000000 0 1 0
23.068183 -3.334588 7.038777 24.347586 -0.143559 1.277514 0.175608 -0.037061 -88404.600000 0 1 0
23.172883 -4.753288 7.182877 24.721853 -0.202317 1.275997 0.164718 -0.036944 314179.000000 0 1 0
23.239183 -5.194688 8.522077 25.291703 -0.219916 1.227119 0.193474 -0.039608 -180548.000000 0 0 1
22.781383 -6.630188 8.727177 25.280713 -0.283212 1.218333 0.183755 -0.045031 925895.000000 0 0 1
21.356083 -6.738388 8.582077 23.982081 -0.305639 1.204828 0.171561 -0.044849 875658.000000 0 1 0
20.833883 -7.942588 9.040677 24.059702 -0.364225 1.185579 0.141123 -0.045405 -198984.000000 0 1 0
-27.685597 -32.462040 5.499977 43.017741 0.864644 1.442592 0.040991 -0.012810 14722.200000 0 0 1
-28.459077 -33.534540 5.972377 44.386414 0.867087 1.435833 0.046869 -0.015258 -77359.800000 0 0 1
-28.307297 -33.750640 7.357177 44.660238 0.872888 1.405305 0.042148 -0.012039 -266181.000000 0 0 1
-29.071557 32.973212 7.953377 44.672635 -0.848200 1.391805 0.046559 -0.009515 -130974.000000 0 0 1
-30.468487 33.096912 7.818277 45.660264 -0.826725 1.398721 0.050681 -0.009735 -259555.000000 0 0 1
-31.150127 31.880312 8.095277 45.301415 -0.796982 1.391133 0.063116 -0.021165 40235.400000 0 0 1
-32.678157 31.952212 8.030577 46.403620 -0.774166 1.396861 0.078180 -0.026050 -245481.000000 0 0 1
-33.254397 32.068912 6.755177 46.689425 -0.767252 1.425603 0.058195 -0.023520 -1243020.000000 0 0 1
-34.625518 32.109812 6.812277 47.711357 -0.747719 1.427526 0.059417 -0.026386 -1477400.000000 0 0 1
-35.235180 32.081512 5.446477 47.962542 -0.738584 1.456994 0.043993 -0.020003 -515370.000000 0 0 1
-34.991581 30.809712 4.888977 46.878046 -0.721931 1.466315 0.047788 -0.021632 123977.000000 0 0 1
-35.647178 30.728812 3.660977 47.205761 -0.711435 1.493165 0.058532 -0.012869 -57320.300000 0 0 1
-35.316329 29.444912 2.809777 46.066699 -0.694983 1.509765 0.060946 -0.020772 -473697.000000 0 0 1
-35.871041 28.354512 3.447677 45.854077 -0.668895 1.495537 0.085041 -0.025465 -167868.000000 0 0 1
-35.241878 27.123212 3.235377 44.588409 -0.655946 1.498172 0.083028 -0.029816 -536236.000000 0 0 1
-35.829377 26.009412 4.065277 44.460772 -0.627914 1.479233 0.098411 -0.030905 -93722.800000 0 0 1
-37.128257 25.660112 3.653477 45.280202 -0.604742 1.490023 0.112628 -0.024825 -209855.000000 0 0 1
36.690371 24.808312 4.505877 44.518968 0.594541 1.469410 0.111917 -0.020706 564542.000000 0 0 1
35.222951 24.466512 4.089977 43.081253 0.607105 1.475717 0.139104 -0.021832 261239.000000 0 0 1
34.947931 23.449312 3.174477 42.205514 0.590982 1.495510 0.124376 -0.021246 113956.000000 0 0 1
35.175731 22.106912 3.550077 41.697130 0.561091 1.485554 0.110711 -0.018673 -805420.000000 0 0 1
34.886691 21.109412 2.446777 40.849421 0.544150 1.510863 0.125602 -0.018141 234490.000000 0 0 1
33.526081 20.840212 2.130277 39.532905 0.556159 1.516884 0.122532 -0.020465 849735.000000 0 0 1
32.770521 20.069712 3.095477 38.552332 0.549510 1.490417 0.098061 -0.026132 -169110.000000 0 0 1
33.061501 18.527112 3.121877 38.027133 0.510780 1.488608 0.113624 -0.024369 -433299.000000 0 0 1
32.336691 17.751112 2.168177 36.952192 0.502034 1.512087 0.094620 -0.037551 295336.000000 0 0 1
32.529121 16.355912 2.169177 36.474167 0.465892 1.511290 0.097834 -0.036787 -224765.000000 0 0 1
31.665421 15.510712 3.168177 35.402237 0.455480 1.481186 0.107691 -0.033181 -939834.000000 0 0 1
30.310231 15.618412 2.924977 34.222805 0.475801 1.485223 0.079745 -0.029109 -1210870.000000 0 0 1
29.648521 14.933112 3.962377 33.432515 0.466580 1.451998 0.077154 -0.033108 -313826.000000 0 0 1
28.128101 15.140512 3.857977 32.176220 0.493793 1.450606 0.074035 -0.030137 -357847.000000 0 0 1
27.547201 14.504312 2.752577 31.253800 0.484642 1.482610 0.081888 -0.038731 -576577.000000 0 0 1
26.159301 14.689912 2.785977 30.130785 0.511672 1.478201 0.066853 -0.026547 -324096.000000 0 0 1
25.573901 14.111212 1.415577 29.243026 0.504210 1.522370 0.087155 -0.026720 -612434.000000 0 0 1
25.902201 14.706212 0.171277 29.786339 0.516376 1.565046 0.095773 -0.026105 -408078.000000 0 0 1
27.143801 14.199212 -0.198423 30.634015 0.481965 1.577274 0.101702 -0.026972 -997332.000000 0 0 1
27.782901 14.852612 -1.448323 31.537078 0.490939 1.616737 0.115630 -0.028279 181638.000000 0 0 1
28.212901 16.250412 -1.384223 32.587723 0.522580 1.613286 0.086797 -0.027254 824549.000000 0 0 1
29.235201 16.563112 -0.435423 33.603917 0.515458 1.583754 0.093092 -0.035710 -89759.800000 0 0 1
29.708811 18.015212 -0.268523 34.745264 0.545107 1.578525 0.108924 -0.028331 27527.600000 0 0 1
30.819661 18.251712 -1.105423 35.835714 0.534672 1.601648 0.091076 -0.025014 -71517.200000 0 0 1
31.359141 19.530112 -0.923823 36.955032 0.557007 1.595797 0.099834 -0.014326 591157.000000 0 0 1
32.624891 19.804212 -1.816623 38.208512 0.545571 1.618359 0.095534 -0.014266 388999.000000 0 0 1
33.140431 21.140112 -1.895823 39.354626 0.567818 1.618988 0.042773 -0.005902 273876.000000 0 0 1
32.296151 22.131412 -2.465423 39.229059 0.600768 1.633685 0.092869 -0.003602 -529333.000000 0 0 1
32.918701 23.535912 -2.628423 40.552295 0.620703 1.635657 0.098544 -0.010989 -161309.000000 0 0 1
33.119911 24.295512 -1.462323 41.101566 0.632898 1.606382 0.110241 -0.007545 219367.000000 0 0 1
34.308211 23.994812 -0.760323 41.873409 0.610316 1.588955 0.131816 0.001401 -427457.000000 0 0 1
34.677711 24.856312 0.462677 42.668418 0.621900 1.559953 0.134989 -0.018724 -17925.800000 0 0 1
35.098931 26.194812 0.122677 43.796326 0.641138 1.567995 0.143586 -0.013310 1062110.000000 0 0 1
36.482411 26.345512 0.518877 45.003572 0.625433 1.559266 0.125395 -0.013742 976361.000000 0 0 1
37.139011 27.649112 0.057677 46.301002 0.639957 1.569551 0.089197 -0.026360 -565894.000000 0 0 1
-37.027547 27.844312 -1.284623 46.346469 -0.644773 1.598518 0.078352 -0.025838 550262.000000 0 0 1
36.382691 27.956712 -2.171923 45.934684 0.655178 1.618097 0.066934 -0.017872 360194.000000 0 0 1
36.538281 27.200612 -3.510723 45.686370 0.639934 1.647716 0.070931 -0.017012 -403141.000000 0 0 1
-37.064027 27.792712 -4.356223 46.531211 -0.643409 1.664553 0.062061 -0.015243 -257542.000000 0 0 1
-36.869977 27.082712 -5.580823 46.087027 -0.633537 1.692187 0.064156 -0.009853 -721598.000000 0 0 1
36.628491 27.332212 -6.666723 46.185943 0.641065 1.715648 0.059147 0.001766 -556726.000000 0 0 1
35.368231 26.886312 -6.231923 44.862260 0.649986 1.710159 0.064071 -0.004506 -280617.000000 0 0 1
34.330261 27.245812 -7.157323 44.408651 0.670850 1.732672 0.054100 -0.008216 1043140.000000 0 0 1
33.053371 26.344612 -6.965623 42.837878 0.672929 1.734126 0.062820 0.001145 253244.000000 0 0 1
33.178241 24.966312 -7.307723 42.160588 0.645093 1.745007 0.065094 -0.001109 -365371.000000 0 0 1
34.049491 24.236112 -6.494323 42.295782 0.618595 1.724952 0.065486 -0.003589 -7690.070000 0 0 1
34.332561 22.750312 -6.877123 41.756391 0.585213 1.736246 0.074920 0.004034 143179.000000 0 0 1
33.271521 22.039312 -6.303423 40.403694 0.585048 1.727447 0.077218 0.006953 11622.500000 0 0 1
33.527051 20.660012 -6.248623 39.874108 0.552260 1.728154 0.075961 -0.001321 1213680.000000 0 0 1
32.300421 19.902112 -5.559623 38.344760 0.552215 1.716300 0.083966 -0.006996 1079380.000000 0 0 1
31.108361 19.764212 -6.270923 37.385540 0.565996 1.739330 0.081023 -0.009123 143724.000000 0 0 1
30.051921 19.145512 -5.506523 36.055379 0.567240 1.724120 0.096200 -0.017304 1279620.000000 0 0 1
28.781301 18.945512 -6.409423 35.048201 0.582158 1.754706 0.064196 -0.017110 485398.000000 0 0 1
29.070301 17.947112 -7.366023 34.949099 0.553093 1.783153 0.054293 -0.016935 218115.000000 0 0 1
27.955301 17.737512 -8.202423 34.108619 0.565398 1.813656 0.082767 -0.025422 -182884.000000 0 0 1
28.316201 16.668412 -9.257523 34.137148 0.532034 1.845422 0.068075 -0.024254 122309.000000 0 0 1
27.337701 16.437112 -10.256123 33.506963 0.541347 1.881879 0.075807 -0.028425 96053.400000 0 0 1
27.610601 15.297412 -11.016023 33.432153 0.505941 1.906574 0.075315 -0.021147 -118943.000000 0 0 1
26.800501 15.315612 -12.337023 33.242096 0.519175 1.951018 0.082741 -0.025629 501342.000000 0 0 1
25.377401 15.260212 -12.182123 32.020160 0.541397 1.961081 0.077007 -0.025084 818015.000000 0 0 1
24.682301 15.245212 -13.442623 31.973998 0.553302 2.004708 0.074099 -0.027702 -106420.000000 0 0 1
24.676701 13.828712 -14.157723 31.632482 0.510789 2.034841 0.071189 -0.026432 -306807.000000 0 0 1
25.891501 13.409912 -14.780223 32.690221 0.477886 2.039948 0.080476 -0.028699 480361.000000 0 0 1
26.235201 14.083912 -15.999423 33.802720 0.492678 2.063850 0.087229 -0.033051 -406724.000000 0 0 1
27.658701 13.738712 -16.466823 34.998745 0.461023 2.060651 0.094958 -0.031313 -80824.200000 0 0 1
27.706101 12.405812 -16.920723 34.754036 0.420993 2.079300 0.091705 -0.032564 11107.100000 0 0 1
29.025701 11.955412 -17.108023 35.750631 0.390715 2.069785 0.084350 -0.015155 104515.000000 0 0 1
29.025501 10.442812 -17.609523 35.519393 0.345361 2.089520 0.063178 -0.006415 -127731.000000 0 0 1
28.337001 10.320512 -18.837223 35.557552 0.349274 2.129122 0.058020 -0.010102 76307.900000 0 0 1
28.654301 9.181312 -19.660023 35.942759 0.310081 2.149551 0.037360 -0.004183 1223410.000000 0 0 1
30.153541 9.048312 -20.192023 37.400879 0.291525 2.141092 0.042990 -0.003580 912043.000000 0 0 1
30.605751 9.982012 -21.206423 38.549512 0.315270 2.153291 0.051140 -0.015918 320188.000000 0 0 1
31.004251 9.377112 -22.424923 39.396332 0.293699 2.176345 0.046098 -0.011451 -128266.000000 0 0 1
32.414991 8.713012 -22.471123 40.393063 0.262589 2.160737 0.046452 -0.006006 -937652.000000 0 0 1
33.367171 9.674612 -22.423223 41.349330 0.282206 2.143954 0.058951 -0.007960 -1358860.000000 0 0 1
34.644511 9.107812 -22.340623 42.217269 0.257076 2.128433 0.054107 -0.008163 -7858.900000 0 0 1
35.766511 10.174812 -22.141223 43.278214 0.277157 2.107845 0.074826 -0.016825 172695.000000 0 0 1
35.879671 10.686112 -20.849423 42.851396 0.289467 2.078935 0.065500 -0.012756 -463771.000000 0 0 1
36.973431 11.507012 -20.701123 43.908796 0.301722 2.061739 0.038563 -0.003230 -656936.000000 0 0 1
36.914891 12.168212 -19.329823 43.409867 0.318413 2.032290 0.036404 0.000560 -52089.700000 0 0 1
37.086681 11.298212 -18.264223 42.856193 0.295711 2.011056 0.038852 -0.009165 252530.000000 0 0 1
-37.254807 11.962712 -16.999023 42.661386 -0.310705 1.980638 0.048773 -0.005352 -12969.400000 0 0 1
-36.809987 11.048812 -15.830123 41.564939 -0.291602 1.961515 0.047956 -0.009951 -181712.000000 0 0 1
36.666251 10.170612 -15.481623 41.079629 0.270581 1.957210 0.045966 -0.013851 613239.000000 0 0 1
37.156131 9.225212 -14.574223 40.964503 0.243361 1.934542 0.051618 -0.019342 792104.000000 0 0 1
36.004281 8.166312 -14.376223 39.619095 0.223041 1.942133 0.102984 -0.018327 126940.000000 0 0 1
34.939171 8.520912 -13.570923 38.438542 0.239209 1.931631 0.105644 -0.023475 -251340.000000 0 0 1
35.154441 8.351112 -12.135323 38.116162 0.233232 1.894814 0.102955 -0.024137 -416609.000000 0 0 1
33.962911 8.919312 -11.345323 36.901894 0.256820 1.883304 0.104851 -0.021861 -190960.000000 0 0 1
33.833401 10.311712 -11.393823 37.159785 0.295835 1.882433 0.116629 -0.028408 342133.000000 0 0 1
32.910981 10.854612 -10.427923 36.189734 0.318583 1.863086 0.078310 -0.018720 -504832.000000 0 0 1
33.323811 10.624912 -8.983223 36.111818 0.308649 1.822197 0.095349 -0.022963 -42611.200000 0 0 1
34.509171 11.239212 -8.488523 37.272748 0.314854 1.800553 0.105065 -0.022064 301868.000000 0 0 1
34.526301 12.653612 -8.284723 37.693712 0.351291 1.792396 0.099171 -0.017143 -257822.000000 0 0 1
34.087331 13.167612 -6.877023 37.183673 0.368632 1.756815 0.103078 -0.019487 -281246.000000 0 0 1
35.141571 13.046012 -5.973723 37.958053 0.355472 1.728830 0.136401 -0.022425 200110.000000 0 0 1
34.690031 13.194612 -4.614523 37.400399 0.363459 1.694493 0.125523 -0.020780 610787.000000 0 0 1
35.927891 12.926612 -3.680523 38.359573 0.345373 1.666892 0.163198 -0.025995 970483.000000 0 0 1
36.942381 13.907112 -3.910923 39.666643 0.360045 1.669552 0.160020 -0.019435 199216.000000 0 0 1
-36.407227 13.510612 -3.224223 38.966889 -0.355344 1.653634 0.158781 -0.029948 401079.000000 0 0 1
-35.351946 14.639612 -3.114223 38.389799 -0.392611 1.652007 0.157748 -0.028014 373253.000000 0 0 1
-35.754872 15.565312 -2.135523 39.054452 -0.410591 1.625504 0.155401 -0.028885 603563.000000 0 0 1
-34.716443 16.530112 -2.075423 38.506926 -0.444383 1.624720 0.185364 -0.029038 478989.000000 0 0 1
-35.175832 17.762112 -1.264423 39.426267 -0.467601 1.602872 0.157345 -0.021906 370157.000000 0 0 1
-36.242387 18.529312 -1.812823 40.744721 -0.472616 1.615303 0.124754 -0.014767 694729.000000 0 0 1
-36.903637 19.340112 -0.822623 41.672473 -0.482718 1.590538 0.112812 -0.013945 555898.000000 0 0 1
36.820611 20.445612 -1.560823 42.145184 0.506885 1.607839 0.113747 -0.008067 469127.000000 0 0 1
-36.786867 21.421112 -1.986623 42.615540 -0.527306 1.617431 0.093497 -0.001863 626902.000000 0 0 1
37.076801 22.217912 -2.951323 43.324763 0.539861 1.638970 0.071643 -0.003371 -69043.400000 0 0 1
-36.573497 23.402912 -3.310623 43.546265 -0.569233 1.646895 0.077703 -0.001478 -259369.000000 0 0 1
-35.379567 22.937412 -3.894323 42.343882 -0.575196 1.662895 0.090324 0.004652 -697846.000000 0 0 1
-34.510872 23.971612 -4.165423 42.225457 -0.607100 1.669604 0.104134 -0.003103 -747147.000000 0 0 1
-33.143827 23.508212 -4.657923 40.900434 -0.616926 1.684928 0.123485 -0.009123 -599561.000000 0 0 1
-33.164577 22.991612 -5.971623 40.794162 -0.606187 1.717708 0.124429 -0.005166 182208.000000 0 0 1
-31.876377 22.791012 -6.543423 39.728453 -0.620710 1.736254 0.121852 -0.000892 286815.000000 0 0 1
-31.808897 21.831612 -7.802023 39.361107 -0.601497 1.770334 0.107693 -0.010949 113998.000000 0 0 1
-32.635647 22.255912 -8.867723 40.485152 -0.598510 1.791623 0.107136 -0.012211 30427.200000 0 0 1
-32.195707 21.641912 -10.047923 40.073640 -0.591823 1.824237 0.067428 -0.008037 -313749.000000 0 0 1
-33.068967 21.933412 -11.236223 41.241773 -0.585642 1.846732 0.057289 0.000491 -473971.000000 0 0 1
-33.203707 23.254212 -11.601223 42.164355 -0.610961 1.849535 0.067783 0.000301 -12777.100000 0 0 1
-33.688567 23.327112 -12.934023 42.969322 -0.605630 1.876544 0.030374 0.001394 -359439.000000 0 0 1
-34.221766 24.740512 -13.329423 44.282002 -0.625961 1.876550 0.056793 -0.003759 -241488.000000 0 0 1
-33.310997 25.813812 -13.254823 44.177661 -0.659269 1.875525 0.059631 -0.006714 -518055.000000 0 0 1
-32.411457 25.797712 -14.328923 43.833121 -0.672263 1.903815 0.056108 -0.007158 376071.000000 0 0 1
-31.000697 26.379912 -13.924123 43.021206 -0.705043 1.900389 0.087523 -0.012917 915470.000000 0 0 1
-30.141907 25.466112 -13.193823 41.606903 -0.701511 1.893473 0.101844 -0.011713 539700.000000 0 0 1
-30.397667 25.238112 -11.808023 41.236026 -0.692925 1.861214 0.098021 -0.006305 -430405.000000 0 0 1
-30.475507 26.476312 -10.886323 41.812242 -0.715293 1.834194 0.109157 -0.003094 451544.000000 0 0 1
-29.219927 27.056212 -10.552623 41.197094 -0.746969 1.829833 0.112447 -0.002952 40092.200000 0 0 1
-29.450027 28.203312 -9.779723 41.932968 -0.763777 1.806187 0.103202 -0.005041 351950.000000 0 0 1
-28.316727 29.263212 -9.690023 41.857725 -0.801834 1.804415 0.125325 -0.010220 352758.000000 0 0 1
-28.671917 30.309612 -8.783523 42.636858 -0.813157 1.778290 0.104370 -0.019664 102186.000000 0 0 1
-27.638977 31.278112 -8.669923 42.630985 -0.847087 1.775596 0.123828 -0.013718 67721.000000 0 0 1
35.615381 -24.466588 33.351375 54.583729 -0.601925 0.913457 0.042662 -0.013134 -236501.000000 0 0 1
35.114981 -23.184388 33.525907 53.801154 -0.583542 0.898039 0.042573 -0.013810 -108098.000000 0 0 1
34.225281 -23.123188 -33.231263 53.012909 -0.594174 2.248303 0.046306 -0.009882 -84715.800000 0 0 1
33.732061 -21.723788 -32.831523 51.842876 -0.572153 2.256592 0.035547 -0.004559 81369.200000 0 0 1
33.031081 -21.171888 33.910524 51.857736 -0.570000 0.858049 0.026606 -0.003301 189047.000000 0 0 1
32.494091 -19.870188 -33.678733 50.842378 -0.548834 2.294834 0.018852 -0.001597 315594.000000 0 0 1
32.172131 -19.092288 32.841395 49.780706 -0.535583 0.850348 0.022552 -0.004434 476319.000000 0 0 1
33.333001 -18.533688 32.232288 49.935027 -0.507450 0.869139 0.041498 -0.011871 477535.000000 0 0 1
33.100961 -18.391288 30.869574 48.855334 -0.507142 0.886850 0.050108 -0.006560 -415065.000000 0 0 1
34.406161 -18.287688 30.077374 49.222676 -0.488547 0.913414 0.048001 -0.002264 -453235.000000 0 0 1
35.041841 -17.041788 30.222364 49.312721 -0.452649 0.911107 0.054467 -0.008049 528156.000000 0 0 1
36.449551 -17.271688 30.243354 50.413702 -0.442511 0.927416 0.070901 -0.009209 -191628.000000 0 0 1
37.251201 -15.990488 30.270254 50.592845 -0.405474 0.929405 0.069520 -0.012592 34990.900000 0 0 1
-35.899309 -16.360788 30.171504 49.666441 0.427618 0.917909 0.073293 -0.006762 512783.000000 0 0 1
-35.040583 -15.226288 30.264264 48.740209 0.409917 0.900868 0.078616 -0.016330 1020910.000000 0 0 1
-33.526147 -15.664188 30.296434 47.825132 0.437084 0.884749 0.087400 -0.022326 815564.000000 0 0 1
-32.655017 -14.626988 30.734414 47.168878 0.421127 0.861128 0.092258 -0.023914 245342.000000 0 0 1
-31.399567 -15.213188 31.040184 46.699753 0.451173 0.843737 0.104620 -0.034701 403944.000000 0 0 1
-30.334387 -14.230188 31.566764 46.034051 0.438632 0.815195 0.107427 -0.040248 193079.000000 0 0 1
-30.812127 -13.831188 32.843336 47.110229 0.421929 0.799369 0.112905 -0.041634 65055.300000 0 0 1
-29.886247 -12.999988 33.468801 46.715608 0.410295 0.772114 0.107035 -0.040343 -313150.000000 0 0 1
-30.271857 -12.339188 -32.978883 46.435413 0.387052 2.360592 0.100364 -0.022379 -209811.000000 0 0 1
-30.218017 -13.321688 -31.959413 45.956501 0.415221 2.339811 0.116547 -0.022955 317858.000000 0 0 1
-30.371187 -12.713488 -30.628333 44.968173 0.396440 2.320076 0.109893 -0.017325 -309930.000000 0 0 1
-30.532787 -13.716988 -29.421993 44.565239 0.422234 2.291882 0.108061 -0.020706 156926.000000 0 0 1
-31.740487 -14.455588 -29.504383 45.682941 0.427361 2.272934 0.098552 -0.022109 167132.000000 0 0 1
-31.961967 -15.349588 -28.382623 45.417513 0.447719 2.245834 0.107449 -0.026201 -6519.040000 0 0 1
-33.285817 -16.101588 -28.542613 46.710679 0.450553 2.228184 0.103118 -0.034477 -175153.000000 0 0 1
-33.103277 -17.221288 -29.398043 47.504154 0.479700 2.238077 0.098140 -0.031872 45267.200000 0 0 1
-34.348600 -17.827288 -29.553743 48.693554 0.478740 2.222993 0.083740 -0.036061 -381978.000000 0 0 1
-34.126570 -19.170888 -30.289273 49.493290 0.511826 2.229367 0.078204 -0.028137 -10172.100000 0 0 1
-35.235377 -20.033988 -30.232923 50.566017 0.516993 2.211663 0.039586 -0.030854 -63345.700000 0 0 1
-34.880516 -21.310988 -30.713373 51.128464 0.548447 2.215185 0.036285 -0.026771 331966.000000 0 0 1
-36.164397 -22.138488 -31.051503 52.556371 0.549315 2.202875 0.040799 -0.023503 219800.000000 0 0 1
-36.699387 -22.695888 -29.898343 52.496278 0.553859 2.176733 0.039519 -0.029347 748993.000000 0 0 1
36.732581 -23.619688 -30.189373 53.090210 -0.571451 2.175651 0.051588 -0.025666 900102.000000 0 0 1
37.175161 -25.037648 -30.650913 54.298756 -0.592722 2.170607 0.050432 -0.022262 9786.620000 0 0 1
-36.735397 -25.058628 -31.931583 54.745321 0.598638 2.193551 0.053396 -0.019808 21493.900000 0 0 1
-36.010476 -26.319208 -31.952043 54.867004 0.631149 2.192418 0.046622 -0.022336 224355.000000 0 0 1
-36.253167 -27.292118 -33.182973 56.216203 0.645304 2.202195 0.049102 -0.023489 1204320.000000 0 0 1
36.871701 -27.660038 -33.184003 56.795934 -0.643610 2.194773 0.068517 -0.025822 907192.000000 0 0 1
36.530581 -28.853248 -33.891473 57.581466 -0.668514 2.200101 0.053908 -0.022059 -118731.000000 0 0 1
37.189261 -30.128508 -33.395413 58.361132 -0.680893 2.180007 0.045893 -0.019772 -235824.000000 0 0 1
36.827921 -30.462338 -32.067433 57.554931 -0.691080 2.161761 0.059345 -0.025173 584210.000000 0 0 1
-36.809467 -31.437498 -31.472273 57.738697 0.706846 2.147282 0.047512 -0.024911 386136.000000 0 0 1
37.102521 -31.823948 -30.083943 57.396902 -0.708965 2.122500 0.048687 -0.024971 51819.800000 0 0 1
36.025921 -32.720448 -30.255943 57.305469 -0.737353 2.127012 0.058756 -0.026195 20365.000000 0 0 1
35.414891 -32.850088 -29.007613 56.345225 -0.747845 2.111593 0.061540 -0.025687 -41410.700000 0 0 1
34.228291 -33.856918 -28.906323 56.155519 -0.779944 2.111518 0.073421 -0.030783 257277.000000 0 0 1
33.077561 -33.426568 -29.607103 55.570145 -0.790646 2.132688 0.079105 -0.031404 -346748.000000 0 0 1
31.963451 33.875712 -29.006183 54.868795 0.814434 2.127801 0.081925 -0.028544 136875.000000 0 0 1
30.605221 -33.828498 -29.726003 54.448894 -0.835381 2.148311 0.045190 -0.024033 164731.000000 0 0 1
30.560281 33.578264 -31.044393 55.001680 0.832418 2.170534 0.039197 -0.019640 -211135.000000 0 0 1
29.310301 33.809477 -31.650403 54.808051 0.856558 2.186432 0.038562 -0.011609 -412872.000000 0 0 1
29.203801 33.161632 -33.067533 55.190737 0.848775 2.213235 0.032383 -0.010530 -82371.900000 0 0 1
29.077001 31.788714 -33.028783 54.285309 0.829921 2.224876 0.021250 -0.008079 -16935.000000 0 0 1
28.964401 31.192184 33.566202 54.208659 0.822414 0.903068 0.034414 -0.008167 110198.000000 0 0 1
28.931201 29.633914 33.554193 53.301661 0.797396 0.889868 0.033471 -0.018797 -842252.000000 0 0 1
30.232401 29.184964 33.586873 53.794406 0.767772 0.896489 0.034208 -0.015478 -1080140.000000 0 0 1
30.266321 27.815244 -33.874663 53.265662 0.743223 2.260044 0.038729 -0.020962 -418187.000000 0 0 1
31.691091 27.279054 -33.808963 53.772837 0.710719 2.250724 0.061589 -0.020723 -288492.000000 0 0 1
32.308201 27.730164 -32.591213 53.618737 0.709294 2.224124 0.053163 -0.017745 932530.000000 0 0 1
33.625751 27.116984 -32.499483 54.057731 0.678652 2.215798 0.076418 -0.021871 1571710.000000 0 0 1
34.357561 27.359124 -31.085513 53.807738 0.672484 2.186722 0.077035 -0.023961 205541.000000 0 0 1
35.106201 28.580064 -30.878123 54.797115 0.683281 2.169412 0.076085 -0.025906 197044.000000 0 0 1
34.392871 29.779684 -30.837703 54.960559 0.713634 2.166496 0.068890 -0.016319 539952.000000 0 0 1
33.200241 29.876514 -29.783683 53.683608 0.732753 2.158919 0.083075 -0.016542 813578.000000 0 0 1
33.579171 30.181384 -28.461483 53.371646 0.732159 2.133257 0.085624 -0.012099 -908062.000000 0 0 1
32.474501 30.426764 -27.685063 52.410341 0.752855 2.127319 0.082127 -0.015398 -900488.000000 0 0 1
32.709911 30.957954 -26.254723 52.131023 0.757888 2.098591 0.112955 -0.017418 -286858.000000 0 0 1
33.338221 32.207341 -26.232283 53.262392 0.768147 2.085768 0.106670 -0.028304 -19699.700000 0 0 1
33.612031 32.519016 -24.904423 52.985708 0.768872 2.060111 0.103353 -0.033482 88039.800000 0 0 1
34.312671 33.874610 -24.740823 54.193697 0.778974 2.044883 0.099190 -0.034939 -34409.900000 0 0 1
33.419651 -32.948288 -24.853423 53.105135 -0.778296 2.057827 0.098632 -0.028554 486420.000000 0 0 1
33.964151 -31.610448 -24.544023 52.489933 -0.749520 2.057364 0.082259 -0.033599 -241453.000000 0 0 1
34.716841 -30.793458 -25.644013 53.019916 -0.725580 2.075636 0.069765 -0.035826 397390.000000 0 0 1
35.975531 -31.278538 -26.047563 54.323672 -0.715672 2.070868 0.090273 -0.032230 132967.000000 0 0 1
37.100741 -30.693888 -25.415743 54.447587 -0.691174 2.056457 0.091587 -0.031000 -20256.600000 0 0 1
-36.078567 -31.295168 -25.896813 54.329508 0.714519 2.067650 0.067185 -0.023154 -90981.500000 0 0 1
-35.779521 -32.660158 -25.417823 54.707639 0.739851 2.053993 0.059721 -0.014264 -267469.000000 0 0 1
-35.796826 -32.859738 -24.036523 54.211895 0.742645 2.030163 0.065778 -0.014699 -257042.000000 0 0 1
-34.696082 -32.266658 -23.105323 52.714431 0.749134 2.024515 0.055038 -0.019884 106201.000000 0 0 1
-34.734574 -30.824808 -23.079223 51.858557 0.725832 2.032017 0.024194 -0.014741 -86881.900000 0 0 1
-34.164074 -30.224738 -21.917823 50.607408 0.724294 2.018720 0.048371 -0.017496 -495965.000000 0 0 1
-33.997687 -28.715658 -21.992923 49.639907 0.701372 2.029793 0.054163 -0.005480 -209780.000000 0 0 1
-35.191250 -28.020838 -22.228523 50.176675 0.672447 2.029744 0.037308 -0.005853 -397577.000000 0 0 1
-35.341718 -27.731578 -23.633823 50.760566 0.665323 2.055102 0.029408 -0.006201 337398.000000 0 0 1
-36.572137 -26.848018 -24.035223 51.342275 0.633255 2.057978 0.038459 -0.013177 463014.000000 0 0 1
-36.502017 -25.557698 -23.458723 50.357769 0.610842 2.055381 0.043936 -0.008731 -552084.000000 0 0 1
37.111961 -24.735488 -24.085823 50.687956 -0.587894 2.065963 0.046464 -0.010791 -297080.000000 0 0 1
-36.881667 -24.138888 -25.432313 50.889545 0.579529 2.094112 0.063489 -0.013983 -614499.000000 0 0 1
-35.787943 -23.303688 -25.370143 49.673765 0.577190 2.106836 0.051564 -0.017423 -653561.000000 0 0 1
-35.538781 -22.803788 -26.689283 49.953333 0.570489 2.134457 0.050557 -0.027075 536186.000000 0 0 1
-34.390463 -21.712188 -26.762963 48.686541 0.563148 2.152801 0.059187 -0.034742 284234.000000 0 0 1
-34.511101 -20.506488 -26.008383 47.832710 0.536144 2.145679 0.062756 -0.024984 -102486.000000 0 0 1
-35.458517 -19.545788 -26.414753 48.343391 0.503787 2.148854 0.069206 -0.025735 387944.000000 0 0 1
-36.714447 -19.429788 -25.490763 48.736498 0.486745 2.121201 0.068102 -0.026514 220123.000000 0 0 1
-36.419607 -18.816588 -24.227723 47.617584 0.476887 2.104584 0.061588 -0.039961 -44505.000000 0 0 1
-35.627433 -19.533188 -23.308523 46.841719 0.501508 2.091628 0.048832 -0.030262 -304711.000000 0 0 1
-36.203557 -20.855588 -22.821323 47.607414 0.522634 2.070727 0.066310 -0.017513 -112910.000000 0 0 1
37.257901 -20.654288 -21.932023 47.914136 -0.506184 2.046243 0.054507 -0.014175 9066.550000 0 0 1
36.609101 -21.851288 -21.498923 47.748390 -0.538123 2.037847 0.047764 0.003986 126920.000000 0 0 1
35.571541 -21.681788 -20.375523 46.374523 -0.547395 2.025692 0.029276 0.003352 -474493.000000 0 0 1
34.405431 -21.064788 -20.829023 45.401621 -0.549380 2.047410 0.058068 -0.000450 -979008.000000 0 0 1
33.427891 -21.126588 -19.834023 44.239632 -0.563621 2.035694 0.045859 0.000134 -676001.000000 0 0 1
32.089181 -20.673688 -20.403523 43.283030 -0.572328 2.061671 0.055289 -0.001459 -1113650.000000 0 0 1
31.526141 -21.508588 -21.418223 43.763651 -0.598711 2.082206 0.050452 0.002468 943976.000000 0 0 1
30.233231 -21.070988 -21.877523 42.856281 -0.608675 2.106546 0.084081 -0.002239 670943.000000 0 0 1
30.112261 -19.794988 -22.612423 42.543054 -0.581541 2.131189 0.082747 -0.011998 -936249.000000 0 0 1
30.268441 -18.671588 -21.730523 41.677600 -0.552729 2.119282 0.086936 -0.007440 -67476.000000 0 0 1
30.375931 -17.409488 -22.407223 41.567669 -0.520431 2.140110 0.078887 -0.008334 -62432.500000 0 0 1
30.918251 -16.249888 -21.530723 41.031319 -0.483898 2.123205 0.056060 -0.014446 -230219.000000 0 0 1
30.133761 -15.898688 -20.379123 39.700384 -0.485486 2.109849 0.034464 -0.011227 640509.000000 0 0 1
30.944651 -15.302388 -19.367823 39.583419 -0.459245 2.082073 0.011780 -0.008766 958958.000000 0 0 1
32.119141 -16.123788 -18.680923 40.504230 -0.465246 2.050154 0.029014 -0.015275 959169.000000 0 0 1
33.191461 -16.376988 -19.605523 41.883831 -0.458361 2.057928 0.041163 -0.016507 312093.000000 0 0 1
34.029451 -17.434788 -19.142823 42.760063 -0.473474 2.034965 0.038616 -0.010331 54117.700000 0 0 1
35.191281 -17.684688 -20.118623 44.225936 -0.465670 2.043062 0.043274 -0.020253 414113.000000 0 0 1
36.155271 -16.633788 -20.292723 44.673047 -0.431193 2.042326 0.047401 -0.031013 761180.000000 0 0 1
-37.253737 -17.071488 -21.035123 46.062490 0.429693 2.045039 0.059989 -0.025663 -141748.000000 0 0 1
-36.267907 -15.985788 -21.476423 45.079299 0.415151 2.067368 0.086452 -0.033969 20080.300000 0 0 1
-35.329255 -15.685888 -20.415223 43.714811 0.417846 2.056702 0.112566 -0.043618 239141.000000 0 0 1
-34.523418 -14.603588 -20.814623 42.876330 0.400180 2.077682 0.133971 -0.046029 -894390.000000 0 0 1
-33.191727 -14.576688 -20.087523 41.444893 0.413808 2.076794 0.147110 -0.042144 487257.000000 0 0 1
-32.117857 -15.510888 -20.434723 41.106232 0.449904 2.091073 0.156790 -0.057645 1114760.000000 0 0 1
-32.367687 -16.855588 -20.124323 41.674529 0.480112 2.074751 0.134788 -0.051535 -1321370.000000 0 0 1
-31.174937 -17.749988 -19.987923 41.066481 0.517591 2.079129 0.116244 -0.055048 -932585.000000 0 0 1
-31.609497 -18.989088 -19.501523 41.713968 0.540963 2.057263 0.109917 -0.047319 -153611.000000 0 0 1
-30.602347 -19.950688 -19.328323 41.329380 0.577733 2.057444 0.112193 -0.039939 -308085.000000 0 0 1
-31.164717 -21.357688 -18.950123 42.266980 0.600803 2.035708 0.094341 -0.022521 -86495.600000 0 0 1
-31.769657 -21.911788 -20.086323 43.507447 0.603785 2.050679 0.079205 -0.023419 138988.000000 0 0 1
-32.433617 -23.128988 -19.747123 44.461652 0.619476 2.031009 0.068834 -0.013612 283304.000000 0 0 1
-33.325977 -23.625588 -20.915523 45.893880 0.616690 2.043996 0.058217 -0.005575 170316.000000 0 0 1
-32.493687 -24.010688 -21.968623 45.988838 0.636381 2.068825 0.065118 -0.016098 270770.000000 0 0 1
-33.319847 -24.492388 -23.008023 47.322916 0.633877 2.078523 0.059775 -0.011954 -114402.000000 0 0 1
-32.657617 -24.575388 -24.363123 47.581839 0.645110 2.108338 0.062136 -0.003848 -106354.000000 0 0 1
-31.554167 -25.463498 -24.367323 47.305619 0.678981 2.111926 0.050254 -0.010837 -35746.100000 0 0 1
-31.121517 -25.658938 -25.696033 47.824847 0.689488 2.138022 0.050056 -0.003804 -639834.000000 0 0 1
-29.654127 -26.080288 -25.796203 47.169829 0.721363 2.149429 0.063096 -0.012133 -450335.000000 0 0 1
-28.851427 -24.927688 -25.919033 46.104129 0.712567 2.167821 0.077490 -0.017585 -758214.000000 0 0 1
-27.501937 -25.256748 -26.065883 45.537788 0.742868 2.180228 0.069519 -0.010681 -350214.000000 0 0 1
-26.646197 -24.029088 -26.419183 44.557717 0.733799 2.205477 0.078905 -0.007487 -402139.000000 0 0 1
-26.635317 -23.507488 -27.717233 45.058707 0.723100 2.233355 0.075786 -0.010792 206389.000000 0 0 1
-25.705987 -22.438888 -27.831643 44.032963 0.717642 2.255010 0.093593 -0.009236 106939.000000 0 0 1
-25.757257 -21.738488 -29.217343 44.605507 0.700986 2.285001 0.077171 -0.012031 158620.000000 0 0 1
-24.970417 -22.388788 -30.254693 45.167754 0.730940 2.304775 0.083127 -0.015315 372169.000000 0 0 1
-25.282307 -22.030488 -31.537933 46.034538 0.716776 2.325527 0.084190 -0.020249 -259468.000000 0 0 1
-24.930617 -23.104388 -32.642003 47.125882 0.747398 2.335961 0.075859 -0.022701 -5158.590000 0 0 1
-25.628507 -24.318188 -32.467283 47.982487 0.759170 2.313998 0.056926 -0.020774 81429.700000 0 0 1
-25.308237 -25.119458 -33.574163 48.976713 0.781655 2.326104 0.073162 -0.016343 258392.000000 0 0 1
-20.218517 -14.175488 -11.397923 27.196425 0.611473 2.003246 0.056250 0.013661 160233.000000 0 0 1
-20.160517 -13.707488 -10.102123 26.389289 0.597120 1.963634 0.067101 0.011898 172493.000000 0 0 1
-19.506017 -14.580288 -9.191323 26.029789 0.641884 1.931687 0.054976 -0.001501 -168624.000000 0 0 1
-19.728317 -14.201288 -7.691823 25.496023 0.623920 1.877258 0.082389 -0.017699 -1193200.000000 0 0 1
-21.063917 -14.481488 -7.455323 26.626752 0.602289 1.854584 0.123600 -0.021601 -557113.000000 0 0 1
-21.399817 -14.001188 -6.176623 26.308480 0.579369 1.807785 0.113827 -0.034481 831228.000000 0 0 1
-22.697617 -14.714288 -5.597723 27.622936 0.575161 1.774857 0.127734 -0.038731 592283.000000 0 0 1
-22.528917 -16.044088 -5.193623 28.141403 0.618837 1.756415 0.108279 -0.039017 408672.000000 0 0 1
-21.860317 -16.186588 -3.933723 27.483691 0.637364 1.714419 0.110956 -0.041663 31200.500000 0 0 1
-21.868617 -17.565788 -3.274123 28.240276 0.676715 1.686996 0.086415 -0.031939 -921503.000000 0 0 1
-23.096617 -17.936488 -2.786023 29.375725 0.660300 1.665780 0.081235 -0.033483 -803881.000000 0 0 1
-22.983717 -19.116088 -1.970723 29.959303 0.693787 1.636624 0.075354 -0.023396 116236.000000 0 0 1
-24.266417 -19.983488 -1.994923 31.498865 0.688909 1.634172 0.072716 -0.031626 -49856.400000 0 0 1
-24.380717 -20.805088 -3.131623 32.203697 0.706431 1.668194 0.054092 -0.028276 -376532.000000 0 0 1
-25.401497 -21.740988 -3.118523 33.580229 0.707906 1.663798 0.072133 -0.020661 -542955.000000 0 0 1
-25.227177 -22.759188 -4.282623 34.245174 0.734012 1.696182 0.083189 -0.020429 -706591.000000 0 0 1
-24.120817 -23.609088 -4.134423 34.004357 0.774677 1.692683 0.088046 -0.019297 -363727.000000 0 0 1
-23.876317 -24.414588 -5.256723 34.551176 0.796544 1.723533 0.087007 -0.015674 -1335780.000000 0 0 1
-22.411617 -24.432588 -5.578523 33.620706 0.828514 1.737492 0.073095 -0.015994 -1087310.000000 0 0 1
-21.791317 -23.365088 -6.240323 32.553502 0.820236 1.763685 0.048106 -0.009989 127547.000000 0 0 1
-21.639117 -22.216388 -5.389223 31.477977 0.798560 1.742850 0.048921 -0.008914 -872771.000000 0 0 1
-21.705917 -20.964988 -6.182023 30.804139 0.768036 1.772857 0.054983 -0.008618 -165338.000000 0 0 1
-20.479717 -20.539288 -6.718723 29.772847 0.786850 1.798423 0.036741 -0.001424 81613.500000 0 0 1
-20.672017 -19.322088 -7.374223 29.241316 0.751658 1.825734 0.032594 -0.003491 268301.000000 0 0 1
-19.407217 -18.978888 -8.192423 28.354084 0.774240 1.863908 0.046632 -0.004907 -39428.200000 0 0 1
-19.226617 -19.762388 -9.394023 29.128379 0.799139 1.899170 0.042132 -0.001303 -290341.000000 0 0 1
-18.045517 -19.563388 -10.119323 28.473980 0.825736 1.934126 0.055422 0.001191 -656663.000000 0 0 1
-17.947417 -18.192388 -10.917323 27.789579 0.792177 1.974532 0.055287 -0.000160 -171598.000000 0 0 1
-17.611017 -17.099788 -10.061123 26.528793 0.770671 1.959785 0.066272 -0.001443 824166.000000 0 0 1
-16.251317 -17.138488 -9.598123 25.494255 0.811962 1.956792 0.093964 -0.000846 286475.000000 0 0 1
-15.841417 -15.931988 -8.709623 24.096395 0.788249 1.940618 0.069225 -0.000833 -304307.000000 0 1 0
-16.540917 -15.955388 -7.503923 24.176129 0.767382 1.886395 0.058905 -0.006092 77370.900000 0 1 0
-16.291317 -14.940988 -6.603423 23.070443 0.742190 1.861085 0.049843 -0.013525 -430975.000000 0 1 0
-17.172717 -15.299588 -5.410423 23.627363 0.727778 1.801836 0.062439 -0.020273 -252116.000000 0 1 0
-17.218217 -14.158788 -4.547423 22.751205 0.688200 1.772028 0.047659 -0.018260 12583.800000 0 1 0
-17.560117 -14.461988 -3.200023 22.972744 0.688949 1.710547 0.036048 -0.020374 -384003.000000 0 1 0
-18.298517 -13.256688 -2.583823 22.743167 0.626959 1.684651 0.044621 -0.028689 118183.000000 0 1 0
-19.645017 -13.159488 -3.079723 23.844989 0.590213 1.700314 0.080718 -0.042768 986181.000000 0 1 0
-20.306417 -12.198688 -2.233723 23.793866 0.540957 1.664813 0.085205 -0.031511 267087.000000 0 1 0
-21.850617 -12.404388 -2.345323 25.235270 0.516324 1.663869 0.103167 -0.035073 303928.000000 0 0 1
-22.450717 -11.654088 -3.409523 25.524053 0.478808 1.704778 0.130478 -0.042401 1188690.000000 0 0 1
-23.870717 -11.894988 -3.442023 26.891437 0.462294 1.699145 0.134269 -0.038705 741501.000000 0 0 1
-24.652217 -11.178088 -4.540323 27.446238 0.425704 1.736986 0.150073 -0.045151 -240163.000000 0 0 1
-24.272017 -11.560488 -5.862823 27.516329 0.444499 1.785509 0.159319 -0.048526 94724.700000 0 0 1
-25.004317 -10.982488 -6.918923 28.172724 0.413856 1.818924 0.168655 -0.048280 -155198.000000 0 0 1
-24.446017 -11.333288 -8.323323 28.201576 0.434110 1.870395 0.174275 -0.045679 427793.000000 0 0 1
-23.190217 -10.681088 -8.514823 26.914197 0.431622 1.892696 0.160419 -0.046216 425756.000000 0 0 1
-22.540717 -11.081288 -9.729523 26.935896 0.456915 1.940362 0.116388 -0.031921 -464108.000000 0 0 1
-21.217717 -10.328888 -9.729023 25.525112 0.453036 1.961842 0.112594 -0.041006 -756501.000000 0 0 1
-21.363217 -8.988188 -10.102823 25.283227 0.398250 1.981861 0.100938 -0.043305 -2285.630000 0 0 1
-20.273917 -8.229688 -9.672923 23.923313 0.385604 1.987043 0.112089 -0.041596 -526732.000000 0 1 0
-19.964117 -6.870388 -10.371223 23.522977 0.331442 2.027395 0.112622 -0.049419 -132694.000000 0 1 0
-19.510217 -6.963288 -11.725223 23.803714 0.342813 2.085848 0.111810 -0.041689 507690.000000 0 1 0
-19.444617 -5.729688 -12.365323 23.744971 0.286557 2.118532 0.115005 -0.053882 -426084.000000 0 1 0
-18.700617 -5.725688 -13.747023 23.905590 0.297114 2.183467 0.122313 -0.043170 85578.400000 0 1 0
-19.310117 -6.563988 -14.750223 25.170134 0.327671 2.196936 0.118152 -0.043988 474104.000000 0 0 1
-18.760917 -6.389788 -16.065523 25.512789 0.328268 2.251969 0.117888 -0.043666 -96090.300000 0 0 1
-19.266517 -7.379188 -17.168223 26.840249 0.365771 2.264832 0.108719 -0.036236 849252.000000 0 0 1
-20.637517 -7.213588 -17.580323 28.053711 0.336263 2.248065 0.096666 -0.038725 1189980.000000 0 0 1
-20.988617 -7.924788 -18.747523 29.236859 0.361027 2.266895 0.111270 -0.040695 -224572.000000 0 0 1
-22.388017 -7.664588 -19.336823 30.559482 0.329846 2.255909 0.085533 -0.040007 -712859.000000 0 0 1
-22.627117 -6.503588 -20.067923 30.935491 0.279880 2.276674 0.089121 -0.040605 832745.000000 0 0 1
-23.931417 -6.391988 -20.635523 32.239650 0.261003 2.265381 0.065430 -0.036298 853002.000000 0 0 1
-25.190647 -6.187088 -19.761923 32.609544 0.240843 2.221840 0.123734 -0.035735 -202618.000000 0 0 1
-25.302247 -4.896988 -19.164623 32.116459 0.191176 2.210207 0.123424 -0.031827 -125154.000000 0 0 1
-26.496837 -4.826088 -18.430423 32.635165 0.180163 2.170916 0.151060 -0.022398 -387964.000000 0 0 1
-26.759697 -3.417288 -17.830023 32.336805 0.127015 2.154820 0.140860 -0.019610 -110969.000000 0 0 1
-26.949997 -2.412188 -18.803823 32.950034 0.089268 2.178126 0.136473 -0.022585 757745.000000 0 0 1
-28.271027 -2.290888 -19.348823 34.334765 0.080856 2.169454 0.158323 -0.019249 499941.000000 0 0 1
-28.529737 -0.964588 -20.156523 34.945124 0.033797 2.185608 0.149222 -0.017810 156759.000000 0 0 1
-27.955307 -0.843388 -21.488223 35.269735 0.030160 2.225916 0.132740 -0.010813 267882.000000 0 0 1
-28.730887 -1.507788 -22.474123 36.507855 0.052432 2.233940 0.120262 -0.001198 -185630.000000 0 0 1
-28.179857 -1.517988 -23.952423 37.015229 0.053816 2.274566 0.093178 0.000860 -446892.000000 0 0 1
-28.279447 -0.321488 -24.720923 37.562674 0.011368 2.289122 0.087874 0.005110 313404.000000 0 0 1
-27.773757 0.946012 -24.234923 36.872862 -0.034048 2.287969 0.098516 0.007724 -372663.000000 0 0 1
-26.344737 1.048912 -23.707423 35.456837 -0.039794 2.303158 0.097084 -0.005070 -915920.000000 0 0 1
-25.360787 0.594912 -24.571523 35.316896 -0.023454 2.340252 0.076948 -0.003670 -780742.000000 0 0 1
-24.066717 0.859312 -24.106823 34.074685 -0.035690 2.356709 0.058031 -0.006136 -226822.000000 0 0 1
-23.037517 0.245312 -25.090653 34.063591 -0.010648 2.398800 0.063593 -0.010591 -177310.000000 0 0 1
-22.953617 0.917312 -26.306243 34.924610 -0.039942 2.423754 0.041720 -0.002440 -80932.800000 0 0 1
-21.979917 0.302212 -27.087323 34.884540 -0.013749 2.459865 0.035174 -0.012929 -486526.000000 0 0 1
-21.833517 0.849512 -28.479153 35.895491 -0.038889 2.487156 0.031716 0.001432 227661.000000 0 0 1
-20.930817 1.993812 -28.525763 35.437177 -0.094971 2.506416 0.035815 0.001483 728935.000000 0 0 1
-21.033117 2.689512 -29.754943 36.537407 -0.127180 2.522438 0.020286 0.002716 97729.900000 0 0 1
-20.369217 2.029712 -31.039023 37.181254 -0.099318 2.558571 0.011151 -0.000412 416833.000000 0 0 1
-18.961617 2.120112 -31.186743 36.560234 -0.111348 2.592548 0.003384 0.004283 126544.000000 0 0 1
-18.398217 1.655412 -32.416113 37.310041 -0.089735 2.623632 0.014979 0.004252 -169807.000000 0 0 1
-16.876917 1.639312 -32.231593 36.419682 -0.096830 2.657301 0.029952 -0.019166 -546010.000000 0 0 1
-16.309217 2.898112 -32.300193 36.300028 -0.175862 2.667729 0.040601 -0.010155 38075.500000 0 0 1
-14.949217 2.808112 -32.725113 36.087360 -0.185680 2.706498 0.066371 -0.018043 684920.000000 0 0 1
-14.277017 4.170012 -33.126513 36.312368 -0.284174 2.719577 0.071982 -0.010331 24358.600000 0 0 1
-13.969417 5.033212 -32.049603 35.322158 -0.345823 2.707736 0.078811 -0.019082 119584.000000 0 0 1
-13.632417 6.368312 -32.464963 35.782286 -0.437020 2.707594 0.092826 -0.013466 -158155.000000 0 0 1
-13.210817 7.268312 -31.264983 34.710995 -0.502980 2.692227 0.101859 -0.017051 -150135.000000 0 0 1
-12.020917 6.920712 -30.576853 33.575923 -0.522377 2.715718 0.129757 -0.028840 226339.000000 0 0 1
-12.072017 5.843412 -29.673903 32.564084 -0.450803 2.717096 0.125450 -0.033209 -320897.000000 0 0 1
-10.688017 5.181412 -29.479433 31.782349 -0.451403 2.758575 0.142802 -0.045083 91475.800000 0 0 1
-10.118717 4.407112 -30.506083 32.441211 -0.410765 2.794453 0.118421 -0.041502 169507.000000 0 0 1
-10.762917 3.168812 -30.706113 32.691698 -0.286329 2.791274 0.122642 -0.034802 -32355.000000 0 0 1
-10.199317 2.528712 -32.010883 33.691498 -0.243029 2.824409 0.111285 -0.042381 272188.000000 0 0 1
-10.844917 1.278012 -32.266153 34.063913 -0.117303 2.815259 0.117126 -0.042261 226468.000000 0 0 1
-10.592117 0.643612 -33.519213 35.158851 -0.060689 2.834991 0.101161 -0.029358 -283409.000000 0 0 1
-11.106217 1.356712 33.028272 34.871986 -0.121556 0.326630 0.103534 -0.028749 464732.000000 0 0 1
-12.519717 1.548612 33.051771 35.377409 -0.123069 0.364612 0.078437 -0.031523 229552.000000 0 0 1
-12.927217 1.961812 31.760224 34.346374 -0.150609 0.390539 0.065487 -0.015581 1433770.000000 0 0 1
-14.404017 1.428412 31.440574 34.612508 -0.098844 0.431454 0.073748 -0.012462 1833370.000000 0 0 1
-15.459317 2.297012 31.883936 35.508479 -0.147505 0.455765 0.080344 -0.005971 770297.000000 0 0 1
-16.702217 1.615012 31.633664 35.808672 -0.096395 0.487711 0.072657 0.003403 293398.000000 0 0 1
-17.887617 2.525512 31.316234 36.153168 -0.140261 0.523230 0.066265 0.012962 -725337.000000 0 0 1
-18.337217 3.358812 32.305342 37.298394 -0.181161 0.523385 0.059342 0.001337 291479.000000 0 0 1
-17.468817 4.488012 32.419799 37.099126 -0.251477 0.507691 0.067934 0.000950 -285572.000000 0 0 1
-17.776717 5.362412 33.659103 38.440894 -0.292973 0.504106 0.047287 -0.002963 -354812.000000 0 0 1
-18.990017 6.054612 33.630354 39.093219 -0.308642 0.535016 0.035951 -0.003457 -480979.000000 0 0 1
-19.973517 5.402012 -33.406333 39.295116 -0.264139 2.587047 0.017969 -0.000400 431696.000000 0 0 1
-21.339217 6.157312 -33.407923 40.116879 -0.280914 2.554879 0.013249 -0.003656 96501.000000 0 0 1
-21.342017 7.501512 -32.942983 39.962413 -0.338002 2.539848 0.019960 -0.005603 282194.000000 0 0 1
-20.720417 8.468712 -33.816133 40.553490 -0.387995 2.556869 0.015078 -0.006928 -160569.000000 0 0 1
-20.933317 9.869412 -33.258293 40.518182 -0.440563 2.533648 0.038414 -0.008681 -989119.000000 0 0 1
-20.206417 10.205112 -32.092273 39.272860 -0.467674 2.527266 0.044576 -0.012631 194002.000000 0 0 1
-19.853717 11.577812 -31.977483 39.379883 -0.527942 2.518411 0.062061 -0.020425 235308.000000 0 0 1
-18.896517 12.111712 -33.111733 40.001984 -0.569986 2.545886 0.053250 -0.030390 -724089.000000 0 0 1
-19.567817 12.204612 33.493048 40.664926 -0.557670 0.603006 0.061148 -0.029450 306738.000000 0 0 1
-18.753817 12.563512 32.380003 39.471661 -0.590250 0.608799 0.060102 -0.023869 290025.000000 0 0 1
-19.548817 12.282712 31.058834 38.699772 -0.560976 0.639225 0.079227 -0.024728 -36753.800000 0 0 1
-19.831117 10.910412 30.804414 38.225936 -0.502971 0.633685 0.064208 -0.010556 602404.000000 0 0 1
-18.716917 10.184412 30.252834 37.003772 -0.498324 0.613634 0.053227 -0.019950 606210.000000 0 0 1
-18.750917 8.695012 30.517164 36.857799 -0.434198 0.595318 0.076152 -0.003121 -15465.700000 0 0 1
-19.605217 7.994912 29.647324 36.431400 -0.387208 0.620161 0.075945 -0.007469 149432.000000 0 0 1
-19.698917 6.627712 30.010524 36.504868 -0.324553 0.605713 0.068970 -0.006424 -71435.500000 0 0 1
-20.207317 5.710612 28.862294 35.692839 -0.275419 0.628977 0.072817 -0.009374 -467213.000000 0 0 1
-21.571717 5.856612 28.607324 36.304515 -0.265105 0.663271 0.092394 -0.017486 -566653.000000 0 0 1
-21.951117 4.947112 27.626104 35.630423 -0.221666 0.683525 0.082703 -0.021588 460555.000000 0 0 1
-23.508717 4.890312 27.465184 36.481656 -0.205096 0.718416 0.085953 -0.020672 562838.000000 0 0 1
-24.019017 5.806212 26.514164 36.243981 -0.237184 0.750209 0.102648 -0.029308 389051.000000 0 0 1
-25.436857 5.773912 26.618554 37.268205 -0.223208 0.775254 0.109749 -0.026497 -24547.900000 0 0 1
-26.036467 6.658012 25.471434 37.027296 -0.250354 0.812191 0.108691 -0.031665 -244519.000000 0 0 1
-26.028597 6.177512 24.120794 36.020302 -0.233024 0.837066 0.108433 -0.025760 556782.000000 0 0 1
-27.021877 5.186712 23.856134 36.417014 -0.189638 0.856505 0.102129 -0.022926 21176.000000 0 0 1
-27.268427 4.715912 22.383924 35.592794 -0.171250 0.890673 0.114722 -0.021009 -129441.000000 0 0 1
-28.227927 5.378612 21.609924 35.954612 -0.188285 0.926003 0.101190 -0.016789 -137948.000000 0 0 1
-28.281277 4.643512 20.347124 35.148233 -0.162738 0.953424 0.150622 -0.015899 -78548.900000 0 0 1
-29.058517 5.292312 19.217824 35.238200 -0.180151 0.993967 0.128452 -0.015952 -58140.700000 0 0 1
-30.442217 5.419312 19.477824 36.544262 -0.176174 1.008663 0.131265 -0.010419 -62973.700000 0 0 1
-31.191007 5.690712 18.320824 36.618516 -0.180462 1.046833 0.136676 -0.010778 -462808.000000 0 0 1
-32.686037 5.595712 18.623124 38.033008 -0.169552 1.059100 0.127795 -0.010151 -434613.000000 0 0 1
-33.133477 6.608412 19.474824 38.997015 -0.196865 1.047899 0.118865 -0.007804 -471239.000000 0 0 1
-34.389307 6.345412 20.033624 40.301796 -0.182465 1.050554 0.111957 -0.003327 -254027.000000 0 0 1
-34.926192 7.424412 20.949724 41.398692 -0.209457 1.040200 0.099523 -0.008865 -149538.000000 0 0 1
-34.363820 7.359412 22.233424 41.585552 -0.210975 1.006711 0.097428 -0.016586 27153.400000 0 0 1
-34.420774 8.592312 22.846654 42.197003 -0.244626 0.998661 0.111883 -0.012783 -27594.800000 0 0 1
-0.711817 32.797812 11.617677 34.801919 -1.549097 1.230440 0.117303 -0.022838 -21167.200000 0 0 1
-1.014917 32.885712 12.972477 35.366442 -1.539944 1.195227 0.107041 -0.016635 -21987.600000 0 0 1
-0.523917 -33.836740 13.508777 36.437433 1.555314 1.190992 0.102214 -0.022982 -24742.700000 0 0 1
-0.381717 -33.905740 15.044877 37.095731 1.559539 1.153195 0.100000 -0.013677 533250.000000 0 0 1
-1.643117 -33.898140 15.706077 37.396051 1.522362 1.137359 0.091761 -0.006275 220515.000000 0 0 1
-1.477117 33.920612 17.080677 38.007095 -1.527278 1.104694 0.083839 -0.020847 -199318.000000 0 0 1
-2.661017 -33.619240 18.006477 38.230453 1.491809 1.080374 0.068601 -0.014969 -59234.300000 0 0 1
-3.623817 33.274212 18.216577 38.107071 -1.462316 1.072378 0.054870 -0.009882 14761.000000 0 0 1
-4.452017 33.755812 19.254477 39.115344 -1.439664 1.056125 0.038317 -0.011349 -484607.000000 0 0 1
-5.629517 32.848812 19.611277 38.669602 -1.401069 1.038922 0.035060 -0.015708 -489153.000000 0 0 1
-6.617817 32.879612 18.607277 38.354858 -1.372176 1.064279 0.040432 -0.018771 -722184.000000 0 0 1
-7.606217 31.992812 19.040877 37.999336 -1.337382 1.045945 0.049640 -0.033217 -699396.000000 0 0 1
-8.625017 31.767012 17.903377 37.470853 -1.305679 1.072654 0.035293 -0.027183 -411177.000000 0 0 1
-9.437517 32.927212 17.688977 38.550848 -1.291662 1.094098 0.054342 -0.029940 -362137.000000 0 0 1
-10.090917 32.907012 16.479677 38.161208 -1.273250 1.124260 0.054468 -0.022691 -226486.000000 0 0 1
-11.138317 -33.866940 16.419177 39.250747 1.253055 1.139207 0.097073 -0.032340 611439.000000 0 0 1
-12.259417 33.827812 17.296777 39.922333 -1.223112 1.122689 0.097696 -0.031692 712407.000000 0 0 1
-13.351817 -33.260640 16.910977 39.629816 1.189058 1.129929 0.077122 -0.035320 128390.000000 0 0 1
-14.702117 -33.621640 17.530577 40.668023 1.158569 1.125123 0.110405 -0.035495 -198932.000000 0 0 1
-14.817617 -33.152740 18.826877 40.903756 1.150482 1.092494 0.109709 -0.032737 81624.300000 0 0 1
-16.057017 -33.561940 19.384477 41.952230 1.124554 1.090479 0.111435 -0.037270 371222.000000 0 0 1
-16.140317 -33.148640 20.819677 42.341482 1.117678 1.056745 0.111465 -0.046642 50631.000000 0 0 1
-16.304117 -31.691040 20.988477 41.360155 1.095639 1.038566 0.099789 -0.041274 51589.500000 0 0 1
-15.968517 -31.242840 22.305277 41.576844 1.098301 1.004532 0.098455 -0.026783 117390.000000 0 0 1
-15.914217 -29.727240 22.515877 40.545479 1.079277 0.982044 0.099101 -0.027949 -121411.000000 0 0 1
-15.768817 -29.372840 23.891377 41.014842 1.078105 0.948988 0.107760 -0.027242 -16131.900000 0 0 1
-15.637517 -28.051640 24.167777 40.193381 1.062248 0.925685 0.077660 -0.010944 -84174.500000 0 0 1
-16.856417 -27.144840 23.863577 39.880465 1.015093 0.929322 0.097703 -0.012671 -609823.000000 0 0 1
-17.876217 -27.266540 24.798177 40.963068 0.990487 0.920554 0.112710 -0.017324 -541394.000000 0 0 1
-18.836417 -26.322140 24.413677 40.542488 0.949670 0.924574 0.105533 -0.019733 -461157.000000 0 0 1
-19.888517 -25.934140 25.515677 41.463026 0.916576 0.907923 0.107263 -0.018051 251253.000000 0 0 1
-20.668217 -26.942340 26.140177 42.852932 0.916423 0.914739 0.129384 -0.023452 609995.000000 0 0 1
-21.596417 -27.689340 25.348877 43.309010 0.908399 0.945543 0.109873 -0.031884 150573.000000 0 0 1
-23.009117 -27.053440 25.268877 43.586973 0.866009 0.952393 0.074873 -0.014814 -373633.000000 0 0 1
-23.067117 -25.844940 24.545977 42.456540 0.842129 0.954345 0.086422 -0.008767 68717.400000 0 0 1
-24.228317 -25.869040 23.752277 42.666020 0.818137 0.980385 0.069493 -0.002885 -263844.000000 0 0 1
-24.797117 -24.569940 23.266877 41.951478 0.780796 0.982897 0.065384 0.012966 -170318.000000 0 0 1
-25.093977 -23.725940 24.344177 42.252419 0.757383 0.956773 0.052511 0.009406 318038.000000 0 0 1
-25.896667 -22.647540 23.844877 41.858411 0.718567 0.964710 0.044485 0.024209 460606.000000 0 0 1
-26.467467 -21.761640 25.015277 42.424756 0.688134 0.940185 0.052981 0.016836 633745.000000 0 0 1
-27.423497 -22.440140 25.859877 43.867315 0.685789 0.940354 0.040876 0.015445 624956.000000 0 0 1
-27.941337 -21.549040 26.815277 44.318603 0.656947 0.920959 0.038680 0.007776 -713872.000000 0 0 1
-29.105137 -21.951740 27.767277 45.825861 0.646198 0.919862 0.030544 0.006254 79876.400000 0 0 1
-30.418347 -21.850240 27.277577 46.333304 0.622919 0.941316 0.029994 0.009109 175133.000000 0 0 1
-30.803277 -22.658140 26.167777 46.335578 0.634205 0.970672 0.016632 0.022113 -1922040.000000 0 0 1
-32.314987 -22.803840 26.130877 47.403547 0.614524 0.986943 0.016835 0.006814 -643975.000000 0 0 1
-32.838667 -23.204440 24.847477 47.267549 0.615155 1.017285 0.014246 0.003977 406656.000000 0 0 1
-32.554007 -24.572740 24.558977 47.610149 0.646585 1.028814 -0.001035 0.005956 -845588.000000 0 0 1
-32.852287 -25.013740 23.137777 47.331984 0.650757 1.060037 0.019624 -0.001053 -724222.000000 0 0 1
-34.162541 -25.415740 22.948977 48.370390 0.639628 1.076466 0.042252 -0.010272 -840336.000000 0 0 1
-34.341443 -25.920640 21.649777 48.165622 0.646561 1.104606 0.048652 -0.009398 289785.000000 0 0 1
-35.749940 -26.553940 21.469077 49.437751 0.638857 1.121574 0.063231 -0.011515 68445.200000 0 0 1
-36.042371 -27.663740 22.216477 50.575754 0.654629 1.116009 0.054649 -0.008126 -12894.800000 0 0 1
-35.138807 -28.757440 22.194677 50.540378 0.685857 1.116147 0.034515 -0.006949 -640310.000000 0 0 1
-35.362472 -29.800840 21.117277 50.838311 0.700255 1.142435 0.055828 -0.016241 -184891.000000 0 0 1
-35.361493 -29.332140 19.753777 50.010212 0.692468 1.164734 0.061637 -0.020996 440014.000000 0 0 1
-35.903444 -30.313940 18.852877 50.630260 0.701186 1.189242 0.077616 -0.018719 -8952.530000 0 0 1
-36.338857 -29.697240 17.527777 50.096523 0.685160 1.213353 0.088604 -0.014451 -142910.000000 0 0 1
-35.207155 -29.378040 16.730877 48.811221 0.695387 1.220936 0.111158 -0.027386 189283.000000 0 0 1
-35.509400 -28.790040 15.507577 48.272858 0.681275 1.243749 0.110998 -0.026831 -284415.000000 0 0 1
-36.158787 -29.677840 14.396677 48.943808 0.687274 1.272233 0.116128 -0.034575 -135459.000000 0 0 1
-35.384203 -30.774540 13.938877 48.922453 0.715835 1.281876 0.122455 -0.049865 34924.200000 0 0 1
-35.988412 -31.775140 13.058477 49.752881 0.723302 1.305219 0.119142 -0.045072 -50796.500000 0 0 1
-36.487797 -31.316340 11.674577 49.480989 0.709275 1.332610 0.123779 -0.048374 -42726.600000 0 0 1
36.915811 -30.469640 11.761577 49.290067 -0.690027 1.329852 0.125229 -0.053065 -40540.600000 0 0 1
36.791761 -29.625240 10.604977 48.412334 -0.677912 1.349950 0.093590 -0.031802 36173.600000 0 0 1
35.547181 -28.717440 10.482777 46.884774 -0.679520 1.345304 0.123103 -0.023330 134198.000000 0 0 1
35.775381 -27.575540 9.605677 46.179620 -0.656679 1.361260 0.129520 -0.053284 539187.000000 0 0 1
34.537151 -26.899040 9.439077 44.782467 -0.661707 1.358427 0.104489 -0.045620 296843.000000 0 0 1
34.531961 -25.971540 8.209777 43.981560 -0.644845 1.383031 0.093980 -0.044890 21097.100000 0 0 1
35.122351 -24.709440 8.465577 43.769875 -0.613088 1.376159 0.116055 -0.050179 126503.000000 0 0 1
35.205131 -24.030840 7.218577 43.231821 -0.598949 1.403037 0.101603 -0.049562 474370.000000 0 0 1
36.017441 -22.681840 7.418777 43.206020 -0.562005 1.398234 0.119933 -0.050019 353132.000000 0 0 1
35.155611 -21.701940 7.958277 42.074046 -0.553051 1.380501 0.100381 -0.044219 169289.000000 0 0 1
35.602451 -20.346340 7.775377 41.736849 -0.519190 1.383406 0.122449 -0.039798 88587.400000 0 0 1
34.837161 -19.340740 8.678477 40.779995 -0.506808 1.356344 0.126112 -0.026574 243961.000000 0 0 1
35.288071 -19.291040 10.044077 41.452089 -0.500285 1.326055 0.114528 -0.042397 423078.000000 0 0 1
34.345671 -18.598540 10.867877 40.541849 -0.496302 1.299412 0.119940 -0.028311 327611.000000 0 0 1
34.789571 -18.606840 12.340377 41.337799 -0.491129 1.267649 0.118703 -0.041720 666958.000000 0 0 1
36.039211 -17.962140 12.619077 42.198392 -0.462371 1.267108 0.098327 -0.038156 870628.000000 0 0 1
36.470951 -18.221840 13.960577 43.093659 -0.463348 1.240885 0.106771 -0.032697 229297.000000 0 0 1
-36.733537 -17.516140 14.382977 43.162923 0.444951 1.231074 0.110459 -0.037322 857726.000000 0 0 1
-35.565170 -17.996240 13.674877 42.139628 0.468442 1.240299 0.095927 -0.035333 791561.000000 0 0 1
-34.426903 -17.433440 14.291077 41.150594 0.468747 1.216120 0.076324 -0.031072 81483.800000 0 0 1
-33.121837 -17.327340 13.461477 39.730393 0.481987 1.225133 0.084989 -0.030031 320508.000000 0 0 1
-32.434107 -18.568540 13.369977 39.692799 0.519954 1.227241 0.091683 -0.032000 85028.700000 0 0 1
-31.217147 -18.459640 12.663377 38.413926 0.534020 1.234857 0.099144 -0.032360 200739.000000 0 0 1
-30.447127 -19.814040 12.542177 38.430846 0.576915 1.238349 0.092751 -0.036553 226342.000000 0 0 1
-31.097207 -20.706140 11.684777 39.144789 0.587438 1.267674 0.095214 -0.036056 270177.000000 0 0 1
-30.106107 -21.642340 11.272877 38.753662 0.623278 1.275644 0.087195 -0.041571 286325.000000 0 0 1
-30.592027 -22.473040 10.052977 39.267951 0.633575 1.311904 0.097261 -0.040082 784119.000000 0 0 1
-31.475897 -23.583440 10.330177 40.664767 0.643023 1.313949 0.103034 -0.039122 806367.000000 0 0 1
-32.856817 -23.253240 10.394477 41.573173 0.615885 1.318087 0.123583 -0.046130 81223.200000 0 0 1
-33.835327 -24.454440 10.399177 43.023155 0.625831 1.326667 0.154143 -0.048080 -590198.000000 0 0 1
-34.087324 -25.084940 9.141577 43.298595 0.634417 1.358067 0.141492 -0.042055 -173788.000000 0 0 1
-34.721558 -26.306640 9.378677 44.559909 0.648376 1.358737 0.148554 -0.038472 -101599.000000 0 0 1
-34.918100 -27.069240 8.087777 44.915806 0.659448 1.389744 0.125833 -0.034658 -448512.000000 0 0 1
-33.673337 -27.431240 7.597877 44.091885 0.683597 1.397613 0.126876 -0.033975 -599851.000000 0 0 1
-33.743407 -28.180040 6.413877 44.428257 0.695796 1.425925 0.098314 -0.029045 -194911.000000 0 0 1
-32.356547 -28.457140 5.811677 43.480232 0.721365 1.436733 0.092136 -0.020258 -3291.600000 0 0 1
-31.763967 -27.328540 5.229577 42.227327 0.710480 1.446634 0.091343 -0.010779 267565.000000 0 0 1
-30.540557 -27.584040 4.534777 41.402525 0.734577 1.461047 0.086685 -0.013534 598603.000000 0 0 1
-29.883207 -26.373940 3.879577 40.045498 0.723100 1.473765 0.063064 -0.005591 -32338.500000 0 0 1
-30.419947 -26.038540 2.651977 40.129936 0.707949 1.504663 0.087340 -0.013046 -220025.000000 0 0 1
-29.689487 -24.971740 2.075977 38.850523 0.699303 1.517336 0.083680 -0.014286 -119179.000000 0 0 1
-30.201367 -24.543940 0.668677 38.922676 0.682423 1.553616 0.091086 -0.013691 -278455.000000 0 0 1
-29.678087 -25.246540 -0.439523 38.966265 0.704888 1.582076 0.087656 -0.014200 -175292.000000 0 0 1
-29.821797 -24.608540 -1.705323 38.701782 0.689911 1.614874 0.093552 -0.015837 -429375.000000 0 0 1
-31.225277 -24.517140 -2.300423 39.766821 0.665632 1.628676 0.117563 -0.011241 -88874.400000 0 0 1
-32.038137 -23.481140 -1.740823 39.759736 0.632475 1.614594 0.110463 -0.010897 -711805.000000 0 0 1
-33.348947 -23.599940 -2.174723 40.912576 0.615853 1.623977 0.121117 -0.016799 -624895.000000 0 0 1
-34.159547 -22.269440 -1.896523 40.821556 0.577727 1.617272 0.127146 -0.019834 81060.900000 0 0 1
-34.367539 -22.009540 -0.490623 40.814070 0.569609 1.582818 0.130617 -0.028059 513431.000000 0 0 1
-35.123523 -20.838640 -0.210423 40.840606 0.535475 1.575949 0.127399 -0.025771 -127999.000000 0 0 1
-35.326026 -20.484340 1.305877 40.856353 0.525483 1.538828 0.124292 -0.026983 -37450.200000 0 0 1
-36.294297 -21.356840 1.864677 42.152908 0.531873 1.526546 0.117551 -0.039682 339942.000000 0 0 1
-36.535357 -21.058540 3.228577 42.293240 0.522877 1.494384 0.135169 -0.039028 -1285670.000000 0 0 1
36.966451 -21.880640 3.943577 43.137370 -0.534446 1.479249 0.148658 -0.036667 972008.000000 0 0 1
35.576191 -21.671240 3.578177 41.810422 -0.547120 1.485111 0.111073 -0.028605 1338130.000000 0 0 1
34.982351 -20.431540 4.022977 40.711141 -0.528611 1.471817 0.109417 -0.035459 -491445.000000 0 0 1
33.835861 -20.059540 3.069077 39.454656 -0.535144 1.492930 0.092465 -0.021443 1095350.000000 0 0 1
32.631531 -20.862140 3.272677 38.868446 -0.568834 1.486498 0.082179 -0.015253 1254010.000000 0 0 1
31.537821 -20.429940 2.443277 37.656157 -0.574821 1.505867 0.094385 -0.022214 846609.000000 0 0 1
30.220231 -21.140940 2.838477 36.989980 -0.610432 1.493984 0.079066 -0.007881 -17919.000000 0 0 1
30.236811 -22.428140 2.377077 37.721833 -0.638200 1.507739 0.047267 -0.008374 502222.000000 0 0 1
29.009301 -23.103940 2.686777 37.182662 -0.672562 1.498474 0.049274 -0.008148 528233.000000 0 0 1
28.764401 -24.309040 1.780577 37.702661 -0.701647 1.523552 0.043322 -0.006107 -26998.600000 0 0 1
28.397101 -23.956840 0.456177 37.155533 -0.700788 1.558519 0.041580 -0.014155 168419.000000 0 0 1
28.015301 -25.051140 -0.371323 37.583967 -0.729599 1.580676 0.042767 -0.017082 184265.000000 0 0 1
27.097301 -24.642340 -1.589623 36.661090 -0.737985 1.614170 0.061673 -0.024207 15949.100000 0 0 1
27.803701 -23.998140 -2.608823 36.820680 -0.712066 1.641708 0.041285 -0.037132 88944.600000 0 0 1
28.102701 -24.781340 -3.776123 37.658143 -0.722676 1.671239 0.041590 -0.036695 435255.000000 0 0 1
26.903101 -25.255940 -4.720123 37.201060 -0.753829 1.698021 0.059121 -0.038033 844425.000000 0 0 1
26.347001 -24.229540 -5.537323 36.220119 -0.743556 1.724278 0.064497 -0.052966 466722.000000 0 0 1
25.148401 -23.673940 -5.016923 34.900817 -0.755207 1.715044 0.058562 -0.056075 -411069.000000 0 0 1
24.523001 -22.697440 -5.977223 33.945229 -0.746757 1.747804 0.059697 -0.063367 -349884.000000 0 0 1
24.030701 -23.302840 -7.172623 34.233660 -0.770022 1.781880 0.074807 -0.064263 447196.000000 0 0 1
22.985901 -22.520040 -7.762223 33.102204 -0.775161 1.807493 0.076755 -0.065681 42719.800000 0 0 1
23.282301 -21.137140 -8.490823 32.572048 -0.737142 1.834521 0.076759 -0.065074 -684521.000000 0 0 1
23.760201 -21.328140 -9.758523 33.386606 -0.731510 1.867415 0.086014 -0.067646 -154508.000000 0 0 1
23.628401 -20.101640 -10.421823 32.726009 -0.704924 1.894898 0.087369 -0.067016 -657542.000000 0 0 1
24.373101 -19.964740 -11.700023 33.608472 -0.686297 1.926369 0.089812 -0.063502 543281.000000 0 0 1
25.790401 -19.853640 -11.456123 34.504413 -0.656058 1.909240 0.097780 -0.063094 992653.000000 0 0 1
26.575601 -19.566640 -12.610123 35.328900 -0.634652 1.935781 0.083667 -0.060958 1125790.000000 0 0 1
28.100101 -19.849740 -12.300223 36.536603 -0.615004 1.914158 0.069305 -0.058700 834704.000000 0 0 1
28.255301 -21.264540 -12.342023 37.454882 -0.645154 1.906588 0.060559 -0.057613 19251.600000 0 0 1
29.430501 -21.711540 -11.710823 38.401676 -0.635597 1.880689 0.071230 -0.060366 -88977.000000 0 0 1
29.907821 -23.185840 -12.008423 39.702181 -0.659462 1.878071 0.061907 -0.045354 -7558.530000 0 0 1
30.621771 -23.448340 -13.213823 40.769138 -0.653499 1.900871 0.045839 -0.046482 291763.000000 0 0 1
30.809201 -24.780040 -13.442123 41.760602 -0.677361 1.898516 0.053763 -0.031834 -122391.000000 0 0 1
-4.029217 -8.981188 -27.255363 28.978460 1.149084 2.795009 0.038240 0.002187 200428.000000 0 0 1
-3.955617 -7.629988 -26.757693 28.104052 1.092513 2.830808 0.032703 0.000122 -110663.000000 0 0 1
-4.775117 -6.808388 -27.524683 28.753505 0.959160 2.848184 0.040160 -0.003015 -324604.000000 0 0 1
-4.861217 -5.432188 -26.789943 27.764026 0.840811 2.875918 0.046454 -0.016948 -4842.990000 0 0 1
-5.492417 -5.501588 -25.527263 26.684738 0.786232 2.845981 0.049037 -0.012860 141401.000000 0 0 1
-5.479517 -4.243088 -24.883423 25.830479 0.658907 2.869966 0.062995 -0.021507 11921.400000 0 0 1
-6.105217 -4.276988 -23.493323 24.647566 0.611093 2.834347 0.049130 -0.021262 -292372.000000 0 1 0
-5.352817 -5.086588 -22.624523 23.799056 0.759901 2.826114 0.046666 -0.025886 287452.000000 0 1 0
-5.799217 -5.116888 -21.289223 22.650485 0.722973 2.793138 0.041720 -0.021424 -258936.000000 0 1 0
-5.015917 -6.174288 -20.514823 22.003164 0.888547 2.771677 0.034155 -0.016231 -242661.000000 0 1 0
-5.434917 -7.539888 -20.660923 22.655286 0.946232 2.718855 0.030271 -0.009447 509740.000000 0 1 0
-4.548317 -8.469188 -20.034023 22.221080 1.077955 2.694198 0.030770 -0.011039 -819280.000000 0 1 0
-5.093317 -9.900688 -20.153423 23.024464 1.095663 2.636862 0.042006 -0.002124 -145363.000000 0 1 0
-6.096417 -10.197888 -19.230923 22.605124 1.031987 2.588174 0.042431 -0.003506 -462661.000000 0 1 0
-7.381217 -9.702888 -19.512723 23.008145 0.920467 2.583145 0.047099 -0.012136 -929556.000000 0 1 0
-8.292517 -9.893588 -18.280523 22.379152 0.873210 2.526734 0.039121 -0.015400 -364896.000000 0 1 0
-8.949017 -11.134988 -18.380623 23.279179 0.893813 2.480910 0.051969 -0.015941 471438.000000 0 1 0
-9.799517 -11.316688 -17.212723 22.811747 0.857124 2.425772 0.056961 -0.018309 16652.000000 0 1 0
-10.912517 -12.331788 -17.364723 23.930934 0.846381 2.382729 0.081251 -0.015755 -37181.000000 0 1 0
-12.063717 -12.016388 -18.151923 24.888133 0.783433 2.388154 0.093770 -0.030245 581592.000000 0 1 0
-11.885917 -12.065788 -19.543323 25.861163 0.792908 2.427521 0.096142 -0.031137 260576.000000 0 0 1
-13.211617 -11.694288 -20.355623 26.937976 0.724551 2.427439 0.092770 -0.028750 1359500.000000 0 0 1
-14.209317 -12.691788 -20.438423 27.941283 0.729047 2.391283 0.083548 -0.026978 329694.000000 0 0 1
-14.989017 -12.928388 -19.258923 27.617385 0.711720 2.342487 0.075788 -0.024240 -99678.400000 0 0 1
-16.251517 -13.788388 -19.472123 28.868582 0.703586 2.311096 0.076781 -0.017522 456789.000000 0 0 1
-15.804417 -15.145188 -19.648623 29.414702 0.764101 2.302296 0.080638 -0.016281 195416.000000 0 0 1
-16.650117 -15.716888 -20.606023 30.803492 0.756573 2.303593 0.073001 -0.017992 -70104.700000 0 0 1
-16.215517 -17.088888 -20.979623 31.545486 0.811616 2.298370 0.069121 -0.013154 -147030.000000 0 0 1
-16.342217 -18.127088 -20.021623 31.567780 0.837133 2.257824 0.067001 -0.003091 125088.000000 0 0 1
-15.858717 -19.352988 -20.555623 32.381641 0.884310 2.258536 0.060449 -0.003510 108160.000000 0 0 1
-16.562017 -20.534888 -19.795023 32.982192 0.892086 2.214514 0.069637 -0.014653 143176.000000 0 0 1
-16.103217 -21.820888 -20.219623 33.827473 0.935037 2.211460 0.070083 -0.014757 750809.000000 0 0 1
-17.083617 -22.721388 -19.703723 34.588266 0.926097 2.176894 0.086235 -0.016486 554842.000000 0 0 1
-16.648717 -24.206288 -19.986723 35.532988 0.968316 2.168183 0.089639 -0.018705 38435.300000 0 0 1
-16.659517 -24.460388 -21.367723 36.502461 0.972881 2.196142 0.069010 -0.011942 132568.000000 0 0 1
-16.171617 -25.770008 -21.564523 37.291328 1.010375 2.187405 0.079847 -0.017112 -219972.000000 0 0 1
-16.403617 -26.234218 -23.040223 38.576738 1.011999 2.210873 0.083312 -0.021540 52361.700000 0 0 1
-17.606117 -26.934728 -23.303823 39.730632 0.991853 2.197583 0.105062 -0.023158 -258695.000000 0 0 1
-17.452917 -28.340078 -23.300623 40.628603 1.018812 2.181572 0.104330 -0.021273 -354853.000000 0 0 1
-18.554417 -29.272928 -23.885223 42.091265 1.005864 2.174217 0.101657 -0.028533 16311.400000 0 0 1
-18.690917 -29.234988 -25.280263 42.931650 1.001956 2.200430 0.105684 -0.022936 174797.000000 0 0 1
-19.029417 -27.972348 -25.904373 42.609946 0.973419 2.224262 0.122538 -0.032576 15305.500000 0 0 1
-17.898817 -27.385968 -26.807093 42.296325 0.991911 2.257243 0.135530 -0.039634 296854.000000 0 0 1
-17.877317 -27.855508 -28.098823 43.417412 1.000216 2.274674 0.130212 -0.024400 -401156.000000 0 0 1
-16.754517 -27.468078 -28.825063 43.198303 1.023083 2.301338 0.109039 -0.021088 -545640.000000 0 0 1
-16.855917 -27.524058 -30.372963 44.319438 1.021304 2.325838 0.102893 -0.024549 -123878.000000 0 0 1
-16.895817 -28.815728 -30.975933 45.555716 1.040481 2.318500 0.090250 -0.026815 157811.000000 0 0 1
-17.161317 -28.705948 -32.344353 46.526330 1.031973 2.339472 0.083579 -0.024407 -58499.500000 0 0 1
-17.381417 -30.200628 -32.813333 47.863414 1.048563 2.326172 0.080992 -0.026715 431773.000000 0 0 1
-16.204717 -30.814808 -33.344323 48.207770 1.086664 2.334608 0.100316 -0.020146 321707.000000 0 0 1
-16.507217 -32.008818 33.871744 49.440345 1.094661 0.816051 0.102820 -0.017902 362844.000000 0 0 1
-15.271917 -32.661998 33.184624 49.002621 1.133424 0.826844 0.084052 -0.023010 608087.000000 0 0 1
-14.292117 -33.233988 -33.801123 49.510388 1.164660 2.322258 0.101695 -0.020751 587009.000000 0 0 1
-13.191517 -33.722908 33.246190 49.158517 1.197922 0.828060 0.106330 -0.019404 89497.000000 0 0 1
-12.305917 33.233597 -33.810533 48.980197 -1.216165 2.332686 0.122738 -0.026039 -408515.000000 0 0 1
-11.445617 -33.941518 -32.970723 48.683646 1.245556 2.314807 0.131130 -0.023354 351505.000000 0 0 1
-10.674917 33.113389 -32.068223 47.316184 -1.258941 2.315485 0.123469 -0.035792 651678.000000 0 0 1
-9.664217 33.926594 -31.202623 47.095801 -1.293290 2.294995 0.110763 -0.035472 121241.000000 0 0 1
-10.315417 -33.169538 -30.266173 46.072414 1.269287 2.287531 0.129210 -0.041749 -693558.000000 0 0 1
-9.482917 -32.231688 -29.690043 44.836437 1.284659 2.294528 0.130950 -0.047293 -390178.000000 0 0 1
-10.095017 -31.241408 -28.577383 43.527023 1.258257 2.287023 0.151299 -0.044250 113623.000000 0 0 1
-10.264017 -31.632598 -27.216883 42.973597 1.257039 2.256657 0.177166 -0.044315 -85336.900000 0 0 1
-11.169517 -32.679328 -26.960643 43.812930 1.241453 2.233637 0.175864 -0.041694 -72162.200000 0 0 1
-11.459217 -32.869988 -25.459233 43.126817 1.235349 2.202269 0.172431 -0.046438 405309.000000 0 0 1
-10.258417 -33.206838 -24.782923 42.686327 1.271172 2.190240 0.181546 -0.051566 272412.000000 0 0 1
-10.560217 -33.356368 -23.373523 42.077156 1.264192 2.159751 0.171245 -0.053378 -28533.700000 0 0 1
-9.330117 -33.622718 -22.512123 41.525100 1.300113 2.143770 0.172288 -0.053640 -181797.000000 0 0 1
-8.708417 33.033865 -22.665323 40.997434 -1.313040 2.156574 0.154421 -0.056487 -15876.300000 0 0 1
-8.062917 32.684295 -21.425723 39.904077 -1.328935 2.137591 0.168205 -0.055748 327196.000000 0 0 1
-7.176817 31.396644 -21.461323 38.701993 -1.346072 2.158591 0.163805 -0.065546 351099.000000 0 0 1
-5.936817 31.445034 -22.141723 38.913903 -1.384193 2.176077 0.136691 -0.065467 -179958.000000 0 0 1
-5.243317 30.250354 -22.017323 37.780137 -1.399171 2.192936 0.127725 -0.053987 -166452.000000 0 0 1
-3.796117 30.545024 -22.483123 38.116922 -1.447151 2.201665 0.123679 -0.059482 -123435.000000 0 0 1
-3.786417 30.949504 -23.825723 39.241226 -1.449060 2.223278 0.129837 -0.054380 907533.000000 0 0 1
-2.452217 31.289894 -24.262923 39.670647 -1.492585 2.228889 0.106597 -0.056997 836165.000000 0 0 1
-2.296817 31.575204 -25.833673 40.861320 -1.498183 2.255222 0.108224 -0.036338 -276620.000000 0 0 1
-1.188417 32.352686 -26.171083 41.629727 -1.534080 2.250630 0.099676 -0.044793 -514560.000000 0 0 1
-1.521917 33.701284 -26.065983 42.632478 -1.525668 2.228639 0.088393 -0.033290 -24463.800000 0 0 1
-0.552517 -33.173348 -26.682253 42.576037 1.554142 2.248103 0.043277 -0.015630 567765.000000 0 0 1
0.738983 -33.051948 -26.064313 42.099000 -1.548442 2.238417 0.050690 -0.019233 470771.000000 0 0 1
1.239583 -31.800628 -26.385983 41.340496 -1.531836 2.263032 0.039766 -0.014520 278400.000000 0 0 1
2.517583 -31.369148 -25.583793 40.557270 -1.490711 2.253389 0.038479 -0.015469 337166.000000 0 0 1
2.253983 -30.748168 -24.291523 39.250584 -1.497623 2.238116 0.036846 -0.017259 627052.000000 0 0 1
3.332783 -29.894458 -23.904023 38.421197 -1.459770 2.242291 0.020463 -0.013785 25861.500000 0 0 1
3.272683 -29.360438 -22.471723 37.117706 -1.459789 2.221087 0.038153 -0.014061 -197186.000000 0 0 1
3.579583 -30.330838 -21.513823 37.357968 -1.453322 2.184480 0.050823 -0.018059 346923.000000 0 0 1
3.717683 -29.764128 -20.220623 36.174550 -1.446535 2.163944 0.055496 -0.016753 -424525.000000 0 0 1
3.524783 -30.800958 -19.083523 36.404725 -1.456855 2.122577 0.062240 -0.015176 -184167.000000 0 0 1
2.241183 -31.359968 -18.832823 36.648953 -1.499451 2.110487 0.064822 -0.021686 350934.000000 0 0 1
2.135883 -32.757248 -19.107123 37.982647 -1.505685 2.097919 0.061782 -0.016406 -321576.000000 0 0 1
2.868283 -33.768598 -18.168723 38.453189 -1.486060 2.062909 0.049402 -0.033086 1380960.000000 0 0 1
4.205783 33.902394 -18.696323 38.943721 1.447371 2.071549 0.059210 -0.021596 1349970.000000 0 0 1
4.889083 32.892340 -17.916323 37.773056 1.423238 2.064982 0.062182 -0.040649 227045.000000 0 0 1
6.063583 32.222999 -18.622723 37.708016 1.384796 2.087327 0.072101 -0.033111 -177326.000000 0 0 1
7.267483 32.947776 -18.711423 38.580949 1.353697 2.077149 0.116974 -0.033298 -576738.000000 0 0 1
8.188383 32.185259 -19.424323 38.473950 1.321668 2.100027 0.081185 -0.046267 -885951.000000 0 0 1
9.508783 32.881174 -19.641823 39.463778 1.289290 2.091762 0.062105 -0.040137 -800146.000000 0 0 1
10.359383 33.059955 -18.561323 39.303945 1.267136 2.062639 0.051001 -0.033465 118314.000000 0 0 1
11.559883 33.767456 -18.841923 40.359509 1.240964 2.056524 0.050996 -0.022387 281037.000000 0 0 1
12.500983 33.799603 -17.634323 40.120532 1.216543 2.025876 0.017189 -0.018998 79438.500000 0 0 1
13.170683 32.551610 -17.249923 39.123318 1.186323 2.027410 0.023612 -0.024380 265524.000000 0 0 1
13.953083 32.660294 -16.109623 38.998760 1.167048 1.996630 0.016159 -0.028488 -148927.000000 0 0 1
14.983083 31.557544 -15.801923 38.341519 1.127523 1.995594 0.034691 -0.026887 204696.000000 0 0 1
14.502783 30.340594 -15.281323 36.937801 1.124904 1.997315 0.047533 -0.023361 -115973.000000 0 0 1
15.601183 29.447814 -15.211423 36.632745 1.083601 1.999004 0.034014 -0.012807 -414706.000000 0 0 1
15.424283 28.349504 -14.104423 35.221266 1.072513 1.982806 0.055007 -0.012572 -771991.000000 0 0 1
15.478783 28.844644 -12.753023 35.131834 1.078279 1.942287 0.061421 -0.019781 704224.000000 0 0 1
14.219983 28.966344 -12.046523 34.443805 1.114444 1.928094 0.064336 -0.020674 1054720.000000 0 0 1
13.614783 27.545644 -11.675223 32.869981 1.111749 1.933918 0.065203 -0.017953 -582963.000000 0 0 1
12.921583 26.934414 -12.770223 32.488591 1.123486 1.974762 0.062501 -0.023841 142178.000000 0 0 1
12.279483 25.704024 -12.485923 31.102746 1.125126 1.983886 0.083550 -0.031807 235633.000000 0 0 1
11.254283 25.628714 -11.344523 30.202451 1.157020 1.955858 0.078195 -0.026187 -1394520.000000 0 0 1
9.988783 26.140614 -11.602923 30.294146 1.205800 1.963848 0.064712 -0.024707 -528150.000000 0 0 1
9.364883 26.294534 -10.318723 29.758689 1.228650 1.924897 0.043744 -0.010445 71920.700000 0 0 1
8.237483 27.342624 -10.434523 30.403198 1.278176 1.921123 0.047472 -0.015323 103189.000000 0 0 1
8.801683 28.582584 -10.780823 31.790877 1.272072 1.916774 0.048537 -0.023174 482586.000000 0 0 1
7.796983 29.596054 -10.684623 32.417287 1.313203 1.906672 0.040915 -0.022978 507348.000000 0 0 1
8.275283 31.019854 -11.182123 33.996345 1.310094 1.905957 0.075998 -0.026427 -34986.400000 0 0 1
9.089083 31.750604 -10.266623 34.584907 1.291988 1.872191 0.065935 -0.021608 -66962.500000 0 0 1
9.537783 33.003952 -10.695723 35.980948 1.289472 1.872619 0.068370 -0.022291 -356485.000000 0 0 1
10.765083 32.974773 -11.587023 36.571598 1.255241 1.893183 0.046524 -0.021040 -194793.000000 0 0 1
12.005983 32.575858 -10.979423 36.412606 1.217688 1.877091 0.044996 -0.012970 143882.000000 0 0 1
13.017083 32.771043 -11.922423 37.222706 1.192695 1.896842 0.047943 -0.015197 155999.000000 0 0 1
14.434883 32.391883 -11.383423 37.244895 1.151580 1.881404 0.052015 -0.018731 412394.000000 0 0 1
14.866083 33.241286 -10.395323 37.868803 1.150259 1.848875 0.053914 -0.011001 -896391.000000 0 0 1
16.258683 33.237474 -10.394623 38.433353 1.115852 1.844665 0.064811 -0.019577 -867795.000000 0 0 1
16.824883 -33.629958 -9.473523 38.778840 -1.106913 1.817590 0.076016 -0.021859 -249556.000000 0 0 1
16.788883 -33.940838 -8.101323 38.723101 -1.111437 1.781565 0.076013 -0.030806 173363.000000 0 0 1
17.264983 -32.846168 -7.345923 37.827411 -1.086854 1.766234 0.073638 -0.033975 -1063840.000000 0 0 1
17.580883 -33.410988 -5.960423 38.221829 -1.086409 1.727378 0.083254 -0.027243 269960.000000 0 0 1
18.689683 33.622349 -5.762323 38.896927 1.063457 1.719487 0.080961 -0.036802 -474792.000000 0 0 1
19.929083 -33.759098 -6.076923 39.670821 -1.037516 1.724586 0.097003 -0.035863 -1670000.000000 0 0 1
20.739883 33.202889 -6.982423 39.765925 1.012455 1.747299 0.087315 -0.032461 15853.000000 0 0 1
21.196783 31.978846 -6.451923 38.904723 0.985449 1.737405 0.090466 -0.020794 34754.800000 0 0 1
22.290983 32.115905 -5.559823 39.487098 0.964055 1.712067 0.089284 -0.022478 -335552.000000 0 0 1
22.740783 30.804854 -4.837923 38.593882 0.934877 1.696482 0.062239 -0.020764 49951.100000 0 0 1
23.559283 30.026064 -5.695523 38.588124 0.905499 1.718935 0.052264 -0.018231 66246.200000 0 0 1
23.975283 28.800284 -5.086623 37.817248 0.876570 1.705711 0.039293 -0.009870 -289866.000000 0 0 1
24.852283 28.038614 -6.052423 37.953019 0.845569 1.730952 0.021916 0.000114 729355.000000 0 0 1
26.208483 28.553414 -6.202623 39.251173 0.828192 1.729485 0.040782 -0.008072 1100670.000000 0 0 1
27.024783 27.664164 -6.891923 39.282865 0.797089 1.747153 0.027988 -0.003469 -9982.780000 0 0 1
27.768583 26.593224 -6.024123 38.917654 0.763780 1.726213 0.027421 0.004398 -874839.000000 0 0 1
28.750583 27.065394 -5.173923 39.823373 0.755215 1.701086 0.040820 -0.001576 -126485.000000 0 0 1
29.433283 25.947244 -4.544123 39.499705 0.722534 1.686094 0.060828 -0.002862 -501501.000000 0 0 1
30.669483 26.379104 -3.793523 40.630839 0.710334 1.664298 0.062809 -0.005482 -846192.000000 0 0 1
30.504883 27.305644 -2.732523 41.031850 0.730114 1.637441 0.072152 -0.007419 218039.000000 0 0 1
31.680683 27.390964 -1.923723 41.924113 0.712906 1.616698 0.092751 -0.024033 594609.000000 0 0 1
31.649583 28.619074 -1.025923 42.682549 0.735157 1.594835 0.101340 -0.014692 266276.000000 0 0 1
32.022783 29.838314 -1.733623 43.803984 0.750100 1.610383 0.067838 -0.011146 -108212.000000 0 0 1
31.522683 30.971864 -1.119023 44.206200 0.776585 1.596113 0.089133 -0.014851 18820.500000 0 0 1
34.102191 22.950312 19.052224 45.306329 0.592365 1.136778 0.101506 -0.022373 -36540.300000 0 0 1
34.172921 22.739512 20.460824 45.864138 0.587142 1.108373 0.092324 -0.030781 172466.000000 0 0 1
35.154751 23.546112 21.097724 47.279909 0.590158 1.108248 0.105984 -0.027459 -31373.700000 0 0 1
35.105961 23.364012 22.588324 47.838665 0.587214 1.079037 0.095661 -0.016132 283608.000000 0 0 1
33.912371 23.949212 23.106774 47.513541 0.614881 1.062923 0.066067 -0.010387 538791.000000 0 0 1
33.752691 23.861812 24.465654 48.033305 0.615382 1.036370 0.072354 -0.005043 47232.000000 0 0 1
32.419271 24.581812 24.816214 47.656259 0.648758 1.023086 0.041286 -0.007769 90151.400000 0 0 1
32.480331 26.027112 24.858994 48.480429 0.675545 1.032396 0.026273 -0.012901 568215.000000 0 0 1
31.195951 26.523612 25.227104 48.094657 0.704625 1.018633 0.024615 -0.011345 292932.000000 0 0 1
31.078351 28.033712 25.379784 48.947791 0.733937 1.025692 0.012584 -0.010912 -344125.000000 0 0 1
31.092801 28.807112 24.153334 48.785197 0.747258 1.052852 0.013117 -0.019538 282507.000000 0 0 1
30.862811 30.185112 24.409004 49.592878 0.774298 1.056195 0.017032 -0.019495 -250618.000000 0 0 1
30.932621 31.164412 23.229974 49.675741 0.789131 1.084186 0.029284 -0.020053 -335230.000000 0 0 1
32.253551 31.316012 22.784824 50.399725 0.770651 1.101698 0.011089 -0.015783 -435697.000000 0 0 1
32.504961 32.093812 21.646524 50.548563 0.779034 1.128261 0.022698 -0.014883 -191445.000000 0 0 1
34.019171 32.311612 21.523524 51.619825 0.759661 1.140696 0.005105 -0.023437 -373235.000000 0 0 1
34.491961 33.101412 22.579424 52.869927 0.764829 1.129541 0.019747 -0.014124 -97734.300000 0 0 1
35.850501 33.336412 22.251724 53.774659 0.749077 1.144177 0.027749 -0.006775 -4526.600000 0 0 1
36.331741 -33.305740 23.037104 54.405660 -0.741972 1.133566 0.029220 0.001665 -76997.200000 0 0 1
35.690441 -32.133340 22.529124 53.046400 -0.733000 1.132159 0.033301 -0.001782 234114.000000 0 0 1
36.217781 -31.034640 23.210764 53.043530 -0.708480 1.117891 0.037260 -0.003135 -604150.000000 0 0 1
35.480021 -29.697840 22.846304 51.601814 -0.696916 1.112142 0.044426 -0.003611 841717.000000 0 0 1
34.066321 -29.591640 23.036714 50.664283 -0.715221 1.098768 0.039190 -0.002853 695607.000000 0 0 1
33.310801 -30.233140 22.034324 50.091552 -0.737002 1.115330 0.053950 0.001557 -300385.000000 0 0 1
32.495671 -31.495840 22.553824 50.563144 -0.769775 1.108446 0.037204 -0.000002 -184079.000000 0 0 1
31.431981 -31.315040 23.448344 50.183921 -0.783534 1.084621 0.045320 -0.005724 25384.700000 0 0 1
30.828911 -32.608440 23.572814 50.689344 -0.813443 1.087111 0.040201 -0.013758 556474.000000 0 0 1
29.687021 -32.780640 24.647434 50.629888 -0.834881 1.062356 0.048380 -0.018146 490737.000000 0 0 1
29.441801 33.800012 24.960434 51.305786 0.854203 1.062713 0.052376 -0.033958 132164.000000 0 0 1
28.562901 33.559612 26.028264 51.181611 0.865659 1.037300 0.057608 -0.034959 -1015040.000000 0 0 1
28.301101 32.104612 26.476804 50.325734 0.848281 1.016778 0.060736 -0.025141 100094.000000 0 0 1
27.516601 31.307612 25.632404 48.932096 0.849756 1.019448 0.077874 -0.033564 366084.000000 0 0 1
26.153101 31.677112 25.472034 48.334755 0.880630 1.015739 0.080908 -0.040634 135822.000000 0 0 1
25.444201 31.087912 24.173834 46.885390 0.884900 1.029095 0.126440 -0.049630 322771.000000 0 0 1
25.758501 31.816612 22.952724 46.932128 0.890233 1.059782 0.138572 -0.054953 1057490.000000 0 0 1
27.128301 31.753212 22.518824 47.447956 0.863783 1.076286 0.108928 -0.048765 617852.000000 0 0 1
27.176501 32.611712 21.216924 47.457810 0.876057 1.107310 0.118641 -0.037997 61378.600000 0 0 1
28.524201 32.791812 20.852624 48.205444 0.854886 1.123446 0.110685 -0.033698 -66705.300000 0 0 1
28.560901 33.506612 19.665324 48.219737 0.864913 1.150723 0.101335 -0.032913 51573.700000 0 0 1
29.925411 -33.907840 19.124024 49.101936 -0.847705 1.170734 0.106669 -0.030623 345520.000000 0 0 1
30.783711 32.959612 18.665324 48.809499 0.819520 1.178391 0.107764 -0.034870 92534.400000 0 0 1
31.831531 33.527812 17.910224 49.579599 0.811345 1.201197 0.098913 -0.025347 200464.000000 0 0 1
32.890421 32.531312 17.332724 49.401309 0.779909 1.212312 0.082988 -0.027404 590302.000000 0 0 1
33.735781 31.814312 18.263824 49.837943 0.756094 1.195590 0.058007 -0.025109 556176.000000 0 0 1
34.571501 30.861612 17.616124 49.577773 0.728761 1.207537 0.067365 -0.033715 147708.000000 0 0 1
35.642701 30.302812 18.568324 50.333340 0.704600 1.192963 0.052652 -0.030276 81906.700000 0 0 1
36.575751 31.260912 19.042724 51.746067 0.707210 1.193936 0.062031 -0.023137 474985.000000 0 0 1
-36.926307 30.649112 19.827524 51.923510 -0.692772 1.178988 0.085472 -0.024330 238799.000000 0 0 1
-35.858753 31.594012 20.350924 51.944122 -0.722257 1.168226 0.094912 -0.026474 -9607.250000 0 0 1
-34.963259 32.147312 19.355924 51.288702 -0.743463 1.183818 0.105156 -0.028438 1069600.000000 0 0 1
-33.824217 32.860812 19.862424 51.170562 -0.770952 1.172161 0.092674 -0.009184 559272.000000 0 0 1
-34.104043 -33.770840 20.677624 52.260114 0.780489 1.164002 0.068169 -0.016792 -534544.000000 0 0 1
-34.349680 33.883312 22.066624 53.055774 -0.778563 1.141849 0.066441 -0.005032 286657.000000 0 0 1
-34.103609 -32.908640 22.923654 52.645310 0.767568 1.120274 0.051795 -0.004762 -181315.000000 0 0 1
-34.300282 -33.333640 24.419764 53.702568 0.771107 1.098736 0.043684 -0.007152 -113806.000000 0 0 1
-35.646074 -33.697340 24.705764 54.922928 0.757303 1.104226 0.040931 0.000598 17616.900000 0 0 1
-35.663060 33.636512 26.015704 55.498519 -0.756163 1.082905 0.045843 -0.003449 -689454.000000 0 0 1
-37.037527 33.482612 26.590664 56.567898 -0.735031 1.081430 0.026608 -0.012229 -874505.000000 0 0 1
-36.935017 32.776412 27.747754 56.642974 -0.725814 1.058854 0.046607 -0.020397 -387293.000000 0 0 1
36.352731 32.675712 28.394224 56.528356 0.732180 1.044539 0.045793 -0.021029 -539145.000000 0 0 1
36.260931 31.594612 29.451674 56.395706 0.716738 1.021330 0.047393 -0.017006 -365701.000000 0 0 1
36.351111 30.277312 28.945204 55.461191 0.694490 1.021719 0.044648 -0.019928 -267872.000000 0 0 1
-36.997867 29.752912 28.395964 55.320960 -0.677284 1.031777 0.051685 -0.021986 -729030.000000 0 0 1
-37.121037 28.258612 27.972084 54.396305 -0.650666 1.030689 0.061154 -0.021662 -420042.000000 0 0 1
36.282491 28.000712 27.165184 53.276695 0.657271 1.035741 0.050272 -0.016499 186832.000000 0 0 1
35.848911 26.681712 26.843144 52.130725 0.639832 1.029882 0.067951 -0.017187 9633.540000 0 0 1
35.681381 25.580112 27.989544 52.066473 0.621981 1.003240 0.055218 -0.020038 60530.400000 0 0 1
36.925961 25.239612 28.614174 53.097415 0.599579 1.001666 0.048478 -0.017109 461758.000000 0 0 1
37.063601 23.888412 28.932254 52.739378 0.572517 0.990120 0.044728 -0.013072 -281804.000000 0 0 1
-36.983207 22.993412 27.751724 51.639256 -0.556241 1.003427 0.075445 -0.007108 -548008.000000 0 0 1
36.656551 22.862012 26.650094 50.760238 0.557651 1.018059 0.066244 0.000728 -117802.000000 0 0 1
37.041411 22.014312 25.542374 50.091006 0.536230 1.035705 0.078510 -0.018459 -324854.000000 0 0 1
36.738521 20.473312 25.897674 49.391952 0.508408 1.018868 0.073479 -0.014684 40349.400000 0 0 1
35.390551 20.019912 25.996704 48.260921 0.514806 1.001939 0.105117 -0.009102 701500.000000 0 0 1
35.155521 18.961312 26.936864 48.177138 0.494634 0.977471 0.109322 -0.012956 -352946.000000 0 0 1
35.275011 19.294312 28.447404 49.252935 0.500513 0.955038 0.082890 -0.015879 109120.000000 0 0 1
34.105791 19.880712 29.030544 49.002246 0.527761 0.936721 0.063446 -0.010198 688851.000000 0 0 1
33.799861 21.244312 28.734514 49.187637 0.561136 0.946925 0.066708 -0.011417 -750481.000000 0 0 1
32.603651 21.670812 29.586714 49.071333 0.586622 0.923624 0.061777 -0.011637 -637426.000000 0 0 1
31.301911 21.203012 29.302694 47.833306 0.595377 0.911450 0.086300 -0.013747 415761.000000 0 0 1
30.630201 21.718112 28.155844 46.932261 0.616769 0.927389 0.078675 -0.002123 -169332.000000 0 0 1
30.230701 23.196612 28.297404 47.462839 0.654494 0.932035 0.073212 -0.000693 -1195630.000000 0 0 1
31.360861 24.011112 28.233544 48.550696 0.653435 0.950192 0.058370 -0.011899 -431846.000000 0 0 1
31.273331 25.302012 28.885304 49.523467 0.680241 0.948054 0.042314 -0.008644 -188601.000000 0 0 1
31.797011 25.259312 30.308644 50.672444 0.671312 0.929632 0.043952 -0.018354 -287801.000000 0 0 1
33.162271 24.925312 30.457054 51.464934 0.644535 0.937504 0.028441 -0.007330 332897.000000 0 0 1
33.767921 24.897612 31.779684 52.631852 0.635333 0.922523 0.039342 -0.013310 334096.000000 0 0 1
33.133311 23.883912 32.762156 52.360447 0.624578 0.894762 0.056411 -0.012756 -365196.000000 0 0 1
33.648681 23.891412 -33.739953 53.304950 0.617423 2.256168 0.059778 -0.026119 71266.400000 0 0 1
33.082681 22.896712 -32.929943 51.991387 0.605408 2.256701 0.059623 -0.028856 -273061.000000 0 0 1
33.559841 22.889212 -31.436043 51.365394 0.598571 2.229394 0.047861 -0.034877 -334083.000000 0 0 1
32.969251 23.898612 -30.658533 50.971176 0.627227 2.216158 0.031700 -0.031966 166796.000000 0 0 1
33.273771 23.684012 -29.294013 50.261470 0.618596 2.193006 0.075009 -0.039372 -169781.000000 0 0 1
34.732471 23.842112 -28.823013 51.044656 0.601574 2.170821 0.078304 -0.017089 -222806.000000 0 0 1
34.919701 23.166712 -27.600463 50.178358 0.585757 2.153217 0.091305 -0.018679 -761172.000000 0 0 1
36.090191 23.609512 -27.013213 50.888354 0.579309 2.130379 0.103038 -0.013698 -473326.000000 0 0 1
36.731701 22.743812 -25.875463 50.359094 0.554409 2.110427 0.083633 -0.009005 193543.000000 0 0 1
-36.845457 21.815912 -26.408853 50.308540 -0.534585 2.123438 0.070027 -0.009736 169468.000000 0 0 1
-36.691947 20.711912 -25.570113 49.286032 -0.513893 2.116255 0.048771 -0.001622 -231101.000000 0 0 1
-35.578409 19.752212 -26.030103 48.306721 -0.506807 2.139868 0.050158 0.006969 -608326.000000 0 0 1
-34.297505 20.274512 -25.852753 47.494626 -0.533877 2.146387 0.060618 0.001198 -409431.000000 0 0 1
-33.410737 19.142212 -25.806543 46.353848 -0.520282 2.161240 0.019222 -0.008957 -21790.800000 0 0 1
-32.049987 19.343312 -25.154543 45.101179 -0.543015 2.162452 0.028123 -0.009683 -448302.000000 0 0 1
-32.119697 19.455212 -23.737623 44.425836 -0.544607 2.134500 0.029310 -0.002751 147654.000000 0 0 1
-30.846987 19.511512 -23.116223 43.204114 -0.563993 2.135359 0.035433 0.003830 30110.800000 0 0 1
-30.918547 19.909712 -21.623423 42.660586 -0.572104 2.102348 0.023899 0.002587 -38626.000000 0 0 1
-31.426687 18.907712 -20.792423 42.159970 -0.541628 2.086537 0.011868 0.001746 -292092.000000 0 0 1
-31.979227 19.516212 -19.657823 42.308196 -0.547942 2.054017 0.023246 0.003335 -237529.000000 0 0 1
-32.906627 18.375312 -19.024223 42.218707 -0.509275 2.038246 0.037999 0.004694 566449.000000 0 0 1
-33.871537 18.660412 -18.053623 42.678159 -0.503547 2.007570 0.032881 -0.003694 163920.000000 0 0 1
-34.818647 19.659012 -18.343123 43.991875 -0.513992 2.000901 0.033774 -0.004097 -1069080.000000 0 0 1
-35.977584 19.831212 -17.373523 44.603843 -0.503772 1.970893 0.053847 -0.006139 -397849.000000 0 0 1
-35.624571 20.276112 -16.104723 44.040809 -0.517435 1.945157 0.049225 -0.009681 -165313.000000 0 0 1
-36.736057 20.203212 -15.251623 44.612998 -0.502809 1.919697 0.056240 -0.006754 -518845.000000 0 0 1
-36.642507 21.034512 -13.982323 44.504262 -0.521118 1.890388 0.062104 -0.009232 -123902.000000 0 0 1
-36.798427 22.401212 -14.228223 45.369382 -0.546832 1.889787 0.075003 -0.016583 551015.000000 0 0 1
36.356251 22.755012 -14.077423 45.141349 0.559239 1.887938 0.072278 -0.014698 374290.000000 0 0 1
35.964111 24.234912 -14.394223 45.694002 0.592969 1.891267 0.073350 -0.017312 250143.000000 0 0 1
36.469521 25.130212 -13.354523 46.259018 0.603356 1.863655 0.072701 -0.016322 268126.000000 0 0 1
36.031741 26.485512 -13.526723 46.719813 0.633871 1.864531 0.080074 -0.008600 116638.000000 0 0 1
36.968981 27.403312 -14.357423 48.205628 0.637879 1.873222 0.085672 0.002732 135848.000000 0 0 1
36.948231 27.059512 -15.739523 48.426454 0.632117 1.901828 0.092889 0.001524 112333.000000 0 0 1
-36.614527 27.816412 -16.455923 48.838240 -0.649686 1.914469 0.095505 -0.004064 -285622.000000 0 0 1
-36.396267 27.404912 -17.908623 48.953408 -0.645392 1.945321 0.097844 -0.009457 -29859.900000 0 0 1
-35.819882 26.126512 -18.147523 47.906066 -0.630177 1.959312 0.100177 -0.009570 735183.000000 0 0 1
-34.397007 26.120812 -17.965623 46.778355 -0.649485 1.964984 0.100712 -0.001805 225224.000000 0 0 1
-33.763527 24.862012 -18.490823 45.825821 -0.634712 1.986138 0.076517 0.001032 -348663.000000 0 0 1
-33.757767 24.821112 -19.939723 46.403307 -0.634008 2.014962 0.074331 0.003501 -281519.000000 0 0 1
-32.804837 23.961212 -20.417423 45.466121 -0.630850 2.036519 0.062492 0.011579 -610871.000000 0 0 1
-32.734027 23.980612 -21.968623 46.143327 -0.632265 2.067005 0.066171 0.007986 870495.000000 0 0 1
-33.888037 23.316912 -22.568523 46.919246 -0.602666 2.072600 0.076100 0.005351 1176070.000000 0 0 1
-33.766337 23.204812 -23.967423 47.466474 -0.602095 2.100101 0.068259 -0.001633 46208.900000 0 0 1
-34.501918 24.254212 -24.881623 48.966767 -0.612724 2.103812 0.078645 -0.004911 310268.000000 0 0 1
-33.796147 25.506612 -24.958023 49.149463 -0.646515 2.103424 0.083331 -0.009980 746097.000000 0 0 1
-34.547467 26.284112 -25.914513 50.556344 -0.650385 2.108991 0.095311 -0.014546 511987.000000 0 0 1
-33.972277 27.711712 -26.116783 51.030784 -0.684250 2.108057 0.084938 -0.019172 76510.600000 0 0 1
-32.723307 27.709112 -26.758273 50.543198 -0.702616 2.128706 0.069919 -0.023040 -487704.000000 0 0 1
-32.217257 29.048112 -26.907773 51.046769 -0.733716 2.126004 0.074887 -0.026594 -217642.000000 0 0 1
-30.751767 29.044412 -27.334513 50.362929 -0.756853 2.144505 0.059140 -0.018130 98777.300000 0 0 1
-29.788557 28.599812 -26.323013 48.971505 -0.765042 2.138286 0.050847 -0.016393 340094.000000 0 0 1
-28.508507 28.427912 -26.864073 48.399995 -0.783983 2.159211 0.050113 -0.007966 -146055.000000 0 0 1
-27.557387 29.634712 -26.878343 48.580562 -0.821704 2.157085 0.039697 -0.013928 -587828.000000 0 0 1
-26.907057 30.026512 -25.694283 47.809803 -0.840135 2.138179 0.024043 -0.016599 -465349.000000 0 0 1
-27.809807 30.432012 -24.707123 48.061779 -0.830390 2.110719 0.046265 -0.018191 -437332.000000 0 0 1
-27.172507 31.043812 -23.455523 47.457612 -0.851799 2.087758 0.028542 -0.021906 -44073.700000 0 0 1
-26.514727 32.283612 -23.644423 48.003344 -0.883198 2.085823 0.022101 -0.017119 524851.000000 0 0 1
-25.575317 32.605512 -22.616223 47.209213 -0.905649 2.070384 0.024752 0.004377 310351.000000 0 0 1
-25.323937 -33.777540 -22.695123 47.930080 0.927470 2.064062 0.022942 0.015927 -539211.000000 0 0 1
-26.409357 -33.069540 -22.216723 47.797818 0.896909 2.054212 0.018858 -0.000761 -305170.000000 0 0 1
-26.171837 -31.717440 -22.334923 46.795404 0.880903 2.068363 0.033787 -0.005599 -71007.700000 0 0 1
17.402283 8.624812 -24.822423 31.517924 0.460132 2.477644 0.046290 -0.029442 -1228230.000000 0 0 1
16.121083 8.151812 -24.968023 30.817909 0.468167 2.515254 0.041006 -0.029058 -1174190.000000 0 0 1
16.124683 6.727912 -24.923423 30.437595 0.395282 2.530178 0.032020 -0.031222 552665.000000 0 0 1
14.727483 6.000512 -25.037973 29.661507 0.386901 2.575724 0.064934 -0.037188 582465.000000 0 0 1
13.975083 6.247812 -23.871523 28.358203 0.420413 2.571379 0.087492 -0.042575 -87643.200000 0 0 1
12.780983 5.507212 -23.986223 27.731242 0.406850 2.615853 0.100760 -0.044934 -575747.000000 0 0 1
11.873483 5.565812 -22.773123 26.278755 0.438345 2.619141 0.110209 -0.049388 -479919.000000 0 0 1
12.337183 4.945612 -21.593523 25.356368 0.381257 2.589829 0.113930 -0.038761 247467.000000 0 0 1
11.481983 5.191112 -20.471823 24.039116 0.424607 2.589835 0.118909 -0.036516 -157913.000000 0 1 0
11.623483 6.559212 -19.779423 23.861144 0.513761 2.548004 0.111772 -0.044536 -51523.200000 0 1 0
11.329583 6.504412 -18.386823 22.555311 0.521164 2.523850 0.098346 -0.038336 -114529.000000 0 1 0
11.298883 7.819512 -17.821323 22.503535 0.605378 2.484767 0.091450 -0.043274 1108120.000000 0 1 0
12.788783 8.292212 -17.566823 23.257408 0.575248 2.426941 0.090144 -0.038561 780501.000000 0 1 0
13.345383 7.559212 -16.503723 22.530286 0.515369 2.392802 0.113583 -0.036499 585006.000000 0 1 0
14.633283 8.108812 -16.195023 23.284428 0.506012 2.339954 0.107367 -0.031913 281082.000000 0 1 0
15.221483 7.448112 -14.933923 22.587385 0.455064 2.293163 0.109827 -0.035914 627178.000000 0 1 0
16.535183 8.002112 -14.698923 23.526674 0.450721 2.245642 0.093537 -0.035028 1153200.000000 0 1 0
17.002083 7.819112 -13.361923 22.994572 0.431049 2.190864 0.079277 -0.036491 18659.400000 0 1 0
17.717083 9.079212 -12.859323 23.699985 0.473562 2.144311 0.122092 -0.041700 -254087.000000 0 1 0
16.822383 10.130712 -12.721723 23.397994 0.542047 2.145648 0.147482 -0.045283 296060.000000 0 1 0
17.568083 11.295812 -12.312723 24.245330 0.571420 2.103471 0.185465 -0.061606 118110.000000 0 1 0
16.799583 12.630712 -12.021623 24.213225 0.644682 2.090347 0.205776 -0.052298 -339477.000000 0 1 0
16.108083 12.512012 -10.765423 23.063285 0.660405 2.056440 0.225153 -0.041700 214942.000000 0 1 0
15.398383 13.658112 -10.358423 23.042377 0.725577 2.037044 0.127450 -0.029944 526710.000000 0 1 0
13.975083 13.790612 -10.989823 22.500225 0.778754 2.081088 0.081081 -0.043500 433955.000000 0 1 0
13.002083 14.725012 -10.526023 22.286258 0.847457 2.062706 0.110543 -0.048863 4603.850000 0 1 0
13.380583 16.097312 -10.686923 23.502633 0.877300 2.042845 0.138674 -0.044209 -10823.800000 0 1 0
12.578783 17.114512 -9.834823 23.406325 0.936979 2.004438 0.130927 -0.028352 360666.000000 0 1 0
12.841383 16.941712 -8.439223 22.872324 0.922211 1.948698 0.121629 -0.025652 71103.200000 0 1 0
11.819883 17.539112 -7.677623 22.500577 0.977792 1.919010 0.099836 -0.006294 67803.800000 0 1 0
12.078083 17.300912 -6.149823 21.977761 0.961334 1.854403 0.082625 -0.007678 298665.000000 0 1 0
13.188883 18.075912 -5.750023 23.102986 0.940454 1.822327 0.093602 -0.017498 -91209.600000 0 1 0
13.839583 17.568212 -4.637923 22.840456 0.903562 1.775276 0.104593 -0.023157 -316195.000000 0 1 0
14.922583 18.563512 -4.165423 24.179293 0.893702 1.743932 0.095762 -0.027168 17042.700000 0 1 0
16.114983 18.472712 -4.943223 25.007383 0.853460 1.769777 0.111198 -0.039289 379400.000000 0 0 1
16.875383 19.631512 -4.608123 26.294669 0.860751 1.746955 0.084121 -0.035926 -594619.000000 0 0 1
18.209183 19.884112 -5.286423 27.475417 0.829339 1.764409 0.080954 -0.027186 -360711.000000 0 0 1
19.298083 19.076212 -4.894923 27.573142 0.779616 1.749267 0.074026 -0.036502 99813.000000 0 0 1
19.501083 17.885212 -5.600623 27.046996 0.742204 1.779375 0.099534 -0.036909 171592.000000 0 0 1
20.646383 17.040512 -4.921223 27.218938 0.690009 1.752598 0.110631 -0.040134 509010.000000 0 0 1
21.946283 17.553012 -5.154623 28.571274 0.674629 1.752202 0.085020 -0.042552 314450.000000 0 0 1
22.866283 16.589512 -4.655323 28.631291 0.627637 1.734117 0.094602 -0.043539 371215.000000 0 0 1
24.397583 16.838812 -4.792923 30.029315 0.604107 1.731090 0.094387 -0.042442 538067.000000 0 0 1
24.757283 17.961312 -4.031823 30.851052 0.627633 1.701858 0.110582 -0.040495 -1206850.000000 0 0 1
26.077783 17.984112 -3.667123 31.889290 0.603735 1.686047 0.092636 -0.028394 -1106450.000000 0 0 1
26.582383 19.303912 -2.998823 32.988741 0.628089 1.661826 0.110886 -0.022448 -116564.000000 0 0 1
26.742283 20.425412 -3.858923 33.870908 0.652267 1.684975 0.113570 -0.023789 208130.000000 0 0 1
26.811583 21.651012 -3.103723 34.601451 0.679312 1.660616 0.113910 -0.007910 -227517.000000 0 0 1
26.921583 22.919512 -3.980923 35.579817 0.705273 1.682918 0.075581 -0.006229 -506583.000000 0 0 1
28.085783 23.183012 -4.709923 36.721201 0.690059 1.699412 0.074009 0.001915 -303418.000000 0 0 1
28.385583 22.352012 -5.821523 36.595681 0.667037 1.730552 0.062355 0.003226 -368304.000000 0 0 1
29.410983 22.903712 -6.778023 37.888356 0.661647 1.750659 0.055775 0.004455 -240634.000000 0 0 1
28.825483 23.893312 -7.621923 38.208540 0.692113 1.771626 0.037040 0.009143 349148.000000 0 0 1
29.764183 24.686112 -8.336423 39.557637 0.692406 1.783129 0.030324 0.006964 -139059.000000 0 0 1
30.539983 24.055012 -9.534023 40.027887 0.667169 1.811292 0.041842 -0.002240 173863.000000 0 0 1
29.848283 23.708912 -10.703123 39.592794 0.671264 1.844532 0.044037 0.001900 -474852.000000 0 0 1
30.829283 23.172312 -11.540923 40.256597 0.644546 1.861560 0.040674 -0.005592 -87830.700000 0 0 1
30.486383 22.608512 -12.961923 40.107054 0.638099 1.899888 0.065371 -0.003532 -134061.000000 0 0 1
30.177383 23.498812 -13.969623 40.718779 0.661611 1.920986 0.058314 -0.009879 17633.600000 0 0 1
30.139983 22.822512 -15.241623 40.762638 0.648104 1.954019 0.081201 -0.015538 -37919.600000 0 0 1
30.381583 23.856112 -16.402723 41.966701 0.665661 1.972352 0.078631 -0.007806 -199466.000000 0 0 1
31.713583 24.303912 -16.458723 43.212510 0.653887 1.961543 0.075439 -0.004820 -271347.000000 0 0 1
32.142783 24.650212 -17.743723 44.222518 0.654228 1.983664 0.093888 -0.004625 765354.000000 0 0 1
33.635883 25.102812 -17.866523 45.615090 0.641136 1.973253 0.089809 -0.007682 1113320.000000 0 0 1
34.607783 24.075112 -17.962623 45.825380 0.607805 1.973579 0.095768 0.002064 640084.000000 0 0 1
35.965683 24.498312 -18.123023 47.139597 0.597968 1.965413 0.103855 -0.001230 185106.000000 0 0 1
36.983783 23.356112 -17.882723 47.255687 0.563276 1.958890 0.100932 -0.009121 -180855.000000 0 0 1
37.082583 22.374412 -18.914823 47.259949 0.542892 1.982564 0.089863 0.001906 83118.300000 0 0 1
-36.759534 22.965312 -20.007723 47.738641 -0.558415 2.003261 0.096653 0.012284 -525032.000000 0 0 1
-36.662534 22.053112 -21.232723 47.763058 -0.541534 2.031460 0.090419 0.002832 95576.900000 0 0 1
-35.865234 20.905512 -20.987723 46.517093 -0.527744 2.038887 0.083505 -0.004275 225170.000000 0 0 1
-35.660234 20.214312 -22.190523 46.612123 -0.515694 2.066974 0.058333 0.002284 156907.000000 0 0 1
-35.202634 18.752612 -22.161023 45.628903 -0.489468 2.077937 0.038852 -0.000595 151578.000000 0 0 1
-36.292034 17.893612 -21.884223 46.002307 -0.458068 2.066579 0.065786 -0.012066 333752.000000 0 0 1
-35.985334 16.533812 -22.215323 45.407398 -0.430693 2.082020 0.037626 -0.017037 -189802.000000 0 0 1
-37.215934 15.647212 -22.109923 46.029444 -0.398005 2.071842 0.043783 -0.006110 -323509.000000 0 0 1
36.197083 15.843312 -22.938423 45.688189 0.412575 2.096781 0.089920 -0.014832 154205.000000 0 0 1
35.049983 15.081412 -22.651023 44.373631 0.406337 2.106518 0.101890 -0.005753 -81237.800000 0 0 1
35.019883 13.654612 -23.119623 44.128875 0.371778 2.122233 0.065371 -0.007914 -821507.000000 0 0 1
34.956683 13.699012 -24.532923 44.849715 0.373491 2.149576 0.076487 -0.008206 595752.000000 0 0 1
35.672183 12.607412 -25.176273 45.445530 0.339722 2.157943 0.059157 -0.008872 128527.000000 0 0 1
35.516483 12.540312 -26.686863 46.161333 0.339420 2.187221 0.068082 -0.007542 902396.000000 0 0 1
34.161583 12.458112 -27.190403 45.404144 0.349694 2.212864 0.066739 -0.004759 945094.000000 0 0 1
33.784783 13.519512 -28.042983 45.941241 0.380649 2.227374 0.077436 -0.005165 -62806.200000 0 0 1
34.298083 13.556912 -29.528273 47.244759 0.376420 2.245936 0.069697 -0.012417 -644414.000000 0 0 1
35.662883 13.796012 -29.675063 48.402278 0.369115 2.230765 0.066934 -0.006314 -743241.000000 0 0 1
35.949983 13.839112 -31.021233 49.459470 0.367469 2.248756 0.067037 -0.013268 792546.000000 0 0 1
-37.058434 14.233512 -31.247773 50.520725 -0.366710 2.237646 0.065496 -0.009996 1236040.000000 0 0 1
-36.072034 13.329112 -30.808993 49.275257 -0.353952 2.246239 0.060254 -0.007144 -68626.800000 0 0 1
-35.808034 13.219612 -29.422123 48.193721 -0.353659 2.227484 0.043786 -0.008769 -566761.000000 0 0 1
-34.731634 12.138512 -29.142543 46.935250 -0.336224 2.240699 0.048438 -0.014639 295397.000000 0 0 1
-35.135634 10.789612 -29.558993 47.166329 -0.297944 2.248104 0.050198 -0.020213 110914.000000 0 0 1
-34.180334 9.847512 -29.185623 46.011621 -0.280508 2.257912 0.055339 -0.025648 -247851.000000 0 0 1
-34.616434 8.494012 -29.700753 46.395910 -0.240621 2.265501 0.068351 -0.025303 -660281.000000 0 0 1
-34.704234 8.390712 -31.094003 47.345802 -0.237225 2.287287 0.072391 -0.024580 201590.000000 0 0 1
-35.151734 7.104512 -31.550153 47.765371 -0.199423 2.292312 0.081875 -0.022166 50939.900000 0 0 1
-36.497834 6.474912 -31.105743 48.389912 -0.175579 2.268963 0.095871 -0.015135 -198234.000000 0 0 1
-36.407634 5.988512 -29.770893 47.409748 -0.163025 2.249711 0.104577 -0.028386 86603.700000 0 0 1
36.925583 5.348912 -29.401453 47.503210 0.143856 2.238184 0.109610 -0.019807 -197299.000000 0 0 1
37.094383 4.446312 -28.136263 46.769779 0.119296 2.216287 0.109528 -0.022010 -262573.000000 0 0 1
-36.590234 3.349312 -28.302973 46.380183 -0.091281 2.227158 0.124286 -0.018190 93066.200000 0 0 1
-36.611334 2.515112 -27.113933 45.627633 -0.068590 2.207121 0.128731 -0.017679 140249.000000 0 0 1
-35.535834 1.369012 -27.138683 44.734526 -0.038506 2.222650 0.132017 -0.016959 1154860.000000 0 0 1
-34.256334 1.807612 -26.644943 43.436354 -0.052718 2.231186 0.128410 -0.018286 798627.000000 0 0 1
-33.277534 0.805812 -26.534183 42.568844 -0.024210 2.243783 0.123573 -0.013260 50581.900000 0 0 1
-32.388134 0.820312 -25.270463 41.088447 -0.025322 2.233215 0.117930 -0.008714 -221891.000000 0 0 1
-32.911934 0.488212 -24.048023 40.764460 -0.014833 2.201764 0.112707 -0.009197 696828.000000 0 0 1
-31.871534 0.676112 -23.047523 39.337516 -0.021210 2.196776 0.120297 -0.007048 1030070.000000 0 0 1
-32.516634 0.441812 -21.638823 39.061046 -0.013586 2.157927 0.124106 -0.003691 -105484.000000 0 0 1
-32.767534 -0.936788 -21.349723 39.120321 0.028581 2.148074 0.137528 -0.002044 393806.000000 0 0 1
-33.373334 -1.037688 -20.072523 38.958470 0.031083 2.112071 0.138978 -0.010275 867019.000000 0 0 1
-34.926334 -0.911388 -19.929923 40.222895 0.026089 2.089192 0.130635 -0.012371 703574.000000 0 0 1
-35.820834 -1.906188 -20.455623 41.294046 0.053164 2.089051 0.127613 -0.005920 -111023.000000 0 0 1
-37.096634 -1.631988 -19.963923 42.159007 0.043965 2.064101 0.117839 -0.005961 -12743.900000 0 0 1
36.565783 -2.970988 -19.825823 41.700678 -0.081072 2.066251 0.091492 -0.008379 414569.000000 0 0 1
36.043283 -3.655388 -20.972923 41.861004 -0.101071 2.095566 0.097786 0.001392 46103.700000 0 0 1
37.050883 -4.229688 -21.748423 43.170037 -0.113667 2.098771 0.109970 0.003582 -181357.000000 0 0 1
36.470783 -5.178188 -22.859123 43.352868 -0.141039 2.126193 0.099619 0.003245 -464051.000000 0 0 1
35.884983 -6.352988 -22.338523 42.744615 -0.175222 2.120699 0.095576 0.004809 417466.000000 0 0 1
35.305983 -7.188588 -23.373023 42.947485 -0.200863 2.146259 0.100043 0.004393 620710.000000 0 0 1
33.877383 -6.752988 -23.817823 41.959130 -0.196757 2.174437 0.073505 0.006014 -221564.000000 0 0 1
33.815483 -5.634888 -24.648923 42.223314 -0.165119 2.194167 0.085535 0.000452 382631.000000 0 0 1
32.449683 -5.297288 -24.884423 41.234424 -0.161819 2.218663 0.055018 -0.001545 541717.000000 0 0 1
32.287683 -4.161588 -25.898333 41.599723 -0.128184 2.242806 0.088582 -0.034191 -54195.100000 0 0 1
32.599883 -4.525588 -27.205143 42.700739 -0.137941 2.261542 0.092957 -0.035080 343178.000000 0 0 1
32.174983 -3.466688 -28.040793 42.819780 -0.107331 2.284788 0.092295 -0.038798 -43858.300000 0 0 1
31.670583 -3.831688 -29.439093 43.409306 -0.120401 2.316072 0.096965 -0.031571 -41696.700000 0 0 1
31.337383 -2.732488 -30.222543 43.622244 -0.086976 2.336194 0.078989 -0.037450 -20893.700000 0 0 1
30.865383 -3.128688 -31.499403 44.211683 -0.101021 2.363805 0.077970 -0.034764 -662274.000000 0 0 1
30.392983 -1.897788 -32.388733 44.456327 -0.062361 2.387002 0.081270 -0.034629 -267180.000000 0 0 1
29.315883 -1.147388 -31.867533 43.316015 -0.039119 2.397494 0.070248 -0.032982 115395.000000 0 0 1
28.056083 -1.759488 -31.669403 42.346082 -0.062631 2.415645 0.075811 -0.034617 -73727.200000 0 0 1
27.215883 -1.923488 -32.966143 42.792180 -0.070558 2.450230 0.075155 -0.031207 -796194.000000 0 0 1
27.715983 -2.944988 -33.799723 43.809473 -0.105859 2.452017 0.077470 -0.027269 63235.900000 0 0 1
26.930583 -3.149288 32.883766 42.620610 -0.116412 0.689528 0.070556 -0.027921 -819491.000000 0 0 1
27.327283 -4.464388 32.194293 42.463910 -0.161937 0.710315 0.060322 -0.020943 350807.000000 0 0 1
28.700283 -4.633388 31.827512 43.106438 -0.160059 0.740180 0.070151 -0.017382 484680.000000 0 0 1
29.137483 -3.907388 30.693504 42.501197 -0.133306 0.763848 0.079290 -0.032013 -434209.000000 0 0 1
29.822383 -2.558188 30.983774 43.080310 -0.085571 0.768132 0.065936 -0.029175 361802.000000 0 0 1
31.199683 -2.681688 31.403414 44.348462 -0.085742 0.783984 0.065494 -0.023204 790048.000000 0 0 1
31.716183 -1.375088 31.476654 44.705557 -0.043329 0.789658 0.061807 -0.019092 -389044.000000 0 0 1
33.126783 -1.365788 32.067091 46.125345 -0.041206 0.802076 0.055283 -0.021882 402883.000000 0 0 1
34.153983 -1.891688 31.193884 46.293967 -0.055331 0.831427 0.077274 -0.017166 997887.000000 0 0 1
35.449983 -1.853288 31.793774 47.654801 -0.052231 0.840395 0.087818 -0.012841 978738.000000 0 0 1
36.635183 -2.394488 30.930744 48.006053 -0.065268 0.870677 0.096209 -0.008659 423758.000000 0 0 1
36.881283 -1.623188 29.764194 47.421208 -0.043983 0.892258 0.086274 -0.005603 -226488.000000 0 0 1
-36.570734 -2.176488 29.050864 46.755838 0.059444 0.900356 0.088843 -0.008997 166067.000000 0 0 1
-36.440434 -1.488888 27.661364 45.774153 0.040835 0.921908 0.088896 -0.013074 146838.000000 0 0 1
37.207083 -2.008688 26.714444 45.848265 -0.053934 0.948785 0.071204 -0.027369 -438990.000000 0 0 1
-36.806634 -1.639988 25.428564 44.766391 0.044527 0.966689 0.084807 -0.022420 195824.000000 0 0 1
-27.588437 14.865012 11.848477 33.503385 -0.494214 1.209326 0.106385 -0.027118 -453201.000000 0 0 1
-28.570677 14.177012 12.536777 34.270133 -0.460610 1.196280 0.072033 -0.010801 -11081.000000 0 0 1
-29.497617 15.116312 13.127377 35.650250 -0.473565 1.193695 0.087394 -0.021343 352695.000000 0 0 1
-30.787157 14.394012 13.572977 36.595933 -0.437338 1.190832 0.088658 -0.015284 173743.000000 0 0 1
-31.699917 15.241012 14.239977 37.946675 -0.448162 1.186116 0.103504 -0.021295 -494800.000000 0 0 1
-32.825177 14.601212 14.781377 38.848124 -0.418536 1.180469 0.127610 -0.028954 49665.500000 0 0 1
-33.806057 15.511312 15.572377 40.323060 -0.430175 1.174298 0.132999 -0.032483 324491.000000 0 0 1
-33.215607 16.125212 16.713277 40.529404 -0.451957 1.145738 0.115664 -0.029522 71257.600000 0 0 1
-34.058906 15.938312 17.833577 41.618209 -0.437691 1.127960 0.137868 -0.051326 63945.700000 0 0 1
-33.364017 16.312712 19.166477 41.792536 -0.454753 1.094366 0.151071 -0.040542 -309141.000000 0 0 1
-32.300287 15.426512 19.416777 40.722193 -0.445565 1.073774 0.146641 -0.036224 -728945.000000 0 0 1
-31.277777 15.993112 20.162977 40.504624 -0.472667 1.049742 0.117751 -0.037131 -234688.000000 0 0 1
-31.612497 16.103412 21.666377 41.570443 -0.471139 1.022544 0.142001 -0.039884 240084.000000 0 0 1
-32.625877 17.111212 21.982077 42.900503 -0.483029 1.032823 0.135777 -0.038569 850256.000000 0 0 1
-32.984647 17.099112 23.340677 43.876574 -0.478256 1.009880 0.123703 -0.040913 -218170.000000 0 0 1
-34.147148 16.146912 23.745877 44.616333 -0.441703 1.009571 0.119657 -0.048517 749625.000000 0 0 1
-35.431196 16.118912 23.130477 45.279222 -0.426951 1.034634 0.149334 -0.037423 859174.000000 0 0 1
-36.210757 17.301012 23.369477 46.440030 -0.445719 1.043477 0.131702 -0.037704 57490.700000 0 0 1
36.808651 17.202712 23.001777 46.689311 0.437192 1.055657 0.106135 -0.038050 335615.000000 0 0 1
36.200861 16.232512 23.834277 46.282497 0.421524 1.029819 0.114021 -0.036083 -477160.000000 0 0 1
34.834691 16.014712 23.622777 45.032902 0.430920 1.018590 0.117185 -0.042339 -177767.000000 0 0 1
34.111491 15.231412 24.723377 44.797713 0.419955 0.986168 0.080900 -0.017533 -254108.000000 0 0 1
33.967361 15.962312 25.913177 45.607782 0.439304 0.966511 0.090581 -0.016755 150460.000000 0 0 1
33.844581 15.234112 27.121577 45.968617 0.422953 0.939735 0.091640 -0.018318 -488481.000000 0 0 1
32.847321 14.101112 27.308277 44.983662 0.405501 0.918427 0.090013 -0.018036 -549717.000000 0 0 1
33.217621 12.792512 26.890577 44.611230 0.367607 0.923821 0.089491 -0.025236 -402816.000000 0 0 1
32.247491 11.838212 27.211277 43.823481 0.351831 0.900869 0.087146 -0.020493 -178171.000000 0 0 1
32.708231 10.334912 27.023777 43.668333 0.306046 0.903529 0.091343 -0.024135 167387.000000 0 0 1
33.789401 9.997912 27.881277 44.933812 0.287681 0.901421 0.087565 -0.016812 76765.300000 0 0 1
34.332741 8.819012 27.332977 44.761632 0.251433 0.913935 0.076914 -0.015122 8580.430000 0 0 1
35.523601 8.151512 28.041477 45.985843 0.225563 0.915007 0.069296 -0.015396 112405.000000 0 0 1
36.781291 8.757112 28.131377 47.126688 0.233734 0.931126 0.078627 -0.017037 -518219.000000 0 0 1
-36.734487 7.947412 28.603077 47.230498 -0.213064 0.920269 0.079399 -0.017263 -219915.000000 0 0 1
-35.418902 8.711312 28.869177 46.516824 -0.241164 0.901266 0.085809 -0.022494 30555.800000 0 0 1
-34.739725 9.158112 27.713477 45.373520 -0.257757 0.913744 0.076795 -0.024839 -789302.000000 0 0 1
-33.481837 9.578512 28.099777 44.747947 -0.278639 0.891871 0.087732 -0.019931 -169262.000000 0 0 1
-32.551287 10.251012 26.998077 43.515120 -0.305087 0.901506 0.095640 -0.024340 408505.000000 0 0 1
-32.196177 9.277312 26.018777 42.422153 -0.280550 0.910527 0.087095 -0.020339 -90470.800000 0 0 1
-31.377387 9.834512 25.042577 41.332659 -0.303729 0.919926 0.089027 -0.023342 -69584.200000 0 0 1
-30.694657 8.680712 24.189177 40.032899 -0.275611 0.921994 0.101987 -0.022483 -203915.000000 0 0 1
-29.752457 9.195612 23.310977 38.899481 -0.299758 0.928218 0.101103 -0.022735 -280078.000000 0 0 1
-29.023647 8.171912 22.624177 37.696228 -0.274455 0.927082 0.104617 -0.018257 713518.000000 0 0 1
-27.787347 8.772712 21.844177 36.417924 -0.305806 0.927521 0.088610 -0.017824 454695.000000 0 0 1
-26.712057 9.114412 22.765877 36.261435 -0.328822 0.892039 0.084273 -0.026984 1964240.000000 0 0 1
-25.597577 9.886312 22.204777 35.299111 -0.368571 0.890470 0.068475 -0.013697 1499600.000000 0 0 1
-24.777317 9.317312 21.025177 33.805115 -0.359684 0.899563 0.061574 -0.013546 -368234.000000 0 0 1
-25.533187 9.355212 19.777577 33.624636 -0.351205 0.941981 0.070109 -0.016414 485073.000000 0 0 1
-24.953917 8.670012 18.684177 32.356847 -0.334393 0.955205 0.078179 -0.024430 -254562.000000 0 0 1
-24.729017 7.126612 18.885077 31.921137 -0.280585 0.937734 0.078801 -0.009442 309250.000000 0 0 1
-23.376917 6.790812 19.214477 31.012763 -0.282711 0.902606 0.078343 -0.017401 866496.000000 0 0 1
-23.181017 5.478912 19.600477 30.847313 -0.232094 0.882266 0.077580 -0.013174 -330804.000000 0 0 1
-23.163617 4.340612 18.571577 30.004959 -0.185241 0.903391 0.090023 -0.012651 303172.000000 0 0 1
-24.518617 4.149412 18.114777 30.765652 -0.167647 0.941224 0.113495 -0.010886 1276330.000000 0 0 1
-24.673617 3.114212 17.178977 30.225865 -0.125552 0.966293 0.100395 -0.007067 -128948.000000 0 0 1
-24.561717 1.630712 17.681177 30.307774 -0.066295 0.947903 0.093011 0.007060 28306.500000 0 0 1
-23.246217 1.188912 17.969877 29.406064 -0.051100 0.913354 0.066039 0.005432 641411.000000 0 0 1
-23.360017 -0.113688 18.516177 29.808592 0.004867 0.900563 0.074066 -0.004473 585784.000000 0 0 1
-21.938717 -0.741688 18.744877 28.865686 0.033794 0.864024 0.078191 0.006751 463559.000000 0 0 1
-21.119617 -0.252388 19.772877 28.932138 0.011950 0.818356 0.068886 0.003441 -277841.000000 0 0 1
-20.194917 -1.281388 20.019577 28.465068 0.063366 0.790763 0.063290 0.008451 -430068.000000 0 0 1
-19.289617 -0.960788 21.206677 28.683368 0.049767 0.738711 0.067214 -0.002678 -18628.900000 0 0 1
-19.799817 -1.171788 22.516277 30.006476 0.059113 0.722159 0.062660 -0.000009 -225491.000000 0 0 1
-18.756417 -0.945388 23.423277 30.022439 0.050361 0.675823 0.069619 -0.004905 -570915.000000 0 0 1
-19.209417 -1.011788 24.879177 31.448352 0.052623 0.658171 0.077005 -0.002407 254343.000000 0 0 1
-20.008317 0.068212 25.390477 32.326672 -0.003409 0.667399 0.078029 -0.014518 235652.000000 0 0 1
-21.370517 0.031112 25.024477 32.907817 -0.001456 0.706803 0.094550 -0.023973 -116556.000000 0 0 1
-22.265517 1.176212 25.571877 33.927240 -0.052778 0.717081 0.093302 -0.035834 -256304.000000 0 0 1
-21.941317 2.441212 24.964577 33.325831 -0.110805 0.724085 0.097985 -0.025409 724926.000000 0 0 1
-23.044717 3.157512 24.362377 33.683145 -0.136169 0.762255 0.101201 -0.031798 -116763.000000 0 0 1
-22.618417 4.383712 23.424077 32.855701 -0.191438 0.777117 0.113262 -0.028350 113158.000000 0 0 1
-21.956417 4.008312 22.243477 31.510682 -0.180569 0.787099 0.120405 -0.027610 -207019.000000 0 0 1
-20.678417 3.472312 22.332977 30.633572 -0.166368 0.753884 0.076604 -0.015016 -1111150.000000 0 0 1
-20.129117 2.806812 21.052877 29.262317 -0.138547 0.767781 0.065211 -0.012500 -114643.000000 0 0 1
-19.892917 3.606912 19.946277 28.400562 -0.179368 0.792145 0.064671 -0.009285 206675.000000 0 0 1
-19.517517 2.740212 18.916577 27.318110 -0.139486 0.805909 0.081224 -0.013875 -130630.000000 0 0 1
-18.905917 3.436712 17.685477 26.115528 -0.179816 0.826844 0.061690 -0.011592 456262.000000 0 0 1
-17.536817 3.821812 17.879777 25.334416 -0.214576 0.787314 0.078116 -0.022547 592324.000000 0 0 1
-17.094617 4.431212 16.659577 24.277625 -0.253634 0.814529 0.078623 -0.011677 -809554.000000 0 1 0
-15.785417 5.150612 16.885677 23.681940 -0.315398 0.777001 0.079884 -0.002004 -879265.000000 0 1 0
-15.638517 6.387912 17.558877 24.365607 -0.387789 0.766069 0.080590 -0.007983 -174148.000000 0 1 0
-16.311517 7.524612 17.041277 24.760664 -0.432217 0.811736 0.092941 -0.020591 -4880.020000 0 1 0
-15.654917 8.147612 15.759877 23.660806 -0.479874 0.841862 0.052141 -0.015508 94493.000000 0 1 0
-15.819217 7.506412 14.507577 22.739033 -0.443050 0.878894 0.092556 -0.016892 102361.000000 0 1 0
-17.141217 7.531512 14.021777 23.391349 -0.413988 0.927991 0.071187 -0.027091 9504.290000 0 1 0
-17.405817 6.465312 12.910777 22.615280 -0.355651 0.963210 0.079383 -0.022529 -11473.900000 0 1 0
-17.315917 5.202612 13.421177 22.517463 -0.291872 0.932243 0.075278 -0.009369 660110.000000 0 1 0
-17.928717 4.201112 12.494277 22.252982 -0.230170 0.974641 0.069445 -0.013219 632345.000000 0 1 0
-17.776217 2.727012 12.916677 22.142065 -0.152221 0.947943 0.081229 0.006467 -145067.000000 0 1 0
-18.595917 2.425212 14.017877 23.413472 -0.129684 0.928907 0.078223 -0.012437 24739.800000 0 1 0
-18.476117 1.018212 14.389977 23.440885 -0.055054 0.909825 0.084273 -0.000357 -588833.000000 0 1 0
-19.706917 0.478112 15.102277 24.832840 -0.024256 0.917059 0.117385 -0.007605 -711725.000000 0 1 0
-20.702917 0.155912 14.162077 25.083849 -0.007531 0.970861 0.119518 -0.014309 422005.000000 0 0 1
-21.977117 0.202812 14.833277 26.515296 -0.009228 0.977106 0.105672 -0.013237 670963.000000 0 0 1
-23.141717 -0.219688 13.874377 26.983063 0.009493 1.030735 0.109106 -0.008966 121871.000000 0 0 1
-23.064017 -1.555888 13.448877 26.744008 0.067358 1.043875 0.127971 -0.026904 54935.300000 0 0 1
-23.932817 -1.771388 12.379177 27.002992 0.073880 1.094560 0.121944 -0.012411 -207306.000000 0 0 1
-23.820917 -3.200888 11.862277 26.802899 0.133573 1.112329 0.123170 -0.023325 -22830.800000 0 0 1
-24.067317 -4.266388 12.832777 27.606484 0.175446 1.087335 0.123731 -0.015750 232481.000000 0 0 1
-23.923017 -5.566588 12.206877 27.428188 0.228619 1.109568 0.137802 -0.030317 -254041.000000 0 0 1
-23.881317 -6.757088 13.195977 28.108884 0.275737 1.082118 0.128967 -0.022436 -97746.400000 0 0 1
-25.059387 -7.004188 13.925977 29.512105 0.272548 1.079382 0.115332 -0.020040 107682.000000 0 0 1
-24.972117 -8.315288 14.367377 29.986200 0.321435 1.071130 0.114567 -0.042499 -305772.000000 0 0 1
-26.090447 -8.531088 15.356777 31.453481 0.316023 1.060727 0.103503 -0.019969 -863651.000000 0 0 1
-27.378337 -8.348488 14.854677 32.247977 0.295974 1.092081 0.117741 -0.027736 -443724.000000 0 0 1
-28.296687 -8.324388 15.927877 33.521563 0.286111 1.075658 0.111382 -0.025776 -711599.000000 0 0 1
-29.689287 -7.743088 15.549577 34.397653 0.255121 1.101730 0.117352 -0.038021 369248.000000 0 0 1
-30.507397 -8.429288 14.610077 34.859841 0.269577 1.138332 0.114490 -0.040430 453381.000000 0 0 1
-30.718587 -9.840088 14.787677 35.484283 0.310002 1.140942 0.118113 -0.042736 -1042060.000000 0 0 1
-31.187827 -10.547888 16.108977 36.652935 0.326129 1.115754 0.113819 -0.038715 64677.000000 0 0 1
-30.106907 -10.568088 17.046777 36.176000 0.337582 1.080125 0.116782 -0.028774 501070.000000 0 0 1
-30.377717 -11.256088 18.262677 37.189119 0.354853 1.057472 0.107405 -0.022181 -42864.600000 0 0 1
-29.039857 -11.365488 19.007977 36.521101 0.373049 1.023400 0.115956 -0.014288 97547.400000 0 0 1
-28.068877 -12.190488 18.398877 35.706982 0.409727 1.029469 0.100681 -0.016883 -381254.000000 0 0 1
-26.864227 -12.126188 19.114077 35.129462 0.424008 0.995476 0.093945 -0.017694 95534.700000 0 0 1
-25.762617 -12.931188 18.322877 34.156345 0.465195 1.004582 0.080124 -0.008127 48029.200000 0 0 1
-25.454567 -12.455288 17.030677 33.062262 0.455063 1.029661 0.076852 -0.013411 395337.000000 0 0 1
-24.374017 -13.277188 16.548877 32.314730 0.498786 1.033150 0.080238 -0.021445 316721.000000 0 0 1
-23.973317 -12.830288 15.109777 31.106938 0.491402 1.063591 0.086330 -0.026446 -753620.000000 0 0 1
-22.944617 -11.927488 15.055577 29.923082 0.479392 1.043565 0.091485 -0.026629 -1029230.000000 0 0 1
-22.528017 -11.831088 13.719977 28.908891 0.483582 1.076294 0.113098 -0.027642 842343.000000 0 0 1
-21.230717 -10.941788 13.583977 27.477091 0.475872 1.053681 0.103017 -0.030937 292395.000000 0 0 1
-21.453117 -9.548588 13.633577 27.153014 0.418764 1.044769 0.103875 -0.030851 233307.000000 0 0 1
-20.227617 -8.859488 13.462577 25.862869 0.412821 1.023317 0.119611 -0.032372 275521.000000 0 0 1
-19.666817 -8.830788 11.973377 24.660257 0.422038 1.063823 0.123705 -0.028156 -296024.000000 0 1 0
-19.040617 -9.989688 11.497377 24.382958 0.483174 1.079768 0.115036 -0.038163 -55758.100000 0 1 0
-18.563117 -9.786988 10.242677 23.351379 0.485192 1.116720 0.115639 -0.031228 -362955.000000 0 1 0
-17.719017 -10.940288 9.577177 22.921077 0.553139 1.139738 0.063698 -0.026931 1190400.000000 0 1 0
-16.319017 -10.994488 9.901277 22.027809 0.592871 1.104602 0.079540 -0.025745 1017620.000000 0 1 0
-16.015617 -11.402388 11.192577 22.622737 0.618704 1.053250 0.101780 -0.021953 -189899.000000 0 1 0
-14.564117 -11.970988 11.259977 21.959170 0.687983 1.032390 0.094763 -0.017941 442933.000000 0 1 0
-14.441817 -13.255388 10.656177 22.312004 0.742589 1.072877 0.091652 -0.029415 386740.000000 0 1 0
-13.080917 -13.654788 10.680477 21.717187 0.806859 1.056642 0.096819 -0.028125 243504.000000 0 1 0
-12.853517 -15.170588 10.567177 22.517213 0.867892 1.082306 0.105053 -0.028543 -285865.000000 0 1 0
-12.900217 -15.679788 9.233877 22.305512 0.882349 1.143982 0.087654 -0.033043 197653.000000 0 1 0
-12.705417 -17.105588 9.225677 23.219429 0.931942 1.162195 0.078064 -0.024672 324279.000000 0 1 0
-13.251717 -17.874988 7.957277 23.631366 0.932851 1.227359 0.086840 -0.024386 -405636.000000 0 1 0
-12.294617 -17.858288 6.948377 22.767433 0.967861 1.260659 0.088584 -0.030593 -326891.000000 0 1 0
-12.562717 -18.575888 5.732877 23.146303 0.976160 1.320511 0.069064 -0.025736 -891713.000000 0 1 0
-11.521817 -18.454888 4.686477 22.255297 1.012684 1.358630 0.068952 -0.018067 -886537.000000 0 1 0
-11.949817 -19.216288 3.595777 22.912736 1.014459 1.413211 0.086480 -0.024210 263270.000000 0 1 0
-11.221517 -19.031488 2.378877 22.221140 1.038037 1.463536 0.101964 -0.036726 98443.900000 0 1 0
-11.586617 -20.037388 1.246377 23.179734 1.046523 1.517000 0.097808 -0.031231 -88227.900000 0 1 0
-11.213117 -21.386488 1.579677 24.199406 1.087892 1.505472 0.085682 -0.035548 -126124.000000 0 1 0
-11.642417 -22.450588 0.774577 25.301675 1.092396 1.540178 0.085365 -0.030510 13179.500000 0 0 1
-10.741917 -22.608188 -0.513523 25.035628 1.127239 1.591309 0.097355 -0.025104 401390.000000 0 0 1
-10.916517 -21.588888 -1.508023 24.238906 1.102635 1.633051 0.098029 -0.034622 108800.000000 0 1 0
-12.085517 -21.865688 -2.274023 25.086634 1.065870 1.661568 0.110756 -0.028495 54878.200000 0 0 1
-12.940817 -20.610488 -2.600123 24.474836 1.010132 1.677234 0.103280 -0.026509 245380.000000 0 1 0
-13.684917 -20.147688 -1.447423 24.398798 0.974146 1.630155 0.098185 -0.038028 447068.000000 0 1 0
-14.181417 -18.796188 -1.629823 23.602237 0.924432 1.639905 0.081894 -0.039932 282769.000000 0 1 0
26.856783 -20.027588 -3.951523 33.734339 -0.640755 1.688202 0.093526 -0.045274 21854.200000 0 0 1
25.635783 -20.161788 -3.247323 32.775543 -0.666437 1.670037 0.077876 -0.037533 167779.000000 0 0 1
25.621483 -21.367088 -2.542123 33.458560 -0.695103 1.646848 0.060932 -0.030415 -239801.000000 0 0 1
24.275683 -21.747188 -1.896423 32.647288 -0.730513 1.628917 0.056802 -0.027557 154129.000000 0 0 1
23.203383 -21.924488 -2.798523 32.045466 -0.757066 1.658237 0.072669 -0.038246 117013.000000 0 0 1
22.040283 -22.438688 -2.161923 31.526857 -0.794355 1.639424 0.061954 -0.033601 700296.000000 0 0 1
21.030183 -23.109188 -3.146523 31.403882 -0.832464 1.671160 0.083022 -0.041044 238857.000000 0 0 1
20.423383 -22.189888 -4.024123 30.425307 -0.826829 1.703447 0.082578 -0.046442 -496372.000000 0 0 1
19.496983 -22.847888 -4.865723 30.427514 -0.864367 1.731398 0.088519 -0.043668 -376425.000000 0 0 1
18.648983 -21.802288 -5.581623 29.228049 -0.863194 1.762945 0.076741 -0.026851 -509085.000000 0 0 1
17.596383 -21.273488 -4.793323 28.020884 -0.879718 1.742704 0.087212 -0.027234 -120915.000000 0 0 1
17.949883 -20.304588 -3.807523 27.367350 -0.846874 1.710376 0.072171 -0.032507 -1110320.000000 0 0 1
16.855583 -19.814588 -2.904523 26.175654 -0.865916 1.681988 0.088629 -0.019954 -584102.000000 0 0 1
16.423183 -20.754288 -1.921823 26.535916 -0.901373 1.643283 0.089718 -0.026687 -42769.200000 0 0 1
15.540883 -20.068388 -1.069823 25.404798 -0.911864 1.612920 0.095693 -0.014620 -123124.000000 0 0 1
15.026883 -20.877088 0.168877 25.723308 -0.946919 1.564231 0.084508 -0.016758 101808.000000 0 0 1
14.056883 -21.896988 -0.021423 26.020656 -1.000097 1.571620 0.094673 -0.028444 -135229.000000 0 0 1
13.601383 -22.285288 1.295577 26.140203 -1.022816 1.521213 0.094326 -0.018013 78955.100000 0 0 1
12.685483 -23.502888 1.341677 26.741491 -1.075863 1.520603 0.100771 -0.023468 63530.300000 0 0 1
13.389783 -24.713588 1.005177 28.125756 -1.074272 1.535050 0.090148 -0.021058 324477.000000 0 0 1
12.497783 -25.809798 0.954977 28.692373 -1.119847 1.537507 0.087810 -0.031918 139779.000000 0 0 1
12.990883 -27.051108 1.730277 30.058599 -1.123086 1.513201 0.090468 -0.028488 -31268.300000 0 0 1
12.571483 -27.070278 3.055677 30.002989 -1.136031 1.468774 0.121026 -0.037820 62669.500000 0 0 1
13.183983 -28.107218 3.764777 31.273098 -1.132205 1.450120 0.119728 -0.036947 139981.000000 0 0 1
12.321183 -28.439558 4.995277 31.393834 -1.161966 1.411001 0.118755 -0.037871 109652.000000 0 0 1
13.067683 -29.248718 5.883177 32.570902 -1.150625 1.389173 0.112341 -0.036061 -201353.000000 0 0 1
12.336883 -29.592028 6.998277 32.815586 -1.175807 1.355885 0.101165 -0.039034 -703071.000000 0 0 1
13.143083 -30.409968 7.977777 34.075677 -1.162846 1.334484 0.085282 -0.028828 -636723.000000 0 0 1
12.538983 -30.823978 9.142277 34.509781 -1.184448 1.302677 0.073305 -0.025451 5515.210000 0 0 1
11.750483 -32.058108 9.044277 35.321313 -1.219466 1.311855 0.072224 -0.028354 734769.000000 0 0 1
11.128683 -32.361918 10.409377 35.770050 -1.239582 1.275516 0.062138 -0.020886 98698.500000 0 0 1
12.130483 -32.844148 11.324077 36.798389 -1.217002 1.257987 0.063095 -0.028362 335188.000000 0 0 1
11.834283 -32.922418 12.656677 37.203862 -1.225719 1.223669 0.063657 -0.018809 -495451.000000 0 0 1
10.857083 33.889091 13.076077 37.912142 1.260757 1.218659 0.059987 -0.024746 -118147.000000 0 0 1
11.369883 32.591717 12.841377 36.829271 1.235139 1.214641 0.080794 -0.030807 -403896.000000 0 0 1
10.356483 31.699444 13.111677 35.833330 1.255020 1.196189 0.054597 -0.018860 -547155.000000 0 0 1
10.323283 30.489344 12.224977 34.432838 1.244325 1.207841 0.065025 -0.024914 -205485.000000 0 0 1
9.930783 30.730864 10.908277 34.088076 1.258236 1.245064 0.052723 -0.022763 295859.000000 0 0 1
10.830383 31.565424 10.141577 34.878715 1.240274 1.275768 0.045426 -0.022557 185608.000000 0 0 1
10.447083 31.885884 8.710577 34.665909 1.254179 1.316802 0.049046 -0.016707 359282.000000 0 0 1
9.233483 32.638899 8.720877 35.022973 1.295102 1.319144 0.049923 -0.014531 372975.000000 0 0 1
8.542383 32.703764 7.479277 34.618608 1.315300 1.353031 0.039599 -0.017291 -6483.360000 0 0 1
8.976083 33.820504 6.497177 35.589462 1.311374 1.387208 0.057412 -0.014382 -90636.200000 0 0 1
8.464483 -32.815838 6.845777 34.574433 -1.318360 1.371478 0.064148 -0.010362 210346.000000 0 0 1
8.890283 -31.830148 5.919677 33.574366 -1.298433 1.393554 0.092779 -0.029474 194862.000000 0 0 1
8.326683 -30.469108 6.405677 32.229380 -1.304027 1.370711 0.090033 -0.034914 282927.000000 0 0 1
8.856783 -30.136628 7.663377 32.332435 -1.284957 1.331501 0.089351 -0.030552 305080.000000 0 0 1
8.180383 -28.959808 8.140677 31.174666 -1.295495 1.306602 0.113485 -0.026796 307410.000000 0 0 1
8.854983 -27.621198 7.764377 30.027102 -1.260561 1.309245 0.139288 -0.035070 -792054.000000 0 0 1
9.909683 -27.120988 8.491377 30.097397 -1.220479 1.284783 0.125007 -0.033574 -978866.000000 0 0 1
10.521083 -25.987028 7.904877 29.129125 -1.186108 1.295976 0.114235 -0.036356 -130903.000000 0 0 1
9.810183 -24.803188 7.206677 27.629224 -1.194157 1.306909 0.108212 -0.034544 -409105.000000 0 0 1
9.302583 -25.117258 5.929177 27.433007 -1.216094 1.352944 0.121592 -0.036453 -1181480.000000 0 0 1
8.461583 -24.187888 5.438177 26.195918 -1.234275 1.361679 0.116158 -0.029192 -539123.000000 0 0 1
8.077883 -24.569488 3.976177 26.167192 -1.253152 1.418253 0.105128 -0.021233 246376.000000 0 0 1
7.234083 -25.706408 3.850877 26.981116 -1.296479 1.427582 0.077649 -0.022248 -199225.000000 0 0 1
7.805283 -26.928288 4.253477 28.357490 -1.288673 1.420233 0.086914 -0.021843 -120990.000000 0 0 1
6.940683 -28.120318 3.802477 29.212741 -1.328812 1.440261 0.093945 -0.023861 362055.000000 0 0 1
5.809183 -28.483308 4.575577 29.427561 -1.369605 1.414677 0.076163 -0.017382 333967.000000 0 0 1
4.792883 -29.147598 3.811777 29.783953 -1.407820 1.442463 0.063792 -0.013968 573443.000000 0 0 1
4.603383 -30.679628 3.827877 31.258333 -1.421861 1.448029 0.069055 -0.011062 315959.000000 0 0 1
5.620883 -31.436088 3.151077 32.089738 -1.393863 1.472442 0.066509 -0.019755 258873.000000 0 0 1
5.559883 -32.773898 3.548677 33.431031 -1.402753 1.464447 0.056885 -0.019207 460250.000000 0 0 1
6.831183 -33.586188 3.124777 34.416004 -1.370141 1.479877 0.053143 -0.020999 322493.000000 0 0 1
6.909883 33.931114 1.774977 34.673008 1.369899 1.519582 0.064041 -0.017906 -438407.000000 0 0 1
7.996883 33.125736 1.412877 34.106608 1.333919 1.529359 0.052204 -0.018835 -637141.000000 0 0 1
7.851483 32.672910 -0.064023 33.603109 1.334962 1.572702 0.054911 -0.014949 394253.000000 0 0 1
6.728183 31.854044 -0.390323 32.559191 1.362637 1.582785 0.047035 -0.012401 -593657.000000 0 0 1
5.582583 32.622111 -0.575523 33.101338 1.401309 1.588184 0.056310 -0.019971 -368840.000000 0 0 1
4.271083 31.787414 -0.355123 32.075036 1.437232 1.581868 0.057411 -0.022611 503055.000000 0 0 1
3.989983 30.863714 -1.399623 31.152010 1.442232 1.615740 0.071195 -0.021324 -263584.000000 0 0 1
2.846583 30.146714 -1.008223 30.297589 1.476651 1.604080 0.083045 -0.026826 -39336.500000 0 0 1
2.522983 28.985054 -1.985223 29.162302 1.483971 1.638924 0.079973 -0.026010 -29578.600000 0 0 1
2.063583 29.385984 -3.214223 29.633185 1.500688 1.679477 0.096139 -0.033098 -175694.000000 0 0 1
2.148583 28.376534 -4.222423 28.769305 1.495224 1.718097 0.085843 -0.037201 -133138.000000 0 0 1
1.997983 28.980154 -5.591323 29.582159 1.501962 1.760950 0.097201 -0.040420 500303.000000 0 0 1
0.649983 29.435594 -5.731323 29.995411 1.548718 1.763052 0.119275 -0.038303 416465.000000 0 0 1
0.392183 30.167944 -6.892823 30.947853 1.557797 1.795404 0.104972 -0.034883 -171833.000000 0 0 1
0.537083 29.609524 -8.328023 30.763100 1.552659 1.844932 0.103264 -0.037723 320422.000000 0 0 1
-0.514017 28.648084 -8.702723 29.945188 -1.552856 1.865673 0.117904 -0.034149 1244800.000000 0 0 1
-0.814317 28.574844 -10.136723 30.330479 -1.542306 1.911562 0.108393 -0.034750 322981.000000 0 0 1
-1.311517 29.853824 -10.858223 31.794211 -1.526893 1.919325 0.098794 -0.037871 -524580.000000 0 0 1
-0.193617 30.592164 -11.269923 32.602594 -1.564467 1.923755 0.085611 -0.032970 -195504.000000 0 0 1
-0.420617 31.954532 -11.597723 33.996708 -1.557634 1.918928 0.078143 -0.040076 -103200.000000 0 0 1
-0.660917 32.949566 -10.423223 34.565218 -1.550741 1.877117 0.068316 -0.046236 457773.000000 0 0 1
0.493483 33.287902 -9.640523 34.659307 1.555973 1.852665 0.065366 -0.050125 343259.000000 0 0 1
0.191783 -33.692118 -8.609523 34.775271 -1.565104 1.820974 0.076993 -0.045625 -260309.000000 0 0 1
1.317983 -33.508208 -7.558323 34.375360 -1.531483 1.792484 0.081792 -0.044449 320685.000000 0 0 1
2.380583 -32.665168 -7.979623 33.709862 -1.498047 1.809779 0.088802 -0.045031 5044.780000 0 0 1
3.202883 -32.332178 -6.864123 33.207596 -1.472057 1.779001 0.088144 -0.048960 709622.000000 0 0 1
4.607783 -31.767848 -7.326923 32.925851 -1.426755 1.795203 0.071340 -0.041005 967235.000000 0 0 1
5.311283 -32.594508 -8.270023 34.044162 -1.409266 1.816172 0.066831 -0.036306 600125.000000 0 0 1
6.299383 -33.400088 -7.608823 34.830193 -1.384382 1.791027 0.075535 -0.024435 -346363.000000 0 0 1
6.563283 33.201800 -8.453423 34.884044 1.375634 1.815562 0.069976 -0.022229 477308.000000 0 0 1
5.516783 32.203905 -8.484823 33.756756 1.401135 1.824873 0.063341 -0.028055 78308.300000 0 0 1
4.443583 32.568750 -9.310223 34.163564 1.435197 1.846807 0.071006 -0.038313 -389669.000000 0 0 1
3.581983 31.367354 -9.704023 33.028920 1.457094 1.869000 0.074003 -0.047342 14224.300000 0 0 1
4.288283 30.389514 -10.475823 32.429227 1.430611 1.899733 0.050227 -0.033829 423785.000000 0 0 1
3.473283 29.243814 -10.682123 31.326859 1.452580 1.918765 0.052870 -0.040318 45860.300000 0 0 1
4.185483 28.251494 -11.595023 30.823850 1.423715 1.956456 0.044321 -0.035773 -51782.000000 0 0 1
4.250983 28.822474 -12.867723 31.849398 1.424364 1.986701 0.051770 -0.034707 -524140.000000 0 0 1
5.518183 28.778354 -13.424023 32.231171 1.381348 2.000380 0.042201 -0.030881 -713963.000000 0 0 1
5.421483 29.271964 -14.899823 33.290315 1.387661 2.034845 0.055028 -0.033870 -343870.000000 0 0 1
4.459683 28.563804 -15.602223 32.851317 1.415916 2.065686 0.064777 -0.036501 -270538.000000 0 0 1
4.435883 29.042414 -16.921723 33.904034 1.419230 2.093364 0.089026 -0.034986 -254573.000000 0 0 1
3.445183 28.414374 -17.889723 33.753342 1.450137 2.129413 0.084751 -0.039560 -231314.000000 0 0 1
3.774483 27.104464 -18.287623 32.914067 1.432429 2.159901 0.092064 -0.027491 110068.000000 0 0 1
2.769583 26.710164 -19.208723 33.016336 1.467475 2.191730 0.108204 -0.037109 230341.000000 0 0 1
3.098883 25.453814 -20.002823 32.520957 1.449647 2.233277 0.115810 -0.036161 88716.000000 0 0 1
3.207983 24.341294 -19.236523 31.190279 1.439760 2.235400 0.112795 -0.045212 -153772.000000 0 0 1
4.268183 23.541514 -19.710423 30.998726 1.391440 2.259901 0.117928 -0.044305 127321.000000 0 0 1
4.631783 22.284164 -18.891823 29.579356 1.365863 2.263581 0.113549 -0.043882 474103.000000 0 0 1
3.660083 21.232864 -18.843523 28.623575 1.400096 2.289383 0.121444 -0.039344 171019.000000 0 0 1
4.258783 20.141864 -18.119623 27.425401 1.362426 2.292531 0.099037 -0.026080 36942.000000 0 0 1
3.392583 18.909364 -17.948723 26.291259 1.393272 2.322231 0.086490 -0.034391 271953.000000 0 0 1
2.181483 19.119864 -17.218823 25.822779 1.457192 2.300713 0.081664 -0.026376 899902.000000 0 0 1
1.380083 17.964764 -16.788423 24.626987 1.494125 2.320891 0.058197 -0.023754 252017.000000 0 1 0
1.973583 17.107864 -15.588523 23.228777 1.455943 2.306470 0.050787 -0.016697 530748.000000 0 1 0
3.219783 16.450864 -15.854723 23.073148 1.377518 2.328356 0.059392 -0.030611 190900.000000 0 1 0
3.243583 15.394564 -16.777923 23.000263 1.363137 2.388338 0.061907 -0.034076 -477303.000000 0 1 0
3.279683 15.562164 -18.270123 24.222606 1.363089 2.425321 0.075259 -0.036594 -1461300.000000 0 1 0
4.454983 16.014064 -18.791623 25.088288 1.299465 2.417378 0.096036 -0.036381 -1480470.000000 0 0 1
4.469683 16.322964 -20.175123 26.333492 1.303520 2.443609 0.116547 -0.037856 -562619.000000 0 0 1
4.689983 15.197164 -21.203423 26.505374 1.271460 2.498036 0.111407 -0.039831 524644.000000 0 0 1
3.673683 14.212764 -21.486423 26.022393 1.317855 2.542220 0.092438 -0.033540 -359.176000 0 0 1
2.472883 14.677164 -22.031023 26.587596 1.403879 2.547435 0.100143 -0.043191 -576281.000000 0 0 1
1.538983 13.608764 -22.537323 26.372293 1.458187 2.595544 0.088814 -0.032225 -330171.000000 0 0 1
0.973783 12.752964 -21.556723 25.065487 1.494587 2.606098 0.080282 -0.025636 245930.000000 0 0 1
0.009983 11.930664 -22.210523 25.212064 1.569960 2.648659 0.049078 -0.018162 339877.000000 0 0 1
-0.610117 10.849164 -21.240223 23.858408 -1.514619 2.668715 0.030142 -0.017185 -700018.000000 0 1 0
-1.504417 11.351164 -20.287623 23.295919 -1.439030 2.627758 0.028067 -0.017641 27628.300000 0 1 0
-2.113517 10.318364 -19.474823 22.140558 -1.368760 2.645816 0.017453 -0.016631 968585.000000 0 1 0
-3.124417 9.273064 -20.142923 22.393951 -1.245808 2.689376 0.018653 -0.014578 66617.300000 0 1 0
-2.588317 8.272164 -20.992223 22.711263 -1.267552 2.750017 0.016831 -0.008500 -647599.000000 0 1 0
-3.611717 7.391964 -21.342023 22.872856 -1.116310 2.773658 0.028953 0.000537 -910621.000000 0 1 0
-3.189017 6.119164 -22.029823 23.085213 -1.090370 2.838048 0.031538 -0.006692 -712804.000000 0 1 0
-2.557817 5.335164 -21.040223 21.856289 -1.123743 2.867467 0.033732 -0.009694 -171008.000000 0 1 0
-2.107017 4.199464 -21.720223 22.222581 -1.105762 2.928560 0.044569 -0.015152 117767.000000 0 1 0
-1.165017 3.240764 -20.875923 21.158071 -1.225694 2.978100 0.041045 -0.018401 228835.000000 0 1 0
0.207583 3.488264 -20.783823 21.075539 1.511357 2.975018 0.045614 -0.020735 -472978.000000 0 1 0
0.845683 2.410064 -20.075023 20.236851 1.233323 3.015043 0.045460 -0.014166 50515.900000 0 1 0
2.372383 2.572864 -20.117823 20.419956 0.825916 2.969357 0.036466 -0.016336 -169426.000000 0 1 0
2.931983 2.208764 -21.397523 21.710116 0.645632 2.971692 0.054212 -0.013024 -349619.000000 0 1 0
4.312883 2.037564 -21.211023 21.740748 0.441355 2.920391 0.072452 -0.020733 166920.000000 0 1 0
5.130783 1.275564 -22.309623 22.927522 0.243670 2.908904 0.073447 -0.019909 649691.000000 0 1 0
6.543883 1.286164 -22.176823 23.157895 0.194071 2.849473 0.085400 -0.026630 360341.000000 0 1 0
7.160783 0.470064 -23.157723 24.244131 0.065550 2.841093 0.097119 -0.031028 -658749.000000 0 1 0
8.659883 0.301064 -22.960223 24.540906 0.034751 2.780722 0.111703 -0.038227 -863024.000000 0 1 0
9.269483 1.521464 -23.158423 24.991013 0.162686 2.756251 0.106224 -0.050623 -575101.000000 0 1 0
10.619083 1.391864 -22.777223 25.169507 0.130329 2.702066 0.117654 -0.042995 -178848.000000 0 0 1
13.912283 -20.270188 22.866474 33.575404 -0.969296 0.821603 0.095132 -0.005053 -236045.000000 0 0 1
12.925483 -21.193488 23.252374 34.013305 -1.023144 0.818077 0.083985 -0.001249 1342090.000000 0 0 1
11.564783 -21.067688 22.750824 33.093680 -1.068771 0.812801 0.075055 -0.009404 1593480.000000 0 0 1
11.324983 -21.162588 21.234424 32.047014 -1.079432 0.846508 0.094444 -0.019627 -571443.000000 0 0 1
11.626683 -19.960388 20.597824 30.949430 -1.043353 0.842590 0.115459 -0.021881 -7303.690000 0 0 1
11.213683 -19.871988 19.210024 29.827297 -1.057044 0.871026 0.124826 -0.026743 270430.000000 0 0 1
11.594683 -18.453588 18.585724 28.642638 -1.009816 0.864681 0.129703 -0.025087 572789.000000 0 0 1
10.778983 -17.403988 19.165724 28.043007 -1.016278 0.818331 0.150165 -0.026614 186502.000000 0 0 1
10.851383 -16.255988 18.358424 26.814947 -0.982195 0.816695 0.155933 -0.027705 -69093.200000 0 0 1
9.898583 -15.143488 18.822624 26.107439 -0.991858 0.765598 0.133001 -0.021271 303966.000000 0 0 1
8.540683 -15.428688 18.550024 25.594747 -1.065225 0.760112 0.114239 -0.020460 -68002.100000 0 0 1
7.662083 -14.347888 18.863224 24.907642 -1.080303 0.711587 0.093026 -0.015827 1018260.000000 0 1 0
6.206583 -14.669188 18.363924 24.309267 -1.170533 0.714488 0.048106 -0.009389 300914.000000 0 1 0
6.036283 -14.811488 16.979824 23.326622 -1.183806 0.755519 0.036811 -0.013307 -109548.000000 0 1 0
4.691483 -14.873588 16.546224 22.737879 -1.265250 0.755842 0.016836 -0.015308 35896.500000 0 1 0
4.009883 -16.230088 16.735624 23.655359 -1.328582 0.784874 0.004453 -0.006367 -418606.000000 0 1 0
2.660783 -16.237288 16.320624 23.175247 -1.408371 0.789463 0.013339 -0.006762 -126772.000000 0 1 0
2.115183 -17.545788 16.543924 24.208058 -1.450823 0.818379 0.022912 -0.014117 466472.000000 0 1 0
0.586983 -17.570088 16.293524 23.969386 -1.537401 0.823356 0.026386 -0.006555 162634.000000 0 1 0
0.325183 -17.512688 14.933424 23.017540 -1.552230 0.864810 0.029080 -0.006241 344526.000000 0 1 0
-1.077017 -17.559988 14.667824 22.905419 1.509539 0.875823 0.036701 -0.008164 400763.000000 0 1 0
-1.562517 -17.884888 13.245324 22.310296 1.483652 0.935164 0.035444 -0.018020 833716.000000 0 1 0
-2.970317 -18.173188 13.195024 22.653834 1.408784 0.949041 0.044682 -0.024571 781811.000000 0 1 0
-3.092817 -19.445688 12.624624 23.389772 1.413068 1.000657 0.062850 -0.031037 -823275.000000 0 1 0
-4.511017 -19.839188 12.290624 23.769773 1.347219 1.027373 0.058530 -0.032521 -676202.000000 0 1 0
-5.182817 -20.362588 13.416724 24.930003 1.321562 1.002525 0.065524 -0.034252 -925925.000000 0 1 0
-6.439217 -20.828888 13.073124 25.420713 1.270968 1.030639 0.069932 -0.034657 -498346.000000 0 0 1
-7.086317 -21.630888 14.303424 26.883064 1.254213 1.009764 0.077978 -0.029808 -228188.000000 0 0 1
-8.475517 -21.595488 14.269124 27.236141 1.196801 1.019368 0.084835 -0.028150 -660284.000000 0 0 1
-9.076817 -22.479488 15.208624 28.618495 1.187034 1.010513 0.075776 -0.023445 922410.000000 0 0 1
-10.603217 -22.242588 15.462524 29.090386 1.125955 1.010386 0.089252 -0.019988 752263.000000 0 0 1
-10.854217 -21.008388 16.032224 28.569190 1.093909 0.974995 0.073470 -0.018399 532120.000000 0 0 1
-12.220617 -20.575788 15.879224 28.720311 1.034851 0.984966 0.055819 -0.009952 557154.000000 0 0 1
-12.449017 -19.249088 16.663624 28.340462 0.996721 0.942237 0.073024 -0.008666 -140182.000000 0 0 1
-12.651317 -19.485588 18.051424 29.421045 0.994938 0.910242 0.063303 -0.009983 -9823.140000 0 0 1
-13.099617 -18.350388 18.782924 29.345101 0.950828 0.876207 0.071784 -0.014931 79248.000000 0 0 1
-13.609117 -18.783988 20.180424 30.745663 0.943812 0.854804 0.074043 -0.021183 -113243.000000 0 0 1
-14.821717 -19.489188 20.123524 31.693342 0.920603 0.882859 0.062634 -0.013723 -116161.000000 0 0 1
-15.095517 -20.174288 21.355524 33.029304 0.928413 0.867726 0.057965 -0.006163 597457.000000 0 0 1
-16.520717 -20.834488 21.389724 34.125214 0.900369 0.893355 0.073113 -0.011984 379183.000000 0 0 1
-16.696117 -21.948388 20.559424 34.397412 0.920483 0.930164 0.073468 -0.012553 530762.000000 0 0 1
-18.063017 -22.189588 20.261224 35.059486 0.887558 0.954631 0.056798 -0.004309 586812.000000 0 0 1
-18.954917 -23.008788 21.239324 36.603307 0.881704 0.951752 0.061323 -0.010698 -357609.000000 0 0 1
-19.409017 -22.222388 22.299724 36.984080 0.852874 0.923597 0.065417 -0.008302 -212533.000000 0 0 1
-20.408817 -22.862888 23.045044 38.344563 0.842051 0.926046 0.070322 -0.005876 -276614.000000 0 0 1
-21.007917 -21.829388 24.060514 38.688022 0.804572 0.899615 0.060099 0.001122 -151287.000000 0 0 1
-21.772417 -20.805088 23.410214 38.143518 0.762683 0.910007 0.067309 0.007647 275871.000000 0 0 1
-22.081517 -19.806188 24.373464 38.391981 0.731132 0.882971 0.068473 0.001294 -297315.000000 0 0 1
-23.074817 -18.758288 23.883424 38.141034 0.682578 0.894143 0.070722 -0.001328 -151411.000000 0 0 1
-22.731417 -18.058388 22.705924 36.856230 0.671332 0.907056 0.072756 0.002035 19462.100000 0 0 1
-23.868717 -17.348988 22.296124 36.984053 0.628520 0.923718 0.064484 0.008073 213488.000000 0 0 1
-23.406317 -16.567388 21.030824 35.561631 0.615953 0.938014 0.058968 0.001686 -222848.000000 0 0 1
-22.413517 -15.610688 21.178724 34.562952 0.608363 0.911251 0.074355 -0.011553 -796153.000000 0 0 1
-22.077117 -15.310788 19.828124 33.391224 0.606360 0.935007 0.068229 -0.002338 37587.000000 0 0 1
-20.949417 -14.315488 19.512324 32.008468 0.599454 0.915242 0.065910 -0.022659 10594.400000 0 0 1
-20.767617 -14.294888 18.103924 31.038521 0.602848 0.948044 0.053684 -0.027873 -72745.500000 0 0 1
-19.906617 -13.251488 17.668324 29.732894 0.587321 0.934482 0.066732 -0.031940 -691489.000000 0 0 1
-19.592817 -13.444288 16.185224 28.750458 0.601394 0.972839 0.069988 -0.042494 584684.000000 0 0 1
-18.807717 -12.493188 15.405824 27.334033 0.586334 0.972043 0.078831 -0.028786 1214300.000000 0 0 1
-17.568917 -12.083188 16.016824 26.668500 0.602463 0.926558 0.099298 -0.039992 -198627.000000 0 0 1
-16.846217 -11.070688 15.162024 25.223840 0.581393 0.925921 0.095412 -0.028433 45083.700000 0 0 1
-17.310317 -9.707388 15.463324 25.159389 0.511087 0.908899 0.100211 -0.024395 458236.000000 0 0 1
-16.435717 -8.777488 14.853624 23.828706 0.490515 0.897777 0.070445 -0.001821 -322375.000000 0 1 0
-16.752217 -7.254388 15.020324 23.640496 0.408661 0.882316 0.099544 -0.005340 98712.000000 0 1 0
-16.268417 -6.672288 16.236724 23.933491 0.389215 0.825200 0.101470 -0.012065 -330512.000000 0 1 0
-14.896917 -6.411888 16.145624 22.884746 0.406450 0.787641 0.099708 -0.016672 -719967.000000 0 1 0
-14.210717 -6.182688 17.520124 23.390700 0.410371 0.724213 0.094933 -0.021115 -9675.490000 0 1 0
-14.338417 -7.288688 18.400424 24.439533 0.470292 0.718345 0.101020 -0.029912 455214.000000 0 1 0
-13.596717 -8.484188 18.048024 24.136763 0.557871 0.726144 0.099870 -0.028997 98740.200000 0 1 0
-13.772617 -9.557988 19.128224 25.434800 0.606678 0.719631 0.105732 -0.036200 -405840.000000 0 0 1
-14.989117 -10.217288 19.194724 26.410301 0.598302 0.757161 0.115189 -0.039654 -621703.000000 0 0 1
-15.790917 -9.880088 20.313624 27.561069 0.559089 0.742115 0.100614 -0.037733 -1634030.000000 0 0 1
-17.082617 -10.679188 20.330624 28.621585 0.558707 0.780837 0.087454 -0.033274 -871444.000000 0 0 1
-17.991117 -10.553788 19.308624 28.423330 0.530517 0.823957 0.090182 -0.025521 -314023.000000 0 0 1
-18.465717 -9.221388 19.071524 28.102308 0.463151 0.824879 0.075380 -0.019760 -671057.000000 0 0 1
-19.696117 -9.208788 18.115424 28.300307 0.437347 0.876150 0.096243 -0.018084 425506.000000 0 0 1
-20.866317 -9.855988 18.558824 29.613740 0.441275 0.893490 0.081643 -0.011002 -168113.000000 0 0 1
-21.819817 -9.855588 17.520624 29.668321 0.424251 0.939056 0.113427 -0.010497 1303060.000000 0 0 1
-23.330117 -9.967888 18.018124 31.117614 0.403778 0.953254 0.097256 -0.015600 1085930.000000 0 0 1
-23.789117 -8.902788 18.760824 31.577685 0.358102 0.934630 0.092508 -0.002624 -420180.000000 0 0 1
-25.180747 -8.884988 18.832824 32.675500 0.339210 0.956530 0.086257 -0.001844 -579943.000000 0 0 1
-25.695587 -7.582888 19.511824 33.143244 0.286960 0.941332 0.105625 -0.002731 -438174.000000 0 0 1
-25.650457 -7.640388 20.948424 33.987614 0.289497 0.906691 0.111180 -0.007822 185842.000000 0 0 1
-26.291607 -6.558688 21.571524 34.635179 0.244470 0.898453 0.103041 -0.008959 -1072650.000000 0 0 1
-26.301807 -6.689788 23.093054 35.634638 0.249066 0.865774 0.098976 -0.009645 418917.000000 0 0 1
-25.151817 -6.320888 23.857184 35.238228 0.246211 0.827083 0.075943 -0.012046 167301.000000 0 0 1
-24.043517 -7.175488 23.655094 34.483935 0.290023 0.814854 0.086736 -0.009097 -707635.000000 0 0 1
-23.006517 -6.898288 24.771204 34.503605 0.291311 0.769971 0.090682 -0.011483 -163255.000000 0 0 1
-22.341017 -5.667588 24.583284 33.698374 0.248444 0.753192 0.078853 -0.012346 78139.000000 0 0 1
-21.741317 -5.227988 25.781134 34.127461 0.235983 0.714476 0.080409 -0.027743 246138.000000 0 0 1
-21.284417 -3.718488 25.759214 33.621283 0.172959 0.697955 0.069903 -0.022395 -358352.000000 0 0 1
-20.493717 -3.268188 26.795274 33.891889 0.158141 0.658991 0.060323 -0.024458 -673482.000000 0 0 1
-20.996117 -3.315788 28.125654 35.254557 0.156630 0.647179 0.061726 -0.030304 249959.000000 0 0 1
-21.856317 -2.043888 28.536114 36.002581 0.093244 0.655714 0.071664 -0.035847 1517650.000000 0 0 1
-23.150817 -2.031888 27.884624 36.299327 0.087543 0.694794 0.088726 -0.038886 618667.000000 0 0 1
-23.956417 -0.993688 28.476824 37.226695 0.041455 0.699822 0.068475 -0.037275 490257.000000 0 0 1
-25.249637 -0.748288 27.676024 37.470874 0.029627 0.739804 0.080083 -0.032946 -807339.000000 0 0 1
-24.905917 -0.283088 26.367444 36.271572 0.011366 0.756934 0.071622 -0.033762 342354.000000 0 0 1
-26.038337 0.082712 25.574024 36.497021 -0.003177 0.794397 0.097032 -0.035509 184750.000000 0 0 1
-26.990507 -1.044788 25.194604 36.937069 0.038690 0.820172 0.093847 -0.026080 -416179.000000 0 0 1
-27.742397 -1.644288 26.258744 38.234355 0.059201 0.813741 0.082656 -0.022641 20618.400000 0 0 1
-28.143417 -3.027688 26.027544 38.453242 0.107169 0.827305 0.066375 -0.027570 -6763.680000 0 0 1
-27.045907 -4.117388 26.041594 37.770340 0.151077 0.810036 0.080346 -0.033780 2682.850000 0 0 1
-26.559257 -4.271288 27.368014 38.375073 0.159456 0.776784 0.072462 -0.037389 -219663.000000 0 0 1
-25.790937 -5.453088 27.434684 38.046951 0.208366 0.765445 0.091290 -0.034475 7533.010000 0 0 1
-25.340047 -5.776588 28.836454 38.820459 0.224133 0.733530 0.078382 -0.032657 26516.300000 0 0 1
-26.481147 -6.070688 29.617534 40.190828 0.225352 0.742290 0.087349 -0.030523 201041.000000 0 0 1
-26.313517 -7.210788 30.530564 40.945231 0.267468 0.729296 0.092740 -0.026597 185490.000000 0 0 1
-27.623117 -7.688488 31.238934 42.403071 0.271464 0.742598 0.077383 -0.028750 294907.000000 0 0 1
-28.575447 -8.165988 30.332044 42.464955 0.278351 0.775196 0.058650 -0.026088 -652198.000000 0 0 1
-29.815177 -8.370088 30.941054 43.776157 0.273688 0.785830 0.079484 -0.022290 -361351.000000 0 0 1
-30.792207 -9.084988 30.001124 43.940465 0.286902 0.819252 0.070954 -0.026869 -269484.000000 0 0 1
-30.436737 -10.483588 29.917414 43.947152 0.331712 0.821998 0.080721 -0.023161 120818.000000 0 0 1
-31.355357 -11.205888 29.138124 44.246588 0.343237 0.851920 0.061426 -0.018947 -400575.000000 0 0 1
-30.843897 -12.499188 28.516404 43.826487 0.385016 0.862335 0.079212 -0.025382 -1008180.000000 0 0 1
-29.881537 -12.301588 27.570424 42.477801 0.390533 0.864455 0.085808 -0.022513 -1073080.000000 0 0 1
-29.004507 -13.386588 27.542694 42.178930 0.432405 0.859262 0.075804 -0.027746 -257696.000000 0 0 1
-27.554967 -12.988588 27.170144 40.819068 0.440483 0.842467 0.095147 -0.034960 8685.800000 0 0 1
-26.801527 -12.196688 28.105654 40.706373 0.427066 0.808687 0.089097 -0.040208 225239.000000 0 0 1
-27.295457 -10.948588 28.568124 41.000625 0.381466 0.799908 0.094886 -0.037946 -1141130.000000 0 0 1
-27.272417 -9.731588 27.603574 40.005572 0.342746 0.809317 0.094381 -0.034354 83016.300000 0 0 1
-26.021347 -9.253688 27.145354 38.724817 0.341672 0.794024 0.086178 -0.035377 -21054.900000 0 0 1
-25.338107 -9.881988 26.083234 37.682999 0.371860 0.806298 0.081031 -0.031600 -121444.000000 0 0 1
-26.026117 -9.972288 24.711114 37.248415 0.365909 0.845424 0.086144 -0.023349 -836427.000000 0 0 1
-27.236707 -10.649888 24.664164 38.256755 0.372734 0.870164 0.085822 -0.026908 -507126.000000 0 0 1
-27.759707 -10.688688 23.311414 37.792478 0.367547 0.906092 0.094275 -0.016250 -1164050.000000 0 0 1
-28.986007 -11.544588 23.076204 38.806923 0.379024 0.933977 0.102426 -0.022899 566763.000000 0 0 1
-30.213567 -10.878488 23.495054 39.789680 0.345603 0.939142 0.104126 -0.019022 879745.000000 0 0 1
-30.418787 -10.777888 24.904784 40.764123 0.340515 0.913538 0.114095 -0.026986 -2211070.000000 0 0 1
-31.823227 -10.406588 25.229544 41.923081 0.316051 0.925036 0.065259 -0.023943 -1850860.000000 0 0 1
-32.153147 -9.080588 25.020164 41.740754 0.275248 0.928022 0.078519 -0.034444 358112.000000 0 0 1
-33.509137 -8.670688 25.250924 42.844512 0.253202 0.940528 0.057432 -0.014889 624931.000000 0 0 1
-34.068960 -8.771988 26.671394 44.147537 0.252004 0.922107 0.043095 -0.006428 -414166.000000 0 0 1
-34.326633 -10.130788 27.062094 44.869895 0.286982 0.923385 0.039261 -0.019916 14955.900000 0 0 1
-35.012557 -10.124788 28.318614 46.155545 0.281497 0.910251 0.062129 -0.019932 -823290.000000 0 0 1
-35.573080 -11.499488 28.813954 47.200913 0.312661 0.914164 0.068575 -0.008775 44195.200000 0 0 1
-36.756387 -11.904488 28.172274 47.816585 0.313214 0.940761 0.057797 -0.011956 -1073850.000000 0 0 1
36.641571 -11.287988 28.625624 47.848194 -0.298839 0.929469 0.066169 -0.009688 -1179520.000000 0 0 1
35.365121 -11.976988 28.026404 46.686393 -0.326543 0.926905 0.063806 -0.007081 326664.000000 0 0 1
35.113441 -11.639688 26.672664 45.605559 -0.320089 0.946094 0.065728 -0.004895 -792711.000000 0 0 1
34.040131 -12.265988 26.087494 44.606527 -0.345856 0.946119 0.074519 -0.002496 -757946.000000 0 0 1
33.777821 -11.750288 24.662034 43.442218 -0.334776 0.967090 0.076268 -0.010481 23427.200000 0 0 1
33.344141 -10.416988 24.595204 42.723172 -0.302801 0.957351 0.079419 -0.023086 22551.000000 0 0 1
33.508571 -9.915888 23.270134 41.983905 -0.287710 0.983319 0.070149 -0.021046 -108396.000000 0 0 1
33.083601 -8.412288 23.114784 41.226017 -0.248997 0.975584 0.076995 -0.019736 1576370.000000 0 0 1
31.652721 -8.128888 23.233484 40.096986 -0.251382 0.952765 0.094169 -0.023846 1356730.000000 0 0 1
31.324351 -6.822088 22.862864 39.375962 -0.214440 0.951294 0.091006 -0.020332 795360.000000 0 0 1
29.778831 -6.580588 22.699324 38.017656 -0.217487 0.930949 0.086329 -0.011288 668918.000000 0 0 1
29.377101 -7.332088 21.621724 37.205813 -0.244588 0.950670 0.074884 -0.003548 546547.000000 0 0 1
27.945101 -7.345588 21.501524 36.016688 -0.257043 0.931055 0.088774 -0.024045 758088.000000 0 0 1
14.952583 -16.834688 26.710244 34.934562 -0.844539 0.700408 0.078931 -0.013702 -45322.500000 0 0 1
14.379083 -18.088288 26.396194 35.081380 -0.899149 0.719057 0.071499 -0.009266 -44641.400000 0 0 1
15.274383 -19.124688 26.638734 36.175719 -0.896865 0.743106 0.066337 -0.003773 -1267100.000000 0 0 1
14.685283 -20.530588 26.434414 36.550524 -0.949883 0.762329 0.050780 -0.009451 842879.000000 0 0 1
13.759683 -20.984888 27.484494 37.216822 -0.990428 0.739959 0.052799 -0.007344 98393.000000 0 0 1
12.548883 -20.328888 27.538804 36.457151 -1.017758 0.714571 0.071371 -0.011123 -1280140.000000 0 0 1
11.752783 -20.606388 28.855824 37.355183 -1.052466 0.688072 0.071597 -0.021140 -212761.000000 0 0 1
12.397083 -20.089088 30.006294 38.179010 -1.017894 0.666586 0.069378 -0.016767 -138827.000000 0 0 1
11.855483 -18.977488 30.693444 37.984010 -1.012403 0.629941 0.081527 -0.025009 -143514.000000 0 0 1
11.756483 -17.563388 30.011504 36.706646 -0.980921 0.613559 0.090015 -0.029876 369938.000000 0 0 1
13.037883 -16.963288 30.039134 36.879386 -0.915501 0.618889 0.077029 -0.022017 -65733.800000 0 0 1
12.903583 -15.640188 29.536544 35.826322 -0.880980 0.601590 0.081901 -0.022530 -160331.000000 0 0 1
14.096183 -14.705688 29.735084 36.043513 -0.806557 0.600634 0.079775 -0.019411 -286379.000000 0 0 1
13.862783 -13.384888 29.253984 35.030380 -0.767861 0.582476 0.105951 -0.023416 40929.200000 0 0 1
14.577783 -12.381988 29.959264 35.544098 -0.704130 0.568191 0.102874 -0.020986 134537.000000 0 0 1
14.001183 -11.021188 29.465504 34.434222 -0.666863 0.543886 0.097617 -0.020083 125688.000000 0 0 1
14.032783 -10.503688 28.116874 33.133141 -0.642547 0.557458 0.120428 -0.023624 245064.000000 0 0 1
15.330783 -10.217788 27.602684 33.186507 -0.587879 0.588554 0.101353 -0.025760 -179314.000000 0 0 1
15.532783 -9.014988 26.627334 32.117787 -0.525872 0.593385 0.090341 -0.020313 -148623.000000 0 0 1
15.657683 -7.784688 27.333054 32.447808 -0.461389 0.569131 0.084825 -0.023666 -1064800.000000 0 0 1
16.911183 -7.667588 27.873374 33.491864 -0.425681 0.587655 0.088018 -0.025980 -1426000.000000 0 0 1
17.355283 -6.105188 27.938474 33.452018 -0.338257 0.582335 0.081266 -0.030441 -444259.000000 0 0 1
18.737283 -5.992088 27.829424 34.080313 -0.309517 0.615329 0.072006 -0.036148 -710317.000000 0 0 1
19.192783 -4.750288 27.344234 33.743670 -0.242628 0.626045 0.073938 -0.037190 41893.800000 0 0 1
20.719783 -4.726088 27.141474 34.471799 -0.224259 0.664293 0.078967 -0.036058 -726621.000000 0 0 1
21.129183 -5.399588 25.929224 33.881006 -0.250196 0.699285 0.084076 -0.034458 13244.000000 0 0 1
22.472683 -5.280888 25.529444 34.418916 -0.230804 0.735155 0.084567 -0.029174 1491780.000000 0 0 1
23.657483 -5.646788 26.585934 36.032965 -0.234305 0.740958 0.084398 -0.030929 465902.000000 0 0 1
23.954883 -4.603788 27.483174 36.747192 -0.189871 0.725906 0.087066 -0.034430 -92590.900000 0 0 1
24.920983 -4.938688 28.459614 38.149648 -0.195639 0.728762 0.095475 -0.046413 -63805.900000 0 0 1
25.627983 -3.754988 29.125094 38.976461 -0.145484 0.726885 0.100066 -0.041794 -549742.000000 0 0 1
26.506983 -3.149588 28.229494 38.851568 -0.118267 0.757438 0.088994 -0.030853 -268658.000000 0 0 1
26.843483 -1.826388 28.596194 39.263858 -0.067934 0.754946 0.078522 -0.038197 -500679.000000 0 0 1
27.855183 -1.095888 27.701624 39.300027 -0.039322 0.788549 0.081849 -0.035788 839779.000000 0 0 1
29.243683 -1.426688 27.867744 40.420782 -0.048748 0.810079 0.093529 -0.032786 459884.000000 0 0 1
30.028083 -0.586788 27.047934 40.418075 -0.019539 0.837659 0.077118 -0.016193 227157.000000 0 0 1
31.543183 -0.847688 27.269774 41.705294 -0.026867 0.858110 0.064375 -0.018071 231261.000000 0 0 1
31.978283 0.116412 28.217724 42.648143 0.003640 0.847792 0.052414 -0.014463 592689.000000 0 0 1
33.389083 0.129112 28.451034 43.866945 0.003867 0.865085 0.061791 -0.018028 632759.000000 0 0 1
33.874983 1.300112 29.325754 44.824152 0.038361 0.857619 0.058347 -0.015181 -243623.000000 0 0 1
33.787783 2.556512 28.726954 44.422831 0.075520 0.867584 0.049746 -0.018688 250903.000000 0 0 1
34.244583 3.546512 29.637284 45.427280 0.103196 0.860034 0.043280 -0.008195 -261173.000000 0 0 1
34.196983 4.972012 29.013694 45.121491 0.144382 0.872371 0.048655 -0.014919 -287747.000000 0 0 1
34.176483 6.014512 29.933774 45.828344 0.174200 0.859031 0.056503 -0.008776 589206.000000 0 0 1
32.894483 6.184712 30.550354 45.316904 0.185847 0.830984 0.067697 -0.011122 203024.000000 0 0 1
32.819283 7.083612 31.793784 46.239892 0.212576 0.812641 0.073478 -0.013794 -234338.000000 0 0 1
33.389483 6.481512 32.901136 47.321795 0.191734 0.802009 0.065329 -0.011078 31825.000000 0 0 1
33.485683 7.484212 -33.902193 48.235496 0.219891 2.350189 0.075448 -0.019505 -187048.000000 0 0 1
33.681583 6.907112 -32.469733 47.291022 0.202267 2.327590 0.098252 -0.018469 -236305.000000 0 0 1
32.621983 6.156812 -31.923793 46.056798 0.186538 2.336632 0.081736 -0.020162 -79772.500000 0 0 1
32.570883 4.825912 -32.303173 46.126422 0.147096 2.346639 0.099207 -0.022363 192840.000000 0 0 1
33.356483 3.874012 -31.329603 45.926103 0.115622 2.321528 0.103327 -0.025579 161468.000000 0 0 1
33.170583 2.541812 -31.756033 45.991238 0.076479 2.332949 0.107144 -0.027466 205445.000000 0 0 1
33.569783 1.672912 -30.734663 45.545016 0.049793 2.311516 0.101805 -0.024210 -53149.300000 0 0 1
33.429383 0.127812 -31.066613 45.636328 0.003823 2.319573 0.091667 -0.028901 -500794.000000 0 0 1
34.311383 -0.242188 -32.114943 46.996800 -0.007058 2.323128 0.094686 -0.031016 147677.000000 0 0 1
34.901983 -1.522688 -32.016983 47.387279 -0.043600 2.312636 0.094442 -0.029875 828107.000000 0 0 1
36.015983 -1.705788 -30.939003 47.510869 -0.047327 2.279959 0.117156 -0.033614 -18020.400000 0 0 1
35.365483 -1.780788 -29.707043 46.221175 -0.050311 2.268833 0.123092 -0.035097 -113285.000000 0 0 1
36.204383 -1.467888 -28.635613 46.183443 -0.040522 2.239591 0.134465 -0.036476 -509945.000000 0 0 1
35.375783 -1.057888 -27.457733 44.793886 -0.029895 2.230622 0.137013 -0.039107 -381929.000000 0 0 1
34.873683 0.233712 -27.558093 44.448587 0.006702 2.239538 0.128253 -0.034665 82342.200000 0 0 1
34.099183 0.520812 -26.422663 43.141426 0.015272 2.229973 0.118920 -0.029532 -1970.910000 0 0 1
33.380783 1.911812 -26.435893 42.623798 0.057210 2.239812 0.111710 -0.029607 669761.000000 0 0 1
32.246183 2.002412 -27.306193 42.301940 0.062018 2.272483 0.119574 -0.041460 696520.000000 0 0 1
31.618883 3.248012 -27.169033 41.814587 0.102365 2.278052 0.102316 -0.031623 -263929.000000 0 0 1
30.614883 3.602412 -28.260823 41.820121 0.117130 2.312806 0.105183 -0.034904 539338.000000 0 0 1
29.541583 4.442812 -27.751213 40.774668 0.149273 2.319377 0.090764 -0.033401 841386.000000 0 0 1
28.797283 4.997112 -28.774903 41.015237 0.171816 2.348389 0.064442 -0.035525 -544172.000000 0 0 1
27.575683 5.863812 -28.424593 40.034486 0.209523 2.360298 0.055970 -0.025048 65498.300000 0 0 1
26.398083 5.113612 -28.106373 38.896992 0.191342 2.378330 0.078447 -0.030117 715139.000000 0 0 1
25.494583 6.025212 -27.465343 37.955527 0.232075 2.379828 0.082667 -0.028839 -670500.000000 0 0 1
24.173883 5.363012 -27.122213 36.725372 0.218316 2.401661 0.101475 -0.026768 -806708.000000 0 0 1
23.378783 5.113912 -28.257453 37.029761 0.215350 2.438894 0.101142 -0.025618 141254.000000 0 0 1
22.165683 4.452712 -27.916353 35.923069 0.198245 2.460865 0.078754 -0.017869 130655.000000 0 0 1
21.451083 3.956412 -29.181093 36.432655 0.182389 2.499693 0.068364 -0.014210 -281892.000000 0 0 1
21.986083 2.844912 -29.873083 37.200571 0.128681 2.503155 0.070905 -0.027135 12276.500000 0 0 1
21.233183 2.386012 -30.996383 37.647269 0.111902 2.538062 0.048723 -0.028563 -125020.000000 0 0 1
21.393283 3.265012 -32.237693 38.827847 0.151450 2.550393 0.070926 -0.033909 -874095.000000 0 0 1
22.657383 3.289412 -32.792133 39.993765 0.144173 2.532087 0.071419 -0.038780 -976886.000000 0 0 1
22.640083 3.723612 33.698511 40.767981 0.163010 0.597770 0.084864 -0.041916 443361.000000 0 0 1
24.025583 3.477212 33.010383 40.975664 0.143732 0.634093 0.097435 -0.035506 650491.000000 0 0 1
24.382483 2.110312 32.857524 40.970425 0.086335 0.640191 0.110365 -0.047611 157359.000000 0 0 1
25.714683 2.008612 32.370556 41.390003 0.077953 0.672790 0.108922 -0.046498 100424.000000 0 0 1
26.129183 0.486212 32.201760 41.471966 0.018606 0.681751 0.098559 -0.049939 -368043.000000 0 0 1
25.656783 -0.316488 31.098594 40.317406 -0.012335 0.689846 0.102911 -0.047480 685921.000000 0 0 1
24.256583 -0.499588 30.911544 39.295737 -0.020593 0.665451 0.102156 -0.055310 473642.000000 0 0 1
23.424383 -1.434288 31.823959 39.541412 -0.061154 0.635414 0.089588 -0.057821 -290458.000000 0 0 1
23.656583 -2.813288 31.567484 39.548129 -0.118366 0.646488 0.079930 -0.051124 -63312.700000 0 0 1
23.038383 -3.674988 32.461967 39.975641 -0.158183 0.623151 0.078125 -0.044385 -400532.000000 0 0 1
23.046583 -5.134888 31.972622 39.746202 -0.219224 0.636099 0.077245 -0.039513 481116.000000 0 0 1
24.337083 -5.695288 31.723184 40.386759 -0.229880 0.667317 0.063913 -0.031147 58330.100000 0 0 1
24.218183 -7.092288 31.594754 40.435744 -0.284884 0.673959 0.067753 -0.029215 -570719.000000 0 0 1
25.502483 -7.867688 31.332584 41.158328 -0.299243 0.705528 0.063121 -0.024803 -290500.000000 0 0 1
26.005883 -7.672388 30.029954 40.459481 -0.286886 0.734415 0.080700 -0.026056 -529656.000000 0 0 1
27.137083 -8.483388 29.799674 41.187495 -0.302987 0.761919 0.059637 -0.014783 -89495.800000 0 0 1
27.755383 -8.023388 28.460204 40.555138 -0.281404 0.792923 0.066393 -0.019328 -31195.700000 0 0 1
27.029683 -8.566788 27.384854 39.419841 -0.306925 0.802797 0.060579 -0.021329 -249998.000000 0 0 1
27.419483 -8.100888 26.085054 38.702487 -0.287271 0.831201 0.079796 -0.027018 176413.000000 0 0 1
26.512983 -8.633288 24.964394 37.425832 -0.314797 0.840572 0.061038 -0.016061 1642010.000000 0 0 1
25.124583 -8.182788 24.877494 36.291768 -0.314855 0.815526 0.065510 -0.015929 1469570.000000 0 0 1
24.430183 -9.055888 23.980914 35.410834 -0.354982 0.826819 0.080539 -0.021351 -243311.000000 0 0 1
23.014283 -8.586288 23.635604 34.088463 -0.357091 0.804654 0.068343 -0.026123 -474817.000000 0 0 1
22.120883 -8.921588 24.660224 34.308233 -0.383357 0.768744 0.056642 -0.023130 -287882.000000 0 0 1
20.806983 -8.514188 24.316364 33.116574 -0.388411 0.746212 0.066802 -0.014084 180891.000000 0 0 1
19.855283 -8.426788 25.506994 33.404337 -0.401371 0.701952 0.057671 -0.016288 -171656.000000 0 0 1
19.200383 -9.593288 25.988464 33.705877 -0.463360 0.690329 0.069951 -0.019189 358012.000000 0 0 1
20.052883 -10.415788 26.763354 35.026902 -0.479059 0.701182 0.056595 -0.019144 -426590.000000 0 0 1
19.262683 -11.389988 27.594584 35.528071 -0.533996 0.681390 0.056220 -0.015809 15982.300000 0 0 1
18.600383 -12.423188 26.864894 34.957580 -0.588856 0.694303 0.072685 -0.018519 572459.000000 0 0 1
17.742783 -13.258688 27.650284 35.427918 -0.641753 0.675386 0.072858 -0.020235 62560.600000 0 0 1
18.473583 -14.445588 28.267264 36.728551 -0.663643 0.692540 0.082886 -0.013066 -499774.000000 0 0 1
17.614683 -15.355888 28.905674 37.170127 -0.716996 0.679863 0.077360 -0.010290 -179609.000000 0 0 1
18.174983 -16.542588 29.428864 38.341169 -0.738413 0.695782 0.074107 -0.006921 -430683.000000 0 0 1
18.587683 -17.597488 28.346664 38.193022 -0.758040 0.734457 0.072309 -0.009397 247235.000000 0 0 1
19.793283 -17.262488 27.674254 38.152744 -0.717207 0.759248 0.074087 -0.005505 493620.000000 0 0 1
19.882883 -18.117688 26.526294 37.778617 -0.738980 0.792382 0.068776 0.005376 172957.000000 0 0 1
21.094983 -17.779688 25.589944 37.629255 -0.700322 0.822959 0.074232 -0.002769 -778373.000000 0 0 1
22.284683 -18.099688 26.205344 38.870630 -0.682138 0.830958 0.077653 0.002049 -1903140.000000 0 0 1
23.265883 -17.471388 25.475874 38.672611 -0.644105 0.851630 0.050780 -0.000723 -1187920.000000 0 0 1
24.561083 -17.488388 26.293814 40.005689 -0.618759 0.853630 0.045884 -0.007084 -155264.000000 0 0 1
25.223983 -18.773688 26.343774 41.020667 -0.639830 0.873422 0.053286 -0.003185 -153131.000000 0 0 1
26.608883 -18.665288 26.235994 41.770241 -0.611711 0.891684 0.045730 -0.010513 -346296.000000 0 0 1
27.447483 -19.951588 26.602534 43.117572 -0.628553 0.905901 0.049282 -0.013108 237100.000000 0 0 1
28.001683 -19.899388 27.882994 44.244110 -0.617838 0.888975 0.044567 -0.007234 166407.000000 0 0 1
28.714083 -21.057688 28.296954 45.482331 -0.632765 0.899307 0.047859 -0.005114 -70304.200000 0 0 1
27.844983 -22.139288 28.932624 45.853984 -0.671740 0.887990 0.058682 -0.008231 -142006.000000 0 0 1
27.245483 -21.774088 30.164294 46.111949 -0.674242 0.857733 0.066096 -0.005956 -5244.530000 0 0 1
26.711883 -22.962688 30.757794 46.763785 -0.710066 0.852999 0.070977 -0.009529 -110199.000000 0 0 1
25.955883 -22.651088 32.067369 47.064804 -0.717512 0.821198 0.063431 -0.008591 -78149.800000 0 0 1
25.665183 -23.828388 32.825826 48.000298 -0.748303 0.817746 0.055775 -0.012343 91763.200000 0 0 1
25.280683 -23.593988 -33.653753 48.253127 -0.750901 2.342618 0.055295 -0.014225 -75010.400000 0 0 1
24.999983 -24.964988 -32.926333 48.294857 -0.784698 2.320986 0.051416 -0.015837 172954.000000 0 0 1
23.811983 -25.669878 -33.206663 48.255939 -0.822928 2.329714 0.062903 -0.024083 -368560.000000 0 0 1
23.820883 -26.300568 33.378453 48.716275 -0.834831 0.815973 0.065523 -0.024695 -28954.000000 0 0 1
22.642583 -27.270188 33.133472 48.519859 -0.877848 0.819092 0.094789 -0.030219 101852.000000 0 0 1
22.708083 -28.533448 33.718525 49.666423 -0.898597 0.824533 0.092918 -0.041376 283449.000000 0 0 1
21.471783 -29.210848 33.549925 49.395431 -0.936924 0.824109 0.128161 -0.046852 -39549.800000 0 0 1
21.532783 -30.713898 33.897774 50.557525 -0.959348 0.835942 0.094137 -0.042250 75724.500000 0 0 1
22.072583 -31.213728 -32.708363 50.312352 -0.955292 2.278520 0.087974 -0.044328 -72120.000000 0 0 1
23.441483 -31.481588 -32.703253 51.089101 -0.930754 2.265453 0.052027 -0.020886 -1036250.000000 0 0 1
23.968983 -32.318798 -31.513883 51.109116 -0.932666 2.235213 0.038538 -0.023925 399245.000000 0 0 1
25.321383 -32.785538 -31.731353 52.181824 -0.913154 2.224451 0.043512 -0.012326 993036.000000 0 0 1
25.910283 -33.414988 -30.641423 52.218780 -0.911231 2.197884 0.037226 -0.016790 -212466.000000 0 0 1
26.552583 -32.489088 -29.562263 51.327458 -0.885609 2.184567 0.034164 -0.024632 -474792.000000 0 0 1
26.706983 -33.122448 -28.324443 51.113928 -0.892219 2.158130 0.042510 -0.030901 -38761.900000 0 0 1
27.273483 -32.213038 -27.445453 50.346555 -0.868245 2.147341 0.037465 -0.029450 -805734.000000 0 0 1
27.560583 -32.799428 -26.047033 50.138171 -0.871975 2.117068 0.043707 -0.028853 534823.000000 0 0 1
28.735483 -33.612028 -25.877833 51.236302 -0.863455 2.100257 0.045253 -0.003242 755610.000000 0 0 1
29.928383 -32.844668 -25.790563 51.377364 -0.831822 2.096686 0.058939 -0.021019 -30782.100000 0 0 1
-26.903567 -30.679040 9.266477 41.843435 0.850871 1.347489 0.067057 -0.023872 -150605.000000 0 0 1
-26.935637 -31.809540 10.027977 42.871152 0.868175 1.334699 0.064628 -0.028531 305660.000000 0 0 1
-25.666967 -32.114440 10.602377 42.456341 0.896522 1.318401 0.048753 -0.026383 162506.000000 0 0 1
-25.787787 -32.983940 11.886077 43.522742 0.907234 1.294182 0.044331 -0.022998 -113520.000000 0 0 1
-26.180637 33.560812 11.740577 44.154218 -0.908311 1.301660 0.052604 -0.009733 -1098130.000000 0 0 1
-27.513607 33.254012 11.618077 44.696841 -0.879584 1.307846 0.035268 -0.021757 -1380240.000000 0 0 1
-27.634317 31.719812 11.206677 43.536095 -0.854122 1.310454 0.042114 -0.016211 71428.300000 0 0 1
-27.256767 31.434012 9.880977 42.762859 -0.856452 1.337625 0.065712 -0.024300 -6723.170000 0 0 1
-27.397497 30.033912 9.702977 41.794814 -0.831271 1.336501 0.083236 -0.025916 -33963.300000 0 0 1
-26.926517 29.745712 8.255377 40.963349 -0.835103 1.367876 0.060945 -0.011783 -1620100.000000 0 0 1
-25.606427 29.431512 8.184977 39.860969 -0.854786 1.363987 0.046310 -0.003505 -1523880.000000 0 0 1
-25.315127 29.078012 6.853777 39.158149 -0.854468 1.394862 0.061173 0.001567 -903029.000000 0 0 1
-23.858017 28.648112 6.807877 37.898106 -0.876376 1.390180 0.048607 -0.000919 -656949.000000 0 0 1
-23.662917 27.297112 7.171077 36.830562 -0.856592 1.374840 0.064014 -0.008916 194765.000000 0 0 1
-23.862717 26.460512 6.048177 36.140952 -0.836975 1.402655 0.045551 -0.015008 -656666.000000 0 0 1
-24.041717 24.986612 6.389977 35.258569 -0.804668 1.388557 0.061617 -0.014222 27407.100000 0 0 1
-25.170197 24.695112 7.223377 35.993951 -0.775871 1.368741 0.078417 -0.015162 708916.000000 0 0 1
-25.414587 23.301812 7.500377 35.286418 -0.742056 1.356605 0.090854 -0.029407 -147142.000000 0 0 1
-26.004767 22.453912 6.353377 34.939826 -0.712253 1.387941 0.081701 -0.040133 -103714.000000 0 0 1
-27.309927 22.816612 5.911177 36.074532 -0.695998 1.406194 0.078712 -0.043241 317089.000000 0 0 1
-27.778707 22.127412 4.803977 35.837928 -0.672640 1.436344 0.077852 -0.036260 -100044.000000 0 0 1
-27.479387 22.833712 3.500277 35.899123 -0.693324 1.473138 0.060300 -0.032969 -457636.000000 0 0 1
-26.104437 23.041812 3.337077 34.978605 -0.723162 1.475248 0.050890 -0.034251 -254759.000000 0 0 1
-25.711237 23.773712 2.223677 35.088485 -0.746264 1.507380 0.042450 -0.025261 -61231.200000 0 0 1
-24.376217 24.513512 2.422677 34.655181 -0.788206 1.500831 0.044660 -0.018751 -92851.900000 0 0 1
-23.995117 25.020312 1.172977 34.686561 -0.806311 1.536973 0.041313 -0.020929 137392.000000 0 0 1
-22.793817 25.791612 1.235577 34.442589 -0.847022 1.534915 0.059364 -0.023164 -365651.000000 0 0 1
-22.346317 26.446012 -0.093223 34.623086 -0.869225 1.573489 0.081419 -0.014677 155918.000000 0 0 1
-21.994217 25.545112 -1.145623 33.728486 -0.859954 1.604769 0.081306 -0.018762 926576.000000 0 0 1
-20.857417 24.662012 -0.919723 32.312421 -0.868786 1.599264 0.089330 -0.034432 653294.000000 0 0 1
-20.615717 23.617012 -2.051523 31.416234 -0.853147 1.636144 0.101915 -0.042608 -420911.000000 0 0 1
-21.610617 22.663812 -2.140723 31.388689 -0.809182 1.639050 0.084696 -0.031984 -630151.000000 0 0 1
-21.346417 21.721812 -3.153123 30.617786 -0.794114 1.673963 0.087271 -0.032598 -255738.000000 0 0 1
-22.547217 21.421512 -4.048323 31.363148 -0.759801 1.700236 0.097266 -0.027789 -207802.000000 0 0 1
-22.952917 22.396912 -4.984523 32.454638 -0.773138 1.724991 0.086705 -0.024924 -458544.000000 0 0 1
-24.106317 22.045012 -5.677823 33.156217 -0.740764 1.742889 0.086725 -0.014488 -268782.000000 0 0 1
-24.052617 22.580212 -7.093923 33.744897 -0.753834 1.782598 0.084515 -0.009104 -257511.000000 0 0 1
-23.256617 21.874812 -7.978123 32.909392 -0.754790 1.815663 0.070999 -0.013036 -281221.000000 0 0 1
-23.017917 22.727812 -9.081123 33.598284 -0.779057 1.844486 0.070401 -0.016989 74284.600000 0 0 1
-22.300217 22.223412 -10.357623 33.143024 -0.783673 1.888634 0.073563 -0.015060 283696.000000 0 0 1
-23.172717 21.395512 -11.148723 33.452007 -0.745543 1.910572 0.049122 -0.013366 873391.000000 0 0 1
-22.463317 21.052412 -12.305523 33.154646 -0.752987 1.951049 0.044424 -0.011073 -67907.600000 0 0 1
-23.480617 20.667212 -13.369623 34.017934 -0.721757 1.974707 0.035495 -0.022286 -59669.900000 0 0 1
-24.067517 19.399012 -13.150323 33.593124 -0.678404 1.973013 0.051851 -0.012372 -1037280.000000 0 0 1
-25.388557 19.524612 -13.502123 34.757684 -0.655571 1.969761 0.063115 -0.024013 -1167090.000000 0 0 1
-26.195127 18.191012 -13.585923 34.665182 -0.606986 1.973512 0.109300 -0.024519 48066.100000 0 0 1
-25.840597 17.528412 -14.787123 34.549105 -0.596033 2.013078 0.106411 -0.024496 258899.000000 0 0 1
-26.564457 16.312912 -14.926123 34.562561 -0.550714 2.017348 0.114554 -0.033875 14515.600000 0 0 1
-25.923067 15.451912 -16.057723 34.185047 -0.537523 2.059781 0.112585 -0.021999 -441114.000000 0 0 1
-24.756917 14.784512 -15.736123 32.849844 -0.538349 2.070348 0.119811 -0.016978 -616786.000000 0 0 1
-24.320317 14.207312 -16.957423 32.876735 -0.528702 2.112723 0.119057 -0.026078 159766.000000 0 0 1
-23.292717 13.046712 -16.799823 31.543643 -0.510580 2.132454 0.119647 -0.018069 -256721.000000 0 0 1
-22.093517 13.388612 -16.183023 30.483908 -0.544818 2.130424 0.115811 -0.027104 -704037.000000 0 0 1
-21.305417 12.242712 -16.122723 29.389572 -0.521555 2.151469 0.106323 -0.027165 -1291080.000000 0 0 1
-20.029017 12.454512 -15.382223 28.158287 -0.556312 2.148709 0.103576 -0.031078 -742388.000000 0 0 1
-19.041017 13.241012 -16.063323 28.211966 -0.607628 2.176548 0.092918 -0.025483 668604.000000 0 0 1
-17.969617 13.562812 -15.172423 27.148838 -0.646543 2.163808 0.088832 -0.014668 208034.000000 0 0 1
-17.051217 14.669212 -15.743423 27.455148 -0.710445 2.181475 0.068616 -0.012655 -347703.000000 0 0 1
-16.186617 14.224412 -16.757023 27.297221 -0.720965 2.231754 0.092778 -0.026257 48711.400000 0 0 1
-15.550617 15.348112 -17.339023 27.893152 -0.778844 2.241609 0.075256 -0.018520 -22946.900000 0 0 1
-14.766717 15.013012 -18.669723 28.142583 -0.793669 2.296147 0.088132 -0.026783 417816.000000 0 0 1
-13.636417 14.237812 -18.333323 26.921699 -0.806970 2.319906 0.088864 -0.027372 -88072.500000 0 0 1
-12.686017 14.177712 -19.385623 27.161460 -0.840869 2.365588 0.109186 -0.030288 558745.000000 0 0 1
-11.707417 12.975112 -19.334023 26.061880 -0.836713 2.406622 0.105732 -0.038954 5724.180000 0 0 1
-12.207817 11.828612 -19.952523 26.211639 -0.769623 2.435971 0.125493 -0.034101 -269670.000000 0 0 1
-11.434217 10.683312 -19.808023 25.243459 -0.751461 2.472975 0.104960 -0.025579 -433839.000000 0 0 1
-11.890617 9.588312 -20.797223 25.804011 -0.678617 2.508106 0.124447 -0.029737 13415.400000 0 0 1
-11.429317 9.830412 -22.102323 26.754045 -0.710331 2.543001 0.127663 -0.027823 81774.700000 0 0 1
-11.778417 8.757312 -22.959223 27.249725 -0.639331 2.572794 0.121959 -0.003968 -81433.400000 0 0 1
-11.349717 8.985812 -24.443323 28.408395 -0.669672 2.606901 0.110762 -0.016876 -193822.000000 0 0 1
-9.970617 8.682712 -24.590823 27.919729 -0.716463 2.648279 0.105688 -0.013514 396375.000000 0 0 1
-9.419617 8.396712 -25.913983 28.823054 -0.728047 2.688440 0.069129 -0.020352 38175.700000 0 0 1
-9.564417 9.526312 -26.980883 30.169467 -0.783402 2.677685 0.121483 -0.032886 434448.000000 0 0 1
-8.319317 10.203512 -27.259803 30.272422 -0.886772 2.691675 0.100587 -0.041318 869278.000000 0 0 1
-7.972917 11.178812 -26.291883 29.661361 -0.951255 2.660310 0.077760 -0.029078 -1200310.000000 0 0 1
-6.539417 11.611112 -26.417013 29.587843 -1.057873 2.674394 0.061286 -0.033133 -1257010.000000 0 0 1
-6.187117 12.140112 -27.680443 30.852385 -1.099465 2.684161 0.068048 -0.047183 694053.000000 0 0 1
-4.794117 12.461712 -27.712753 30.761575 -1.203542 2.692609 0.080826 -0.044053 322836.000000 0 0 1
-4.256617 12.562112 -29.158183 32.033187 -1.244093 2.714682 0.085751 -0.042738 559069.000000 0 0 1
-2.845417 12.790712 -29.075943 31.892149 -1.351901 2.718189 0.104775 -0.048965 480735.000000 0 0 1
-2.200617 12.776612 -30.327213 32.982182 -1.400232 2.737610 0.109810 -0.046686 1053240.000000 0 0 1
-0.637917 12.580512 -30.334133 32.845636 -1.520133 2.747997 0.129052 -0.055448 708298.000000 0 0 1
-0.347117 11.260112 -29.877123 31.930441 -1.539979 2.781017 0.104788 -0.040094 223993.000000 0 0 1
1.011683 10.859412 -29.945693 31.869968 1.477903 2.792318 0.116883 -0.046378 416175.000000 0 0 1
1.571183 10.470012 -31.344003 33.083777 1.421843 2.815849 0.122135 -0.050340 -289543.000000 0 0 1
1.903583 11.502712 -32.228563 34.272675 1.406793 2.794476 0.132207 -0.049174 181707.000000 0 0 1
1.791883 10.997612 -33.560683 35.362095 1.409282 2.821029 0.140067 -0.048578 -119690.000000 0 0 1
2.265383 11.990212 33.205707 35.376773 1.384061 0.352159 0.135108 -0.049335 -586536.000000 0 0 1
3.650583 12.185212 33.254079 35.603931 1.279715 0.365346 0.127333 -0.054032 -710228.000000 0 0 1
3.990183 13.091712 32.276158 35.058021 1.274954 0.401055 0.111022 -0.046119 1075570.000000 0 0 1
5.540883 12.951812 31.989421 34.953882 1.166550 0.414819 0.098906 -0.043002 1105400.000000 0 0 1
5.799483 11.731612 31.255854 33.884998 1.111682 0.396522 0.112530 -0.048699 -74934.100000 0 0 1
7.199583 11.538912 31.184894 34.021729 1.012960 0.411262 0.099479 -0.032165 270380.000000 0 0 1
7.587483 10.287612 30.358984 32.940442 0.935320 0.398530 0.080521 -0.019778 -93108.800000 0 0 1
7.320383 10.556212 28.964154 31.685072 0.964468 0.417449 0.070100 -0.029664 -119993.000000 0 0 1
7.941383 9.640412 28.130304 30.778517 0.881735 0.417861 0.076484 -0.033431 427858.000000 0 0 1
6.905583 8.711212 27.409144 29.577583 0.900508 0.385298 0.056839 -0.020931 674963.000000 0 0 1
6.307683 7.703612 28.225174 29.929800 0.884699 0.339126 0.059520 -0.023801 -161484.000000 0 0 1
5.538383 6.809512 27.478764 28.846587 0.887980 0.309182 0.079343 -0.020872 -42445.000000 0 0 1
4.991983 5.582512 28.311774 29.285506 0.841185 0.258594 0.087764 -0.034698 220329.000000 0 0 1
5.990283 4.582212 28.501314 29.482283 0.652995 0.258687 0.066688 -0.037223 570464.000000 0 0 1
5.635483 3.937412 29.675544 30.461447 0.609841 0.227647 0.079789 -0.039548 51412.800000 0 0 1
6.760783 2.948812 29.994324 30.887912 0.411289 0.241125 0.112733 -0.024003 64228.300000 0 0 1
6.607883 1.744912 29.251704 30.039491 0.258172 0.229523 0.113129 -0.021378 27175.500000 0 0 1
7.531083 1.645012 28.175504 29.210996 0.215052 0.267059 0.097025 -0.018809 12762.400000 0 0 1
7.576583 0.192212 27.675224 28.694243 0.025364 0.267302 0.100275 -0.023412 -81626.700000 0 0 1
8.022383 -0.717188 28.628184 29.739635 -0.089161 0.274255 0.077033 -0.027679 -39517.200000 0 0 1
8.244383 -2.047688 28.141014 29.395230 -0.243447 0.293170 0.101089 -0.031330 -701752.000000 0 0 1
8.769783 -3.056588 29.169894 30.612653 -0.335370 0.308235 0.075109 -0.018810 1462650.000000 0 0 1
10.173883 -2.952488 29.534764 31.377179 -0.282444 0.344390 0.053161 -0.020542 1152530.000000 0 0 1
11.036883 -3.481588 28.549534 30.806008 -0.305570 0.385123 0.075629 -0.016395 -655690.000000 0 0 1
12.544583 -3.266988 28.812524 31.594324 -0.254771 0.422778 0.061637 -0.013093 638000.000000 0 0 1
13.445683 -4.307088 28.403504 31.719023 -0.310004 0.461305 0.077256 -0.022216 359595.000000 0 0 1
13.470083 -5.461288 29.238864 32.652411 -0.385186 0.461337 0.089483 -0.022348 -363645.000000 0 0 1
12.705983 -6.709788 28.712454 32.107137 -0.485859 0.463999 0.099750 -0.024996 740042.000000 0 0 1
11.283383 -6.581388 28.677574 31.512420 -0.528036 0.427415 0.098918 -0.021626 113198.000000 0 0 1
10.681883 -7.810088 28.469434 31.394406 -0.631329 0.435092 0.123142 -0.031619 -219000.000000 0 0 1
9.177083 -7.719588 28.191604 30.636211 -0.699352 0.402192 0.143611 -0.031181 -217109.000000 0 0 1
8.413883 -7.522088 29.368944 31.462837 -0.729495 0.366887 0.160628 -0.030327 -464834.000000 0 0 1
7.073983 -7.353888 28.972474 30.716854 -0.804796 0.338629 0.154128 -0.029959 -197375.000000 0 0 1
6.145783 -6.816288 30.075514 31.444697 -0.837080 0.296183 0.133642 -0.032310 36400.000000 0 0 1
6.137183 -7.756088 31.149804 32.682292 -0.901399 0.307446 0.128750 -0.033251 278158.000000 0 0 1
5.380383 -7.277488 32.291334 33.535661 -0.934166 0.273263 0.132509 -0.026731 436822.000000 0 0 1
6.132983 -6.282788 33.250214 34.389877 -0.797463 0.258163 0.120027 -0.013940 136414.000000 0 0 1
6.423883 -5.003288 32.616355 33.617343 -0.661715 0.244642 0.126950 -0.017143 -73661.500000 0 0 1
6.833283 -3.988188 33.538862 34.459464 -0.528304 0.231669 0.088493 -0.003078 -77249.800000 0 0 1
7.093383 -2.672988 32.784792 33.649719 -0.360373 0.227221 0.082943 -0.019391 153540.000000 0 0 1
5.903783 -2.092988 32.237948 32.840836 -0.340693 0.191908 0.115442 -0.029671 77423.300000 0 0 1
6.052383 -0.882888 31.529244 32.117037 -0.144853 0.191613 0.105308 -0.022763 -539077.000000 0 0 1
4.771283 -0.402288 30.858954 31.228224 -0.084116 0.153937 0.134690 -0.035922 -894611.000000 0 0 1
3.800383 -0.028888 31.735684 31.962437 -0.007601 0.119187 0.118993 -0.028514 -1916000.000000 0 0 1
2.708783 0.586812 31.164674 31.287677 0.213336 0.088701 0.131376 -0.035734 -946117.000000 0 0 1
1.589283 0.748812 32.169048 32.216986 0.440313 0.054559 0.114514 -0.034681 -510578.000000 0 0 1
1.938683 1.662012 33.210708 33.308736 0.708710 0.076739 0.101841 -0.028478 984863.000000 0 0 1
0.875683 1.899912 -33.642223 33.707205 1.138909 3.079489 0.075189 -0.032261 1076340.000000 0 0 1
1.356783 3.019612 -32.759983 32.926819 1.148505 3.040884 0.072863 -0.031120 383822.000000 0 0 1
2.338683 2.719712 -31.769053 31.970908 0.860582 3.029161 0.048474 -0.012908 208141.000000 0 0 1
2.565483 3.865612 -31.003513 31.348723 0.984873 2.993052 0.046712 -0.012326 189538.000000 0 0 1
3.622683 3.765012 -29.876443 30.329869 0.804661 2.968461 0.043296 -0.007990 216079.000000 0 0 1
3.038983 3.169112 -28.762533 29.095738 0.806356 2.990107 0.043208 -0.013358 528893.000000 0 0 1
4.016383 3.094212 -27.738493 28.198040 0.656428 2.960808 0.063343 -0.018710 161781.000000 0 0 1
3.508283 2.213312 -26.582453 26.904156 0.562818 2.986794 0.035104 -0.021049 -150388.000000 0 0 1
3.779383 0.841712 -26.759943 27.038616 0.219135 2.997897 0.063866 -0.020571 115317.000000 0 0 1
3.200383 0.063312 -25.752423 25.950602 0.019780 3.017928 0.058094 -0.020132 -301431.000000 0 0 1
3.799483 -1.382088 -25.605293 25.922524 -0.348877 2.984987 0.072330 -0.025569 160149.000000 0 0 1
5.063283 -1.484088 -24.983523 25.534599 -0.285122 2.933460 0.083284 -0.035291 21225.500000 0 0 1
5.461983 -2.865488 -25.048313 25.796555 -0.483152 2.900152 0.091029 -0.031079 -81582.500000 0 0 1
6.865183 -3.098388 -24.437623 25.572019 -0.423950 2.842619 0.110055 -0.041865 -310324.000000 0 0 1
7.886183 -2.567088 -25.208583 26.537793 -0.314700 2.823752 0.130238 -0.040987 -1356620.000000 0 0 1
9.084783 -3.114888 -24.753923 26.551695 -0.330308 2.771494 0.107321 -0.038497 -403793.000000 0 0 1
-30.239017 -4.420388 17.897824 35.415675 0.145154 1.040992 0.138986 -0.013540 806576.000000 0 0 1
-31.607037 -4.076988 18.151424 36.675616 0.128282 1.053056 0.138462 -0.008606 435916.000000 0 0 1
-32.246157 -5.275688 18.605324 37.600606 0.162170 1.053175 0.135355 -0.021463 650669.000000 0 0 1
-33.782147 -5.174688 18.854624 39.032136 0.151997 1.066657 0.126918 -0.020163 243857.000000 0 0 1
-34.553768 -4.821888 17.762624 39.150023 0.138652 1.099876 0.115783 -0.022799 1064430.000000 0 0 1
-35.958410 -4.955788 18.100124 40.560838 0.136957 1.108230 0.107678 -0.021377 1080580.000000 0 0 1
-36.981027 -4.759888 16.964124 40.963818 0.128008 1.143816 0.084545 -0.021806 -520881.000000 0 0 1
36.268801 -4.969188 17.456924 40.556910 -0.136162 1.125827 0.082389 -0.020706 -455136.000000 0 0 1
35.242081 -4.706788 16.494824 39.194863 -0.132770 1.136424 0.067706 -0.022076 330746.000000 0 0 1
33.839511 -5.174788 16.922624 38.187251 -0.151746 1.111688 0.061190 -0.018485 -227785.000000 0 0 1
33.370801 -4.448388 18.045624 38.197422 -0.132521 1.078750 0.060206 -0.027842 -276902.000000 0 0 1
32.246261 -5.184188 18.450624 37.511633 -0.159405 1.056567 0.093391 -0.020934 -399788.000000 0 0 1
31.568921 -4.695688 19.774724 37.545784 -0.147661 1.016103 0.075809 -0.010324 235727.000000 0 0 1
30.598581 -3.634288 19.707024 36.576604 -0.118219 1.001799 0.080680 -0.010559 647788.000000 0 0 1
31.138121 -2.344488 19.351624 36.736419 -0.075151 1.016001 0.077031 -0.011695 230990.000000 0 0 1
30.126191 -1.167988 19.586324 35.952408 -0.038750 0.994664 0.087950 0.002111 671720.000000 0 0 1
30.777221 0.077912 19.413424 36.388520 0.002531 1.008058 0.084225 -0.002390 272024.000000 0 0 1
29.891301 1.089412 19.871024 35.910086 0.036430 0.984410 0.085592 0.003310 399962.000000 0 0 1
29.985591 2.435312 19.167824 35.671723 0.081038 1.003517 0.078960 -0.005486 -32270.300000 0 0 1
29.662721 2.374312 17.811924 34.681104 0.079873 1.031431 0.087020 -0.006211 -64215.000000 0 0 1
29.336101 3.607212 17.230524 34.212713 0.122347 1.043002 0.090371 -0.007633 160145.000000 0 0 1
28.916501 3.456512 15.743324 33.105343 0.118970 1.075205 0.106017 -0.018624 -81412.900000 0 0 1
28.766301 4.715012 15.145824 32.850074 0.162463 1.091608 0.118021 -0.013131 186202.000000 0 0 1
28.396701 4.648312 13.804124 31.914468 0.162253 1.123494 0.127165 -0.020901 -182282.000000 0 0 1
27.935901 5.975712 13.132224 31.441676 0.210732 1.139918 0.135647 -0.019086 -53570.600000 0 0 1
26.799901 6.564312 13.722924 30.816286 0.240209 1.109271 0.128520 -0.015919 281326.000000 0 0 1
26.220101 7.602212 12.939224 30.211104 0.282201 1.128193 0.138541 -0.038204 -665252.000000 0 0 1
24.944301 8.164212 13.589424 29.555793 0.316309 1.093039 0.138984 -0.039684 1383220.000000 0 0 1
23.661601 7.655012 13.084324 28.101069 0.312893 1.086465 0.130270 -0.029073 1908240.000000 0 0 1
23.363901 6.346212 13.571224 27.754718 0.265225 1.059888 0.134257 -0.025973 259955.000000 0 0 1
21.822101 5.992112 13.565624 26.384382 0.267984 1.030776 0.138801 -0.023651 688985.000000 0 0 1
21.252101 5.932412 12.289124 25.256046 0.272215 1.062624 0.145712 -0.025841 843234.000000 0 0 1
20.288701 4.863612 12.194724 24.166038 0.235280 1.041852 0.126317 -0.023009 215334.000000 0 1 0
19.901901 4.543212 10.756824 23.074568 0.224434 1.085832 0.125311 -0.028299 -55755.400000 0 1 0
20.976601 3.922912 10.082824 23.602338 0.184878 1.129407 0.151773 -0.030905 665861.000000 0 1 0
20.582601 3.505912 8.780224 22.650104 0.168715 1.172720 0.155890 -0.035114 -393186.000000 0 1 0
21.717001 2.849812 8.022024 23.326003 0.130479 1.219720 0.151659 -0.029822 -1486760.000000 0 1 0
21.988301 1.520812 8.462124 23.609442 0.069055 1.204220 0.148182 -0.031169 115586.000000 0 1 0
22.863401 0.931612 7.579724 24.105087 0.040724 1.250924 0.148227 -0.022177 -641640.000000 0 1 0
24.340501 1.381312 7.372624 25.470052 0.056689 1.277131 0.151720 -0.026099 -313725.000000 0 0 1
25.154401 0.842612 8.422424 26.540367 0.033485 1.247869 0.152899 -0.017900 334515.000000 0 0 1
25.320501 1.772612 9.481924 27.095697 0.069893 1.213287 0.151470 -0.024674 -506259.000000 0 0 1
26.102201 1.214912 10.695324 28.234568 0.046511 1.182294 0.124728 -0.019914 -311206.000000 0 0 1
27.478001 1.035512 10.505224 29.435905 0.037667 1.205866 0.144439 -0.032812 -425857.000000 0 0 1
28.060801 0.513712 11.666724 30.393829 0.018305 1.176832 0.129159 -0.021742 1143910.000000 0 0 1
29.638361 0.425212 11.489524 31.790287 0.014346 1.201010 0.148879 -0.022436 1040810.000000 0 0 1
30.293181 1.613112 11.594124 32.476185 0.053200 1.205738 0.136345 -0.011766 342433.000000 0 0 1
31.467981 1.502612 12.420724 33.863934 0.047714 1.195247 0.120035 -0.028137 515052.000000 0 0 1
32.112561 2.866612 12.743024 34.667256 0.089032 1.194390 0.104759 -0.029541 -79331.700000 0 0 1
32.955021 3.436512 11.758224 35.158197 0.103903 1.229788 0.107044 -0.043809 256814.000000 0 0 1
33.512291 4.628812 12.226224 35.971934 0.137254 1.224005 0.098166 -0.039267 -645120.000000 0 0 1
34.951611 4.954812 11.835324 37.232246 0.140824 1.247305 0.101353 -0.032837 -788897.000000 0 0 1
35.819841 4.006512 12.384524 38.111541 0.111389 1.239833 0.101986 -0.039088 396255.000000 0 0 1
37.171041 4.258612 11.970724 39.282569 0.114071 1.261137 0.106642 -0.033428 650152.000000 0 0 1
-36.383417 3.252512 12.653324 38.657967 -0.089158 1.237336 0.129182 -0.025510 -725477.000000 0 0 1
-36.440907 1.889512 12.228924 38.484497 -0.051805 1.247428 0.124214 -0.029047 924158.000000 0 0 1
36.931141 1.090912 12.586324 39.032227 0.029530 1.242469 0.120476 -0.030066 503678.000000 0 0 1
36.510921 0.912012 14.102124 39.150338 0.024974 1.202309 0.109780 -0.022993 -727982.000000 0 0 1
-37.227187 -0.018188 14.700024 40.024423 0.000489 1.194717 0.106417 -0.025239 -192769.000000 0 0 1
37.063461 -0.131988 16.081224 40.402021 -0.003561 1.161428 0.107648 -0.028109 -88150.200000 0 0 1
-36.442747 -1.068688 16.775024 40.132497 0.029317 1.139564 0.113060 -0.026655 336120.000000 0 0 1
-35.151786 -0.512488 16.983124 39.042761 0.014578 1.120772 0.134945 -0.020823 724956.000000 0 0 1
-34.222363 -1.310788 17.747124 38.572642 0.038283 1.092693 0.131463 -0.012201 525372.000000 0 0 1
-34.292992 -1.279988 19.280224 39.362097 0.037308 1.058917 0.116541 -0.013755 -776193.000000 0 0 1
-35.538372 -1.652988 19.774124 40.702877 0.046479 1.063499 0.114287 -0.020751 -560841.000000 0 0 1
-35.517892 -1.641388 21.211524 41.402216 0.046180 1.032903 0.105955 -0.023960 212370.000000 0 0 1
-35.850392 -3.055088 21.862224 42.101556 0.085012 1.024796 0.087675 -0.031128 382029.000000 0 0 1
-34.774261 -3.995688 21.795624 41.234257 0.114402 1.013869 0.114099 -0.028173 305185.000000 0 0 1
-35.055159 -5.241288 22.423124 41.942005 0.148416 1.006736 0.105586 -0.032634 90457.600000 0 0 1
-35.271608 -5.335188 23.947024 42.965224 0.150122 0.979596 0.101129 -0.039346 716669.000000 0 0 1
-34.090416 -4.962788 24.661214 42.366982 0.144562 0.949505 0.114200 -0.037050 -5416.770000 0 0 1
-34.386336 -4.824988 26.070754 43.421018 0.139407 0.926773 0.115657 -0.043269 378369.000000 0 0 1
-33.237467 -4.079588 26.794824 42.887467 0.122130 0.895959 0.102559 -0.037248 213782.000000 0 0 1
-33.267997 -2.632188 26.636014 42.698539 0.078956 0.897181 0.090990 -0.026592 -85108.600000 0 0 1
-32.735067 -2.167188 25.377164 41.476279 0.066107 0.912402 0.084593 -0.026370 70289.100000 0 0 1
-32.617867 -0.596488 25.401884 41.346544 0.018285 0.909215 0.087726 -0.025918 140986.000000 0 0 1
-33.894327 0.012312 25.326094 42.311187 -0.000363 0.929085 0.090437 -0.028246 34163.700000 0 0 1
-33.787387 1.400912 25.134324 42.134123 -0.041439 0.931624 0.080686 -0.012979 -771232.000000 0 0 1
-35.062162 2.059112 24.666184 42.918711 -0.058660 0.958536 0.074309 -0.013311 -489365.000000 0 0 1
-35.663154 1.456012 23.495654 42.732028 -0.040804 0.988627 0.085818 -0.007665 868454.000000 0 0 1
-36.765647 2.261312 22.974354 43.412524 -0.061429 1.013127 0.068980 -0.000577 898294.000000 0 0 1
-36.297227 3.473012 22.125724 42.650887 -0.095392 1.025392 0.071760 0.002975 -18856.600000 0 0 1
-35.768007 3.235312 20.782024 41.493494 -0.090207 1.046216 0.071954 -0.013427 589008.000000 0 0 1
-36.766577 3.106412 19.742124 41.847131 -0.084290 1.079502 0.087340 -0.019318 693836.000000 0 0 1
-36.156587 2.403912 18.486124 40.679409 -0.066388 1.099059 0.107129 -0.016051 595178.000000 0 0 1
-35.193492 3.174012 17.761524 39.549057 -0.089944 1.105037 0.123233 -0.012819 495403.000000 0 0 1
-34.749781 2.573912 16.533524 38.568506 -0.073935 1.127766 0.148003 -0.013571 89819.400000 0 0 1
-33.778007 3.443312 15.685724 37.401231 -0.101589 1.138022 0.144894 -0.016536 235965.000000 0 0 1
-34.385080 4.508912 14.971024 37.772947 -0.130386 1.163267 0.145261 -0.019755 445393.000000 0 0 1
-33.405667 5.167612 14.154124 36.646719 -0.153476 1.174254 0.165989 -0.022337 283595.000000 0 0 1
-33.882817 6.557312 13.653624 37.114216 -0.191166 1.194067 0.178034 -0.032100 265935.000000 0 0 1
-32.898467 7.218012 12.857324 36.051624 -0.215980 1.206131 0.193458 -0.029141 185898.000000 0 0 1
-33.249547 8.554612 12.480924 36.530634 -0.251823 1.222118 0.182690 -0.031072 66538.400000 0 0 1
-32.312907 9.246712 11.465824 35.511839 -0.278713 1.242033 0.199808 -0.034016 281364.000000 0 0 1
-32.809667 10.586512 11.278424 36.273286 -0.312118 1.254626 0.171807 -0.018846 590923.000000 0 0 1
-32.049657 11.304212 10.280724 35.505760 -0.339086 1.277039 0.172759 -0.030173 214916.000000 0 0 1
-32.245327 12.837912 10.312524 36.206646 -0.378895 1.281973 0.154226 -0.025763 -180403.000000 0 0 1
-31.556697 13.435512 9.258624 35.525487 -0.402512 1.307133 0.154282 -0.024590 -167234.000000 0 0 1
-31.436717 14.826812 9.465024 36.023439 -0.440703 1.304929 0.124097 -0.025972 -141792.000000 0 0 1
-30.631227 15.628412 8.437924 35.407879 -0.471784 1.330175 0.130534 -0.024765 -1040970.000000 0 0 1
-29.263037 15.394212 8.517024 34.144498 -0.484280 1.318694 0.157936 -0.020979 -953683.000000 0 0 1
-28.611517 16.377012 7.790424 33.875007 -0.519872 1.338744 0.138473 -0.035992 -354722.000000 0 0 1
-27.115517 16.580712 8.115624 32.802966 -0.548821 1.320795 0.136443 -0.022911 -269915.000000 0 0 1
-26.896977 17.106612 9.433424 33.242638 -0.566474 1.283068 0.117026 -0.022808 316018.000000 0 0 1
-27.531607 18.364012 9.781524 34.509484 -0.588244 1.283412 0.118970 -0.036598 -151322.000000 0 0 1
-27.534987 18.709712 11.331524 35.165782 -0.596827 1.242711 0.130951 -0.028708 453496.000000 0 0 1
-26.250467 18.524512 11.924524 34.270086 -0.614530 1.215405 0.121551 -0.026034 653272.000000 0 0 1
-26.337407 18.940712 13.265124 35.048153 -0.623467 1.182640 0.114789 -0.034180 41192.800000 0 0 1
-26.650767 17.797112 14.324324 35.102518 -0.588780 1.150456 0.105376 -0.029480 392338.000000 0 0 1
-25.552817 16.891812 14.534124 33.904579 -0.584107 1.127768 0.099633 -0.028050 619765.000000 0 0 1
-25.892817 16.094012 15.648124 34.268337 -0.556124 1.096587 0.086613 -0.022581 -114761.000000 0 0 1
-24.855817 15.005612 16.025524 33.163194 -0.543140 1.066453 0.084960 -0.015132 -28500.700000 0 0 1
-23.748517 15.595612 16.692224 32.952170 -0.581070 1.039607 0.083976 -0.017525 -149520.000000 0 0 1
-22.758017 14.664612 17.070024 32.005685 -0.572408 1.008248 0.067734 -0.024684 -158687.000000 0 0 1
-23.051717 13.560012 18.145924 32.319191 -0.531730 0.974648 0.087682 -0.022408 -718895.000000 0 0 1
-23.162817 14.087512 19.458924 33.371002 -0.546424 0.948246 0.092125 -0.022863 34565.800000 0 0 1
-23.268217 12.987212 20.358724 33.534388 -0.509081 0.918391 0.099733 -0.025444 -729424.000000 0 0 1
-22.889317 13.365112 21.786124 34.310089 -0.528498 0.882817 0.096359 -0.016469 859928.000000 0 0 1
-21.487217 13.658812 21.965024 33.626268 -0.566236 0.858980 0.097399 -0.017901 944800.000000 0 0 1
-21.119217 14.982312 21.556724 33.692482 -0.617018 0.876548 0.095850 -0.000828 390427.000000 0 0 1
-19.628917 15.318912 21.935224 33.183090 -0.662691 0.848597 0.087219 -0.014811 1603790.000000 0 0 1
-18.575217 14.739712 21.139124 31.767284 -0.670774 0.842717 0.060743 -0.012261 457705.000000 0 0 1
-17.930417 15.781312 20.433624 31.433781 -0.721735 0.863142 0.057772 -0.024777 -736781.000000 0 0 1
-16.636717 15.301412 19.694824 29.979987 -0.743613 0.854054 0.059017 -0.012411 -445933.000000 0 0 1
-15.533617 14.949712 20.416224 29.691907 -0.766246 0.812615 0.039956 -0.004711 -739836.000000 0 0 1
-14.922817 16.030712 21.115424 30.422611 -0.821175 0.803669 0.031781 -0.007368 -500660.000000 0 0 1
-13.891517 15.494512 22.206824 30.433487 -0.839894 0.752937 -0.001581 -0.007052 1100770.000000 0 0 1
-12.700117 14.964612 21.602924 29.187649 -0.867071 0.737519 0.023822 -0.003189 500931.000000 0 0 1
-11.831017 14.307112 22.532724 29.195719 -0.879847 0.689158 0.038647 -0.013992 13029.400000 0 0 1
-10.498317 13.885512 21.900424 27.975894 -0.923426 0.671592 0.051632 -0.015735 -843402.000000 0 0 1
-9.807717 13.178912 22.851704 28.143834 -0.931019 0.623292 0.057059 -0.028265 -294745.000000 0 0 1
-8.666217 12.462612 22.460324 27.108783 -0.963180 0.594327 0.069267 -0.010627 439663.000000 0 0 1
-7.250717 13.078412 22.396724 26.930113 -1.064579 0.588704 0.074642 -0.011928 -237633.000000 0 0 1
-7.004217 13.942612 21.287924 26.393771 -1.105262 0.632502 0.067378 -0.012481 81719.400000 0 0 1
-6.387317 15.213112 21.678624 27.243335 -1.173291 0.650567 0.063646 -0.007638 291247.000000 0 0 1
-7.225617 16.222512 22.595324 28.738964 -1.151769 0.666119 0.068365 -0.019350 1085990.000000 0 0 1
-8.467717 16.652912 22.005324 28.866173 -1.100386 0.703903 0.036873 -0.018221 321273.000000 0 0 1
-8.267517 17.648912 20.993724 28.645634 -1.132711 0.748255 0.033933 -0.006249 -1039410.000000 0 0 1
-9.313817 17.762512 19.857024 28.223313 -1.087857 0.790390 0.033317 0.001846 762243.000000 0 0 1
-10.449817 18.581512 20.089624 29.292733 -1.058500 0.815063 0.001286 0.007715 255646.000000 0 0 1
-11.379717 18.153012 21.084324 30.059582 -1.010848 0.793412 0.011619 0.000275 -751731.000000 0 0 1
-12.677117 18.957512 21.086724 31.060368 -0.981379 0.824540 -0.003932 -0.000669 -273818.000000 0 0 1
-13.452817 18.830612 19.911824 30.529509 -0.950463 0.860293 0.001653 0.001830 -154830.000000 0 0 1
-14.536617 19.734312 19.904424 31.574394 -0.935916 0.888731 -0.022956 -0.006535 -48383.700000 0 0 1
-15.200617 19.652312 18.498324 30.975153 -0.912438 0.930792 0.008800 -0.005349 -209803.000000 0 0 1
-15.995917 18.470512 18.327324 30.543738 -0.857072 0.927251 0.035647 -0.010152 517803.000000 0 0 1
-16.696217 18.556312 17.071324 30.241204 -0.838114 0.970962 0.055019 -0.022066 -266394.000000 0 0 1
-17.382417 17.227212 16.678724 29.615959 -0.780914 0.972583 0.061540 -0.030367 35059.100000 0 0 1
-18.341817 16.655212 17.521024 30.344762 -0.737243 0.955257 0.064441 -0.025012 -576896.000000 0 0 1
-19.631517 17.203712 17.502124 31.427511 -0.719583 0.980142 0.072532 -0.026627 -349942.000000 0 0 1
34.754451 -9.703888 11.973277 38.018373 -0.272279 1.250409 0.094782 -0.036163 -104880.000000 0 0 1
33.460031 -10.182988 11.682477 36.874750 -0.295427 1.248427 0.092633 -0.028472 7986.340000 0 0 1
33.191051 -11.432488 12.177177 37.156847 -0.331717 1.236903 0.117147 -0.029929 18519.500000 0 0 1
31.671311 -11.724888 12.250377 35.925154 -0.354561 1.222819 0.121045 -0.027405 -236259.000000 0 0 1
30.977781 -10.786188 13.064977 35.308050 -0.335062 1.191757 0.124905 -0.019887 -352660.000000 0 0 1
29.600221 -10.787588 12.852777 34.025564 -0.349483 1.183443 0.120285 -0.028473 -269953.000000 0 0 1
28.785201 -11.734788 13.760677 33.994842 -0.387099 1.154050 0.094495 -0.024850 -1144990.000000 0 0 1
28.996301 -11.389588 15.112177 34.624934 -0.374279 1.119143 0.099767 -0.028427 33385.500000 0 0 1
28.185901 -12.012188 16.085077 34.604442 -0.402867 1.087357 0.096750 -0.032637 -927688.000000 0 0 1
26.733101 -11.629588 16.081077 33.294249 -0.410332 1.066720 0.083460 -0.041625 -1300800.000000 0 0 1
26.593201 -10.237888 16.364277 32.860345 -0.367493 1.049512 0.077708 -0.036573 6422.980000 0 0 1
25.948801 -9.551588 15.277177 31.590588 -0.352702 1.066034 0.086764 -0.035633 89281.600000 0 0 1
25.832901 -8.026088 15.455877 31.155112 -0.301237 1.051701 0.106938 -0.039544 -397819.000000 0 0 1
27.053701 -7.352488 15.449877 32.010319 -0.265364 1.067115 0.099697 -0.030163 -392194.000000 0 0 1
26.865201 -6.035088 15.846977 31.769293 -0.220975 1.048566 0.080149 -0.024753 -404365.000000 0 0 1
28.151801 -5.227488 15.733777 32.671123 -0.183598 1.068339 0.095402 -0.022889 -299665.000000 0 0 1
28.398501 -4.797488 14.381777 32.192022 -0.167354 1.107667 0.111255 -0.023635 -373722.000000 0 0 1
29.546721 -4.029788 14.330577 33.084941 -0.135551 1.122817 0.110256 -0.019502 -683881.000000 0 0 1
29.863811 -3.320288 13.005377 32.741584 -0.110726 1.162319 0.124319 -0.028740 -5442.430000 0 0 1
30.471641 -4.187488 12.079577 33.045002 -0.136567 1.196573 0.112905 -0.030940 273624.000000 0 0 1
30.887321 -3.522588 10.909777 32.946296 -0.113556 1.233287 0.126488 -0.036179 -44823.500000 0 0 1
31.324021 -4.439588 9.732877 33.100349 -0.140793 1.272344 0.146069 -0.029568 338772.000000 0 0 1
32.679241 -4.846888 9.864077 34.477893 -0.147244 1.280644 0.143091 -0.038792 365526.000000 0 0 1
33.004671 -5.711788 8.753377 34.620145 -0.171363 1.315181 0.144499 -0.037225 1042550.000000 0 0 1
34.446151 -6.350288 8.871777 36.132698 -0.182307 1.322727 0.132486 -0.031379 750778.000000 0 0 1
35.518071 -5.461888 8.884677 37.017605 -0.152582 1.328418 0.137841 -0.030510 126007.000000 0 0 1
36.778901 -6.152488 8.868577 38.330044 -0.165748 1.337307 0.141912 -0.038540 444114.000000 0 0 1
-36.613897 -5.187688 8.556377 37.956569 0.140749 1.343417 0.133992 -0.039398 -402138.000000 0 0 1
-36.640547 -4.719788 7.216677 37.641553 0.128108 1.377881 0.138759 -0.031962 317908.000000 0 0 1
-35.606670 -3.787988 6.889577 36.464367 0.105986 1.380714 0.123538 -0.029478 260264.000000 0 0 1
-35.854576 -3.140088 5.512377 36.411496 0.087356 1.418821 0.128759 -0.033040 -179688.000000 0 0 1
-35.304650 -3.878688 4.425577 35.791734 0.109425 1.446831 0.146056 -0.038491 119673.000000 0 0 1
-35.610544 -3.380288 3.128977 35.907209 0.094640 1.483545 0.157178 -0.033946 -6281.690000 0 0 1
-34.817968 -4.182888 2.042377 35.127749 0.119563 1.512622 0.193516 -0.044343 294589.000000 0 0 1
-35.445771 -5.399588 1.638577 35.892104 0.151172 1.525128 0.165762 -0.026100 1315710.000000 0 0 1
-36.527117 -5.237788 0.661377 36.906668 0.142424 1.552875 0.145342 -0.024099 906438.000000 0 0 1
-35.899533 -5.242588 -0.770123 36.288487 0.145010 1.592020 0.185799 -0.029997 -1083510.000000 0 0 1
-35.408103 -6.528988 -1.162623 36.023786 0.182344 1.603076 0.166682 -0.029743 664986.000000 0 0 1
-34.357841 -6.354988 -2.115023 35.004577 0.182898 1.631254 0.155364 -0.030089 69945.400000 0 0 1
-33.011547 -5.876388 -1.528623 33.565322 0.176165 1.616354 0.171279 -0.047693 -1350850.000000 0 0 1
-32.279037 -6.967488 -1.032023 33.038571 0.212590 1.602038 0.162451 -0.039042 47787.500000 0 0 1
-31.028117 -6.485988 -0.555723 31.703642 0.206069 1.588326 0.188130 -0.057276 -86997.600000 0 0 1
-30.361527 -7.462888 0.399377 31.267819 0.241023 1.558023 0.158194 -0.048526 -479239.000000 0 0 1
-29.926417 -8.678988 -0.150323 31.159876 0.282268 1.575621 0.161622 -0.041810 437494.000000 0 0 1
-29.292427 -9.467488 0.868577 30.796656 0.312608 1.542589 0.149139 -0.028764 -248441.000000 0 0 1
-28.678437 -10.706388 0.286877 30.613098 0.357302 1.561425 0.127073 -0.024719 -610338.000000 0 0 1
-27.685077 -10.500788 -0.667323 29.617146 0.362530 1.593330 0.140519 -0.036550 -29721.000000 0 0 1
-27.058417 -11.605588 -1.262523 29.469333 0.405177 1.613651 0.126106 -0.022455 -195919.000000 0 0 1
-27.955327 -12.454888 -2.207923 30.683863 0.419129 1.642816 0.123097 -0.026342 -733027.000000 0 0 1
-28.764507 -13.276488 -1.498423 31.716041 0.432424 1.618059 0.137000 -0.028696 -558114.000000 0 0 1
-29.329557 -14.295888 -2.239823 32.704925 0.453535 1.639336 0.124368 -0.025022 -447016.000000 0 0 1
-30.110867 -15.308888 -1.370223 33.806861 0.470359 1.611338 0.140760 -0.022812 -100155.000000 0 0 1
-29.355467 -16.262688 -0.625523 33.565008 0.505903 1.589434 0.123776 -0.010520 451511.000000 0 0 1
-30.141637 -16.923288 0.364277 34.569476 0.511598 1.560259 0.104942 -0.002587 130941.000000 0 0 1
-30.759197 -18.266588 0.029077 35.774254 0.535891 1.569984 0.121085 -0.009693 -757627.000000 0 0 1
-29.914947 -19.319988 0.273877 35.612371 0.573439 1.563106 0.129466 -0.019101 -442057.000000 0 0 1
-30.389697 -20.645288 0.122777 36.739307 0.596733 1.567454 0.125802 -0.019496 54154.700000 0 0 1
-31.430447 -21.185488 1.142477 37.921012 0.593092 1.540664 0.128528 -0.018944 124064.000000 0 0 1
-30.828117 -21.488688 2.408377 37.655502 0.608742 1.506794 0.118110 -0.018584 451643.000000 0 0 1
-31.740637 -22.003788 3.372977 38.768695 0.606173 1.483684 0.111232 -0.025964 155857.000000 0 0 1
-31.051197 -22.105088 4.732277 38.408413 0.618662 1.447273 0.102979 -0.024477 147383.000000 0 0 1
-30.598987 -20.903688 5.340077 37.440334 0.599327 1.427679 0.095751 -0.025896 200455.000000 0 0 1
-29.935307 -21.188888 6.563377 37.258147 0.615957 1.393713 0.086063 -0.028234 127876.000000 0 0 1
-29.403377 -19.855988 7.144977 36.192120 0.593953 1.372073 0.092181 -0.023431 -354723.000000 0 0 1
-28.537867 -19.995288 8.214777 35.800893 0.611168 1.339276 0.091982 -0.030312 -531588.000000 0 0 1
-28.206887 -18.695088 8.760277 34.955361 0.585310 1.317483 0.117187 -0.037489 53033.100000 0 0 1
-27.111227 -18.698988 9.836177 34.371808 0.603789 1.280569 0.115122 -0.032865 -371459.000000 0 0 1
-27.438487 -19.371288 11.041977 35.355942 0.614735 1.253174 0.114675 -0.033430 -416749.000000 0 0 1
-26.335617 -19.667788 11.841877 34.937325 0.641458 1.225000 0.097045 -0.021974 -132690.000000 0 0 1
-25.576647 -18.483188 12.531577 33.953403 0.625772 1.192776 0.098590 -0.022275 -242075.000000 0 0 1
-24.668317 -17.725188 11.682577 32.545211 0.623061 1.203638 0.105000 -0.023057 703252.000000 0 0 1
-24.122317 -16.551188 12.223977 31.705735 0.601360 1.174998 0.093669 -0.022122 523593.000000 0 0 1
-23.216917 -16.665088 13.490177 31.602773 0.622572 1.129771 0.071634 -0.007107 -228368.000000 0 0 1
-24.000317 -16.771788 14.633777 32.733095 0.609930 1.107316 0.086256 -0.021827 391435.000000 0 0 1
-23.128717 -16.933088 15.766277 32.714561 0.631962 1.067935 0.074986 -0.015216 224901.000000 0 0 1
-23.805617 -17.752588 16.874077 34.155472 0.640763 1.054069 0.050264 0.024212 -246632.000000 0 0 1
-24.827917 -17.074888 17.513977 34.852786 0.602443 1.044293 0.059978 0.002220 114642.000000 0 0 1
-25.704437 -17.941588 18.284077 36.289477 0.609380 1.042758 0.046228 0.018069 192913.000000 0 0 1
-26.862907 -17.213688 18.959677 37.113289 0.569879 1.034612 0.059156 0.013963 -513018.000000 0 0 1
-26.575677 -16.508688 20.160077 37.218706 0.555859 0.998380 0.067002 0.007372 2878.000000 0 0 1
-27.582977 -15.579688 20.536377 37.753014 0.514158 0.995639 0.068000 -0.002099 -355282.000000 0 0 1
-27.333047 -14.943288 21.926977 38.094483 0.500315 0.957465 0.072139 -0.007079 132294.000000 0 0 1
-26.143667 -14.180688 22.048777 37.023396 0.497000 0.932863 0.071748 -0.008949 134637.000000 0 0 1
-25.814257 -13.926588 23.350777 37.491126 0.494740 0.898435 0.053742 -0.011909 -206748.000000 0 0 1
-24.336217 -13.502188 23.484077 36.415140 0.506535 0.869906 0.058017 0.000946 -43627.500000 0 0 1
-24.056117 -12.152688 23.119577 35.509146 0.467784 0.861779 0.081241 -0.016454 346267.000000 0 0 1
-22.987817 -11.956988 22.194777 34.117700 0.479633 0.862507 0.085919 -0.012980 -149165.000000 0 0 1
-22.686717 -10.417988 21.958177 33.247303 0.430487 0.849379 0.097998 -0.012210 94494.800000 0 0 1
-22.052117 -9.759788 23.075277 33.376904 0.416665 0.807434 0.093298 -0.019534 582941.000000 0 0 1
-20.638517 -9.908988 22.934677 32.405800 0.447618 0.784511 0.074094 -0.020803 47772.600000 0 0 1
-19.988617 -9.829988 24.315277 32.975842 0.457049 0.741633 0.086627 -0.028556 -76610.500000 0 0 1
-20.255517 -10.999888 25.023077 34.021139 0.497497 0.744369 0.105020 -0.030664 -204351.000000 0 0 1
-19.604217 -10.955688 26.248777 34.544909 0.509607 0.707722 0.106714 -0.035621 -1016940.000000 0 0 1
-19.737017 -12.260788 27.017277 35.634394 0.555868 0.710279 0.095489 -0.044010 666245.000000 0 0 1
-20.989117 -12.383388 27.702177 36.895826 0.533027 0.721491 0.100573 -0.037805 500933.000000 0 0 1
-22.076717 -12.775288 26.860477 37.041526 0.524593 0.759551 0.092774 -0.035212 -85794.200000 0 0 1
-23.298617 -13.228988 27.694077 38.533020 0.516408 0.768851 0.086546 -0.033900 8042.470000 0 0 1
-23.119317 -14.402988 28.528477 39.443921 0.557149 0.762275 0.077557 -0.032966 -329635.000000 0 0 1
-22.215217 -14.309188 29.592977 39.673833 0.572228 0.728901 0.061333 -0.023927 -198370.000000 0 0 1
-22.660417 -15.226088 30.762377 41.129699 0.591634 0.725849 0.056471 -0.027216 -714588.000000 0 0 1
-22.420617 -16.563488 30.506277 41.323918 0.636270 0.740364 0.054822 -0.023919 -219664.000000 0 0 1
-22.538917 -17.391088 31.688477 42.598267 0.657184 0.731922 0.051191 -0.026505 -451578.000000 0 0 1
-23.955817 -17.754188 32.199977 43.885429 0.637795 0.747003 0.071162 -0.024977 452985.000000 0 0 1
-24.725817 -16.680888 32.756977 44.301666 0.593499 0.738607 0.088266 -0.036043 519607.000000 0 0 1
-25.934727 -17.087788 33.400377 45.609075 0.582590 0.749076 0.099781 -0.040249 601986.000000 0 0 1
-26.765027 -15.989188 -33.730769 45.932402 0.538499 2.395515 0.101135 -0.038088 134834.000000 0 0 1
-26.241747 -15.632888 -32.476369 44.583977 0.537271 2.386826 0.107931 -0.042735 -443724.000000 0 0 1
-27.092907 -14.750588 -31.817069 44.316265 0.498568 2.371656 0.118255 -0.036476 -478725.000000 0 0 1
-26.657687 -14.109788 -30.510269 42.902155 0.486808 2.361942 0.099891 -0.029106 -369797.000000 0 0 1
-26.703517 -14.954888 -29.348269 42.403389 0.510515 2.335220 0.112995 -0.022015 78148.100000 0 0 1
-26.099247 -14.341988 -28.244769 41.044248 0.502473 2.329738 0.114890 -0.015497 -209923.000000 0 0 1
-26.361017 -15.172088 -26.953269 40.639564 0.522248 2.295919 0.093764 -0.016053 -197714.000000 0 0 1
-27.585627 -15.090088 -26.269869 40.972962 0.500558 2.266794 0.100294 -0.013819 -195609.000000 0 0 1
-27.769817 -13.992588 -25.342369 40.114722 0.466745 2.254602 0.099881 -0.019015 -145000.000000 0 0 1
-26.847697 -13.919288 -24.084769 38.660335 0.478301 2.243348 0.081248 -0.028720 314580.000000 0 0 1
-25.513647 -13.477788 -24.412069 37.796112 0.485998 2.272983 0.061180 -0.031984 1123120.000000 0 0 1
-24.587917 -13.807588 -23.380569 36.631491 0.511675 2.263038 0.051662 -0.033001 30328.700000 0 0 1
-24.056117 -15.285188 -23.442269 36.903573 0.566041 2.259103 0.048194 -0.036017 -1209310.000000 0 0 1
-23.132317 -15.476588 -24.479369 37.065730 0.589648 2.292189 0.057268 -0.024305 -86422.700000 0 0 1
-22.969317 -16.857288 -24.737569 37.732016 0.633120 2.285789 0.077055 -0.021086 -65399.500000 0 0 1
-22.178717 -17.136588 -26.066569 38.275634 0.657846 2.319954 0.071033 -0.021144 29086.100000 0 0 1
-22.828517 -16.925188 -27.302069 39.408199 0.637978 2.336163 0.080487 -0.015899 270342.000000 0 0 1
-23.823317 -17.944088 -27.489569 40.561276 0.645556 2.315467 0.086201 -0.018849 323737.000000 0 0 1
-24.561517 -17.848088 -28.860469 41.889725 0.628401 2.330854 0.091352 -0.027651 738925.000000 0 0 1
-23.667717 -18.459188 -29.831169 42.317858 0.662383 2.353122 0.096714 -0.023220 896409.000000 0 0 1
-24.185417 -18.318088 -31.090469 43.440810 0.648222 2.368418 0.082649 -0.028805 -634466.000000 0 0 1
-23.235217 -18.837788 -32.165969 43.924790 0.681257 2.392484 0.076239 -0.032305 -511848.000000 0 0 1
-22.069917 -18.043888 -32.275169 43.062161 0.685368 2.418106 0.073949 -0.026012 -630672.000000 0 0 1
-20.846217 -18.609788 -32.006969 42.489234 0.728777 2.423856 0.074269 -0.028142 -577011.000000 0 0 1
-20.286117 -19.632388 -33.033869 43.453351 0.769023 2.434440 0.074879 -0.029212 -887121.000000 0 0 1
-19.930117 -19.109688 33.543777 43.446228 0.764386 0.688696 0.068977 -0.031199 -25714.100000 0 0 1
-19.919917 -20.171688 32.585577 43.191665 0.791678 0.715994 0.054584 -0.024822 -372108.000000 0 0 1
-21.190817 -20.783488 31.939077 43.601706 0.775694 0.748781 0.052940 -0.019239 -133014.000000 0 0 1
-21.977717 -21.438088 32.932677 45.024137 0.772969 0.750358 0.061652 -0.025613 198695.000000 0 0 1
-23.192717 -22.000888 32.441077 45.545194 0.759033 0.778051 0.069900 -0.014321 -13367.100000 0 0 1
-23.224617 -23.173788 31.401977 45.414661 0.784303 0.807302 0.071769 -0.011459 -563851.000000 0 0 1
-22.624817 -24.382788 31.911177 46.094750 0.822778 0.806131 0.076770 -0.011919 -54083.800000 0 0 1
-22.829717 -25.491618 31.038977 46.199964 0.840430 0.834106 0.089243 -0.001511 -28717.300000 0 0 1
-22.274717 -26.865018 31.569977 47.059066 0.878541 0.835430 0.099729 -0.014725 -215017.000000 0 0 1
-22.950217 -27.357088 32.665477 48.395828 0.872774 0.829879 0.091726 -0.018836 -191620.000000 0 0 1
-22.299317 -28.477268 33.214177 49.105966 0.906472 0.827963 0.097245 -0.021407 -731331.000000 0 0 1
-23.307117 -29.164168 -33.660369 50.267195 0.896562 2.304505 0.085104 -0.019214 -111213.000000 0 0 1
-24.299417 -29.979808 33.535877 51.126369 0.889670 0.855368 0.085873 -0.018286 772467.000000 0 0 1
-25.362367 -29.207128 32.961677 50.821041 0.855738 0.865075 0.074945 -0.011159 -532163.000000 0 0 1
-26.463977 -28.818948 -33.861669 51.744434 0.827971 2.284188 0.064627 -0.009556 -927437.000000 0 0 1
-27.644627 -28.233788 33.506977 51.808201 0.795941 0.867480 0.039398 0.000231 -176150.000000 0 0 1
-28.559577 -28.194558 -33.273569 52.131688 0.778967 2.263032 0.041473 0.006898 -256360.000000 0 0 1
-29.749597 -27.236788 -33.493769 52.428177 0.741332 2.263800 0.029777 -0.000023 -362158.000000 0 0 1
-30.755227 -27.784188 33.526377 53.309127 0.734689 0.890652 0.022854 0.000115 433914.000000 0 0 1
-31.744007 -26.735428 33.275177 53.194948 0.699960 0.894982 0.021233 -0.008195 730071.000000 0 0 1
