# x y z rho theta phi s1 s2 stress_xx np intf bulk
-0.710725 -10.812226 -14.320500 17.957897 1.505157 2.493851 0.006036 -0.000385 575550.000000 1 0 0
2.208075 -13.522326 -13.050400 18.921993 -1.408934 2.331864 0.001814 0.003897 291558.000000 1 0 0
2.174075 -11.196526 -14.685900 18.594743 -1.379009 2.481259 0.008048 0.001929 525888.000000 1 0 0
-5.570325 -6.301826 -16.389300 18.421473 0.846935 2.667450 0.022180 -0.003440 616440.000000 1 0 0
4.561575 -14.087426 -11.481300 18.737230 -1.257646 2.230336 0.010028 -0.000734 261742.000000 1 0 0
14.136075 -10.605626 -8.011800 19.403527 -0.643663 1.996437 0.034241 -0.003521 -1147540.000000 1 0 0
7.133375 10.813774 -10.820400 16.879094 0.987663 2.266666 0.014320 -0.006921 -835381.000000 1 0 0
5.764075 -4.166426 -12.502500 14.383886 -0.625882 2.624382 -0.000194 -0.001454 2254000.000000 1 0 0
13.614975 0.483874 -9.923500 16.854600 0.035525 2.200334 0.013628 -0.004828 1510330.000000 1 0 0
14.111075 5.047474 -10.290000 18.179206 0.343514 2.172480 0.003711 -0.010992 91550.000000 1 0 0
4.103075 4.285174 -13.523100 14.767267 0.807104 2.728163 0.008013 -0.000441 2480810.000000 1 0 0
10.361275 -5.017526 -13.778800 17.955136 -0.450975 2.445575 0.015676 -0.002696 -831015.000000 1 0 0
2.581575 -7.556626 -12.037600 14.445447 -1.241597 2.555873 0.002775 -0.000037 1411790.000000 1 0 0
-5.517825 -2.055926 -15.262500 16.359007 0.356662 2.773380 0.009244 -0.003122 363404.000000 1 0 0
10.665075 0.047074 -9.552100 14.317425 0.004414 2.301194 0.011009 -0.003587 -50520.200000 1 0 0
-1.526225 -9.574026 -16.928500 19.508087 1.412713 2.621490 0.017500 -0.008384 1683250.000000 1 0 0
8.451775 1.832574 -17.949800 19.924511 0.213522 2.692613 0.024517 -0.004354 -32087.000000 1 0 0
16.394875 -5.936626 -8.639700 19.459699 -0.347416 2.030831 0.054073 -0.008490 -1598940.000000 1 0 0
10.132375 7.545874 -9.884100 16.040595 0.640119 2.234696 0.006650 -0.006240 -182614.000000 1 0 0
13.874175 -2.292926 -10.672800 17.653864 -0.163785 2.220008 0.029795 -0.002476 -849992.000000 1 0 0
7.271675 -1.840026 -13.691200 15.611275 -0.247838 2.640394 0.009479 -0.003353 713082.000000 1 0 0
-2.729225 6.614674 -13.825300 15.567321 -1.179474 2.663986 0.002858 -0.006830 555292.000000 1 0 0
11.277375 1.749674 -13.775700 17.888836 0.153922 2.449751 0.021072 -0.005589 1697160.000000 1 0 0
-2.348225 10.705374 -12.911200 16.935710 -1.354866 2.437757 0.004215 -0.003624 -809955.000000 1 0 0
2.860675 -1.135126 -15.212700 15.520896 -0.377748 2.941978 0.001695 -0.004280 3897.230000 1 0 0
-8.943825 0.517874 -15.432600 17.844476 -0.057838 2.615626 0.014827 0.000071 -437889.000000 1 0 0
2.385875 -1.861726 -17.957800 18.211013 -0.662620 2.974639 0.011547 -0.013494 871914.000000 1 0 0
1.149275 7.814374 -13.112000 15.307182 1.424771 2.599423 0.000047 -0.000806 -892878.000000 1 0 0
9.440375 -9.044626 -9.904300 16.401863 -0.763992 2.219121 0.013866 -0.003294 517614.000000 1 0 0
4.008875 7.270774 -13.533700 15.877540 1.066903 2.591317 0.006083 -0.000808 97288.100000 1 0 0
-2.642925 9.036174 -15.506900 18.141153 -1.286250 2.595945 0.003386 -0.005737 -272086.000000 1 0 0
5.692275 -7.631926 -15.159000 17.900938 -0.929956 2.580787 0.003787 -0.003407 908031.000000 1 0 0
4.204375 7.254874 -16.420600 18.437627 1.045569 2.669465 0.015631 0.001818 404656.000000 1 0 0
-0.159025 5.022174 -13.485900 14.391561 -1.539142 2.784938 0.002694 -0.005855 1393870.000000 1 0 0
8.882575 4.344174 -16.581700 19.306081 0.454863 2.603885 0.029639 -0.003275 -183285.000000 1 0 0
5.301175 0.305374 -14.314100 15.267258 0.057541 2.786368 0.004393 -0.001234 298790.000000 1 0 0
6.374175 7.959074 -11.542700 15.401652 0.895526 2.418021 0.002670 -0.000949 938029.000000 1 0 0
2.890775 -8.430526 -14.966200 17.418883 -1.240466 2.604489 0.004802 -0.005489 1504710.000000 1 0 0
4.003175 11.583874 -13.753900 18.422305 1.238063 2.413717 0.009493 -0.003241 -2080400.000000 1 0 0
0.620975 -4.551226 -13.748400 14.495439 -1.435192 2.819149 0.007163 -0.002994 772666.000000 1 0 0
8.538875 -0.129726 -11.594000 14.399655 -0.015191 2.506738 0.003641 -0.002594 361884.000000 1 0 0
-0.851725 -5.171526 -16.266500 17.090030 1.407567 2.829888 0.002912 -0.009166 -33087.200000 1 0 0
4.475775 0.923374 -11.627700 12.493542 0.203450 2.767110 0.000353 -0.002119 -64023.700000 1 0 0
-2.915725 -7.205526 -15.697600 17.516726 1.186287 2.681810 0.002616 0.003021 2235980.000000 1 0 0
11.356975 -3.731826 -11.358800 16.490293 -0.317478 2.330653 0.015028 -0.005455 2378800.000000 1 0 0
6.573875 -7.029726 -12.381400 15.682218 -0.818895 2.480820 0.001850 -0.001215 181651.000000 1 0 0
3.479375 -4.083726 -14.591100 15.546159 -0.865136 2.789248 0.004943 -0.002762 3209220.000000 1 0 0
-0.527925 -1.614826 -18.370100 18.448494 1.254826 3.049371 0.007000 -0.016227 1888030.000000 1 0 0
14.878275 2.945574 -8.417900 17.346485 0.195451 2.077480 0.014068 -0.006257 -78300.900000 1 0 0
6.975075 4.333474 -14.252800 16.449103 0.555920 2.618902 0.013677 -0.002154 3611170.000000 1 0 0
10.316675 -9.746626 -13.955200 19.904223 -0.756993 2.347760 0.027719 -0.008488 123241.000000 1 0 0
9.094775 -3.112626 -15.589100 18.314568 -0.329748 2.589037 0.023972 -0.009367 -440975.000000 1 0 0
-5.262325 -2.115926 -18.140200 19.006211 0.382306 2.838558 0.007683 0.002484 -99133.800000 1 0 0
5.034675 -9.160426 -11.116700 15.259173 -1.068251 2.386964 -0.000522 -0.000189 2134120.000000 1 0 0
-2.443025 3.980674 -17.214800 17.837137 -1.020349 2.876660 0.002756 -0.000140 1979890.000000 1 0 0
9.664675 9.265974 -14.426800 19.682398 0.764340 2.393488 0.033614 -0.009947 927003.000000 1 0 0
9.883475 10.005474 -11.545800 18.196101 0.791532 2.258184 0.018349 -0.009232 445681.000000 1 0 0
12.048875 -5.956126 -9.632000 16.535606 -0.459102 2.192598 0.021826 -0.005889 163013.000000 1 0 0
8.129375 6.994374 -13.708700 17.405070 0.710491 2.477744 0.013050 0.000636 -484765.000000 1 0 0
4.067775 -4.195926 -17.526000 18.474665 -0.800905 2.819738 0.013283 -0.008071 -1198890.000000 1 0 0
9.396775 -7.466026 -12.371300 17.236299 -0.671397 2.371357 0.012741 -0.007366 -1646240.000000 1 0 0
12.057575 -8.674926 -8.824200 17.277325 -0.623666 2.106840 0.023473 -0.005428 754644.000000 1 0 0
-2.915825 -2.582726 -13.955200 14.488620 0.724893 2.869399 0.004997 -0.005113 -1905720.000000 1 0 0
-0.353125 6.071774 -17.698000 18.713908 -1.512703 2.810580 0.011278 0.002332 1476330.000000 1 0 0
1.211675 -8.451526 -17.516700 19.486693 -1.428399 2.688062 0.012469 -0.007826 1167500.000000 1 0 0
0.154675 8.456874 -15.947500 18.051742 1.552508 2.653935 0.006367 0.001364 -485352.000000 1 0 0
1.744775 3.309974 -15.025000 15.483888 1.085684 2.897527 0.006958 -0.002654 1635690.000000 1 0 0
-1.906225 -0.492626 -15.868300 15.989975 0.252897 3.018149 0.003509 -0.007665 3227670.000000 1 0 0
14.099975 -4.225226 -8.480400 16.987614 -0.291147 2.093484 0.028949 -0.006624 -92148.100000 1 0 0
0.621875 0.616074 -14.578500 14.604757 0.780712 3.081619 0.000845 -0.005757 1346350.000000 1 0 0
8.796475 2.687374 -12.468800 15.494222 0.296500 2.506031 0.008056 0.000061 1795420.000000 1 0 0
5.799275 1.077974 -17.032400 18.024879 0.183783 2.808203 0.021274 0.000747 2097290.000000 1 0 0
15.206075 1.580974 -12.245800 19.587849 0.103598 2.246150 0.021420 -0.013731 -2081220.000000 1 0 0
8.852275 -11.207626 -11.864200 18.566984 -0.902279 2.263987 0.020871 -0.004817 212062.000000 1 0 0
-4.612425 0.755674 -15.198000 15.900462 -0.162392 2.843237 0.008746 -0.006457 1342630.000000 1 0 0
2.441375 5.058074 -17.336800 18.223860 1.121109 2.828301 0.013852 -0.000320 2510380.000000 1 0 0
5.982375 -11.696326 -12.413200 18.074302 -1.098011 2.327856 0.010189 -0.002860 1286060.000000 1 0 0
12.695475 7.152774 -8.548200 16.894052 0.513081 2.101324 0.004286 -0.011771 -1199490.000000 1 0 0
-4.941825 3.627074 -15.739300 16.890910 -0.633153 2.770194 0.002134 -0.006398 -18020.400000 1 0 0
-0.457425 -4.464126 -19.041400 19.563041 1.468686 2.910145 0.016292 -0.019533 -3957.480000 1 0 0
9.806275 4.408474 -10.224200 14.836844 0.422485 2.331055 -0.000834 -0.001459 1521360.000000 1 0 0
13.295275 3.722074 -12.716700 18.770526 0.272967 2.315131 0.005543 -0.010766 -453373.000000 1 0 0
-6.251925 5.699774 -17.302200 19.259805 -0.739233 2.686813 0.004110 -0.001169 -587426.000000 1 0 0
-10.081025 3.148874 -15.450900 18.715576 -0.302754 2.541997 0.020417 -0.005972 -1323500.000000 1 0 0
10.747275 13.513774 -8.222900 19.124385 0.898938 2.015255 0.038774 -0.009236 994525.000000 1 0 0
7.330575 13.428174 -12.325700 19.646274 1.071099 2.248982 0.031453 -0.008449 -626714.000000 1 0 0
5.269475 15.112174 -11.033400 19.439164 1.235288 2.174367 0.025822 -0.015656 605706.000000 1 0 0
14.135275 9.435874 -9.710900 19.574047 0.588608 2.089910 0.033504 -0.013202 -870474.000000 1 0 0
8.478375 -17.136626 -2.138100 19.238458 -1.111356 1.682163 0.031875 -0.004674 -876060.000000 1 0 0
0.744475 -16.038226 -0.041200 16.055548 -1.524411 1.573362 0.010495 -0.007254 2180470.000000 1 0 0
-9.130225 -11.816326 7.579800 16.746341 0.912938 1.101090 0.016149 -0.001118 -493299.000000 1 0 0
2.094875 -15.920026 -2.608900 16.267824 -1.439961 1.731864 0.015541 -0.009992 2411050.000000 1 0 0
-1.285625 -10.998126 -9.436100 14.548250 1.454430 2.276549 0.004320 0.001254 861433.000000 1 0 0
-4.744825 -12.721626 -13.010800 18.805160 1.213804 2.334878 0.013599 0.000159 768854.000000 1 0 0
-8.162125 -17.853526 -1.821300 19.715116 1.141995 1.663309 0.016779 -0.013787 -5287.880000 1 0 0
-11.348625 -6.988726 -9.013300 16.089535 0.551972 2.165419 0.021308 -0.010660 2647410.000000 1 0 0
-13.588925 -11.523926 -4.822400 18.458474 0.703354 1.835120 0.030262 -0.008489 1955250.000000 1 0 0
-5.724925 -13.489526 9.811200 17.635241 1.169436 0.980821 0.019084 -0.010099 495608.000000 1 0 0
0.117275 -14.004926 -3.675500 14.479675 -1.562423 1.827443 0.014564 -0.003776 726982.000000 1 0 0
-14.712925 -11.713926 1.814300 18.893859 0.672399 1.474622 0.039289 -0.005831 776730.000000 1 0 0
-3.960625 -16.510326 -7.404400 18.523027 1.335358 1.982030 0.005897 -0.006780 -570521.000000 1 0 0
0.582575 -15.298226 -9.267500 17.895856 -1.532733 2.115141 0.005689 0.004303 617398.000000 1 0 0
4.616375 -14.232026 -2.619400 15.189560 -1.257139 1.744110 0.017852 0.000131 1250690.000000 1 0 0
-3.513225 -18.081926 -2.349600 18.569314 1.378892 1.697668 0.006542 -0.014556 2115070.000000 1 0 0
-0.942425 -13.622326 0.666000 13.671119 1.501724 1.522061 0.009507 -0.002683 3652180.000000 1 0 0
-8.439325 -11.257926 -10.478900 17.543387 0.927529 2.210943 0.027852 -0.014484 2376340.000000 1 0 0
-3.771025 -14.237926 -0.342200 14.732829 1.311884 1.594025 0.000734 0.001315 4184160.000000 1 0 0
-1.549325 -14.960726 -7.316900 16.726050 1.467605 2.023563 0.001333 0.000463 115034.000000 1 0 0
-14.155425 -7.891426 -1.893800 16.316774 0.508571 1.687123 0.027653 -0.010252 1967830.000000 1 0 0
-10.764325 -7.163926 -11.789000 17.497801 0.587212 2.310057 0.029832 -0.008736 -309495.000000 1 0 0
-9.518525 -14.810626 6.786600 18.868357 0.999583 1.202870 0.012637 0.002400 802555.000000 1 0 0
-2.376025 -14.329326 -12.283600 19.022668 1.406476 2.272782 0.011353 0.001224 440678.000000 1 0 0
2.288275 -17.931526 -4.784900 18.699494 -1.443870 1.829558 0.026317 -0.008894 -954748.000000 1 0 0
-6.531925 -9.680326 -9.174600 14.850860 0.977210 2.236716 0.010655 -0.006586 -63203.600000 1 0 0
-10.925625 -15.393226 0.145100 18.877016 0.953544 1.563110 0.022109 -0.005299 -332305.000000 1 0 0
-12.630825 -10.992326 3.857900 17.182909 0.716149 1.344346 0.025294 -0.003585 1582890.000000 1 0 0
-17.001225 -8.919426 -1.638900 19.268726 0.483160 1.655954 0.036203 -0.015079 337697.000000 1 0 0
-1.318925 -19.248526 -3.937700 19.691389 1.502382 1.772124 0.018433 -0.012605 -1506030.000000 1 0 0
3.352275 -14.246426 -8.818300 17.086861 -1.339694 2.113072 0.011136 0.001821 -28108.600000 1 0 0
-4.237925 -8.012426 -13.078600 15.912534 1.084282 2.535545 0.005569 0.002363 671221.000000 1 0 0
5.659075 -16.566326 1.283900 17.553253 -1.241623 1.497588 0.027721 -0.005980 5679240.000000 1 0 0
-2.822625 -13.818926 -3.149600 14.451640 1.369310 1.790500 0.001663 0.000258 -849651.000000 1 0 0
-0.368525 -14.040426 3.672400 14.517434 1.544555 1.315053 0.007693 -0.000815 -2552790.000000 1 0 0
1.219075 -16.147126 7.072300 17.670123 -1.495441 1.159017 0.023612 -0.011393 2617130.000000 1 0 0
-5.381125 -10.339026 -14.614100 18.692883 1.090909 2.468344 0.016845 -0.004257 -2085530.000000 1 0 0
-0.336025 -17.350926 -5.931300 18.339789 1.551432 1.900129 0.019007 -0.006095 1464330.000000 1 0 0
-6.581725 -13.487226 -1.297400 15.063453 1.116797 1.657032 0.003631 0.002322 2121330.000000 1 0 0
-1.691425 -17.821126 -0.129400 17.901681 1.476169 1.578025 0.008194 -0.005710 2253640.000000 1 0 0
-9.480425 -9.729026 -5.064700 14.497709 0.798339 1.927668 0.014648 -0.004649 1429300.000000 1 0 0
-0.799425 -16.696326 4.890500 17.416181 1.522953 1.286167 0.018944 -0.008727 1665400.000000 1 0 0
-6.774725 -9.832926 -6.303800 13.502637 0.967502 2.056530 0.015216 -0.003668 2127210.000000 1 0 0
-6.071125 -14.542626 -8.591200 17.948683 1.175320 2.069917 0.009880 -0.008270 -225161.000000 1 0 0
-5.692325 -12.219226 -10.314400 16.973476 1.134840 2.223929 0.010434 -0.004929 1339150.000000 1 0 0
-10.762525 -12.126326 -8.984600 18.536525 0.844911 2.076813 0.049383 -0.022782 -1339950.000000 1 0 0
4.064275 -16.944426 6.538000 18.611216 -1.335385 1.211844 0.037505 -0.017658 2034380.000000 1 0 0
-6.631825 -14.393326 -4.225500 16.401335 1.139033 1.831366 0.007466 -0.008563 337208.000000 1 0 0
-2.792925 -12.229526 -7.116100 14.422226 1.346271 2.086805 0.007801 -0.002070 3975730.000000 1 0 0
-7.066025 -12.885026 4.374000 15.332465 1.069190 1.281501 0.002705 0.003373 2737140.000000 1 0 0
2.639475 -16.438026 2.367600 16.816095 -1.411584 1.429533 0.022641 -0.008547 3648760.000000 1 0 0
-6.291925 -12.059826 7.267100 15.422012 1.089919 1.080127 0.010415 0.000490 1868140.000000 1 0 0
-11.118325 -12.816326 -1.211100 17.010059 0.856223 1.642056 0.022317 0.003051 724173.000000 1 0 0
-14.247725 -8.623826 4.578000 17.272120 0.544291 1.302539 0.030997 -0.008649 -1135360.000000 1 0 0
-7.998625 -15.663426 4.342800 18.115762 1.098660 1.328714 0.006536 0.006162 529211.000000 1 0 0
-16.479025 -9.246526 1.123100 18.929285 0.511332 1.511430 0.039850 -0.012690 -1099930.000000 1 0 0
-6.613125 -17.204726 2.342500 18.580186 1.203829 1.444385 0.000236 0.005785 2314950.000000 1 0 0
-11.618625 -14.917726 -4.944600 19.544310 0.909087 1.826570 0.050065 -0.011087 683930.000000 1 0 0
-9.997025 -9.810726 -12.615200 18.850308 0.775993 2.303969 0.032016 -0.010606 1051800.000000 1 0 0
-4.330425 -16.068026 -4.458300 17.228188 1.307545 1.832555 0.000846 -0.007071 -1184330.000000 1 0 0
-11.751825 -8.361326 -0.112300 14.423237 0.618397 1.578582 0.003159 0.001178 1677130.000000 1 0 0
-9.607425 -11.220526 3.415500 15.161413 0.862693 1.343570 0.003438 0.005005 2050340.000000 1 0 0
-14.050725 -12.889626 -0.762900 19.082645 0.742326 1.610786 0.024358 -0.001293 686089.000000 1 0 0
5.699875 -14.942126 -7.103700 17.499093 -1.206371 1.988811 0.018854 -0.006520 824337.000000 1 0 0
-7.362925 -10.508326 -1.312400 12.898060 0.959617 1.672724 0.004929 0.003866 1815500.000000 1 0 0
-11.673425 -8.204526 -6.210400 15.561239 0.612628 1.981325 0.015709 -0.009778 120974.000000 1 0 0
-14.394125 -6.561026 -9.232400 18.315979 0.427677 2.099093 0.029737 -0.017651 3310640.000000 1 0 0
-3.816225 -16.529426 1.499300 17.030367 1.343897 1.482645 0.003455 -0.001286 1837580.000000 1 0 0
-7.950025 -15.633526 0.131300 17.539306 1.100353 1.563310 0.015262 0.000861 654154.000000 1 0 0
1.073575 -18.624226 3.781800 19.034610 -1.513216 1.370785 0.021229 -0.010702 1123450.000000 1 0 0
-14.136725 -8.766926 -4.573200 17.251670 0.555106 1.839091 0.025949 -0.014535 -154670.000000 1 0 0
-3.289825 -14.379226 11.228400 18.538124 1.345877 0.920161 0.013431 -0.018806 -714557.000000 1 0 0
-10.736925 -12.147326 -4.070700 16.715552 0.846952 1.816798 0.023658 -0.011515 1486660.000000 1 0 0
-9.840625 -10.756226 0.460200 14.585817 0.829822 1.539240 0.004720 0.007159 762619.000000 1 0 0
0.023975 -13.152926 -11.158700 17.248670 -1.568974 2.274349 0.008165 0.000647 1004030.000000 1 0 0
-5.895325 -12.588526 -6.389400 15.298701 1.132821 2.001646 0.006558 -0.007229 2022280.000000 1 0 0
1.701175 -15.765026 9.982000 18.736872 -1.463304 1.008954 0.011883 -0.006775 -214099.000000 1 0 0
-8.945225 -15.769926 -5.670600 18.996402 1.054819 1.873927 0.036563 -0.013029 1419020.000000 1 0 0
-3.259825 -15.546126 6.025200 16.988570 1.364104 1.208244 0.006652 0.000477 -543169.000000 1 0 0
-17.409425 -5.492426 -6.573200 19.402623 0.305603 1.916415 0.023242 -0.012465 182315.000000 1 0 0
18.859375 5.555774 -2.864100 19.868209 0.286486 1.715455 0.024834 0.000671 -1415090.000000 1 0 0
12.994775 -12.445226 -5.894900 18.934035 -0.763800 1.887398 0.033092 0.000773 110983.000000 1 0 0
11.057375 -13.411526 -1.622000 17.457533 -0.881313 1.663842 0.026517 -0.002124 1110320.000000 1 0 0
18.717275 -2.812826 4.762300 19.517374 -0.149163 1.324305 0.044674 -0.012178 -1180840.000000 1 0 0
9.102475 -16.862326 4.813600 19.757627 -1.075809 1.324687 0.059594 -0.018420 -454955.000000 1 0 0
18.041375 -0.873926 6.808700 19.303196 -0.048402 1.210316 0.063197 -0.011695 248572.000000 1 0 0
18.058075 -4.126326 -4.920900 19.166009 -0.224646 1.830456 0.063314 -0.010225 2017940.000000 1 0 0
5.246275 -11.733226 14.869100 19.654062 -1.150332 0.712789 0.005124 0.001021 -335421.000000 1 0 0
15.950375 -8.860526 -0.805500 18.263960 -0.507060 1.614914 0.042307 -0.004929 96499.700000 1 0 0
13.897775 -12.459726 -1.310800 18.711257 -0.730893 1.640908 0.045700 -0.006035 317769.000000 1 0 0
10.901475 -1.900226 13.887900 17.757443 -0.172575 0.672785 0.002315 -0.006409 -170446.000000 1 0 0
16.900175 -6.134126 -1.400800 18.033460 -0.348175 1.648552 0.042708 -0.006114 -2009720.000000 1 0 0
17.716675 3.643174 -0.946300 18.112117 0.202808 1.623067 0.021518 0.001700 814625.000000 1 0 0
9.711775 -11.054826 9.693800 17.620940 -0.849982 0.988277 0.021044 0.002783 1085100.000000 1 0 0
9.103475 -11.076926 4.281100 14.963267 -0.882879 1.280634 0.003308 -0.000797 -415314.000000 1 0 0
13.946575 -10.045226 6.842300 18.499476 -0.624197 1.191933 0.033666 -0.007939 238730.000000 1 0 0
16.309675 -0.455726 -4.723000 16.985874 -0.027935 1.852565 0.025880 -0.002904 141546.000000 1 0 0
15.658475 -0.376926 -1.806100 15.766798 -0.024067 1.685599 0.017600 0.000281 148823.000000 1 0 0
12.887575 -5.106626 -0.245200 13.864608 -0.377264 1.588483 0.008855 -0.003978 332839.000000 1 0 0
14.247775 -7.477826 1.064900 16.126097 -0.483323 1.504712 0.026460 -0.002049 1158090.000000 1 0 0
15.578675 2.546874 3.672100 16.206974 0.162051 1.342236 0.017507 -0.006099 480259.000000 1 0 0
15.826175 -7.062126 5.033000 18.046400 -0.419715 1.288156 0.040739 -0.009373 -2074900.000000 1 0 0
13.689175 -12.085426 3.296700 18.555842 -0.723256 1.392184 0.024778 0.000179 567776.000000 1 0 0
13.943175 -0.884526 9.336900 16.803935 -0.063353 0.981667 0.037037 -0.008175 1794920.000000 1 0 0
14.146575 -2.782426 -1.607200 14.506915 -0.194206 1.681813 0.000415 -0.000632 882787.000000 1 0 0
15.063075 1.924474 9.220000 17.765366 0.127073 1.025131 0.054863 -0.009440 -1374040.000000 1 0 0
14.396675 -10.080126 -2.990900 17.827470 -0.610840 1.739363 0.044609 -0.008069 -1027960.000000 1 0 0
7.387275 -12.634926 6.102100 15.857138 -1.041724 1.175787 0.002813 -0.002447 -592665.000000 1 0 0
12.391875 -4.547126 7.079200 14.978318 -0.351689 1.078524 0.012392 -0.001813 2866710.000000 1 0 0
14.980775 -8.941626 -5.668800 18.344252 -0.538117 1.884962 0.049455 -0.006356 -547002.000000 1 0 0
14.254775 -4.514126 4.746100 15.687620 -0.306684 1.263442 0.015239 -0.004777 518697.000000 1 0 0
17.056975 -4.234226 1.024800 17.604525 -0.243322 1.512551 0.033047 -0.008519 -589855.000000 1 0 0
10.299575 -14.332026 1.108600 17.683812 -0.947669 1.508065 0.032353 -0.003479 967010.000000 1 0 0
16.372075 -2.489726 8.681900 18.698101 -0.150915 1.087930 0.069230 -0.010986 430013.000000 1 0 0
16.114075 -2.653326 3.406000 16.682458 -0.163195 1.365184 0.026506 -0.006163 1994990.000000 1 0 0
7.893175 -15.183126 2.674500 17.320002 -1.091383 1.415759 0.019495 -0.007294 2477760.000000 1 0 0
16.637275 -6.878626 7.933600 19.673750 -0.392044 1.155722 0.060537 -0.010236 -341407.000000 1 0 0
10.222575 -8.548826 5.185200 14.299293 -0.696468 1.199719 0.000144 -0.003279 2508210.000000 1 0 0
11.003575 -11.769626 2.244600 16.267790 -0.819024 1.432377 0.017471 -0.002034 -339518.000000 1 0 0
12.311175 -7.113526 12.085700 18.660960 -0.523944 0.866305 0.023300 -0.008075 -436235.000000 1 0 0
15.184475 -9.824826 4.372700 18.606881 -0.574285 1.333573 0.041429 -0.007325 85280.500000 1 0 0
7.392475 -10.264726 7.831700 14.877796 -0.946653 1.016433 0.004797 -0.000364 1291910.000000 1 0 0
15.242975 -3.270926 -4.338300 16.182339 -0.211380 1.842205 0.031524 -0.004873 1184910.000000 1 0 0
11.814475 -8.959826 9.949300 17.856340 -0.648841 0.979803 0.015902 0.000211 -1324300.000000 1 0 0
16.864975 -6.635226 2.468700 18.290656 -0.374832 1.435413 0.040226 -0.009415 1388400.000000 1 0 0
17.580275 4.083774 2.062500 18.165825 0.228245 1.457014 0.021749 0.002380 728937.000000 1 0 0
14.745875 -4.836326 8.837300 17.858577 -0.316923 1.053135 0.048925 -0.008518 651681.000000 1 0 0
12.748275 -12.563726 6.071300 18.900434 -0.778107 1.243773 0.016410 -0.003494 -611021.000000 1 0 0
18.033075 0.677074 -0.822800 18.064530 0.037529 1.616360 0.017878 -0.001919 -77132.800000 1 0 0
11.578975 -2.106726 11.035800 16.133811 -0.179975 0.817541 0.008063 -0.003912 2108820.000000 1 0 0
5.799475 -12.447526 10.548600 17.316113 -1.134787 0.915772 0.006356 -0.000737 -1571730.000000 1 0 0
10.655275 -5.000326 11.116900 16.190232 -0.438772 0.813936 0.007468 -0.002360 722050.000000 1 0 0
17.902275 1.372274 5.014900 18.641991 0.076504 1.298430 0.039301 -0.004383 -947366.000000 1 0 0
12.212375 -7.675526 7.266000 16.150869 -0.561115 1.104162 0.017752 -0.006480 -1113780.000000 1 0 0
10.757375 -7.748426 14.450200 19.610393 -0.624214 0.742376 0.037991 -0.009006 1087170.000000 1 0 0
14.183275 -0.194526 3.842300 14.695796 -0.013714 1.306266 0.010620 -0.002851 2133720.000000 1 0 0
11.684475 -7.663126 2.616100 14.215993 -0.580468 1.385716 0.006088 -0.003622 1394110.000000 1 0 0
9.300975 6.056374 3.558200 11.655411 0.577187 1.260561 0.004099 -0.005069 794622.000000 1 0 0
-3.898125 14.824774 -9.994500 18.299162 -1.313670 2.148585 0.002246 0.002046 1224750.000000 1 0 0
8.746175 -6.384526 9.305100 14.277347 -0.630564 0.860922 0.001930 -0.002502 -470950.000000 1 0 0
5.880875 -10.609126 -8.550700 14.840914 -1.064641 2.184816 0.004186 0.000588 714343.000000 1 0 0
5.368875 1.034774 0.608900 5.501485 0.190401 1.459890 0.002932 -0.004492 4127830.000000 1 0 0
-0.671225 9.872774 10.919800 14.736494 -1.502913 0.736232 -0.009325 0.001348 -1097470.000000 1 0 0
-6.334325 -5.265326 1.036800 8.301944 0.693500 1.445583 0.004382 -0.003139 2240450.000000 1 0 0
-1.051825 3.911774 -10.806600 11.540837 -1.308122 2.782965 0.004852 -0.005908 1122830.000000 1 0 0
10.967775 5.730574 1.286100 12.441287 0.481479 1.467238 0.008848 -0.005276 -349533.000000 1 0 0
-10.094525 -1.763126 -13.778900 17.171666 0.172917 2.502137 0.019923 -0.001352 1574820.000000 1 0 0
7.502575 10.796374 -6.002100 14.452527 0.963490 1.999066 0.000870 -0.006512 906034.000000 1 0 0
-12.365025 -2.878626 -9.731500 15.996325 0.228730 2.224787 0.015405 -0.004619 1785050.000000 1 0 0
-3.857225 -8.680726 2.502900 9.823324 1.152656 1.313164 0.005878 0.000381 -1695540.000000 1 0 0
8.110475 -6.654626 -5.882900 12.027983 -0.687115 2.081855 0.003063 -0.004330 664254.000000 1 0 0
14.324975 3.203174 -4.180200 15.262350 0.219989 1.848231 0.018445 -0.004979 1333900.000000 1 0 0
-2.525025 -4.857026 9.804100 11.228839 1.091379 0.509235 0.002522 -0.003814 2675320.000000 1 0 0
3.440875 -2.009126 -4.558300 6.054280 -0.528497 2.423262 -0.000946 -0.001582 -2061280.000000 1 0 0
-4.040525 8.466774 -3.427200 9.987883 -1.125537 1.921050 -0.000306 0.000077 803213.000000 1 0 0
5.799275 0.137174 11.660500 13.023735 0.023649 0.461632 -0.006408 -0.002460 1629960.000000 1 0 0
7.134175 4.804074 12.292800 15.002950 0.592642 0.610505 0.000536 0.001530 -388046.000000 1 0 0
1.285075 -14.392626 12.509300 19.112344 -1.481745 0.857256 -0.005314 -0.005439 718726.000000 1 0 0
3.056375 8.779674 -9.029400 12.959713 1.235798 2.341623 0.003409 -0.000536 508914.000000 1 0 0
-4.429125 -8.829326 -4.520600 10.863239 1.105839 1.999990 0.009011 -0.000466 1197960.000000 1 0 0
5.775275 -6.638126 -4.002600 9.666402 -0.854796 1.997721 0.002684 -0.005025 1721690.000000 1 0 0
-3.133025 3.404574 8.654800 9.813895 -0.826911 0.490935 0.005283 -0.001608 2229980.000000 1 0 0
-3.765825 3.096674 -11.104600 12.127777 -0.688197 2.727878 0.001771 -0.008766 -978103.000000 1 0 0
2.949175 -6.105726 8.470200 10.849968 -1.120826 0.675066 -0.002080 -0.000399 355378.000000 1 0 0
-5.098025 -8.693126 10.440700 14.510979 1.040405 0.767709 0.010160 -0.007513 1994790.000000 1 0 0
-13.301625 -2.540626 6.456500 15.002479 0.188728 1.125902 0.007871 -0.002101 143044.000000 1 0 0
3.970375 -6.004126 -8.332500 11.011084 -0.986536 2.429104 -0.002210 -0.001380 4084180.000000 1 0 0
2.934675 -0.565926 12.363100 12.719231 -0.190503 0.237196 0.004251 -0.001728 850405.000000 1 0 0
1.532975 -1.390726 -7.574800 7.852498 -0.736783 2.874854 -0.002513 -0.002935 -1332190.000000 1 0 0
3.617875 -3.519126 3.404900 6.088236 -0.771563 0.977305 0.002713 -0.005153 2925540.000000 1 0 0
1.578875 0.427374 -11.790300 11.903221 0.264348 3.003740 0.001822 -0.006105 -37556.900000 1 0 0
4.038475 3.512574 -10.618600 11.891263 0.715864 2.674708 -0.002163 0.001543 977669.000000 1 0 0
2.842475 3.296474 3.352800 5.494331 0.859218 0.914447 -0.005266 -0.000438 198622.000000 1 0 0
-5.369525 0.897174 2.590100 6.028709 -0.165557 1.126716 0.000822 -0.002021 1707120.000000 1 0 0
-9.419725 -9.416226 5.670600 14.475919 0.785212 1.168289 0.008319 0.001973 -1615220.000000 1 0 0
-3.136325 3.840374 -0.638000 4.999205 -0.885972 1.698766 -0.002611 -0.002253 -1143640.000000 1 0 0
-15.826325 -6.438826 4.894800 17.773297 0.386391 1.291789 0.034972 -0.012596 749313.000000 1 0 0
1.060675 6.732374 -8.059300 10.554724 1.414532 2.439624 0.001850 -0.002543 231954.000000 1 0 0
-1.552525 6.502374 -9.467000 11.589447 -1.336422 2.526749 -0.000033 -0.001507 1628440.000000 1 0 0
2.023075 -0.329126 5.270700 5.655213 -0.161273 0.370884 0.004143 -0.003835 3249210.000000 1 0 0
-3.358925 -0.546426 -6.323000 7.180619 0.161266 2.647849 0.003972 -0.007245 314716.000000 1 0 0
1.867875 -1.210226 -2.393800 3.268621 -0.574909 2.392574 0.003505 -0.002459 1301720.000000 1 0 0
2.446375 -8.670326 -7.626700 11.803637 -1.295790 2.273301 -0.001139 -0.000066 3110660.000000 1 0 0
-2.479025 14.029474 -5.601900 15.308592 -1.395901 1.945430 0.003395 0.001144 2533810.000000 1 0 0
6.906775 -5.108126 -8.159600 11.848020 -0.636800 2.330476 0.001161 -0.004968 1904140.000000 1 0 0
-14.249325 -4.977126 -2.265500 15.262618 0.336041 1.719781 0.017725 -0.005146 -222270.000000 1 0 0
-2.715225 6.926074 -6.799400 10.078432 -1.197180 2.311285 0.000363 -0.001337 -1360800.000000 1 0 0
-5.579125 -1.052826 -8.170600 9.949562 0.186515 2.534311 0.012876 -0.008663 -541883.000000 1 0 0
-5.710625 -10.620826 3.432900 12.537862 1.077460 1.293452 0.003313 0.001493 -1209600.000000 1 0 0
8.036075 -7.490326 6.716500 12.876135 -0.750263 1.022043 -0.000702 -0.002431 588653.000000 1 0 0
8.725975 -6.039326 13.259400 16.983162 -0.605410 0.674950 0.009762 -0.003971 -77832.400000 1 0 0
-4.767325 9.588074 -0.738600 10.733316 -1.109380 1.639665 0.001016 0.001667 1473350.000000 1 0 0
2.729075 6.532774 12.147600 14.060198 1.175081 0.527694 0.001664 -0.002097 1463570.000000 1 0 0
6.015375 -2.790926 10.912200 12.769108 -0.434407 0.546058 -0.002674 -0.002796 375761.000000 1 0 0
-9.742925 -6.468526 -1.219100 11.758087 0.586099 1.674665 0.005922 -0.002861 -285293.000000 1 0 0
0.963775 -13.282326 6.236800 14.705330 -1.498363 1.132808 0.008170 -0.003836 784318.000000 1 0 0
-0.564925 -3.047326 8.598600 9.140091 1.387494 0.345942 0.005060 -0.004224 1569760.000000 1 0 0
4.211375 0.809374 3.458200 5.509076 0.189872 0.892166 -0.001652 -0.001858 2362460.000000 1 0 0
-10.340225 5.616274 8.295900 14.397386 -0.497567 0.956714 -0.006228 -0.005244 -527888.000000 1 0 0
9.333875 7.915174 0.062200 12.238263 0.703335 1.565714 0.002941 -0.003617 844103.000000 1 0 0
4.277175 2.896174 8.178200 9.672901 0.595207 0.563341 -0.003507 -0.002748 3217450.000000 1 0 0
1.311275 2.580774 -9.714900 10.137017 1.100695 2.851995 0.001341 -0.003266 1864900.000000 1 0 0
-1.357325 -10.228326 3.086400 10.769719 1.438865 1.280140 0.007059 -0.000848 -2686220.000000 1 0 0
-9.969625 9.613974 9.091700 16.567466 -0.767240 0.989906 0.001894 -0.007118 1061070.000000 1 0 0
9.785175 -2.027626 -7.603300 12.556715 -0.204322 2.221211 0.010541 -0.004048 -211640.000000 1 0 0
-5.270625 -1.894926 6.625500 8.675683 0.345136 0.701792 0.002845 -0.002330 2485300.000000 1 0 0
3.182375 -7.854226 -4.893600 9.785893 -1.185832 2.094472 -0.002052 -0.001344 1553690.000000 1 0 0
-4.992125 4.863774 -13.091700 14.831393 -0.772376 2.652378 0.000761 -0.010566 3561920.000000 1 0 0
-5.707925 9.572974 5.445500 12.404665 -1.033136 1.116324 0.001232 -0.000184 3099900.000000 1 0 0
-0.449025 -1.729926 -9.380000 9.548752 1.316838 2.953311 0.001936 -0.004030 314397.000000 1 0 0
-16.763325 0.197174 6.285200 17.903957 -0.011762 1.212103 0.013761 -0.009204 -1246880.000000 1 0 0
-5.985325 -2.906826 3.997500 7.762329 0.452109 1.029804 -0.002939 -0.001187 2680250.000000 1 0 0
0.993675 -5.760726 -5.098000 7.756478 -1.399986 2.287970 0.001347 -0.001022 2203410.000000 1 0 0
-7.010625 1.472774 -8.520100 11.131488 -0.207066 2.442467 0.003719 -0.005849 690553.000000 1 0 0
8.004075 1.955774 4.704200 9.487875 0.239651 1.052027 -0.000584 -0.003184 -107179.000000 1 0 0
0.460775 -8.127626 -0.493300 8.155609 -1.514164 1.631319 0.001816 -0.001342 594306.000000 1 0 0
5.398975 5.479374 -3.380800 8.402517 0.792789 1.984885 0.001129 -0.001819 -76617.500000 1 0 0
-0.767825 -0.363726 -1.200400 1.470650 0.442395 2.525665 0.002190 -0.002800 1216640.000000 1 0 0
9.052275 6.369474 -6.311700 12.741721 0.613160 2.089042 0.002675 -0.006641 570878.000000 1 0 0
-14.998425 -7.053726 2.312000 16.734788 0.439605 1.432198 0.025491 -0.010078 1921680.000000 1 0 0
-6.448425 6.877374 8.932100 12.987027 -0.817576 0.812382 0.000038 -0.002697 218054.000000 1 0 0
-9.377125 -3.098826 -9.696800 13.840560 0.319168 2.347045 0.011198 -0.005344 1244410.000000 1 0 0
14.895175 3.494574 -1.126000 15.340997 0.230443 1.644260 0.006862 -0.000625 -242472.000000 1 0 0
12.062475 1.671674 -5.623900 13.413652 0.137708 2.003434 0.009970 -0.004818 37234.400000 1 0 0
1.719275 -9.326126 12.679000 15.833180 -1.388493 0.642189 -0.010458 -0.004083 945052.000000 1 0 0
-3.680525 6.286174 7.879500 10.730739 -1.041110 0.746173 0.001544 0.000157 1773990.000000 1 0 0
-4.032425 13.118774 -12.481800 18.551496 -1.272584 2.308809 0.007651 -0.002243 1182980.000000 1 0 0
-10.300125 7.870174 6.458700 14.482645 -0.652455 1.108548 -0.004814 -0.004549 1863190.000000 1 0 0
8.111875 -9.257826 -7.188100 14.254075 -0.851277 2.099349 0.007858 -0.001542 830350.000000 1 0 0
5.805575 -3.780426 -0.295400 6.934233 -0.577198 1.613409 0.004429 -0.004980 -1541840.000000 1 0 0
-1.601725 -4.414726 4.114300 6.243620 1.222752 0.851360 0.002525 -0.002433 677986.000000 1 0 0
9.874975 -1.962526 -2.596800 10.397597 -0.196181 1.823218 0.002726 -0.004771 -3658550.000000 1 0 0
13.466775 7.082574 1.557800 15.295216 0.484175 1.468771 0.003886 -0.002578 1096330.000000 1 0 0
5.445875 -3.729626 -3.247400 7.356173 -0.600488 2.028013 0.001908 -0.004918 -2254020.000000 1 0 0
-12.194925 -6.017126 1.826800 13.720758 0.458364 1.437258 0.008889 -0.003044 1053000.000000 1 0 0
3.672475 -5.750226 -0.239100 6.827103 -1.002430 1.605826 0.005237 -0.004701 -621781.000000 1 0 0
-5.096325 3.759074 -8.707200 10.766545 -0.635521 2.512782 0.003161 -0.007138 319134.000000 1 0 0
-1.806625 -9.207926 7.150100 11.797191 1.377054 0.919667 0.001969 -0.001116 2019590.000000 1 0 0
-7.353825 -7.492626 2.554500 10.804797 0.794747 1.332114 0.009367 -0.001550 -4371940.000000 1 0 0
-5.678125 13.110374 -8.582900 16.667009 -1.162084 2.111761 0.003878 -0.005248 1008070.000000 1 0 0
9.249975 -13.834826 -4.133200 17.147822 -0.981456 1.814227 0.019989 0.002797 14629.700000 1 0 0
-6.506525 -5.160226 -6.753000 10.703541 0.670510 2.253525 0.014974 -0.006823 1434060.000000 1 0 0
3.398075 0.326874 -6.154400 7.037784 0.095899 2.635159 -0.000710 -0.004590 1629690.000000 1 0 0
-3.618725 5.732274 4.983300 8.413526 -1.007687 0.936890 0.002136 0.002408 -488992.000000 1 0 0
-2.639225 -10.833826 -2.865300 11.512916 1.331841 1.822317 0.008514 -0.000085 1366590.000000 1 0 0
-12.590025 -0.439326 1.684800 12.709850 0.034881 1.437846 0.000103 -0.003225 676321.000000 1 0 0
8.434875 -12.016126 -6.110200 15.901854 -0.958754 1.965186 0.015870 -0.000823 -406255.000000 1 0 0
6.101675 3.992174 0.968400 7.355657 0.579375 1.438759 0.000853 -0.003834 -398475.000000 1 0 0
3.423275 -4.842226 -10.925900 12.431462 -0.955412 2.644329 -0.000287 -0.003057 -495922.000000 1 0 0
-7.740925 4.317374 8.582100 12.337507 -0.508761 0.801527 -0.006785 0.001590 2871990.000000 1 0 0
8.099375 8.744874 4.068200 12.594561 0.823701 1.241885 -0.001476 -0.001660 1793770.000000 1 0 0
0.206975 10.602374 -6.291100 12.330090 1.551277 2.106241 -0.002203 0.002212 2204940.000000 1 0 0
5.313675 8.099274 3.310700 10.236900 0.990167 1.241467 -0.002084 -0.000864 3085320.000000 1 0 0
8.030275 6.583974 -3.707800 11.026415 0.686754 1.913745 0.004305 -0.005404 664765.000000 1 0 0
10.503275 2.563574 -8.134500 13.529996 0.239393 2.215823 0.003815 -0.004832 1354340.000000 1 0 0
3.388075 -12.512626 -0.300500 12.966694 -1.306365 1.593973 0.006049 -0.002978 -1434450.000000 1 0 0
0.604675 2.124174 5.232000 5.679047 1.293468 0.399434 0.002730 -0.002739 847444.000000 1 0 0
-4.864925 13.519974 1.408900 14.437527 -1.225389 1.473055 0.004477 -0.003347 1820050.000000 1 0 0
8.174275 4.076674 -8.014900 12.152229 0.462623 2.291005 -0.002542 0.000349 1088200.000000 1 0 0
-13.850025 -0.573426 -3.600400 14.321832 0.041379 1.824915 0.003480 -0.002399 867461.000000 1 0 0
-8.574925 -0.059026 -0.566100 8.593793 0.006883 1.636717 -0.001005 -0.003613 -260601.000000 1 0 0
1.752375 -3.907426 -1.057000 4.410901 -1.149213 1.812785 0.005031 -0.002787 342258.000000 1 0 0
8.062275 -5.597226 -0.264400 9.818306 -0.606856 1.597729 0.002507 -0.005610 4357560.000000 1 0 0
-2.430325 -1.119726 7.355500 7.827110 0.431742 0.348908 0.008049 -0.003986 1743390.000000 1 0 0
-5.770125 8.742674 -11.732000 15.727953 -0.987427 2.412731 0.001988 -0.006850 8146.600000 1 0 0
-6.084925 9.166574 -8.927900 14.168973 -0.984769 2.252481 -0.000391 0.000549 207864.000000 1 0 0
-1.531125 13.993274 -8.447800 16.417107 -1.461811 2.111306 0.009268 -0.000408 -1315620.000000 1 0 0
-1.538725 7.216174 9.715600 12.199743 -1.360710 0.649515 -0.001219 -0.002410 -194851.000000 1 0 0
9.988275 2.296974 -3.925700 10.975102 0.226037 1.936591 0.004946 -0.005225 -2047830.000000 1 0 0
-2.929625 -7.488426 -6.885100 10.586020 1.197881 2.278901 0.006880 -0.001752 3739960.000000 1 0 0
-5.551925 -4.971226 -1.660100 7.634978 0.730271 1.789981 0.007644 -0.002471 1388710.000000 1 0 0
5.702475 7.366474 -8.788500 12.807064 0.912041 2.327080 -0.001756 -0.000834 1100900.000000 1 0 0
-9.564925 5.218974 -7.569800 13.267530 -0.499487 2.177973 0.003292 -0.001214 1936660.000000 1 0 0
-0.471025 6.162774 -5.381200 8.195057 -1.494514 2.287151 -0.000106 -0.001045 -1443210.000000 1 0 0
-8.206825 2.871074 -6.405700 10.799446 -0.336532 2.205763 0.003004 -0.001095 941990.000000 1 0 0
3.596775 1.391674 -1.951600 4.322302 0.369182 2.039263 -0.001235 -0.003936 1403420.000000 1 0 0
-6.655125 12.474974 -3.502300 14.566460 -1.080726 1.813611 0.007461 0.003055 1223350.000000 1 0 0
-6.599425 3.118474 -2.377400 7.676543 -0.441437 1.885670 -0.000372 -0.000563 -1195600.000000 1 0 0
12.101775 4.019574 -0.777200 12.775523 0.320683 1.631669 0.004681 -0.005617 1374910.000000 1 0 0
2.253275 12.342474 -5.403300 13.660511 1.390222 1.977454 0.002286 -0.004094 447104.000000 1 0 0
-9.212225 -1.426926 -4.360400 10.291467 0.153674 2.008312 0.003610 -0.003015 -720403.000000 1 0 0
-1.156625 5.744674 3.490300 6.820649 -1.372114 1.033604 -0.001775 0.000005 769899.000000 1 0 0
11.468775 2.738574 11.991300 16.817368 0.234396 0.776985 0.020677 0.001805 -53645.700000 1 0 0
-7.013825 -2.330826 -5.831300 9.414380 0.320837 2.238779 0.012184 -0.006397 -53181.600000 1 0 0
7.432675 -7.428026 10.884500 15.129196 -0.785085 0.767805 0.006288 -0.001303 -1553180.000000 1 0 0
-5.437825 -1.905226 -11.018200 12.433847 0.337000 2.659757 0.011049 -0.006175 -1174480.000000 1 0 0
0.830075 -6.221826 4.328000 7.624417 -1.438166 0.967148 0.002238 -0.002269 2274380.000000 1 0 0
-4.825325 -9.398126 7.345700 12.867317 1.096459 0.963218 0.002930 -0.001270 1051820.000000 1 0 0
-8.810725 9.402574 1.665500 12.992735 -0.817882 1.442256 0.003093 0.001185 1010640.000000 1 0 0
-8.047225 7.123974 -9.098300 14.081473 -0.724618 2.273284 0.001315 -0.003454 1783200.000000 1 0 0
-1.261825 -10.725226 -0.030500 10.799241 1.453685 1.573621 0.007478 -0.001306 74865.700000 1 0 0
-4.036425 10.321874 7.747700 13.522598 -1.198025 0.960702 0.002516 0.001348 712177.000000 1 0 0
-7.504725 12.066174 2.007000 14.350662 -1.014383 1.430482 0.000451 -0.004712 1254410.000000 1 0 0
-8.228625 -8.254926 -2.895200 12.009840 0.786994 1.814264 0.010598 -0.003204 -959657.000000 1 0 0
5.362075 4.581474 -8.075700 10.721879 0.707056 2.423707 -0.000147 0.001483 272247.000000 1 0 0
-8.842725 -0.141026 -10.265400 13.549616 0.015947 2.430448 0.010004 -0.006377 212623.000000 1 0 0
-15.248025 -2.275926 -1.593200 15.499044 0.148167 1.673772 0.012530 -0.005943 870325.000000 1 0 0
-7.235825 -5.823426 8.694900 12.722843 0.677664 0.818375 0.005542 -0.001700 -260950.000000 1 0 0
8.100475 3.524074 -0.961900 8.886059 0.410348 1.679257 0.003782 -0.005135 171777.000000 1 0 0
11.843875 7.185474 -5.722500 14.988510 0.545319 1.962531 0.003238 -0.010141 752737.000000 1 0 0
3.733175 13.229974 -9.447800 16.680220 1.295771 2.172936 0.005433 -0.009814 646327.000000 1 0 0
-9.781925 5.459174 -0.546800 11.215508 -0.509032 1.619570 -0.002571 0.001631 1729190.000000 1 0 0
11.221575 -1.294526 -5.159800 12.418659 -0.114853 1.999275 0.014250 -0.005313 -641134.000000 1 0 0
10.531575 1.713974 -1.105100 10.727210 0.161332 1.673998 0.005355 -0.005589 978235.000000 1 0 0
14.579475 5.105874 4.819800 16.182136 0.336862 1.268360 0.015197 -0.008734 1442650.000000 1 0 0
0.889575 -0.790926 10.217300 10.286405 -0.726763 0.115980 0.006684 -0.004362 3491750.000000 1 0 0
-7.888725 1.387674 -12.657500 14.978983 -0.174125 2.577394 0.006080 -0.006438 -575174.000000 1 0 0
3.233175 -11.591526 -7.774700 14.326997 -1.298784 2.144398 0.000072 0.000261 634567.000000 1 0 0
2.845275 4.948974 -6.701000 8.802916 1.049020 2.435996 0.001245 0.001136 -975582.000000 1 0 0
6.449375 7.953974 0.554000 10.255099 0.889482 1.516748 0.000874 -0.004301 -143956.000000 1 0 0
-9.090825 -5.454926 6.638500 12.508757 0.540454 1.011360 0.002639 -0.000853 -2709090.000000 1 0 0
-0.234625 -6.904426 -11.784900 13.660527 1.536828 2.611376 0.004485 0.003125 2209510.000000 1 0 0
6.493475 -13.340626 -4.610000 15.536718 -1.117809 1.872049 0.014984 0.000712 3445830.000000 1 0 0
-3.437025 -0.437726 9.962500 10.547803 0.126674 0.334698 0.005015 -0.000503 -1352190.000000 1 0 0
8.548475 8.524474 7.040900 13.975599 0.783992 1.042805 -0.000411 -0.001428 -2164430.000000 1 0 0
-7.989625 5.657174 -2.749900 10.168563 -0.616118 1.844638 0.001588 0.000054 992126.000000 1 0 0
-5.401125 5.832474 -6.475000 10.252586 -0.823777 2.254344 0.000137 -0.000697 -1355500.000000 1 0 0
3.360675 -13.689826 2.550200 14.325118 -1.330070 1.391819 0.015488 -0.007823 -1741660.000000 1 0 0
-11.275925 -7.076426 6.447800 14.791768 0.560445 1.119753 0.012550 -0.003901 85645.800000 1 0 0
-12.849325 -3.670126 -6.927200 15.051945 0.278220 2.049039 0.011742 -0.004120 295799.000000 1 0 0
6.010675 0.307974 -7.200400 9.384499 0.051193 2.445362 0.000152 -0.000628 -905386.000000 1 0 0
-1.421425 2.174374 -2.473700 3.587136 -0.991813 2.331737 -0.000093 -0.002459 2629800.000000 1 0 0
7.509375 0.916474 -4.865900 8.994867 0.121443 2.142379 0.002911 -0.003032 460145.000000 1 0 0
3.655075 -4.489726 10.824800 12.275729 -0.887518 0.491120 -0.002134 -0.000243 129525.000000 1 0 0
5.965075 -2.559126 2.063400 6.810938 -0.405269 1.263006 0.003397 -0.005706 -1108130.000000 1 0 0
-6.293325 7.821874 1.181500 10.108590 -0.893269 1.453648 -0.000575 0.000745 1652920.000000 1 0 0
6.120375 -3.419526 7.951600 10.600948 -0.509507 0.722607 -0.000276 -0.004496 2628490.000000 1 0 0
6.779775 -2.300026 -7.777700 10.571097 -0.327064 2.397572 0.001105 -0.004165 363550.000000 1 0 0
12.095375 -8.090726 -5.818900 15.672190 -0.589555 1.951192 0.023606 -0.007419 140829.000000 1 0 0
5.543475 -9.579326 9.904600 14.852431 -1.046192 0.840800 -0.001255 0.001838 1877540.000000 1 0 0
-6.617525 7.548974 -4.479800 10.993055 -0.851054 1.990524 0.000971 0.000081 831505.000000 1 0 0
-1.325825 -7.512226 9.697200 12.338032 1.396106 0.666549 0.001054 -0.004801 -1356220.000000 1 0 0
10.094775 -9.187726 0.764700 13.671268 -0.738393 1.514832 -0.001509 -0.002107 172328.000000 1 0 0
11.059175 6.184874 9.747300 15.986491 0.509919 0.915088 0.008410 -0.002382 3119790.000000 1 0 0
-15.263425 -4.184826 -5.056000 16.614693 0.267598 1.880009 0.016971 -0.011160 2641110.000000 1 0 0
-4.770325 -4.641526 7.817000 10.266706 0.771714 0.705337 0.002540 -0.002393 -373100.000000 1 0 0
2.984875 10.903874 -11.114300 15.853442 1.303598 2.347687 0.001835 0.000725 -2013010.000000 1 0 0
9.937775 -1.321326 1.626400 10.156302 -0.132185 1.409967 0.001558 -0.003978 -286338.000000 1 0 0
-1.617725 -2.624626 0.590600 3.139188 1.018431 1.381531 0.000956 -0.002751 -411062.000000 1 0 0
1.590275 3.028974 0.871900 3.530421 1.087333 1.321246 -0.005571 -0.001076 -1540940.000000 1 0 0
-8.993025 -2.441426 4.225500 10.231808 0.265091 1.145076 -0.000885 -0.001986 3393780.000000 1 0 0
9.934775 4.826174 -2.670300 11.363196 0.452212 1.808010 0.003662 -0.005088 1892370.000000 1 0 0
2.531875 8.493874 2.558900 9.225197 1.281100 1.289729 -0.004398 -0.000770 -57393.500000 1 0 0
-8.177425 -0.129026 2.402000 8.523880 0.015777 1.285130 -0.003314 -0.003796 425609.000000 1 0 0
6.945075 2.054674 13.653900 15.455897 0.287642 0.487705 -0.004422 0.002599 -365022.000000 1 0 0
6.769075 4.397674 3.727800 8.891367 0.576144 1.138166 -0.003232 -0.003436 438339.000000 1 0 0
-0.332725 3.367774 7.747700 8.454553 -1.472319 0.411820 0.004085 -0.003714 200817.000000 1 0 0
2.653275 -10.264226 9.198700 14.036035 -1.317836 0.856133 -0.002967 -0.004447 1521230.000000 1 0 0
1.316275 -4.559226 6.738200 8.241509 -1.289733 0.613578 0.000686 -0.003871 1909900.000000 1 0 0
-0.172025 10.846374 -1.943600 11.020481 -1.554938 1.748086 -0.000486 -0.002673 1815400.000000 1 0 0
8.761175 5.549074 7.982900 13.087288 0.564596 0.914769 -0.001959 -0.001717 -984956.000000 1 0 0
2.653675 11.385874 -2.852500 12.033988 1.341817 1.810111 0.003637 -0.007077 2107070.000000 1 0 0
1.447375 2.342674 -6.651600 7.199083 1.017369 2.749080 -0.001560 -0.001965 1797700.000000 1 0 0
-13.607325 -2.190726 3.527000 14.226675 0.159626 1.320269 0.005788 -0.003645 2026700.000000 1 0 0
-0.897425 -10.643526 -5.290900 11.919884 1.486679 2.030711 0.005905 -0.000670 238226.000000 1 0 0
-5.694525 2.829674 0.390000 6.370774 -0.461174 1.509541 0.001046 -0.001601 230970.000000 1 0 0
3.683275 7.270074 -5.026800 9.575448 1.101855 2.123473 0.001795 -0.002969 -1414210.000000 1 0 0
2.957275 9.772274 -6.469500 12.087069 1.276939 2.135590 0.003416 -0.002514 1997880.000000 1 0 0
-12.145425 1.654274 -2.589600 12.528128 -0.135373 1.779000 0.000312 -0.001662 706967.000000 1 0 0
-2.593525 9.611274 -5.757400 11.500027 -1.307232 2.095137 -0.004875 0.002065 1454240.000000 1 0 0
-1.345325 3.405874 1.651200 4.017006 -1.194607 1.147188 -0.002527 -0.000104 -602721.000000 1 0 0
12.804775 3.810674 9.698200 16.508743 0.289252 0.942882 0.027690 -0.003068 640916.000000 1 0 0
-2.567225 -9.483526 11.627100 15.222265 1.306429 0.701582 -0.000290 -0.009618 677580.000000 1 0 0
-0.418825 -8.911326 -7.456900 11.627231 1.523832 2.267028 0.004999 0.000763 291104.000000 1 0 0
2.295275 7.703874 -0.511500 8.054787 1.281233 1.634342 -0.002303 -0.000904 2835590.000000 1 0 0
-11.875125 -1.351426 -5.624900 13.209256 0.113316 2.010676 0.006063 0.000536 -169355.000000 1 0 0
-6.164525 -7.223826 -11.004400 14.535537 0.864355 2.429611 0.011433 -0.000803 3192930.000000 1 0 0
-4.733325 -2.240926 -1.451700 5.434477 0.442171 1.841208 0.004739 -0.003853 -386874.000000 1 0 0
-10.458625 3.666074 4.490700 11.957814 -0.337148 1.185811 -0.002746 -0.003337 3985650.000000 1 0 0
6.750775 9.230174 -3.557100 11.975894 0.939318 1.872368 0.000223 -0.003242 703193.000000 1 0 0
1.291075 -2.732526 -11.501800 11.892223 -1.129403 2.884644 0.001756 -0.003816 -2113910.000000 1 0 0
1.246275 8.766474 7.592600 11.664127 1.429579 0.861980 -0.005584 0.003381 1414570.000000 1 0 0
10.329275 0.485174 10.425800 14.684231 0.046936 0.781298 -0.001099 0.000169 553198.000000 1 0 0
-5.262825 -0.818626 -3.962000 6.638141 0.154312 2.210371 0.007521 -0.006006 679984.000000 1 0 0
11.665175 5.696274 5.429700 14.071443 0.454256 1.174649 0.009063 -0.004840 2160710.000000 1 0 0
9.920575 -3.401226 3.741900 11.134989 -0.330287 1.228078 0.007804 -0.005564 -1345280.000000 1 0 0
7.273275 -1.638526 -3.342600 8.170574 -0.221581 1.992266 0.003751 -0.003857 -2879290.000000 1 0 0
2.291575 9.211374 10.486300 14.144371 1.326969 0.735678 -0.004064 0.000190 1689080.000000 1 0 0
2.456975 -10.828526 6.306000 12.769469 -1.347676 1.054303 -0.000875 -0.001636 1579470.000000 1 0 0
5.906375 -7.548026 -1.205300 9.659747 -0.906814 1.695898 0.002963 -0.005191 2326610.000000 1 0 0
-0.331425 -5.694726 -2.294600 6.148572 1.512663 1.953244 0.002929 -0.000571 722783.000000 1 0 0
7.746375 -5.027726 2.654200 9.608805 -0.575702 1.290931 0.002206 -0.005926 1156420.000000 1 0 0
-2.684925 -12.578426 4.742300 13.708210 1.360498 1.217550 0.005541 0.001939 -100749.000000 1 0 0
4.880475 -10.285926 -1.138300 11.441811 -1.127772 1.670447 0.006585 -0.005846 710263.000000 1 0 0
0.983775 0.183674 1.145300 1.520941 0.184578 0.718156 -0.002640 -0.001980 -1475010.000000 1 0 0
-1.592325 8.618274 2.474800 9.106854 -1.388095 1.295584 -0.003371 0.003343 -413841.000000 1 0 0
-7.507425 0.647874 -3.102000 8.148838 -0.086085 1.961315 0.000863 -0.002051 -320467.000000 1 0 0
4.374775 -6.321626 12.880300 15.000125 -0.965437 0.538109 0.004219 -0.002939 -1369710.000000 1 0 0
-5.139525 13.090074 8.444400 16.403434 -1.196662 1.030028 0.007333 -0.004211 1068930.000000 1 0 0
0.646475 6.102574 8.192500 10.236034 1.465255 0.642903 -0.001272 0.001498 731769.000000 1 0 0
7.963875 -0.543226 -0.676400 8.010988 -0.068106 1.655331 0.004350 -0.005090 4335110.000000 1 0 0
2.456875 -9.248026 -2.410800 9.867835 -1.311129 1.817603 0.000666 -0.002316 2471480.000000 1 0 0
-7.133325 12.176274 4.886000 14.933820 -1.040855 1.237482 0.003039 -0.003744 258039.000000 1 0 0
-15.013125 0.206474 0.128100 15.015091 -0.013752 1.562265 0.003747 -0.003986 1685780.000000 1 0 0
6.852875 -0.512026 3.899000 7.901030 -0.074578 1.054710 0.001659 -0.003417 271590.000000 1 0 0
-4.201425 -5.032126 5.099700 8.305492 0.875122 0.909658 0.003871 -0.001535 1229460.000000 1 0 0
2.898175 5.159174 6.851100 9.052849 1.058975 0.712409 -0.005597 -0.000375 -498429.000000 1 0 0
2.113775 -7.275326 1.784600 7.783522 -1.288041 1.339459 0.001323 -0.002816 2233090.000000 1 0 0
-2.490025 6.439874 -1.700300 7.110782 -1.201845 1.812251 -0.000955 0.001031 387680.000000 1 0 0
2.656675 -3.863926 -6.613600 8.107253 -0.968469 2.524844 -0.002963 -0.003177 -169841.000000 1 0 0
-5.095425 0.914474 -12.283300 13.329631 -0.177579 2.742730 0.003186 -0.005600 9462.200000 1 0 0
-7.445925 6.360574 -11.992200 15.482621 -0.706948 2.456814 0.002770 -0.010509 2276140.000000 1 0 0
-0.990025 11.162074 -9.036700 14.395624 -1.482332 2.249442 0.001009 0.000364 1416170.000000 1 0 0
4.513075 5.861074 -0.618200 7.423086 0.914612 1.654174 -0.000208 -0.003469 -311351.000000 1 0 0
-2.722825 13.406974 3.506400 14.122874 -1.370431 1.319894 0.002617 0.000095 989975.000000 1 0 0
1.435775 -7.913626 10.078500 12.894305 -1.391318 0.673531 -0.004490 -0.001111 -1303710.000000 1 0 0
12.936075 -0.215126 -1.057600 12.981019 -0.016628 1.652360 0.006857 -0.005308 -202169.000000 1 0 0
-1.077925 3.149074 -5.390700 6.335474 -1.240999 2.588446 0.000461 -0.005922 708435.000000 1 0 0
6.544175 1.130374 7.271300 9.847628 0.171042 0.740130 -0.003161 -0.002233 269157.000000 1 0 0
5.490075 -6.079526 6.857500 10.683018 -0.836302 0.873814 -0.002629 -0.000906 1016330.000000 1 0 0
12.193275 -4.842126 2.664200 13.387312 -0.378016 1.370449 0.004902 -0.002983 -671158.000000 1 0 0
4.418975 -9.128826 13.879700 17.190372 -1.119975 0.631045 0.004856 -0.004644 -177456.000000 1 0 0
-2.771325 -4.319126 -1.441700 5.330440 1.000320 1.844673 0.006553 -0.003819 958832.000000 1 0 0
-9.276225 -5.110426 -7.636500 13.056834 0.503547 2.195511 0.014165 -0.005360 1101770.000000 1 0 0
-10.662125 -3.143726 7.764800 13.559352 0.286725 0.961058 -0.000939 -0.000511 637002.000000 1 0 0
12.075275 -0.592326 1.726700 12.212478 -0.049013 1.428933 0.004372 -0.004354 -920134.000000 1 0 0
-7.588225 4.696474 4.364900 9.934303 -0.554212 1.115892 0.000398 -0.001247 2058780.000000 1 0 0
-1.096625 10.606474 6.978800 12.743764 -1.467770 0.991274 -0.005541 0.004909 3330910.000000 1 0 0
7.438275 -9.963326 1.896500 12.577461 -0.929497 1.419433 0.000464 -0.006089 2414740.000000 1 0 0
-4.293225 -1.695826 1.663000 4.906442 0.376189 1.225004 -0.000013 -0.000961 1730620.000000 1 0 0
6.806875 -14.982126 -0.940300 16.482773 -1.144345 1.627875 0.023657 -0.005034 -461762.000000 1 0 0
-10.456325 1.629174 2.299800 10.829497 -0.154565 1.356802 -0.003710 -0.000473 161842.000000 1 0 0
-2.990125 8.241374 -11.370600 14.357982 -1.222748 2.484769 -0.000529 -0.001355 -744596.000000 1 0 0
-1.232225 -5.079826 -6.923900 8.675448 1.332821 2.494936 -0.001002 -0.000885 -1740610.000000 1 0 0
12.847275 -0.419626 6.534000 14.419491 -0.032651 1.100515 0.017145 -0.006511 851221.000000 1 0 0
6.013575 -13.258826 3.695600 15.020553 -1.144992 1.322208 0.007331 -0.003988 1345350.000000 1 0 0
-5.602125 3.498574 -4.990700 8.278340 -0.558246 2.217880 0.001968 -0.004636 1475800.000000 1 0 0
-4.333625 8.075574 3.367700 9.764046 -1.078273 1.218655 0.000359 0.002102 -181400.000000 1 0 0
14.086875 6.126974 -3.921500 15.854275 0.410261 1.820737 0.022231 -0.009237 -358088.000000 1 0 0
-6.708825 -8.474026 5.297400 12.036606 0.901141 1.115078 0.008085 -0.000025 1532080.000000 1 0 0
1.686675 11.393374 2.764700 11.844721 1.423824 1.335211 -0.004419 -0.000853 2319820.000000 1 0 0
-7.402025 7.245174 5.975200 11.957656 -0.774690 1.047548 0.000150 -0.003117 -180094.000000 1 0 0
-17.474925 -4.105026 5.149300 18.674569 0.230726 1.291438 0.034172 -0.011413 -489377.000000 1 0 0
7.565175 -13.099826 -8.573700 17.388089 -1.047084 2.086422 0.023431 -0.002868 -663850.000000 1 0 0
-2.301825 12.857174 -2.789600 13.356167 -1.393643 1.781208 -0.002028 0.001191 537052.000000 1 0 0
-5.488525 13.944074 -5.827000 16.078403 -1.195811 1.941650 0.009684 0.002284 2678930.000000 1 0 0
-5.702125 2.535374 7.454900 9.722031 -0.418385 0.696948 0.003619 -0.001650 1801870.000000 1 0 0
-7.475025 5.156674 1.395400 9.187732 -0.603884 1.418330 -0.000743 0.000075 2343770.000000 1 0 0
10.813875 -5.639626 -5.056700 13.202859 -0.480713 1.963838 0.008244 -0.006003 4187510.000000 1 0 0
-9.566525 -0.772326 6.670600 11.688104 0.080557 0.963418 -0.006387 -0.000696 771488.000000 1 0 0
-11.381125 -4.574826 -2.679600 12.555448 0.382200 1.785872 0.006473 -0.005930 -1391890.000000 1 0 0
6.477575 -4.367126 13.500300 15.597720 -0.593194 0.524588 0.004801 -0.005401 -1565840.000000 1 0 0
0.300475 10.110374 -11.667700 15.441670 1.541086 2.427363 -0.000137 0.001378 -187696.000000 1 0 0
-11.788425 -3.221526 1.392100 12.299721 0.266765 1.457372 0.006319 -0.004022 2757390.000000 1 0 0
5.208475 5.974674 5.445500 9.616570 0.853805 0.968832 -0.006472 -0.000242 -4096030.000000 1 0 0
-7.200725 0.026474 8.027200 10.783649 -0.003677 0.731181 -0.004053 0.000733 1474240.000000 1 0 0
1.774775 2.104874 9.536100 9.925600 0.870278 0.281074 0.007680 -0.005843 1666520.000000 1 0 0
10.560075 -4.857326 -2.068900 11.806318 -0.431115 1.746942 0.001465 -0.005680 1780500.000000 1 0 0
-9.730325 -2.425126 -1.720900 10.174574 0.244257 1.740751 0.002489 -0.003631 -834574.000000 1 0 0
-1.912225 -5.202626 -9.925000 11.367917 1.218573 2.632262 0.007432 -0.002700 1061460.000000 1 0 0
7.625775 -1.528626 6.547400 10.166494 -0.197833 0.871058 0.000713 -0.004923 2126990.000000 1 0 0
1.546475 -11.901826 -2.604400 12.281203 -1.441584 1.784483 0.006605 0.000214 -3520180.000000 1 0 0
-0.821125 -1.461726 4.816000 5.099485 1.058977 0.335004 0.007524 -0.004810 2704700.000000 1 0 0
7.589875 1.521174 9.867900 12.541756 0.197801 0.665183 -0.009096 -0.000001 1307980.000000 1 0 0
-3.767425 10.688674 -8.075500 13.915996 -1.231924 2.189898 -0.000517 0.003896 1088770.000000 1 0 0
-9.545025 12.627874 6.397800 17.073446 -0.923549 1.186699 -0.001879 -0.005336 2189560.000000 1 0 0
-2.503125 -2.413926 -11.143800 11.673772 0.767259 2.839115 0.006894 -0.006808 -1132490.000000 1 0 0
1.160675 -11.847426 11.151400 16.311419 -1.473139 0.818036 -0.010762 -0.004675 950947.000000 1 0 0
1.318975 3.435774 -1.940900 4.160689 1.204250 2.056109 -0.002429 -0.001195 526440.000000 1 0 0
-1.894725 -9.457326 -12.017700 15.409611 1.373069 2.465276 0.004358 0.002493 558526.000000 1 0 0
1.270775 -2.662426 1.635800 3.373311 -1.125473 1.064520 0.007376 -0.005618 2256820.000000 1 0 0
-0.960925 -2.146626 -6.626700 7.031680 1.149903 2.800550 0.001152 -0.006408 -1178700.000000 1 0 0
1.776275 5.854674 4.017500 7.319335 1.276228 0.989762 -0.007911 0.001965 -1104130.000000 1 0 0
-11.001425 8.619874 3.584000 14.428397 -0.664613 1.319769 -0.003106 -0.002773 2211040.000000 1 0 0
-16.444325 -1.596726 3.887300 16.972815 0.096795 1.339714 0.020973 -0.006769 14868.500000 1 0 0
-12.294525 0.203574 6.640500 13.974728 -0.016557 1.075629 -0.005988 0.001139 522269.000000 1 0 0
-5.186225 3.014174 4.687000 7.612499 -0.526473 0.907525 0.000143 0.000271 149856.000000 1 0 0
5.336175 -5.995326 3.987200 8.961945 -0.843502 1.109730 -0.003172 -0.005355 1522200.000000 1 0 0
9.910575 3.456674 6.249800 12.215896 0.335593 1.033736 0.001353 -0.002390 1082020.000000 1 0 0
-12.093725 5.813574 3.135000 13.779842 -0.448097 1.341280 -0.002160 -0.001453 1516740.000000 1 0 0
-4.851125 12.388174 -1.298200 13.367333 -1.197558 1.668067 -0.000935 0.002999 776345.000000 1 0 0
-1.707425 -12.109626 10.327000 16.006413 1.430722 0.869539 0.005851 -0.010807 855204.000000 1 0 0
5.166075 6.343974 13.901000 16.129853 0.887380 0.531953 0.004278 -0.001974 610075.000000 1 0 0
12.978875 -3.634826 -5.906800 14.715755 -0.273062 1.983833 0.011884 -0.006596 -20042.700000 1 0 0
3.567975 -2.558126 6.393100 7.755397 -0.622024 0.601757 -0.000816 -0.003567 1200720.000000 1 0 0
7.263475 -11.801926 -0.624600 13.872046 -1.019095 1.615837 0.008991 0.000158 -767692.000000 1 0 0
-6.147725 -6.521226 -4.098900 9.855044 0.814871 1.999749 0.009975 -0.003577 906623.000000 1 0 0
0.324975 -8.911226 5.050300 10.247980 -1.534344 1.055481 0.003444 -0.001853 823171.000000 1 0 0
-10.190025 2.440774 -0.403600 10.486032 -0.235097 1.609295 -0.003792 0.000389 -1895410.000000 1 0 0
-1.854225 9.000774 -0.297200 9.194586 -1.367631 1.603125 0.000542 0.001137 1408970.000000 1 0 0
-3.526025 2.318174 -6.628900 7.858059 -0.581593 2.574711 0.004839 -0.008696 -693962.000000 1 0 0
-12.690725 2.928874 6.337200 14.484229 -0.226817 1.117953 -0.005459 -0.004274 1176600.000000 1 0 0
11.381975 1.677874 7.967800 13.994658 0.146361 0.965086 0.009605 -0.009854 -1005720.000000 1 0 0
5.964675 2.673674 -3.197000 7.276448 0.421399 2.025685 -0.000025 -0.003177 734812.000000 1 0 0
10.515075 -2.296926 6.463300 12.554558 -0.215063 1.030002 0.012037 -0.005442 4024220.000000 1 0 0
-0.994125 11.071574 4.132000 11.859235 -1.481246 1.214911 -0.000521 0.002117 1867470.000000 1 0 0
-1.507625 -12.143626 7.428300 14.315035 1.447279 1.025214 0.002373 -0.000987 691697.000000 1 0 0
8.124975 8.624774 -7.797000 14.184328 0.815228 2.152791 -0.000507 -0.004878 1297840.000000 1 0 0
-4.641425 -5.942426 -8.728800 11.534609 0.907708 2.429121 0.011035 -0.003859 748118.000000 1 0 0
-8.509925 -5.238126 -11.646900 15.346239 0.551761 2.432483 0.015602 -0.002448 1614090.000000 1 0 0
6.048175 -0.708126 -9.828400 11.561977 -0.116550 2.586900 0.000355 0.000607 836209.000000 1 0 0
-11.187325 -5.431226 -5.486500 13.592503 0.451965 1.986290 0.006462 -0.008707 -1688120.000000 1 0 0
3.877475 8.890374 -2.762200 10.084806 1.159525 1.848239 0.004176 -0.006200 202878.000000 1 0 0
11.710475 -10.350326 -4.011400 16.135545 -0.723822 1.822038 0.019230 -0.002936 1205000.000000 1 0 0
3.960275 -11.259326 3.836400 12.536912 -1.232579 1.259799 0.004749 -0.002123 635561.000000 1 0 0
-1.018525 0.889574 3.205100 3.478707 -0.717920 0.399262 0.003913 -0.003932 -44659.800000 1 0 0
-10.614825 -5.146326 4.387800 12.586181 0.451434 1.214698 0.007010 -0.003838 3574640.000000 1 0 0
4.669975 -8.618026 2.798500 10.193657 -1.074205 1.292692 0.001342 -0.005135 4263620.000000 1 0 0
-3.728225 -5.698026 2.587700 7.284459 0.991403 1.207630 0.002157 -0.002154 2337830.000000 1 0 0
9.972875 5.196874 12.328900 16.687346 0.480385 0.739483 0.012252 0.002118 214065.000000 1 0 0
1.641775 -12.384126 -5.251400 13.551354 -1.438994 1.968735 0.004876 -0.000568 2423620.000000 1 0 0
9.902475 -10.648726 -1.668800 14.636915 -0.821694 1.685058 0.003764 -0.002774 452211.000000 1 0 0
9.611275 -4.499526 -9.170600 14.025771 -0.437845 2.283444 0.009880 -0.006224 -474986.000000 1 0 0
-7.426725 -3.028526 -13.161300 15.412593 0.387202 2.594291 0.011512 -0.001439 2376500.000000 1 0 0
0.361275 6.253674 -2.543700 6.760870 1.513090 1.956529 -0.001089 -0.000780 3374420.000000 1 0 0
-5.799025 -9.511626 0.930600 11.178807 1.023291 1.487453 0.006229 0.002448 929641.000000 1 0 0
-8.973025 -4.118026 0.466900 9.883891 0.430259 1.523540 0.002051 -0.003034 3066410.000000 1 0 0
1.791675 3.750274 12.074700 12.770005 1.125111 0.331511 0.007666 -0.006761 568505.000000 1 0 0
6.664975 4.329174 9.563600 12.434874 0.576052 0.693372 -0.006920 0.001356 1482110.000000 1 0 0
-8.244325 9.863874 -3.599800 13.350036 -0.874598 1.843823 0.003137 0.002942 3222850.000000 1 0 0
16.404675 2.222574 -5.993600 17.606148 0.134664 1.918167 0.030564 -0.006784 -422857.000000 1 0 0
-10.900625 2.616074 -5.098700 12.315202 -0.235538 1.997659 0.002647 0.001836 1059380.000000 1 0 0
-13.662825 3.965074 1.420900 14.297326 -0.282450 1.471250 -0.003856 0.000828 -687158.000000 1 0 0
-17.405225 10.531574 3.285200 20.607000 -0.544147 1.410692 0.031325 -0.004285 -396831.000000 1 0 0
-14.259125 2.853574 -1.218100 14.592782 -0.197514 1.654366 -0.001785 -0.000789 889446.000000 1 0 0
-14.409825 5.071374 5.041500 16.086597 -0.338401 1.252028 -0.004295 -0.003871 1827470.000000 1 0 0
-17.455725 7.626774 3.097600 19.299356 -0.411924 1.409596 0.017007 -0.001632 -1019170.000000 1 0 0
-15.191725 12.724874 -3.224300 20.077525 -0.697262 1.732087 0.053922 0.002137 -951672.000000 1 0 0
-8.454725 12.432574 -9.560300 17.817143 -0.973588 2.137174 0.011650 -0.015083 189760.000000 1 0 0
-12.336625 8.801874 -10.056700 18.187977 -0.619713 2.156674 0.014368 -0.002684 129657.000000 1 0 0
-13.837725 -3.481326 -12.329000 18.857531 0.246467 2.283388 0.024329 0.001200 -670431.000000 1 0 0
-14.756825 5.814274 -7.650700 17.609738 -0.375328 2.020233 0.022420 0.003977 -1177650.000000 1 0 0
-10.816025 13.558574 -8.432200 19.285313 -0.897444 2.023317 0.031417 -0.008203 740811.000000 1 0 0
-10.950125 13.475874 3.953500 17.808273 -0.888436 1.346927 0.006810 -0.007830 -1445020.000000 1 0 0
-15.212125 3.266874 2.948100 15.835798 -0.211542 1.383537 -0.003382 0.001374 -33904.000000 1 0 0
-11.064525 9.411174 -12.587100 19.220536 -0.704826 2.284817 0.016958 -0.017850 -269520.000000 1 0 0
-12.905925 11.616074 -9.206900 19.653577 -0.732847 2.058342 0.028886 -0.010279 -1079920.000000 1 0 0
-8.762625 14.555574 -3.293500 17.305937 -1.028899 1.762275 0.015551 -0.002559 1084930.000000 1 0 0
-16.751425 8.271874 -4.063600 19.119283 -0.458676 1.784969 0.027630 0.005407 -1429020.000000 1 0 0
-16.928125 6.688774 0.318700 18.204468 -0.376299 1.553289 0.014205 0.004970 -246606.000000 1 0 0
-10.426625 2.799974 -12.592900 16.587208 -0.262351 2.432869 0.011031 -0.007060 34291.800000 1 0 0
-16.901225 0.859474 2.204300 17.066020 -0.050809 1.441271 0.014664 -0.005306 -687223.000000 1 0 0
-12.610925 1.239974 -6.962200 14.458395 -0.098010 2.073200 0.008966 -0.002328 2889080.000000 1 0 0
-12.358925 9.159574 -5.521900 16.344179 -0.637800 1.915429 0.017545 0.006135 -951864.000000 1 0 0
-9.677325 13.826174 1.239800 16.921903 -0.960119 1.497465 0.019329 -0.012000 -552612.000000 1 0 0
-12.318625 11.052574 2.768800 16.780172 -0.731280 1.405034 0.008693 -0.004805 116568.000000 1 0 0
-12.566025 6.934474 -3.712800 14.824871 -0.504257 1.823935 0.004805 0.006936 -533967.000000 1 0 0
-15.763825 3.650574 -9.363700 18.695019 -0.227568 2.095395 0.027383 -0.007232 -572124.000000 1 0 0
-15.075225 5.898574 -4.669100 16.848029 -0.372963 1.851603 0.010241 0.007585 564813.000000 1 0 0
-17.919025 5.198774 7.484800 20.103257 -0.282374 1.189291 0.015083 -0.009889 -1818580.000000 1 0 0
-15.950925 10.174174 -1.939500 19.018609 -0.567781 1.672953 0.029126 0.005420 -265775.000000 1 0 0
-8.688925 9.883574 -8.366500 15.594254 -0.849633 2.137094 0.004383 -0.004913 388289.000000 1 0 0
-16.910725 4.165774 -1.309500 17.465425 -0.241530 1.645843 -0.000368 0.000377 -379911.000000 1 0 0
-10.277225 5.410974 -4.640500 12.507367 -0.484623 1.950905 0.000817 0.002738 385751.000000 1 0 0
-18.257925 2.790174 5.850300 19.374284 -0.151647 1.264046 0.025439 -0.008205 -285751.000000 1 0 0
-10.284525 10.174474 -5.764200 15.572969 -0.780019 1.949958 0.007644 0.003055 766494.000000 1 0 0
-15.369825 0.500074 -5.880400 16.463921 -0.032525 1.936031 0.007919 0.001084 960984.000000 1 0 0
-16.375225 -4.072326 -8.891800 19.073435 0.243744 2.055773 0.028208 -0.019093 -1038990.000000 1 0 0
-10.011025 9.588674 -1.106600 13.906396 -0.763853 1.650455 0.005271 0.001333 2649140.000000 1 0 0
-17.431125 -2.998426 -3.330100 17.997895 0.170349 1.756896 0.025939 -0.010244 -665076.000000 1 0 0
-11.913725 5.079774 -11.602600 17.388538 -0.403039 2.301314 0.014654 -0.007287 279560.000000 1 0 0
-16.361625 7.066174 5.830700 18.751817 -0.407679 1.254614 0.010976 -0.004889 -1539510.000000 1 0 0
-12.146825 6.070374 -8.901500 16.236733 -0.463447 2.151045 0.012153 -0.001511 1194110.000000 1 0 0
-14.602525 8.416874 -0.035100 16.854635 -0.522885 1.572879 0.013497 0.003202 472938.000000 1 0 0
-14.892225 11.893574 4.028900 19.479925 -0.673913 1.362470 0.014375 -0.008272 1198640.000000 1 0 0
-17.227825 4.088974 -4.072400 18.168712 -0.233035 1.796860 0.006678 -0.001378 -215549.000000 1 0 0
-13.865025 13.535274 -0.697400 19.388886 -0.773364 1.606773 0.034270 0.001033 766040.000000 1 0 0
-10.040925 6.846474 -13.149300 17.905263 -0.598445 2.395552 0.001694 -0.014569 657845.000000 1 0 0
-15.827025 -1.119826 -8.333200 17.921801 0.070636 2.054403 0.017508 -0.006318 -192745.000000 1 0 0
-11.517625 11.867174 -0.062500 16.537515 -0.800345 1.574576 0.020556 -0.003116 2295560.000000 1 0 0
-12.003025 7.388774 -0.950900 14.126953 -0.551794 1.638158 0.001704 0.006078 2083880.000000 1 0 0
-11.420825 0.144574 -11.812200 16.431196 -0.012658 2.372999 0.013119 -0.007717 686105.000000 1 0 0
-19.165125 -1.123926 -4.757100 19.778655 0.058577 1.813695 0.028958 -0.010494 -568197.000000 1 0 0
-17.948025 1.501274 -5.179900 18.740778 -0.083451 1.850840 0.009516 -0.001995 -1413830.000000 1 0 0
-13.266125 -0.051626 -9.569200 16.357332 0.003892 2.195688 0.013946 -0.005316 1058720.000000 1 0 0
-6.054525 11.135974 -13.263100 18.346035 -1.072810 2.378846 -0.005859 -0.009487 -691447.000000 1 0 0
16.387775 5.922274 7.051000 18.797583 0.346780 1.186290 0.041290 -0.013203 1083630.000000 1 0 0
14.790575 10.039474 -5.418100 18.679078 0.596339 1.865088 0.036665 -0.018263 -116853.000000 1 0 0
2.439575 16.896774 4.436400 17.638995 1.427406 1.316555 0.010777 -0.007299 1903070.000000 1 0 0
-3.868225 18.101074 -5.897700 19.426655 -1.360262 1.879252 0.009644 -0.004078 592246.000000 1 0 0
5.445175 14.527974 5.721700 16.536318 1.212196 1.217483 0.002145 -0.007276 -529572.000000 1 0 0
9.829675 6.047074 15.128700 19.028063 0.551511 0.651668 0.022095 -0.000487 -509610.000000 1 0 0
4.676775 12.704974 -1.013300 13.576280 1.218083 1.645503 0.000925 -0.007604 1141200.000000 1 0 0
3.367175 13.717474 13.053800 19.233010 1.330089 0.824780 0.003113 -0.008230 -236363.000000 1 0 0
-0.817525 12.360074 9.197300 15.428224 -1.504750 0.932118 -0.005499 0.001086 1454400.000000 1 0 0
-7.841025 14.034774 8.345000 18.113409 -1.061309 1.092003 0.011514 -0.006557 2403860.000000 1 0 0
11.440575 12.773574 -4.072100 17.624783 0.840393 1.803947 0.024367 -0.009939 699368.000000 1 0 0
-5.629325 16.325174 0.880800 17.290934 -1.238739 1.519834 0.007388 0.000607 1601400.000000 1 0 0
3.198475 10.612474 6.833800 13.021355 1.278066 1.018299 -0.008032 0.004555 927594.000000 1 0 0
-1.123725 15.570874 2.466200 15.804968 -1.498753 1.414117 0.005440 -0.007233 -1213720.000000 1 0 0
9.781175 8.867374 9.522500 16.278198 0.736436 0.945935 0.010130 -0.007053 1975520.000000 1 0 0
7.203475 12.232974 6.304000 15.533066 1.038610 1.152894 0.004270 -0.005295 1013950.000000 1 0 0
11.848275 13.947674 -1.453000 18.358389 0.866604 1.650026 0.010570 -0.006150 -621614.000000 1 0 0
9.637375 15.831574 -1.148400 18.569776 1.023972 1.632678 0.008236 -0.004524 664501.000000 1 0 0
10.077475 13.671174 3.063000 17.257998 0.935581 1.392368 0.007356 -0.004926 2368410.000000 1 0 0
-6.086525 14.566974 6.248700 16.979069 -1.175014 1.193914 0.002071 -0.006880 411993.000000 1 0 0
-0.888425 18.148874 -6.253400 19.216554 -1.521883 1.902249 0.022951 -0.002737 1075260.000000 1 0 0
-3.595825 15.763874 5.390600 17.043716 -1.346528 1.248990 0.010335 -0.007639 2162130.000000 1 0 0
6.933775 12.280474 10.761600 17.739767 1.056799 0.918973 0.009656 -0.004883 2197640.000000 1 0 0
1.480775 14.694974 6.355800 16.078904 1.470368 1.164415 -0.001343 -0.002871 1078580.000000 1 0 0
17.485875 7.608574 -1.268900 19.111681 0.410417 1.637239 0.034266 -0.003854 1391180.000000 1 0 0
2.116575 16.109174 -3.304000 16.580163 1.440155 1.771414 0.003545 -0.009425 1896760.000000 1 0 0
6.725875 11.049774 0.590100 12.949252 1.024012 1.525210 0.004751 -0.006925 1071880.000000 1 0 0
12.526275 9.298074 3.299100 15.945088 0.638546 1.362387 0.006745 -0.004185 -451453.000000 1 0 0
6.061375 14.157574 -3.351900 15.761104 1.166272 1.785102 0.001029 -0.007935 -614026.000000 1 0 0
3.194175 16.459374 1.663600 16.848778 1.379115 1.471898 0.011287 -0.013972 -2155750.000000 1 0 0
2.806375 18.847274 -2.661400 19.240024 1.422981 1.709568 0.019760 -0.015295 677443.000000 1 0 0
3.819375 11.892974 10.809800 16.519148 1.260055 0.857434 0.002508 -0.007255 2999410.000000 1 0 0
8.005775 11.512674 3.406100 14.430372 0.963172 1.332511 -0.002085 -0.000798 2038150.000000 1 0 0
0.774275 12.518374 0.244500 12.544679 1.509024 1.551305 -0.000094 -0.005129 -1795800.000000 1 0 0
12.014375 9.810274 -4.464100 16.140473 0.684748 1.851028 0.012594 -0.009116 1491960.000000 1 0 0
-1.242225 16.441274 10.017400 19.292665 -1.495384 1.024842 0.004264 -0.007880 -1165360.000000 1 0 0
8.086875 14.735074 -7.965600 18.600289 1.068861 2.013353 0.018281 -0.003885 1210240.000000 1 0 0
14.495775 7.591774 -1.205000 16.407759 0.482446 1.644303 0.015086 -0.004931 -380750.000000 1 0 0
12.363075 8.394974 6.116000 16.147033 0.596517 1.182330 0.010305 -0.006770 -1200810.000000 1 0 0
-3.105325 14.228674 10.255200 17.812000 -1.355921 0.957279 0.002448 -0.007156 1837170.000000 1 0 0
-4.580125 17.070274 -3.113800 17.946241 -1.308660 1.745186 0.016732 -0.009249 1673410.000000 1 0 0
-7.114125 16.436574 -1.719800 17.992483 -1.162318 1.666527 0.019581 -0.004270 276579.000000 1 0 0
8.357275 11.136274 -1.870700 14.048494 0.927004 1.704353 0.005738 -0.006810 -649173.000000 1 0 0
8.571075 12.812374 -4.199100 15.976630 0.981202 1.836748 0.015341 -0.008521 2368980.000000 1 0 0
2.629175 14.759874 -7.226900 16.643153 1.394515 2.019976 0.004039 -0.003938 1031400.000000 1 0 0
11.275575 11.380874 9.932000 18.849603 0.790046 1.015838 0.021553 -0.010740 1443360.000000 1 0 0
8.576275 15.700174 1.560200 17.957789 1.070834 1.483805 0.001300 -0.003718 411857.000000 1 0 0
5.946875 9.932074 7.763200 13.938389 1.031293 0.980069 0.001350 0.002232 1811440.000000 1 0 0
14.310675 11.445974 2.778300 18.534420 0.674632 1.420330 0.012983 -0.006761 818174.000000 1 0 0
12.049475 12.610574 1.178900 17.481597 0.808148 1.503308 0.010600 -0.002594 1964470.000000 1 0 0
5.153375 15.843974 8.278700 18.604453 1.256331 1.109639 0.015227 -0.007643 -1130760.000000 1 0 0
11.556075 14.992474 5.137600 19.614079 0.914121 1.305770 0.019486 -0.005382 29519.400000 1 0 0
5.961375 16.771574 1.887800 17.899371 1.229279 1.465132 -0.002407 -0.013731 -673041.000000 1 0 0
-0.632025 16.109674 -4.165500 16.651500 -1.531584 1.823639 0.003478 -0.005159 1379780.000000 1 0 0
16.039975 6.502874 2.601600 17.502471 0.385167 1.421602 0.004633 -0.003572 -29189.500000 1 0 0
7.684175 16.591474 -3.073800 18.541084 1.137069 1.737348 0.016036 -0.011874 -1558700.000000 1 0 0
14.742675 8.226174 7.583800 18.507578 0.508952 1.148597 0.035552 -0.008244 -122021.000000 1 0 0
1.988375 12.937074 8.728800 15.732561 1.418294 0.982645 -0.001264 -0.000796 1332180.000000 1 0 0
15.957175 7.374174 -5.853100 18.527511 0.432889 1.892216 0.027171 -0.009773 -2074020.000000 1 0 0
-2.808425 17.154074 0.675600 17.395573 -1.408518 1.531949 0.007588 -0.004823 539428.000000 1 0 0
-2.881325 18.600574 4.528400 19.359489 -1.417113 1.334698 0.017726 -0.014609 442712.000000 1 0 0
-0.587425 19.060674 0.814200 19.087097 -1.539987 1.528126 0.011681 -0.013991 -98665.300000 1 0 0
6.960375 16.718974 -5.981900 19.072337 1.176304 1.889823 0.018577 -0.010846 859794.000000 1 0 0
10.941775 9.996674 0.858500 14.845638 0.740292 1.512936 0.004236 -0.003706 -1872680.000000 1 0 0
8.992375 8.827074 14.353200 19.099592 0.776122 0.720475 0.026405 -0.008902 814970.000000 1 0 0
6.360975 12.313274 -8.288100 16.148416 1.093961 2.109758 0.014127 -0.009134 1031620.000000 1 0 0
6.209975 9.032474 13.286200 17.224184 0.968498 0.689807 0.014261 -0.009673 1099700.000000 1 0 0
16.616475 9.539974 3.014200 19.395973 0.521178 1.414761 0.026245 -0.004836 -241023.000000 1 0 0
2.665175 14.727474 -0.706200 14.983337 1.391768 1.617946 0.002984 -0.007516 1385820.000000 1 0 0
8.958775 12.889174 8.513300 17.856840 0.963392 1.073839 0.010652 -0.010668 2972890.000000 1 0 0
7.082975 9.370474 10.533400 15.777416 0.923541 0.839782 0.005045 -0.004740 1705110.000000 1 0 0
4.423275 15.786674 -5.206700 17.201575 1.297611 1.878307 0.014270 -0.010157 986645.000000 1 0 0
0.351875 16.288274 -8.110700 18.199317 1.549197 2.032707 0.006985 -0.006005 262357.000000 1 0 0
-2.347125 15.668074 -1.926100 15.959555 -1.422099 1.691778 -0.001153 -0.003998 371305.000000 1 0 0
13.145975 10.552974 7.826700 18.585994 0.676417 1.136130 0.029231 -0.011377 861282.000000 1 0 0
-1.028225 15.941374 7.041100 17.457427 -1.506385 1.155643 0.008076 -0.006839 377319.000000 1 0 0
13.248275 13.362274 6.863300 20.029280 0.789682 1.221046 0.027918 -0.012275 -61729.200000 1 0 0
5.422275 17.407874 4.595400 18.803001 1.268837 1.323898 0.007108 -0.011083 369539.000000 1 0 0
10.795775 9.354774 -1.799900 14.397924 0.714008 1.696135 0.003663 -0.005036 746845.000000 1 0 0
3.206775 12.806374 4.817100 14.053152 1.325437 1.220925 -0.005267 0.001307 1568570.000000 1 0 0
-0.140325 18.026874 3.649300 18.393077 -1.563012 1.371065 0.008000 -0.010182 929165.000000 1 0 0
-7.787625 15.945974 -5.676600 18.631827 -1.116491 1.880391 0.038140 -0.008717 1251670.000000 1 0 0
-12.488525 -9.158726 8.088300 17.471866 0.632774 1.089495 0.022797 -0.006446 -1202390.000000 1 0 0
-13.248625 -11.691926 6.653800 18.881214 0.723063 1.210659 0.033308 -0.007918 71140.500000 1 0 0
-6.531025 -12.330426 12.302300 18.602158 1.083697 0.848196 0.027923 -0.013974 -586909.000000 1 0 0
-1.807725 -10.578726 14.325200 17.899404 1.401548 0.642972 -0.003002 -0.012212 528087.000000 1 0 0
-8.897325 2.858274 10.937700 14.386292 -0.310837 0.707043 -0.005678 0.001357 1744370.000000 1 0 0
0.409475 9.955774 15.138500 18.123446 1.529690 0.582120 -0.008317 -0.005732 889940.000000 1 0 0
0.963475 -6.745626 16.467600 17.821717 -1.428926 0.392335 -0.001129 -0.016026 1806450.000000 1 0 0
6.040675 2.288174 17.705300 18.846834 0.362093 0.349830 0.011351 -0.003420 3267060.000000 1 0 0
-5.221825 -3.036826 17.620700 18.627368 0.526753 0.330261 0.019761 -0.008617 116889.000000 1 0 0
-4.405525 8.079874 12.957800 15.893319 -1.071610 0.617552 -0.002099 -0.002482 -1010500.000000 1 0 0
0.086075 -4.845526 18.579000 19.200671 -1.553034 0.255162 0.014940 -0.017970 1099950.000000 1 0 0
-11.717025 2.105774 11.030700 16.229581 -0.177821 0.823489 -0.000167 -0.000520 -374346.000000 1 0 0
-3.408525 -6.222626 14.355100 16.012745 1.069672 0.459037 0.011408 -0.005590 610461.000000 1 0 0
-7.502825 -2.377926 14.608500 16.593830 0.306922 0.494181 0.008254 0.001280 930175.000000 1 0 0
-6.294525 -1.174126 10.500500 12.298785 0.184412 0.547587 0.000140 0.001413 2524240.000000 1 0 0
-4.083825 2.282974 11.117200 12.061581 -0.509748 0.398347 0.004415 0.001255 1301240.000000 1 0 0
-6.546625 6.299074 13.538700 16.304387 -0.766129 0.591022 -0.002474 -0.004044 340847.000000 1 0 0
-9.054425 5.453174 12.494300 16.365428 -0.542084 0.702148 -0.000873 -0.006263 -248094.000000 1 0 0
-12.241625 -2.287626 15.788400 20.108809 0.184742 0.667861 0.012561 0.006921 1196310.000000 1 0 0
-3.563025 -7.633426 17.096300 19.059061 1.134088 0.457823 0.015347 -0.007279 -611547.000000 1 0 0
-0.569525 -5.417426 14.314700 15.316119 1.466053 0.363617 0.001964 -0.003652 1004900.000000 1 0 0
-14.187625 -2.254626 13.566300 19.758961 0.157597 0.814008 0.002668 0.003506 -231262.000000 1 0 0
-6.623525 1.327474 12.112000 13.868447 -0.197798 0.508759 -0.000220 0.000118 1908400.000000 1 0 0
2.165975 -2.313226 14.505600 14.847724 -0.818261 0.215087 0.006619 -0.000886 1048620.000000 1 0 0
-12.719425 4.025574 9.045900 16.118850 -0.306516 0.974961 -0.003600 -0.004276 -1001650.000000 1 0 0
-9.086625 -3.059426 12.584700 15.820920 0.324773 0.651052 0.000960 0.003623 584600.000000 1 0 0
-7.078525 -7.372826 15.136400 18.264027 0.805760 0.593917 0.022247 -0.008190 123268.000000 1 0 0
-3.316225 5.971474 19.370100 20.539149 -1.063859 0.339017 0.028677 -0.008397 957685.000000 1 0 0
0.676275 5.360174 16.127500 17.008383 1.445293 0.323247 0.010718 -0.005352 1810660.000000 1 0 0
3.360075 1.440674 16.670100 17.066279 0.405053 0.215891 0.010931 -0.006151 1774040.000000 1 0 0
-11.788025 11.472674 7.879500 18.239142 -0.771842 1.124076 0.000320 -0.008275 -253827.000000 1 0 0
0.629575 -9.454226 15.418800 18.097463 -1.504303 0.551028 -0.014031 -0.003090 113217.000000 1 0 0
-2.544925 -3.542526 18.894700 19.391643 0.947833 0.226878 0.017816 -0.016478 2170080.000000 1 0 0
-12.798225 2.322074 13.649700 18.854731 -0.179485 0.761299 -0.006992 -0.006303 -221694.000000 1 0 0
-5.425825 -0.670926 15.771100 16.691834 0.123030 0.333693 0.011462 -0.001182 930048.000000 1 0 0
-4.458825 -6.027826 11.644700 13.849724 0.933915 0.572057 0.005756 -0.003307 916828.000000 1 0 0
2.467575 1.782974 13.938500 14.267085 0.625708 0.215035 0.009635 -0.004134 -869113.000000 1 0 0
0.053475 3.194974 14.276000 14.629248 1.554061 0.220202 0.017303 -0.006867 2044900.000000 1 0 0
-13.092825 6.984674 12.113600 19.155862 -0.490066 0.886187 0.005566 -0.011313 692661.000000 1 0 0
0.803775 1.308474 18.148100 18.212954 1.019940 0.084415 0.023666 -0.011188 1772520.000000 1 0 0
-2.106125 6.333974 12.451600 14.127892 -1.249785 0.492087 -0.000842 -0.001076 1999800.000000 1 0 0
-13.502125 -2.642926 10.804500 17.493703 0.193297 0.905081 0.007965 -0.001817 555804.000000 1 0 0
-2.696825 3.547674 13.493500 14.210327 -0.920820 0.318980 0.007263 -0.000427 1587610.000000 1 0 0
3.568975 6.066674 16.348300 17.799130 1.039030 0.406555 0.012207 -0.000408 -65973.800000 1 0 0
-3.834925 12.258574 12.323600 17.800292 -1.267605 0.806089 0.002231 -0.009930 725253.000000 1 0 0
3.695975 -1.516226 17.032500 17.494720 -0.389300 0.230381 0.015809 -0.005319 -1520210.000000 1 0 0
-15.751325 0.576874 9.042300 18.171412 -0.036607 1.049954 0.008060 -0.004999 -602063.000000 1 0 0
-4.874425 4.520074 15.192600 16.583310 -0.747697 0.412459 0.008119 -0.003467 693335.000000 1 0 0
-8.082725 -8.246926 10.349500 15.506591 0.795453 0.840050 0.013446 -0.007679 4233540.000000 1 0 0
-2.720725 -0.518926 14.678000 14.937045 0.188467 0.186509 0.014162 -0.004848 2483370.000000 1 0 0
-1.927125 0.879374 17.150600 17.280920 -0.428092 0.122888 0.019419 -0.012877 1250440.000000 1 0 0
-0.750225 -2.524426 14.343800 14.583558 1.281923 0.181579 0.008477 -0.002493 555374.000000 1 0 0
5.068975 -8.301926 16.614700 19.252656 -1.022635 0.529653 0.012233 -0.006927 63867.800000 1 0 0
-4.564025 9.975674 10.638700 15.281568 -1.141710 0.800736 0.000519 -0.005235 -1355130.000000 1 0 0
-6.368225 1.992374 15.117700 16.524790 -0.303214 0.415661 0.010833 -0.003238 -671338.000000 1 0 0
-5.021225 6.799574 17.233000 19.194353 -0.934721 0.456011 0.017441 -0.002973 -1761850.000000 1 0 0
-4.022825 8.981474 15.652700 18.489376 -1.149688 0.561273 -0.000520 -0.003441 -969779.000000 1 0 0
-4.648925 -9.901526 18.537900 21.524555 1.131832 0.533083 0.030977 -0.005039 -1583630.000000 1 0 0
-6.881425 -4.156426 11.094900 13.701339 0.543360 0.627040 0.002476 0.001172 504653.000000 1 0 0
-2.485625 -0.789326 19.628400 19.800895 0.307485 0.132092 0.023196 -0.010856 776114.000000 1 0 0
-5.688425 -4.619226 15.144900 16.824489 0.682039 0.450637 0.014534 -0.007214 1153880.000000 1 0 0
-12.858925 -0.033226 9.574100 16.031732 0.002584 0.930795 -0.003893 0.000898 1639060.000000 1 0 0
-14.552925 8.745774 10.390700 19.905849 -0.541128 1.021611 0.009382 -0.010655 -1747620.000000 1 0 0
-8.425225 10.359374 12.950300 18.601379 -0.888001 0.800705 0.009707 -0.012412 -970848.000000 1 0 0
-10.542325 7.224674 10.748300 16.699176 -0.600793 0.871548 -0.002181 -0.002432 -268814.000000 1 0 0
-9.875925 -6.669826 14.716600 18.936705 0.593998 0.680677 0.025507 -0.003498 894333.000000 1 0 0
-0.734725 -13.318126 14.436000 19.654780 1.515685 0.745899 -0.004686 -0.015258 213715.000000 1 0 0
3.811575 -5.704126 16.961300 18.296198 -0.981723 0.384357 0.018782 -0.011999 3404920.000000 1 0 0
-7.345525 9.412674 10.394300 15.830244 -0.908130 0.854481 0.004532 -0.007572 1032430.000000 1 0 0
-10.383325 -6.779826 11.743900 17.079188 0.578449 0.812598 0.021167 -0.009829 3350440.000000 1 0 0
-10.973525 -3.932426 10.658400 15.795053 0.344099 0.830111 0.010038 0.001335 -213340.000000 1 0 0
-10.167325 -10.220426 9.700700 17.376282 0.788003 0.978494 0.022294 -0.008525 808886.000000 1 0 0
-9.898325 -3.767426 15.268300 18.582016 0.363682 0.606460 0.018620 -0.002202 1532420.000000 1 0 0
5.586375 -3.435926 16.109700 17.393551 -0.551416 0.386622 0.011464 -0.005058 683751.000000 1 0 0
-11.322425 0.521374 15.286000 19.029738 -0.046015 0.638033 0.010544 -0.003236 -81973.400000 1 0 0
-3.175625 3.182474 18.694600 19.227605 -0.786475 0.236008 0.025642 -0.013014 -16618.400000 1 0 0
0.408075 7.204774 13.970400 15.724102 1.514217 0.476795 0.000099 -0.002583 1777850.000000 1 0 0
-13.227925 -7.454326 12.110000 19.421562 0.513171 0.897542 0.031195 -0.006371 4377.500000 1 0 0
-1.544925 -1.143126 12.080700 12.232614 0.637021 0.157763 0.009226 -0.003223 3247600.000000 1 0 0
1.970075 -4.889926 13.056100 14.080281 -1.187806 0.383766 -0.003170 -0.003150 -460272.000000 1 0 0
-14.727425 -4.001726 8.597000 17.516257 0.265314 1.057787 0.017734 -0.008092 -1449100.000000 1 0 0
8.115475 0.917574 16.085400 18.040038 0.112587 0.469820 0.012404 0.001139 899357.000000 1 0 0
-1.323525 11.324074 13.360100 17.563560 -1.454447 0.706449 -0.011771 -0.002353 -34568.500000 1 0 0
2.923575 -12.362026 -13.869100 18.807416 -1.338567 2.400050 0.005566 0.004671 386327.000000 1 0 0
0.840975 -10.665526 -13.997800 17.618146 -1.492109 2.488997 0.004473 0.002382 -1608460.000000 1 0 0
3.349875 -14.427226 -12.418800 19.328557 -1.342648 2.268566 0.012111 0.001911 -1247090.000000 1 0 0
-5.026325 -10.155226 -16.190700 19.761865 1.111197 2.530968 0.014287 -0.007413 -599467.000000 1 0 0
-1.026925 -12.256926 -14.952800 19.361638 1.487208 2.453234 0.009640 -0.003750 82277.200000 1 0 0
5.841875 -14.954126 -11.965400 20.023091 -1.198374 2.211276 0.017500 -0.002937 640199.000000 1 0 0
1.950375 -11.854126 -16.122300 20.106039 -1.407726 2.501204 0.010365 0.001192 -474623.000000 1 0 0
1.348875 -14.468226 -13.992900 20.173008 -1.477835 2.337333 0.013043 0.006519 -743050.000000 1 0 0
-1.123025 -10.688726 -15.868600 19.165660 1.466114 2.546275 0.013408 -0.007598 -260132.000000 1 0 0
-5.778225 -5.619926 -14.922000 16.959880 0.771511 2.646324 0.018400 -0.001988 -340619.000000 1 0 0
-6.458325 -7.604426 -16.643100 19.404382 0.866718 2.601572 0.024992 0.002602 330829.000000 1 0 0
4.953475 -12.531626 -11.521300 17.729042 -1.194367 2.278189 0.005944 0.000226 -45888.800000 1 0 0
-1.782625 -15.618026 -13.085000 20.452817 1.457149 2.264989 0.013470 0.000459 394497.000000 1 0 0
15.574075 -7.314226 -8.748100 19.302305 -0.439067 2.041165 0.026823 0.001286 299102.000000 1 0 0
19.370675 -3.423526 -4.216400 20.117694 -0.174931 1.781949 0.070911 -0.013358 1719430.000000 1 0 0
15.080575 -11.550526 -8.900400 20.977500 -0.653613 2.008966 0.044955 -0.004439 103339.000000 1 0 0
17.922075 -3.492026 -6.367000 19.337366 -0.192434 1.906315 0.071815 -0.010277 564909.000000 1 0 0
9.771175 -9.308826 -15.384800 20.465145 -0.761171 2.421518 0.035094 -0.009818 156561.000000 1 0 0
1.333375 1.804274 -15.319500 15.482906 0.934366 2.996179 0.003082 -0.006431 -295003.000000 1 0 0
4.913075 -4.389326 -13.881500 15.365563 -0.729155 2.698468 0.002208 -0.001001 1458030.000000 1 0 0
13.126075 -5.425926 -8.621400 16.615146 -0.391979 2.116346 0.025939 -0.005045 -1955490.000000 1 0 0
2.983375 0.979174 -12.127100 12.527005 0.317133 2.888236 0.000220 -0.004221 -4306760.000000 1 0 0
0.752075 6.263774 -12.992000 14.442733 1.451301 2.689541 0.006765 -0.002871 57894.900000 1 0 0
3.137975 -1.192526 -16.739500 17.072781 -0.363174 2.943678 0.005721 -0.006323 -426046.000000 1 0 0
13.124875 4.358374 -11.304200 17.861767 0.320613 2.256052 -0.005290 -0.009691 462281.000000 1 0 0
-3.714725 9.339674 -16.641700 19.441576 -1.192243 2.598250 0.007380 -0.006856 -585766.000000 1 0 0
-0.135625 -5.159226 -17.658100 18.396861 1.544515 2.857239 0.011106 -0.013150 71945.600000 1 0 0
-0.363725 -8.596026 -17.477700 19.480604 1.528508 2.684150 0.017114 -0.012388 -1686570.000000 1 0 0
5.619375 -10.158326 -12.182500 16.828020 -1.065515 2.380295 0.005672 -0.002994 399107.000000 1 0 0
1.745075 -9.820326 -18.178200 20.734778 -1.394932 2.639757 0.016064 -0.007618 -512351.000000 1 0 0
11.112075 8.509674 -14.389400 20.073555 0.653539 2.370047 0.043686 -0.020271 545670.000000 1 0 0
10.986475 -3.755126 -12.932900 17.379974 -0.329347 2.410023 0.017211 -0.006299 709321.000000 1 0 0
5.063475 7.441474 -12.334700 15.269549 0.973319 2.511202 0.002411 0.000390 72475.900000 1 0 0
9.712375 -5.976126 -12.733400 17.093384 -0.551601 2.411228 0.013122 -0.001430 -1112430.000000 1 0 0
-3.301525 0.345674 -16.025100 16.365310 -0.104321 2.937333 0.007067 -0.005124 -219111.000000 1 0 0
-0.762225 10.552174 -12.798000 16.604763 -1.498688 2.450802 0.003291 -0.002631 -802737.000000 1 0 0
6.750575 -5.427626 -12.205800 14.966995 -0.677190 2.524414 0.002422 -0.002584 675588.000000 1 0 0
17.745775 -6.182226 -7.853400 20.366844 -0.335229 1.966651 0.044790 -0.014818 -194507.000000 1 0 0
13.076675 4.853974 -13.855100 19.660221 0.355429 2.352835 0.004291 -0.010959 181884.000000 1 0 0
14.081575 0.907374 -11.390100 18.134180 0.064348 2.249907 0.009421 -0.005162 -676318.000000 1 0 0
15.129875 6.109374 -10.964000 19.658252 0.383774 2.162445 0.021270 -0.021136 690924.000000 1 0 0
8.325775 1.447974 -11.595500 14.348198 0.172192 2.511801 -0.001696 0.003370 609363.000000 1 0 0
9.968875 1.245074 -8.813300 13.364241 0.124253 2.290908 0.003167 -0.003087 166208.000000 1 0 0
-0.039825 -5.843126 -12.962000 14.218198 1.563981 2.718074 0.005677 -0.001389 235089.000000 1 0 0
10.578875 -5.694226 -9.044200 15.037765 -0.493788 2.216089 0.014335 -0.007057 -1260700.000000 1 0 0
10.301275 8.480074 -11.201400 17.421231 0.688732 2.269171 0.016683 -0.011118 388932.000000 1 0 0
8.434275 8.251274 -14.696100 18.846641 0.774431 2.465099 0.025137 -0.000957 883610.000000 1 0 0
8.681675 10.564974 -10.639300 17.325844 0.882938 2.232005 0.019030 -0.007131 -1483190.000000 1 0 0
6.877075 2.035874 -17.798100 19.188833 0.287818 2.758529 0.023605 -0.002735 -737460.000000 1 0 0
12.126075 2.663074 -12.738300 17.787579 0.216184 2.369045 0.008500 -0.006619 -1532350.000000 1 0 0
2.641275 -0.987526 -19.277000 19.482153 -0.357790 2.996342 0.020677 -0.015916 -717194.000000 1 0 0
10.380875 -2.161026 -15.414200 18.709093 -0.205242 2.539034 0.031565 -0.010035 332816.000000 1 0 0
8.337275 -0.848326 -13.046800 15.506412 -0.101402 2.570630 0.006631 -0.002681 210165.000000 1 0 0
0.475675 4.213774 -14.678900 15.279145 1.458386 2.860363 0.003721 -0.005036 -361216.000000 1 0 0
4.174775 -7.738526 -15.676200 17.973780 -1.076066 2.630418 0.004631 -0.005144 218976.000000 1 0 0
11.526475 -5.847626 -14.469500 19.401567 -0.469487 2.412517 0.030567 -0.007165 -1218080.000000 1 0 0
-5.818425 4.233874 -16.908100 18.375625 -0.629054 2.739228 0.002229 -0.006014 -197232.000000 1 0 0
11.324075 7.792874 -8.928600 16.391567 0.602741 2.146836 0.011584 -0.010370 -3171770.000000 1 0 0
9.482075 6.252774 -13.369700 17.542971 0.582977 2.437365 0.011808 -0.000436 -1685270.000000 1 0 0
12.018975 0.584074 -10.088400 15.702634 0.048558 2.268508 0.009997 -0.002779 -2356090.000000 1 0 0
5.663875 -7.228026 -13.625500 16.431010 -0.906136 2.548570 0.001662 -0.002671 -880692.000000 1 0 0
8.580875 -10.128026 -10.716000 17.059923 -0.867906 2.249955 0.011487 -0.002624 253295.000000 1 0 0
10.210875 4.637774 -15.720400 19.310668 0.426341 2.521937 0.034395 -0.007815 -125909.000000 1 0 0
9.940175 -0.433726 -10.902200 14.759850 -0.043606 2.401845 0.006989 -0.001577 -685124.000000 1 0 0
-1.612225 5.472374 -13.953400 15.074598 -1.284290 2.753476 0.000862 -0.007310 -360190.000000 1 0 0
1.340575 -0.785126 -14.919500 15.000168 -0.529811 3.037837 0.001972 -0.005017 -931052.000000 1 0 0
11.748075 -10.514826 -14.121700 21.166040 -0.730060 2.301222 0.056043 -0.009331 972453.000000 1 0 0
9.425875 -7.736926 -10.824400 16.305667 -0.687306 2.296742 0.013533 -0.004724 -494412.000000 1 0 0
14.045675 -1.036726 -9.678700 17.088974 -0.073677 2.172892 0.018235 -0.002300 960847.000000 1 0 0
4.052475 11.181774 -12.223900 17.055156 1.223102 2.369895 0.007606 -0.005026 -1416940.000000 1 0 0
-1.305825 2.861374 -16.919300 17.209165 -1.142664 2.957793 0.001465 -0.006540 206230.000000 1 0 0
5.910875 -0.438026 -17.581400 18.553596 -0.073970 2.816436 0.008205 0.002312 14531.600000 1 0 0
6.587575 -6.536926 -15.935300 18.440752 -0.781539 2.614225 0.012486 -0.002389 262219.000000 1 0 0
-1.613125 -5.378326 -19.775500 20.557212 1.279403 2.864935 0.017853 -0.023111 508255.000000 1 0 0
0.068275 -4.379126 -15.237500 15.854425 -1.555206 2.861711 0.004260 -0.005367 -260534.000000 1 0 0
0.533075 0.783474 -12.999200 13.033695 0.973347 3.068822 -0.000001 -0.006698 1422480.000000 1 0 0
15.537675 0.557374 -13.455400 20.561561 0.035857 2.284180 0.032089 -0.016600 752777.000000 1 0 0
-0.104025 6.918574 -16.387600 17.788505 -1.555762 2.742070 0.007096 0.003283 -233291.000000 1 0 0
-4.557525 -0.667226 -18.421200 18.988334 0.145368 2.896573 0.000099 -0.003238 -176812.000000 1 0 0
10.471875 -8.376826 -13.110400 18.754039 -0.674702 2.344893 0.015736 -0.011229 328789.000000 1 0 0
4.080975 8.518874 -17.354700 19.758825 1.124048 2.643147 0.020969 -0.009201 31609.400000 1 0 0
9.092275 0.832874 -16.889900 19.199788 0.091347 2.646010 0.018665 -0.000508 -324619.000000 1 0 0
3.514075 4.839274 -18.508200 19.450469 0.942730 2.829052 0.024612 -0.001866 -629834.000000 1 0 0
1.697875 -8.205926 -15.997000 18.058904 -1.366767 2.659062 0.011419 -0.006659 -194623.000000 1 0 0
4.487875 7.800874 -14.920500 17.424580 1.048733 2.598840 0.010468 0.001320 398543.000000 1 0 0
-5.627225 -0.501426 -15.321900 16.330269 0.088872 2.788337 0.007927 -0.003101 -184811.000000 1 0 0
2.829675 3.376874 -13.867400 14.550434 0.873336 2.833975 0.002926 -0.002408 -412422.000000 1 0 0
-2.178625 -10.424226 -18.142500 21.037138 1.364766 2.610795 0.023119 -0.007396 -32657.400000 1 0 0
6.381375 -9.062026 -15.314800 18.904639 -0.957265 2.515133 0.004861 -0.008735 -57889.100000 1 0 0
-1.790225 5.414374 -17.521300 18.425968 -1.251469 2.826935 0.003508 0.003844 90634.600000 1 0 0
10.047675 -12.193726 -11.547700 19.570184 -0.881589 2.201937 0.034718 -0.006000 -523662.000000 1 0 0
10.872275 3.571874 -9.289100 14.739472 0.317422 2.252632 0.000534 -0.004555 -577029.000000 1 0 0
4.870175 -0.423626 -10.896100 11.942490 -0.086765 2.719860 0.001626 -0.004592 682799.000000 1 0 0
6.375175 9.544974 -11.342900 16.137248 0.981934 2.350265 0.008460 -0.005419 -155347.000000 1 0 0
10.880275 -9.576326 -9.404700 17.278159 -0.721742 2.146364 0.023992 -0.005381 -510782.000000 1 0 0
3.225075 -2.512626 -14.486000 15.051863 -0.661861 2.866521 0.004871 -0.004937 60935.800000 1 0 0
9.313475 -4.518626 -14.863300 18.112882 -0.451714 2.533244 0.019162 -0.004209 52985.900000 1 0 0
-3.986425 -6.491626 -16.634500 18.295884 1.020083 2.712139 0.005007 -0.003487 -318658.000000 1 0 0
5.941875 -7.840126 -11.153400 14.871845 -0.922271 2.418809 0.002563 -0.001831 401343.000000 1 0 0
5.414875 6.356374 -17.024600 18.962103 0.865211 2.685595 0.023565 -0.003311 -1131640.000000 1 0 0
8.752375 1.267374 -19.422100 21.340766 0.143804 2.714307 0.031824 -0.010516 536473.000000 1 0 0
13.066875 5.763774 -9.289500 17.036993 0.415427 2.147489 -0.002510 -0.011618 1049600.000000 1 0 0
-1.533525 -0.778026 -17.397700 17.482476 0.469506 3.043072 0.004347 -0.008268 474607.000000 1 0 0
-0.394725 -0.723726 -19.671400 19.688666 1.071487 3.099710 0.013737 -0.014809 -282660.000000 1 0 0
2.859475 6.386774 -16.580300 17.996495 1.149842 2.742225 0.011994 0.001908 -605057.000000 1 0 0
7.726575 3.843974 -15.607200 17.834259 0.461646 2.636490 0.020472 -0.001260 -178407.000000 1 0 0
3.189675 -9.986226 -14.768700 18.111136 -1.261631 2.524300 0.006851 -0.003677 258353.000000 1 0 0
9.186175 -10.626726 -13.305300 19.347975 -0.857978 2.329091 0.024480 -0.004614 -299623.000000 1 0 0
3.775275 0.033774 -14.685900 15.163426 0.008946 2.889963 0.004802 -0.002862 -2293680.000000 1 0 0
-1.083425 -3.021426 -18.891100 19.161850 1.226498 2.973289 0.014887 -0.012496 223385.000000 1 0 0
9.388975 10.106374 -13.076900 19.007813 0.822180 2.329491 0.032594 -0.009822 244474.000000 1 0 0
4.704975 2.109074 -10.606200 11.793068 0.421410 2.689097 -0.004284 0.000987 7535.810000 1 0 0
-0.306825 7.071774 -18.949600 20.228482 -1.527436 2.784103 0.020906 -0.002063 21820.300000 1 0 0
0.852575 -1.824226 -17.567200 17.682228 -1.133598 3.027467 0.011059 -0.014186 -1958130.000000 1 0 0
-4.426125 -2.311526 -14.182600 15.035953 0.481286 2.803069 0.009631 -0.005690 -4410920.000000 1 0 0
10.214975 5.976374 -10.406800 15.759577 0.529362 2.292078 0.004885 -0.001801 -125532.000000 1 0 0
8.424775 5.717174 -17.216800 20.002028 0.596229 2.607543 0.040775 -0.013303 -173421.000000 1 0 0
11.445675 0.183874 -13.471000 17.677815 0.016064 2.437236 0.017603 -0.001131 320385.000000 1 0 0
6.810975 12.020774 -11.859300 18.208003 1.055297 2.280124 0.020508 -0.009692 -650860.000000 1 0 0
-0.880225 0.523674 -15.112500 15.147167 -0.536685 3.073923 0.002142 -0.007334 228449.000000 1 0 0
-4.502425 -3.150126 -19.073400 19.849174 0.610492 2.861091 0.018727 -0.001701 30585.100000 1 0 0
5.954775 -12.053726 -14.003300 19.412472 -1.111945 2.376554 0.011300 0.000292 183848.000000 1 0 0
2.176375 -4.797126 -13.999600 14.957868 -1.144884 2.781702 0.003318 -0.001086 -929508.000000 1 0 0
11.769175 2.077774 -15.278000 19.397111 0.174743 2.477771 0.037829 -0.008731 370669.000000 1 0 0
9.682075 2.059874 -13.678200 16.884277 0.209626 2.515144 0.015053 -0.002390 1309650.000000 1 0 0
-2.126325 -4.245026 -16.393500 17.067171 1.106431 2.859691 -0.001642 -0.007643 -1739680.000000 1 0 0
-2.824325 9.960674 -14.236600 17.603199 -1.294501 2.512821 0.007350 -0.010226 -337716.000000 1 0 0
3.602175 5.733474 -13.738900 15.316846 1.009848 2.683686 0.003185 -0.000477 -167013.000000 1 0 0
-5.102925 -2.667226 -16.667200 17.633760 0.481631 2.808963 0.011702 -0.001632 304767.000000 1 0 0
-4.236325 6.177774 -13.667000 15.585192 -0.969708 2.640217 -0.000228 -0.007907 -670221.000000 1 0 0
5.955675 -1.124226 -14.224000 15.461440 -0.186570 2.738790 0.006764 0.001369 -1070880.000000 1 0 0
6.731875 -2.924326 -12.599400 14.581314 -0.409805 2.614113 0.004475 -0.004801 838036.000000 1 0 0
2.901875 -3.376826 -18.146300 18.684540 -0.860899 2.900985 0.016926 -0.017876 -1170870.000000 1 0 0
7.512475 -12.028826 -12.021200 18.591374 -1.012528 2.273916 0.018891 -0.001712 -478514.000000 1 0 0
-6.129225 -5.367526 -17.531100 19.331766 0.719241 2.706556 0.039717 -0.009412 290733.000000 1 0 0
0.575375 8.558874 -11.853400 14.631762 1.503672 2.515143 0.000147 0.000108 -69078.900000 1 0 0
0.572375 8.548174 -14.386100 16.743917 1.503937 2.604468 0.004436 0.003677 238034.000000 1 0 0
7.762975 -2.542726 -14.976000 17.059010 -0.316532 2.642242 0.012360 -0.008013 -701133.000000 1 0 0
14.118175 1.515974 -8.798000 16.704067 0.106968 2.125508 0.002287 -0.002323 943204.000000 1 0 0
2.842875 10.783074 -14.510800 18.300818 1.313020 2.486357 0.008932 0.001040 -582499.000000 1 0 0
5.978675 1.112474 -15.462400 16.615293 0.183970 2.766879 0.010151 0.000173 265922.000000 1 0 0
16.875775 -5.510626 -10.089400 20.419471 -0.315625 2.087604 0.083015 -0.017391 678881.000000 1 0 0
4.857675 -4.244326 -11.196300 12.921627 -0.718114 2.618899 0.001400 -0.002836 -1860030.000000 1 0 0
8.759675 -3.385826 -17.150200 19.553135 -0.368836 2.640602 0.017792 -0.005243 416269.000000 1 0 0
13.417675 -9.518826 -8.858300 18.684527 -0.617023 2.064736 0.039167 -0.003501 -424296.000000 1 0 0
2.382375 -7.713226 -13.625700 15.837590 -1.271223 2.606731 0.002368 -0.001765 242606.000000 1 0 0
-6.819625 -2.025026 -18.557700 19.874512 0.288648 2.775529 0.019709 -0.006479 67281.900000 1 0 0
-1.426425 -6.603126 -15.765100 17.151511 1.358043 2.736756 0.004429 -0.003044 655145.000000 1 0 0
1.635375 -7.272126 -18.534000 19.976672 -1.349594 2.759221 0.020730 -0.012436 -635814.000000 1 0 0
5.412275 11.072474 -14.295100 18.874382 1.116145 2.430089 0.018754 -0.015518 -593010.000000 1 0 0
5.417875 -3.374426 -17.352700 18.489357 -0.557039 2.789125 0.009928 -0.006280 -935987.000000 1 0 0
3.941675 13.225674 -13.824500 19.533870 1.281146 2.357061 0.015947 -0.009913 -314846.000000 1 0 0
9.688475 10.276874 -15.686100 21.107686 0.814861 2.408557 0.053186 -0.018107 243166.000000 1 0 0
2.452875 3.795374 -16.377600 16.989622 0.997040 2.872365 0.011717 -0.002060 304793.000000 1 0 0
16.529675 1.681674 -11.381700 20.139545 0.101388 2.171402 0.034751 -0.014907 -585348.000000 1 0 0
9.966275 -3.675226 -10.489700 14.928755 -0.353294 2.349912 0.012397 -0.004450 1479870.000000 1 0 0
14.855775 -2.083526 -11.915900 19.157866 -0.139341 2.242071 0.054886 -0.008998 231063.000000 1 0 0
-2.675425 -8.675726 -16.250500 18.614641 1.271669 2.632107 0.007420 0.004029 -209091.000000 1 0 0
13.889975 8.177374 -8.768500 18.349045 0.532088 2.069027 0.021279 -0.011346 367366.000000 1 0 0
-8.133625 0.313974 -16.743700 18.617355 -0.038583 2.689099 0.006678 -0.005897 -1047060.000000 1 0 0
-3.416325 3.959274 -15.918700 16.755660 -0.858880 2.824190 0.001077 -0.006709 -1514070.000000 1 0 0
15.103175 3.993074 -9.615500 18.344165 0.258472 2.122539 0.015465 -0.011372 732157.000000 1 0 0
5.389575 1.075474 -12.905600 14.027069 0.196960 2.739003 0.003715 -0.001186 56806.800000 1 0 0
7.975375 -7.700726 -12.889400 17.001306 -0.767880 2.431255 0.008621 -0.004320 -2888450.000000 1 0 0
3.285775 -6.135726 -11.857700 13.749491 -1.079142 2.610808 0.001746 -0.000864 -945861.000000 1 0 0
-3.262925 3.527974 -18.533600 19.146478 -0.824408 2.887891 0.006355 -0.004028 -330391.000000 1 0 0
0.906875 5.091474 -17.865500 18.598968 1.394528 2.859820 0.013435 -0.007186 838187.000000 1 0 0
6.383075 7.168874 -10.214000 14.016497 0.843317 2.387237 0.000479 0.000953 117149.000000 1 0 0
9.728575 3.709574 -11.645900 15.621559 0.364289 2.412084 0.009919 -0.001212 -169201.000000 1 0 0
4.347775 1.700474 -17.523300 18.134520 0.372822 2.881224 0.016041 -0.000686 960850.000000 1 0 0
2.708575 7.985374 -13.076300 15.559312 1.243782 2.568847 -0.000773 -0.001454 -3185690.000000 1 0 0
14.398275 -3.538926 -9.869100 17.811049 -0.241011 2.158078 0.036127 -0.002925 315414.000000 1 0 0
-1.219525 9.242674 -16.129400 18.629863 -1.439609 2.617507 0.009614 -0.003056 -2638800.000000 1 0 0
-5.225325 2.047674 -15.851300 16.815490 -0.373483 2.801311 0.007469 -0.007865 251239.000000 1 0 0
4.503675 4.179774 -11.989000 13.471812 0.748114 2.667993 0.003897 0.000155 515930.000000 1 0 0
9.077975 3.306274 -17.796500 20.249852 0.349276 2.644234 0.023169 0.001445 585692.000000 1 0 0
-4.418925 14.292174 -13.511100 20.157950 -1.270934 2.305358 0.023625 -0.004128 -488158.000000 1 0 0
15.503575 -4.794626 -7.954300 18.072636 -0.299930 2.026539 0.039828 -0.007765 188890.000000 1 0 0
1.121875 9.361474 -16.810200 19.273781 1.451526 2.630437 0.006388 0.005152 -832581.000000 1 0 0
0.504075 -3.236026 -12.817200 13.229005 -1.416268 2.891426 0.002623 -0.004484 174667.000000 1 0 0
7.531875 3.561374 -12.945700 15.394924 0.441685 2.569753 0.005818 0.000286 218384.000000 1 0 0
-2.820625 7.480574 -15.137600 17.119049 -1.210221 2.655692 0.002090 -0.006031 90037.100000 1 0 0
12.129875 -5.116026 -10.962300 17.131247 -0.399132 2.265166 0.027081 -0.007810 -514061.000000 1 0 0
0.853375 -4.398126 -19.990100 20.485992 -1.379146 2.921117 0.029475 -0.020193 -657362.000000 1 0 0
3.644275 -4.578126 -16.059500 17.092323 -0.898488 2.792180 0.009034 -0.009087 689161.000000 1 0 0
-5.567025 4.100674 -14.355100 15.933492 -0.634870 2.692724 0.003129 -0.006962 464998.000000 1 0 0
12.266975 -7.506626 -9.892400 17.455306 -0.549151 2.173325 0.018366 -0.003060 -208698.000000 1 0 0
-1.971525 -1.886826 -15.067900 15.313021 0.763450 2.962426 0.005364 -0.005162 740790.000000 1 0 0
7.041075 5.908374 -14.186200 16.903665 0.698149 2.566677 0.017136 -0.003484 -67705.600000 1 0 0
4.361575 -5.494126 -18.428800 19.718758 -0.899810 2.777879 0.018987 -0.009002 144490.000000 1 0 0
7.718875 7.519574 -12.294100 16.348392 0.772320 2.421897 0.011216 -0.004647 -733989.000000 1 0 0
12.358675 -2.501226 -11.126000 16.816089 -0.199689 2.293785 0.020346 -0.002617 -242820.000000 1 0 0
7.475175 -0.686226 -10.548000 12.946407 -0.091544 2.523083 0.003968 -0.002634 -693598.000000 1 0 0
5.406075 3.945374 -14.412500 15.890619 0.630450 2.706858 0.006554 -0.000500 964111.000000 1 0 0
14.650475 2.913074 -12.862000 19.711760 0.196278 2.281680 0.009287 -0.015474 -392424.000000 1 0 0
-6.575025 6.557974 -15.983900 18.485752 -0.784100 2.615271 0.003939 -0.002010 394334.000000 1 0 0
-11.042225 3.889174 -16.498600 20.230180 -0.338642 2.524465 0.038661 -0.022290 -34073.100000 1 0 0
-4.967925 6.459374 -17.951200 19.714192 -0.915181 2.715463 0.000298 0.001728 480082.000000 1 0 0
-10.050225 1.601574 -15.821900 18.812351 -0.158028 2.569995 0.032521 -0.013276 -70786.300000 1 0 0
-7.548325 5.663674 -18.213600 20.513157 -0.643707 2.663553 0.006972 -0.002553 -638331.000000 1 0 0
-8.650625 3.812374 -15.486700 18.144018 -0.415097 2.593544 0.004928 -0.007449 -1760550.000000 1 0 0
8.904275 13.432674 -12.141500 20.177683 0.985419 2.216461 0.047429 -0.012810 -1730800.000000 1 0 0
13.917675 9.055374 -11.266300 20.065667 0.576824 2.166959 0.026788 -0.012465 271945.000000 1 0 0
8.245075 15.895174 -9.076700 20.075465 1.092289 2.039947 0.037944 -0.011851 -249646.000000 1 0 0
7.114675 13.700574 -13.899100 20.772802 1.091830 2.303795 0.036548 -0.004847 -237813.000000 1 0 0
4.813175 16.086874 -12.247300 20.783420 1.280075 2.200966 0.042371 -0.018335 65562.300000 1 0 0
11.089275 11.058574 -11.397000 19.368936 0.784012 2.199895 0.039899 -0.013338 -296102.000000 1 0 0
15.664175 9.923374 -9.480600 20.825982 0.564694 2.043426 0.048798 -0.011082 723629.000000 1 0 0
13.131075 10.561974 -9.198300 19.198676 0.677387 2.070438 0.051518 -0.015851 -327370.000000 1 0 0
10.580275 11.919774 -8.034200 17.848575 0.844861 2.037709 0.026130 -0.004642 372505.000000 1 0 0
5.393675 16.084474 -9.728200 19.556071 1.247246 2.091455 0.029142 -0.022155 -505031.000000 1 0 0
6.743975 14.575974 -11.396500 19.693157 1.137450 2.187934 0.028475 -0.006245 -45789.100000 1 0 0
10.719675 13.763374 -9.787200 20.003280 0.909082 2.082060 0.045594 -0.007832 -92435.900000 1 0 0
8.297775 -18.580526 -1.492500 20.403837 -1.150786 1.644010 0.048486 -0.002776 -103923.000000 1 0 0
7.598375 -17.113726 -3.501300 19.049253 -1.152949 1.755650 0.039809 -0.008835 111516.000000 1 0 0
4.535775 -18.190426 5.665100 19.584642 -1.326430 1.277340 0.040985 -0.007593 -58837.300000 1 0 0
10.036075 -16.945026 -2.386200 19.838111 -1.036078 1.691372 0.042297 -0.002898 -1151240.000000 1 0 0
-9.687225 -12.152126 -10.083500 18.525481 0.897788 2.146356 0.046037 -0.016937 -1471330.000000 1 0 0
-5.064425 -6.983326 -12.153900 14.904111 0.943346 2.524342 0.006348 0.000607 622909.000000 1 0 0
-10.823525 -9.449226 -5.842200 15.510250 0.717711 1.956992 0.013853 -0.006775 -1378890.000000 1 0 0
-4.438225 -11.488426 -13.970000 18.623712 1.202137 2.419038 0.011968 -0.003721 427059.000000 1 0 0
-2.901525 -15.525226 7.583600 17.520345 1.386037 1.123150 0.006955 0.000466 137657.000000 1 0 0
-4.704825 -12.037026 -11.576500 17.350525 1.198192 2.301258 0.009887 -0.000345 775984.000000 1 0 0
-14.388725 -12.849026 -4.332100 19.771190 0.728930 1.791700 0.054207 -0.014072 95563.600000 1 0 0
-3.234925 -12.265326 -3.222000 13.087560 1.312923 1.819542 0.005052 -0.001295 671743.000000 1 0 0
-2.424025 -17.336326 -1.450200 17.564941 1.431874 1.653453 0.001635 -0.008249 -781656.000000 1 0 0
-5.809725 -12.182026 3.664800 13.985185 1.125791 1.305652 -0.000922 0.002931 732293.000000 1 0 0
-8.777425 -10.506426 -11.838700 18.099254 0.874820 2.283787 0.025283 -0.009869 513077.000000 1 0 0
-9.997525 -12.091826 -7.568800 17.419801 0.879926 2.020273 0.034955 -0.010584 183841.000000 1 0 0
-10.998825 -15.159926 6.214600 19.733696 0.943148 1.250421 0.035993 -0.010442 193871.000000 1 0 0
-9.458925 -15.818426 0.528400 18.438358 1.031872 1.542135 0.019620 0.005360 -2774600.000000 1 0 0
-14.600125 -7.544926 -7.991600 18.274441 0.476974 2.023402 0.011099 -0.020703 -825559.000000 1 0 0
-2.359325 -16.601126 5.195400 17.554372 1.429623 1.270335 0.008797 -0.000638 -597671.000000 1 0 0
4.310375 -15.593126 5.725500 17.161185 -1.301103 1.230644 0.023972 -0.011434 -470361.000000 1 0 0
4.241875 -14.641026 -10.049100 18.257534 -1.288792 2.153650 0.011518 0.000279 -419696.000000 1 0 0
-7.621525 -14.122426 -0.286400 16.050314 1.075914 1.588641 0.002412 0.007197 162466.000000 1 0 0
2.929775 -14.777626 9.719900 17.928700 -1.375077 0.997812 0.014125 -0.008694 -607273.000000 1 0 0
2.372775 -17.146126 10.419300 20.203502 -1.433284 1.028951 0.030280 -0.009728 -292176.000000 1 0 0
-8.307025 -17.254326 -5.784900 20.004587 1.122102 1.864165 0.039523 -0.008402 -257707.000000 1 0 0
-6.391725 -9.127226 -7.702800 13.545978 0.959874 2.175649 0.014421 -0.004934 172482.000000 1 0 0
-6.035525 -13.081226 -4.886000 15.212463 1.138512 1.897776 0.003777 -0.005717 158168.000000 1 0 0
2.037375 -19.516126 -4.791200 20.198655 -1.466779 1.810283 0.022245 -0.011699 -169917.000000 1 0 0
-5.470725 -12.937826 8.347800 16.340194 1.170750 1.034594 0.012263 -0.003616 1296170.000000 1 0 0
2.187375 -17.506226 3.449900 17.976495 -1.446492 1.377687 0.024173 -0.012376 170780.000000 1 0 0
-17.474525 -10.042226 -2.712400 20.336234 0.521592 1.704573 0.053516 -0.024354 711713.000000 1 0 0
-3.477725 -15.506026 2.679800 16.115605 1.350165 1.403734 0.002844 -0.001607 50546.200000 1 0 0
-9.920725 -10.166226 -14.148200 20.048553 0.797619 2.354202 0.038991 -0.012168 -39874.100000 1 0 0
6.176575 -14.523326 -5.623000 16.753961 -1.168683 1.913062 0.014976 -0.005373 322626.000000 1 0 0
-7.228725 -12.298726 -10.759200 17.868226 1.039424 2.216977 0.018891 -0.011453 -526339.000000 1 0 0
-7.137625 -14.396626 3.939900 16.544828 1.110527 1.330351 0.000463 0.005594 845808.000000 1 0 0
3.294075 -14.969426 -3.158500 15.649625 -1.354195 1.774018 0.014507 -0.007524 393035.000000 1 0 0
-7.637325 -11.424826 7.859200 15.831058 0.981536 1.051301 0.013772 -0.005997 -2712100.000000 1 0 0
-12.609725 -12.284026 -1.138200 17.640803 0.772315 1.635362 0.025468 0.001033 -1035160.000000 1 0 0
-1.867025 -13.708126 4.056200 14.417047 1.435431 1.285598 -0.000019 0.000893 -2480500.000000 1 0 0
-3.088825 -14.011326 5.473500 15.356344 1.353815 1.206349 0.002907 0.001421 344829.000000 1 0 0
-14.510525 -10.312926 -4.405000 18.338915 0.617885 1.813368 0.033830 -0.012077 696620.000000 1 0 0
-6.260025 -8.671026 -10.385600 14.907558 0.945492 2.341537 0.012169 -0.004616 161088.000000 1 0 0
0.811775 -19.507326 2.474000 19.680331 -1.529206 1.444754 0.025153 -0.015209 114193.000000 1 0 0
6.443575 -14.160826 -8.248100 17.609083 -1.143769 2.058276 0.020466 -0.003232 -2539650.000000 1 0 0
-3.904725 -16.787826 -5.840700 18.198674 1.342267 1.897519 0.003131 -0.007841 -134874.000000 1 0 0
-3.549825 -13.763926 -13.200400 19.398388 1.318389 2.319227 0.018191 0.002466 -471245.000000 1 0 0
-8.141025 -14.714526 -4.728500 17.468608 1.065450 1.844901 0.009964 -0.007381 344877.000000 1 0 0
-4.517325 -14.438326 10.271500 18.285929 1.267574 0.974338 0.019601 -0.005949 -1452940.000000 1 0 0
-0.280025 -12.140926 -9.976500 15.716585 1.547736 2.258514 0.007304 0.001708 868728.000000 1 0 0
2.477075 -17.152926 6.847700 18.634639 -1.427377 1.194507 0.029805 -0.015078 932601.000000 1 0 0
-2.787625 -19.134426 -3.345000 19.623611 1.426128 1.742091 0.010938 -0.016106 -616167.000000 1 0 0
0.713075 -15.375926 -3.145800 15.710622 -1.524453 1.772393 0.011904 -0.006457 -616482.000000 1 0 0
6.132275 -17.890626 0.518400 18.919515 -1.240582 1.543393 0.028811 -0.008904 -231253.000000 1 0 0
-7.025625 -16.859426 3.847400 18.665533 1.175962 1.363185 0.003293 0.005828 786486.000000 1 0 0
-5.259525 -13.577126 -9.523200 17.398054 1.201215 2.150017 0.004649 -0.005388 -121267.000000 1 0 0
5.749275 -15.246526 -2.107400 16.430212 -1.210197 1.699414 0.019227 -0.001097 -401630.000000 1 0 0
-8.713425 -10.205426 -0.453900 13.426858 0.864098 1.604608 0.006192 0.005758 -718842.000000 1 0 0
-7.350725 -18.013926 -3.203100 19.717873 1.183363 1.733966 0.018635 -0.024752 222753.000000 1 0 0
8.004175 -16.028126 -1.112200 17.950059 -1.107642 1.632797 0.022118 0.000170 -473753.000000 1 0 0
-8.022225 -10.241026 -9.306500 15.995175 0.906296 2.191775 0.023089 -0.011156 -975119.000000 1 0 0
-9.168625 -15.237826 -7.183000 19.179429 1.029127 1.954671 0.043685 -0.014011 -307545.000000 1 0 0
-11.432525 -10.405426 -12.102300 19.632656 0.738400 2.235006 0.044536 -0.004230 682233.000000 1 0 0
6.686775 -16.247226 2.507000 17.747404 -1.180361 1.429062 0.030601 -0.006390 693237.000000 1 0 0
-2.172525 -11.190226 -6.045600 12.903112 1.379037 2.058432 0.009174 -0.002233 -566987.000000 1 0 0
-12.452825 -15.256926 -3.620400 20.023834 0.886250 1.752601 0.043036 -0.012756 -481933.000000 1 0 0
-0.317625 -19.542726 -2.755300 19.738559 1.554545 1.710843 0.031222 -0.020907 -737015.000000 1 0 0
-5.791725 -15.644926 -4.684700 17.327844 1.216242 1.844560 0.003199 -0.010111 -3923960.000000 1 0 0
1.980975 -15.942326 -1.022000 16.097407 -1.447171 1.634328 0.015221 -0.010403 52687.700000 1 0 0
-13.187225 -11.872626 5.090000 18.459963 0.732988 1.291445 0.029126 -0.008247 485828.000000 1 0 0
2.120875 -15.221626 -8.877200 17.748259 -1.432355 2.094595 0.013144 0.003334 -1876120.000000 1 0 0
-11.778625 -16.680926 -0.226000 20.421566 0.955979 1.581863 0.059934 -0.019513 -3794.210000 1 0 0
-7.545525 -16.634426 -1.074600 18.297372 1.144945 1.629560 0.015727 -0.003296 456205.000000 1 0 0
-3.086925 -14.527026 -1.732200 14.952060 1.361415 1.686907 -0.000230 -0.002259 90369.400000 1 0 0
-1.782025 -10.579026 -13.135000 16.959352 1.403914 2.456719 0.004497 0.002311 220930.000000 1 0 0
1.607875 -19.474126 5.004000 20.170941 -1.488418 1.320099 0.035470 -0.015968 -292908.000000 1 0 0
-17.438625 -9.431926 2.400000 19.970650 0.495802 1.450329 0.054576 -0.017670 33509.600000 1 0 0
-2.675925 -15.791726 -7.971900 17.891069 1.402940 2.032618 0.002814 -0.001207 -2034550.000000 1 0 0
-10.260325 -12.229326 -0.005400 15.963418 0.872727 1.571135 0.007920 0.008449 375914.000000 1 0 0
-6.861525 -11.386326 -6.587400 14.836535 1.028459 2.030853 0.010251 -0.005945 -363293.000000 1 0 0
-2.193125 -13.625126 -6.720500 15.349885 1.411203 2.023970 -0.000341 0.000422 504573.000000 1 0 0
-14.287525 -14.349926 -1.356900 20.295194 0.787577 1.637704 0.055774 -0.012533 282208.000000 1 0 0
-9.553025 -11.305526 -4.728700 15.538204 0.869220 1.880028 0.014415 -0.006556 734525.000000 1 0 0
9.473175 -15.114126 -5.068300 18.543611 -1.010921 1.847637 0.026836 -0.001818 16462.100000 1 0 0
-5.554525 -10.892326 -9.380500 15.410687 1.099222 2.225219 0.010607 -0.005167 -1243040.000000 1 0 0
-10.384525 -15.952726 -4.945900 19.666971 0.993749 1.825008 0.045042 -0.015611 133786.000000 1 0 0
2.071375 -17.350626 -3.328200 17.787966 -1.451975 1.759010 0.020752 -0.010801 362487.000000 1 0 0
-0.289625 -14.593126 -8.196900 16.740143 1.550952 2.082491 0.004107 0.002470 -812736.000000 1 0 0
-0.811425 -18.322126 -7.127900 19.676526 1.526539 1.941481 0.011337 -0.001585 7753.950000 1 0 0
-1.787925 -9.926326 -10.508900 14.565905 1.392588 2.376723 0.004951 0.001725 417729.000000 1 0 0
-5.027325 -17.438626 2.078500 18.267453 1.290120 1.456768 0.005364 -0.002839 858837.000000 1 0 0
0.302275 -12.825626 -2.611500 13.092287 -1.547233 1.771612 0.005617 -0.001299 -2396640.000000 1 0 0
2.609075 -14.981826 3.029000 15.506038 -1.398376 1.374189 0.020483 -0.006084 -1379390.000000 1 0 0
-9.336825 -13.194026 6.783100 17.529092 0.954951 1.173461 0.009042 -0.000359 -1233580.000000 1 0 0
-0.910925 -17.816326 -4.541500 18.408598 1.519712 1.820075 0.016216 -0.013800 -577841.000000 1 0 0
-9.743525 -17.666726 -2.176000 20.292473 1.066788 1.678235 0.046193 -0.019080 471986.000000 1 0 0
1.354075 -16.218526 1.423500 16.337088 -1.487500 1.483553 0.012453 -0.011400 680315.000000 1 0 0
-0.345525 -18.048126 4.285700 18.553206 1.551654 1.337696 0.014888 -0.009096 304864.000000 1 0 0
-17.377625 -9.376626 -0.180700 19.746787 0.494808 1.579947 0.040261 -0.015859 716522.000000 1 0 0
-14.965325 -7.233226 -10.573300 19.699623 0.450225 2.137348 0.051142 -0.022156 794229.000000 1 0 0
2.981675 -12.692926 -8.911000 15.792615 -1.340071 2.170322 0.003739 0.002324 544787.000000 1 0 0
-11.592325 -14.696126 1.440600 18.773210 0.902921 1.493984 0.032500 -0.002229 230667.000000 1 0 0
-2.234125 -15.489726 10.760900 18.992627 1.427552 0.968443 0.020111 -0.003910 -246744.000000 1 0 0
-6.998725 -15.994526 1.342800 17.510286 1.158327 1.494035 0.008457 0.006470 -1128280.000000 1 0 0
-12.540425 -15.133826 -6.253200 20.625165 0.878837 1.878827 0.054780 -0.013443 546092.000000 1 0 0
0.867875 -13.780826 -5.086000 14.715018 -1.507902 1.923710 0.008142 -0.001535 670270.000000 1 0 0
5.941675 -16.536326 -7.383100 19.059479 -1.225851 1.968575 0.032385 -0.009722 291559.000000 1 0 0
-6.589025 -12.951926 5.940400 15.698917 1.100190 1.182734 0.007093 0.001740 -243413.000000 1 0 0
-2.591025 -13.676026 0.617200 13.932983 1.383558 1.526484 0.005508 -0.002666 2599580.000000 1 0 0
-4.281325 -15.595426 0.263800 16.174568 1.302872 1.554486 0.000622 0.000754 44338.500000 1 0 0
-17.737025 -7.587826 -2.079900 19.403688 0.404236 1.678194 0.031335 -0.013883 677357.000000 1 0 0
1.396775 -12.769826 -11.886500 17.501666 -1.461849 2.317419 0.008750 0.003578 -47993.300000 1 0 0
1.292675 -17.235726 -5.871000 18.254038 -1.495937 1.898244 0.025595 -0.003694 1418330.000000 1 0 0
-12.767425 -6.300826 -9.289500 17.000069 0.458441 2.148903 0.022042 -0.009034 1712720.000000 1 0 0
-11.660025 -13.476426 -9.056600 19.989803 0.857534 2.040992 0.066649 -0.021555 787356.000000 1 0 0
-4.223425 -9.969426 3.434300 11.358749 1.170080 1.263641 0.008961 0.001371 -4211220.000000 1 0 0
-7.034225 -14.413226 9.691200 18.738750 1.116763 1.027250 0.022039 -0.008762 -975990.000000 1 0 0
-5.269225 -15.757226 -7.922500 18.407088 1.248086 2.015738 0.005348 -0.016422 -443119.000000 1 0 0
-0.230825 -13.632126 2.140700 13.801113 1.553866 1.415057 0.008069 -0.003436 833026.000000 1 0 0
-10.958025 -13.456226 -4.973400 18.052230 0.887369 1.849907 0.040189 -0.010493 -232198.000000 1 0 0
-9.723825 -10.692326 6.590500 15.884372 0.832801 1.142958 0.016403 0.000198 -486223.000000 1 0 0
-15.498125 -8.064226 -4.902500 18.145471 0.479783 1.844374 0.035266 -0.015627 -1363590.000000 1 0 0
-14.414725 -7.158126 5.250900 16.929117 0.460911 1.255425 0.024644 -0.009178 -562176.000000 1 0 0
-1.552825 -19.443126 0.014300 19.505041 1.491101 1.570063 0.019393 -0.013103 -433497.000000 1 0 0
-15.162025 -12.069626 -1.569100 19.442863 0.672324 1.651587 0.045824 -0.009162 169156.000000 1 0 0
-4.381225 -12.131126 -6.721700 14.544435 1.224218 2.051214 0.008245 -0.004223 1467610.000000 1 0 0
-7.344125 -18.564726 1.936500 20.058296 1.194093 1.474102 0.020143 0.001479 27587.700000 1 0 0
-2.469825 -11.736226 -8.621600 14.770613 1.363378 2.194074 0.005822 -0.000149 394555.000000 1 0 0
-1.134625 -20.468326 -4.950900 21.089124 1.515420 1.807769 0.024580 -0.006405 -255184.000000 1 0 0
-5.266925 -8.902726 -13.890300 17.318760 1.036570 2.501496 0.010850 -0.000882 5007.960000 1 0 0
-8.016725 -19.216926 -0.986300 20.845405 1.175576 1.618129 0.018819 -0.005025 241009.000000 1 0 0
-16.953925 -7.285226 5.701900 19.313771 0.405851 1.271106 0.042299 -0.017269 -107542.000000 1 0 0
-3.551725 -14.665226 -4.259600 15.678896 1.333185 1.845932 0.001069 -0.004162 -2435550.000000 1 0 0
-2.853125 -14.760926 -10.816400 18.520793 1.379862 2.194461 0.007194 -0.003545 -574354.000000 1 0 0
-0.089325 -16.601426 6.300200 17.756910 1.565416 1.208093 0.026799 -0.013247 -1111800.000000 1 0 0
-11.141325 -11.582526 3.638400 16.477924 0.804812 1.348157 0.014553 -0.001742 -233962.000000 1 0 0
-0.209525 -14.758926 -0.181600 14.761530 1.556601 1.583099 0.003342 -0.001206 676821.000000 1 0 0
-7.282625 -9.441626 -2.467300 12.176555 0.913782 1.774836 0.008157 0.000252 -392926.000000 1 0 0
-10.955825 -14.369126 -1.082300 18.101747 0.919371 1.630622 0.023884 -0.005846 257448.000000 1 0 0
0.341175 -14.596926 -10.603600 18.045026 -1.547427 2.198909 0.003966 0.001764 -160304.000000 1 0 0
-1.438725 -13.978326 -3.861500 14.573081 1.468232 1.838974 0.003471 -0.002732 -3513020.000000 1 0 0
-11.490025 -7.953826 -7.799900 16.003826 0.605497 2.079880 0.018009 -0.008559 323365.000000 1 0 0
-0.167525 -17.330826 -0.302800 17.334280 1.561130 1.588265 0.010264 -0.009375 560934.000000 1 0 0
-12.880025 -9.445626 4.335300 16.550218 0.632763 1.305756 0.025174 -0.004124 -104954.000000 1 0 0
4.064575 -16.821826 1.672300 17.386523 -1.333715 1.474464 0.025788 -0.011357 3259850.000000 1 0 0
-4.026625 -17.937526 -8.128600 20.100813 1.349976 1.987110 0.015826 -0.005961 21137.100000 1 0 0
-13.379325 -11.199126 2.516300 17.628344 0.696926 1.427565 0.024398 -0.005133 -613344.000000 1 0 0
-8.562625 -12.301526 4.038600 15.522769 0.962718 1.307595 0.008086 0.001331 1726460.000000 1 0 0
-8.215525 -9.308526 -5.932400 13.759973 0.847689 2.016546 0.014462 -0.005811 -1219260.000000 1 0 0
3.801975 -17.705626 -5.210100 18.843815 -1.359276 1.850935 0.016356 0.004755 -1036110.000000 1 0 0
-2.592125 -12.969726 11.290900 17.390150 1.373536 0.864172 0.009997 -0.013956 -292751.000000 1 0 0
0.205075 -16.822926 -9.494600 19.318393 -1.558607 2.084584 0.011153 0.006384 -256104.000000 1 0 0
-6.884625 -10.723826 -14.544800 19.337779 1.000070 2.422106 0.019419 -0.002583 -2776550.000000 1 0 0
-4.557425 -18.891026 -1.415500 19.484471 1.334072 1.643508 0.016424 -0.017415 -307467.000000 1 0 0
-2.442625 -17.271526 1.144900 17.480927 1.430303 1.505255 0.011292 -0.008677 165336.000000 1 0 0
4.166275 -14.635226 -7.477800 16.954798 -1.293458 2.027557 0.015464 -0.001264 17296.900000 1 0 0
-0.977425 -15.901026 -6.162000 17.081224 1.509404 1.939865 0.006203 -0.003285 -259247.000000 1 0 0
-9.470025 -15.263926 8.324400 19.798092 1.015498 1.136839 0.025254 -0.006843 -710137.000000 1 0 0
-7.242325 -12.056726 -1.718700 14.169327 1.029871 1.692393 0.000453 0.001301 912330.000000 1 0 0
-7.371325 -15.117726 -9.373300 19.254631 1.117122 2.079228 0.028503 -0.012958 196665.000000 1 0 0
-5.120525 -13.366626 -0.592800 14.326125 1.204958 1.612187 0.001121 0.001864 1806940.000000 1 0 0
-6.539625 -13.687126 -7.359000 16.859982 1.125071 2.022476 0.010183 -0.010444 505169.000000 1 0 0
5.819175 -15.374726 0.294200 16.441762 -1.208970 1.552902 0.020517 -0.002533 564727.000000 1 0 0
-14.307125 -12.850926 0.781800 19.247112 0.731830 1.530166 0.020525 -0.002439 708644.000000 1 0 0
0.847675 -15.223026 11.192400 18.913722 -1.515170 0.937555 0.006808 -0.006470 -132747.000000 1 0 0
-9.220225 -10.877526 1.902900 14.385901 0.867674 1.438132 0.003747 0.007249 343271.000000 1 0 0
-9.427325 -8.873126 -3.708600 13.467016 0.755124 1.849785 0.011304 -0.003131 -788713.000000 1 0 0
-12.230925 -7.079326 -12.434600 18.823699 0.524689 2.292390 0.038794 -0.010175 -291200.000000 1 0 0
-13.238825 -8.387826 -0.694400 15.687711 0.564744 1.615075 0.015441 -0.005359 -507834.000000 1 0 0
-11.113325 -9.762026 0.417900 14.797898 0.720757 1.542552 -0.000464 0.005005 884705.000000 1 0 0
-15.810825 -12.274426 2.835300 20.215900 0.660141 1.430081 0.057844 -0.008467 63753.500000 1 0 0
-10.318325 -12.451726 -2.530100 16.368100 0.878819 1.725994 0.024011 -0.004932 831927.000000 1 0 0
-3.365025 -8.911626 -12.126300 15.420364 1.209749 2.475727 0.005836 0.003085 -1685830.000000 1 0 0
-0.205325 -15.608126 3.904100 16.090300 1.557642 1.325713 0.015890 -0.007505 -832611.000000 1 0 0
-15.838725 -7.728726 1.121100 17.659424 0.453972 1.507269 0.036055 -0.009469 777257.000000 1 0 0
-6.184325 -13.361126 -13.335100 19.864301 1.137300 2.306771 0.023573 -0.005156 -110009.000000 1 0 0
-15.367625 -10.398226 1.087500 18.586814 0.594870 1.512254 0.047851 -0.011760 309996.000000 1 0 0
-9.892625 -8.232426 -12.543800 17.971749 0.694056 2.343360 0.026531 -0.006838 11739.800000 1 0 0
-13.222725 -11.541626 -6.411100 18.685603 0.717618 1.921016 0.040963 -0.014823 23533.200000 1 0 0
-12.163725 -11.433326 -4.010800 17.168682 0.754455 1.806587 0.023348 -0.005092 407492.000000 1 0 0
-11.742425 -10.875626 -9.112000 18.417174 0.747094 2.088350 0.042899 -0.023101 364749.000000 1 0 0
-13.192925 -8.461426 -5.850800 16.729640 0.570278 1.928076 0.016545 -0.013500 -1156920.000000 1 0 0
-13.422825 -8.097326 -3.280100 16.015554 0.542806 1.777063 0.018037 -0.012762 625849.000000 1 0 0
-4.341925 -16.984526 -3.173300 17.815618 1.320516 1.749871 0.002201 -0.011552 157598.000000 1 0 0
-15.389425 -8.947026 -1.777700 17.889770 0.526612 1.670330 0.043669 -0.010661 7151.580000 1 0 0
-9.349925 -15.761826 3.519000 18.661179 1.035391 1.381087 0.015089 0.002778 -1316950.000000 1 0 0
4.849775 -16.757426 7.937000 19.165793 -1.289083 1.143817 0.045381 -0.037723 100993.000000 1 0 0
-8.419725 -15.612926 5.915100 18.698760 1.076221 1.248931 0.010983 0.007725 225821.000000 1 0 0
0.847475 -16.016026 8.638100 18.216698 -1.517931 1.076757 0.014956 -0.006694 396190.000000 1 0 0
-10.866325 -7.748526 -10.319600 16.870412 0.619449 2.229002 0.025247 -0.009566 756822.000000 1 0 0
-4.786525 -15.994626 5.851800 17.691310 1.280020 1.233674 0.009206 -0.003363 -652940.000000 1 0 0
-1.228025 -13.233126 -12.123300 17.988832 1.478262 2.310318 0.005919 0.000861 -690512.000000 1 0 0
-6.546925 -14.375726 -2.615600 16.011405 1.143448 1.734890 0.006289 -0.004627 401689.000000 1 0 0
-17.616825 -6.896726 -7.243000 20.257798 0.373145 1.936430 0.036585 -0.023800 280450.000000 1 0 0
-17.260625 -4.028926 -10.214500 20.457209 0.229311 2.093599 0.046536 -0.021709 540361.000000 1 0 0
-15.221425 -5.184926 -9.027600 18.441062 0.328306 2.082356 0.021114 -0.021518 94047.200000 1 0 0
-16.001225 -5.401126 -5.812600 17.860506 0.325536 1.902278 0.019993 -0.013290 284904.000000 1 0 0
-15.122625 -4.437126 -12.583900 20.167707 0.285400 2.244600 0.047429 -0.011409 154338.000000 1 0 0
-18.610325 -5.396826 -5.493300 20.140662 0.282249 1.847043 0.030171 -0.013894 178665.000000 1 0 0
-17.425025 -4.364126 -7.703600 19.545397 0.245404 1.975927 0.031071 -0.017809 1040860.000000 1 0 0
12.150275 -7.831426 8.892200 16.971495 -0.572532 1.019315 0.022138 -0.002743 -8304.220000 1 0 0
15.950675 -3.407026 1.911500 16.422110 -0.210435 1.454134 0.025709 -0.006455 952953.000000 1 0 0
11.813975 -2.245026 12.602100 17.419044 -0.187792 0.761985 0.015578 -0.006481 908935.000000 1 0 0
9.677375 -10.027226 5.356100 14.929322 -0.803151 1.203853 0.000980 0.000009 117495.000000 1 0 0
16.815875 -1.737926 7.362100 18.438942 -0.102985 1.160077 0.053539 -0.015278 377965.000000 1 0 0
5.247275 -12.981826 9.104500 16.701905 -1.186673 0.994267 0.013554 0.002004 89513.500000 1 0 0
15.112975 -8.923626 -2.191300 17.687140 -0.533376 1.695008 0.034656 -0.007120 434319.000000 1 0 0
11.037775 -8.485526 6.582100 15.400022 -0.655407 1.129172 0.010511 -0.004505 -2305770.000000 1 0 0
19.989575 -3.064026 3.885500 20.592923 -0.152097 1.380977 0.064256 -0.018224 -712831.000000 1 0 0
13.503875 -8.490826 6.851400 17.360601 -0.561305 1.165107 0.026579 -0.008318 -1554690.000000 1 0 0
8.330075 -11.045026 8.868000 16.432412 -0.924617 1.000757 0.009912 -0.000084 -697010.000000 1 0 0
16.610575 0.035874 -0.589300 16.621064 0.002160 1.606259 0.020008 0.000582 -1359080.000000 1 0 0
12.507775 -12.272326 2.268100 17.669146 -0.775897 1.442076 0.023148 -0.000775 -1681180.000000 1 0 0
10.473475 -11.591626 3.719900 16.059176 -0.836030 1.337036 0.011715 -0.000031 -1183020.000000 1 0 0
16.324875 3.164574 2.395000 16.800361 0.191475 1.427753 0.009472 -0.001817 -684577.000000 1 0 0
18.251975 -3.357826 0.369400 18.561952 -0.181936 1.550894 0.040801 -0.003664 610396.000000 1 0 0
13.428675 -11.457326 -0.148600 17.652811 -0.706348 1.579214 0.040709 -0.005248 -675926.000000 1 0 0
16.964375 -7.596826 -0.803300 18.605029 -0.421032 1.613986 0.050013 -0.003589 631800.000000 1 0 0
10.100775 -5.785926 9.842400 15.243866 -0.520194 0.868905 0.006650 -0.001839 -957257.000000 1 0 0
11.347175 -13.314226 6.346300 18.609205 -0.864992 1.222784 0.029931 0.000590 78341.000000 1 0 0
13.010175 -1.687626 10.422500 16.755335 -0.128996 0.899450 0.032486 -0.005758 957944.000000 1 0 0
15.512875 -1.956526 -1.507100 15.708235 -0.125460 1.666887 0.011519 0.000304 -453991.000000 1 0 0
10.496575 -12.379726 9.224900 18.669078 -0.867532 1.053966 0.032288 -0.006616 15304.700000 1 0 0
14.679975 1.246174 3.363000 15.111731 0.084686 1.346375 0.015875 -0.002413 928191.000000 1 0 0
14.793075 -5.900726 5.261100 16.772979 -0.379544 1.251746 0.029585 -0.008812 -875843.000000 1 0 0
14.262675 -3.364726 -3.064300 14.971146 -0.231675 1.776933 0.007071 -0.002869 1184600.000000 1 0 0
14.095675 0.689474 9.694300 17.121416 0.048875 0.968897 0.044606 -0.006458 876776.000000 1 0 0
15.469975 -3.524226 4.580100 16.514164 -0.223988 1.289768 0.027419 -0.006182 -939101.000000 1 0 0
18.496375 4.915974 -4.272600 19.609636 0.259775 1.790441 0.020604 -0.003997 712716.000000 1 0 0
18.319275 -5.678526 -5.081600 19.840972 -0.300583 1.829799 0.077103 -0.007687 603909.000000 1 0 0
17.330875 0.220774 5.917500 18.314606 0.012738 1.241790 0.049478 -0.004867 781382.000000 1 0 0
16.944475 -6.595026 4.071400 18.632926 -0.371174 1.350513 0.044239 -0.011446 -469396.000000 1 0 0
9.571375 -6.691026 14.410000 18.548023 -0.610099 0.681066 0.013512 -0.005801 -785898.000000 1 0 0
8.599475 -12.299426 5.169800 15.873049 -0.960623 1.239048 0.007389 -0.002133 -2196240.000000 1 0 0
16.811175 -10.159426 -0.617600 19.652251 -0.543594 1.602228 0.049017 -0.003288 -329771.000000 1 0 0
14.889475 -8.807626 0.363900 17.303271 -0.534171 1.549764 0.040905 -0.005772 157636.000000 1 0 0
10.093775 -12.802326 1.531600 16.374665 -0.903148 1.477125 0.017438 -0.003353 -483075.000000 1 0 0
16.795975 -8.171226 8.904600 20.692163 -0.452789 1.125930 0.063464 -0.011561 627049.000000 1 0 0
18.989775 -0.225226 -1.798000 19.076035 -0.011860 1.665191 0.043879 -0.003098 163102.000000 1 0 0
13.522675 -1.161126 7.790100 15.649173 -0.085655 1.049740 0.026594 -0.007565 -51211.200000 1 0 0
12.851275 -9.801126 -3.018700 16.441712 -0.651553 1.755444 0.020929 -0.003104 -2093370.000000 1 0 0
8.939975 -15.129326 1.482500 17.635687 -1.037092 1.486634 0.029497 0.000509 22476.100000 1 0 0
11.359175 -8.149526 11.278800 17.962655 -0.622335 0.891941 0.023391 -0.001771 534281.000000 1 0 0
13.973175 -3.960426 -0.532300 14.533339 -0.276187 1.607431 0.004695 -0.005054 -786601.000000 1 0 0
7.176475 -13.205226 10.864200 18.544828 -1.072990 0.944887 0.020990 0.004638 -555002.000000 1 0 0
15.335375 -6.730226 1.936600 16.858829 -0.413559 1.455671 0.025352 -0.005928 -495182.000000 1 0 0
15.790175 -6.128426 -2.552200 17.128951 -0.370220 1.720352 0.045061 -0.005152 -61405.000000 1 0 0
11.231775 -8.476326 3.917200 14.606346 -0.646486 1.299288 0.008700 -0.005512 823864.000000 1 0 0
10.746675 -14.395626 -0.409100 17.969208 -0.929524 1.593565 0.031236 0.000695 608726.000000 1 0 0
13.233775 -12.860826 4.601900 19.018705 -0.771107 1.326404 0.012635 0.000431 489341.000000 1 0 0
12.695075 -10.985626 6.461500 17.988883 -0.713336 1.203392 0.011863 -0.003797 311787.000000 1 0 0
10.919275 -10.417026 1.443100 15.160064 -0.761863 1.475461 0.006306 -0.004157 691038.000000 1 0 0
13.862375 -7.493926 11.976500 19.792952 -0.495594 0.920918 0.036346 -0.008045 -511079.000000 1 0 0
15.387275 -1.772026 -4.896200 16.244417 -0.114657 1.876965 0.022888 -0.003246 110019.000000 1 0 0
13.130375 -11.457526 -7.155300 18.838258 -0.717467 1.960407 0.033073 0.000854 -234644.000000 1 0 0
17.619375 -5.380026 1.920700 18.522315 -0.296355 1.466913 0.054904 -0.009198 -46226.000000 1 0 0
10.612575 -9.779926 9.308400 17.173236 -0.744590 0.997946 0.010781 0.001141 -826298.000000 1 0 0
16.408775 1.779674 10.047200 19.322561 0.108036 1.023978 0.066491 -0.011694 -427930.000000 1 0 0
18.126575 3.732574 0.594100 18.516420 0.203079 1.538706 0.017695 0.000571 569008.000000 1 0 0
13.274675 -3.968926 5.874900 15.049380 -0.290525 1.169758 0.020229 -0.007635 -1084590.000000 1 0 0
12.087475 -6.126026 6.788400 15.156439 -0.469079 1.106394 0.016440 -0.006210 -89570.900000 1 0 0
16.557575 -10.257426 3.646500 19.815778 -0.554635 1.385722 0.039292 -0.003660 33424.700000 1 0 0
16.280175 -8.034326 -5.449800 18.955074 -0.458437 1.862424 0.053984 -0.007164 233634.000000 1 0 0
13.994275 -0.346626 5.429100 15.014494 -0.024764 1.200823 0.018668 -0.004245 349533.000000 1 0 0
18.398575 -4.219826 5.424800 19.640340 -0.225457 1.290951 0.065364 -0.012005 193298.000000 1 0 0
13.834075 -13.267726 6.999800 20.406161 -0.764504 1.220662 0.048246 -0.013571 -35204.500000 1 0 0
14.968775 -13.511026 -0.736500 20.178070 -0.734257 1.607304 0.045296 -0.003568 404988.000000 1 0 0
17.937175 -5.950826 8.258500 20.624195 -0.320333 1.158813 0.081213 -0.005417 691099.000000 1 0 0
14.299075 3.304174 9.387500 17.421432 0.227090 1.001728 0.037422 -0.009018 219505.000000 1 0 0
18.816575 3.848774 3.103100 19.455226 0.201759 1.410613 0.040459 -0.002244 702096.000000 1 0 0
14.588175 -10.461126 8.222700 19.744944 -0.622108 1.141264 0.030719 -0.011776 -219986.000000 1 0 0
14.807475 -4.742226 10.433800 18.724695 -0.309938 0.979761 0.054586 -0.013873 12795.000000 1 0 0
17.773575 -7.854726 2.002300 19.534736 -0.416125 1.468117 0.074105 -0.014081 299597.000000 1 0 0
18.311575 -5.624726 -1.929200 19.252874 -0.298020 1.671168 0.049711 -0.009104 -365287.000000 1 0 0
14.450775 -13.039526 -5.478500 20.220487 -0.734107 1.845164 0.040965 -0.000169 293122.000000 1 0 0
15.416775 -1.515226 9.520000 18.182499 -0.097970 1.019748 0.072955 -0.011844 293687.000000 1 0 0
12.954775 -9.962826 10.441600 19.393584 -0.655580 1.002253 0.015382 -0.001791 -1315660.000000 1 0 0
16.592675 2.256974 4.851800 17.434184 0.135193 1.288781 0.025614 -0.006881 -884092.000000 1 0 0
14.977575 2.485674 0.065700 15.182577 0.164461 1.566469 0.007149 0.000526 -1542410.000000 1 0 0
15.077975 -9.775526 -7.032500 19.296692 -0.575201 1.943828 0.047596 -0.003854 693872.000000 1 0 0
16.125175 0.074374 -3.240500 16.447725 0.004612 1.769112 0.018827 -0.000436 -358069.000000 1 0 0
11.839275 2.671574 13.545500 18.187532 0.221936 0.730609 0.029514 -0.002488 -360090.000000 1 0 0
17.653475 -2.994626 9.513600 20.276133 -0.168034 1.082410 0.073261 -0.019932 170986.000000 1 0 0
8.163875 -18.107026 4.398300 20.343507 -1.147221 1.352874 0.064529 -0.018902 -223350.000000 1 0 0
6.920775 -11.212226 6.645900 14.757342 -1.017788 1.103644 0.006188 -0.003809 23361.700000 1 0 0
17.879075 2.141174 -1.478100 18.067395 0.119191 1.652698 0.017188 -0.000889 143884.000000 1 0 0
17.611775 -2.228626 3.752000 18.144391 -0.125873 1.362508 0.034873 -0.007600 -976525.000000 1 0 0
12.629875 -13.336826 -1.827800 18.458752 -0.812617 1.669980 0.034255 -0.001480 -387199.000000 1 0 0
14.996975 -8.265226 4.434000 17.688516 -0.503707 1.317423 0.030844 -0.004122 -335624.000000 1 0 0
11.443575 -2.948926 14.990500 19.088391 -0.252206 0.667583 0.022398 -0.007889 149004.000000 1 0 0
12.139775 -13.717226 -6.413300 19.407907 -0.846329 1.907574 0.026978 -0.003616 -65418.200000 1 0 0
10.699575 -11.932626 -1.189700 16.071212 -0.839826 1.644891 0.016959 -0.004723 -1348860.000000 1 0 0
13.195775 -7.886126 2.170300 15.525130 -0.538671 1.430544 0.017789 -0.002120 -1171030.000000 1 0 0
8.664975 -7.878526 9.961500 15.374799 -0.737896 0.865958 0.006214 -0.001415 -1188760.000000 1 0 0
15.600075 -3.730126 8.086200 17.962818 -0.234703 1.103848 0.059435 -0.012875 -774694.000000 1 0 0
10.623075 -17.359726 4.836400 20.918905 -1.021645 1.337488 0.068499 -0.018591 -388189.000000 1 0 0
15.233475 -6.264926 8.331100 18.458475 -0.390176 1.102527 0.050018 -0.003269 -522884.000000 1 0 0
16.530475 -5.020126 -0.304700 17.278632 -0.294838 1.588432 0.028018 -0.006176 -1075270.000000 1 0 0
13.945575 -10.525726 3.608000 17.840618 -0.646548 1.367157 0.032946 -0.005110 578411.000000 1 0 0
14.911275 -10.008826 -4.496900 18.513369 -0.591152 1.816151 0.046611 -0.009501 -29921.500000 1 0 0
13.503475 -6.497926 0.040400 14.985610 -0.448498 1.568100 0.019346 -0.003446 -232347.000000 1 0 0
17.886175 -0.797926 -4.869300 18.554300 -0.044582 1.836341 0.050769 -0.008472 585417.000000 1 0 0
14.283875 0.349774 -1.665000 14.384841 0.024482 1.686803 0.008558 -0.001925 -2866600.000000 1 0 0
4.782975 -12.873826 11.685600 18.032346 -1.215074 0.865794 0.002934 0.000412 -538215.000000 1 0 0
12.015075 -7.127226 13.619100 19.509979 -0.535397 0.798114 0.028150 -0.009053 1039010.000000 1 0 0
12.039075 -5.666426 11.495300 17.583789 -0.439909 0.858274 0.021025 -0.007978 -83589.600000 1 0 0
13.267875 -4.423226 8.441700 16.335965 -0.321791 1.027739 0.027702 -0.008474 -1023200.000000 1 0 0
15.335775 -1.236826 3.377900 15.752014 -0.080476 1.354675 0.019389 -0.004428 892988.000000 1 0 0
15.163275 -10.283026 5.852000 19.233082 -0.595913 1.261627 0.044925 -0.008879 99988.600000 1 0 0
13.686175 -8.013126 -5.721300 16.859859 -0.529682 1.917016 0.036944 -0.004912 -1205880.000000 1 0 0
9.334775 -2.201226 13.686600 16.712464 -0.231579 0.611225 -0.009416 -0.001685 -174524.000000 1 0 0
10.120975 -9.092726 13.757600 19.348989 -0.731933 0.779843 0.045828 -0.005182 147424.000000 1 0 0
20.341375 6.133574 -2.992200 21.455665 0.292862 1.710712 0.066756 -0.006909 -371233.000000 1 0 0
11.008975 -3.558726 10.547100 15.655778 -0.312654 0.831609 0.008619 -0.004459 991410.000000 1 0 0
10.365875 -13.879626 -2.986100 17.578742 -0.929320 1.741494 0.021516 -0.001050 440282.000000 1 0 0
15.025575 -12.755126 2.674000 19.889983 -0.703852 1.435948 0.040948 0.000230 575932.000000 1 0 0
11.142875 -0.350326 14.347200 18.169440 -0.031429 0.660585 0.016434 -0.004980 8585.520000 1 0 0
19.029575 -1.802726 5.966400 20.024298 -0.094451 1.268244 0.062894 -0.016062 839784.000000 1 0 0
18.919875 -0.247426 8.033600 20.556304 -0.013077 1.169285 0.072206 -0.012399 630235.000000 1 0 0
18.769175 0.765574 0.626400 18.795224 0.040766 1.537463 0.031786 -0.005236 210570.000000 1 0 0
18.356475 0.723174 3.624400 18.724835 0.039376 1.376006 0.027914 -0.007879 -66600.300000 1 0 0
16.693275 -3.908726 -4.057100 17.618276 -0.230006 1.803160 0.037692 -0.006318 1096020.000000 1 0 0
11.220375 -8.209126 15.894100 21.116557 -0.631638 0.718667 0.059067 -0.016526 87350.200000 1 0 0
16.563475 -7.451326 6.423500 19.264795 -0.422742 1.230855 0.051071 -0.010813 755278.000000 1 0 0
18.984875 2.174474 5.871200 19.990618 0.114040 1.272703 0.052097 -0.008589 -229016.000000 1 0 0
15.358575 1.707774 7.655400 17.245506 0.110739 1.110842 0.046831 -0.010257 142283.000000 1 0 0
8.858875 -15.579526 3.870800 18.335332 -1.053768 1.358084 0.033396 -0.016716 426763.000000 1 0 0
11.508675 -15.032026 1.929100 19.029788 -0.917379 1.469249 0.036866 0.000934 507615.000000 1 0 0
8.571675 -16.326926 6.220100 19.461032 -1.087347 1.245470 0.050793 -0.008766 -143289.000000 1 0 0
14.628875 -11.572126 -2.391700 18.805274 -0.669258 1.698324 0.041820 -0.005416 402344.000000 1 0 0
13.631475 -4.774026 3.297000 14.814812 -0.336871 1.346370 0.008490 -0.002431 -2168120.000000 1 0 0
-1.160525 10.279574 -5.531000 11.730662 -1.458376 2.061787 -0.002475 0.001797 -435858.000000 1 0 0
8.277675 -1.760526 -7.890400 11.570556 -0.209561 2.321205 0.000351 -0.003844 -3681090.000000 1 0 0
2.944275 -10.194526 7.654700 13.084019 -1.289637 0.945865 -0.001996 -0.002086 556976.000000 1 0 0
-6.458525 1.393874 8.312500 10.618525 -0.212559 0.671595 -0.001218 0.001167 -142982.000000 1 0 0
7.255475 -6.278726 -7.173200 11.979947 -0.713354 2.212757 0.001857 -0.002769 284440.000000 1 0 0
-11.455625 -4.501526 -4.230800 13.015173 0.374417 1.901879 0.008026 -0.007089 -73.904900 1 0 0
2.065675 -3.268026 2.896200 4.830630 -1.007117 0.927859 0.003648 -0.003870 2135560.000000 1 0 0
-3.683625 -4.235926 8.886400 10.510959 0.855024 0.563405 0.001553 -0.003094 -1480510.000000 1 0 0
-4.801425 -1.006826 -2.445300 5.481502 0.206698 2.033200 0.002576 -0.002959 -334113.000000 1 0 0
5.094375 -5.249026 -3.657800 8.178290 -0.800349 2.034493 0.004478 -0.004783 -6287.740000 1 0 0
2.697775 14.189774 -8.708100 16.865903 1.382918 2.113337 0.010840 -0.008940 -367423.000000 1 0 0
5.266475 -5.350626 13.679300 15.604109 -0.793324 0.501947 0.003510 -0.003072 -2096690.000000 1 0 0
-4.866425 -0.979926 9.766900 10.956034 0.198707 0.470232 0.007458 -0.000718 -3406990.000000 1 0 0
-1.002925 11.939174 -2.767000 12.296586 -1.486990 1.797762 -0.003650 -0.002390 45046.500000 1 0 0
3.178275 9.398974 -10.486300 14.436226 1.244716 2.383848 0.004193 0.000947 -313764.000000 1 0 0
-10.518625 2.676074 1.130900 10.912459 -0.249128 1.466976 -0.005495 0.000742 67177.400000 1 0 0
5.531175 -8.962826 -0.589600 10.548639 -1.017881 1.626719 0.004989 -0.005581 378468.000000 1 0 0
-7.157425 5.558274 9.420400 13.071613 -0.660293 0.766019 -0.004343 -0.001529 -289512.000000 1 0 0
-5.691425 -1.826126 5.099200 7.856774 0.310479 0.864501 -0.000779 -0.002888 287992.000000 1 0 0
6.847675 -3.799026 -7.278800 10.691313 -0.506514 2.319670 -0.000489 -0.003368 338180.000000 1 0 0
6.260475 4.821774 10.994600 13.539730 0.656300 0.623183 -0.003601 0.000729 -191829.000000 1 0 0
3.762975 -9.836826 3.210100 11.010353 -1.205432 1.274946 -0.000444 -0.003901 1090520.000000 1 0 0
-6.613425 6.575374 -5.780900 10.972317 -0.782513 2.125701 -0.000187 -0.000863 -854235.000000 1 0 0
-11.103025 8.484674 5.192000 14.907170 -0.652513 1.215051 -0.005139 -0.004960 455102.000000 1 0 0
-9.166425 -5.520926 5.001700 11.811899 0.542108 1.133551 0.004445 -0.002088 -741098.000000 1 0 0
3.320375 9.915774 -7.987200 13.158375 1.247674 2.223083 0.003056 -0.001985 704617.000000 1 0 0
-8.112325 -8.616026 6.084000 13.306418 0.815500 1.095926 0.004624 0.001761 -1311620.000000 1 0 0
-7.757825 -5.660126 -7.616400 12.256852 0.630318 2.241324 0.014550 -0.005457 -261923.000000 1 0 0
9.201275 -1.487626 7.024600 11.671397 -0.160289 0.924962 0.003066 -0.006481 3185180.000000 1 0 0
-4.011425 -0.502826 -4.898400 6.351274 0.124698 2.451594 0.005227 -0.007414 -686414.000000 1 0 0
9.039675 1.132474 -4.507700 10.164526 0.124629 2.030267 0.002687 -0.003863 -2338970.000000 1 0 0
-1.896425 -10.606226 10.731600 15.207094 1.393863 0.787390 -0.000613 -0.008106 13254.100000 1 0 0
-12.870825 0.253474 -2.675600 13.148430 -0.019691 1.775720 0.003668 -0.001992 -978444.000000 1 0 0
-9.786925 -5.154526 -6.125000 12.643918 0.484759 2.076499 0.010738 -0.006090 -1765460.000000 1 0 0
-5.696625 8.460474 -0.179700 10.201149 -0.978200 1.588413 -0.001094 0.003204 236619.000000 1 0 0
6.302575 9.536774 0.311600 11.435454 0.986817 1.543544 0.003429 -0.005429 400592.000000 1 0 0
-0.577425 -12.174326 0.073200 12.188232 1.523402 1.564790 0.008282 -0.001484 -144200.000000 1 0 0
6.072875 4.766074 2.348400 8.069093 0.665412 1.275486 -0.000588 -0.004711 434586.000000 1 0 0
3.571675 -7.628326 -8.239100 11.782656 -1.132901 2.345153 -0.000823 -0.003652 1439970.000000 1 0 0
-6.556825 -9.861926 4.567800 12.693082 0.984044 1.202673 0.006246 0.002496 -2403990.000000 1 0 0
0.031175 6.389374 -9.198800 11.200134 1.565917 2.534503 0.002501 -0.000134 -768489.000000 1 0 0
-17.412925 -2.811126 4.212900 18.134522 0.160058 1.336340 0.035853 -0.010840 210191.000000 1 0 0
-8.337225 1.000874 -9.296500 12.527409 -0.119477 2.406984 0.006488 -0.005747 1023350.000000 1 0 0
-9.991925 -5.757626 -11.911900 16.579571 0.522757 2.372394 0.015667 -0.000195 -721115.000000 1 0 0
2.149775 9.473374 6.421900 11.645048 1.347647 0.986670 -0.007031 0.004285 203340.000000 1 0 0
-11.349925 1.674374 -1.203500 11.535715 -0.146467 1.675315 -0.000285 -0.002207 -1862930.000000 1 0 0
-6.054425 -5.224926 -3.164900 8.600727 0.711989 1.947633 0.012736 -0.004212 673373.000000 1 0 0
-6.704225 -8.252626 1.292000 10.710823 0.888555 1.449876 0.005161 0.002484 -823090.000000 1 0 0
-0.031525 11.000574 -7.792700 13.481090 -1.567931 2.187129 0.002247 0.001210 402390.000000 1 0 0
-2.959425 9.382574 -4.213700 10.702624 -1.265256 1.975457 -0.001819 0.001171 485359.000000 1 0 0
3.324775 -4.809026 9.327000 11.007897 -0.965892 0.559914 -0.000668 -0.002916 -466732.000000 1 0 0
-8.933425 1.503074 -0.437300 9.069539 -0.166692 1.619031 -0.003011 -0.001198 -2301720.000000 1 0 0
2.453075 3.410874 -10.468600 11.280214 0.947305 2.759938 -0.000242 -0.000844 -849388.000000 1 0 0
-13.764825 0.440274 1.122500 13.817534 -0.031975 1.489469 0.000655 -0.001964 -459874.000000 1 0 0
9.507775 -12.575326 -5.102200 16.570125 -0.923424 1.883798 0.023352 -0.000613 -1680240.000000 1 0 0
-4.603025 9.427674 -8.452000 13.472386 -1.116596 2.248951 -0.001037 0.000936 -1644580.000000 1 0 0
-2.375825 7.098974 8.385900 11.241143 -1.247842 0.728760 0.002026 0.000684 -568402.000000 1 0 0
-10.751625 -1.262126 -4.515600 11.729494 0.116855 1.965981 0.003249 -0.003316 -3402320.000000 1 0 0
2.692975 -7.210026 9.492400 12.220567 -1.213338 0.681298 -0.003038 0.000415 -1463480.000000 1 0 0
-16.131125 -6.487226 3.304600 17.697956 0.382363 1.382972 0.038432 -0.012943 61034.100000 1 0 0
-10.872825 -0.141926 6.003700 12.421066 0.013053 1.066321 -0.005901 0.001199 -1039510.000000 1 0 0
-8.474925 10.060174 9.410800 16.173887 -0.870717 0.949793 0.007118 -0.008990 282552.000000 1 0 0
0.245175 -6.103726 -3.750000 7.167850 -1.530650 2.121362 0.001289 0.000884 72887.700000 1 0 0
4.914775 1.529774 -2.798100 5.858719 0.301755 2.068713 -0.001670 -0.001980 -78166.500000 1 0 0
0.311375 5.264574 3.838000 6.522495 1.511720 0.941687 -0.002312 0.000573 -1999650.000000 1 0 0
6.125075 -11.172826 -1.551500 12.835721 -1.069327 1.691966 0.004114 -0.002050 -1675950.000000 1 0 0
6.251775 -13.381626 5.263500 15.679829 -1.133739 1.228463 0.008587 -0.008430 -57752.800000 1 0 0
8.188275 -8.216526 -5.975800 13.048729 -0.787120 2.046496 0.003580 -0.004357 685627.000000 1 0 0
-13.175425 -1.373026 -4.758100 14.075387 0.103836 1.915634 0.005719 -0.001199 -3333520.000000 1 0 0
-6.640525 -1.455826 -7.085400 9.819312 0.215819 2.376875 0.013196 -0.006713 -909225.000000 1 0 0
-5.605225 12.826874 -4.683200 14.760745 -1.158813 1.893650 0.003808 0.003908 552413.000000 1 0 0
-4.296225 6.927874 -6.821300 10.629352 -1.015702 2.267564 0.000872 -0.000599 -1890970.000000 1 0 0
-9.352225 -3.616226 -8.188400 12.945698 0.368963 2.255597 0.010357 -0.003628 438987.000000 1 0 0
-2.143025 -6.231926 9.118100 11.250298 1.239585 0.625832 0.001617 -0.001306 191835.000000 1 0 0
7.389375 -6.009626 10.125400 13.901158 -0.682786 0.754834 0.002429 -0.001181 463512.000000 1 0 0
9.582175 -5.092026 12.314300 16.413068 -0.488456 0.722320 0.005207 0.000490 -452047.000000 1 0 0
-6.372025 2.839074 -9.061600 11.435717 -0.419150 2.485521 0.003764 -0.006032 -285296.000000 1 0 0
7.421875 5.531674 8.874900 12.823709 0.640499 0.806444 -0.006591 -0.001564 -143112.000000 1 0 0
12.620575 3.459474 11.216100 17.235074 0.267542 0.862196 0.024769 -0.000860 -1046550.000000 1 0 0
-7.569625 -7.185126 -3.860700 11.127904 0.759345 1.925101 0.013186 -0.006420 -1102040.000000 1 0 0
2.217975 1.296274 -5.666600 6.221744 0.528900 2.715950 -0.001069 -0.002142 644358.000000 1 0 0
12.637075 6.820774 -7.036800 15.991722 0.494934 2.026426 0.003582 -0.009514 323236.000000 1 0 0
0.823075 -7.887026 1.035100 7.997128 -1.466815 1.440998 0.001194 -0.002414 1169760.000000 1 0 0
-10.179725 -5.931726 -8.657700 14.620805 0.527602 2.204520 0.013316 -0.005392 14887.600000 1 0 0
-6.753825 0.203374 3.061600 7.418147 -0.030103 1.145361 -0.000324 -0.003279 5085.530000 1 0 0
10.717375 -7.875226 1.333400 13.366349 -0.633708 1.470872 -0.000736 -0.003706 253829.000000 1 0 0
6.172875 1.127674 10.509200 12.240071 0.180690 0.538284 -0.002351 -0.000807 -18334.200000 1 0 0
-12.810125 5.231474 1.829500 13.957603 -0.387715 1.439343 -0.000826 0.000410 -323372.000000 1 0 0
1.912475 7.389874 3.564600 8.424617 1.317556 1.133913 -0.006947 0.001219 105991.000000 1 0 0
10.224975 -9.325726 -0.822500 13.863470 -0.739435 1.630160 0.000276 -0.003060 791920.000000 1 0 0
6.868275 -11.755226 -9.085900 16.368021 -1.042020 2.159280 0.008043 -0.001790 -363772.000000 1 0 0
10.175775 3.699574 11.881000 16.074558 0.348710 0.739036 0.005860 0.001799 -738592.000000 1 0 0
-11.106125 -3.107526 -2.115000 11.725014 0.272826 1.752173 0.005707 -0.003348 -558053.000000 1 0 0
12.414875 1.073574 6.933600 14.260312 0.086260 1.063041 0.012711 -0.006856 -751239.000000 1 0 0
-9.601725 9.285874 3.061700 13.703816 -0.768677 1.345475 -0.002480 -0.000108 680471.000000 1 0 0
-6.511925 7.614274 -8.864900 13.377921 -0.863276 2.295150 0.000077 -0.004019 367515.000000 1 0 0
8.464775 5.580574 12.073400 15.765856 0.582864 0.698521 0.006404 -0.001115 -3647670.000000 1 0 0
1.289875 4.890274 -2.601000 5.687157 1.312906 2.045805 -0.002530 -0.001204 1118510.000000 1 0 0
1.399675 0.538174 9.442800 9.561129 0.367073 0.157491 0.008849 -0.005474 954741.000000 1 0 0
2.568975 12.592374 -3.878100 13.424127 1.369548 1.863864 0.002475 -0.006176 367756.000000 1 0 0
2.073775 0.631374 12.915600 13.096255 0.295540 0.166290 0.007806 -0.006755 5199.860000 1 0 0
-12.290925 -1.785426 0.813600 12.446546 0.144255 1.505382 0.002174 -0.004988 17952.000000 1 0 0
3.301275 8.714474 -1.282900 9.406716 1.208675 1.707604 0.002626 -0.004427 244068.000000 1 0 0
3.677375 -2.941426 -5.786500 7.460473 -0.674662 2.458495 -0.001807 -0.002146 -442066.000000 1 0 0
-7.781325 -7.290926 9.109300 14.024477 0.752873 0.863832 0.006066 -0.002379 218587.000000 1 0 0
-7.007225 10.901374 -3.448700 13.410246 -0.999511 1.830888 0.008092 0.004800 628855.000000 1 0 0
0.395175 0.531674 2.522200 2.607745 0.931619 0.256847 -0.000589 -0.003066 -1517110.000000 1 0 0
-7.089425 4.602974 -1.985600 8.682737 -0.575864 1.801522 0.001296 -0.000450 -524004.000000 1 0 0
-6.893125 -3.843526 -5.973100 9.897766 0.508651 2.218654 0.009690 -0.005518 -48356.800000 1 0 0
2.876575 -6.142526 13.347200 14.971742 -1.132825 0.470167 -0.000088 -0.002557 -2065580.000000 1 0 0
-5.343125 -0.569126 -11.812800 12.977485 0.106115 2.714692 0.007653 -0.006913 -701317.000000 1 0 0
11.846175 2.463974 -0.568800 12.113075 0.205073 1.617771 0.003546 -0.003636 -728939.000000 1 0 0
5.923875 -10.865326 10.739500 16.385496 -1.071639 0.856048 0.005755 -0.002376 389814.000000 1 0 0
-8.062925 6.362874 -10.525200 14.706351 -0.668091 2.368409 0.004129 -0.006635 182492.000000 1 0 0
2.809675 7.840274 11.196000 13.954017 1.226689 0.639575 -0.000690 -0.000252 936722.000000 1 0 0
-6.080825 -10.102726 -0.489700 11.801750 1.028981 1.612302 0.008165 0.004502 -337573.000000 1 0 0
11.251175 4.309274 6.082600 13.496548 0.365772 1.103271 0.007728 -0.003942 -34885.300000 1 0 0
-7.995725 10.724974 1.373700 13.447815 -0.930166 1.468467 -0.000290 0.000800 415360.000000 1 0 0
4.296375 -2.744926 -3.502400 6.185488 -0.568528 2.172719 0.001306 -0.003679 -4802380.000000 1 0 0
6.458275 6.451474 6.262900 11.070445 0.784871 0.969476 -0.003985 -0.000635 -4941910.000000 1 0 0
-0.274125 10.302074 -10.209200 14.506400 -1.544194 2.351490 -0.001726 0.001118 109609.000000 1 0 0
14.104875 6.551774 -2.355300 15.729612 0.434850 1.721098 0.015503 -0.004697 856414.000000 1 0 0
1.369075 9.537974 -6.183100 11.448932 1.428231 2.141304 0.003713 -0.000744 342014.000000 1 0 0
0.640675 7.316274 7.184600 10.274084 1.483451 0.796388 -0.005962 0.003876 65324.900000 1 0 0
12.260375 6.152974 2.066000 13.872428 0.465133 1.421312 0.006299 -0.006195 -1614940.000000 1 0 0
-6.884525 6.745374 -3.156400 10.141973 -0.775189 1.887274 -0.000173 0.001820 613557.000000 1 0 0
0.889075 9.682974 11.078800 14.740768 1.479235 0.720349 -0.009924 -0.001223 -1741310.000000 1 0 0
-3.537825 13.732774 -11.098300 18.007708 -1.318660 2.234843 0.002309 0.003811 -87378.200000 1 0 0
-10.168725 -5.491926 -2.406000 11.804789 0.495195 1.776050 0.004141 -0.005191 -1276020.000000 1 0 0
-3.860925 3.870674 -12.521800 13.663247 -0.786659 2.729934 0.003261 -0.009151 -103972.000000 1 0 0
-3.157525 8.548974 2.430100 9.431877 -1.216992 1.310210 -0.000638 0.004144 -3604410.000000 1 0 0
7.015075 8.911974 7.153600 13.409271 0.903939 1.008085 0.002316 -0.000538 -974553.000000 1 0 0
-1.310425 -2.122726 -8.136300 8.510144 1.017731 2.844087 0.001960 -0.005553 -2105660.000000 1 0 0
0.798575 -1.313626 4.867900 5.104879 -1.024576 0.305894 0.006353 -0.005035 597447.000000 1 0 0
2.863975 -8.842526 -6.078000 11.105616 -1.257572 2.149920 -0.000746 -0.001205 576322.000000 1 0 0
5.348375 3.994674 8.740900 10.998449 0.641511 0.652218 -0.004177 -0.002140 144672.000000 1 0 0
6.232475 -7.567426 -2.744000 10.180335 -0.881834 1.843711 0.003549 -0.006006 946087.000000 1 0 0
1.779575 2.192974 -8.263900 8.733159 0.889089 2.812287 -0.001154 -0.002233 126652.000000 1 0 0
-5.412225 11.050074 -0.703500 12.324416 -1.115349 1.627909 0.001133 0.002003 445385.000000 1 0 0
-5.459525 3.324674 -3.448700 7.263153 -0.546987 2.065557 -0.000152 -0.000239 18379.200000 1 0 0
2.076175 13.718274 -6.176400 15.187148 1.420592 1.989620 -0.003597 -0.002433 329699.000000 1 0 0
-5.267525 -2.543526 2.589000 6.396816 0.449849 1.154110 -0.002955 -0.002653 168094.000000 1 0 0
10.459575 -3.273626 -1.959800 11.133740 -0.303321 1.747742 0.000956 -0.004148 -280622.000000 1 0 0
2.387175 -3.389426 6.985600 8.123141 -0.957190 0.535599 -0.000375 -0.004503 -1546280.000000 1 0 0
-2.966525 9.855374 -11.680400 15.567929 -1.278417 2.419291 0.001275 -0.001201 -2829870.000000 1 0 0
0.470175 -1.974926 9.235700 9.456191 -1.337075 0.216371 0.006143 -0.005647 595317.000000 1 0 0
9.374875 2.719074 4.906200 10.924855 0.282293 1.105054 -0.000105 -0.004962 -875509.000000 1 0 0
13.462275 2.009774 -4.872000 14.457124 0.148195 1.914521 0.013313 -0.004351 -669371.000000 1 0 0
-6.487125 3.927374 7.633500 10.759990 -0.544388 0.782102 -0.002851 -0.000607 800139.000000 1 0 0
10.649075 0.092474 1.885600 10.815121 0.008684 1.395552 0.001411 -0.003485 308094.000000 1 0 0
15.466575 6.661274 -4.537200 17.440577 0.406679 1.833976 0.034641 -0.011092 534455.000000 1 0 0
8.124775 -4.993126 -9.187200 13.241900 -0.551053 2.337545 0.005249 -0.002359 -1193760.000000 1 0 0
4.367175 5.617274 -2.183500 7.442692 0.909955 1.868552 0.001233 -0.003941 254170.000000 1 0 0
-1.597225 -10.637926 1.515100 10.863338 1.421765 1.430871 0.006318 -0.001552 -867851.000000 1 0 0
-2.840325 12.191674 -13.059200 18.089971 -1.341907 2.377344 0.006300 -0.005380 -298731.000000 1 0 0
8.325875 4.260174 -9.590900 13.396068 0.472947 2.368779 0.001218 -0.001413 -207938.000000 1 0 0
4.138475 7.621174 -8.994400 12.494339 1.073325 2.374423 0.004079 -0.001952 -1246310.000000 1 0 0
-1.760825 -5.051726 -2.446000 5.882461 1.235406 1.999632 0.005173 -0.001929 -1380160.000000 1 0 0
-3.356025 -9.240026 6.825300 11.967694 1.222406 0.963913 0.001611 -0.001207 -2170770.000000 1 0 0
0.942175 7.246274 -1.366300 7.433906 1.441500 1.755640 -0.002217 -0.001572 2020490.000000 1 0 0
0.345675 -0.780126 -2.299600 2.452804 -1.153693 2.786284 0.002069 -0.000855 -942175.000000 1 0 0
4.056075 -6.536826 7.346900 10.637612 -1.015442 0.808404 0.000972 -0.000593 -460774.000000 1 0 0
-13.855025 3.812374 5.807100 15.498978 -0.268517 1.186749 -0.007214 -0.001660 -1060210.000000 1 0 0
4.212675 6.224474 12.648300 14.712927 0.975816 0.536168 0.003887 -0.000764 -1638700.000000 1 0 0
8.390775 10.061674 -7.131100 14.916266 0.875703 2.069259 0.011324 -0.008621 502278.000000 1 0 0
12.474175 5.362774 9.474500 16.556888 0.406022 0.961563 0.025168 -0.001005 1303780.000000 1 0 0
7.503975 4.135574 0.304900 8.573540 0.503701 1.535226 0.003922 -0.004956 -2263050.000000 1 0 0
-10.885725 -7.592526 -1.191500 13.325356 0.609030 1.660332 0.006229 -0.003912 -1528890.000000 1 0 0
10.452675 6.833374 0.334800 12.492619 0.579003 1.543993 0.007713 -0.004218 -872859.000000 1 0 0
14.617075 3.651374 4.149900 15.627319 0.244792 1.302018 0.016098 -0.005740 -306522.000000 1 0 0
2.159575 5.564974 8.248400 10.181788 1.200620 0.626451 -0.003469 0.000764 23809.800000 1 0 0
4.213575 0.107974 11.722900 12.457619 0.025620 0.345156 0.001194 -0.002816 -1958180.000000 1 0 0
-1.528125 -1.552826 -0.568100 2.251482 0.793415 1.825876 0.006178 -0.005348 -1554230.000000 1 0 0
3.102875 -5.363326 -9.487500 11.331626 -1.046309 2.563046 -0.001819 -0.002517 185107.000000 1 0 0
-3.974225 -5.346526 -1.473500 6.822829 0.931579 1.788477 0.006209 -0.003879 -194257.000000 1 0 0
-1.548725 -8.609026 8.613700 12.276388 1.392805 0.793089 0.001284 -0.002593 386313.000000 1 0 0
3.918775 8.597074 -5.917400 11.148188 1.143108 2.130334 0.004940 -0.001981 357406.000000 1 0 0
-14.246725 -1.817926 -2.721200 14.617761 0.126917 1.758046 0.007994 -0.005805 -849685.000000 1 0 0
8.883075 -10.602326 -6.762600 15.396464 -0.873403 2.025539 0.003215 0.000078 552044.000000 1 0 0
14.791375 6.165674 1.656200 16.110348 0.394941 1.467811 0.003182 -0.002397 -156520.000000 1 0 0
-5.798125 0.467374 -8.493100 10.294146 -0.080434 2.541072 0.007226 -0.007521 -654849.000000 1 0 0
-8.017025 -4.510226 -12.991300 15.918187 0.512451 2.525477 0.013711 -0.001079 575591.000000 1 0 0
0.880075 -10.533226 11.991700 15.985126 -1.487438 0.722464 -0.010043 -0.003740 -277707.000000 1 0 0
0.253875 11.824774 3.425600 12.313589 1.549330 1.288880 -0.001246 -0.000681 894561.000000 1 0 0
5.130575 -13.214326 -3.719900 14.655336 -1.200453 1.827430 0.010875 -0.001742 1166020.000000 1 0 0
-7.525025 1.607374 -7.018100 10.414575 -0.210441 2.310234 0.001089 -0.002585 379307.000000 1 0 0
1.529775 2.703174 4.091300 5.136740 1.055814 0.649348 -0.001501 -0.001936 -981378.000000 1 0 0
17.262375 5.607274 2.204200 18.283589 0.314075 1.449946 0.012860 -0.004808 -602274.000000 1 0 0
2.429375 -8.173626 -3.564500 9.242061 -1.281891 1.966744 -0.000690 -0.000502 321149.000000 1 0 0
-0.320025 -9.501726 -0.541600 9.522528 1.537128 1.627703 0.008710 0.000159 -681217.000000 1 0 0
0.741775 11.904874 -5.555900 13.158430 1.508568 2.006702 0.001069 -0.000940 -1074760.000000 1 0 0
6.024875 -5.015426 7.942200 11.159398 -0.694219 0.778874 -0.002848 -0.002072 -1293730.000000 1 0 0
-5.908125 -1.871526 -9.510200 11.351319 0.306772 2.564048 0.013144 -0.006610 -587133.000000 1 0 0
2.158475 -1.241626 11.159000 11.433457 -0.522009 0.219551 0.001104 -0.003295 615963.000000 1 0 0
17.991475 2.266074 -5.746600 19.022400 0.125293 1.877687 0.034522 -0.005368 -52750.800000 1 0 0
-9.043125 4.891474 7.820300 12.917496 -0.495834 0.920523 -0.002299 -0.004616 -1414920.000000 1 0 0
11.583475 -6.996726 -4.804000 14.359996 -0.543375 1.911914 0.010611 -0.005905 114576.000000 1 0 0
10.858775 0.633474 8.958500 14.091452 0.058271 0.881829 0.004862 -0.006225 -394397.000000 1 0 0
-8.510725 -7.377726 -1.594500 11.375663 0.714209 1.711427 0.008856 -0.003021 -1354280.000000 1 0 0
10.306975 -10.426126 -3.199400 15.005799 -0.791145 1.785657 0.009959 0.000831 1126530.000000 1 0 0
7.744475 -13.803226 -3.703200 16.254834 -1.059499 1.800636 0.017948 -0.001301 -2178600.000000 1 0 0
1.753075 -1.192926 -11.672300 11.863344 -0.597502 2.961887 -0.000156 -0.006563 198820.000000 1 0 0
-11.749325 -2.584426 -6.567400 13.706080 0.216516 2.070493 0.010935 -0.002765 -209255.000000 1 0 0
2.781275 -12.222426 -6.365000 14.058322 -1.347051 2.040651 0.003268 0.000576 894290.000000 1 0 0
-5.586225 1.427274 1.125400 5.874482 -0.250147 1.378030 -0.000316 -0.001894 397465.000000 1 0 0
0.107375 6.847574 -4.038900 7.950693 1.555117 2.103650 0.000354 -0.001011 1009610.000000 1 0 0
5.444075 -11.770026 3.570100 13.450542 -1.137565 1.302152 -0.001062 -0.005116 -2220830.000000 1 0 0
-4.207025 -9.284726 1.083600 10.250823 1.145357 1.464890 0.009875 0.001704 14341.100000 1 0 0
7.169275 -6.272126 -4.636200 10.593980 -0.718752 2.023753 0.006573 -0.006332 -228632.000000 1 0 0
-7.014425 -6.035926 2.235600 9.520108 0.710559 1.333753 0.005679 -0.002585 213855.000000 1 0 0
-6.152725 -0.646426 7.026300 9.361772 0.104679 0.721931 0.000945 -0.001281 -155529.000000 1 0 0
4.270575 -5.022126 3.211600 7.333072 -0.866098 1.117467 -0.000041 -0.003361 180667.000000 1 0 0
-2.420425 10.479474 -8.833000 13.917605 -1.343809 2.258370 -0.003399 0.001051 -1790130.000000 1 0 0
-2.402925 -4.744126 2.773400 5.997710 1.101958 1.090085 0.003264 -0.001711 361300.000000 1 0 0
15.144375 5.069674 6.368400 17.193319 0.323031 1.191357 0.026189 -0.013198 1821830.000000 1 0 0
6.805975 0.305074 0.153000 6.814527 0.044794 1.548342 0.003747 -0.004974 4589290.000000 1 0 0
-9.745225 9.104174 0.403100 13.342334 -0.751402 1.540580 0.001539 -0.001899 -1265000.000000 1 0 0
7.168175 10.347474 -2.538100 12.841141 0.964955 1.769760 0.001664 -0.004841 -585537.000000 1 0 0
1.585475 -4.307426 -5.458100 7.131515 -1.218107 2.442380 -0.001404 -0.001454 -631985.000000 1 0 0
0.914075 -8.156326 -7.796600 11.320254 -1.459192 2.330532 -0.000012 0.000608 -125385.000000 1 0 0
-10.363125 0.206474 -10.647600 14.859622 -0.019921 2.369634 0.010402 -0.004894 -2726120.000000 1 0 0
5.692075 -2.423926 0.487900 6.205899 -0.402584 1.492096 0.001085 -0.003492 265971.000000 1 0 0
-3.425325 5.324474 -1.152400 6.435130 -0.999134 1.750847 -0.001236 -0.000956 310715.000000 1 0 0
-0.358125 4.560474 -5.187300 6.916231 -1.492429 2.418886 0.000103 -0.003040 -1130200.000000 1 0 0
3.941975 -9.627126 9.909200 14.367079 -1.182157 0.809700 -0.003299 0.000355 -1739570.000000 1 0 0
7.335875 -13.427126 -0.718500 15.317278 -1.070762 1.617721 0.015136 -0.003126 476214.000000 1 0 0
12.978875 -0.097026 0.507300 12.989148 -0.007476 1.531731 0.002029 -0.003940 247904.000000 1 0 0
9.232875 2.501274 -0.536200 9.580703 0.264559 1.626792 0.004612 -0.006228 105651.000000 1 0 0
-0.742625 -5.771426 4.244000 7.202249 1.442827 0.940653 0.000218 -0.002331 1052010.000000 1 0 0
11.409275 -3.665226 3.352500 12.443661 -0.310836 1.298012 0.007126 -0.003494 -2453770.000000 1 0 0
1.722875 -8.089326 11.643000 14.281630 -1.360950 0.617647 -0.008622 -0.000957 215983.000000 1 0 0
9.470975 -5.927826 -5.953800 12.660420 -0.559242 2.060392 0.002847 -0.005164 -1152900.000000 1 0 0
3.090475 6.321074 -0.180500 7.038437 1.116055 1.596444 -0.003113 -0.000973 -1419020.000000 1 0 0
6.391275 -1.327626 11.399700 13.136368 -0.204812 0.520045 -0.006818 -0.001052 441113.000000 1 0 0
-4.953225 -7.562826 -3.767000 9.793930 0.990954 1.965599 0.011502 -0.003332 508748.000000 1 0 0
-3.377725 -8.444226 -5.645000 10.704205 1.190286 2.126290 0.011175 0.000850 -318666.000000 1 0 0
9.806975 5.371274 2.225000 11.400789 0.501075 1.374374 0.003148 -0.006131 -1194120.000000 1 0 0
8.900975 -1.408226 0.356100 9.018718 -0.156910 1.531301 0.003038 -0.002971 1394270.000000 1 0 0
-3.982825 9.630274 9.176800 13.885918 -1.178644 0.848818 0.001409 -0.001364 231990.000000 1 0 0
-14.282125 -3.506726 -6.172800 15.949284 0.240770 1.968201 0.010732 -0.004001 684938.000000 1 0 0
10.579875 6.172474 -5.909700 13.599917 0.528137 2.020323 0.002144 -0.007260 -282351.000000 1 0 0
-1.755425 4.557674 2.598000 5.532044 -1.203150 1.081928 -0.002094 0.000172 374657.000000 1 0 0
6.963675 -3.660726 2.575800 8.278190 -0.483987 1.254388 0.003218 -0.006723 -1875220.000000 1 0 0
8.417175 -11.168326 -1.546700 14.070275 -0.924954 1.680946 0.007491 -0.004072 -2137140.000000 1 0 0
4.521175 0.506674 1.866700 4.917552 0.111601 1.181433 0.001629 -0.003754 206297.000000 1 0 0
-10.791325 2.266374 3.743100 11.644739 -0.207010 1.243545 -0.004795 -0.002118 98477.700000 1 0 0
-0.877925 -3.057526 4.530800 5.536006 1.291183 0.612133 0.006000 -0.002555 74304.100000 1 0 0
8.624975 -8.652026 -8.556800 14.915314 -0.786964 2.181803 0.006998 -0.004428 -107192.000000 1 0 0
12.136075 -4.703626 1.090500 13.061302 -0.369749 1.487208 0.002611 -0.002897 -71612.300000 1 0 0
2.932875 4.915974 3.488400 6.703544 1.032880 1.023499 -0.007330 -0.001924 -921186.000000 1 0 0
5.967975 7.513074 2.005100 9.802216 0.899513 1.364786 -0.002951 -0.003243 29152.000000 1 0 0
-1.631425 -1.317426 -10.389600 10.599101 0.679316 2.942437 0.004106 -0.006452 1277450.000000 1 0 0
-0.866225 -8.512026 6.031900 10.468464 1.469381 0.956728 0.001475 -0.001666 -76359.000000 1 0 0
-4.294925 -0.233226 2.272100 4.864485 0.054249 1.084812 -0.000179 -0.003286 286239.000000 1 0 0
-8.339625 6.115974 -7.983200 13.064684 -0.632768 2.228185 0.000823 -0.003722 -1194400.000000 1 0 0
6.569275 11.143974 -9.384000 15.981333 1.038140 2.198373 0.011124 -0.006412 129552.000000 1 0 0
-11.113525 -5.882026 3.042300 12.936933 0.486786 1.333409 0.009151 -0.003028 545355.000000 1 0 0
1.651075 -6.289826 2.942900 7.137830 -1.314089 1.145823 -0.001388 -0.002872 420777.000000 1 0 0
10.080375 2.193674 7.186900 12.572896 0.214277 0.962319 0.003291 -0.003112 -541868.000000 1 0 0
-4.035425 -2.514726 -10.757500 11.761475 0.557277 2.725410 0.005745 -0.007121 -3030980.000000 1 0 0
-8.234225 11.777174 5.943600 15.550906 -0.960629 1.178617 0.000824 -0.003362 227951.000000 1 0 0
6.861475 5.845374 -2.901700 9.469324 0.705603 1.882238 0.004624 -0.003392 -2678240.000000 1 0 0
3.949475 -9.855826 -2.354100 10.875543 -1.189665 1.788981 0.001322 -0.004742 -903578.000000 1 0 0
8.568775 -12.938126 -7.380600 17.184070 -0.985831 2.014738 0.019223 -0.002316 385616.000000 1 0 0
-1.205625 9.554774 3.678700 10.309223 -1.445279 1.205918 -0.003116 0.003015 -134532.000000 1 0 0
0.532275 -13.214026 4.679600 14.028273 -1.530537 1.230694 0.008772 -0.004261 -1445070.000000 1 0 0
-11.286625 -6.993726 -5.261500 14.282278 0.554741 1.948077 0.008440 -0.010836 -12915.700000 1 0 0
3.624075 10.303374 -3.412200 11.442751 1.232575 1.873600 0.005578 -0.005852 -613954.000000 1 0 0
11.716375 -8.026426 -7.393200 16.011133 -0.600629 2.050768 0.023498 -0.007070 263763.000000 1 0 0
11.808475 -4.718226 -5.946900 14.038068 -0.380129 2.008242 0.012604 -0.006116 134174.000000 1 0 0
1.315175 -10.343926 -2.720900 10.776353 -1.444330 1.826047 0.001453 0.001081 -436844.000000 1 0 0
2.439275 -12.051626 -3.929400 12.908599 -1.371092 1.880107 0.005596 0.000813 -1112270.000000 1 0 0
-7.689825 -5.725926 7.175500 11.975284 0.640043 0.928304 0.002131 0.001024 -3543930.000000 1 0 0
-7.428625 -0.869526 9.378500 11.995699 0.116521 0.673214 -0.003535 0.001048 622361.000000 1 0 0
16.181675 2.661274 -7.518800 18.040547 0.163003 2.000688 0.027380 -0.006180 -45672.100000 1 0 0
-2.055625 6.307574 -5.512700 8.625598 -1.255753 2.264136 -0.000807 -0.000593 -497689.000000 1 0 0
7.656175 1.154174 8.361500 11.395781 0.149624 0.746991 -0.003657 -0.004693 -915078.000000 1 0 0
7.883075 8.129674 -3.671100 11.904262 0.800797 1.884292 0.002977 -0.003169 -250034.000000 1 0 0
8.015175 0.589274 3.880700 8.924691 0.073388 1.120950 0.000284 -0.006477 424148.000000 1 0 0
-6.969125 5.831274 5.353400 10.546627 -0.696739 1.038407 0.003975 -0.003622 124771.000000 1 0 0
-6.084325 -2.050526 -4.539100 7.863020 0.325063 2.186180 0.007448 -0.005321 -630068.000000 1 0 0
-15.166325 -2.197226 3.111500 15.637347 0.143874 1.370481 0.014489 -0.005112 -172710.000000 1 0 0
1.063775 1.228074 -10.508100 10.632965 0.856964 2.988189 0.000741 -0.006926 507221.000000 1 0 0
1.406675 -9.320626 9.336600 13.267438 -1.421006 0.790172 -0.002389 -0.003532 -926041.000000 1 0 0
-0.302125 -6.902226 -1.221300 7.015951 1.527052 1.745762 0.003257 -0.000246 665823.000000 1 0 0
-0.369925 -10.229426 -8.409600 13.247617 1.534649 2.258547 0.002344 0.000179 -583022.000000 1 0 0
-4.262925 6.496474 3.720600 8.615078 -0.990082 1.124230 0.000861 0.003661 -475437.000000 1 0 0
10.786975 -1.130926 -8.492900 13.775601 -0.104460 2.235108 0.014799 -0.004686 706478.000000 1 0 0
3.014875 -1.060126 6.292300 7.057364 -0.338128 0.469944 0.000586 -0.002889 803412.000000 1 0 0
2.098575 -12.296526 6.641700 14.132259 -1.401761 1.081543 0.006407 -0.005006 -599613.000000 1 0 0
2.916975 -4.992826 -1.405200 5.950768 -1.042051 1.809185 0.006823 -0.003245 -619212.000000 1 0 0
-0.993525 9.515874 -1.610300 9.702166 -1.466766 1.737541 -0.001052 -0.000973 846612.000000 1 0 0
4.463475 -2.570326 2.520600 5.734336 -0.522478 1.115685 0.004256 -0.004053 -2000800.000000 1 0 0
17.850675 6.740574 -2.555600 19.251313 0.361056 1.703939 0.032725 -0.001530 217767.000000 1 0 0
-7.152525 3.547074 -5.430000 9.655322 -0.460378 2.168063 -0.000009 -0.002556 -796216.000000 1 0 0
-13.760225 -6.029026 2.174900 15.179694 0.412955 1.427025 0.008508 -0.004942 666391.000000 1 0 0
6.744575 -6.080326 3.237000 9.640427 -0.733651 1.228370 0.001225 -0.006566 -955902.000000 1 0 0
-4.703125 1.999774 3.570600 6.234394 -0.402041 0.960969 0.001646 -0.002417 572008.000000 1 0 0
6.948375 -12.058826 -5.482800 14.958486 -1.048056 1.946078 0.013820 0.001998 -39732.000000 1 0 0
2.912075 -12.346026 3.231200 13.089889 -1.339159 1.321371 0.009432 -0.004352 25650.000000 1 0 0
3.311875 11.268974 -6.027100 13.201675 1.284951 2.044899 0.001232 -0.002646 270000.000000 1 0 0
-5.657825 -8.301526 6.497900 11.964490 0.972567 0.996673 0.006395 0.000615 -351287.000000 1 0 0
-4.030825 6.548174 6.334400 9.962467 -1.019011 0.881718 0.002638 -0.000051 220015.000000 1 0 0
4.295975 4.334974 -6.976400 9.269173 0.789917 2.422867 0.001688 -0.000072 -1595240.000000 1 0 0
-0.333825 -2.770626 1.566700 3.200368 1.450887 1.059237 0.004950 -0.001990 -348976.000000 1 0 0
-13.333725 -0.977626 6.433600 14.836953 0.073189 1.122290 -0.002755 -0.000576 -173296.000000 1 0 0
-0.480825 -9.215426 -5.866600 10.934910 1.518668 2.137083 0.003577 0.001841 97369.500000 1 0 0
2.041475 -1.762926 -3.850700 4.701427 -0.712311 2.530548 0.000273 -0.001957 -1089580.000000 1 0 0
11.388075 -1.908426 1.224800 11.611653 -0.166038 1.465119 0.002287 -0.004429 269039.000000 1 0 0
0.393875 -4.383826 -1.763800 4.741736 -1.481190 1.951930 0.002979 -0.003100 -1566270.000000 1 0 0
1.190075 -7.402926 -11.246400 13.516697 -1.411403 2.553567 0.000464 0.001452 -425828.000000 1 0 0
-4.389025 4.128074 -10.047000 11.715235 -0.754769 2.601384 0.002428 -0.008228 -642872.000000 1 0 0
-1.141525 5.790574 -2.167200 6.287335 -1.376157 1.922708 -0.001190 -0.000287 -1569130.000000 1 0 0
-11.211125 1.647874 -3.885400 11.979196 -0.145941 1.901116 0.001352 0.000170 -99125.100000 1 0 0
-1.800425 -11.305526 4.238200 12.207325 1.412871 1.216229 0.008854 -0.000293 26734.000000 1 0 0
-3.472625 -5.319626 -9.641800 11.546508 0.992459 2.559002 0.004577 0.001474 -762665.000000 1 0 0
-12.881725 -3.684126 -8.492700 15.863088 0.278560 2.135748 0.018899 -0.002066 -351766.000000 1 0 0
11.214775 4.463874 0.474800 12.079851 0.378811 1.531481 0.005533 -0.004421 -24563.600000 1 0 0
-8.955425 -2.332526 -3.096600 9.758547 0.254798 1.893700 0.002788 -0.004621 -134348.000000 1 0 0
-2.411525 -6.019926 -6.445900 9.143554 1.189781 2.353172 0.003068 -0.001985 -718611.000000 1 0 0
-0.083125 2.766774 -1.826800 3.316496 -1.540762 2.154145 -0.001190 -0.001833 -2499340.000000 1 0 0
7.949375 6.167474 -5.221500 11.335536 0.659837 2.049502 0.002245 -0.003596 -633716.000000 1 0 0
-9.798625 -0.970526 -1.067900 9.904311 0.098725 1.678828 -0.001148 -0.003278 -107857.000000 1 0 0
6.085775 0.497674 -8.759400 10.677613 0.081595 2.532822 -0.000819 0.000136 530114.000000 1 0 0
-4.181325 2.495774 7.892900 9.274170 -0.538127 0.552790 0.001808 -0.000104 -1576710.000000 1 0 0
-10.176725 -3.355826 1.358000 10.801456 0.318527 1.444739 0.004336 -0.004438 1956300.000000 1 0 0
-1.748625 -8.158126 -7.845800 11.452916 1.359650 2.325466 0.004096 -0.001126 342309.000000 1 0 0
-9.399125 -9.833626 4.161000 14.225247 0.807986 1.273948 0.003442 0.001818 -301266.000000 1 0 0
-1.128625 -10.638326 7.262600 12.930318 1.465101 0.974391 0.004687 -0.001741 -69719.900000 1 0 0
9.458575 3.749074 -3.757800 10.846256 0.377371 1.924592 0.004030 -0.004541 -890656.000000 1 0 0
12.835575 -0.679426 3.114100 13.225401 -0.052884 1.333101 0.005480 -0.003773 -359712.000000 1 0 0
6.613975 11.886074 -6.749700 15.184923 1.063017 2.031412 0.005141 -0.004896 160194.000000 1 0 0
-11.826625 -0.095626 -6.555800 13.522452 0.008085 2.076941 0.007357 -0.000053 550580.000000 1 0 0
-7.601225 -6.549326 -11.436400 15.213925 0.711198 2.421442 0.016314 -0.003876 349565.000000 1 0 0
4.189175 6.011374 6.642900 9.890093 0.962171 0.834333 -0.007103 0.001129 -3349600.000000 1 0 0
-4.169225 -1.289226 -7.494900 8.672835 0.299898 2.614317 0.005487 -0.008794 -1349940.000000 1 0 0
9.552875 9.234974 0.893000 13.316893 0.768479 1.503688 0.003801 -0.003750 -1895030.000000 1 0 0
-8.888625 3.859274 4.883500 10.851277 -0.409621 1.103987 -0.000421 -0.002559 1670220.000000 1 0 0
-6.996925 7.841174 -12.216700 16.114860 -0.842234 2.431193 0.002999 -0.010027 -838925.000000 1 0 0
11.112975 -3.555026 7.300300 13.763387 -0.309611 1.011707 0.010542 -0.003426 676653.000000 1 0 0
11.803075 6.886274 6.468400 15.118649 0.528147 1.128692 0.010819 -0.005574 22436.400000 1 0 0
-9.760725 -0.786826 -15.004100 17.916859 0.080437 2.563359 0.011279 -0.000045 463956.000000 1 0 0
1.794475 -12.904826 12.184000 17.838288 -1.432628 0.818900 -0.005527 -0.003520 -118743.000000 1 0 0
2.894975 3.036174 12.979300 13.640435 0.809200 0.312619 0.004803 -0.003881 -780324.000000 1 0 0
-2.666825 -1.459626 10.929600 11.344541 0.500789 0.271299 0.008558 -0.001694 685728.000000 1 0 0
2.559175 -10.179426 -8.207300 13.324033 -1.324494 2.234422 -0.003542 0.001597 -833026.000000 1 0 0
13.897475 3.691474 -7.387900 16.166257 0.259627 2.045410 0.016688 -0.009353 -2671180.000000 1 0 0
7.419475 -1.530026 4.987700 9.070102 -0.203367 0.988545 -0.000054 -0.003932 140791.000000 1 0 0
-1.352225 8.725874 10.054000 13.381043 -1.417052 0.720673 -0.003924 0.000579 -530757.000000 1 0 0
-12.140725 -4.726626 0.811600 13.053616 0.371266 1.508582 0.005582 -0.004194 -482827.000000 1 0 0
-4.911925 4.874874 -5.290900 8.711201 -0.781612 2.223539 0.000836 -0.003146 -296295.000000 1 0 0
-11.202625 0.295974 1.922900 11.370310 -0.026414 1.400864 -0.003644 -0.001559 -2621980.000000 1 0 0
-1.380725 2.258274 -4.082700 4.865659 -1.022032 2.566395 -0.001037 -0.005003 819952.000000 1 0 0
3.200675 -9.767626 13.090000 16.643285 -1.254141 0.665670 -0.000701 -0.003517 -1765620.000000 1 0 0
8.961875 4.653674 -1.452400 10.202027 0.478948 1.713646 0.005648 -0.007015 -2480350.000000 1 0 0
4.065875 2.379174 3.826600 6.069158 0.529434 0.888600 -0.005166 -0.000798 -341434.000000 1 0 0
-5.550625 -3.276626 7.404000 9.816564 0.533269 0.716307 0.002144 -0.001354 -115567.000000 1 0 0
1.647675 -5.746426 7.708600 9.754935 -1.291557 0.659619 -0.002859 -0.003372 -1507120.000000 1 0 0
-5.758725 -6.252026 -9.772200 12.951704 0.826447 2.425705 0.014884 -0.002043 -771416.000000 1 0 0
-11.703125 -5.838126 5.448000 14.167835 0.462729 1.176094 0.006841 -0.002615 -1708630.000000 1 0 0
10.452675 6.220674 4.589800 13.000826 0.536829 1.209979 0.006682 -0.004350 -2047600.000000 1 0 0
1.486875 -3.733926 0.533100 4.054281 -1.191837 1.438924 0.007244 -0.003335 -890427.000000 1 0 0
8.726575 4.325974 6.910700 11.942569 0.460221 0.953710 -0.000693 -0.001442 196326.000000 1 0 0
-7.945725 12.150874 3.526600 14.940388 -0.991669 1.332503 0.000110 -0.002726 -237897.000000 1 0 0
-6.147225 13.309174 -7.116200 16.296097 -1.138108 2.022703 0.007571 -0.002655 343904.000000 1 0 0
4.460475 -6.870826 -0.987100 8.250967 -0.994990 1.690718 0.004366 -0.006263 70759.800000 1 0 0
-1.942825 -8.091426 11.060800 13.841497 1.335148 0.644992 -0.001747 -0.006036 -660144.000000 1 0 0
11.566675 8.822374 -5.653200 15.607080 0.651605 1.941445 0.008340 -0.010873 310464.000000 1 0 0
-3.314125 -2.906526 -1.952800 4.821280 0.719968 1.987816 0.007575 -0.004090 -1044220.000000 1 0 0
-2.058625 5.863674 4.827300 7.869145 -1.233159 0.910379 0.000133 -0.000120 -1211580.000000 1 0 0
0.395375 -11.477626 -5.677600 12.811220 -1.536362 2.029933 0.001893 -0.002127 5162.250000 1 0 0
-8.964025 6.286774 -1.680600 11.077079 -0.611621 1.723103 0.000336 0.002766 -630771.000000 1 0 0
2.899875 -0.047226 3.941700 4.893721 -0.016284 0.634344 -0.000398 -0.003792 779205.000000 1 0 0
-10.046125 3.926074 -1.020600 10.834219 -0.372554 1.665138 0.001694 0.000433 -123787.000000 1 0 0
6.491575 5.558974 13.564800 16.032671 0.708161 0.562223 0.010772 -0.002435 -1107060.000000 1 0 0
-8.743325 -1.639826 5.606900 10.515326 0.185398 1.008403 -0.002650 -0.001848 -73122.000000 1 0 0
12.869975 -1.791926 -1.437200 13.073363 -0.138344 1.680952 0.005157 -0.005532 -1142090.000000 1 0 0
5.493275 -5.390126 5.435300 9.421890 -0.775921 0.955892 -0.002475 -0.004191 30475.300000 1 0 0
-9.043625 -1.334526 3.052100 9.637604 0.146508 1.248562 -0.002988 -0.001763 316699.000000 1 0 0
1.999375 5.547974 5.572300 8.113449 1.224905 0.813722 -0.004636 -0.000846 -1311350.000000 1 0 0
9.193475 3.048974 -7.362600 12.166516 0.320231 2.220754 0.001342 -0.003333 -1001100.000000 1 0 0
2.265175 -2.435526 -1.443000 3.625611 -0.821622 1.980134 0.002995 -0.003282 378393.000000 1 0 0
-6.240325 0.422374 -4.036600 7.444071 -0.067582 2.143917 0.001359 -0.001603 -1660870.000000 1 0 0
-4.122525 4.153774 5.061600 7.737496 -0.789174 0.857718 0.002240 -0.000886 115240.000000 1 0 0
-6.411625 1.811974 -12.368700 14.049090 -0.275425 2.647484 0.005209 -0.007242 -3091110.000000 1 0 0
-0.181325 3.085574 6.206300 6.933384 -1.512099 0.462067 0.002028 -0.002493 1356350.000000 1 0 0
-8.734725 9.387374 -2.125400 12.997520 -0.821397 1.735057 0.002185 0.002598 1385490.000000 1 0 0
-1.172825 -3.653226 -6.196500 7.288223 1.260152 2.587175 -0.002777 -0.001575 49542.800000 1 0 0
-3.252825 7.185074 -2.922700 8.411203 -1.145683 1.925675 0.000196 0.001537 821171.000000 1 0 0
6.904775 -0.382426 -4.177000 8.078954 -0.055329 2.114165 0.002570 -0.002510 -284927.000000 1 0 0
-5.276025 -10.853126 6.928100 13.914933 1.118307 1.049633 0.005420 0.000222 649235.000000 1 0 0
9.748375 8.204174 -1.439100 12.822258 0.699594 1.683268 0.003822 -0.004618 328740.000000 1 0 0
13.714375 4.620374 -4.213000 15.072535 0.324957 1.854085 0.008920 -0.008617 -13238.000000 1 0 0
4.716075 1.065874 -6.678800 8.245230 0.222274 2.514982 -0.003804 -0.000515 -913626.000000 1 0 0
8.950875 -4.688526 3.640500 10.740283 -0.482511 1.224988 0.001213 -0.005288 -25894.800000 1 0 0
-8.774425 -3.322226 -0.874100 9.422938 0.361946 1.663693 -0.000005 -0.003153 20453.500000 1 0 0
-8.440725 -4.181126 -10.441800 14.062675 0.459922 2.407619 0.012061 -0.004714 -130047.000000 1 0 0
10.391875 -1.039126 10.762500 14.996742 -0.099663 0.770366 -0.000070 -0.001890 1197450.000000 1 0 0
2.155575 -11.661226 9.904400 15.450820 -1.388010 0.874960 -0.005867 -0.003565 567900.000000 1 0 0
-6.307225 -10.551026 1.982300 12.451295 1.032009 1.410912 0.004904 0.004171 -1101620.000000 1 0 0
-3.710825 -1.463426 6.515200 7.639350 0.375641 0.549382 0.007467 -0.005513 -1212260.000000 1 0 0
4.819275 -7.533526 3.990200 9.792912 -1.001689 1.151128 -0.000761 -0.002362 513862.000000 1 0 0
11.534075 -9.424126 -5.278400 15.802232 -0.685062 1.911371 0.019002 -0.005831 382431.000000 1 0 0
11.274675 1.278074 11.415300 16.095368 0.112876 0.782392 0.008432 0.001501 -403607.000000 1 0 0
-10.255525 -3.504326 4.308900 11.662877 0.329263 1.192375 0.002601 -0.002784 1048700.000000 1 0 0
2.066175 8.805374 9.000300 12.759667 1.340317 0.787850 -0.007336 0.001651 18814.500000 1 0 0
6.478875 8.844574 4.112400 11.709575 0.938573 1.211944 -0.001848 -0.000544 408441.000000 1 0 0
-4.287625 3.509574 0.394500 5.554860 -0.685942 1.499718 0.001495 -0.001175 -2398150.000000 1 0 0
4.809875 7.009874 4.336500 9.543504 0.969421 1.099106 -0.004321 -0.000627 -1045270.000000 1 0 0
-8.244525 13.175774 1.200900 15.588950 -1.011670 1.493685 0.001410 -0.005106 -1034360.000000 1 0 0
8.844275 8.206074 -9.155100 15.145188 0.747985 2.219921 0.000252 -0.005762 -1053840.000000 1 0 0
7.063475 1.939474 6.036600 9.491827 0.267974 0.881520 -0.003913 -0.002303 -214808.000000 1 0 0
11.521075 -6.210826 3.143600 13.460749 -0.494424 1.335081 0.006622 -0.002936 240153.000000 1 0 0
11.452275 4.658374 -2.114200 12.542922 0.386324 1.740162 0.004503 -0.004442 825351.000000 1 0 0
-3.966425 14.388974 -6.069200 16.112426 -1.301819 1.957004 0.003470 0.002855 -672773.000000 1 0 0
7.146375 -3.010526 6.777900 10.299217 -0.398704 0.852506 0.001125 -0.005865 -582157.000000 1 0 0
-8.020825 -0.543626 0.844700 8.083482 0.067673 1.466108 -0.001389 -0.003003 304998.000000 1 0 0
-3.437225 0.929774 10.699800 11.276733 -0.264179 0.321259 0.006035 -0.000844 -480463.000000 1 0 0
7.094575 -1.310226 -1.757700 7.425578 -0.182622 1.809773 0.005788 -0.004259 -2422450.000000 1 0 0
-7.810325 5.378174 2.930500 9.925410 -0.603033 1.271077 0.001165 -0.000144 668641.000000 1 0 0
9.461575 -2.073526 2.957900 10.127689 -0.215742 1.274416 0.001491 -0.004319 -1828870.000000 1 0 0
0.209375 3.494574 1.513900 3.814155 1.510953 1.162642 -0.003368 0.000301 -3309360.000000 1 0 0
-7.582325 -3.135926 3.889000 9.080198 0.392161 1.128192 -0.000337 -0.000697 672675.000000 1 0 0
-2.268025 8.418574 -6.718800 11.007207 -1.307637 2.227362 -0.005562 0.001062 -687093.000000 1 0 0
4.417675 9.737874 7.423900 13.017540 1.144904 0.963926 -0.005229 0.002085 -1008940.000000 1 0 0
-11.909225 -3.146426 6.777400 14.059259 0.258299 1.067792 0.005457 -0.002556 -2531750.000000 1 0 0
-4.785025 2.311174 -5.662700 7.765575 -0.449957 2.387956 0.004659 -0.006314 -776061.000000 1 0 0
-2.740525 2.910474 -1.891600 4.422611 -0.815463 2.012755 -0.000453 -0.000747 1251120.000000 1 0 0
2.371375 5.115674 11.425100 12.740740 1.136731 0.458454 0.004170 -0.005289 480027.000000 1 0 0
-0.735425 1.662474 4.531600 4.882629 -1.154308 0.381502 0.004324 -0.004324 271752.000000 1 0 0
5.089375 1.620674 7.644400 9.325512 0.308290 0.609857 -0.001575 -0.002373 -483782.000000 1 0 0
3.479275 -8.128926 1.834700 9.030555 -1.166378 1.366206 0.001283 -0.003949 1941550.000000 1 0 0
4.972375 6.424074 -4.592800 9.332045 0.912097 2.085358 0.006345 -0.003577 -1816320.000000 1 0 0
-3.996225 2.846774 -8.029600 9.410016 -0.618977 2.593085 0.007482 -0.009099 -205455.000000 1 0 0
-8.709125 -2.088126 -13.026000 15.807776 0.235321 2.539275 0.010897 -0.003692 -98380.700000 1 0 0
-7.801225 8.230274 1.453000 11.432748 -0.812155 1.443361 0.000694 0.003332 -1722500.000000 1 0 0
7.288175 0.879274 -6.461300 9.779520 0.120064 2.292543 -0.000031 -0.001340 -143465.000000 1 0 0
8.863475 8.892574 5.498600 13.706702 0.787037 1.158012 0.000894 -0.000193 668305.000000 1 0 0
9.452175 -1.112326 -1.277300 9.602728 -0.117141 1.704206 0.004382 -0.004214 1899110.000000 1 0 0
5.436975 0.142074 4.259800 6.908457 0.026125 0.906371 -0.000883 -0.002827 -1013130.000000 1 0 0
-4.164525 -7.273326 -7.950600 11.552341 1.050786 2.329835 0.014721 -0.004705 517983.000000 1 0 0
-2.220225 7.463874 -0.533800 7.805367 -1.281669 1.639239 -0.000364 0.000454 222174.000000 1 0 0
13.415975 -3.271326 -7.392600 15.663349 -0.239171 2.062318 0.018901 -0.006896 1002920.000000 1 0 0
-4.833825 -5.056926 1.547600 7.164735 0.807951 1.353078 0.002077 -0.001523 505268.000000 1 0 0
-8.924925 1.255874 2.477900 9.347272 -0.139797 1.302496 -0.002485 -0.000709 -1686530.000000 1 0 0
-1.075025 11.184074 10.161300 15.148967 -1.474970 0.835565 -0.007762 -0.001143 58691.200000 1 0 0
-8.591025 0.311774 7.246800 11.243621 -0.036275 0.870394 -0.006407 -0.001127 121639.000000 1 0 0
-6.009625 12.989374 -2.180000 14.477287 -1.137467 1.721952 0.000532 0.001311 -741599.000000 1 0 0
-12.951625 -0.774426 3.228100 13.370301 0.059723 1.326949 0.003311 -0.003401 473168.000000 1 0 0
-6.705525 12.883774 8.705100 16.933235 -1.090913 1.030857 0.008133 -0.004083 522175.000000 1 0 0
-7.979425 0.933874 -14.197700 16.313124 -0.116505 2.626656 0.006846 -0.003838 -52049.500000 1 0 0
7.187175 2.887574 3.758300 8.609204 0.382029 1.119042 -0.000840 -0.003065 -586403.000000 1 0 0
-1.707825 0.687374 -1.939300 2.673954 -0.382647 2.382202 0.001450 -0.003154 670691.000000 1 0 0
-6.184525 9.649474 -10.450000 15.510100 -1.000832 2.310074 0.000016 -0.002875 -314674.000000 1 0 0
-10.023325 13.601974 5.226200 17.685980 -0.935731 1.270818 -0.008633 -0.005858 -188237.000000 1 0 0
-5.518025 8.398074 2.402100 10.331812 -0.989475 1.336154 0.001086 0.001065 -2016740.000000 1 0 0
-2.402825 -10.762926 -1.221800 11.095356 1.351148 1.681138 0.007228 0.001506 658915.000000 1 0 0
-2.199525 -12.353726 8.838600 15.348397 1.394597 0.957135 0.005552 -0.005947 692464.000000 1 0 0
-14.756525 -6.406126 -1.790400 16.186383 0.409571 1.681635 0.026911 -0.008094 591939.000000 1 0 0
-2.609825 -9.270426 3.281600 10.174521 1.296377 1.242394 0.005384 -0.000191 -498704.000000 1 0 0
4.699675 -2.687926 7.538400 9.281130 -0.519531 0.622834 -0.002855 -0.001206 332346.000000 1 0 0
-15.055025 -1.333226 -0.326700 15.117473 0.088326 1.592409 0.007104 -0.008008 174235.000000 1 0 0
5.448775 8.696374 -2.781600 10.632656 1.011078 1.835485 0.004306 -0.004887 -1373940.000000 1 0 0
-5.668925 -5.727126 8.516700 11.724797 0.790505 0.757751 0.004831 -0.000346 -2863010.000000 1 0 0
3.416975 3.633674 7.045000 8.631995 0.816123 0.616080 -0.003563 -0.001708 65569.200000 1 0 0
3.343275 2.357074 9.356900 10.211996 0.614087 0.412140 0.004649 -0.005071 -292273.000000 1 0 0
9.896475 -3.138926 5.291700 11.653119 -0.307139 1.099433 0.008727 -0.005005 -876279.000000 1 0 0
6.527275 9.894474 -5.010100 12.868840 0.987640 1.970690 0.003110 -0.005510 1126260.000000 1 0 0
-4.529925 11.988374 -8.617900 15.443754 -1.209521 2.162792 -0.002165 -0.001216 -345813.000000 1 0 0
-3.350025 -7.201926 2.201000 8.242257 1.135410 1.300478 0.004287 -0.002411 964185.000000 1 0 0
-7.463525 -4.085126 1.027700 8.570217 0.500803 1.450592 0.003585 -0.002291 2095730.000000 1 0 0
-1.964825 -3.941226 -10.959900 11.811571 1.108324 2.759524 0.007145 -0.003484 -611363.000000 1 0 0
-5.216125 8.287974 -4.445600 10.754619 -1.009067 1.996945 0.001637 -0.001227 -2210580.000000 1 0 0
-10.857325 -3.116726 -10.303900 15.289403 0.279545 2.310304 0.015682 -0.000970 420360.000000 1 0 0
4.812375 -11.407726 -7.656900 14.557585 -1.171595 2.124655 0.004563 -0.001483 -1014890.000000 1 0 0
-9.448725 -4.021626 7.203200 12.543443 0.402401 0.959096 -0.000253 -0.000900 -104582.000000 1 0 0
-5.707925 -9.612926 -5.087600 12.283013 1.034966 1.997858 0.011693 -0.004456 709899.000000 1 0 0
4.731775 4.436074 -9.525100 11.523714 0.753155 2.543774 -0.001992 0.004124 330466.000000 1 0 0
-3.294425 -7.281526 -14.124400 16.228756 1.145918 2.626672 0.002094 0.003880 -382411.000000 1 0 0
0.772275 -0.870826 -8.868400 8.944454 -0.845305 3.011093 -0.000969 -0.006449 -121245.000000 1 0 0
-7.802125 2.212274 -2.912100 8.616706 -0.276295 1.915545 0.000915 -0.002289 -199178.000000 1 0 0
-2.287825 7.521974 -12.598400 14.850384 -1.275535 2.583667 0.000132 -0.004356 157099.000000 1 0 0
-9.919625 8.962074 7.619000 15.387231 -0.734728 1.052788 0.000567 -0.007347 -134967.000000 1 0 0
-10.618025 -3.063526 -14.526300 18.252151 0.280893 2.491236 0.023663 0.002179 -284445.000000 1 0 0
-3.200025 4.784674 7.878100 9.756932 -0.981313 0.631003 0.004012 -0.001426 -567464.000000 1 0 0
8.672175 -2.286426 -3.512400 9.631787 -0.257785 1.944072 0.003276 -0.003800 -5858730.000000 1 0 0
1.885175 -8.454826 -1.135200 8.736512 -1.351415 1.701102 0.003734 -0.001903 -245705.000000 1 0 0
-13.547525 -2.873026 4.932400 14.700962 0.208974 1.228644 0.012695 -0.005680 230970.000000 1 0 0
7.016275 2.857074 -1.993300 7.833533 0.386704 1.828083 0.003472 -0.006347 1029540.000000 1 0 0
-11.219925 4.486974 8.882600 14.997341 -0.380430 0.936913 -0.009028 -0.002693 -2688210.000000 1 0 0
-1.875725 -2.421926 7.955500 8.524908 0.911813 0.367561 0.005213 -0.004355 -830758.000000 1 0 0
2.920175 11.970074 -9.913800 15.814346 1.331514 2.248347 0.000991 -0.005247 454548.000000 1 0 0
3.604175 -5.073826 -7.082600 9.428521 -0.953160 2.420658 -0.003601 -0.002934 356806.000000 1 0 0
8.409875 -13.765126 -9.757000 18.852155 -1.022360 2.114786 0.024208 -0.000041 107138.000000 1 0 0
-6.342625 -5.742926 -0.500200 8.570897 0.735818 1.629190 0.007034 -0.002446 -572172.000000 1 0 0
-1.193525 -3.950526 9.779600 10.614694 1.277398 0.399317 0.002636 -0.004585 1079280.000000 1 0 0
2.768075 3.290774 1.789700 4.657732 0.871455 1.176409 -0.005134 -0.000571 -1842190.000000 1 0 0
-9.165125 13.389474 7.716600 17.967288 -0.970547 1.126879 0.002799 -0.012910 -183340.000000 1 0 0
4.149975 -11.153826 -0.002300 11.900846 -1.214599 1.570990 0.003140 -0.005472 -918129.000000 1 0 0
-12.500625 -1.384326 -9.207000 15.586880 0.110291 2.202709 0.014254 -0.001949 -130377.000000 1 0 0
-4.226625 0.871274 -13.646200 14.312311 -0.203292 2.835303 0.003189 -0.006646 484153.000000 1 0 0
3.986675 -3.054626 4.916700 7.028390 -0.653794 0.796031 -0.000755 -0.003167 -112750.000000 1 0 0
1.683875 -1.221426 1.190500 2.396791 -0.627548 1.050997 0.003454 -0.003674 -269295.000000 1 0 0
8.170675 -8.941726 7.410300 14.199540 -0.830426 1.021756 0.005791 -0.000304 -1503720.000000 1 0 0
-0.119025 2.281774 -6.367900 6.765413 -1.518680 2.797090 -0.002296 -0.005129 -397189.000000 1 0 0
-3.712725 -9.706626 -3.357200 10.921250 1.205472 1.883257 0.010491 0.000586 1095940.000000 1 0 0
-9.394825 2.297974 -5.517300 11.134811 -0.239890 2.089207 0.000312 0.000194 -697736.000000 1 0 0
8.921775 -7.545526 5.337500 12.846087 -0.702017 1.142308 0.000793 -0.002948 2273560.000000 1 0 0
-5.543025 -4.279726 4.576300 8.365626 0.657491 0.991977 0.000538 -0.000352 52003.300000 1 0 0
-0.171725 -12.447126 10.574800 16.333610 1.557001 0.866594 -0.000844 -0.004267 -2340540.000000 1 0 0
-14.389425 -8.320826 3.047900 16.899153 0.524281 1.389446 0.026791 -0.009462 -1828380.000000 1 0 0
10.821375 -1.189226 -3.597400 11.465501 -0.109457 1.889945 0.008008 -0.004748 -566133.000000 1 0 0
-13.668225 2.940574 2.679000 14.235322 -0.211909 1.381474 -0.002191 -0.002245 -1254770.000000 1 0 0
-6.311025 6.226174 1.093300 8.932501 -0.778630 1.448093 -0.000073 0.000922 745418.000000 1 0 0
7.062075 -6.847526 -0.303500 9.841424 -0.769975 1.601640 0.001366 -0.004658 290411.000000 1 0 0
-6.895225 7.934174 10.055200 14.546556 -0.855344 0.807589 0.002135 -0.002139 -75529.500000 1 0 0
-12.694125 -5.106526 -2.071400 13.838645 0.382466 1.721043 0.005591 -0.007623 -3840600.000000 1 0 0
-9.409025 -5.640726 0.103800 10.970793 0.540053 1.561335 0.004992 -0.002474 -1148490.000000 1 0 0
-1.789825 1.919274 2.200800 3.424997 -0.820285 0.872949 0.001068 -0.001370 330230.000000 1 0 0
-6.962725 7.390074 7.522100 12.636246 -0.815164 0.933183 0.000905 -0.005358 -162211.000000 1 0 0
5.508275 7.090374 -0.351100 8.985420 0.910321 1.609881 0.000833 -0.004516 -1642100.000000 1 0 0
-0.054825 -3.928526 7.383200 8.363490 1.556842 0.489029 0.003580 -0.004451 615331.000000 1 0 0
6.430175 0.703174 13.016500 14.535160 0.108923 0.461202 -0.005100 -0.001113 463997.000000 1 0 0
5.731075 6.094974 -7.881500 11.493997 0.816159 2.326369 -0.003043 0.000282 -356790.000000 1 0 0
9.974075 5.322274 8.955400 14.422482 0.490173 0.900863 0.005087 -0.000534 -2382850.000000 1 0 0
-1.140325 -4.923326 -8.549500 9.931436 1.343193 2.607739 0.006476 -0.002121 609113.000000 1 0 0
10.036575 -3.564126 -7.953200 13.292450 -0.341223 2.212205 0.012842 -0.009002 419312.000000 1 0 0
8.446675 -5.447926 1.264300 10.130384 -0.572837 1.445667 0.002019 -0.004765 1110060.000000 1 0 0
15.737175 3.295274 -4.966400 16.828032 0.206412 1.870384 0.026970 -0.005185 177216.000000 1 0 0
-6.910625 3.693474 1.010200 7.900569 -0.490837 1.442581 -0.000010 -0.001606 967160.000000 1 0 0
-1.848425 3.882874 0.234300 4.306772 -1.126495 1.516367 -0.000738 -0.002380 -1641800.000000 1 0 0
-2.666025 10.173974 6.923800 12.591920 -1.314515 0.988599 -0.000519 0.003718 954215.000000 1 0 0
5.533775 -5.644226 -8.713000 11.764197 -0.795279 2.404814 -0.001182 -0.005205 179578.000000 1 0 0
-1.299625 -0.798426 6.245100 6.428669 0.550905 0.239548 0.009280 -0.006807 644909.000000 1 0 0
-5.554625 5.001274 -7.813400 10.812762 -0.733025 2.378366 -0.000418 -0.003714 -263119.000000 1 0 0
6.695875 -1.266026 2.540900 7.272808 -0.186869 1.213898 -0.000973 -0.002998 -1086720.000000 1 0 0
8.721175 7.517374 3.242400 11.961730 0.711401 1.296298 0.002412 -0.003369 480552.000000 1 0 0
-5.231625 -4.868226 -7.717100 10.517754 0.749433 2.394579 0.013735 -0.008001 1085200.000000 1 0 0
-2.077725 7.826474 -10.124300 12.964262 -1.311308 2.466964 -0.002711 -0.000582 198808.000000 1 0 0
-2.764125 -2.177426 1.578800 3.856706 0.667224 1.149038 -0.001164 -0.000367 -515134.000000 1 0 0
6.000775 -2.185126 -9.156400 11.163500 -0.349216 2.532572 -0.000796 -0.002897 654638.000000 1 0 0
1.167275 -7.599726 5.030800 9.188434 -1.418393 0.991405 -0.000264 -0.001507 -194663.000000 1 0 0
1.835075 11.871574 1.253000 12.077739 1.417433 1.466865 -0.001389 -0.004247 619166.000000 1 0 0
-1.013725 7.072974 2.639500 7.617189 -1.428442 1.216939 -0.002515 0.001345 493606.000000 1 0 0
8.916175 7.872874 -6.672400 13.638228 0.723336 2.082017 0.001374 -0.007187 -683276.000000 1 0 0
3.749675 -11.044226 5.391100 12.849084 -1.243493 1.137824 0.005617 -0.001934 600268.000000 1 0 0
7.968275 -7.161926 12.400700 16.387921 -0.732154 0.712549 0.011008 -0.003332 334988.000000 1 0 0
-8.639925 -0.012126 -3.989800 9.516667 0.001403 2.003408 0.003536 -0.003267 -1119830.000000 1 0 0
-3.223625 -5.075526 11.247500 12.753783 1.004945 0.490929 0.005006 -0.004497 700949.000000 1 0 0
-8.128525 0.183974 -11.656500 14.211993 -0.022629 2.532535 0.008265 -0.005915 -1830770.000000 1 0 0
1.444875 -5.012726 5.196900 7.363617 -1.290162 0.787310 0.001786 -0.003368 -634375.000000 1 0 0
6.644775 3.733774 -7.702000 10.835816 0.511942 2.361418 -0.002367 0.000980 -617249.000000 1 0 0
16.258075 4.268774 -1.172700 16.850005 0.256768 1.640449 0.012353 0.001887 -1599660.000000 1 0 0
7.844775 7.359574 0.156400 10.757709 0.753497 1.556257 0.004620 -0.007004 -1888790.000000 1 0 0
5.418375 -10.349126 14.035600 18.260922 -1.088480 0.694125 0.008878 -0.003538 -285132.000000 1 0 0
-4.832425 -9.297326 8.974500 13.796168 1.091462 0.862545 -0.000354 -0.005102 607202.000000 1 0 0
-12.684025 -3.238126 2.752500 13.377077 0.249953 1.363554 0.006054 -0.003545 321921.000000 1 0 0
-2.014525 -1.271726 -5.904900 6.367373 0.563101 2.758113 0.002539 -0.006603 -1452140.000000 1 0 0
-2.474925 13.028074 -4.372500 13.963335 -1.383065 1.889295 0.001047 0.004172 294147.000000 1 0 0
3.884075 -0.535326 -4.926400 6.296192 -0.136963 2.469373 0.000506 -0.001128 -474147.000000 1 0 0
-8.971425 3.715174 -7.506100 12.273162 -0.392612 2.228861 0.003540 -0.002276 396471.000000 1 0 0
-4.505725 7.799774 -11.293500 14.445801 -1.046955 2.468318 0.002060 -0.005374 -1254870.000000 1 0 0
-10.141725 -6.455826 7.377700 14.105415 0.566870 1.020382 0.003858 0.001295 -1053500.000000 1 0 0
8.047375 5.303474 4.107000 10.476380 0.582698 1.167965 -0.001003 -0.003813 -1395570.000000 1 0 0
-6.676525 -7.476326 4.064800 10.816378 0.841850 1.185536 0.008650 -0.001372 -494037.000000 1 0 0
-4.264125 11.835274 8.108500 14.966771 -1.224985 0.998259 0.004329 -0.000502 -434595.000000 1 0 0
-7.148925 9.844274 -7.938700 14.527209 -0.942701 2.148941 0.000379 -0.001352 -887036.000000 1 0 0
13.072675 5.509274 4.686100 14.940096 0.398847 1.251752 0.009484 -0.005750 -1152200.000000 1 0 0
5.238675 3.934674 -3.725800 7.537040 0.644193 2.087863 0.002679 -0.001837 326578.000000 1 0 0
-2.836225 -4.220226 5.107600 7.207084 0.979073 0.783154 0.003241 -0.002760 -796146.000000 1 0 0
12.416475 -2.358826 -5.148200 13.646864 -0.187738 1.957615 0.013107 -0.006555 -1705270.000000 1 0 0
-5.243325 9.720274 6.960700 13.054789 -1.076111 1.008428 0.000775 0.000312 -984276.000000 1 0 0
1.758275 3.802074 -0.491000 4.217627 1.137636 1.687477 -0.004140 -0.001005 391669.000000 1 0 0
-0.120225 9.578874 7.727800 12.308053 -1.558246 0.891989 -0.006309 0.004554 -221989.000000 1 0 0
-5.763525 2.147474 5.919100 8.536135 -0.356663 0.804576 0.002243 -0.002423 619250.000000 1 0 0
8.847375 1.024374 10.683600 13.909159 0.115270 0.694931 -0.003006 0.000663 -1311760.000000 1 0 0
0.434475 -2.845626 -10.123100 10.524424 -1.419285 2.864546 0.001199 -0.002532 -1492680.000000 1 0 0
1.223075 10.645274 -2.650300 11.038200 1.456404 1.813268 0.001492 -0.003868 -557874.000000 1 0 0
2.315775 -4.227626 11.644200 12.602501 -1.069665 0.392490 -0.002014 -0.000563 -538264.000000 1 0 0
6.608375 -2.997326 9.462300 11.924333 -0.425814 0.654210 -0.001578 -0.004842 265814.000000 1 0 0
-10.585725 -8.318826 5.641400 14.597459 0.666055 1.174001 0.009126 0.000867 -526339.000000 1 0 0
-2.963025 0.873974 -6.916900 7.575411 -0.286827 2.721553 0.005204 -0.007867 458480.000000 1 0 0
11.078475 2.621374 -4.929700 12.405892 0.232345 1.979443 0.006498 -0.006181 -3835270.000000 1 0 0
-2.041425 -4.082126 -0.004000 4.564119 1.107078 1.571673 0.002033 -0.003023 999397.000000 1 0 0
-1.238525 -6.483626 -10.600700 12.487841 1.382047 2.584662 0.004492 0.001029 998631.000000 1 0 0
0.339875 6.869774 -6.585900 9.522783 1.521363 2.334490 0.001593 -0.000301 -2410970.000000 1 0 0
2.017775 3.735874 -6.130100 7.456963 1.075579 2.535823 -0.001998 -0.000792 -1883420.000000 1 0 0
1.650875 -14.697826 6.551100 16.176167 -1.458944 1.153834 0.019872 -0.008122 -77357.600000 1 0 0
-1.758125 5.326374 -10.480600 11.887146 -1.251977 2.650197 0.003126 -0.003486 -344237.000000 1 0 0
13.676175 4.366874 -0.674400 14.372271 0.309073 1.617737 0.005851 -0.003611 -382771.000000 1 0 0
-2.454725 3.334074 -6.133500 7.400104 -0.936151 2.547827 0.001018 -0.005760 -2110940.000000 1 0 0
5.566675 7.885874 14.139600 17.120256 0.956118 0.599002 0.011082 -0.002974 494541.000000 1 0 0
15.912775 0.690874 -5.798600 16.950442 0.043389 1.919938 0.023014 -0.006826 179689.000000 1 0 0
6.122775 -8.238826 10.588800 14.747519 -0.931686 0.769864 0.000720 0.001713 -725435.000000 1 0 0
0.024675 -5.886426 -6.417500 8.708325 -1.566604 2.399326 0.001878 -0.001053 -907368.000000 1 0 0
8.588075 5.543874 -7.533900 12.698395 0.573228 2.205943 0.000272 -0.003023 -443348.000000 1 0 0
-16.161425 -0.828226 5.243200 17.010842 0.051202 1.257468 0.017279 -0.008948 -600278.000000 1 0 0
-0.322925 3.996274 -12.244100 12.883806 -1.490165 2.825149 0.001782 -0.005894 620129.000000 1 0 0
-11.289525 3.637274 5.883200 13.239908 -0.311680 1.110344 -0.005036 -0.004024 758700.000000 1 0 0
5.075675 -9.855826 -9.674100 14.713531 -1.095227 2.288288 -0.005512 0.000647 -475773.000000 1 0 0
1.610075 10.958974 -11.808900 16.190787 1.424921 2.388181 0.002151 0.001437 -4271640.000000 1 0 0
5.947775 2.421474 1.170900 6.527678 0.386631 1.390446 0.002294 -0.003165 160230.000000 1 0 0
5.667675 4.581074 4.848900 8.753320 0.679770 0.983695 -0.006630 -0.001817 -470501.000000 1 0 0
0.443275 -1.442726 -6.371200 6.547529 -1.272703 2.908988 -0.000503 -0.001969 -785007.000000 1 0 0
12.803875 6.774774 -4.494400 15.166952 0.486671 1.871643 0.010268 -0.012213 -827531.000000 1 0 0
7.354375 3.242674 12.724300 15.050235 0.415275 0.563379 -0.003997 0.002372 -626887.000000 1 0 0
-2.653025 -0.175626 8.614000 9.015009 0.066102 0.299386 0.007328 -0.002830 264264.000000 1 0 0
2.365775 -15.145226 13.400600 20.360522 -1.415843 0.852416 -0.006010 -0.001113 -173640.000000 1 0 0
18.845375 4.430974 -1.812800 19.443970 0.230928 1.664164 0.020708 -0.001370 1379160.000000 1 0 0
-0.251225 -13.135826 7.296200 15.028226 1.551674 1.063862 0.000806 -0.005961 -481836.000000 1 0 0
4.277775 1.514974 -0.498500 4.565415 0.340367 1.680205 0.001078 -0.003251 954879.000000 1 0 0
2.807875 -0.532326 -7.352800 7.888676 -0.187360 2.770882 -0.004096 -0.001479 -1157500.000000 1 0 0
7.216075 -11.278426 0.899500 13.419528 -1.001616 1.503717 0.001337 -0.002706 222353.000000 1 0 0
-11.782825 -7.395826 1.174500 13.961112 0.560523 1.486570 0.009014 -0.001123 452795.000000 1 0 0
0.136875 -7.034826 9.950400 12.186795 -1.551342 0.615491 -0.002496 -0.004667 -3294030.000000 1 0 0
-4.602625 -7.196626 10.554400 13.578326 1.001800 0.680437 0.007174 -0.002204 -1340510.000000 1 0 0
11.776375 0.753974 -1.615400 11.910542 0.063937 1.706843 0.004381 -0.004697 839915.000000 1 0 0
6.559575 -9.559426 -7.522600 13.820281 -0.969400 2.146370 0.000046 -0.001777 297360.000000 1 0 0
-10.909125 4.884074 3.580700 12.477363 -0.420944 1.279728 -0.004265 -0.002113 -696785.000000 1 0 0
6.100175 -9.048326 2.138300 11.120102 -0.977612 1.377300 0.001719 -0.006641 2293360.000000 1 0 0
11.651875 -1.271826 5.986600 13.161426 -0.108722 1.098582 0.010238 -0.007110 -1158290.000000 1 0 0
-6.424825 3.705674 4.076300 8.463251 -0.523167 1.068263 -0.001465 -0.000534 -3141260.000000 1 0 0
9.482075 6.229474 -3.176600 11.781634 0.581262 1.843798 0.006156 -0.005901 -332061.000000 1 0 0
-2.339125 6.489774 10.893400 12.893985 -1.224858 0.564524 0.000931 -0.003050 134979.000000 1 0 0
1.731675 9.825774 2.914700 10.394230 1.396350 1.286570 -0.006256 0.001204 -355368.000000 1 0 0
2.794075 6.052874 -5.557100 8.679027 1.138328 2.265673 0.000143 -0.000862 -1961380.000000 1 0 0
11.740975 0.108474 -5.680400 13.043359 0.009239 2.021391 0.011359 -0.006008 67164.100000 1 0 0
-2.608525 -12.627626 6.333000 14.365522 1.367089 1.114254 0.004872 0.000072 886817.000000 1 0 0
10.727475 1.754974 -2.628200 11.183296 0.162160 1.808026 0.005994 -0.004594 552374.000000 1 0 0
-8.900725 5.500774 0.750300 10.490203 -0.553560 1.499211 -0.002445 0.000213 -175856.000000 1 0 0
1.157075 -10.099326 5.684200 11.646688 -1.456724 1.060939 0.000059 -0.002277 -404563.000000 1 0 0
9.383275 -5.643626 -1.274700 11.023667 -0.541489 1.686689 0.002021 -0.006164 2355610.000000 1 0 0
-7.742325 8.661674 -4.573500 12.485395 -0.841384 1.945834 -0.001056 0.000836 -505166.000000 1 0 0
-7.412225 -0.069626 -1.632200 7.590125 0.009393 1.787532 0.000090 -0.001922 -1723450.000000 1 0 0
4.031075 8.960374 2.798400 10.216111 1.148044 1.293329 -0.001231 -0.002271 -188364.000000 1 0 0
-1.299525 -10.558126 -3.703700 11.264110 1.448329 1.905835 0.007772 0.000468 -929238.000000 1 0 0
3.087075 7.894474 -3.689100 9.244578 1.198036 1.981283 0.005809 -0.004365 -252837.000000 1 0 0
-4.357725 1.625374 -11.106800 12.041288 -0.357005 2.745027 0.002070 -0.007838 -888274.000000 1 0 0
1.265175 2.782774 10.895400 11.316106 1.144086 0.273533 0.009158 -0.006044 572427.000000 1 0 0
2.168975 5.614574 -7.990700 10.003958 1.202146 2.496017 -0.000578 -0.000656 -834681.000000 1 0 0
15.557175 6.152074 4.063000 17.215740 0.376577 1.332544 0.012562 -0.009334 490868.000000 1 0 0
-4.436325 8.956274 4.698100 11.043911 -1.110891 1.131390 0.002653 0.000665 195960.000000 1 0 0
-0.924525 -8.223226 -12.386600 14.896444 1.458838 2.552624 0.004867 0.003491 -23946.400000 1 0 0
14.284875 -4.145926 -5.219100 15.763419 -0.282471 1.908254 0.020310 -0.004949 -614730.000000 1 0 0
-6.118925 -6.277626 -5.676900 10.443994 0.798200 2.145465 0.013473 -0.004091 555699.000000 1 0 0
-8.899125 2.578174 -12.282300 15.384937 -0.281991 2.495318 0.009037 -0.007236 -1234970.000000 1 0 0
10.448475 5.355874 13.829400 18.141343 0.473676 0.703915 0.018691 -0.002072 554157.000000 1 0 0
-0.420125 10.885674 5.580900 12.240133 -1.532221 1.097356 -0.003654 0.005457 710494.000000 1 0 0
0.427475 11.229774 -0.568500 11.252278 1.532748 1.621341 -0.000869 -0.002882 -248059.000000 1 0 0
-1.520525 -0.567326 3.664700 4.007977 0.357114 0.416893 0.004146 -0.003137 279068.000000 1 0 0
-4.887325 6.609574 8.866000 12.090425 -0.934094 0.747622 0.001256 -0.002841 -1501040.000000 1 0 0
3.490175 -8.778426 -11.488400 14.873648 -1.192373 2.453407 -0.000956 0.001571 1422990.000000 1 0 0
6.652175 -3.826826 12.006200 14.249382 -0.522040 0.568746 0.005137 -0.003184 -196444.000000 1 0 0
-2.457025 -1.884126 -12.610300 12.984859 0.654187 2.900821 0.002323 -0.008152 890810.000000 1 0 0
-16.086125 -4.917026 5.402200 17.667040 0.296649 1.260040 0.027379 -0.010363 1148550.000000 1 0 0
-8.955225 7.325674 5.764400 12.926324 -0.685641 1.108569 -0.002948 -0.002688 -2713990.000000 1 0 0
-12.911225 1.430674 5.926300 14.278221 -0.110358 1.142789 -0.004078 -0.003123 85299.700000 1 0 0
-3.517225 3.493774 10.187700 11.329897 -0.782053 0.452888 0.004746 -0.000020 708261.000000 1 0 0
2.059375 -12.277926 -1.116400 12.499394 -1.404613 1.660232 0.006236 -0.001028 -2207420.000000 1 0 0
10.350375 -5.049126 -3.638300 12.077300 -0.453857 1.876801 0.008346 -0.005156 630558.000000 1 0 0
3.221575 -13.468426 0.957600 13.881428 -1.336013 1.501757 0.010480 -0.000875 360299.000000 1 0 0
10.024275 -1.841226 -6.041800 11.848188 -0.181652 2.105905 0.009970 -0.003095 -332359.000000 1 0 0
11.944475 -5.409726 -1.508500 13.198909 -0.425268 1.685336 0.007812 -0.004308 -852261.000000 1 0 0
1.482175 1.012074 5.952200 6.216898 0.599109 0.292858 0.003944 -0.005063 414658.000000 1 0 0
-10.796725 11.677374 6.649700 17.238006 -0.824563 1.174767 -0.004190 -0.006582 -260018.000000 1 0 0
4.816875 -14.112326 3.048900 15.220244 -1.241871 1.369113 0.013180 -0.007187 -2353570.000000 1 0 0
5.284875 -3.429626 -1.712200 6.528696 -0.575638 1.836157 0.004242 -0.003860 -1379830.000000 1 0 0
2.101375 -2.901526 -7.721200 8.511848 -0.943992 2.707167 -0.003518 -0.002008 -259668.000000 1 0 0
-2.782325 14.804974 -8.871000 17.482083 -1.385031 2.103000 0.004074 -0.000953 -2524680.000000 1 0 0
-2.266725 6.113374 -8.124600 10.417318 -1.215729 2.465323 0.003463 -0.004162 -483093.000000 1 0 0
2.588675 -3.519226 -11.297100 12.112417 -0.936587 2.772590 0.000001 -0.001675 -2644350.000000 1 0 0
14.659875 2.884274 -2.625900 15.169915 0.194265 1.744772 0.017162 -0.003480 570899.000000 1 0 0
-3.492825 13.189174 2.138100 13.810344 -1.311914 1.415352 0.000035 -0.001852 -1076290.000000 1 0 0
7.729275 -5.137226 14.061500 16.848103 -0.586602 0.583382 0.001882 -0.005525 -1875100.000000 1 0 0
-11.463925 7.239374 2.871700 13.859176 -0.563254 1.362079 -0.003016 -0.000184 870001.000000 1 0 0
-2.328925 11.960974 4.061900 12.844759 -1.378492 1.249043 -0.000806 0.001939 441205.000000 1 0 0
1.775075 1.453374 0.714600 2.402882 0.686080 1.268835 -0.003863 -0.001538 -1997510.000000 1 0 0
-7.014425 8.596274 5.191900 12.249649 -0.886385 1.133115 0.001476 -0.000601 827402.000000 1 0 0
-1.073225 9.265174 1.091800 9.390809 -1.455476 1.454270 -0.001903 0.002560 575584.000000 1 0 0
4.851375 12.750074 -8.439600 16.041418 1.207214 2.124820 0.010466 -0.015536 -2269120.000000 1 0 0
8.938975 6.969974 7.240800 13.450465 0.662257 1.002341 -0.000795 -0.002443 -1569650.000000 1 0 0
7.299075 -13.652126 2.820600 15.735718 -1.079816 1.390574 0.013911 -0.006211 50077.400000 1 0 0
4.202975 -13.473826 -1.284800 14.172498 -1.268425 1.661575 0.007094 0.001823 -2202270.000000 1 0 0
12.242675 -11.791126 -4.639900 17.619376 -0.766612 1.837280 0.021586 -0.001102 -302634.000000 1 0 0
2.897075 -0.033826 -1.964900 3.500717 -0.011675 2.166734 0.000841 -0.002520 1149410.000000 1 0 0
-13.495625 -3.161326 -10.816400 17.581819 0.230099 2.233441 0.016679 -0.006363 283149.000000 1 0 0
-6.667425 13.704374 5.080000 16.064583 -1.117992 1.249050 0.007211 -0.005835 -233237.000000 1 0 0
7.296175 -4.204126 -0.533900 8.437648 -0.522743 1.634115 0.001204 -0.003103 -1701120.000000 1 0 0
11.750375 2.213674 -7.124900 13.918904 0.186209 2.108176 0.014987 -0.006217 -229957.000000 1 0 0
-7.539125 -4.615726 9.689800 13.116232 0.549368 0.739562 0.003630 -0.000193 163050.000000 1 0 0
0.988775 2.734274 8.351000 8.842688 1.223805 0.335043 0.006871 -0.005249 -1817450.000000 1 0 0
1.673175 8.067374 -8.719000 11.995958 1.366295 2.384489 0.002698 -0.001314 -772997.000000 1 0 0
-8.533425 -1.946526 -5.686500 10.437652 0.224269 2.146955 0.012579 -0.005132 -1314940.000000 1 0 0
6.589275 -0.428526 7.038200 9.650826 -0.064942 0.753520 -0.001166 -0.003088 4979.060000 1 0 0
-10.962625 6.547274 7.110900 14.615431 -0.538385 1.062679 -0.003112 -0.005686 384263.000000 1 0 0
-5.943425 11.079074 4.927700 13.503792 -1.078412 1.197258 0.000451 0.000246 415292.000000 1 0 0
6.048575 -1.293326 -6.789300 9.184364 -0.210651 2.402713 -0.001064 0.000188 -657192.000000 1 0 0
4.463875 -5.805326 11.353500 13.510365 -0.915291 0.572859 0.000218 -0.002947 -1110220.000000 1 0 0
-8.910525 -7.403626 2.601500 11.873455 0.693292 1.349902 0.008018 0.000413 -3211940.000000 1 0 0
-1.327325 12.676874 -9.334600 15.798724 -1.466472 2.202902 0.011896 -0.000691 446366.000000 1 0 0
-4.649825 9.357574 -2.275600 10.694083 -1.109628 1.785226 -0.001328 0.000057 280464.000000 1 0 0
-3.275825 9.704374 -0.118600 10.243045 -1.245245 1.582375 -0.000034 0.001491 -92577.000000 1 0 0
-3.529525 10.701074 -6.512600 13.014780 -1.252203 2.094857 0.001157 0.003341 585672.000000 1 0 0
4.814675 -4.828426 0.398400 6.830338 -0.786824 1.512435 0.004818 -0.006398 -466744.000000 1 0 0
-2.234525 2.894074 -10.878200 11.476236 -0.913298 2.817340 0.004866 -0.006467 -2638370.000000 1 0 0
-3.545125 12.111974 -2.201000 12.810629 -1.286054 1.743463 -0.000716 0.002685 -1296530.000000 1 0 0
-0.212425 0.355074 0.100200 0.425725 -1.031662 1.333204 -0.002446 -0.001694 -1183680.000000 1 0 0
-4.786925 -1.670026 0.072900 5.070399 0.335670 1.556418 -0.000073 -0.001094 313354.000000 1 0 0
2.493275 2.457874 -2.379800 4.233322 0.778248 2.167790 -0.005809 -0.002167 583559.000000 1 0 0
6.029775 -9.699126 8.429700 14.194755 -1.014586 0.934948 -0.000339 0.001493 -506731.000000 1 0 0
-4.253825 -5.483026 6.594800 9.573400 0.910976 0.810871 0.003106 -0.001549 -30792.000000 1 0 0
-6.261525 5.280974 -12.164400 14.665197 -0.700650 2.548962 0.002735 -0.009546 1068130.000000 1 0 0
-13.090225 3.040274 7.886900 15.582055 -0.228209 1.040078 -0.004413 -0.004549 705457.000000 1 0 0
4.749875 -7.540026 -4.856300 10.148742 -1.008642 2.069756 -0.000860 -0.004251 279985.000000 1 0 0
-5.955825 2.505874 -1.114400 6.556915 -0.398260 1.741583 0.000500 -0.001651 -1141640.000000 1 0 0
-6.838025 -2.695426 -14.611300 16.355855 0.375481 2.675515 0.012065 -0.001914 -102170.000000 1 0 0
2.665075 -6.184326 0.857600 6.788519 -1.163905 1.444127 0.002363 -0.002495 -925589.000000 1 0 0
4.890575 -7.821326 13.090200 16.013875 -1.011990 0.613864 0.004946 -0.004336 -276838.000000 1 0 0
-9.996625 -1.692626 7.874100 12.837404 0.167729 0.910474 -0.002481 0.000960 -282075.000000 1 0 0
-4.541125 13.466474 -0.162300 14.212462 -1.245555 1.582216 0.003440 0.000395 432238.000000 1 0 0
6.808475 2.253174 -4.440100 8.434845 0.319592 2.125157 0.001482 -0.001770 -1430830.000000 1 0 0
4.975675 4.497074 -0.048000 6.706961 0.734917 1.577953 -0.002195 -0.004594 -608774.000000 1 0 0
-5.949125 12.372474 1.794200 13.845192 -1.122598 1.440841 0.003816 -0.002724 -81934.800000 1 0 0
6.472475 -7.308426 6.577700 11.771668 -0.845984 0.977890 -0.003706 -0.002345 -1513990.000000 1 0 0
-0.315125 4.961174 7.673400 9.142955 -1.507363 0.574859 0.002049 -0.001589 -1017580.000000 1 0 0
-5.803925 -3.404926 -1.547700 6.904668 0.530552 1.796870 0.004951 -0.004678 -1069960.000000 1 0 0
2.369275 -6.561826 -5.151900 8.672548 -1.224294 2.206877 -0.002438 -0.000067 -402748.000000 1 0 0
-14.422325 -4.778526 -3.836400 15.670218 0.319945 1.818131 0.016213 -0.011517 -607749.000000 1 0 0
-12.333025 -5.091426 -6.460600 14.824489 0.391516 2.021730 0.015247 -0.012174 -1982080.000000 1 0 0
-14.978225 -3.852726 -1.323900 15.522352 0.251764 1.656190 0.016562 -0.005507 605129.000000 1 0 0
11.802875 2.982774 8.817900 15.031972 0.247533 0.943930 0.013134 -0.005618 -1388550.000000 1 0 0
8.660575 -6.381026 7.684900 13.220467 -0.634993 0.950486 0.004565 -0.004003 -315941.000000 1 0 0
-8.730125 -1.647926 -9.724300 13.171664 0.186568 2.401304 0.007159 -0.004316 -582719.000000 1 0 0
-8.838925 5.165874 -3.986000 10.986402 -0.528904 1.942080 0.001282 0.001825 -1050780.000000 1 0 0
-4.043325 -6.271926 4.110800 8.519636 0.998177 1.067280 0.004341 -0.000958 -1102660.000000 1 0 0
-0.073325 -9.370826 3.533900 10.015298 1.562972 1.210181 0.001929 -0.002497 213955.000000 1 0 0
8.008075 -10.388526 3.328900 13.532639 -0.914079 1.322255 -0.000080 -0.004118 -49029.800000 1 0 0
-0.132125 6.473974 9.536400 11.527043 -1.550391 0.596500 -0.001816 -0.002135 -86508.100000 1 0 0
-0.026325 3.474174 -9.640600 10.247524 -1.563219 2.795701 0.002332 -0.004422 344191.000000 1 0 0
4.451675 -3.111626 10.898200 12.176633 -0.610040 0.462344 -0.001386 -0.002362 -1704980.000000 1 0 0
8.569875 -9.136326 1.140700 12.578411 -0.817379 1.479984 -0.000912 -0.004337 -1674770.000000 1 0 0
-0.325125 -0.468726 11.220700 11.235191 0.964355 0.050795 0.012115 -0.002489 192543.000000 1 0 0
10.825375 6.090174 11.326900 16.810046 0.512453 0.831433 0.017671 -0.003463 -128833.000000 1 0 0
-6.311525 -2.824526 -11.995800 13.846028 0.420789 2.618686 0.010210 -0.003265 188116.000000 1 0 0
-1.685825 2.791674 8.363200 8.976556 -1.027532 0.371810 0.008294 -0.003196 -374971.000000 1 0 0
-1.624125 13.541374 -6.889100 15.279604 -1.451429 2.038535 0.008365 0.001438 746870.000000 1 0 0
7.680175 3.093574 9.700300 12.753475 0.382918 0.706559 -0.003898 -0.000383 443393.000000 1 0 0
6.539875 8.417874 -7.896100 13.265707 0.910298 2.208344 0.003524 -0.004023 285920.000000 1 0 0
6.686475 -2.987826 -3.867100 8.281939 -0.420228 2.056614 0.003029 -0.003525 -2143080.000000 1 0 0
2.039875 8.242374 0.989500 8.548505 1.328185 1.454785 -0.004373 0.000462 1029600.000000 1 0 0
-17.602525 6.303574 6.384100 19.757041 -0.343878 1.241761 0.017872 -0.005764 -973411.000000 1 0 0
-14.635925 2.845974 -10.162200 18.043840 -0.192055 2.169044 0.034139 -0.009255 -637803.000000 1 0 0
-18.269925 0.137174 -4.405800 18.794149 -0.007508 1.807422 0.024580 -0.006725 154296.000000 1 0 0
-13.103425 7.936874 0.097800 15.320028 -0.544607 1.564412 0.002369 0.004608 -759916.000000 1 0 0
-12.673225 -4.309226 -13.018600 18.672546 0.327762 2.342288 0.031960 0.002298 -1142600.000000 1 0 0
-17.291025 -0.629926 -8.788100 19.406366 0.036415 2.040751 0.028826 -0.010350 -131711.000000 1 0 0
-16.728325 -2.097526 -2.232700 17.006511 0.124737 1.702461 0.022217 -0.009374 681154.000000 1 0 0
-15.254025 4.079974 1.575900 15.868677 -0.261351 1.471324 0.000341 -0.000175 -1132390.000000 1 0 0
-13.182625 5.862474 4.358900 15.071503 -0.418448 1.277390 -0.004330 -0.002547 963600.000000 1 0 0
-10.155725 14.107074 2.739300 17.596933 -0.946837 1.414491 0.018795 -0.012762 -156934.000000 1 0 0
-11.829425 2.493174 -6.366900 13.663404 -0.207720 2.055540 0.005402 0.000450 -353488.000000 1 0 0
-15.961725 10.711774 3.925000 19.619490 -0.591060 1.369381 0.016619 -0.004075 -784073.000000 1 0 0
-12.720825 1.098974 -8.588800 15.388132 -0.086178 2.162944 0.014000 -0.002345 596944.000000 1 0 0
-12.330925 14.262474 4.007500 19.275112 -0.857904 1.361358 0.022390 -0.014270 -468930.000000 1 0 0
-10.600625 11.076774 -1.060800 15.368587 -0.807360 1.639875 0.011979 0.000260 47044.200000 1 0 0
-17.029325 5.478674 8.806000 19.938892 -0.311262 1.113360 0.014575 -0.013090 304474.000000 1 0 0
-11.621925 12.471274 -9.292000 19.415022 -0.820636 2.069854 0.021476 -0.011612 -2959270.000000 1 0 0
-17.104825 -0.569326 2.868000 17.352942 0.033272 1.404760 0.013611 -0.006058 560206.000000 1 0 0
-13.075225 14.924474 -0.835700 19.859502 -0.851348 1.612889 0.043040 -0.007132 -199205.000000 1 0 0
-16.190225 4.718674 -10.480500 19.855229 -0.283596 2.126859 0.038679 -0.010703 690675.000000 1 0 0
-11.834625 7.625274 -9.130200 16.779860 -0.572371 2.146132 0.009091 -0.001563 -137094.000000 1 0 0
-15.034725 13.429374 -1.814900 20.240674 -0.729059 1.660583 0.056277 -0.007035 1266630.000000 1 0 0
-11.787925 10.708774 -5.572600 16.872667 -0.737466 1.907390 0.024338 0.000053 1022170.000000 1 0 0
-17.580625 2.789474 -0.876900 17.822135 -0.157356 1.620019 0.004573 -0.003231 -566161.000000 1 0 0
-9.515225 15.322074 0.733600 18.051139 -1.015068 1.530145 0.025763 -0.012699 424720.000000 1 0 0
-8.000725 13.254574 -3.800400 15.941718 -1.027719 1.811508 0.008484 0.000954 -1138080.000000 1 0 0
-17.744125 11.732874 2.270700 21.393232 -0.584226 1.464455 0.044944 0.005704 -56521.100000 1 0 0
-8.327725 15.667374 -7.134500 19.123773 -1.082242 1.953112 0.055639 -0.018793 -273615.000000 1 0 0
-6.361925 15.198774 -5.346200 17.322202 -1.174375 1.884552 0.009124 -0.002114 444627.000000 1 0 0
-17.217425 5.246074 -0.173600 17.999754 -0.295759 1.580441 0.011065 0.000611 453059.000000 1 0 0
-5.289425 12.155974 -12.307700 18.089367 -1.160377 2.319082 -0.006449 -0.009840 -912651.000000 1 0 0
-11.163325 3.678274 -11.489600 16.436557 -0.318293 2.344832 0.013377 -0.006153 389508.000000 1 0 0
-11.863025 11.027774 1.224000 16.243193 -0.748926 1.495370 0.012720 -0.001514 248678.000000 1 0 0
-12.897125 0.172174 -11.129900 17.036436 -0.013349 2.282731 0.018100 -0.010224 1199050.000000 1 0 0
-14.114825 -2.017526 -12.993100 19.290395 0.141975 2.309801 0.040645 -0.012132 43932.400000 1 0 0
-18.790525 -2.283326 -3.743400 19.295347 0.120922 1.766040 0.026350 -0.010502 660601.000000 1 0 0
-18.253425 4.813074 -5.118900 19.559047 -0.257813 1.835595 0.030169 -0.005943 596335.000000 1 0 0
-8.050825 15.199274 -2.033800 17.319644 -1.083684 1.688495 0.020005 -0.008940 -420202.000000 1 0 0
-16.114025 9.183974 -5.198400 19.262153 -0.518021 1.844061 0.031642 0.005522 -108722.000000 1 0 0
-18.345825 1.510874 2.093200 18.526562 -0.082170 1.457571 0.025541 -0.004994 -687755.000000 1 0 0
-15.674125 -2.657326 -8.652000 18.099632 0.167939 2.069196 0.014963 -0.009401 -91323.300000 1 0 0
-9.611825 10.468974 -7.189000 15.926968 -0.828057 2.039099 0.013623 -0.002000 193936.000000 1 0 0
-13.878325 12.064774 -7.976500 20.044730 -0.715607 1.980061 0.043028 -0.008544 737598.000000 1 0 0
-11.055425 6.552374 -3.896800 13.429113 -0.535023 1.865207 0.001954 0.003880 -2020430.000000 1 0 0
-13.068325 4.959374 -12.711000 18.893015 -0.362706 2.308768 0.034928 -0.016108 -74929.600000 1 0 0
-17.640525 9.148274 2.584400 20.038916 -0.478412 1.441467 0.022972 -0.004320 648505.000000 1 0 0
-13.473825 8.935674 -6.607100 17.465509 -0.585590 1.958749 0.017529 0.005516 -886008.000000 1 0 0
-15.834025 7.014274 -3.801300 17.730377 -0.417007 1.786868 0.011640 0.008512 -869853.000000 1 0 0
-14.843725 -0.361026 -9.318800 17.530161 0.024317 2.131269 0.023749 -0.009977 401303.000000 1 0 0
-10.073925 5.799574 -6.178900 13.164263 -0.522361 2.059373 0.001133 0.001395 519835.000000 1 0 0
-12.918325 12.268274 -0.856500 17.836122 -0.759595 1.618835 0.028158 -0.000710 1133520.000000 1 0 0
-10.627125 3.414674 -13.989500 17.896980 -0.310897 2.468132 0.014194 -0.007927 152514.000000 1 0 0
-10.886125 6.255974 -11.974000 17.349974 -0.521589 2.332486 0.004552 -0.011219 -754588.000000 1 0 0
-5.712425 11.573874 -14.800100 19.637447 -1.112312 2.424420 0.003271 -0.017289 -268349.000000 1 0 0
-15.573725 13.315374 3.748400 20.830041 -0.707384 1.389859 0.023321 -0.011638 120009.000000 1 0 0
-15.322625 11.136874 -3.071000 19.189680 -0.628504 1.731521 0.043066 0.007438 667106.000000 1 0 0
-18.159925 7.786674 -4.651800 20.299123 -0.405071 1.802014 0.031198 0.000457 -404354.000000 1 0 0
-3.871825 16.279574 -10.640000 19.829906 -1.337301 2.137156 0.019364 0.000151 -162664.000000 1 0 0
-15.714025 4.403674 -4.458900 16.917586 -0.273230 1.837513 0.010835 0.003784 -39216.700000 1 0 0
-18.767325 -1.617426 -6.238300 19.843007 0.085971 1.890603 0.032991 -0.008710 633457.000000 1 0 0
-10.866825 8.643874 -5.814400 15.053627 -0.671952 1.967354 0.008956 0.003761 557704.000000 1 0 0
-11.328725 13.731174 -6.925000 19.100805 -0.880974 1.941799 0.036181 0.001041 -54426.200000 1 0 0
-9.434025 10.563774 -4.449400 14.845582 -0.841832 1.875187 0.000511 0.004621 75236.600000 1 0 0
-11.149625 6.239374 -0.287400 12.779926 -0.510187 1.593287 -0.001227 0.002964 -1122480.000000 1 0 0
-14.708625 9.478774 -1.199600 17.539380 -0.572454 1.639244 0.019995 0.006029 690253.000000 1 0 0
-18.508125 3.585874 4.459600 19.372589 -0.191375 1.338512 0.015058 -0.005056 289231.000000 1 0 0
-14.777125 13.500874 0.639000 20.026116 -0.740296 1.538883 0.022678 0.008520 1003140.000000 1 0 0
-17.070725 2.696474 -9.115200 19.538871 -0.156665 2.056144 0.045137 -0.004432 1038800.000000 1 0 0
-9.075625 8.418174 -8.959800 15.281055 -0.747834 2.197322 0.008006 -0.002547 -927750.000000 1 0 0
-17.665625 4.663374 -2.676200 18.465736 -0.258093 1.716236 0.010506 0.002955 1490440.000000 1 0 0
-13.517025 5.968774 -4.543400 15.458936 -0.415825 1.869102 0.007883 0.007400 -2324590.000000 1 0 0
-12.224125 9.609074 3.300900 15.895266 -0.666192 1.361608 -0.002161 0.000015 602712.000000 1 0 0
-17.610925 2.506674 -3.995800 18.231689 -0.141387 1.791758 0.019126 -0.001141 970293.000000 1 0 0
-11.217725 1.409574 -12.731600 17.026975 -0.125001 2.415435 0.016184 -0.005325 275629.000000 1 0 0
-11.286725 11.933574 3.616300 16.818976 -0.813248 1.354091 0.008128 -0.006541 181050.000000 1 0 0
-16.484025 13.527874 -3.798800 21.660040 -0.687216 1.747091 0.054593 0.003066 758477.000000 1 0 0
-11.106725 4.078874 -4.504200 12.660346 -0.351953 1.934537 -0.001369 0.003275 -31979.500000 1 0 0
-10.903225 14.977174 -9.182000 20.676198 -0.941531 2.030950 0.043365 -0.015112 158569.000000 1 0 0
-15.534725 7.202174 -0.274400 17.125253 -0.434121 1.586820 0.012243 0.005696 -1285220.000000 1 0 0
-12.800625 8.494674 -4.118600 15.905293 -0.585886 1.832726 0.008896 0.007513 736582.000000 1 0 0
-19.248425 1.968274 -5.948600 20.242574 -0.101902 1.869065 0.041431 -0.009997 -484888.000000 1 0 0
-12.581925 10.064474 -9.073900 18.491461 -0.674689 2.083698 0.022271 -0.005883 594398.000000 1 0 0
-16.862625 11.059474 -0.921700 20.186867 -0.580482 1.616471 0.031811 0.004438 679880.000000 1 0 0
-10.788525 6.554174 -14.537200 19.253042 -0.545926 2.426542 0.022012 -0.021808 -284485.000000 1 0 0
-13.916425 13.139874 -4.078500 19.569295 -0.756705 1.780749 0.044897 0.001191 -478403.000000 1 0 0
-18.103825 7.572174 -0.310600 19.626073 -0.396151 1.586623 0.032245 0.003285 -106100.000000 1 0 0
-12.821425 6.724974 -2.155400 14.637621 -0.483063 1.718584 0.001138 0.008636 468578.000000 1 0 0
-13.742125 8.387574 -10.748400 19.357828 -0.547999 2.159458 0.023398 -0.009441 -28009.100000 1 0 0
-14.895525 1.388074 -0.939900 14.989557 -0.092919 1.633541 -0.001097 -0.002783 -776210.000000 1 0 0
-13.266025 2.768774 -2.490700 13.778864 -0.205758 1.752558 -0.001375 0.000663 5837.800000 1 0 0
-11.139625 9.215074 -11.032400 18.185782 -0.691128 2.222636 0.014795 -0.011365 -31541.400000 1 0 0
-15.257525 4.380374 -8.049900 17.798332 -0.279577 2.040121 0.018446 -0.004424 373644.000000 1 0 0
-18.430225 10.564274 4.545400 21.724128 -0.520483 1.360006 0.055996 -0.012568 592432.000000 1 0 0
-15.285425 6.272974 -6.178700 17.640032 -0.389430 1.928651 0.017161 0.006447 853665.000000 1 0 0
-7.653825 11.111774 -13.128700 18.825921 -0.967625 2.342523 -0.004751 -0.013140 -796212.000000 1 0 0
-16.858725 9.121874 -2.714300 19.359561 -0.495967 1.711464 0.025128 0.002871 436181.000000 1 0 0
-20.744525 -0.799026 -4.681700 21.281261 0.038498 1.792602 0.045507 -0.016289 780647.000000 1 0 0
-15.494825 4.363074 4.056900 16.600736 -0.274476 1.323915 0.001983 -0.001488 562941.000000 1 0 0
-6.897425 12.484374 -9.321500 17.038909 -1.066048 2.149658 0.003138 -0.010167 -2515240.000000 1 0 0
-17.222525 1.564874 5.553300 18.163241 -0.090613 1.260077 0.013527 -0.009234 1017740.000000 1 0 0
-10.284225 14.133774 -2.898300 17.718041 -0.941763 1.735114 0.041701 -0.009446 503624.000000 1 0 0
-9.964625 8.429674 -13.089800 18.485021 -0.702144 2.357643 -0.000294 -0.011847 -684876.000000 1 0 0
-13.803225 11.620974 2.914100 18.277528 -0.699774 1.410677 0.015519 -0.008263 -721277.000000 1 0 0
-16.901525 6.663274 1.927400 18.269527 -0.375532 1.465102 0.014200 0.001820 627354.000000 1 0 0
-9.273325 13.156474 -8.380100 18.146995 -0.956824 2.050808 0.029591 -0.013973 -676448.000000 1 0 0
-5.517725 9.652074 -13.025200 17.124942 -1.051474 2.435030 -0.002057 -0.008659 -1155190.000000 1 0 0
-15.930825 1.826674 3.015500 16.316285 -0.114164 1.384912 0.000273 -0.002481 -543593.000000 1 0 0
-18.634225 -4.973726 4.495400 19.803558 0.260833 1.341801 0.044759 -0.013983 -455505.000000 1 0 0
-5.304725 14.453574 -9.309300 17.991914 -1.219042 2.114625 0.005204 0.001683 -82610.400000 1 0 0
-15.431725 -0.813326 -6.813600 16.888599 0.052656 1.986074 0.014375 -0.001642 627742.000000 1 0 0
-8.879525 10.905374 -9.568700 17.009796 -0.887436 2.168252 0.005471 -0.009968 254961.000000 1 0 0
-16.720925 1.312974 -6.144400 17.862443 -0.078362 1.921953 0.006834 0.000907 -1040370.000000 1 0 0
-11.206825 8.643874 -1.543300 14.236968 -0.656997 1.679411 0.002877 0.001688 -1199060.000000 1 0 0
-10.609625 10.945174 -12.873200 19.951948 -0.800964 2.272095 0.014833 -0.012995 -386940.000000 1 0 0
-13.732825 11.905074 -10.544200 21.011935 -0.714228 2.096497 0.047516 -0.014888 7020.070000 1 0 0
-13.189025 5.828074 -7.714500 16.353297 -0.416088 2.062059 0.012573 0.004736 -1622530.000000 1 0 0
-8.847025 15.517974 -4.566500 18.437198 -1.052641 1.821080 0.037138 -0.006561 306421.000000 1 0 0
-8.564425 6.264074 -13.132100 16.883129 -0.631495 2.461992 0.002940 -0.009210 -891333.000000 1 0 0
-16.454125 7.541974 4.336800 18.612561 -0.429787 1.335631 0.014337 0.001770 53712.100000 1 0 0
-12.673625 5.453674 -10.246200 17.185690 -0.406365 2.209562 0.017840 -0.004941 340389.000000 1 0 0
-12.487825 9.088374 -13.248300 20.348507 -0.629127 2.279789 0.042002 -0.027647 -1228460.000000 1 0 0
-10.798325 5.270774 -8.631800 14.795028 -0.454091 2.193737 0.003444 0.001576 -150753.000000 1 0 0
-17.733025 -4.450526 -2.724200 18.484821 0.245895 1.718710 0.021677 -0.011449 281922.000000 1 0 0
-8.844125 13.037174 -10.987900 19.207300 -0.974730 2.179822 0.026920 -0.016462 -83688.700000 1 0 0
-15.132825 6.087174 5.985700 17.374829 -0.382444 1.219086 0.004556 -0.007041 -1119170.000000 1 0 0
-16.417725 -3.189626 -4.548100 17.332069 0.191889 1.836315 0.017800 -0.008492 9428.080000 1 0 0
-11.184625 -1.122526 -12.750400 16.997899 0.100028 2.419034 0.017545 0.000320 558964.000000 1 0 0
-15.398325 6.930174 -8.573600 18.937854 -0.422904 2.040613 0.023701 0.004864 93810.000000 1 0 0
-14.905225 9.268074 1.237300 17.595279 -0.556295 1.500418 0.013762 -0.001139 -361687.000000 1 0 0
-19.443225 5.356074 7.852400 21.642243 -0.268805 1.199496 0.050308 -0.015073 -1172020.000000 1 0 0
-16.443825 0.559074 0.738800 16.469905 -0.033986 1.525924 0.018360 -0.005742 14089.200000 1 0 0
-17.518725 3.704874 6.948800 19.207228 -0.208410 1.200619 0.010375 -0.003539 1235770.000000 1 0 0
-15.340425 4.011074 -1.430200 15.920515 -0.255745 1.660751 -0.000451 0.001301 -1767060.000000 1 0 0
-10.789025 13.171174 0.335600 17.029254 -0.884494 1.551088 0.023093 -0.013816 -1304820.000000 1 0 0
-13.354925 3.298974 0.039200 13.756409 -0.242175 1.567947 -0.002124 -0.001325 -572972.000000 1 0 0
-15.098825 0.188274 -4.295700 15.699140 -0.012469 1.847958 0.006159 -0.000646 308938.000000 1 0 0
-18.873625 6.902374 3.407700 20.383054 -0.350606 1.402825 0.035556 -0.006257 664232.000000 1 0 0
-14.152725 1.385374 -6.438000 15.609828 -0.097577 1.995919 0.014146 0.003823 1043460.000000 1 0 0
-14.155625 11.982874 5.477600 19.338435 -0.702464 1.283616 0.012040 -0.011703 23483.300000 1 0 0
17.708275 5.773274 6.146100 19.613471 0.315155 1.252066 0.043399 -0.011758 -120108.000000 1 0 0
18.502275 7.321374 -0.038900 19.898197 0.376795 1.572751 0.038732 -0.005860 375032.000000 1 0 0
16.662475 5.219374 8.475200 19.408992 0.303560 1.118910 0.050611 -0.014090 368492.000000 1 0 0
11.592975 12.299374 11.178300 20.263911 0.814955 0.986472 0.024222 -0.014947 504900.000000 1 0 0
-2.199825 16.242474 -0.473200 16.397595 -1.436179 1.599658 -0.000980 -0.007160 -149557.000000 1 0 0
14.723675 12.769674 3.570400 19.814110 0.714446 1.389612 0.025132 -0.008768 41842.100000 1 0 0
13.567775 11.770174 6.928800 19.251748 0.714572 1.202630 0.033109 -0.007108 839917.000000 1 0 0
-0.742125 15.797974 8.624100 18.013935 -1.523855 1.071570 0.006326 -0.008962 -40991.300000 1 0 0
0.629175 12.922074 9.573300 16.094221 1.522145 0.933744 -0.004865 -0.001689 -756924.000000 1 0 0
0.752175 15.376274 -3.831500 15.864298 1.521917 1.814725 0.002950 -0.003747 1036780.000000 1 0 0
5.280275 10.301574 13.584500 17.847756 1.097144 0.705740 0.014461 -0.012355 -79186.000000 1 0 0
-1.376425 16.528474 -2.850600 16.828872 -1.487712 1.741004 -0.002407 -0.000218 -904403.000000 1 0 0
8.496575 10.009374 3.309000 13.539898 0.866963 1.323907 0.000379 -0.004105 151191.000000 1 0 0
12.629275 13.575974 -4.741100 19.138540 0.821509 1.821128 0.045445 -0.019638 6761.440000 1 0 0
2.404675 11.591774 7.886000 14.224651 1.366251 0.983167 -0.002362 0.001327 845158.000000 1 0 0
-0.270425 14.904174 -8.639000 17.229041 -1.552654 2.096037 0.009664 -0.002927 -1585260.000000 1 0 0
2.426675 15.880474 0.353000 16.068691 1.419161 1.548826 0.007929 -0.011369 -890602.000000 1 0 0
1.887375 13.471374 5.426500 14.645375 1.431600 1.191220 -0.001402 0.000877 162975.000000 1 0 0
17.603275 9.148774 -1.773500 19.917848 0.479299 1.659955 0.033145 -0.004540 457015.000000 1 0 0
-7.297025 15.007974 7.209100 18.178476 -1.118242 1.163015 0.010118 -0.009296 -344240.000000 1 0 0
8.554575 15.663774 -0.008600 17.847539 1.070923 1.571278 0.004616 -0.010987 -666176.000000 1 0 0
15.544375 10.537674 2.380900 18.929841 0.595746 1.444687 0.019764 -0.003219 -1004660.000000 1 0 0
14.078475 7.401074 8.737600 18.147315 0.483997 1.068452 0.033944 -0.012681 -1554390.000000 1 0 0
4.218075 18.532774 -1.935300 19.105006 1.347008 1.672268 0.021833 -0.016628 -228565.000000 1 0 0
-0.329525 17.457874 -4.930200 18.143672 -1.551923 1.845988 0.007076 -0.008267 173698.000000 1 0 0
1.370175 13.752474 -0.624000 13.834641 1.471493 1.615916 -0.000583 -0.006622 757819.000000 1 0 0
10.201575 14.606974 4.382700 18.347858 0.961142 1.329597 0.009718 -0.011209 181061.000000 1 0 0
-1.682025 15.289774 -5.096800 16.204437 -1.461227 1.890759 0.005869 -0.003682 510282.000000 1 0 0
15.060075 8.631674 -6.086000 18.394322 0.520442 1.908014 0.029348 -0.016796 -141055.000000 1 0 0
-2.102625 18.582474 0.817200 18.718899 -1.458125 1.527126 0.006084 -0.008815 -1216800.000000 1 0 0
-3.694125 19.352374 3.345600 19.983843 -1.382178 1.402589 0.019580 -0.022034 239525.000000 1 0 0
1.859575 17.555674 -2.750300 17.866837 1.465265 1.725344 0.006228 -0.011888 -295429.000000 1 0 0
2.915575 12.161974 3.394300 12.958992 1.335508 1.305779 -0.004035 -0.000745 -122700.000000 1 0 0
-2.448625 16.245974 1.890200 16.537844 -1.421200 1.456251 0.007711 -0.009422 -1000480.000000 1 0 0
11.891875 12.774974 -2.516600 17.633773 0.821184 1.714000 0.013661 -0.001675 859232.000000 1 0 0
7.210575 11.664074 4.804100 14.530052 1.017111 1.233823 -0.001414 0.000180 -37284.000000 1 0 0
7.135475 15.727274 2.220100 17.412381 1.144869 1.442947 0.001248 -0.005765 -988282.000000 1 0 0
5.370375 12.212474 10.400600 16.916203 1.156503 0.908625 0.004542 0.001662 734830.000000 1 0 0
-1.382825 14.141074 3.130200 14.549238 -1.473318 1.353956 0.001090 -0.003282 -1305920.000000 1 0 0
4.686475 15.971174 1.603700 16.721642 1.285375 1.474743 -0.000422 -0.012142 -3933390.000000 1 0 0
7.094275 12.932274 12.238000 19.166145 1.069051 0.878220 0.014229 -0.010139 168127.000000 1 0 0
0.761075 17.174774 -9.399900 19.593627 1.526512 2.071158 0.018675 -0.007967 221812.000000 1 0 0
9.409575 9.795774 15.560000 20.654561 0.805504 0.717663 0.020764 -0.013465 -465875.000000 1 0 0
13.466175 7.426074 -0.003200 15.378052 0.503964 1.571004 0.003340 -0.004345 -95829.200000 1 0 0
12.357675 13.579174 -0.014200 18.360455 0.832458 1.571570 0.008531 -0.005136 392601.000000 1 0 0
9.454275 12.258574 3.445800 15.859682 0.913841 1.351782 0.005286 -0.001015 1303900.000000 1 0 0
-0.594125 13.004174 0.817100 13.043358 -1.525141 1.508110 0.002877 -0.005106 -1831720.000000 1 0 0
15.984575 7.287674 -0.775200 17.584589 0.427765 1.614895 0.021108 -0.003164 -947329.000000 1 0 0
-4.134625 18.377674 -2.386100 18.987562 -1.349500 1.696796 0.009698 -0.004927 -216553.000000 1 0 0
11.568175 9.094074 -3.114700 15.040819 0.666225 1.779389 0.008804 -0.007373 -466444.000000 1 0 0
14.556375 9.784574 7.963700 19.262567 0.591813 1.144580 0.031799 -0.011199 203088.000000 1 0 0
4.454975 13.798474 4.730200 15.251868 1.258501 1.255457 -0.000292 0.001202 -312548.000000 1 0 0
2.235475 15.961374 5.752700 17.113047 1.431646 1.227961 -0.000802 0.001018 148977.000000 1 0 0
6.210975 18.491574 5.471500 20.259611 1.246754 1.297331 0.020726 -0.013912 -261908.000000 1 0 0
10.748375 16.869274 -0.637200 20.012646 1.003503 1.602642 0.023674 -0.011000 -856400.000000 1 0 0
9.997375 13.500374 -4.326500 17.347225 0.933386 1.822863 0.023678 -0.011233 673068.000000 1 0 0
16.505875 8.073974 2.383100 18.528684 0.454936 1.441822 0.009601 -0.003118 520939.000000 1 0 0
4.044175 13.995974 -0.331400 14.572319 1.289505 1.593540 0.001110 -0.008151 504680.000000 1 0 0
5.601875 12.996874 -2.291800 14.337088 1.163840 1.731336 0.002088 -0.008997 -438420.000000 1 0 0
-6.184725 16.878974 -2.926800 18.213093 -1.219573 1.732194 0.019972 -0.004125 336429.000000 1 0 0
18.093875 10.108074 2.637500 20.893011 0.509457 1.444220 0.046488 -0.008578 734688.000000 1 0 0
7.745175 13.059474 9.606700 17.967368 1.035488 1.006673 0.010494 -0.003474 1197440.000000 1 0 0
-2.538625 15.765474 6.655500 17.300014 -1.411142 1.175902 0.003779 -0.006456 -429461.000000 1 0 0
11.164275 15.936574 6.354400 20.469339 0.959705 1.255146 0.019701 -0.011982 180510.000000 1 0 0
13.503775 11.920974 1.480100 18.073524 0.723224 1.488811 0.012756 -0.003948 950189.000000 1 0 0
17.456975 7.866474 -5.624400 19.956485 0.423370 1.856501 0.040241 0.002454 -315459.000000 1 0 0
9.372075 9.357274 8.045200 15.495794 0.784608 1.024898 0.005675 -0.004208 -998243.000000 1 0 0
-1.915625 14.135474 -1.912000 14.392255 -1.436098 1.704039 -0.002935 -0.001918 467565.000000 1 0 0
10.925175 11.572074 0.852600 15.937355 0.814145 1.517274 0.006088 -0.001339 -665157.000000 1 0 0
11.743375 9.670874 -0.500300 15.221136 0.688917 1.603671 0.003539 -0.002074 -841732.000000 1 0 0
-0.108125 16.254774 11.164900 19.720151 -1.564145 0.968948 0.003098 -0.007695 270942.000000 1 0 0
2.056475 19.986074 -1.756300 20.168214 1.468262 1.657989 0.026365 -0.020747 -104238.000000 1 0 0
9.242675 14.321874 1.897800 17.150649 0.997694 1.459915 0.002192 -0.004881 -731872.000000 1 0 0
8.561275 11.525474 -5.101500 15.236709 0.931911 1.912207 0.012159 -0.007468 -947433.000000 1 0 0
10.482475 10.038874 10.344600 17.823357 0.763785 0.951582 0.009585 -0.009903 659090.000000 1 0 0
-5.136025 15.826774 5.783700 17.615809 -1.257003 1.236267 -0.000811 -0.007851 280474.000000 1 0 0
14.452775 9.167274 -1.667000 17.195945 0.565253 1.667890 0.027163 -0.002419 -99898.900000 1 0 0
12.059975 9.643774 7.079900 16.987359 0.674528 1.140902 0.011031 -0.005243 -1636320.000000 1 0 0
3.107075 12.937474 9.835900 16.546211 1.335099 0.934214 0.001111 -0.006582 -1137980.000000 1 0 0
8.470875 12.422874 -2.664800 15.270386 0.972337 1.746202 0.008749 -0.008231 -977189.000000 1 0 0
9.494675 16.874074 2.164800 19.482546 1.058271 1.459452 0.008978 -0.007058 -130307.000000 1 0 0
9.571475 14.335774 -7.508200 18.801612 0.982104 1.981591 0.034718 -0.011287 153404.000000 1 0 0
6.176575 11.463674 7.266400 14.911958 1.076596 1.061816 0.000447 0.000034 -1304310.000000 1 0 0
5.473175 16.956674 -5.415900 18.623008 1.258579 1.865878 0.023074 -0.007087 -1072430.000000 1 0 0
-4.137625 17.174074 -4.653700 18.268160 -1.334379 1.828379 0.008602 -0.004205 208069.000000 1 0 0
0.066275 18.217074 -0.403400 18.221661 1.567158 1.592937 0.006716 -0.021547 -946546.000000 1 0 0
6.670875 15.431974 -2.648300 17.019398 1.162779 1.727036 0.006479 -0.009341 31477.600000 1 0 0
-0.458825 20.635774 0.620900 20.650211 -1.548566 1.540724 0.021587 -0.011962 70551.000000 1 0 0
-1.302725 18.784874 4.392300 19.335483 -1.501558 1.341633 0.009786 -0.012808 -1140720.000000 1 0 0
7.194275 13.652974 -4.332800 16.029175 1.085831 1.844508 0.012191 -0.005015 238009.000000 1 0 0
-1.003925 11.983274 7.704100 14.281452 -1.487214 1.001015 -0.001925 0.005628 522727.000000 1 0 0
7.558475 10.856674 10.898000 17.139555 0.962622 0.881701 0.013398 -0.007179 -148044.000000 1 0 0
1.627675 16.028874 -7.206700 17.649664 1.469597 1.991409 0.010013 -0.006097 -281279.000000 1 0 0
8.867875 7.315374 14.908100 18.825657 0.689758 0.656877 0.024724 -0.002389 279801.000000 1 0 0
11.465075 11.331774 -4.703500 16.792259 0.779551 1.854694 0.022749 -0.009211 -125395.000000 1 0 0
-3.407625 17.067774 4.481500 17.972330 -1.373735 1.318782 0.011842 -0.010732 253744.000000 1 0 0
4.059875 15.238274 -6.650000 17.114616 1.310418 1.969861 0.018943 -0.012700 99595.200000 1 0 0
-4.509125 14.112174 9.501600 17.600172 -1.261529 1.000527 0.008746 -0.005775 -390248.000000 1 0 0
6.199275 17.664174 0.533500 18.728019 1.233274 1.542306 -0.000374 -0.014620 -78756.100000 1 0 0
9.791775 10.517374 -2.153500 14.530368 0.821111 1.719551 0.006133 -0.005567 -1143680.000000 1 0 0
7.117775 18.011974 -2.578800 19.538274 1.194461 1.703170 0.019640 -0.009822 144512.000000 1 0 0
3.367175 10.383774 10.634400 15.239787 1.257222 0.798468 0.000421 0.000229 296914.000000 1 0 0
0.106775 18.676274 2.209600 18.806833 1.565079 1.453035 0.010334 -0.012466 341993.000000 1 0 0
-0.814925 17.119674 -7.443700 18.685717 -1.523231 1.980528 0.016109 0.001458 -252242.000000 1 0 0
10.155175 8.796674 13.257200 18.874915 0.713839 0.792073 0.023344 -0.007348 -417244.000000 1 0 0
3.723275 11.507974 5.626400 13.339889 1.257887 1.135397 -0.006611 0.003122 477429.000000 1 0 0
12.703175 13.994374 8.220200 20.610310 0.833724 1.160546 0.024325 -0.020373 -236678.000000 1 0 0
-0.571425 17.441574 6.849700 18.747091 -1.538046 1.196762 0.009032 -0.006149 -554233.000000 1 0 0
12.169375 13.679574 5.735700 19.186524 0.843756 1.267210 0.016317 -0.008480 -464494.000000 1 0 0
4.889175 14.549774 -4.323800 15.946636 1.246620 1.845375 0.004899 -0.006909 -1443700.000000 1 0 0
3.831975 17.614574 4.712700 18.632413 1.356588 1.315089 0.007899 -0.008180 -707845.000000 1 0 0
7.028975 11.580174 2.107600 13.709446 1.025258 1.416451 0.003918 -0.003525 789167.000000 1 0 0
6.211875 8.759674 11.710500 15.888836 0.953959 0.742135 0.005258 -0.005417 606860.000000 1 0 0
-5.281125 15.033874 1.765300 16.031966 -1.232980 1.460461 0.005644 -0.001857 -83348.400000 1 0 0
6.811875 13.778174 6.070200 16.525346 1.111642 1.194663 0.003646 -0.004961 68592.500000 1 0 0
5.862175 15.915974 5.017700 17.687867 1.217895 1.283166 0.000318 -0.009521 780928.000000 1 0 0
1.262875 18.040574 4.388700 18.609617 1.500908 1.332724 0.010625 -0.005997 306625.000000 1 0 0
7.345475 17.980374 -6.868000 20.601439 1.182960 1.910677 0.027723 -0.013301 356134.000000 1 0 0
-2.377225 18.643574 -5.956900 19.715951 -1.443972 1.877729 0.019133 0.000713 -1759160.000000 1 0 0
13.621075 9.946174 -4.333900 17.413867 0.630711 1.822316 0.028457 -0.013150 -161904.000000 1 0 0
-1.597825 18.014474 9.897700 20.616469 -1.482331 1.070042 0.018624 -0.012288 -75276.800000 1 0 0
3.472575 11.774974 -1.492200 12.366708 1.284014 1.691754 0.002940 -0.008200 142767.000000 1 0 0
4.211475 13.947074 -10.778000 18.122436 1.277541 2.207729 0.012824 -0.014047 -460465.000000 1 0 0
11.542475 13.448674 2.416800 17.886769 0.861526 1.435265 0.013154 -0.004596 90026.200000 1 0 0
15.890275 6.317974 -7.093200 18.512999 0.378436 1.963997 0.017646 -0.011890 83887.300000 1 0 0
2.502675 16.061074 3.049900 16.538542 1.416217 1.385323 0.007855 -0.008661 -178895.000000 1 0 0
13.371575 10.587574 3.727900 17.458322 0.669719 1.355608 0.011014 -0.002581 -534741.000000 1 0 0
-4.755725 19.453174 -5.828000 20.856857 -1.331029 1.853995 0.003627 -0.000949 102242.000000 1 0 0
5.485275 11.938674 0.129800 13.139141 1.140108 1.560917 0.002447 -0.005815 -150329.000000 1 0 0
4.645975 15.290074 9.653100 18.669596 1.275806 1.027396 0.012079 -0.011606 -615382.000000 1 0 0
7.676875 9.481874 13.735700 18.371440 0.890207 0.726256 0.018926 -0.016486 -1096520.000000 1 0 0
-5.078225 13.611474 6.957400 16.107949 -1.213706 1.124172 0.001354 -0.002748 -1732810.000000 1 0 0
-4.377125 17.285674 0.624400 17.842187 -1.322787 1.535793 0.006266 -0.003939 -1806910.000000 1 0 0
-0.568625 16.478674 3.631900 16.883742 -1.536303 1.353990 0.007442 -0.010923 -1172050.000000 1 0 0
7.895375 16.688574 -4.642500 19.036761 1.128899 1.817151 0.021789 -0.015372 944639.000000 1 0 0
3.076175 16.302974 -4.540300 17.200702 1.384301 1.837922 0.007319 -0.010503 -674383.000000 1 0 0
9.300375 14.411874 8.225500 19.022564 0.997713 1.123635 0.009025 -0.013403 -70170.100000 1 0 0
12.711075 11.022574 9.285300 19.216799 0.714374 1.066506 0.033247 -0.016249 593065.000000 1 0 0
3.663875 12.345174 12.313600 17.817184 1.282291 0.807775 0.005577 -0.005758 578792.000000 1 0 0
-3.452225 19.190574 5.870800 20.363258 -1.392808 1.278342 0.030222 -0.018837 48784.500000 1 0 0
-2.566125 15.730974 10.384200 19.023148 -1.409095 0.993367 0.005365 -0.008795 -1507780.000000 1 0 0
2.042575 14.269274 7.836700 16.407260 1.428617 1.072834 0.000708 0.000384 -132808.000000 1 0 0
4.536775 17.293174 7.980000 19.578473 1.314233 1.150982 0.020068 -0.006796 67895.600000 1 0 0
-2.025925 13.385874 9.447800 16.508995 -1.420588 0.961510 0.003752 -0.003300 -621692.000000 1 0 0
5.748975 17.765374 3.092400 18.926758 1.257826 1.406673 -0.008358 -0.014237 121203.000000 1 0 0
7.232475 15.335074 -6.763600 18.254300 1.130101 1.950366 0.017185 -0.008109 -305938.000000 1 0 0
10.934975 7.723574 9.389400 16.352007 0.614954 0.959164 0.015186 -0.008442 746357.000000 1 0 0
9.124775 16.286774 -2.558700 18.843234 1.060113 1.707006 0.023532 -0.010240 -1641080.000000 1 0 0
14.506775 11.233674 -6.451000 19.448840 0.658919 1.908892 0.051982 -0.015900 460533.000000 1 0 0
11.078075 6.483974 16.040700 20.544336 0.529539 0.674876 0.041662 -0.011155 29299.100000 1 0 0
8.428975 8.477074 10.290600 15.773550 0.788243 0.860055 0.004473 -0.003502 766949.000000 1 0 0
16.486475 9.426874 4.628200 19.547124 0.519422 1.331755 0.045036 -0.007856 318618.000000 1 0 0
-3.452425 14.385074 4.576400 15.485252 -1.335251 1.270783 0.005287 -0.000495 -913548.000000 1 0 0
4.581675 14.715874 12.775100 20.018788 1.268966 0.878696 0.009603 -0.006243 -543504.000000 1 0 0
16.093475 10.413574 -4.571400 19.706349 0.574311 1.804905 0.049506 -0.023273 52627.200000 1 0 0
14.606275 14.128874 6.445300 21.319246 0.768786 1.263667 0.038153 -0.002386 -372340.000000 1 0 0
6.090675 9.600174 9.295200 14.685381 1.005442 0.885431 0.000270 -0.001903 870491.000000 1 0 0
10.353775 12.183774 8.928700 18.313020 0.866418 1.061503 0.016662 -0.010753 524874.000000 1 0 0
7.962675 11.480374 -0.356000 13.976048 0.964385 1.596271 0.002209 -0.005477 298711.000000 1 0 0
7.247675 13.585574 -8.678000 17.674963 1.080722 2.084007 0.017990 -0.004416 -179197.000000 1 0 0
2.914175 15.308074 -2.199500 15.737451 1.382679 1.711018 0.000047 -0.007495 432451.000000 1 0 0
12.201075 13.854174 -7.610800 19.968191 0.848759 1.961832 0.045875 -0.016709 413271.000000 1 0 0
-8.241525 14.860674 9.763100 19.597972 -1.064439 1.049311 0.027178 -0.007301 448433.000000 1 0 0
11.331875 9.619874 2.301100 15.041557 0.703868 1.417210 0.009687 -0.002375 -1426490.000000 1 0 0
11.920275 8.765474 4.654300 15.510932 0.634054 1.266035 0.009585 -0.004538 75693.000000 1 0 0
13.911475 8.066574 6.226200 17.244255 0.525472 1.201393 0.013605 -0.008424 -2212020.000000 1 0 0
16.151375 7.533174 7.283200 19.252549 0.436417 1.182839 0.051382 -0.010833 -22596.500000 1 0 0
13.495575 8.307574 2.533600 16.048847 0.551795 1.412265 0.004729 -0.004275 -1495920.000000 1 0 0
-4.190325 17.261474 -7.233100 19.179026 -1.332647 1.957498 0.006791 -0.005075 55476.600000 1 0 0
3.030675 19.432774 -4.162400 20.103315 1.416086 1.779355 0.031669 -0.020563 351857.000000 1 0 0
-0.117425 14.894774 6.309600 16.176500 -1.562913 1.170113 0.003969 -0.001910 -210771.000000 1 0 0
6.743175 16.046074 8.354400 19.306551 1.172966 1.123285 0.027177 -0.010414 -729256.000000 1 0 0
12.758275 15.134374 -2.039100 19.899266 0.870380 1.673448 0.030351 -0.012742 -411111.000000 1 0 0
12.524975 15.751174 4.064000 20.530236 0.899003 1.371528 0.018878 -0.003926 173531.000000 1 0 0
3.026675 18.048574 1.464100 18.359068 1.404646 1.490963 0.020103 -0.015744 -607032.000000 1 0 0
10.342875 14.388274 -1.288000 17.766723 0.947537 1.643355 0.008987 -0.003868 -1358580.000000 1 0 0
-6.218025 15.968174 -0.552400 17.145016 -1.199460 1.603021 0.007665 -0.003956 -1046350.000000 1 0 0
-3.854925 15.809374 -2.433600 16.453546 -1.331626 1.719248 0.007305 -0.004705 -946485.000000 1 0 0
-6.726225 17.203174 1.705500 18.549933 -1.198083 1.478725 0.008778 -0.006691 534250.000000 1 0 0
0.064175 19.350374 -6.630700 20.455006 1.567480 1.900920 0.027432 -0.007624 -182562.000000 1 0 0
4.776875 14.761974 7.165000 17.090104 1.257837 1.138179 0.008076 -0.006566 -587634.000000 1 0 0
8.618375 12.234574 7.069200 16.550976 0.957105 1.129495 0.007845 -0.007831 -17659.000000 1 0 0
-7.654825 17.523774 -5.521000 19.903780 -1.158952 1.851867 0.045844 -0.010157 194664.000000 1 0 0
-8.020725 17.694274 -1.251800 19.467572 -1.145206 1.635143 0.041878 -0.011742 698750.000000 1 0 0
-13.758125 -9.310426 8.994200 18.890888 0.594932 1.074567 0.032659 -0.014922 -1207060.000000 1 0 0
-12.495425 -12.909926 7.354700 19.413743 0.801712 1.182254 0.026736 -0.008183 -197510.000000 1 0 0
-3.836525 -14.686726 12.703600 19.793946 1.315282 0.873963 0.025236 -0.020571 -81849.100000 1 0 0
-2.017825 -14.034126 15.016800 20.652665 1.427995 0.756691 0.029518 -0.012362 -1336170.000000 1 0 0
-7.167825 -13.792126 12.620900 20.022177 1.091510 0.888797 0.042346 -0.019082 84375.200000 1 0 0
-9.973425 -11.599226 8.957400 17.726992 0.860620 1.041070 0.021936 -0.003704 811892.000000 1 0 0
-10.744525 -10.512826 11.174600 18.730617 0.774499 0.931544 0.046919 -0.019586 277250.000000 1 0 0
-6.013525 -12.244926 10.796200 17.397087 1.114291 0.901320 0.022129 -0.013483 519967.000000 1 0 0
-12.442625 -10.383026 7.111200 17.697325 0.695410 1.157289 0.015877 -0.004971 -521291.000000 1 0 0
-7.703625 -11.236726 12.557700 18.528510 0.969817 0.826098 0.025220 -0.013291 338353.000000 1 0 0
-14.806725 -11.576926 7.147100 20.108340 0.663588 1.207423 0.053181 -0.005993 1096740.000000 1 0 0
-11.177925 -9.171626 9.008500 17.035780 0.687124 1.013612 0.020558 -0.005619 121553.000000 1 0 0
-5.373125 -11.925626 13.316700 18.666160 1.147483 0.776438 0.032373 -0.019012 -986724.000000 1 0 0
3.785575 -12.399826 14.770500 19.653344 -1.274491 0.720385 -0.001946 -0.001962 -560026.000000 1 0 0
6.293875 -12.810226 14.317500 20.216468 -1.114120 0.783837 0.007516 0.004146 -122884.000000 1 0 0
6.595675 -8.629426 16.266300 19.559204 -0.918191 0.588734 0.015152 -0.006357 -686131.000000 1 0 0
0.660275 -1.791226 14.461100 14.586565 -1.217634 0.131253 0.008506 -0.003196 -1598480.000000 1 0 0
-0.183425 -6.407126 15.447200 16.724261 1.542176 0.393324 -0.001944 -0.009151 -690131.000000 1 0 0
-1.476725 -4.564926 18.353300 18.970052 1.257927 0.255694 0.014085 -0.020722 -1321000.000000 1 0 0
-5.312125 12.566074 12.908600 18.781822 -1.170845 0.813042 0.011441 -0.011447 2229.720000 1 0 0
-4.139825 8.746074 11.576000 15.087602 -1.128707 0.696250 -0.002895 -0.002919 -230516.000000 1 0 0
-0.732925 -3.999526 14.938900 15.482381 1.389554 0.265746 0.006120 -0.005215 -60812.400000 1 0 0
-4.391025 9.170174 14.118600 17.398507 -1.124221 0.624110 -0.004333 -0.004438 129079.000000 1 0 0
-13.467925 -2.518426 16.796100 21.675711 0.184859 0.684269 0.022096 0.008777 -578405.000000 1 0 0
-0.344125 0.643574 17.264500 17.279918 -1.079769 0.042247 0.021598 -0.009211 -541296.000000 1 0 0
-3.331425 -7.329226 15.540500 17.502088 1.144174 0.477987 0.009678 -0.008705 287291.000000 1 0 0
-7.491225 5.659874 12.484300 15.620831 -0.647033 0.644819 0.000129 -0.003774 -2428990.000000 1 0 0
-9.913325 10.025674 13.400900 19.451793 -0.791033 0.810786 0.016839 -0.010470 -409641.000000 1 0 0
-5.692925 2.198674 11.155000 12.715250 -0.368564 0.500604 0.002315 0.001085 -861711.000000 1 0 0
-7.107225 -7.597426 16.699700 19.675200 0.818722 0.557143 0.022509 -0.008580 -253444.000000 1 0 0
-4.743525 2.978374 18.430200 19.262503 -0.560669 0.295036 0.019610 -0.012411 -1084250.000000 1 0 0
0.898875 -8.341926 16.567700 18.571063 -1.463457 0.468770 -0.003172 -0.007128 888433.000000 1 0 0
-15.001225 -3.649026 13.678400 20.626458 0.238614 0.845779 0.019957 -0.004851 136401.000000 1 0 0
-14.280225 2.101474 13.036200 19.449512 -0.146111 0.836239 0.003893 0.002047 -143032.000000 1 0 0
-5.558525 0.887774 16.028700 16.988366 -0.158376 0.337726 0.014303 -0.004957 587639.000000 1 0 0
4.609575 5.648074 15.242400 16.896144 0.886296 0.446132 0.008543 -0.000018 -236163.000000 1 0 0
-1.150025 -11.925526 13.780800 18.260646 1.474660 0.715642 -0.006577 -0.013683 -295301.000000 1 0 0
-5.809325 -4.193326 16.658500 18.133887 0.625225 0.406174 0.018423 -0.010114 -51103.700000 1 0 0
-12.820125 -1.603726 9.767500 16.196654 0.124448 0.923469 -0.004886 0.002491 -1149950.000000 1 0 0
-14.725025 10.300074 10.540500 20.833147 -0.610387 1.040315 0.015834 0.005089 36711.800000 1 0 0
-3.695725 -3.382726 17.789000 18.481064 0.741208 0.274530 0.016229 -0.009429 -2174000.000000 1 0 0
-7.982725 9.327574 11.827600 17.047570 -0.862933 0.804044 0.003263 -0.009109 -286238.000000 1 0 0
-4.080225 10.460374 16.336800 19.823186 -1.198884 0.602139 -0.008208 -0.004325 161449.000000 1 0 0
-12.531925 12.793974 8.336900 19.754463 -0.795745 1.135117 0.012145 -0.010469 -140845.000000 1 0 0
-12.724125 3.191374 10.398900 16.739932 -0.245744 0.900519 -0.002492 -0.002737 695380.000000 1 0 0
-10.102425 -3.528326 13.694500 17.379511 0.336011 0.663294 0.010978 0.002626 -2470590.000000 1 0 0
-4.314025 -6.493926 17.918200 19.540823 0.984422 0.410397 0.020645 -0.005877 -616725.000000 1 0 0
0.874075 -3.607926 17.926500 18.306844 -1.333110 0.204198 0.012517 -0.014526 -806406.000000 1 0 0
-6.069025 1.718174 13.598300 14.989962 -0.275886 0.434310 0.003366 -0.000109 -632916.000000 1 0 0
-10.547125 8.761774 10.312000 17.156569 -0.693198 0.925979 -0.001263 -0.009647 -178001.000000 1 0 0
4.521675 2.485374 17.104400 17.865697 0.502580 0.292979 0.010318 -0.005800 1462770.000000 1 0 0
0.504175 -5.402126 13.176500 14.249818 -1.477737 0.390606 -0.000394 -0.003365 -2639020.000000 1 0 0
-4.241925 5.569174 20.623700 21.779500 -0.919862 0.327244 0.040833 -0.009630 -233585.000000 1 0 0
-10.924425 10.891574 9.105800 17.913264 -0.783892 1.037555 0.007035 -0.010378 488216.000000 1 0 0
0.533075 4.053074 13.003400 13.630847 1.440023 0.304595 0.010783 -0.005882 -1992390.000000 1 0 0
-3.301125 7.018174 13.245400 15.349033 -1.131134 0.529723 0.000444 0.000157 -1568980.000000 1 0 0
0.539075 8.772374 14.103200 16.617623 1.509422 0.557294 -0.004107 -0.002048 159846.000000 1 0 0
-4.219825 -6.726826 13.090900 15.311067 1.010536 0.545253 0.011765 -0.006914 -462386.000000 1 0 0
-5.124425 8.120774 16.374000 18.981954 -1.007875 0.530392 0.009219 -0.003595 -554037.000000 1 0 0
1.595775 -10.695126 15.770100 19.121409 -1.422683 0.601062 -0.006134 -0.005614 -455965.000000 1 0 0
-15.117125 -1.083726 14.255700 20.806896 0.071566 0.815996 0.012788 0.002131 980183.000000 1 0 0
-13.685025 -5.191426 8.435000 16.893195 0.362580 1.047990 0.022900 -0.004450 -890935.000000 1 0 0
-13.972225 -1.831526 12.058100 18.546572 0.130340 0.863011 -0.000275 0.002134 133481.000000 1 0 0
9.423975 1.282074 16.944500 19.431189 0.135214 0.511470 0.022800 0.002875 -409159.000000 1 0 0
5.032675 -6.761226 16.965400 18.943780 -0.930925 0.461095 0.018084 -0.012193 684054.000000 1 0 0
-6.196825 -2.705226 11.026800 12.934806 0.411613 0.550065 0.002121 0.000947 142709.000000 1 0 0
0.538375 -6.236126 17.932900 18.993894 -1.484678 0.335820 0.012029 -0.019899 -58099.900000 1 0 0
-8.481325 11.899074 12.368000 19.143883 -0.951550 0.868392 0.018335 -0.005609 69047.700000 1 0 0
-6.605225 -5.856726 14.810500 17.241843 0.725408 0.537511 0.016935 -0.006602 -1221880.000000 1 0 0
-4.361325 -9.007626 17.235600 19.930489 1.119884 0.526073 0.024029 -0.010359 -5326.600000 1 0 0
2.490375 -6.293326 16.193800 17.551270 -1.193988 0.395882 0.008977 -0.011785 985135.000000 1 0 0
2.262975 5.264374 15.943800 16.942239 1.164811 0.345022 0.013336 -0.005367 -1559610.000000 1 0 0
0.970975 -8.811026 14.000300 16.570618 -1.461039 0.564442 -0.009910 -0.003532 -311892.000000 1 0 0
-9.973525 -2.809426 11.303900 15.334348 0.274574 0.741935 -0.001130 0.002132 180218.000000 1 0 0
-1.265725 10.082074 12.375400 16.012520 -1.445908 0.687464 -0.007210 -0.001915 -732684.000000 1 0 0
-12.421325 -3.745926 11.283600 17.194211 0.292899 0.854966 0.009434 0.001197 -1115940.000000 1 0 0
-1.956325 6.659674 19.959200 21.131686 -1.285077 0.334681 0.020489 -0.001749 696806.000000 1 0 0
0.309175 -13.226226 15.670000 20.507987 -1.547425 0.701163 -0.008873 -0.014626 -445360.000000 1 0 0
4.093375 -8.671826 15.386100 18.129765 -1.129773 0.557340 0.008193 -0.005590 -321322.000000 1 0 0
4.332775 -4.435426 16.172400 17.320291 -0.797105 0.366114 0.011722 -0.004178 -496003.000000 1 0 0
8.125475 1.727574 14.685800 16.872480 0.209493 0.514783 0.000493 0.005149 160157.000000 1 0 0
-6.368525 -0.213226 11.760600 13.375922 0.033469 0.496539 0.002199 0.001146 -167325.000000 1 0 0
-3.522325 -11.003226 18.575300 21.875089 1.260987 0.556417 0.039529 -0.007560 -896094.000000 1 0 0
3.224175 -1.642726 13.500700 13.977223 -0.471221 0.261871 0.004850 -0.001997 751041.000000 1 0 0
-2.563025 8.352674 15.824400 18.076169 -1.273066 0.504474 0.004646 -0.005187 -1497660.000000 1 0 0
-3.449725 3.913974 14.878600 15.766818 -0.848361 0.337258 0.008373 -0.002675 -585650.000000 1 0 0
-4.523825 -9.118126 19.920400 22.370238 1.110245 0.472383 0.034270 -0.006458 -63945.100000 1 0 0
-5.899225 -3.006826 19.064600 20.181695 0.471376 0.334276 0.024330 -0.013162 -822671.000000 1 0 0
-6.643225 -8.720126 10.875700 15.441952 0.919769 0.789366 0.016570 -0.011375 -251658.000000 1 0 0
-11.668725 2.362774 12.572900 17.315301 -0.199787 0.758142 -0.002919 -0.006127 -1053620.000000 1 0 0
-11.738825 -7.664926 11.589400 18.189703 0.578450 0.880014 0.027257 -0.004586 -155229.000000 1 0 0
-11.014925 -7.588126 15.395900 20.394655 0.603234 0.715297 0.039478 -0.012633 -50321.100000 1 0 0
0.284075 5.567174 17.658300 18.517281 1.519814 0.305782 0.011228 -0.006020 -159557.000000 1 0 0
-2.276425 -0.152026 13.188500 13.384385 0.066684 0.171296 0.010245 -0.002072 586310.000000 1 0 0
-6.090625 -10.580526 18.490900 22.157541 1.048478 0.583536 0.050862 -0.005348 -662036.000000 1 0 0
0.308275 2.513274 19.110000 19.277025 1.448747 0.131734 0.031430 -0.016738 -824156.000000 1 0 0
-0.872925 10.839874 14.813100 18.376420 -1.490441 0.633277 -0.006359 -0.001901 -230480.000000 1 0 0
-12.792925 -2.448126 14.286700 19.332926 0.189080 0.739237 0.010509 0.003617 -1109700.000000 1 0 0
-13.886925 8.310474 11.760000 20.005206 -0.539271 0.942401 0.014881 -0.013261 -69216.800000 1 0 0
-18.059525 -0.485726 6.907700 19.341631 0.026889 1.205590 0.036814 -0.017644 -861546.000000 1 0 0
-2.162625 -7.941926 17.820900 19.629967 1.304938 0.432689 0.005180 -0.007134 -1503310.000000 1 0 0
5.759875 2.674574 14.505600 15.834833 0.434720 0.412662 -0.001448 0.002310 -2133630.000000 1 0 0
-14.034625 -6.720126 10.893100 18.994484 0.446564 0.960040 0.023695 -0.013332 717124.000000 1 0 0
3.320775 7.673674 16.385300 18.395404 1.162380 0.471852 0.007980 -0.009728 71933.100000 1 0 0
1.057575 2.019474 14.521600 14.699443 1.088378 0.155712 0.017474 -0.008410 -3459020.000000 1 0 0
-14.322725 0.628774 9.671500 17.293748 -0.043872 0.977317 0.000597 0.000717 -2535730.000000 1 0 0
-9.569525 -5.313326 15.504900 18.979177 0.506853 0.614707 0.018867 0.000475 -116272.000000 1 0 0
-2.660025 -0.085426 18.188100 18.381785 0.032104 0.145295 0.019854 -0.012293 -215397.000000 1 0 0
6.794375 3.706974 17.484500 19.121008 0.499455 0.416741 0.019954 -0.002400 -534357.000000 1 0 0
-4.254525 -1.009626 14.783700 15.416813 0.232997 0.287578 0.013597 -0.002132 -676253.000000 1 0 0
4.627075 -9.107726 17.917200 20.624901 -1.100739 0.518190 0.018990 -0.005560 -466357.000000 1 0 0
1.874275 6.846174 13.452600 15.210373 1.303574 0.485513 0.001486 -0.002729 -1092470.000000 1 0 0
-3.825225 -0.874026 20.505900 20.877936 0.224634 0.189065 0.022724 -0.011667 -904479.000000 1 0 0
-10.661025 1.576974 16.275100 19.519815 -0.146855 0.584889 0.012867 -0.004533 -916879.000000 1 0 0
-4.062825 7.044174 18.466900 20.178041 -1.047638 0.414798 0.023446 -0.003014 -768260.000000 1 0 0
-12.663125 1.156374 14.684500 19.424893 -0.091066 0.713672 0.012631 -0.001790 104146.000000 1 0 0
-16.110525 -4.777826 8.468500 18.817336 0.288303 1.103989 0.035789 -0.012654 -1791740.000000 1 0 0
-2.419225 0.674774 15.678700 15.878590 -0.272008 0.158840 0.015342 -0.005767 -318833.000000 1 0 0
-13.875925 -8.913226 12.418000 20.644457 0.570980 0.925397 0.048613 -0.015686 503789.000000 1 0 0
6.086175 -3.267926 14.577500 16.131472 -0.492763 0.442537 0.006728 -0.003592 921951.000000 1 0 0
-15.745625 0.557974 7.454800 17.430148 -0.035422 1.128854 0.010293 -0.006469 42149.700000 1 0 0
-14.133625 5.737274 12.263300 19.572026 -0.385609 0.893648 0.015818 -0.016889 449653.000000 1 0 0
0.319575 9.404374 16.649700 19.124772 1.536828 0.514410 -0.002379 -0.006506 -351606.000000 1 0 0
-10.528425 -5.500026 10.729900 16.007147 0.481405 0.836157 0.019156 -0.005254 361468.000000 1 0 0
-3.180325 -11.033626 15.008200 18.897128 1.290164 0.653098 0.017952 -0.016436 -1082310.000000 1 0 0
-3.594825 2.591174 12.601000 13.357475 -0.624554 0.338159 0.007813 -0.001660 -1194830.000000 1 0 0
-12.473725 -7.725326 7.325600 16.399356 0.554510 1.107722 0.022890 -0.005610 605097.000000 1 0 0
-8.206825 -1.883526 13.253000 15.701645 0.225600 0.566002 0.002327 0.003156 -452366.000000 1 0 0
-9.907225 6.495674 9.494700 15.182102 -0.580337 0.895168 -0.002705 -0.001785 -1012960.000000 1 0 0
-17.950325 -3.622126 6.647200 19.481253 0.199112 1.222592 0.039028 -0.018393 343927.000000 1 0 0
-1.304725 -0.060026 20.530300 20.571804 0.045974 0.063533 0.029496 -0.014583 548762.000000 1 0 0
-2.744125 2.605874 20.137100 20.489597 -0.759563 0.185759 0.031512 -0.016041 -683680.000000 1 0 0
-3.751125 11.213974 11.103600 16.220792 -1.247992 0.816839 -0.003294 -0.008153 -1596850.000000 1 0 0
-4.136625 -4.864826 14.782900 16.103178 0.866121 0.407760 0.013200 -0.008882 477765.000000 1 0 0
-0.094825 -14.277626 13.349700 19.546715 1.564155 0.818984 -0.003250 -0.008064 269858.000000 1 0 0
-12.098625 0.331974 8.237400 14.640413 -0.027432 0.973211 -0.007886 -0.000603 -980843.000000 1 0 0
-7.883225 1.853674 15.507300 17.494505 -0.230946 0.481266 0.005740 0.003150 -2248730.000000 1 0 0
3.421375 -2.148126 18.490800 18.926963 -0.560649 0.215098 0.021553 -0.005111 -342565.000000 1 0 0
-2.273325 4.759374 12.593400 13.653328 -1.125186 0.396629 0.001320 -0.001537 -216548.000000 1 0 0
-10.411325 -6.304326 13.275000 18.010159 0.544473 0.742051 0.014819 -0.005084 -538133.000000 1 0 0
2.306475 -3.874226 14.250100 14.946398 -1.033812 0.306440 0.000599 -0.001826 -642173.000000 1 0 0
6.772175 1.140574 16.910200 18.251524 0.166855 0.385770 0.004938 -0.000774 -1067670.000000 1 0 0
-1.957825 -5.914326 13.793400 15.135066 1.251119 0.424235 0.003093 -0.003777 -2493020.000000 1 0 0
-12.806725 3.713374 14.422800 19.642263 -0.282216 0.746200 -0.009446 -0.001043 266665.000000 1 0 0
-13.275025 -6.460826 13.386400 19.928980 0.452943 0.834288 0.026933 -0.007587 -801632.000000 1 0 0
-9.684525 6.887474 12.064000 16.934208 -0.618192 0.777878 0.007168 -0.004023 -532328.000000 1 0 0
-0.991225 -2.478326 12.782700 13.058409 1.190327 0.205855 0.005485 -0.000982 474230.000000 1 0 0
-0.016925 6.513574 15.307700 16.635883 -1.568198 0.402303 0.007270 -0.003996 445110.000000 1 0 0
-16.480425 -0.805726 9.469400 19.024277 0.048851 1.049790 0.022416 -0.008898 -429848.000000 1 0 0
-1.407925 2.652674 13.872300 14.193648 -1.082847 0.213196 0.014015 -0.004233 -44983.400000 1 0 0
-11.198825 -3.443726 16.135300 19.940432 0.298330 0.628050 0.018080 -0.000332 -556068.000000 1 0 0
-5.197325 -1.509426 17.100000 17.936013 0.282648 0.306521 0.020599 -0.003759 251833.000000 1 0 0
-12.009125 6.682174 11.003300 17.605202 -0.507762 0.895661 0.001462 -0.004073 -2269790.000000 1 0 0
-2.770725 4.710574 18.580700 19.367727 -1.039104 0.286057 0.023016 -0.011778 159418.000000 1 0 0
5.101875 -1.967226 16.564600 17.443769 -0.368022 0.318840 0.011226 -0.001356 -1749180.000000 1 0 0
-8.038925 -4.194026 12.179400 15.183937 0.480868 0.639953 0.009088 -0.001876 -1422200.000000 1 0 0
-11.660825 -0.811226 16.134300 19.923568 0.069457 0.626969 0.025191 0.003847 265742.000000 1 0 0
2.015675 1.975974 17.300900 17.529648 0.775452 0.161726 0.017887 -0.011495 -850788.000000 1 0 0
-8.997525 -7.579326 11.499300 16.451004 0.700053 0.796794 0.015215 -0.007158 1024240.000000 1 0 0
-7.361825 7.025474 14.756900 17.925397 -0.762024 0.603702 0.002526 -0.003226 -142943.000000 1 0 0
-5.874025 3.413474 15.702400 17.109101 -0.526416 0.408342 0.006794 -0.004083 -87469.600000 1 0 0
-9.406125 4.262474 11.500900 15.456862 -0.425478 0.731663 -0.009004 -0.001335 -207233.000000 1 0 0
-10.350225 0.013874 14.099400 17.490581 -0.001340 0.633241 0.002537 0.001402 -511142.000000 1 0 0
8.143475 -0.639726 15.806100 17.792084 -0.078396 0.476996 0.006972 -0.000778 -140947.000000 1 0 0
-8.584125 -7.629926 14.635600 18.603864 0.726616 0.665356 0.028513 -0.003080 -547328.000000 1 0 0
-0.083725 4.051374 15.602800 16.120422 -1.550134 0.254099 0.015921 -0.009782 541723.000000 1 0 0
-8.092125 3.142474 9.604900 12.946495 -0.370412 0.734909 -0.010323 0.002680 -1077100.000000 1 0 0
-2.152525 -9.487326 13.170100 16.373584 1.347689 0.636215 -0.000535 -0.007544 606178.000000 1 0 0
-6.108925 10.356274 10.578100 16.014605 -1.037854 0.849274 0.007499 -0.007689 -2254080.000000 1 0 0
-8.573225 -2.964526 15.648800 18.087939 0.332918 0.525345 0.014513 -0.000573 -502398.000000 1 0 0
4.011975 5.430374 17.749000 18.989785 0.934500 0.363494 0.009590 -0.011665 29254.800000 1 0 0
-6.872025 -1.116326 15.272300 16.784340 0.161038 0.427720 0.008859 0.003500 -289521.000000 1 0 0
-0.898825 -9.893426 15.419200 18.342287 1.480194 0.572339 -0.011105 -0.008660 -1216810.000000 1 0 0
-4.488025 5.636274 16.300900 17.822157 -0.898331 0.416174 0.013337 -0.002514 163962.000000 1 0 0
3.720175 0.012174 17.365000 17.759028 0.003272 0.211045 0.017055 -0.006469 -570224.000000 1 0 0
1.418375 0.231374 19.213100 19.266773 0.161702 0.074660 0.023091 -0.009644 -289547.000000 1 0 0
-6.416525 6.424874 17.861800 20.037333 -0.786048 0.470314 0.012472 -0.002888 -1755430.000000 1 0 0
-12.208525 0.607174 10.840300 16.337957 -0.049693 0.845304 -0.001241 0.000505 -664241.000000 1 0 0
-5.524425 5.151074 13.918000 15.835516 -0.750440 0.497223 0.000298 -0.003579 -963334.000000 1 0 0
-8.732225 -9.621426 9.905500 16.338375 0.833809 0.919432 0.018727 -0.005039 -1395620.000000 1 0 0
6.810775 -3.804726 17.080700 18.777990 -0.509447 0.428445 0.017842 -0.002812 -472271.000000 1 0 0
-16.578525 1.827174 9.555300 19.222118 -0.109770 1.050544 0.017983 -0.004042 16650.500000 1 0 0
-4.165525 -9.540026 11.471400 15.490536 1.159111 0.736919 0.010199 -0.011037 541102.000000 1 0 0
-11.072325 -3.832026 9.078400 14.822218 0.333188 0.911595 0.005271 -0.000178 -464563.000000 1 0 0
3.507475 -5.355326 18.504600 19.580657 -0.990949 0.333064 0.009985 -0.016105 -411612.000000 1 0 0
2.545975 -1.898926 16.009000 16.321029 -0.640842 0.195854 0.011134 -0.004423 -587418.000000 1 0 0
-3.106025 -4.222226 20.200600 20.869567 0.936551 0.253879 0.021215 -0.016875 -982659.000000 1 0 0
-6.270225 -3.407326 14.331300 16.009739 0.497772 0.462003 0.012016 -0.001458 435960.000000 1 0 0
-9.553825 5.091274 13.966100 17.670557 -0.489623 0.659400 0.005799 -0.006389 -180292.000000 1 0 0
-5.838625 -5.192126 11.663900 14.039027 0.726856 0.590217 0.006592 -0.001637 -311114.000000 1 0 0
5.994975 1.891774 19.282600 20.281450 0.305670 0.315148 0.021972 -0.009840 163379.000000 1 0 0
-2.836825 11.771074 13.454000 18.100162 -1.334306 0.732794 -0.000458 -0.013451 -1692990.000000 1 0 0
3.433175 1.298774 15.099300 15.539060 0.361662 0.238473 0.009199 -0.002474 -897465.000000 1 0 0
-5.793925 7.417874 12.698800 15.806769 -0.907701 0.637851 -0.006718 -0.006849 -1977980.000000 1 0 0
-1.836925 -1.738826 15.190500 15.399646 0.757971 0.164997 0.012219 -0.004878 -597621.000000 1 0 0
-7.332725 10.279974 14.137900 18.955921 -0.951199 0.729016 0.022251 -0.014274 239616.000000 1 0 0
-10.259525 2.127574 10.483200 14.821670 -0.204477 0.785141 -0.007338 0.001371 -1738770.000000 1 0 0
-13.703625 5.230674 9.114500 17.269146 -0.364632 1.014799 0.003011 -0.005236 -1194500.000000 1 0 0
0.410375 -4.876726 20.186800 20.771561 -1.486844 0.237845 0.027393 -0.023828 -131641.000000 1 0 0
-14.527125 -2.933026 7.454600 16.589486 0.199222 1.104751 0.014855 -0.005903 1069520.000000 1 0 0
-2.291725 2.383674 17.579400 17.887683 -0.805062 0.185925 0.016478 -0.011798 249429.000000 1 0 0
-6.178625 -8.543026 14.562300 17.978300 0.944645 0.626656 0.018011 -0.007753 -649410.000000 1 0 0
-8.103625 1.928674 11.974700 14.587048 -0.233654 0.607788 -0.005821 0.001562 -351297.000000 1 0 0
-14.701825 -3.337226 10.023900 18.104124 0.223212 0.984019 0.017074 -0.008720 85497.500000 1 0 0
-0.604625 6.818574 12.794300 14.510432 -1.482354 0.491277 0.004627 -0.002820 107849.000000 1 0 0
-1.877025 -2.185926 19.276800 19.490934 0.861281 0.148368 0.017819 -0.015926 -169146.000000 1 0 0
-12.842125 10.356974 7.422900 18.091062 -0.678682 1.148005 0.000500 -0.009735 -327001.000000 1 0 0
-19.651925 2.207674 6.387100 20.781410 -0.111870 1.258393 0.053586 -0.016148 492307.000000 1 0 0
-16.105725 8.349774 6.748600 19.356051 -0.478287 1.214660 0.011256 -0.006341 283078.000000 1 0 0
-12.363725 7.212974 13.543800 19.705918 -0.528123 0.813036 0.015249 -0.009969 135366.000000 1 0 0
-15.960225 8.020774 10.387700 20.663153 -0.465684 1.044058 0.020013 -0.015636 -1409480.000000 1 0 0
1.803475 10.760674 14.869100 18.442743 1.404741 0.633044 -0.000239 -0.015007 751952.000000 1 0 0
1.971375 14.472474 12.714800 19.365045 1.435414 0.854514 -0.002642 -0.006173 15437.200000 1 0 0
-3.264125 13.598674 11.710600 18.240521 -1.335221 0.873679 -0.006337 -0.008644 187729.000000 1 0 0
9.003475 4.917474 15.918900 18.938202 0.499902 0.572460 0.018286 0.010015 8295.270000 1 0 0
-0.427225 12.544974 12.830000 17.949033 -1.536754 0.774456 -0.015953 -0.004918 -348794.000000 1 0 0
3.423675 13.375274 14.618600 20.107784 1.320206 0.756836 0.002189 -0.008934 -269399.000000 1 0 0
-2.825425 -4.150226 -13.723900 14.613447 0.973081 2.790880 0.001376 -0.004764 -323934.000000 1 0 0
5.670775 -11.471426 16.359200 20.769563 -1.111688 0.663807 0.009082 -0.004216 98775.100000 1 0 0
7.954075 -13.547226 7.309500 17.326957 -1.039889 1.135304 0.007315 -0.002624 -121385.000000 1 0 0
0.049075 15.625274 1.411800 15.689002 1.567656 1.480688 0.002812 -0.007955 -3543140.000000 1 0 0
-13.732725 8.328374 9.043500 18.431886 -0.545157 1.057967 -0.001914 -0.005769 280388.000000 1 0 0
-15.417025 -9.666126 4.937800 18.854721 0.560020 1.305820 0.040998 -0.011125 -977720.000000 1 0 0
9.449075 -11.027626 11.274700 18.385114 -0.862336 0.910626 0.023616 -0.001000 40918.700000 1 0 0
-5.195525 -10.868826 -16.794700 20.668498 1.124886 2.519352 0.022625 -0.007398 99865.300000 1 0 0
-1.912125 -12.532326 -14.745200 19.445728 1.419389 2.431459 0.013717 -0.002658 -89470.900000 1 0 0
5.589575 -15.717526 -12.471400 20.828341 -1.229117 2.212762 0.024735 -0.006362 157026.000000 1 0 0
2.421875 -12.672826 -16.221100 20.726555 -1.381965 2.469666 0.018943 0.002986 201622.000000 1 0 0
0.492175 -14.170226 -14.275100 20.120040 -1.536077 2.359580 0.015553 0.004809 292323.000000 1 0 0
-6.505325 -5.999626 -14.442600 16.938224 0.744980 2.591858 0.020606 -0.001483 34846.400000 1 0 0
-6.209025 -8.115126 -17.404400 20.182180 0.917690 2.610718 0.021448 -0.000953 95325.500000 1 0 0
-2.481725 -16.261226 -13.097300 21.026785 1.419349 2.243223 0.019836 -0.007071 410110.000000 1 0 0
15.990775 -8.029826 -9.213700 20.126482 -0.465369 2.046304 0.037202 -0.002945 -37911.400000 1 0 0
19.306375 -2.583526 -3.777400 19.841358 -0.133027 1.762346 0.070840 -0.014048 54347.600000 1 0 0
15.982175 -11.412526 -8.634800 21.453099 -0.620112 1.985039 0.056530 -0.008864 143309.000000 1 0 0
18.457675 -2.709126 -6.420600 19.729401 -0.145734 1.902266 0.148979 -0.007026 -238257.000000 1 0 0
9.245275 -9.923726 -15.882600 20.885699 -0.820776 2.434807 0.038033 0.002706 149678.000000 1 0 0
-4.494925 8.798274 -16.618700 19.333783 -1.098477 2.605220 0.003417 -0.016250 461180.000000 1 0 0
2.691875 -9.893226 -18.150100 20.845821 -1.305135 2.627385 0.020598 -0.003023 380155.000000 1 0 0
11.583975 8.096874 -15.103100 20.684571 0.610036 2.389356 0.059512 -0.032959 325116.000000 1 0 0
18.523975 -5.810126 -8.251500 21.094608 -0.303936 1.972695 0.058927 -0.012306 213196.000000 1 0 0
12.448875 5.497774 -13.548500 19.203173 0.415870 2.353973 0.007960 -0.011808 197879.000000 1 0 0
15.936075 6.185074 -10.467200 20.044349 0.370221 2.120227 0.016525 -0.028507 233914.000000 1 0 0
3.302475 -0.313126 -19.174600 19.459437 -0.094533 2.970284 0.026327 -0.009595 217172.000000 1 0 0
10.445375 -1.740626 -14.564700 18.007391 -0.165124 2.512935 0.024214 -0.010278 135723.000000 1 0 0
12.327675 -5.799126 -13.961300 19.506905 -0.439701 2.368437 0.033073 -0.006475 13943.400000 1 0 0
10.002575 6.727674 -12.732500 17.533672 0.592095 2.383537 0.012385 -0.010387 257667.000000 1 0 0
10.923575 5.172174 -16.050600 20.092228 0.442213 2.496171 0.052720 -0.021962 533909.000000 1 0 0
12.128375 -10.298926 -14.965000 21.842999 -0.704006 2.325560 0.059440 -0.010062 379634.000000 1 0 0
-1.513825 2.034574 -17.338500 17.522977 -0.931114 2.996360 -0.003004 -0.011379 368883.000000 1 0 0
6.365375 -1.032126 -16.995900 18.178116 -0.160748 2.778956 0.012972 0.005118 75150.000000 1 0 0
7.132275 -5.987626 -15.384000 17.983005 -0.698373 2.597263 0.003479 -0.008888 309358.000000 1 0 0
-2.097225 -5.040426 -20.519800 21.233616 1.176504 2.881565 0.026186 -0.026508 267330.000000 1 0 0
16.092875 -0.154726 -13.160000 20.789184 -0.009614 2.256246 0.043408 -0.011424 -27731.800000 1 0 0
-3.694625 -0.770026 -18.805100 19.180067 0.205476 2.943533 -0.001858 -0.003542 70087.200000 1 0 0
3.997175 8.299374 -18.275100 20.465490 1.121958 2.674701 0.027121 -0.009773 91464.900000 1 0 0
9.930175 0.442374 -17.108600 19.786568 0.044519 2.615264 0.039923 -0.012704 -111104.000000 1 0 0
4.155475 4.195074 -18.232200 19.164544 0.790140 2.828386 0.029545 -0.008256 390447.000000 1 0 0
-2.017325 -11.360426 -18.149000 21.506164 1.395054 2.575303 0.032664 -0.009840 148414.000000 1 0 0
6.998575 -9.057226 -16.037000 19.702760 -0.912921 2.521710 0.036108 -0.016959 219172.000000 1 0 0
10.177975 -12.958426 -12.096100 20.440832 -0.905001 2.204039 0.018113 0.050441 318165.000000 1 0 0
6.230875 6.824874 -17.155700 19.486425 0.830864 2.647485 0.030053 -0.009494 399949.000000 1 0 0
8.103775 1.487374 -20.080400 21.704974 0.181521 2.752232 0.038567 -0.012729 74815.300000 1 0 0
-1.194925 -0.937526 -20.136700 20.193897 0.665274 3.066310 0.015844 -0.020206 307462.000000 1 0 0
-1.072025 7.019574 -19.510200 20.762263 -1.419248 2.792535 0.016563 -0.004981 -202949.000000 1 0 0
9.102975 6.047874 -17.794100 20.882312 0.586421 2.590807 0.060672 -0.027116 193966.000000 1 0 0
11.926775 -0.079826 -12.695500 17.419244 -0.006693 2.387394 0.002396 -0.007360 -84878.500000 1 0 0
-4.312425 -2.827426 -19.946400 20.602189 0.580334 2.888605 0.010940 -0.008772 352035.000000 1 0 0
5.507175 -11.426926 -14.559400 19.310094 -1.121695 2.424894 -0.009651 -0.002366 -11900.300000 1 0 0
12.219475 2.911874 -15.340900 19.827703 0.233935 2.455473 0.068103 -0.013341 7294.900000 1 0 0
-2.795625 -4.306926 -17.064900 17.820660 0.995054 2.849317 -0.000220 -0.007852 461326.000000 1 0 0
-6.589225 -4.592126 -17.231400 19.011224 0.608652 2.705432 0.028716 -0.020076 66054.600000 1 0 0
3.053675 10.451874 -15.375900 18.841043 1.286543 2.525401 0.005599 -0.008632 301540.000000 1 0 0
17.280575 -6.207626 -10.592200 21.197821 -0.344870 2.094030 0.083059 -0.014305 -143997.000000 1 0 0
9.485875 -3.114426 -17.699400 20.321177 -0.317234 2.627996 0.015902 -0.005987 139427.000000 1 0 0
-7.065325 -1.139326 -18.797900 20.114122 0.159880 2.777823 0.011366 -0.007073 541883.000000 1 0 0
1.875375 -7.528326 -19.416800 20.909444 -1.326656 2.761456 0.026984 -0.020309 280340.000000 1 0 0
5.730275 10.180274 -14.222000 18.404872 1.058118 2.453928 0.019261 -0.010307 492590.000000 1 0 0
6.092475 -3.915426 -16.959500 18.441081 -0.571202 2.738007 0.017234 -0.030842 364829.000000 1 0 0
4.436375 13.602274 -14.542800 20.400890 1.255525 2.364352 0.020476 -0.010500 122364.000000 1 0 0
9.482375 11.158574 -15.398600 21.249614 0.866428 2.381327 0.058205 -0.020963 -6356.760000 1 0 0
17.152475 1.004574 -11.618400 20.741355 0.058500 2.165371 0.056878 -0.006846 136736.000000 1 0 0
15.377975 -2.837126 -12.164800 19.811960 -0.182441 2.231931 0.063380 -0.013192 120733.000000 1 0 0
-8.651125 0.348574 -17.539600 19.560190 -0.040271 2.683051 0.022908 -0.013456 441185.000000 1 0 0
-3.496525 4.216674 -19.144800 19.913046 -0.878494 2.862915 0.014359 -0.004081 70834.800000 1 0 0
3.572975 1.515774 -17.005600 17.442883 0.401221 2.917205 0.013464 -0.001758 649044.000000 1 0 0
-5.206025 14.104374 -14.008800 20.549514 -1.217202 2.320893 0.025677 -0.013619 248902.000000 1 0 0
1.245375 9.040074 -17.695600 19.910001 1.433896 2.665472 0.017346 -0.013513 444597.000000 1 0 0
1.236575 -5.265926 -20.041200 20.758343 -1.340149 2.877972 0.026027 -0.004662 533448.000000 1 0 0
3.664875 -6.139926 -18.434900 19.773101 -1.032665 2.771578 0.015910 -0.005714 -288099.000000 1 0 0
-7.131925 7.299374 -16.190700 19.138547 -0.797001 2.579184 0.003266 -0.005919 32095.900000 1 0 0
-11.914525 3.513574 -16.474300 20.632587 -0.286770 2.495530 0.069492 -0.033731 159232.000000 1 0 0
-4.248125 6.668674 -17.367600 19.082749 -1.003595 2.714371 -0.000571 0.004105 542139.000000 1 0 0
-8.267425 5.287974 -17.719500 20.255707 -0.569040 2.635800 0.015657 -0.011297 372762.000000 1 0 0
-8.393825 4.353774 -14.749500 17.520256 -0.478486 2.571506 -0.005186 -0.030506 503587.000000 1 0 0
9.384475 13.834374 -12.856100 21.088803 0.974752 2.226374 0.048067 -0.017981 377236.000000 1 0 0
13.979875 9.806974 -11.844000 20.782059 0.611736 2.177198 0.039882 -0.017629 191889.000000 1 0 0
8.513875 15.567574 -9.926900 20.331719 1.070338 2.080876 0.031191 -0.012736 26905.300000 1 0 0
7.826075 13.463274 -14.482300 21.266034 1.044247 2.319932 0.052052 -0.019930 172784.000000 1 0 0
4.101775 15.831074 -12.822500 20.781337 1.317275 2.235747 0.031550 -0.014407 166986.000000 1 0 0
11.210775 11.216974 -10.468200 19.002242 0.785675 2.154230 0.047946 -0.038233 97827.300000 1 0 0
15.913675 9.963374 -8.564900 20.636652 0.559382 1.998776 0.058903 -0.055223 295982.000000 1 0 0
13.450975 11.352574 -8.780000 19.669725 0.700998 2.033502 0.070102 -0.019168 -11806.700000 1 0 0
10.766775 11.601274 -7.158800 17.371282 0.822688 1.995560 0.022674 -0.012245 11229.700000 1 0 0
5.374075 17.023374 -9.871800 20.399225 1.265010 2.075937 0.049014 -0.015854 50649.000000 1 0 0
11.391175 13.308974 -10.282100 20.312785 0.862886 2.101556 0.069547 -0.036586 187140.000000 1 0 0
8.592675 -19.353626 -1.959400 21.265845 -1.152958 1.663066 0.050139 -0.007511 236742.000000 1 0 0
7.965175 -17.224226 -4.370600 19.473575 -1.137645 1.797162 0.040132 0.006047 7438.540000 1 0 0
3.942175 -18.930826 5.709300 20.162168 -1.365489 1.283700 0.053209 -0.012858 130217.000000 1 0 0
10.552375 -17.689826 -2.671200 20.770601 -1.032938 1.699758 0.045296 -0.003408 705360.000000 1 0 0
-3.192725 -14.759826 8.065100 17.119924 1.357767 1.080265 0.023971 -0.031204 105251.000000 1 0 0
-15.224725 -12.993226 -4.759600 20.573525 0.706482 1.804257 0.052040 -0.005717 138088.000000 1 0 0
-9.365825 -12.801126 -7.587000 17.582664 0.939149 2.016956 0.030423 -0.006108 106063.000000 1 0 0
-11.342225 -15.900126 6.701000 20.648570 0.951172 1.240286 0.029953 -0.001754 326794.000000 1 0 0
-15.148625 -7.186826 -7.303500 18.288587 0.442976 1.981601 0.071096 -0.037541 -440620.000000 1 0 0
4.254575 -14.787826 6.226300 16.599639 -1.290654 1.186306 0.017437 -0.020635 38467.200000 1 0 0
2.672975 -14.057326 9.156200 16.987914 -1.382891 1.001567 0.009469 -0.005392 527456.000000 1 0 0
3.227075 -17.254226 10.018000 20.210954 -1.385901 1.052188 0.022611 -0.011810 259965.000000 1 0 0
-7.362125 -17.168526 -5.736700 19.541466 1.165699 1.868751 -0.013262 -0.013920 -66223.900000 1 0 0
1.969775 -19.842626 -3.901700 20.318294 -1.471851 1.764025 0.038274 -0.017228 24838.100000 1 0 0
-16.896025 -10.782226 -2.854900 20.245555 0.568001 1.712282 -0.049309 -0.022713 -258357.000000 1 0 0
-4.229125 -14.938826 2.806500 15.777530 1.294919 1.391965 0.002506 0.004099 216739.000000 1 0 0
-10.732625 -9.984826 -14.606900 20.694142 0.749319 2.354415 0.050318 -0.004444 223965.000000 1 0 0
0.572075 -20.384726 2.748100 20.577084 -1.542740 1.436845 0.025621 -0.015337 216255.000000 1 0 0
5.355875 -18.391126 0.296200 19.157418 -1.287413 1.555334 0.016934 -0.004488 156624.000000 1 0 0
-7.716525 -18.686426 -3.765600 20.564703 1.179178 1.754945 0.026650 -0.029515 29234.900000 1 0 0
-9.329625 -15.833926 -7.905000 20.006102 1.038343 1.977005 0.056828 -0.014047 259.014000 1 0 0
-11.609025 -11.335626 -12.179500 20.288077 0.773483 2.214707 0.029853 -0.005454 358024.000000 1 0 0
-13.334525 -14.904026 -3.597200 20.319434 0.840921 1.748767 0.052599 -0.018599 184747.000000 1 0 0
-0.339525 -20.343826 -2.245100 20.470149 1.554109 1.680694 0.039924 -0.022789 270386.000000 1 0 0
-12.193725 -16.610326 -1.077600 20.633736 0.937546 1.623045 0.061654 -0.018106 273888.000000 1 0 0
0.981775 -20.094326 5.358800 20.819764 -1.521977 1.310476 0.034153 -0.018183 180905.000000 1 0 0
-18.335325 -9.128626 2.320100 20.613074 0.461943 1.458003 0.068992 -0.011528 213248.000000 1 0 0
-14.795225 -14.895426 -0.767600 21.008608 0.788773 1.607342 0.062867 -0.017147 77603.400000 1 0 0
10.312475 -15.200326 -5.505100 19.175588 -0.974689 1.861983 0.029935 -0.000290 -49054.600000 1 0 0
-0.686025 -19.256526 -7.011400 20.504735 1.535186 1.919777 0.016523 -0.001612 105229.000000 1 0 0
-10.153425 -18.505726 -2.350400 21.238604 1.068979 1.681690 0.044582 0.036531 521108.000000 1 0 0
-14.495125 -6.923526 -11.338500 19.662284 0.445604 2.185434 0.038625 -0.021651 -18157.400000 1 0 0
-11.961825 -15.328626 2.045600 19.550869 0.908147 1.465975 0.044574 -0.009813 230232.000000 1 0 0
-2.545225 -16.271926 10.320600 19.436268 1.415635 1.011020 0.027024 -0.015729 268970.000000 1 0 0
-12.206425 -14.652926 -7.001300 20.315591 0.876233 1.922638 0.041846 -0.011449 149805.000000 1 0 0
5.569875 -16.967426 -6.622500 19.046642 -1.253611 1.925912 0.035471 -0.019255 -177919.000000 1 0 0
-17.332325 -7.236426 -2.864300 18.999462 0.395510 1.722130 0.005478 -0.017692 -75228.600000 1 0 0
-12.072725 -13.526326 -9.910800 20.662433 0.842121 2.071056 0.070654 -0.024434 -36740.400000 1 0 0
-7.844125 -13.966526 9.474500 18.610757 1.059062 1.036672 0.036375 -0.012349 300036.000000 1 0 0
-15.908725 -8.559926 -5.601200 18.913839 0.493634 1.871448 0.048856 -0.005434 336389.000000 1 0 0
-0.672525 -19.731326 0.225300 19.744069 1.536725 1.559385 0.020422 -0.012163 257620.000000 1 0 0
-14.865625 -11.275826 -1.998600 18.765006 0.648930 1.677505 0.034879 -0.011946 -56729.700000 1 0 0
-6.843125 -19.097726 1.330300 20.330302 1.226728 1.505315 0.015936 -0.011010 128034.000000 1 0 0
-1.680025 -21.219826 -4.750000 21.809768 1.491789 1.790348 0.019224 -0.002748 -45032.000000 1 0 0
-8.778625 -19.777126 -0.896200 21.656457 1.153045 1.612191 0.032953 -0.009707 126044.000000 1 0 0
-17.758125 -7.568126 5.282800 20.013383 0.402868 1.303667 0.055370 -0.014941 165782.000000 1 0 0
-2.773125 -15.678226 -10.582600 19.117751 1.395730 2.157415 0.010711 -0.002473 44005.300000 1 0 0
-3.613225 -18.654626 -7.662400 20.488114 1.379475 1.954106 0.011708 0.007798 87399.000000 1 0 0
4.075675 -18.305526 -5.893900 19.658114 -1.351722 1.875301 0.018706 0.034051 426997.000000 1 0 0
0.517975 -17.406226 -8.813100 19.517062 -1.541047 2.039308 0.004475 0.003615 38266.100000 1 0 0
-7.390725 -10.090226 -15.039600 19.560803 0.938613 2.447859 0.015788 -0.002510 486695.000000 1 0 0
-5.279525 -19.323926 -1.855500 20.117912 1.304093 1.663159 0.020897 -0.022366 413447.000000 1 0 0
-10.282525 -15.317926 8.813700 20.446283 0.979611 1.125122 0.032650 -0.023201 168938.000000 1 0 0
-7.620625 -14.671526 -10.174000 19.412312 1.091737 2.122455 0.048959 -0.025309 204527.000000 1 0 0
-12.540925 -7.976626 -12.470500 19.401410 0.566504 2.268895 0.041305 -0.015965 192592.000000 1 0 0
-15.846025 -13.198426 3.053100 20.847455 0.694493 1.423818 0.069083 -0.008032 97337.900000 1 0 0
-6.394825 -14.273526 -13.174500 20.449811 1.149590 2.270820 0.020103 0.000384 441797.000000 1 0 0
-13.889625 -11.246626 -7.020000 19.201267 0.680636 1.945075 0.050776 -0.027902 151065.000000 1 0 0
-11.925625 -10.400226 -8.310200 17.873014 0.717180 2.054383 0.042599 -0.015172 203081.000000 1 0 0
-9.820325 -14.957626 3.333300 18.201105 0.989835 1.386620 0.010667 0.005985 501776.000000 1 0 0
5.440375 -17.480026 8.114500 20.024837 -1.269065 1.153575 0.062755 -0.041709 219577.000000 1 0 0
-4.819125 -16.760726 5.291000 18.224724 1.290824 1.276235 0.003682 0.007324 421154.000000 1 0 0
-18.329525 -7.336926 -6.795100 20.880022 0.380747 1.902269 0.042966 -0.027536 62068.400000 1 0 0
-17.008625 -4.644326 -10.892900 20.724824 0.266559 2.124213 0.059676 -0.009978 -156930.000000 1 0 0
-15.764725 -4.171126 -13.231500 20.999939 0.258659 2.252444 0.057058 -0.017216 342438.000000 1 0 0
-19.490925 -5.628826 -5.764000 21.090365 0.281143 1.847618 0.060366 -0.014383 39477.800000 1 0 0
5.507875 -13.883226 8.955900 17.415189 -1.193113 1.030654 0.028944 -0.000535 324969.000000 1 0 0
19.795675 -3.345626 2.999200 20.299192 -0.167426 1.422504 0.048190 -0.008846 -57859.900000 1 0 0
17.977075 -2.476926 0.143800 18.147481 -0.136920 1.562872 0.037169 -0.010889 276818.000000 1 0 0
14.105475 -11.033226 0.365800 17.911737 -0.663789 1.550373 0.039576 -0.002645 -138170.000000 1 0 0
10.839775 -13.692726 5.637900 18.351496 -0.901171 1.258529 0.016529 0.003073 484302.000000 1 0 0
10.097775 -12.983326 8.609200 18.564755 -0.909771 1.088586 0.034550 -0.014640 55793.800000 1 0 0
18.510575 5.534974 -4.993200 19.955184 0.290555 1.823705 0.053886 0.007996 -138119.000000 1 0 0
18.997675 -6.000126 -4.499500 20.424463 -0.305920 1.792918 0.073931 -0.010789 -16495.200000 1 0 0
17.493075 -10.047326 0.034300 20.173191 -0.521353 1.569096 0.059939 -0.002559 233351.000000 1 0 0
17.402275 -8.796326 8.524800 21.281136 -0.468014 1.158646 0.091961 -0.018341 -38875.900000 1 0 0
19.818975 0.226374 -1.903000 19.911415 0.011422 1.666516 0.059619 -0.007940 129574.000000 1 0 0
7.634075 -12.856526 11.620200 18.936695 -1.034956 0.910142 0.027777 -0.007076 436103.000000 1 0 0
16.024775 -6.717426 -3.259700 17.678882 -0.396939 1.756241 0.041302 -0.006396 378979.000000 1 0 0
14.408975 -6.729526 12.116000 19.992562 -0.436931 0.919742 0.049953 -0.018897 389742.000000 1 0 0
16.488075 1.140874 10.745900 19.713767 0.069084 0.994292 0.080370 -0.021406 307488.000000 1 0 0
16.703375 -10.006226 2.741900 19.663299 -0.539724 1.430898 0.047204 -0.008849 245056.000000 1 0 0
16.243075 -7.171226 -5.844900 18.692962 -0.415758 1.888809 0.052998 -0.003771 331694.000000 1 0 0
19.091775 -4.444726 6.034200 20.510072 -0.228734 1.272171 0.178641 -0.014289 -34123.900000 1 0 0
13.451775 -13.537426 7.826600 20.626872 -0.788572 1.181609 0.043825 -0.010476 278192.000000 1 0 0
15.287875 -14.189726 -1.319600 20.899971 -0.748162 1.633977 0.049085 -0.002950 237309.000000 1 0 0
18.722975 -6.484626 8.251300 21.463554 -0.333416 1.176203 0.095137 -0.016332 255112.000000 1 0 0
19.677975 3.542774 2.844700 20.195700 0.178129 1.429470 0.053195 -0.004826 452789.000000 1 0 0
15.523375 -10.621026 8.271100 20.547323 -0.600040 1.156507 0.061391 -0.023955 341823.000000 1 0 0
14.173075 -4.199526 10.887100 18.358677 -0.288062 0.935989 0.045892 -0.007686 -94000.300000 1 0 0
18.708375 -7.705726 2.082300 20.340047 -0.390711 1.468242 0.082429 -0.014941 68013.300000 1 0 0
18.451275 -4.694426 -1.797000 19.123713 -0.249137 1.664902 0.036523 -0.008031 264478.000000 1 0 0
14.805475 -13.485726 -6.238500 20.975838 -0.738783 1.872779 0.049309 -0.003601 318979.000000 1 0 0
13.799175 -9.571926 10.633100 19.877168 -0.606458 1.006359 0.023348 0.001807 454262.000000 1 0 0
14.175175 2.211774 0.494200 14.355200 0.154783 1.536363 -0.000662 -0.002985 -236881.000000 1 0 0
12.600275 3.194174 13.769600 18.935986 0.248270 0.756612 0.015455 -0.010295 263551.000000 1 0 0
18.423575 -2.969626 8.957800 20.699976 -0.159812 1.123261 0.085054 -0.026834 133779.000000 1 0 0
7.535475 -18.359526 5.064600 20.481840 -1.181323 1.320932 0.062029 -0.025615 366286.000000 1 0 0
12.207475 -2.642726 15.465100 19.879029 -0.213194 0.679383 0.029985 0.006487 185321.000000 1 0 0
11.445575 -13.361926 -6.955700 18.918880 -0.862494 1.947287 0.021080 -0.005965 69026.400000 1 0 0
10.827375 -17.916726 4.094400 21.330852 -1.027209 1.377650 0.054946 -0.016581 543264.000000 1 0 0
18.452875 -0.105726 -5.188900 19.168841 -0.005729 1.844911 0.066630 -0.013720 234951.000000 1 0 0
4.814675 -13.809726 11.845600 18.820411 -1.235330 0.890013 0.016913 0.000353 384352.000000 1 0 0
9.082675 -3.039826 14.054800 17.008026 -0.322966 0.598178 -0.001342 -0.003461 188406.000000 1 0 0
9.418675 -9.438526 14.295800 19.549095 -0.786451 0.750604 0.048020 0.000497 309343.000000 1 0 0
21.003475 5.478374 -3.178900 21.937729 0.255147 1.716214 0.076225 -0.003073 553294.000000 1 0 0
14.865675 -13.490826 2.094700 20.183619 -0.736952 1.466827 0.042450 -0.001012 273828.000000 1 0 0
10.690275 0.224174 13.740900 17.411048 0.020967 0.661282 0.007260 -0.029296 175514.000000 1 0 0
19.482375 0.458274 7.736800 20.967380 0.023518 1.192872 0.090384 -0.014289 167427.000000 1 0 0
19.705375 0.925074 0.602300 19.736270 0.046911 1.540274 0.046203 -0.009326 81530.000000 1 0 0
17.679175 0.275974 3.130700 17.956355 0.015609 1.395550 0.024387 -0.005826 -78402.000000 1 0 0
10.579375 -8.435926 16.557600 21.383221 -0.673150 0.685146 0.061723 -0.007128 122717.000000 1 0 0
19.154675 3.052674 5.551400 20.175194 0.158041 1.292041 0.048765 -0.004597 181848.000000 1 0 0
15.525375 2.451974 7.089000 17.242488 0.156640 1.147097 0.044475 -0.012313 -5096.750000 1 0 0
11.384275 -15.953726 2.122800 19.713685 -0.951014 1.462906 0.017533 0.008519 259180.000000 1 0 0
9.101975 -16.141226 6.986100 19.803806 -1.057347 1.210271 0.052172 -0.007482 30461.100000 1 0 0
6.169375 6.660774 7.143400 11.552284 0.823680 0.904150 -0.003494 0.000224 -1450620.000000 1 0 0
18.457375 2.701874 -6.450500 19.737877 0.145352 1.903721 0.038196 -0.004511 238253.000000 1 0 0
14.187475 4.494574 -6.971600 16.434380 0.306796 2.008884 0.020409 -0.014525 187726.000000 1 0 0
-10.549725 -3.861026 -14.014700 17.961515 0.350843 2.465882 0.021340 -0.003039 -253029.000000 1 0 0
7.894475 -14.217926 -10.414100 19.311283 -1.063933 2.140373 0.019632 0.003535 91042.900000 1 0 0
2.130175 -16.057326 13.523600 21.101259 -1.438906 0.875138 -0.006769 -0.008584 351537.000000 1 0 0
-9.306025 -7.888026 1.886300 12.344277 0.703114 1.417388 0.009090 0.005931 335377.000000 1 0 0
-13.733925 3.121774 -10.048500 17.301402 -0.223506 2.190496 0.026926 -0.004322 304265.000000 1 0 0
-12.885625 -4.522326 -13.919700 19.499969 0.337529 2.365751 0.037926 0.002040 256804.000000 1 0 0
-18.019825 -1.210726 -8.603500 20.005003 0.067088 2.015364 0.067028 -0.023472 539458.000000 1 0 0
-12.211225 15.201674 3.928800 19.890711 -0.894058 1.371970 0.022220 -0.017942 429402.000000 1 0 0
-16.662425 6.349774 8.901400 19.929650 -0.364093 1.107789 -0.020598 -0.017091 200884.000000 1 0 0
-13.166425 15.515774 -0.097700 20.349534 -0.867125 1.575597 0.044116 -0.012736 267598.000000 1 0 0
-16.752725 5.454174 -10.267900 20.391948 -0.314747 2.098473 0.086636 -0.021837 -108654.000000 1 0 0
-18.262525 2.936974 -0.232100 18.498635 -0.159454 1.583344 0.035650 -0.007242 -95896.900000 1 0 0
-9.740625 15.500474 -0.171800 18.307757 -1.009750 1.580180 0.022784 -0.012005 -17211.400000 1 0 0
-18.551725 12.219674 2.386500 22.342388 -0.582454 1.463777 0.078025 -0.013269 2318.870000 1 0 0
-8.890525 16.318074 -7.537400 20.053263 -1.071934 1.956131 0.071728 -0.024019 51917.100000 1 0 0
-14.732525 -1.968026 -13.713200 20.223062 0.132798 2.315967 0.036197 -0.007246 104494.000000 1 0 0
-18.998825 5.168374 -4.649200 20.230731 -0.265609 1.802678 0.045707 -0.008803 -42314.200000 1 0 0
-16.812925 9.543474 -5.732100 20.164556 -0.516276 1.859037 0.044777 0.012775 -277475.000000 1 0 0
-19.021025 0.931874 2.427000 19.197867 -0.048953 1.444037 0.028209 -0.008366 252990.000000 1 0 0
-13.510125 11.879074 -7.120600 19.347837 -0.721244 1.947687 0.036165 -0.004816 57378.400000 1 0 0
-13.939625 5.002074 -12.334900 19.273911 -0.344527 2.265267 0.074219 -0.036292 55924.100000 1 0 0
-14.139025 9.612974 -6.570500 18.316461 -0.597101 1.937694 0.029027 0.002185 165964.000000 1 0 0
-6.409125 11.294974 -15.382500 20.131434 -1.054669 2.440447 0.006787 -0.037784 197490.000000 1 0 0
-14.953125 13.928574 3.372400 20.711692 -0.749939 1.407242 0.029127 -0.015680 79898.100000 1 0 0
-18.629325 8.455374 -5.136600 21.093358 -0.426071 1.816787 0.048406 -0.003800 187977.000000 1 0 0
-4.406025 16.322274 -11.424400 20.404573 -1.307141 2.165054 0.010236 0.007675 136877.000000 1 0 0
-19.553525 -1.802626 -6.738400 20.760439 0.091929 1.901363 0.047049 -0.012799 -95902.600000 1 0 0
-10.734825 13.412874 -6.255300 18.283064 -0.895850 1.919986 0.037079 -0.020562 193305.000000 1 0 0
-19.024825 3.035874 3.882600 19.652864 -0.158240 1.371929 0.019609 -0.005878 36832.800000 1 0 0
-15.101625 12.618274 0.774300 19.694655 -0.696049 1.531471 0.015122 0.002289 125812.000000 1 0 0
-16.813225 1.782674 -9.148900 19.224069 -0.105633 2.066793 -0.008120 -0.003132 348435.000000 1 0 0
-16.339825 14.222174 -4.431000 22.110944 -0.716218 1.772561 0.027878 0.039499 132827.000000 1 0 0
-10.662225 15.714974 -8.634300 20.861318 -0.974663 1.997520 0.054102 -0.014651 100061.000000 1 0 0
-19.180825 2.061474 -6.891600 20.485308 -0.107065 1.913906 0.047933 -0.016563 296399.000000 1 0 0
-17.423225 10.671974 -0.259800 20.433484 -0.549570 1.583511 0.038829 0.009320 136816.000000 1 0 0
-11.566525 6.010674 -14.493600 19.493002 -0.479253 2.409128 0.026071 -0.033766 388468.000000 1 0 0
-13.289925 12.426474 -4.109900 18.652899 -0.751835 1.792955 0.043630 -0.003098 334942.000000 1 0 0
-18.927025 7.100574 -0.360400 20.218316 -0.358907 1.588623 0.034129 -0.000403 194217.000000 1 0 0
-14.535225 8.713974 -10.339900 19.852446 -0.540057 2.118628 0.030377 -0.006478 670547.000000 1 0 0
-18.533325 11.472374 4.804900 22.320093 -0.554283 1.353826 0.048045 -0.014697 225468.000000 1 0 0
-8.204525 11.778374 -13.522100 19.720332 -0.962373 2.326352 -0.006751 -0.019459 589353.000000 1 0 0
-21.218625 -1.542126 -4.327400 21.710241 0.072550 1.771466 0.054515 -0.034560 104002.000000 1 0 0
-10.809825 14.065774 -3.686800 18.118797 -0.915548 1.775707 0.033407 0.015068 519330.000000 1 0 0
-18.690125 -4.903326 3.549700 19.645960 0.256567 1.389115 0.039602 -0.018798 324.837000 1 0 0
-11.394925 11.476674 -12.929700 20.705929 -0.788972 2.245216 0.031322 -0.018038 373328.000000 1 0 0
-14.610625 11.544474 -10.588600 21.421104 -0.668701 2.087834 0.052403 -0.008613 290966.000000 1 0 0
-12.673625 9.662374 -13.982200 21.201041 -0.651390 2.290957 0.054250 -0.029081 308748.000000 1 0 0
-18.540525 -4.837526 -3.041500 19.401119 0.255226 1.728215 0.030887 -0.016464 -293353.000000 1 0 0
-9.454025 12.475074 -11.451000 19.394109 -0.922301 2.202397 0.025419 -0.018815 56669.900000 1 0 0
-15.692725 7.718574 -8.132900 19.286836 -0.457112 2.006095 0.025629 0.002478 74276.500000 1 0 0
-14.313825 9.034974 1.943300 17.037980 -0.563050 1.456491 0.010348 -0.000653 -241222.000000 1 0 0
-19.769125 6.245574 7.782000 22.144638 -0.306003 1.211712 0.059244 -0.012995 219118.000000 1 0 0
-18.741625 6.099374 3.897900 20.090905 -0.314635 1.375545 0.019751 -0.004190 175692.000000 1 0 0
-14.612825 12.630074 6.001600 20.225544 -0.712746 1.269526 0.027369 -0.016122 194779.000000 1 0 0
17.947375 6.526574 5.619000 19.906723 0.348784 1.284641 0.035893 -0.010776 200293.000000 1 0 0
18.470375 7.821274 0.768300 20.072802 0.400557 1.532511 0.050286 0.000084 -157062.000000 1 0 0
17.253775 4.485874 8.352800 19.687181 0.254362 1.132634 0.064833 -0.014425 8829.840000 1 0 0
12.445975 12.699774 11.057800 20.939473 0.795491 1.014454 0.050618 -0.026153 117000.000000 1 0 0
14.822175 12.488474 4.472500 19.891258 0.700155 1.344010 0.023381 -0.008836 141694.000000 1 0 0
4.796675 10.235274 14.399500 18.306134 1.132549 0.665522 0.015694 -0.013551 378167.000000 1 0 0
12.306975 14.288974 -5.279800 19.583481 0.859783 1.843779 0.017064 0.017422 260784.000000 1 0 0
17.246975 9.281274 -2.644100 19.763387 0.493691 1.704986 0.004543 -0.012543 -42886.100000 1 0 0
14.416675 7.649674 9.589900 18.929454 0.487837 1.039545 0.041154 -0.011060 110670.000000 1 0 0
4.857675 19.235074 -1.935900 19.933208 1.323426 1.668069 0.024349 -0.012482 530700.000000 1 0 0
-4.599725 19.099974 3.482200 19.952248 -1.334473 1.395371 0.019903 -0.025440 89022.800000 1 0 0
6.500675 12.664974 12.929800 19.231227 1.096581 0.833440 0.015427 -0.009237 -93161.200000 1 0 0
0.319575 16.914474 -10.199800 19.754429 1.551905 2.113356 0.013235 -0.002807 150490.000000 1 0 0
10.302275 9.648974 15.850000 21.224092 0.752665 0.727570 0.025504 -0.006632 313022.000000 1 0 0
-1.298225 12.382774 0.673400 12.468839 -1.466337 1.516763 -0.001983 0.000482 394792.000000 1 0 0
-4.832125 18.980874 -2.157800 19.704799 -1.321513 1.680523 0.020300 -0.002789 18289.300000 1 0 0
6.013175 18.619474 6.391800 20.583931 1.258419 1.255052 0.025360 -0.008462 102926.000000 1 0 0
10.978675 17.600774 -1.197900 20.778680 1.013089 1.628479 0.022231 -0.000190 388080.000000 1 0 0
18.321975 10.789574 3.258800 21.511148 0.532208 1.418717 0.044157 -0.008809 256654.000000 1 0 0
11.570975 16.790074 6.261500 21.330739 0.967386 1.272865 0.030803 -0.006516 -148071.000000 1 0 0
17.778975 8.073474 -4.754900 20.096816 0.426260 1.809661 0.021866 0.009157 337303.000000 1 0 0
0.025775 15.333074 11.352000 19.078043 1.569115 0.933494 -0.003765 0.001403 357257.000000 1 0 0
1.109575 20.058374 -1.782800 20.167992 1.515535 1.659309 0.019924 -0.017508 351869.000000 1 0 0
14.377575 9.808374 -0.969900 17.431569 0.598679 1.626465 0.021654 -0.010613 -59197.000000 1 0 0
10.360375 16.581974 2.425300 19.702318 1.012343 1.447386 0.038891 -0.026666 324137.000000 1 0 0
0.679275 17.529374 -0.171400 17.543368 1.532065 1.580567 0.005288 -0.012265 -130224.000000 1 0 0
0.197775 21.056574 1.163300 21.089611 1.561404 1.515608 0.025113 -0.005661 226150.000000 1 0 0
5.925675 17.259374 -0.281300 18.250445 1.240075 1.586210 0.001890 -0.021861 -173126.000000 1 0 0
7.746275 18.629474 -2.223600 20.297943 1.176737 1.680565 0.028284 -0.012704 4005.360000 1 0 0
10.119675 9.648274 12.837600 18.981596 0.761556 0.828043 0.020460 -0.012913 278907.000000 1 0 0
13.000675 14.871474 8.431500 21.477162 0.852418 1.167361 0.037376 -0.015015 245809.000000 1 0 0
0.371475 17.557374 6.857100 18.852565 1.549642 1.198535 0.004448 -0.008853 167898.000000 1 0 0
7.125775 17.763074 -7.766300 20.654755 1.189293 1.956278 0.031499 -0.021760 115891.000000 1 0 0
-1.187825 18.410374 9.137600 20.587582 -1.506366 1.110917 0.035967 -0.024395 209351.000000 1 0 0
15.871975 6.699274 -7.963200 18.979263 0.399396 2.003772 0.031392 -0.008051 -90059.300000 1 0 0
-4.695425 19.957074 -6.631000 21.547668 -1.339723 1.883609 -0.017015 0.001962 130356.000000 1 0 0
3.710375 15.454574 9.651800 18.594838 1.335173 1.025048 0.009329 -0.014379 150344.000000 1 0 0
8.874475 14.786274 7.463400 18.790757 1.030242 1.162349 0.012642 -0.012914 100798.000000 1 0 0
-2.832525 19.772274 6.295200 20.942673 -1.428507 1.265483 0.033210 -0.013000 92963.100000 1 0 0
4.856875 17.872874 8.661100 20.446113 1.305458 1.133374 0.021146 -0.010734 77852.700000 1 0 0
13.962075 11.887874 -6.029100 19.303138 0.705330 1.888449 -0.013305 -0.018013 -129877.000000 1 0 0
11.368375 7.382074 15.932800 20.918630 0.575919 0.704931 0.030246 -0.002124 239249.000000 1 0 0
17.306175 9.075474 4.955400 20.159959 0.482982 1.322447 0.067447 -0.011097 228525.000000 1 0 0
4.854875 14.832574 11.872800 19.609652 1.254475 0.920456 0.001740 -0.031022 467925.000000 1 0 0
16.192275 11.338774 -4.379600 20.246938 0.610899 1.788829 0.061664 0.005892 176484.000000 1 0 0
15.379575 13.578374 6.409100 21.493724 0.723278 1.268006 0.053777 -0.009703 352849.000000 1 0 0
12.788475 14.422974 -8.094500 20.906655 0.845393 1.968360 0.082543 -0.027757 397773.000000 1 0 0
-8.567825 15.745974 9.652500 20.359619 -1.072473 1.076854 0.031734 -0.006367 150071.000000 1 0 0
-4.001325 17.677674 -8.065900 19.838586 -1.348198 1.989500 -0.000631 0.041136 87448.000000 1 0 0
2.215875 19.509974 -4.644700 20.177275 1.457704 1.803074 0.021420 -0.022860 64669.900000 1 0 0
7.101475 16.326374 9.188400 20.035173 1.160512 1.094362 0.027886 -0.016077 636601.000000 1 0 0
13.600775 15.253374 -1.616500 20.500234 0.842610 1.649731 0.055660 -0.018887 227027.000000 1 0 0
12.958475 16.528074 4.397200 21.457742 0.905870 1.364411 0.037257 -0.015527 209350.000000 1 0 0
2.968875 18.262774 0.540400 18.510407 1.409642 1.541598 0.029273 -0.021238 76331.400000 1 0 0
-6.695625 18.136274 1.529500 19.393174 -1.217134 1.491846 -0.012226 0.017542 266997.000000 1 0 0
0.277975 19.943274 -5.919900 20.805208 1.556859 1.859322 0.027515 -0.003430 194539.000000 1 0 0
-7.161725 17.977874 -6.194200 20.319015 -1.191702 1.880575 0.045889 -0.017215 120601.000000 1 0 0
-7.429625 18.421974 -1.098400 19.894093 -1.187446 1.626037 0.039840 -0.009700 235831.000000 1 0 0
-14.569025 -9.269826 8.501100 19.247204 0.566662 1.113326 0.044974 -0.016740 345429.000000 1 0 0
-12.992025 -13.563526 7.832800 20.349808 0.806916 1.175688 0.029892 -0.006828 38320.200000 1 0 0
-3.614725 -15.555226 13.018300 20.603578 1.342469 0.886863 0.039229 -0.009033 114611.000000 1 0 0
-1.834125 -14.885826 15.395300 21.493420 1.448201 0.772340 0.025411 -0.008743 371980.000000 1 0 0
-7.930625 -13.791326 13.187100 20.663859 1.048929 0.878675 0.049285 -0.015615 383742.000000 1 0 0
-10.165925 -11.040026 11.712800 19.037276 0.826594 0.908086 0.049537 -0.009345 74331.100000 1 0 0
-7.394625 -10.454326 12.999200 18.246989 0.955170 0.777881 0.026501 -0.013305 389716.000000 1 0 0
-15.370025 -12.131626 6.620400 20.669874 0.668185 1.244758 0.064012 -0.018451 267528.000000 1 0 0
-4.612725 -12.494026 13.280400 18.808161 1.217125 0.786824 0.032929 -0.019088 319747.000000 1 0 0
3.368975 -12.404226 13.916800 18.944449 -1.305595 0.745703 -0.004435 -0.000732 398460.000000 1 0 0
6.565075 -13.395226 15.015200 21.165739 -1.115096 0.782135 0.017167 0.008256 299022.000000 1 0 0
7.024075 -9.130726 16.950200 20.494318 -0.915070 0.596925 0.031533 -0.008128 544266.000000 1 0 0
-5.501825 13.398574 13.325100 19.681213 -1.181162 0.827054 0.014203 -0.010410 351820.000000 1 0 0
-13.778125 -1.666326 17.079200 22.007100 0.120355 0.682375 0.035373 -0.011894 156229.000000 1 0 0
-10.201925 9.181774 13.073800 18.955434 -0.732817 0.809704 0.011476 -0.014187 412004.000000 1 0 0
-7.371825 -8.486626 16.904500 20.300954 0.855580 0.586840 0.038081 -0.013218 118327.000000 1 0 0
-4.920025 2.062174 18.251700 19.015356 -0.396896 0.284365 0.018313 -0.009845 491730.000000 1 0 0
-15.944925 -3.577326 13.761200 21.363719 0.220701 0.870899 0.043136 -0.013437 163626.000000 1 0 0
-14.693825 2.879074 12.680000 19.620906 -0.193486 0.868137 0.013602 0.009003 281332.000000 1 0 0
-14.066425 10.805374 10.078500 20.400896 -0.655027 1.054086 -0.034436 0.021434 31616.700000 1 0 0
-3.494225 11.085574 15.926700 19.716981 -1.265449 0.630444 -0.035742 -0.003090 239529.000000 1 0 0
-13.464625 12.840174 8.162300 20.317218 -0.761664 1.157377 0.020612 -0.023186 158650.000000 1 0 0
-3.848925 -6.223426 18.701100 20.081743 1.016916 0.372971 0.020378 -0.010108 303809.000000 1 0 0
0.792175 -2.784926 18.393800 18.620291 -1.293665 0.156131 0.016369 -0.008979 298101.000000 1 0 0
-4.356925 6.363874 21.131300 22.494745 -0.970458 0.349954 0.035879 -0.003731 199374.000000 1 0 0
2.353275 -10.480026 16.301500 19.521981 -1.349912 0.582603 -0.000186 -0.014546 237347.000000 1 0 0
-15.085125 -0.232926 13.834300 20.469565 0.015440 0.828683 0.002786 0.001455 95200.100000 1 0 0
-13.996425 -5.905426 7.891300 17.118603 0.399262 1.091699 0.028324 -0.006106 67126.200000 1 0 0
10.083275 0.605074 16.848100 19.644262 0.059936 0.540094 0.025790 0.019714 515467.000000 1 0 0
-7.676325 12.144074 11.927200 18.672509 -1.007104 0.877914 0.020422 -0.012851 118269.000000 1 0 0
-2.076325 7.460774 20.455600 21.872491 -1.299366 0.361915 0.020289 0.003907 535760.000000 1 0 0
0.887175 -13.980026 15.677600 21.024161 -1.507421 0.729220 -0.018887 0.001850 476717.000000 1 0 0
-2.899025 -11.047326 17.859700 21.199449 1.314164 0.568962 0.029756 -0.020738 539814.000000 1 0 0
-2.299925 8.173174 16.719400 18.751767 -1.296491 0.469892 0.006021 -0.015946 480312.000000 1 0 0
-4.892925 -9.570926 20.669500 23.297458 1.098207 0.479556 0.058358 -0.009080 179567.000000 1 0 0
-6.814925 -2.755226 19.088900 20.455331 0.384202 0.367581 0.023570 -0.013293 203346.000000 1 0 0
-10.846525 -8.422926 15.816900 20.946768 0.660281 0.714990 0.068237 -0.011840 149100.000000 1 0 0
-0.597825 5.917674 17.703000 18.675451 -1.470114 0.324128 0.020019 -0.014038 40039.400000 1 0 0
-6.297725 -10.972026 19.331300 23.102940 1.049729 0.579482 0.066022 -0.005772 429848.000000 1 0 0
-0.039425 3.252974 18.625800 18.907772 -1.558677 0.172917 0.025811 -0.017413 -10247.200000 1 0 0
-18.450625 0.004874 7.621000 19.962595 -0.000264 1.179092 0.030396 -0.018206 138889.000000 1 0 0
-1.567825 -8.553126 17.402200 19.453807 1.389505 0.463396 0.002760 -0.015973 388304.000000 1 0 0
6.055175 3.525774 14.807100 16.381283 0.527284 0.441987 0.000573 0.001030 506558.000000 1 0 0
-13.776125 -7.022026 10.030300 18.430881 0.471397 0.995347 0.024159 -0.008361 87439.100000 1 0 0
3.675175 8.143574 17.131100 19.320955 1.146864 0.480727 0.012287 -0.001681 156500.000000 1 0 0
6.279775 4.424274 17.133600 18.776848 0.613758 0.421478 0.024683 -0.032118 198481.000000 1 0 0
3.812175 -9.594726 17.882000 20.648423 -1.192603 0.523604 -0.015110 -0.013189 370363.000000 1 0 0
-4.471125 -0.235326 20.227600 20.717194 0.052584 0.217834 0.018311 -0.006964 595331.000000 1 0 0
-11.270325 2.202174 16.649600 20.225701 -0.192965 0.603789 0.039857 -0.014475 145378.000000 1 0 0
-16.819825 -4.262726 8.834700 19.471242 0.248209 1.099849 0.036645 -0.013311 202704.000000 1 0 0
-13.247425 -9.586026 12.184100 20.392117 0.626399 0.930428 0.049419 -0.020629 209968.000000 1 0 0
-14.790825 5.869674 12.936400 20.507852 -0.377784 0.888210 0.022612 -0.017335 368052.000000 1 0 0
1.226075 9.253274 16.890100 19.297716 1.439062 0.504868 0.002771 -0.015168 231794.000000 1 0 0
-3.902525 -10.417126 15.039200 18.706249 1.212354 0.636861 0.023481 -0.016531 710036.000000 1 0 0
-18.049525 -4.327326 7.276000 19.936180 0.235306 1.197202 0.066100 -0.004834 -569656.000000 1 0 0
-0.659925 -0.624426 20.940200 20.959900 0.757766 0.043359 0.033609 -0.022277 458214.000000 1 0 0
-1.811025 2.444674 20.060500 20.289897 -0.933207 0.150515 0.028120 -0.026641 -338591.000000 1 0 0
-8.015225 1.817474 16.447400 18.386517 -0.222982 0.463404 0.007093 0.007665 546565.000000 1 0 0
2.955875 -1.540626 19.053600 19.342968 -0.480470 0.173189 0.027350 -0.003970 -91291.300000 1 0 0
-11.928725 4.073874 14.380400 19.122940 -0.329099 0.719709 -0.030079 -0.001719 202052.000000 1 0 0
-13.482325 -5.572926 13.119500 19.620190 0.391962 0.838373 0.037917 -0.006308 48542.100000 1 0 0
-17.388325 -0.739826 9.741300 19.944776 0.042522 1.060525 0.036179 -0.014506 -831308.000000 1 0 0
-7.763425 7.865674 14.569200 18.286639 -0.791940 0.648960 0.009362 -0.007545 45851.100000 1 0 0
-9.437125 0.255074 14.202400 17.053813 -0.027022 0.586651 0.004167 0.004679 206354.000000 1 0 0
7.510475 -0.956426 15.172400 16.956524 -0.126664 0.462853 0.004822 0.000516 190299.000000 1 0 0
4.093875 6.133074 18.383000 19.806795 0.982212 0.381477 0.019239 -0.006641 20516.400000 1 0 0
1.659775 0.579474 20.063400 20.140275 0.335898 0.087400 0.028680 -0.006395 212103.000000 1 0 0
-7.154025 6.908974 17.509600 20.137033 -0.767975 0.516562 0.016576 -0.008550 592313.000000 1 0 0
7.651475 -3.663126 16.661500 18.696769 -0.446502 0.470938 0.011343 0.002452 419315.000000 1 0 0
-16.325025 2.652274 9.158400 18.905483 -0.161060 1.065084 0.013186 -0.006995 134759.000000 1 0 0
3.830975 -6.042026 19.075800 20.373232 -1.005712 0.358806 0.021221 -0.027514 189528.000000 1 0 0
-3.766625 -3.681126 20.617000 21.279071 0.773919 0.250106 0.019257 -0.015976 554864.000000 1 0 0
-9.824225 5.922174 14.338900 18.362777 -0.542486 0.674743 0.015713 -0.008794 11709.900000 1 0 0
6.662475 2.401674 19.726500 20.959280 0.345978 0.344684 0.037572 -0.011867 146692.000000 1 0 0
-7.082425 11.115874 14.513500 19.605231 -1.003511 0.737299 0.014638 -0.017186 446533.000000 1 0 0
-14.575525 4.853974 9.092400 17.851575 -0.321471 1.036387 0.004805 -0.009999 18213.300000 1 0 0
0.711275 -5.722526 20.497700 21.293401 -1.447137 0.274239 0.027550 -0.018683 269868.000000 1 0 0
-5.729525 -8.435426 13.732000 17.104142 0.974152 0.638742 0.007282 -0.004421 209839.000000 1 0 0
-12.845525 10.146074 6.496600 17.611250 -0.668523 1.192983 -0.011690 -0.014918 115420.000000 1 0 0
-19.809725 2.414674 7.300700 21.249848 -0.121295 1.220086 0.042155 -0.013661 -54259.500000 1 0 0
-15.659925 9.101574 6.376300 19.202320 -0.526483 1.232311 0.002390 -0.009635 94751.300000 1 0 0
-12.947825 7.390974 14.271500 20.638517 -0.518693 0.807235 0.024236 -0.012455 200226.000000 1 0 0
-16.607425 8.455274 10.930700 21.605055 -0.470922 1.040334 0.032955 -0.016909 459889.000000 1 0 0
1.671675 11.359374 14.143400 18.217180 1.424682 0.681899 -0.019644 -0.037570 284728.000000 1 0 0
1.574075 14.913274 13.456600 20.148537 1.465637 0.839453 0.000129 -0.009583 677183.000000 1 0 0
8.950375 5.059274 16.856700 19.744716 0.514482 0.547685 0.020277 0.005760 146272.000000 1 0 0
-0.498325 13.326674 13.365300 18.880673 -1.533421 0.784300 -0.013428 0.005002 238013.000000 1 0 0
4.292975 13.475474 14.988400 20.607527 1.262385 0.756378 0.025602 0.008293 54174.400000 1 0 0
-3.619025 -4.666826 -13.800200 15.010733 0.911187 2.737235 0.002631 -0.004865 47933.200000 1 0 0
5.631075 -12.208026 16.957800 21.640515 -1.138618 0.670335 -0.012231 0.017743 162788.000000 1 0 0
8.802075 -13.910826 7.083000 17.920840 -1.006643 1.164469 0.018267 -0.004220 180875.000000 1 0 0
-0.233025 15.373174 0.540400 15.384434 -1.555640 1.535663 -0.000366 -0.006782 -291562.000000 1 0 0
-14.235225 8.142974 8.258900 18.361892 -0.519599 1.104272 0.002241 -0.005386 -142402.000000 1 0 0
-15.833025 -10.002926 4.152900 19.183059 0.563457 1.352581 0.045061 -0.013766 88214.700000 1 0 0
9.041775 -10.217626 11.558400 17.881560 -0.846376 0.867957 0.019106 0.001397 151519.000000 1 0 0
-25.128335 6.186374 31.182195 40.522015 -0.241391 0.692719 0.074632 -0.024172 -774234.000000 0 0 1
-24.013225 5.427474 30.871505 39.485975 -0.222285 0.673193 0.055513 -0.016996 -697659.000000 0 0 1
-23.341925 5.025674 32.010185 39.934381 -0.212069 0.640881 0.040065 -0.003979 -453918.000000 0 0 1
-22.040825 4.273974 31.667805 38.818999 -0.191535 0.616718 0.045375 -0.007778 -394546.000000 0 0 1
-22.239625 3.037174 31.024685 38.293033 -0.135726 0.626318 0.020044 -0.018513 842472.000000 0 0 1
-21.024725 2.264274 30.897345 37.440779 -0.107282 0.600183 0.024234 -0.017277 747708.000000 0 0 1
-20.688325 1.336874 32.074795 38.191445 -0.064530 0.573803 0.010119 -0.009844 -326002.000000 0 0 1
-21.191725 0.074574 31.752335 38.174671 -0.003519 0.588518 0.020079 0.003090 97702.600000 0 0 1
-21.395325 -0.669026 32.937726 39.282328 0.031260 0.576295 0.016437 0.003059 -185201.000000 0 0 1
-21.995125 -2.024226 32.590563 39.370392 0.091772 0.595633 0.022866 -0.022990 70436.300000 0 0 1
-21.036525 -2.843426 31.882435 38.302873 0.134352 0.587413 0.037972 -0.024136 544008.000000 0 0 1
-21.125025 -4.239026 32.098855 38.659701 0.198034 0.591164 0.044470 -0.036332 -656813.000000 0 0 1
-22.437125 -4.933626 31.671785 39.126298 0.216442 0.627538 0.041916 -0.030675 547993.000000 0 0 1
-23.584625 -4.591726 32.470863 40.394002 0.192286 0.637051 0.032607 -0.028815 425512.000000 0 0 1
-23.673025 -5.013226 33.841708 41.602953 0.208686 0.620746 0.039209 -0.028560 -315850.000000 0 0 1
-24.917125 -4.510126 -33.511220 42.002455 0.179066 2.494499 0.040091 -0.020804 469200.000000 0 0 1
-25.115475 -5.188526 -32.232170 41.190055 0.203721 2.469504 0.050196 -0.021260 49135.900000 0 0 1
-26.238795 -4.611926 -31.616190 41.344016 0.173990 2.441388 0.056996 -0.016370 -398658.000000 0 0 1
-26.473955 -5.154926 -30.184320 40.478843 0.192311 2.412353 0.044312 -0.010909 -553867.000000 0 0 1
-26.765755 -6.550226 -30.089530 40.800624 0.240007 2.400124 0.041413 -0.012189 594225.000000 0 0 1
-26.524285 -7.014226 -28.761140 39.748462 0.258527 2.379769 0.020702 -0.006406 -154793.000000 0 0 1
-26.866725 -8.511226 -28.491300 40.075130 0.306792 2.361640 0.021440 -0.005845 -101528.000000 0 0 1
-28.236785 -8.668626 -28.193830 40.833235 0.297864 2.332925 0.037149 -0.013723 -176725.000000 0 0 1
-28.616775 -9.978726 -28.468670 41.580764 0.335518 2.324933 0.033553 -0.007154 772773.000000 0 0 1
-29.980595 -10.523626 -27.897830 42.283231 0.337578 2.291329 0.075113 -0.002641 1051070.000000 0 0 1
-29.826175 -11.280226 -26.702320 41.591562 0.361572 2.267917 0.090371 -0.007269 -268100.000000 0 0 1
-31.115305 -11.545626 -26.220410 42.296259 0.355311 2.239440 0.087788 -0.008297 -139444.000000 0 0 1
-30.992265 -12.438626 -24.994200 41.712707 0.381666 2.213296 0.085586 -0.011802 -144261.000000 0 0 1
-30.619695 -11.648326 -23.877000 40.538381 0.363513 2.200614 0.090979 -0.008775 224043.000000 0 0 1
-30.279185 -12.394026 -22.768900 39.860553 0.388519 2.178780 0.089853 -0.015643 -563133.000000 0 0 1
-29.749325 -11.540426 -21.639000 38.554508 0.370051 2.166701 0.104020 -0.018750 -211722.000000 0 0 1
-29.602125 -12.089426 -20.310000 37.880550 0.387724 2.136677 0.103652 -0.012458 683470.000000 0 0 1
-28.605875 -13.130926 -20.226900 37.414499 0.430337 2.141966 0.116194 -0.013236 171522.000000 0 0 1
-28.372215 -13.443826 -18.765600 36.576861 0.442500 2.109526 0.105764 -0.016351 159644.000000 0 0 1
-27.711075 -12.358826 -18.094700 35.327927 0.419513 2.108532 0.085961 -0.015909 355646.000000 0 0 1
-27.539635 -12.498426 -16.698200 34.546664 0.426038 2.075276 0.088202 -0.017929 -3692.230000 0 0 1
-27.182875 -11.151826 -16.067700 33.487951 0.389313 2.071229 0.071673 -0.017446 308978.000000 0 0 1
-25.853005 -10.661526 -16.214700 32.325879 0.391142 2.096245 0.066514 -0.021018 609700.000000 0 0 1
-25.852135 -9.304926 -15.979700 31.784671 0.345492 2.097572 0.065603 -0.026389 -1694030.000000 0 0 1
-24.511225 -8.705526 -16.048300 30.563610 0.341269 2.123604 0.078894 -0.026525 -1342820.000000 0 0 1
-23.673925 -9.094526 -14.970600 29.449685 0.366775 2.104058 0.065491 -0.031587 157766.000000 0 0 1
-22.435725 -8.456126 -14.868800 28.212568 0.360439 2.125895 0.097114 -0.061605 349922.000000 0 0 1
-21.317325 -8.950026 -13.897400 26.975341 0.397498 2.112025 0.062931 -0.033027 152032.000000 0 0 1
-20.584125 -10.080726 -14.324400 27.028053 0.455400 2.129376 0.056890 -0.020210 151645.000000 0 0 1
-19.437925 -10.115526 -13.508100 25.741514 0.479835 2.123229 0.083679 -0.019127 -137768.000000 0 0 1
-18.348525 -11.167926 -13.815800 25.539523 0.546759 2.142372 0.090767 -0.013496 3489.170000 0 0 1
-17.532725 -10.846726 -14.907600 25.441785 0.554024 2.196848 0.104225 -0.026900 125279.000000 0 0 1
-18.086125 -11.282526 -16.147600 26.742256 0.557752 2.219085 0.083163 -0.029409 -46410.800000 0 0 1
-17.510425 -10.532526 -17.369400 26.818746 0.541522 2.275304 0.092542 -0.028014 -121099.000000 0 0 1
-18.045025 -11.077426 -18.517600 28.128878 0.550561 2.289371 0.060011 -0.019998 -21776.400000 0 0 1
-17.678025 -10.386226 -19.706200 28.438012 0.531194 2.336373 0.066980 -0.027253 -203113.000000 0 0 1
-18.514025 -10.692426 -20.969100 29.946623 0.523734 2.346496 0.066220 -0.025497 711642.000000 0 0 1
-19.888225 -10.274926 -20.921300 30.640110 0.476866 2.322395 0.058849 -0.030638 473969.000000 0 0 1
-20.553125 -10.749526 -22.017600 31.980587 0.481887 2.330170 0.055531 -0.021570 -839028.000000 0 0 1
-21.874325 -10.084026 -22.341600 32.853017 0.431962 2.318623 0.048075 -0.016265 -482992.000000 0 0 1
-21.704325 -8.726226 -22.775900 32.649140 0.382272 2.342833 0.045044 -0.029336 -79669.000000 0 0 1
-22.782425 -8.405426 -23.587800 33.853720 0.353450 2.341662 0.044156 -0.034664 -419676.000000 0 0 1
-22.231425 -7.611826 -24.786600 34.154819 0.329880 2.382867 0.033520 -0.035708 -378374.000000 0 0 1
-21.283525 -8.301826 -25.518270 34.250414 0.371907 2.411406 0.048766 -0.036686 -227647.000000 0 0 1
-20.887625 -7.505126 -26.653170 34.684452 0.344944 2.447207 0.036496 -0.038291 326201.000000 0 0 1
-19.598025 -8.042826 -27.357990 34.601000 0.389431 2.482700 0.069467 -0.036806 249911.000000 0 0 1
-19.765625 -9.309426 -27.970160 35.491903 0.440172 2.478466 0.072555 -0.034925 -298717.000000 0 0 1
-18.629925 -9.787826 -28.628470 35.531182 0.483746 2.507700 0.055376 -0.024720 -467730.000000 0 0 1
-18.916225 -11.068926 -29.429430 36.693814 0.529433 2.501478 0.067354 -0.022523 183687.000000 0 0 1
-19.537225 -10.821326 -30.727790 37.986857 0.505819 2.513085 0.071391 -0.017409 520640.000000 0 0 1
-19.461225 -12.002626 -31.480270 38.907707 0.552642 2.513417 0.054974 -0.013291 -176761.000000 0 0 1
-19.941225 -11.878126 -32.909930 40.271650 0.537220 2.527330 0.041930 -0.014203 -246763.000000 0 0 1
-19.031925 -11.418826 -33.872810 40.496555 0.540407 2.561546 0.045179 -0.016337 -324415.000000 0 0 1
-19.590225 -11.435726 32.968573 40.018490 0.528383 0.602655 0.044426 -0.018203 -128736.000000 0 0 1
-19.093725 -12.604826 32.118875 39.434428 0.583481 0.618950 0.057705 -0.017222 740544.000000 0 0 1
-17.706625 -12.399926 31.760315 38.418750 0.610926 0.597601 0.061797 -0.012774 1027320.000000 0 0 1
-17.406625 -13.016926 30.537925 37.483274 0.642101 0.618571 0.070807 -0.014426 45931.900000 0 0 1
-17.218525 -14.558926 30.538875 37.961333 0.701898 0.636008 0.066605 -0.008886 -1494830.000000 0 0 1
-18.411625 -15.244826 30.530835 38.775308 0.691582 0.664252 0.056744 -0.009178 -814353.000000 0 0 1
-18.214125 -16.658326 30.840565 39.501830 0.740814 0.674951 0.062024 -0.015501 139277.000000 0 0 1
-18.545925 -17.094926 32.284416 40.969151 0.744709 0.663214 0.050916 -0.013777 353355.000000 0 0 1
-17.579725 -16.514926 33.159535 41.004198 0.754178 0.628881 0.056858 -0.011455 349445.000000 0 0 1
-18.223925 -16.162826 -33.809800 41.670744 0.725531 2.517264 0.056025 -0.019542 470738.000000 0 0 1
-17.217325 -15.543926 -32.784800 40.160839 0.734364 2.525837 0.062979 -0.013173 229153.000000 0 0 1
-16.866725 -14.204726 -33.173970 39.834318 0.699933 2.554941 0.056244 -0.010923 515758.000000 0 0 1
-15.581425 -13.757926 -32.704390 38.750980 0.723326 2.575425 0.056789 -0.007202 943311.000000 0 0 1
-15.439525 -13.493126 -31.182810 37.320383 0.718226 2.559918 0.083869 -0.019328 -204269.000000 0 0 1
-15.622425 -14.617626 -30.354830 37.136920 0.752183 2.527638 0.071646 -0.023855 -235371.000000 0 0 1
-16.042425 -14.186626 -29.064390 36.102057 0.724084 2.506576 0.064141 -0.021452 -102565.000000 0 0 1
-16.198525 -15.410526 -28.087210 35.899413 0.760474 2.469285 0.078149 -0.021069 626755.000000 0 0 1
-14.973125 -16.032426 -27.694060 35.329790 0.819550 2.471675 0.071336 -0.027760 586853.000000 0 0 1
-14.241225 -16.735826 -28.709680 36.154475 0.865755 2.488295 0.076604 -0.027949 -864962.000000 0 0 1
-12.863525 -17.162226 -28.247040 35.466992 0.927599 2.492168 0.058194 -0.018460 -293684.000000 0 0 1
-11.915025 -16.075926 -28.218210 34.592927 0.932969 2.524773 0.056713 -0.020606 -759230.000000 0 0 1
-10.657825 -16.502026 -27.830900 34.065599 0.997344 2.526950 0.061679 -0.024229 -784990.000000 0 0 1
-9.585925 -15.628226 -28.496490 33.884824 1.020602 2.569890 0.051040 -0.029970 -231337.000000 0 0 1
-9.459525 -14.292426 -28.045060 32.867635 0.986132 2.593026 0.058241 -0.033837 -380833.000000 0 0 1
-8.434025 -14.086426 -27.107760 31.692125 1.031308 2.597016 0.066009 -0.033609 -247357.000000 0 0 1
-7.974425 -12.594126 -27.078890 30.910673 1.006332 2.638378 0.050192 -0.032183 -624984.000000 0 0 1
-7.264625 -12.234726 -28.224980 31.608745 1.034970 2.674649 0.049135 -0.029552 -160355.000000 0 0 1
-7.369225 -10.863426 -28.456550 31.338391 0.974748 2.709380 0.050993 -0.018566 -325656.000000 0 0 1
-6.706625 -10.556026 -29.776070 32.295864 1.004799 2.743954 0.051488 -0.010799 -250925.000000 0 0 1
-5.314725 -10.792326 -29.659930 32.006750 1.113204 2.756270 0.057366 -0.015210 538542.000000 0 0 1
-4.504925 -10.560426 -30.837660 32.905595 1.167584 2.785183 0.062069 -0.011488 466631.000000 0 0 1
-4.203325 -9.058726 -31.098200 32.662310 1.136354 2.830869 0.057510 -0.011248 -1125300.000000 0 0 1
-3.116925 -8.811226 -31.941640 33.280945 1.230789 2.856934 0.052027 -0.012860 -142874.000000 0 0 1
-3.111625 -7.486426 -32.423590 33.421819 1.176884 2.896572 0.032111 -0.012775 -150384.000000 0 0 1
-1.750325 -7.017426 -32.966480 33.750507 1.326358 2.925627 0.054746 -0.018788 37372.800000 0 0 1
-1.394025 -7.517926 33.867839 34.720211 1.387452 0.222040 0.054954 -0.023356 -608332.000000 0 0 1
-0.119125 -7.045626 33.575437 34.306923 1.553890 0.206872 0.075594 -0.012934 -371184.000000 0 0 1
0.423075 -7.528226 32.196748 33.067866 -1.514657 0.230043 0.072943 -0.016689 -216179.000000 0 0 1
-0.300625 -7.080326 31.095415 31.892730 1.528363 0.224075 0.070039 -0.011786 -12878.700000 0 0 1
0.315475 -7.574826 29.916895 30.862568 -1.529172 0.248190 0.072656 -0.018462 264328.000000 0 0 1
-0.222425 -6.983826 28.577435 29.419264 1.538959 0.239802 0.065013 -0.017077 144816.000000 0 0 1
0.302575 -5.662926 28.386855 28.947777 -1.517416 0.197180 0.072766 -0.023093 391066.000000 0 0 1
-0.103825 -5.317626 27.033355 27.551592 1.551274 0.194262 0.075211 -0.016343 372787.000000 0 0 1
-1.324125 -4.341826 26.957335 27.336837 1.274787 0.166821 0.060843 -0.008848 693730.000000 0 0 1
-2.533425 -5.020226 27.232365 27.806881 1.103441 0.203629 0.047545 -0.001925 -398361.000000 0 0 1
-3.688225 -4.237226 27.018605 27.596415 0.854558 0.204994 0.027786 -0.012694 1626.960000 0 0 1
-4.968025 -5.030426 27.284425 28.185569 0.791639 0.253549 0.019246 -0.008380 -189766.000000 0 0 1
-5.315725 -6.161926 26.475375 27.697865 0.858991 0.298212 0.015386 -0.006042 -584942.000000 0 0 1
-6.644725 -6.521026 26.734505 28.309184 0.776003 0.335105 0.005015 -0.011704 -52807.700000 0 0 1
-6.840625 -8.061526 26.679885 28.698408 0.867143 0.377296 0.011065 -0.007787 162759.000000 0 0 1
-6.285825 -8.607826 27.861175 29.830376 0.940059 0.365384 0.012495 -0.009275 -122899.000000 0 0 1
-6.240125 -9.996026 27.828285 30.220409 1.012729 0.400557 0.022333 -0.007828 -22418.400000 0 0 1
-5.493825 -10.631326 29.006925 31.378478 1.093832 0.391282 0.024610 -0.013632 -201653.000000 0 0 1
-5.463325 -11.994126 28.990685 31.845985 1.143378 0.426691 0.034808 -0.019579 44684.300000 0 0 1
-4.705225 -12.454726 30.090095 32.903999 1.209585 0.416572 0.048286 -0.028435 5548.800000 0 0 1
-4.680925 -14.013526 30.126885 33.554719 1.248420 0.455949 0.065355 -0.034186 1117370.000000 0 0 1
-5.993425 -14.518926 30.458585 34.270187 1.179304 0.476124 0.080809 -0.041380 872435.000000 0 0 1
-5.927425 -15.937526 30.369145 34.805518 1.214732 0.510422 0.083581 -0.042942 110342.000000 0 0 1
-6.335825 -16.714926 31.598775 36.304462 1.208478 0.514817 0.106296 -0.040278 202893.000000 0 0 1
-7.729225 -16.825226 31.822875 36.817448 1.140167 0.526955 0.102090 -0.037059 -77192.700000 0 0 1
-8.067225 -16.906526 33.175839 38.099174 1.125582 0.514018 0.112872 -0.032025 -266754.000000 0 0 1
-9.569225 -17.075526 33.396694 38.710242 1.059999 0.530142 0.118194 -0.025915 -97616.000000 0 0 1
-10.264925 -18.265026 33.090718 39.165999 1.058788 0.564448 0.107926 -0.032987 301282.000000 0 0 1
-10.592625 -18.594626 31.712545 38.257670 1.052984 0.593622 0.098326 -0.033830 -178316.000000 0 0 1
-11.076125 -20.079926 31.680755 39.109515 1.066724 0.626555 0.088231 -0.039098 -573405.000000 0 0 1
-12.219225 -20.239026 32.474972 40.169036 1.027627 0.629269 0.080887 -0.028491 -161893.000000 0 0 1
-12.668625 -21.556526 32.470126 40.981544 1.039475 0.656209 0.068638 -0.029498 -564204.000000 0 0 1
-11.939825 -22.420326 33.505692 42.045949 1.081453 0.648679 0.082055 -0.026622 -162872.000000 0 0 1
-10.639225 -22.801126 33.074670 41.557409 1.134216 0.650338 0.077716 -0.028072 352126.000000 0 0 1
-9.882825 -23.421826 -34.014482 42.464540 1.171512 2.499775 0.080179 -0.033495 387052.000000 0 0 1
-10.193425 -24.928926 -33.814320 43.229220 1.182642 2.469001 0.077095 -0.021340 -77737.200000 0 0 1
-9.748225 -25.738236 33.266136 43.175461 1.208747 0.691191 0.071094 -0.014559 -87671.000000 0 0 1
-9.424725 -27.023656 33.664811 44.186230 1.235228 0.704578 0.069946 -0.018572 -825076.000000 0 0 1
-8.909725 -27.909156 32.547156 43.790656 1.261783 0.732890 0.057894 -0.018272 276223.000000 0 0 1
-7.569525 -27.646586 32.150915 43.073341 1.303550 0.728126 0.056201 -0.026204 -113140.000000 0 0 1
-6.687325 -28.401876 32.946456 44.009724 1.339555 0.724822 0.057775 -0.028367 -70599.700000 0 0 1
-5.259025 -27.792106 33.136003 43.566652 1.383780 0.706588 0.066921 -0.033000 484034.000000 0 0 1
-5.151225 -26.544556 33.867277 43.337524 1.379119 0.673767 0.063169 -0.029641 -90199.900000 0 0 1
-4.907225 -25.419726 33.054878 41.986525 1.380094 0.664422 0.090098 -0.022950 -132271.000000 0 0 1
-4.655925 -24.077526 33.717321 41.692477 1.379782 0.628833 0.089946 -0.029565 713200.000000 0 0 1
-3.319725 -23.999626 -33.914360 41.679568 1.433345 2.521273 0.077779 -0.030512 693013.000000 0 0 1
-3.065025 -22.789726 -33.271480 40.444497 1.437107 2.536845 0.072953 -0.032676 -113135.000000 0 0 1
34.856012 -15.286426 2.019500 38.114233 -0.413299 1.517786 0.117411 -0.048920 -422892.000000 0 0 1
35.778572 -15.454626 3.062100 39.093838 -0.407744 1.492389 0.092314 -0.044483 89891.600000 0 0 1
35.170772 -16.172726 4.116200 38.929210 -0.431002 1.464863 0.094010 -0.039911 165817.000000 0 0 1
36.061972 -16.417126 5.345200 39.981984 -0.427209 1.436705 0.070538 -0.025689 -53161.300000 0 0 1
-36.190735 -17.196026 5.319300 40.419890 0.443571 1.438812 0.101593 -0.027059 15197.700000 0 0 1
-35.635103 -17.255226 6.623900 40.143236 0.450944 1.405032 0.084510 -0.023160 -227767.000000 0 0 1
-34.352503 -18.075126 6.771400 39.403762 0.484361 1.398093 0.070179 -0.031114 -460819.000000 0 0 1
-34.454378 -19.474026 6.647000 40.131340 0.514447 1.404398 0.081861 -0.034341 -35684.600000 0 0 1
-33.346705 -20.085926 7.262400 39.600373 0.542135 1.386360 0.068638 -0.025830 31486.400000 0 0 1
-33.507505 -21.604326 7.228400 40.518508 0.572683 1.391439 0.060542 -0.020526 -103216.000000 0 0 1
-33.400275 -22.226026 5.978700 40.562537 0.587156 1.422863 0.087627 -0.027828 237267.000000 0 0 1
-33.774895 -23.571326 6.137000 41.641490 0.609312 1.422880 0.098376 -0.033561 -8626.790000 0 0 1
-33.194105 -24.512326 4.997500 41.565343 0.636071 1.450272 0.106894 -0.031026 347032.000000 0 0 1
-34.009055 -24.519826 3.814500 42.099739 0.624668 1.480066 0.114322 -0.030405 783638.000000 0 0 1
-33.375965 -25.396496 2.857500 42.036916 0.650454 1.502768 0.105098 -0.024659 356602.000000 0 0 1
-33.772665 -25.097646 1.391900 42.100144 0.639093 1.537729 0.107713 -0.022179 -125765.000000 0 0 1
-35.094358 -25.475196 1.058500 43.378796 0.627902 1.546393 0.104702 -0.014883 19811.300000 0 0 1
-35.531879 -24.665926 -0.029000 43.254169 0.606817 1.571467 0.100516 -0.011539 -319158.000000 0 0 1
-36.606435 -23.653526 0.415800 43.585470 0.573669 1.561256 0.105344 -0.014721 -307484.000000 0 0 1
35.516542 -24.126726 0.105000 42.936403 -0.596704 1.568351 0.088724 -0.003731 -88272.700000 0 0 1
34.520202 -23.334626 0.773800 41.674307 -0.594416 1.552227 0.112993 -0.017462 194311.000000 0 0 1
33.120772 -23.799426 0.347200 40.786257 -0.623077 1.562284 0.069526 -0.006428 -192682.000000 0 0 1
32.826012 -23.613626 -1.010500 40.449617 -0.623600 1.595781 0.075839 -0.015230 462571.000000 0 0 1
31.420382 -23.514726 -1.270200 39.265712 -0.642470 1.603151 0.068149 -0.007157 844684.000000 0 0 1
31.045602 -23.070026 -2.702100 38.773146 -0.639071 1.640543 0.063513 -0.003038 -138756.000000 0 0 1
31.301962 -21.740726 -3.048200 38.233016 -0.607058 1.650608 0.097591 -0.026932 -35778.300000 0 0 1
31.102622 -21.471926 -4.370100 38.046215 -0.604225 1.685913 0.089594 -0.039543 14998.200000 0 0 1
31.125602 -19.984326 -4.586600 37.272152 -0.570769 1.694166 0.094593 -0.040834 682787.000000 0 0 1
29.958852 -19.362126 -4.023400 35.897249 -0.573763 1.683113 0.096237 -0.049411 660537.000000 0 0 1
29.854962 -17.977526 -4.308900 35.115194 -0.542008 1.693814 0.096219 -0.046139 547519.000000 0 0 1
28.841302 -17.351026 -3.246400 33.814463 -0.541598 1.666951 0.103079 -0.043078 441737.000000 0 0 1
29.321602 -17.073126 -1.931500 33.984977 -0.527282 1.627661 0.104379 -0.035474 203712.000000 0 0 1
29.843502 -18.148326 -1.079100 34.945111 -0.546366 1.601681 0.101028 -0.023902 40801.200000 0 0 1
28.945792 -19.424026 -0.874200 34.869986 -0.591030 1.595869 0.095458 -0.021815 -186773.000000 0 0 1
28.023162 -19.086326 0.125100 33.905768 -0.597922 1.567107 0.090302 -0.006258 -40488.800000 0 0 1
27.322762 -20.285426 0.526800 34.033944 -0.638643 1.555317 0.067449 -0.002203 266030.000000 0 0 1
26.201162 -20.054826 1.592800 33.033830 -0.653295 1.522560 0.068608 0.008754 -179356.000000 0 0 1
25.515762 -21.260026 1.887500 33.265680 -0.694666 1.514026 0.054256 0.019277 -628598.000000 0 0 1
24.526062 -21.119726 2.815100 32.488388 -0.710911 1.484038 0.037165 0.020023 644822.000000 0 0 1
23.077362 -20.673126 2.326000 31.070131 -0.730500 1.495863 0.015975 0.017500 604090.000000 0 0 1
22.982262 -19.323326 1.864100 30.084052 -0.699125 1.508794 0.056838 -0.004809 240890.000000 0 0 1
22.897262 -18.329326 2.883900 29.471438 -0.675048 1.472785 0.078379 -0.002174 -346944.000000 0 0 1
22.869162 -16.880126 2.349700 28.521191 -0.635853 1.488318 0.065371 0.002502 -705691.000000 0 0 1
21.651762 -16.533326 1.805800 27.302208 -0.652150 1.504607 0.056593 -0.003310 -870819.000000 0 0 1
21.704162 -15.182426 1.357600 26.522062 -0.610402 1.519586 0.075760 -0.011838 636396.000000 0 0 1
20.302162 -14.597726 0.949300 25.023440 -0.623379 1.532851 0.061457 -0.009555 633819.000000 0 0 1
19.451362 -14.451426 2.090100 24.322165 -0.638975 1.484756 0.061068 -0.010922 298802.000000 0 1 0
18.549562 -13.360926 1.970000 22.945185 -0.624209 1.484834 0.078700 -0.020354 -198684.000000 0 1 0
19.133262 -11.978626 2.309700 22.691494 -0.559363 1.468833 0.100016 -0.019307 -597033.000000 0 1 0
19.974262 -11.475626 1.317400 23.073723 -0.521474 1.513670 0.100153 -0.018738 427572.000000 0 1 0
20.569662 -10.226326 1.707400 23.034842 -0.461370 1.496606 0.112656 -0.024437 -89549.400000 0 1 0
21.466962 -9.617826 0.628000 23.531414 -0.421214 1.544105 0.127497 -0.019493 -59781.700000 0 1 0
20.722962 -9.173026 -0.488100 22.667682 -0.416725 1.592331 0.122468 -0.014126 790348.000000 0 1 0
21.625462 -8.652526 -1.469900 23.338539 -0.380600 1.633820 0.121989 -0.013900 -140927.000000 0 1 0
20.907762 -8.165026 -2.696400 22.606918 -0.372313 1.690354 0.137115 -0.010687 -80182.700000 0 1 0
21.737062 -7.583726 -3.717600 23.320234 -0.335681 1.730895 0.133738 -0.011489 757702.000000 0 1 0
22.670662 -8.444326 -4.389900 24.587330 -0.356558 1.750302 0.118348 -0.008136 -191553.000000 0 1 0
22.144462 -9.700026 -5.221700 24.733254 -0.412859 1.783518 0.094864 -0.010477 -1581.820000 0 1 0
21.549062 -9.415226 -6.530300 24.406011 -0.411924 1.841666 0.084008 -0.015707 458042.000000 0 1 0
20.212962 -8.984826 -6.428400 23.035088 -0.418278 1.853622 0.087625 -0.012370 -479943.000000 0 1 0
19.375762 -9.056126 -7.706700 22.733825 -0.437225 1.916647 0.077500 -0.005996 -293680.000000 0 1 0
19.284362 -10.340026 -8.285700 23.397769 -0.492176 1.932773 0.071465 -0.007677 1223270.000000 0 1 0
20.456562 -10.789426 -9.010200 24.820684 -0.485351 1.942294 0.059942 -0.002689 529526.000000 0 1 0
20.358662 -12.246026 -9.569100 25.612652 -0.541532 1.953692 0.040586 -0.005355 -185129.000000 0 0 1
19.326162 -12.488626 -10.504000 25.294275 -0.573701 1.999038 0.066737 -0.002099 180428.000000 0 0 1
19.371462 -13.801126 -11.028100 26.217239 -0.619030 2.004950 0.068974 -0.001494 -156491.000000 0 0 1
18.174162 -14.078526 -11.943700 25.906699 -0.659088 2.049949 0.082697 -0.006382 -10626.200000 0 0 1
18.194662 -15.450426 -12.207900 26.810338 -0.704014 2.043554 0.077362 -0.010277 414949.000000 0 0 1
17.170362 -15.706026 -13.164400 26.735781 -0.740887 2.085629 0.083320 -0.008361 134525.000000 0 0 1
17.057062 -17.217426 -13.633500 27.807471 -0.790077 2.083209 0.066951 -0.009170 -180808.000000 0 0 1
16.330062 -18.057226 -12.753300 27.484195 -0.835583 2.053328 0.058117 -0.004104 330920.000000 0 0 1
16.551462 -19.408426 -13.073700 28.662860 -0.864680 2.044427 0.056944 -0.007873 -610727.000000 0 0 1
15.517862 -20.266126 -12.387500 28.371994 -0.917320 2.022624 0.041442 -0.012313 175381.000000 0 0 1
14.189162 -19.995326 -12.850600 27.681822 -0.953640 2.053556 0.045933 -0.022685 163045.000000 0 0 1
13.270462 -20.632526 -11.992800 27.306291 -0.999229 2.025499 0.045981 -0.017817 -220823.000000 0 0 1
11.811962 -20.273826 -12.290300 26.487770 -1.043253 2.053301 0.051327 -0.016643 440742.000000 0 0 1
10.883762 -20.836626 -11.323000 26.092750 -1.089438 2.019671 0.051256 -0.019618 105143.000000 0 0 1
9.542562 -20.716626 -11.729600 25.648052 -1.139143 2.045786 0.057377 -0.019132 -327258.000000 0 0 1
8.612762 -21.170126 -10.626500 25.204690 -1.184411 2.006014 0.056261 -0.022103 -478709.000000 0 0 1
8.572562 -22.579026 -10.488500 26.330778 -1.207938 1.980498 0.069072 -0.020192 -280133.000000 0 0 1
7.826062 -22.988426 -9.387200 26.035255 -1.242668 1.939662 0.065572 -0.027942 -47054.400000 0 0 1
7.641162 -24.521326 -9.306500 27.318377 -1.268720 1.918424 0.063087 -0.024161 742419.000000 0 0 1
8.939962 -25.094206 -9.168300 28.172678 -1.228559 1.902265 0.049707 -0.011359 194465.000000 0 0 1
8.947262 -26.432326 -9.488900 29.474745 -1.244406 1.898567 0.035928 -0.010010 -180696.000000 0 0 1
10.324262 -27.081736 -9.363900 30.458060 -1.206578 1.883294 0.032113 -0.009652 -232563.000000 0 0 1
10.832062 -27.118396 -8.015600 30.281856 -1.190776 1.838689 0.039631 -0.012108 731663.000000 0 0 1
12.096762 -27.809226 -8.101400 31.389765 -1.160494 1.831842 0.036240 -0.002218 563604.000000 0 0 1
12.828662 -28.179316 -6.772000 31.693980 -1.143584 1.786125 0.028186 -0.010243 262744.000000 0 0 1
12.336962 -29.319486 -6.018200 32.373625 -1.172508 1.757782 0.033889 -0.016690 -549585.000000 0 0 1
10.986162 -29.442726 -5.721000 31.942131 -1.213660 1.750873 0.044366 -0.011420 -899162.000000 0 0 1
10.568762 -30.347446 -4.521000 32.451589 -1.235674 1.710566 0.055830 -0.011682 19741.500000 0 0 1
10.652762 -31.747586 -4.820600 33.832362 -1.247056 1.713768 0.051888 -0.018582 61345.600000 0 0 1
9.686662 -32.182626 -5.782300 34.102607 -1.278431 1.741175 0.060800 -0.020250 25268.000000 0 0 1
9.687162 -33.714146 -6.066700 35.599011 -1.291001 1.742050 0.059992 -0.018406 -104910.000000 0 0 1
9.171862 33.730729 -5.002400 35.311601 1.305301 1.712939 0.061340 -0.021154 61397.100000 0 0 1
9.609862 32.362543 -5.087700 34.140421 1.282146 1.720376 0.062263 -0.013345 403015.000000 0 0 1
8.944862 31.503655 -3.924100 32.983169 1.294146 1.690052 0.058959 -0.013001 628975.000000 0 0 1
7.604462 31.109405 -4.145700 32.292565 1.331055 1.699531 0.048829 -0.007889 -429192.000000 0 0 1
7.179362 30.126805 -3.245400 31.140010 1.336855 1.675206 0.043632 -0.009934 1177410.000000 0 0 1
5.775262 29.551455 -3.723600 30.339864 1.377798 1.693836 0.043335 -0.008342 1035730.000000 0 0 1
5.760362 28.813185 -4.893300 29.788014 1.373477 1.735815 0.048935 -0.020631 -70556.000000 0 0 1
5.397262 29.594885 -6.016800 30.678813 1.390407 1.768198 0.040293 -0.013684 -17739.300000 0 0 1
5.724062 28.939625 -7.445200 30.425282 1.375524 1.818011 0.049262 -0.017857 -222954.000000 0 0 1
4.963462 27.797615 -7.720100 29.273594 1.394101 1.837675 0.074596 -0.030230 -271880.000000 0 0 1
5.412862 26.643965 -7.055400 28.088763 1.370369 1.824698 0.068232 -0.032275 -42311.900000 0 0 1
4.423862 25.439915 -7.201800 26.807196 1.398623 1.842789 0.078814 -0.043788 926818.000000 0 0 1
3.059762 25.604975 -6.780100 26.663583 1.451862 1.827903 0.075960 -0.039493 1086100.000000 0 0 1
2.138762 26.242325 -7.710000 27.434978 1.489476 1.855662 0.076674 -0.039670 382806.000000 0 0 1
1.756962 25.553715 -8.982900 27.143540 1.502149 1.908097 0.093664 -0.043619 -468364.000000 0 0 1
2.734862 25.390565 -10.004100 27.427036 1.463498 1.944164 0.088567 -0.045274 -177080.000000 0 0 1
2.290862 24.716985 -11.145900 27.210448 1.478377 1.992832 0.104084 -0.041803 -499028.000000 0 0 1
1.977962 23.218055 -11.082400 25.803294 1.485811 2.014730 0.108616 -0.038359 515033.000000 0 0 1
0.749562 22.878955 -10.421200 25.151736 1.538046 1.998006 0.107549 -0.031313 332829.000000 0 0 1
0.574062 21.484355 -10.354000 23.856076 1.544083 2.019746 0.064270 -0.027955 -685399.000000 0 1 0
-0.527738 21.086255 -9.367300 23.079319 -1.545774 1.988731 0.069918 -0.015403 2047640.000000 0 1 0
-1.925038 21.191355 -9.822000 23.436104 -1.480204 2.003247 0.070898 -0.016894 1531780.000000 0 1 0
-2.856538 20.625955 -8.943600 22.662255 -1.433179 1.976480 0.054493 -0.011679 -134446.000000 0 1 0
-4.132038 20.201755 -9.661300 22.771152 -1.369041 2.008961 0.059150 -0.020231 334164.000000 0 1 0
-5.100238 19.378755 -8.981100 21.959252 -1.313445 1.992143 0.052632 -0.028771 866987.000000 0 1 0
-6.031938 18.856755 -9.947500 22.156585 -1.261200 2.036401 0.058574 -0.031002 -286006.000000 0 1 0
-6.992238 17.759455 -9.462700 21.303341 -1.195716 2.031065 0.057912 -0.026749 409962.000000 0 1 0
-8.068538 18.170155 -8.609000 21.664965 -1.152898 1.979445 0.078684 -0.023408 626440.000000 0 1 0
-9.211038 18.574755 -9.390600 22.760670 -1.110442 1.996081 0.087749 -0.024105 -85249.800000 0 1 0
-10.357038 18.934355 -8.440900 23.173839 -1.070262 1.943616 0.110703 -0.032356 -192437.000000 0 1 0
-10.642438 17.883055 -7.554400 22.138972 -1.033978 1.919018 0.098283 -0.025193 -409876.000000 0 1 0
-11.592338 18.274455 -6.582000 22.619919 -1.005504 1.866050 0.105519 -0.019071 222117.000000 0 1 0
-12.071738 17.253855 -5.597000 21.788731 -0.960302 1.830585 0.091660 -0.018835 10119.700000 0 1 0
-12.992538 17.666655 -4.624600 22.412132 -0.936687 1.778633 0.096745 -0.013408 -129639.000000 0 1 0
-13.221438 16.629255 -3.696800 21.563972 -0.899068 1.743081 0.078449 -0.008618 220249.000000 0 1 0
-14.499538 16.908955 -2.855400 22.456684 -0.861961 1.698293 0.065516 -0.004793 224128.000000 0 1 0
-15.705638 16.857555 -3.575700 23.315871 -0.820758 1.724763 0.101819 -0.023043 -84096.400000 0 1 0
-16.853038 17.159155 -2.808400 24.214636 -0.794398 1.687037 0.091028 -0.021053 358298.000000 0 1 0
-18.108338 17.133055 -3.748500 25.209219 -0.757731 1.720045 0.086039 -0.037164 187455.000000 0 0 1
-18.244238 18.108555 -4.808100 26.151287 -0.781666 1.755705 0.088444 -0.037290 377810.000000 0 0 1
-19.632838 18.278755 -5.088500 27.303004 -0.749696 1.758264 0.058430 -0.036560 622555.000000 0 0 1
-19.939038 19.186455 -6.296100 28.378269 -0.766165 1.794521 0.046688 -0.021203 -46226.200000 0 0 1
-19.318938 20.447755 -6.160900 28.797374 -0.813777 1.786403 0.055344 -0.022680 55826.800000 0 0 1
-19.324538 21.222555 -7.406000 29.642595 -0.832174 1.823315 0.043876 -0.010823 42421.400000 0 0 1
-19.106238 22.749655 -7.219000 30.573012 -0.872226 1.809171 0.047505 -0.009891 376152.000000 0 0 1
-17.848638 23.214015 -6.740100 30.048183 -0.915325 1.797031 0.065511 -0.019525 302851.000000 0 0 1
-17.985638 24.214495 -5.745200 30.705574 -0.931943 1.759012 0.055261 -0.018739 323815.000000 0 0 1
-16.583938 24.631185 -5.215000 30.148275 -0.978222 1.744649 0.068128 -0.021140 83606.200000 0 0 1
-16.547238 25.531045 -4.131900 30.703712 -0.995742 1.705779 0.049866 -0.023567 784265.000000 0 0 1
-15.194638 25.879135 -3.784100 30.247745 -1.039887 1.696229 0.066456 -0.026427 880124.000000 0 0 1
-14.595538 27.050655 -4.572700 31.075348 -1.076001 1.718481 0.070711 -0.025106 -110437.000000 0 0 1
-15.218738 28.312745 -4.248400 32.423301 -1.077583 1.702203 0.082084 -0.024175 171412.000000 0 0 1
-14.671938 29.319745 -5.055900 33.173413 -1.106820 1.723801 0.072099 -0.024577 -166482.000000 0 0 1
-15.160738 30.705615 -4.691800 34.564371 -1.112165 1.706958 0.069701 -0.022467 -18226.000000 0 0 1
-16.562538 30.875445 -4.731800 35.355349 -1.078431 1.705035 0.088163 -0.019977 53666.600000 0 0 1
-16.969738 32.129495 -4.204600 36.578069 -1.084870 1.686000 0.087374 -0.022346 -63112.200000 0 0 1
12.794975 -8.621926 18.861065 24.367781 -0.592961 0.685636 0.093621 -0.021243 -87547.300000 0 1 0
13.777575 -9.609626 19.067865 25.411611 -0.609035 0.722189 0.092541 -0.020579 -106270.000000 0 0 1
13.682875 -10.831226 18.345965 25.320169 -0.669592 0.760402 0.084482 -0.019891 -200933.000000 0 0 1
14.051475 -12.102226 19.036765 26.576423 -0.711005 0.772307 0.107609 -0.031310 -1143370.000000 0 0 1
15.362175 -12.103426 19.496765 27.615452 -0.667302 0.786949 0.092777 -0.027714 -298869.000000 0 0 1
15.693475 -13.277326 20.232965 28.843464 -0.702191 0.793332 0.093011 -0.024019 -289745.000000 0 0 1
16.189175 -14.439726 19.404765 29.105669 -0.728343 0.841023 0.098016 -0.025358 -783578.000000 0 0 1
15.229775 -14.874026 18.490865 28.197425 -0.773581 0.855602 0.105538 -0.033389 107611.000000 0 0 1
15.701375 -16.003026 17.879165 28.675679 -0.794912 0.897590 0.107100 -0.032587 -327517.000000 0 0 1
15.009775 -16.302426 16.531065 27.646673 -0.826657 0.929867 0.099450 -0.028937 -225498.000000 0 0 1
13.605175 -16.432926 16.625165 27.046958 -0.879260 0.908819 0.113523 -0.026616 12260.600000 0 0 1
13.032075 -16.156126 15.369765 25.827990 -0.892024 0.933429 0.122739 -0.029011 -225830.000000 0 0 1
12.416075 -17.412526 14.681865 25.940550 -0.951363 0.969173 0.090417 -0.018892 -5435.660000 0 0 1
13.442875 -18.241626 14.203165 26.743181 -0.935710 1.010904 0.086878 -0.019903 731688.000000 0 0 1
12.817675 -19.373226 13.628565 26.932368 -0.986297 1.040222 0.079148 -0.022442 322468.000000 0 0 1
13.896075 -20.146426 12.826565 27.631507 -0.966980 1.088064 0.073869 -0.025504 507702.000000 0 0 1
14.869075 -20.780926 13.661665 28.975462 -0.949733 1.079816 0.051968 -0.017517 340329.000000 0 0 1
15.309075 -21.962426 13.072265 29.792617 -0.962048 1.116561 0.031577 -0.010698 -73571.300000 0 0 1
16.132575 -22.921826 13.969465 31.317983 -0.957519 1.108446 0.023595 -0.015664 -164010.000000 0 0 1
17.384475 -22.478026 14.413265 31.862577 -0.912487 1.101390 0.030690 -0.013523 -242282.000000 0 0 1
17.872575 -23.264726 15.476765 33.169363 -0.915732 1.085356 0.030994 -0.019407 -245994.000000 0 0 1
19.251775 -22.791326 15.927565 33.819561 -0.869389 1.080421 0.034721 -0.012543 313864.000000 0 0 1
20.362275 -23.022826 15.045465 34.220444 -0.846646 1.115573 0.016767 -0.021977 -133748.000000 0 0 1
21.538575 -22.502626 15.584865 34.830539 -0.807284 1.106886 0.028902 -0.019817 -84568.900000 0 0 1
22.772375 -23.066426 14.813765 35.638304 -0.791813 1.142117 0.017923 -0.025938 -15683.900000 0 0 1
23.104475 -24.322026 15.287065 36.865595 -0.811065 1.143216 0.025458 -0.021957 -751354.000000 0 0 1
24.205975 -24.840526 14.671565 37.659471 -0.798335 1.170615 0.029699 -0.023390 -997397.000000 0 0 1
24.753675 -26.123286 15.322665 39.114634 -0.812312 1.168277 0.044650 -0.016056 -139314.000000 0 0 1
25.155475 -25.982486 16.702565 39.835451 -0.801569 1.138134 0.038108 -0.008441 531877.000000 0 0 1
25.643075 -27.258626 17.243265 41.205948 -0.815927 1.139041 0.040540 0.003189 107790.000000 0 0 1
26.271875 -27.218406 18.645865 42.174890 -0.803092 1.112849 0.028020 0.016278 340962.000000 0 0 1
25.342575 -26.790946 19.683465 41.802389 -0.813173 1.080520 0.034819 0.017367 716345.000000 0 0 1
25.925175 -26.712816 20.975665 42.727834 -0.800360 1.057658 0.036905 0.017240 -246419.000000 0 0 1
24.823675 -26.261336 21.966865 42.289665 -0.813533 1.024603 0.027552 0.006603 104649.000000 0 0 1
24.054175 -27.456086 22.030765 42.635603 -0.851346 1.027778 0.036173 0.008861 443606.000000 0 0 1
22.983275 -27.362596 23.006065 42.499666 -0.872164 0.998786 0.040929 0.006512 529800.000000 0 0 1
22.238375 -28.642096 23.170125 43.032194 -0.910598 1.002215 0.084015 0.001349 -888893.000000 0 0 1
23.147675 -29.561466 23.668065 44.383245 -0.906486 1.008340 0.066220 -0.003011 121071.000000 0 0 1
22.874075 -30.951626 23.388415 45.036035 -0.934355 1.024733 0.077322 -0.010960 -249913.000000 0 0 1
23.840375 -31.904426 24.116735 46.560421 -0.929062 1.026324 0.049842 -0.009263 -35762.000000 0 0 1
23.760275 -31.918826 25.537535 47.281369 -0.930891 1.000219 0.050219 -0.010720 260984.000000 0 0 1
24.909275 -32.551216 26.078845 48.581476 -0.917617 1.004149 0.051914 -0.013772 -627689.000000 0 0 1
24.761475 -32.921406 27.585955 49.577561 -0.925928 0.980725 0.056071 -0.027528 -75998.100000 0 0 1
24.011875 -34.025136 27.955905 50.157877 -0.956248 0.979596 0.035871 -0.012729 -484661.000000 0 0 1
22.711575 34.088015 27.469605 49.319242 0.983073 0.980057 0.041578 -0.008019 -1215850.000000 0 0 1
21.860675 32.962326 28.039495 48.483166 0.985196 0.954110 0.070981 -0.027477 -271643.000000 0 0 1
21.553575 33.126104 29.401195 49.257747 0.993963 0.931184 0.061569 -0.038731 37765.300000 0 0 1
21.113275 31.878165 29.933995 48.559570 0.985815 0.906585 0.069244 -0.043535 363211.000000 0 0 1
20.625875 32.038405 31.406375 49.378604 0.998802 0.881451 0.051156 -0.044374 607426.000000 0 0 1
21.812575 32.287952 32.157181 50.521130 0.976659 0.880832 0.038402 -0.031357 699216.000000 0 0 1
21.553975 32.751967 33.450610 51.538418 0.988750 0.864472 0.032384 -0.032572 48156.200000 0 0 1
22.880575 32.569593 -33.943960 52.311486 0.958386 2.276910 0.006815 -0.018465 171105.000000 0 0 1
23.182175 31.162905 -33.782230 51.476004 0.931209 2.286663 0.019627 -0.019146 716450.000000 0 0 1
24.449975 30.924285 -33.148810 51.506857 0.901789 2.269964 0.011897 -0.004095 554000.000000 0 0 1
24.677475 29.427385 -32.982000 50.623721 0.872964 2.280373 0.028458 -0.020684 -183181.000000 0 0 1
24.885575 28.779865 33.955097 50.995305 0.857837 0.842167 0.043801 -0.030949 -239.832000 0 0 1
24.252975 27.552235 33.878519 49.950841 0.848998 0.825435 0.053439 -0.041098 -306888.000000 0 0 1
24.415875 26.799195 32.573597 48.737778 0.831900 0.838816 0.077841 -0.041722 586851.000000 0 0 1
25.742175 26.293235 32.362397 49.003250 0.795988 0.849427 0.065823 -0.045547 848958.000000 0 0 1
25.834475 25.501115 31.247095 47.896847 0.778905 0.860072 0.090592 -0.054194 -27922.700000 0 0 1
27.274175 24.944505 31.220005 48.381791 0.740814 0.869401 0.076411 -0.042044 -135674.000000 0 0 1
27.466175 23.885565 32.105495 48.535284 0.715784 0.847996 0.106004 -0.047334 -160893.000000 0 0 1
28.631575 23.955845 32.874064 49.742876 0.696718 0.848806 0.114653 -0.058615 -1251890.000000 0 0 1
28.452575 23.194275 -33.971840 50.016091 0.683935 2.317493 0.094381 -0.055476 -184834.000000 0 0 1
27.562575 23.798265 -32.987190 49.134587 0.712238 2.306844 0.092541 -0.050066 1225050.000000 0 0 1
26.191375 23.928955 -33.362420 48.699426 0.740289 2.325493 0.098187 -0.048280 134314.000000 0 0 1
25.436675 22.526355 -33.513660 47.724486 0.724794 2.349324 0.088926 -0.050882 -922699.000000 0 0 1
25.304875 21.893455 -32.303540 46.509986 0.713245 2.338591 0.072724 -0.056290 254283.000000 0 0 1
25.287375 20.499155 -32.411010 45.936263 0.681200 2.354016 0.072122 -0.042358 -171093.000000 0 0 1
25.137075 19.687755 -31.090120 44.565411 0.664423 2.342879 0.071379 -0.046803 -438538.000000 0 0 1
23.867875 19.729355 -30.492000 43.459004 0.690756 2.348474 0.061401 -0.031956 8378.390000 0 0 1
23.836275 18.876555 -29.361770 42.268261 0.669798 2.338734 0.067584 -0.028214 -1339410.000000 0 0 1
22.489475 18.648455 -28.754010 40.991883 0.692299 2.348235 0.078863 -0.031927 -1177610.000000 0 0 1
22.474575 17.956655 -27.499560 39.796656 0.674116 2.333670 0.084848 -0.029853 8872.900000 0 0 1
22.947775 18.790855 -26.465650 39.750815 0.686131 2.299347 0.079270 -0.009760 -166139.000000 0 0 1
22.972675 18.148255 -25.031270 38.518404 0.668609 2.278186 0.081087 0.001902 -121563.000000 0 0 1
23.832975 17.049655 -24.915400 38.463991 0.620974 2.275436 0.101182 -0.027310 86222.000000 0 0 1
23.673975 16.462455 -23.620400 37.274560 0.607620 2.257106 0.112299 -0.018800 -49661.800000 0 0 1
24.635475 15.281755 -23.452800 37.289040 0.555223 2.250993 0.129991 -0.028295 -379437.000000 0 0 1
25.982475 15.571255 -23.166800 38.134678 0.539903 2.223705 0.146177 -0.036822 287466.000000 0 0 1
26.840775 14.418655 -23.145700 38.262884 0.492957 2.220452 0.143690 -0.045138 406620.000000 0 0 1
26.728675 13.559955 -21.862700 37.098142 0.469485 2.201014 0.130365 -0.034488 -246046.000000 0 0 1
25.542275 12.777455 -21.905500 35.993362 0.463845 2.225089 0.118934 -0.024894 47977.500000 0 0 1
25.199975 12.148155 -20.690000 34.795007 0.449201 2.207596 0.100848 -0.029775 -149546.000000 0 0 1
23.696975 11.805955 -20.829900 33.686970 0.462211 2.237421 0.092351 -0.024965 -366779.000000 0 0 1
22.991775 12.983855 -20.720500 33.563989 0.514072 2.236157 0.117423 -0.022027 -815585.000000 0 0 1
21.637775 12.710355 -20.989800 32.715717 0.531114 2.267355 0.090517 -0.024063 296307.000000 0 0 1
20.603675 13.854355 -20.748700 32.356810 0.591976 2.266918 0.090977 -0.022652 -321186.000000 0 0 1
20.943175 14.952655 -21.620600 33.610249 0.620036 2.269563 0.073070 -0.014451 168283.000000 0 0 1
19.913375 15.849755 -21.935100 33.599194 0.672257 2.282132 0.058746 -0.009696 -142284.000000 0 0 1
18.683175 15.387255 -22.750400 33.217606 0.688960 2.325249 0.046083 0.002297 202845.000000 0 0 1
17.694675 14.781555 -21.893800 31.795194 0.695938 2.330337 0.046877 -0.014314 929631.000000 0 0 1
16.690275 14.177055 -22.741800 31.571247 0.704157 2.375078 0.057573 -0.026570 693242.000000 0 0 1
15.401875 13.602155 -22.089200 30.169010 0.723427 2.392316 0.026536 -0.025333 962051.000000 0 0 1
14.286675 13.780855 -22.985500 30.370286 0.767379 2.429264 0.032316 -0.021623 461346.000000 0 0 1
13.103275 13.201655 -22.455100 29.158378 0.789138 2.449807 0.047592 -0.020809 793065.000000 0 0 1
11.816375 13.528755 -23.299200 29.419495 0.852858 2.484816 0.057091 -0.024060 583776.000000 0 0 1
11.391075 14.917055 -23.326400 29.939874 0.918630 2.464038 0.038220 -0.021087 241943.000000 0 0 1
11.158475 15.260455 -24.657100 31.070334 0.939435 2.487483 0.046101 -0.029393 -755166.000000 0 0 1
11.072275 16.814355 -24.744500 31.899970 0.988468 2.458605 0.043316 -0.028211 304407.000000 0 0 1
12.309475 17.504455 -24.480300 32.514831 0.957913 2.423248 0.051520 -0.027850 1887590.000000 0 0 1
13.448975 17.239955 -25.376790 33.497350 0.908305 2.430388 0.048994 -0.040020 814287.000000 0 0 1
13.170875 17.548455 -26.892410 34.707664 0.926948 2.457237 0.062807 -0.045545 -271294.000000 0 0 1
14.323175 17.270855 -27.675110 35.627903 0.878427 2.460336 0.051120 -0.044812 204686.000000 0 0 1
13.912875 17.094055 -29.040080 36.456838 0.887636 2.492381 0.064969 -0.041988 -8489.210000 0 0 1
14.926575 17.374255 -30.194120 37.899238 0.861031 2.492603 0.057918 -0.040982 -72864.100000 0 0 1
15.951675 16.405355 -30.226620 37.910951 0.799418 2.493615 0.042349 -0.034760 -434985.000000 0 0 1
16.841375 16.803055 -31.233930 39.262361 0.784259 2.490659 0.044687 -0.027490 -46143.600000 0 0 1
18.049775 15.817855 -31.332410 39.467947 0.719592 2.487943 0.053718 -0.025615 -182473.000000 0 0 1
18.981175 15.957255 -30.258560 39.121598 0.699063 2.455061 0.060864 -0.033856 1076230.000000 0 0 1
20.215775 15.324955 -30.664040 39.797175 0.648645 2.450434 0.059296 -0.030773 787963.000000 0 0 1
21.359075 16.154355 -31.262670 41.164643 0.647535 2.433270 0.062722 -0.032989 -263488.000000 0 0 1
21.083775 16.583755 -32.587200 42.207489 0.666495 2.452891 0.050431 -0.029340 30523.900000 0 0 1
22.282375 17.170255 -32.985730 43.351820 0.656540 2.435472 0.062324 -0.025815 -183042.000000 0 0 1
22.245675 17.514455 33.712918 44.024846 0.666961 0.698558 0.061188 -0.010244 313354.000000 0 0 1
23.263675 18.495055 33.502808 44.785085 0.671696 0.725633 0.075437 -0.016089 437206.000000 0 0 1
23.308475 18.812455 32.119045 43.918408 0.679060 0.750520 0.088989 -0.019124 -690319.000000 0 0 1
24.314875 19.861855 31.653015 44.582730 0.684937 0.781321 0.099298 -0.025523 -57834.400000 0 0 1
25.668575 19.444555 31.789815 45.249959 0.648299 0.791839 0.079096 -0.025479 -216115.000000 0 0 1
26.412275 20.511555 31.303315 45.806437 0.660304 0.818411 0.075470 -0.034364 -943806.000000 0 0 1
27.916175 20.314255 31.284455 46.590760 0.629068 0.834601 0.071214 -0.033873 -588178.000000 0 0 1
28.536175 19.855755 32.502989 47.592107 0.607908 0.819004 0.066171 -0.034252 -329902.000000 0 0 1
29.915875 19.744755 32.311314 48.258015 0.583379 0.837189 0.057108 -0.024551 -399943.000000 0 0 1
30.682275 19.102655 33.484469 49.269901 0.556869 0.823561 0.040173 -0.021835 -68790.300000 0 0 1
30.759175 19.931155 -33.497160 49.653172 0.574950 2.311250 0.035556 -0.035784 810820.000000 0 0 1
29.758875 19.418455 -32.573420 48.204717 0.578149 2.312752 0.055482 -0.044501 355816.000000 0 0 1
29.960775 19.916055 -31.132460 47.576542 0.586666 2.284140 0.052191 -0.039827 63267.500000 0 0 1
31.043975 19.144755 -30.636910 47.632660 0.552607 2.269455 0.036413 -0.033311 140870.000000 0 0 1
31.408775 19.666355 -29.372060 47.286305 0.559420 2.241010 0.020902 -0.026483 572921.000000 0 0 1
32.827675 19.179655 -28.861920 47.733907 0.528760 2.220113 0.030759 -0.014620 84523.900000 0 0 1
33.800675 19.794055 -29.627580 49.112969 0.529772 2.218371 0.001316 -0.009704 -1836630.000000 0 0 1
34.988875 19.533455 -29.000940 49.465461 0.509175 2.197264 0.002487 0.002015 -1035000.000000 0 0 1
36.241875 20.162155 -29.666460 50.991027 0.507684 2.191733 -0.002212 0.006285 39510.700000 0 0 1
-36.680411 19.528355 -30.802550 51.726263 -0.489224 2.208674 -0.004021 0.003231 295376.000000 0 0 1
-35.541611 20.289055 -31.231250 51.480509 -0.518713 2.222651 -0.002621 -0.002285 369991.000000 0 0 1
-34.770111 19.742555 -32.470240 51.507724 -0.516408 2.252859 -0.004310 -0.004178 134357.000000 0 0 1
-33.845411 18.717655 -32.125380 50.278251 -0.505169 2.263931 0.027265 0.003481 341409.000000 0 0 1
-33.011611 18.426155 -33.229940 50.334070 -0.509096 2.291865 0.037444 0.001618 126558.000000 0 0 1
-32.224411 17.103755 -33.033630 49.215565 -0.487960 2.306627 0.034655 0.014989 441410.000000 0 0 1
-33.126711 15.991655 -33.091460 49.478852 -0.449746 2.303390 0.033281 0.013743 219320.000000 0 0 1
-32.459611 14.801455 -33.066370 48.642515 -0.427829 2.318263 0.029270 0.021402 -247202.000000 0 0 1
-33.397411 13.597955 -33.316630 49.094697 -0.386660 2.316678 0.042416 0.014190 26874.200000 0 0 1
-32.715411 12.336155 -33.375510 48.336358 -0.360588 2.332955 0.063839 -0.002254 -32762.500000 0 0 1
-33.550711 11.219955 -33.634590 48.814171 -0.322726 2.330951 0.072832 -0.007277 -405755.000000 0 0 1
-32.888711 9.869155 -33.776950 48.165858 -0.291528 2.347964 0.085093 -0.011954 -3462.770000 0 0 1
-32.112611 9.670355 33.187581 47.182106 -0.292501 0.790636 0.062888 -0.021617 311045.000000 0 0 1
-32.442411 8.461655 32.512001 46.702675 -0.255137 0.800778 0.099044 -0.039547 344066.000000 0 0 1
-31.207911 7.899455 31.730885 45.201595 -0.247916 0.792614 0.113941 -0.027183 848204.000000 0 0 1
-30.263611 7.279655 32.646049 45.107029 -0.236057 0.761580 0.086916 -0.006134 692222.000000 0 0 1
-29.130211 6.915455 31.849775 43.712709 -0.233083 0.754497 0.086600 -0.016820 177878.000000 0 0 1
21.182575 -4.638326 -30.899430 37.749044 -0.215567 2.529676 0.022347 -0.025315 124697.000000 0 0 1
22.393075 -4.806926 -31.633000 39.053848 -0.211452 2.514922 0.018972 -0.019274 283446.000000 0 0 1
23.246075 -3.642826 -31.557860 39.364308 -0.155443 2.500909 0.020792 -0.020460 -86331.600000 0 0 1
22.841175 -2.258626 -32.017110 39.394365 -0.098564 2.519624 0.020427 -0.025191 -1146450.000000 0 0 1
23.757375 -1.235126 -31.761260 39.682692 -0.051942 2.498726 0.020452 -0.022339 -55066.000000 0 0 1
23.292375 0.077874 -32.108210 39.667089 0.003343 2.513998 0.021074 -0.026090 21938.600000 0 0 1
24.274175 1.205774 -31.634700 39.892903 0.049632 2.486499 0.033304 -0.023042 410303.000000 0 0 1
25.606575 0.945674 -32.048330 41.032749 0.036914 2.467130 0.036550 -0.023221 149481.000000 0 0 1
26.551575 1.706274 -31.327430 41.101160 0.064174 2.437506 0.046253 -0.016651 120345.000000 0 0 1
28.058175 1.430474 -31.439230 42.163167 0.050938 2.412316 0.058756 -0.021405 239589.000000 0 0 1
28.762775 1.850574 -32.606390 43.518945 0.064251 2.417719 0.073243 -0.019386 277910.000000 0 0 1
28.670875 0.941174 -33.697520 44.254127 0.032815 2.436351 0.067815 -0.021552 -82607.400000 0 0 1
29.388575 1.513274 33.197840 44.362990 0.051446 0.725266 0.066121 -0.034180 -310154.000000 0 0 1
28.634775 2.494374 32.578680 43.445859 0.086891 0.722933 0.047062 -0.027345 -337024.000000 0 0 1
29.268875 3.737274 32.375241 43.804001 0.127000 0.739073 0.056422 -0.021130 -421100.000000 0 0 1
28.442275 4.822074 31.631545 42.810864 0.167942 0.739409 0.060044 -0.017808 -225898.000000 0 0 1
28.884875 6.177274 31.703135 43.331092 0.210685 0.750059 0.060842 -0.018240 -421318.000000 0 0 1
28.037975 6.950474 30.907715 42.305130 0.242997 0.751610 0.047037 -0.013904 -265418.000000 0 0 1
28.195275 8.431074 31.101045 42.817421 0.290561 0.757779 0.044930 -0.006250 -307269.000000 0 0 1
29.465075 8.798774 30.651785 43.418211 0.290188 0.787010 0.039766 -0.011536 -520967.000000 0 0 1
29.755275 10.156374 30.967895 44.130929 0.328930 0.792977 0.040078 -0.011168 -1189860.000000 0 0 1
31.090375 10.623674 30.512965 44.838766 0.329264 0.822346 0.054967 -0.000885 -1050880.000000 0 0 1
32.157575 10.232674 31.380045 46.081715 0.308073 0.821716 0.071915 -0.011431 209085.000000 0 0 1
33.443575 10.494574 30.884155 46.716591 0.304068 0.848518 0.085931 -0.017219 -153586.000000 0 0 1
34.031075 11.914474 31.095455 47.612983 0.336769 0.859142 0.089620 -0.013209 -506438.000000 0 0 1
34.516875 12.208274 32.410831 48.897020 0.339958 0.846193 0.083598 -0.013539 148662.000000 0 0 1
34.867175 13.590874 32.545733 49.594924 0.371674 0.854983 0.075615 -0.003355 -545795.000000 0 0 1
33.748175 14.617574 32.520341 49.093639 0.408742 0.846759 0.071174 -0.008526 -1121230.000000 0 0 1
33.161475 14.811674 31.255255 47.916178 0.420067 0.860194 0.067794 -0.015390 289694.000000 0 0 1
32.235375 15.909074 31.237895 47.623777 0.458457 0.855381 0.060941 -0.021833 350751.000000 0 0 1
30.787875 15.459074 31.559775 46.721469 0.465339 0.829170 0.053657 -0.012903 -487519.000000 0 0 1
30.275375 14.779074 30.414925 45.388182 0.454127 0.836444 0.059775 -0.003264 543099.000000 0 0 1
28.996175 14.206874 30.747045 44.586929 0.455581 0.809863 0.049680 -0.000420 488310.000000 0 0 1
28.162675 13.787374 29.569235 43.099508 0.455262 0.814724 0.037990 0.002791 -370050.000000 0 0 1
28.170575 12.440474 29.170185 42.417525 0.415857 0.812491 0.034620 0.001008 62423.500000 0 0 1
27.382675 12.223274 27.993135 41.022371 0.419845 0.819773 0.030653 -0.007785 -285587.000000 0 0 1
27.202475 10.720474 27.672845 40.257789 0.375409 0.812906 0.027773 0.003932 -994748.000000 0 0 1
28.269975 9.957174 27.220065 40.487884 0.338649 0.833483 0.036467 -0.004953 -689360.000000 0 0 1
27.898175 8.627474 26.937625 39.728795 0.299920 0.825707 0.034261 -0.006909 -503166.000000 0 0 1
29.008675 7.732674 26.438225 40.003465 0.260507 0.848781 0.054162 -0.015637 -544406.000000 0 0 1
29.438475 8.109074 25.136055 39.549996 0.268792 0.882074 0.054843 -0.012753 -12765.300000 0 0 1
30.544975 7.307874 24.787105 40.010013 0.234835 0.902662 0.063225 -0.009615 -164997.000000 0 0 1
31.068975 7.556274 23.362765 39.600471 0.238578 0.939785 0.073981 -0.009253 -279681.000000 0 0 1
31.692775 8.808374 23.337535 40.331873 0.271088 0.953739 0.099079 -0.014235 -203438.000000 0 0 1
30.902175 9.883374 22.880765 39.700818 0.309547 0.956566 0.102607 -0.017774 -59435.400000 0 0 1
30.435175 9.877574 21.383065 38.485086 0.313820 0.981688 0.087556 -0.006952 304551.000000 0 0 1
31.533075 10.145474 20.532265 38.972290 0.311281 1.015915 0.109784 -0.016922 197921.000000 0 0 1
31.106175 10.293274 19.171965 37.961953 0.319566 1.041378 0.090031 -0.025324 -967763.000000 0 0 1
32.115075 10.930174 18.237965 38.515843 0.328047 1.077515 0.130094 -0.055661 234048.000000 0 0 1
33.318675 10.230074 17.922265 39.191787 0.297900 1.095844 0.147909 -0.049386 382327.000000 0 0 1
34.292175 10.283274 18.937065 40.500759 0.291340 1.084253 0.172170 -0.041053 -419054.000000 0 0 1
35.670875 9.761974 18.412465 41.312545 0.267127 1.108855 0.184113 -0.047864 247487.000000 0 0 1
35.762275 8.334474 18.409265 41.076816 0.228965 1.106083 0.157282 -0.031349 432858.000000 0 0 1
-36.619711 7.828074 17.570365 41.364232 -0.210597 1.132086 0.171520 -0.032770 -135418.000000 0 0 1
36.688575 6.304474 17.183065 41.000679 0.170176 1.138351 0.165982 -0.036004 378180.000000 0 0 1
35.405375 6.022174 16.610365 39.569071 0.168480 1.137592 0.130023 -0.032691 795017.000000 0 0 1
35.521775 4.829774 15.880765 39.208697 0.135138 1.153783 0.127504 -0.037906 240226.000000 0 0 1
34.258975 3.911674 15.892965 37.967946 0.113687 1.138905 0.089128 -0.027755 187362.000000 0 0 1
34.163875 3.166474 17.117465 38.343246 0.092421 1.108028 0.095967 -0.015375 453004.000000 0 0 1
32.892375 2.541674 17.276365 37.240318 0.077119 1.088386 0.064849 -0.008665 446666.000000 0 0 1
32.783475 1.735474 18.582665 37.723780 0.052888 1.055724 0.047098 -0.015942 177337.000000 0 0 1
33.427475 0.458874 18.592665 38.253024 0.013727 1.063239 0.060946 -0.017492 -64620.300000 0 0 1
33.324675 -0.225826 19.821665 38.774778 -0.006776 1.034216 0.046434 -0.009194 34036.100000 0 0 1
33.910575 -1.621226 19.856365 39.329769 -0.047772 1.041567 0.055753 -0.004833 -26033.200000 0 0 1
33.597875 -2.283926 21.024765 39.699802 -0.067874 1.012675 0.055208 0.001278 -70824.400000 0 0 1
34.211175 -3.550026 21.018365 40.308546 -0.103398 1.022262 0.048220 -0.001067 -445324.000000 0 0 1
33.773175 -4.459026 22.221665 40.673243 -0.131269 0.992801 0.046056 -0.000895 -255450.000000 0 0 1
34.139275 -3.926326 23.433345 41.593603 -0.114506 0.972315 0.054823 -0.017813 136158.000000 0 0 1
33.790875 -4.716126 24.575705 42.047953 -0.138672 0.946571 0.062672 -0.019370 79571.400000 0 0 1
34.195275 -3.997226 25.842475 43.047975 -0.116366 0.926898 0.065982 -0.025574 29605.100000 0 0 1
33.539975 -4.536626 26.976645 43.281062 -0.134444 0.897854 0.071089 -0.022127 4353.060000 0 0 1
33.786975 -3.864226 28.222715 44.192913 -0.113875 0.878086 0.074239 -0.020037 -49169.000000 0 0 1
32.814875 -4.338026 29.323375 44.220977 -0.131435 0.845830 0.084780 -0.021027 78383.700000 0 0 1
32.949675 -5.699926 29.691865 44.718867 -0.171294 0.844684 0.090090 -0.035085 -84855.600000 0 0 1
31.985275 -6.046126 30.650045 44.710611 -0.186824 0.815478 0.093541 -0.042882 -412353.000000 0 0 1
32.088675 -7.505126 31.136125 45.337273 -0.229757 0.813765 0.091037 -0.034913 85632.200000 0 0 1
33.218975 -7.846926 31.919785 46.732721 -0.231966 0.818895 0.090853 -0.036943 -93037.400000 0 0 1
34.051675 -8.775426 31.252775 47.045304 -0.252221 0.844223 0.086384 -0.033147 -755473.000000 0 0 1
35.397375 -8.922626 31.909465 48.485064 -0.246926 0.852464 0.095435 -0.034702 -748478.000000 0 0 1
35.262975 -9.488226 33.161878 49.327619 -0.262845 0.833515 0.063726 -0.029053 -115059.000000 0 0 1
36.505775 -9.598026 33.821016 50.681899 -0.257099 0.840193 0.038178 -0.021108 -87886.200000 0 0 1
36.345875 -9.978626 -32.846020 49.994566 -0.267944 2.287618 0.047215 -0.022636 -103566.000000 0 0 1
35.692675 -9.034426 -32.028180 48.799511 -0.247910 2.286729 0.039328 -0.020536 924203.000000 0 0 1
36.571075 -7.920626 -31.671780 49.023275 -0.213287 2.273202 0.043859 -0.013729 733677.000000 0 0 1
35.875075 -6.878126 -30.749990 47.748210 -0.189426 2.270516 0.055271 -0.011661 52749.800000 0 0 1
35.937875 -7.144226 -29.345420 46.943844 -0.196235 2.246078 0.040441 -0.004237 329524.000000 0 0 1
35.227375 -6.111826 -28.672040 45.830211 -0.171786 2.246715 0.052611 -0.009189 25016.600000 0 0 1
35.829075 -5.870626 -27.307010 45.429722 -0.162408 2.215651 0.051377 -0.009646 467720.000000 0 0 1
-36.321311 -5.222226 -27.237140 45.698699 0.142800 2.209326 0.056247 -0.009343 161873.000000 0 0 1
-35.903111 -4.886126 -25.984930 44.588386 0.135261 2.192934 0.058800 -0.012077 -388080.000000 0 0 1
-34.404811 -4.637026 -25.796440 43.251004 0.133971 2.209849 0.075043 -0.011612 -1278470.000000 0 0 1
-34.140111 -4.409726 -24.444800 42.220151 0.128454 2.188279 0.088724 -0.019242 -1648.090000 0 0 1
-32.798011 -4.524226 -24.046000 40.919290 0.137077 2.198941 0.099233 -0.022476 434445.000000 0 0 1
-31.713611 -3.531226 -24.619200 40.302949 0.110891 2.227935 0.104099 -0.021374 -121869.000000 0 0 1
-31.451211 -3.749726 -26.001860 40.979700 0.118663 2.258165 0.102250 -0.012572 -498952.000000 0 0 1
-30.445111 -2.893626 -26.439620 40.426864 0.094759 2.283671 0.108355 -0.018078 -270335.000000 0 0 1
-29.849911 -3.394926 -27.776460 40.915455 0.113247 2.317025 0.105341 -0.009986 -81552.600000 0 0 1
-30.830111 -3.492126 -28.793000 42.328803 0.112789 2.318862 0.113416 -0.007095 -161566.000000 0 0 1
-30.373911 -4.148526 -29.949290 42.857260 0.135742 2.344536 0.092650 -0.006222 -1114530.000000 0 0 1
-31.462811 -4.503726 -30.968660 44.376232 0.142179 2.343210 0.075380 -0.007383 -516562.000000 0 0 1
-32.472411 -5.408326 -30.583500 44.933929 0.165037 2.319422 0.074602 -0.004026 409609.000000 0 0 1
-33.395411 -4.985626 -29.587750 44.894820 0.148196 2.290346 0.084707 -0.009118 -449542.000000 0 0 1
-34.591311 -4.110026 -30.098110 46.036370 0.118262 2.283379 0.113287 -0.011122 -394459.000000 0 0 1
-34.325211 -2.817026 -30.705900 46.141175 0.081885 2.298929 0.126594 -0.016718 -158505.000000 0 0 1
-33.725111 -1.886626 -29.820780 45.057978 0.055883 2.294055 0.135550 -0.012101 -330118.000000 0 0 1
-33.218811 -0.616526 -30.489120 45.093857 0.018557 2.313288 0.130255 -0.018487 -46629.900000 0 0 1
-34.238011 0.089674 -31.185050 46.311519 -0.002619 2.309562 0.149761 -0.021674 -18935.900000 0 0 1
-33.803911 1.225074 -31.906420 46.499730 -0.036225 2.326998 0.148745 -0.019684 -225631.000000 0 0 1
-34.954811 2.165274 -32.273480 47.624623 -0.061866 2.315377 0.143216 -0.017352 -210752.000000 0 0 1
-35.642911 1.779474 -33.435880 48.903392 -0.049884 2.323635 0.136393 -0.025366 262613.000000 0 0 1
36.543875 2.512874 -33.506410 49.643216 0.068655 2.311686 0.115465 -0.020135 402637.000000 0 0 1
35.618475 2.026374 33.518276 48.951576 0.056830 0.816573 0.087603 -0.019227 -221775.000000 0 0 1
36.100775 2.268374 32.205955 48.431757 0.062752 0.843335 0.081674 -0.023911 641734.000000 0 0 1
-36.338211 1.334974 31.719415 48.253176 -0.036721 0.853494 0.091254 -0.016582 245645.000000 0 0 1
-36.168511 1.401574 30.206615 47.144090 -0.038732 0.875348 0.087626 -0.017613 -205527.000000 0 0 1
-35.621911 2.600474 29.785145 46.506321 -0.072873 0.875707 0.090374 -0.022349 -23195.800000 0 0 1
-35.536911 2.678774 28.416145 45.579877 -0.075238 0.897666 0.070807 -0.008706 12486.300000 0 0 1
-35.088411 4.004874 27.842775 44.971722 -0.113645 0.903178 0.066157 -0.013111 -159300.000000 0 0 1
-34.399911 3.908874 26.617595 43.670694 -0.113145 0.915358 0.075127 -0.006704 237694.000000 0 0 1
-33.973911 5.242774 26.302945 43.284619 -0.153110 0.917668 0.078579 -0.010658 -211438.000000 0 0 1
-33.101711 5.452274 25.067325 41.878650 -0.163247 0.929081 0.083705 -0.009775 786477.000000 0 0 1
-31.873411 4.680174 24.999035 40.777078 -0.145794 0.910861 0.066589 -0.005853 1669940.000000 0 0 1
-31.007011 4.988974 23.865495 39.444727 -0.159531 0.920985 0.066249 -0.009096 537525.000000 0 0 1
-31.505011 4.641174 22.449965 38.962895 -0.146263 0.956739 0.094697 -0.019440 -349627.000000 0 0 1
-31.606411 3.260474 22.229865 38.778381 -0.102795 0.960325 0.096541 -0.017577 129161.000000 0 0 1
-32.438311 2.956274 21.110265 38.815292 -0.090884 0.995761 0.130399 -0.027711 314426.000000 0 0 1
-32.263911 1.441374 20.792565 38.410523 -0.044645 0.998785 0.135388 -0.029777 692640.000000 0 0 1
-31.004611 1.096374 20.209265 37.025698 -0.035347 0.993432 0.146300 -0.027979 252113.000000 0 0 1
-30.814011 1.318974 18.807965 36.124542 -0.042778 1.023193 0.156874 -0.031361 -224276.000000 0 0 1
-29.345211 1.247474 18.352465 34.633951 -0.042485 1.012316 0.158304 -0.035300 -370879.000000 0 0 1
-28.802111 -0.034926 18.664065 34.320696 0.001213 0.995821 0.181557 -0.034204 301592.000000 0 0 1
-27.597211 -0.445926 18.027865 32.966784 0.016157 0.992200 0.187026 -0.034354 17453.100000 0 0 1
-27.595611 -0.479226 16.449965 32.130185 0.017364 1.033310 0.203513 -0.024059 -618177.000000 0 0 1
-27.310511 0.769074 15.857765 31.589938 -0.028153 1.044901 0.195735 -0.030245 282080.000000 0 0 1
-27.345611 0.698674 14.461065 30.941768 -0.025544 1.084490 0.177837 -0.020788 -109279.000000 0 0 1
-27.106911 2.059474 13.735365 30.457943 -0.075830 1.102954 0.173789 -0.025283 -369417.000000 0 0 1
-25.725211 2.293474 13.704065 29.237782 -0.088918 1.082966 0.146960 -0.032826 -99444.000000 0 0 1
-25.448611 3.566374 13.143365 28.863452 -0.139233 1.098016 0.134651 -0.027902 500897.000000 0 0 1
-23.935811 3.763074 12.786365 27.396622 -0.155939 1.085226 0.111455 -0.024383 664486.000000 0 0 1
-23.111111 3.844674 13.946365 27.265474 -0.164846 1.033864 0.060903 -0.017651 159224.000000 0 0 1
-21.778411 4.160174 13.606965 26.014529 -0.188749 1.020368 0.064889 -0.020508 -47735.800000 0 0 1
-21.060711 4.693774 14.868365 26.204071 -0.219285 0.967443 0.049049 -0.016365 -60020.400000 0 0 1
-21.586111 5.988974 15.216465 27.080783 -0.270639 0.974126 0.051359 -0.013669 647937.000000 0 0 1
-20.856811 6.502874 16.330965 27.276260 -0.302235 0.928889 0.034191 -0.004917 -48833.400000 0 0 1
-21.049011 8.020974 16.536765 27.943899 -0.364075 0.937526 0.042743 -0.008568 -333428.000000 0 0 1
-20.462211 8.840174 15.511765 27.156318 -0.407805 0.962826 0.054321 -0.018619 637605.000000 0 0 1
-20.680111 10.218774 15.639665 27.869149 -0.458945 0.974983 0.046531 -0.009145 -77859.700000 0 0 1
-19.963911 10.900774 16.894665 28.333978 -0.499785 0.931951 0.058409 -0.008008 -569886.000000 0 0 1
-20.568811 10.669274 18.120265 29.415190 -0.478504 0.907120 0.063171 -0.012816 305058.000000 0 0 1
-19.760311 11.071274 19.219565 29.705802 -0.510700 0.867157 0.064104 -0.004495 -27126.100000 0 0 1
-12.289125 -33.637207 -20.123300 41.078358 1.220519 2.082744 0.089353 -0.043144 803021.000000 0 0 1
-13.429225 -34.001507 -19.287200 41.333311 1.194643 2.056269 0.115797 -0.036886 798791.000000 0 0 1
-14.483725 -33.102807 -19.600000 41.106375 1.158354 2.067820 0.098616 -0.052986 85175.700000 0 0 1
-15.819725 -33.581407 -18.978900 41.691405 1.130546 2.043419 0.091668 -0.037847 -494245.000000 0 0 1
-16.415425 33.560774 -19.648200 42.211888 -1.115886 2.054957 0.079533 -0.039691 129358.000000 0 0 1
-17.119025 32.646674 -18.828600 41.393025 -1.087841 2.043027 0.074718 -0.034480 570739.000000 0 0 1
-18.550025 33.033474 -18.323100 42.083843 -1.059127 2.021273 0.074209 -0.034285 -180315.000000 0 0 1
-18.682925 -34.103707 -17.416200 42.607963 1.069623 1.991885 0.072713 -0.034840 -22072.900000 0 0 1
-19.985225 -34.093707 -16.865900 42.967995 1.040597 1.974169 0.036785 -0.030404 -237067.000000 0 0 1
-20.246025 33.443074 -15.440800 42.032833 -1.026425 1.946956 0.042852 -0.026266 -849900.000000 0 0 1
-20.263525 32.044774 -15.492400 40.957202 -1.006929 1.958710 0.049916 -0.030386 151224.000000 0 0 1
-20.855125 31.450874 -14.365100 40.378829 -0.985266 1.934522 0.041486 -0.023962 -852429.000000 0 0 1
-20.715225 29.932674 -14.272200 39.099632 -0.965419 1.944452 0.047250 -0.028260 -283126.000000 0 0 1
-19.430025 29.489274 -13.904200 37.953523 -0.988201 1.945878 0.066133 -0.034818 -3903.980000 0 0 1
-19.437425 28.088074 -13.731000 36.814314 -0.965448 1.953015 0.069908 -0.039837 -472257.000000 0 0 1
-18.128725 27.479574 -13.237400 35.482480 -0.987621 1.953111 0.084420 -0.034262 -1208040.000000 0 0 1
-17.117525 27.524174 -14.144300 35.364545 -1.014423 1.982266 0.101371 -0.038433 -789798.000000 0 0 1
-15.947725 26.872574 -13.675400 34.109848 -1.035202 1.983320 0.115376 -0.046411 1183130.000000 0 0 1
-14.574225 27.355274 -14.285600 34.129128 -1.081273 2.002672 0.112375 -0.046195 820191.000000 0 0 1
-14.477825 27.175574 -15.651100 34.540935 -1.081292 2.041056 0.098641 -0.043343 16627.200000 0 0 1
-13.437825 27.962674 -16.208700 35.002975 -1.122819 2.052248 0.101304 -0.041549 117409.000000 0 0 1
-13.541425 27.965074 -17.768000 35.792700 -1.119847 2.090259 0.114184 -0.045108 -54123.800000 0 0 1
-13.289925 26.623074 -18.219400 34.890639 -1.107798 2.120208 0.081457 -0.036392 116517.000000 0 0 1
-13.627225 26.628474 -19.588300 35.755816 -1.097790 2.150571 0.072142 -0.040143 -132869.000000 0 0 1
-12.882025 25.546074 -20.392600 35.134123 -1.103741 2.190043 0.044389 -0.026848 899251.000000 0 0 1
-11.506225 25.877174 -20.660200 35.055174 -1.152402 2.201066 0.033078 -0.018839 584029.000000 0 0 1
-10.774825 24.871274 -21.290700 34.466956 -1.161981 2.236628 0.051195 -0.019762 -71023.500000 0 0 1
-9.620625 25.364474 -22.159500 35.027937 -1.208265 2.255733 0.068526 -0.024155 -196071.000000 0 0 1
-10.066625 25.942774 -23.413900 36.367227 -1.200650 2.270275 0.069449 -0.020210 -119911.000000 0 0 1
-9.000025 26.228574 -24.262700 36.845857 -1.240248 2.289610 0.062067 -0.022287 -590227.000000 0 0 1
-9.461625 27.148774 -25.425070 38.379844 -1.235449 2.294893 0.066045 -0.020353 452054.000000 0 0 1
-10.263925 26.428974 -26.397800 38.738646 -1.200366 2.320515 0.056608 -0.018386 233266.000000 0 0 1
-10.635425 27.295574 -27.466310 40.156678 -1.199253 2.323999 0.077905 -0.018915 -123145.000000 0 0 1
-11.794925 26.755874 -28.293300 40.687933 -1.155590 2.339735 0.052098 -0.008100 -76395.600000 0 0 1
-12.430025 27.637474 -29.188220 42.074787 -1.148148 2.337441 0.069954 -0.005220 -578315.000000 0 0 1
-13.608625 27.170174 -29.744740 42.522495 -1.106456 2.345502 0.045487 0.006926 -661029.000000 0 0 1
-13.743725 27.270674 -31.266390 43.705455 -1.103974 2.367977 0.037494 0.000047 313615.000000 0 0 1
-12.807925 26.437474 -32.028350 43.460306 -1.119657 2.399353 0.047429 -0.005459 674149.000000 0 0 1
-12.867825 24.982174 -32.032150 42.611601 -1.095157 2.421468 0.037783 -0.005989 194148.000000 0 0 1
-11.963725 24.357474 -33.126940 42.823024 -1.114236 2.455264 0.025775 0.000530 401360.000000 0 0 1
-12.580525 24.519074 33.774221 43.590740 -1.096731 0.684393 0.022030 0.003835 88047.300000 0 0 1
-11.847725 23.784674 32.842895 42.246125 -1.108650 0.680246 0.025076 -0.002419 -475972.000000 0 0 1
-12.316625 23.930274 31.412555 41.365515 -1.095467 0.708421 0.023145 0.005158 -1176710.000000 0 0 1
-13.561525 23.344774 31.211185 41.267802 -1.044522 0.713145 0.043862 -0.009327 -386078.000000 0 0 1
-13.992725 23.148174 29.871105 40.297856 -1.027086 0.735854 0.043447 -0.006049 -24120.700000 0 0 1
-15.309325 22.362674 29.731415 40.229612 -0.970486 0.739148 0.041613 -0.011099 42992.800000 0 0 1
-15.193925 20.964374 29.899155 39.551483 -0.943652 0.713684 0.035043 -0.015519 -472915.000000 0 0 1
-16.474125 20.406774 29.960525 39.817914 -0.891628 0.719040 0.040737 -0.023656 -263092.000000 0 0 1
-16.516725 18.902374 30.258565 39.315171 -0.852651 0.692518 0.049878 -0.030689 239682.000000 0 0 1
-16.021525 18.068374 29.131005 37.838748 -0.845369 0.692155 0.048489 -0.033923 372305.000000 0 0 1
-15.447725 16.835874 29.533245 37.340212 -0.828370 0.658480 0.044986 -0.045002 -152914.000000 0 0 1
-14.953225 16.041174 28.342735 35.836138 -0.820485 0.658521 0.046799 -0.037156 281773.000000 0 0 1
-13.901225 16.694874 27.637825 35.154121 -0.876453 0.666177 0.044471 -0.040054 439645.000000 0 0 1
-13.345425 15.845074 26.565515 33.688178 -0.870822 0.662315 0.034719 -0.032194 284242.000000 0 0 1
-12.314325 16.443474 25.579815 32.807886 -0.928007 0.676634 0.036098 -0.029846 -204730.000000 0 0 1
-12.649425 17.282774 24.489465 32.533615 -0.938974 0.718577 0.033851 -0.026109 -498813.000000 0 0 1
-13.038525 18.640374 24.730825 33.601791 -0.960421 0.743658 0.027205 -0.027293 -108190.000000 0 0 1
-11.977925 19.615674 25.299245 34.180362 -1.022597 0.737475 0.020382 -0.025605 -55543.100000 0 0 1
-11.640125 19.341474 26.646515 34.923085 -1.029038 0.702846 0.030482 -0.033108 97449.400000 0 0 1
-12.660025 19.638374 27.595615 36.158815 -0.998186 0.702579 0.039678 -0.023412 92548.600000 0 0 1
-12.285125 19.182374 29.052155 36.917685 -1.001172 0.664956 0.041499 -0.019274 176056.000000 0 0 1
-11.182425 19.869874 29.617965 37.377565 -1.058192 0.656064 0.029805 -0.023580 21957.400000 0 0 1
-11.302725 19.938674 31.029695 38.576473 -1.055090 0.636185 0.029245 -0.019549 -69434.700000 0 0 1
-10.172225 20.754074 31.692195 39.225004 -1.115075 0.630116 0.020651 -0.014132 1154940.000000 0 0 1
-8.919525 20.043674 31.819015 38.649146 -1.152104 0.603633 0.030842 -0.019743 1321460.000000 0 0 1
-7.792125 20.860674 32.202572 39.152146 -1.213313 0.605007 0.026627 -0.010045 1422370.000000 0 0 1
-6.536025 20.020374 32.636270 38.841487 -1.255237 0.573066 0.027494 -0.012823 -40045.800000 0 0 1
-6.690125 19.318174 33.871687 39.563124 -1.237410 0.543038 0.034134 -0.014472 -242171.000000 0 0 1
-5.624225 18.936774 -33.437780 38.837076 -1.282094 2.607981 0.032881 -0.015771 280353.000000 0 0 1
-4.626525 17.857374 -33.991640 38.674567 -1.317288 2.644378 0.029921 -0.021799 701248.000000 0 0 1
-5.317125 16.587074 34.057348 38.253180 -1.260587 0.472762 0.027735 -0.022721 311267.000000 0 0 1
-4.685225 15.841374 33.068919 36.965577 -1.283235 0.463290 0.032776 -0.021464 7039.980000 0 0 1
-5.341425 14.460074 32.701132 36.152297 -1.216952 0.440501 0.039495 -0.026001 -16731.800000 0 0 1
-5.061725 13.508274 33.743191 36.697377 -1.212277 0.403993 0.042161 -0.023323 132618.000000 0 0 1
-5.768925 12.327174 33.453781 36.116411 -1.133088 0.386388 0.049214 -0.023142 -224432.000000 0 0 1
-4.953325 11.099974 33.820382 35.938323 -1.151068 0.345024 0.069935 -0.031886 -150585.000000 0 0 1
-4.878225 10.720774 -32.977770 35.018072 -1.143771 2.798550 0.066737 -0.033709 -752294.000000 0 0 1
-3.812925 9.865974 -32.779140 34.443401 -1.202006 2.829462 0.082657 -0.036224 -390866.000000 0 0 1
-3.625025 9.341174 -31.324520 32.888051 -1.200617 2.832004 0.082018 -0.032823 -492726.000000 0 0 1
-4.641925 8.529274 -30.877780 32.368708 -1.072390 2.836900 0.091199 -0.026693 -707624.000000 0 0 1
-4.986125 8.795974 -29.521900 31.205339 -1.055098 2.811625 0.100364 -0.026837 -233729.000000 0 0 1
-6.135125 7.897074 -29.072640 30.744462 -0.910309 2.810298 0.104281 -0.028975 -192492.000000 0 0 1
-5.672025 6.680674 -28.467470 29.785905 -0.866872 2.842948 0.104268 -0.022446 171160.000000 0 0 1
-6.748925 5.775774 -28.349130 29.708260 -0.707855 2.837940 0.115506 -0.038360 -218232.000000 0 0 1
-6.577225 5.000474 -26.988740 28.225108 -0.650042 2.844516 0.099307 -0.038707 -210894.000000 0 0 1
-6.819525 5.772874 -25.815390 27.317876 -0.702471 2.808391 0.072853 -0.024627 365550.000000 0 0 1
-5.853225 6.754974 -25.364860 26.893606 -0.856797 2.802798 0.068453 -0.025040 249038.000000 0 0 1
-6.338525 7.822074 -24.284800 26.289033 -0.889783 2.748586 0.040255 -0.017524 -135503.000000 0 0 1
-6.561625 7.183374 -23.030000 25.000733 -0.830602 2.741880 0.027813 -0.012209 715256.000000 0 0 1
-7.789125 7.572774 -22.397500 24.893079 -0.771316 2.689988 0.031507 -0.008661 671187.000000 0 1 0
-7.511125 7.676074 -20.883000 23.482734 -0.796259 2.666590 0.019491 -0.011095 -7601.830000 0 1 0
-6.853725 8.889074 -20.527100 23.395534 -0.913973 2.641199 -0.000775 -0.007937 -38224.500000 0 1 0
-6.740225 9.114674 -19.119300 22.227360 -0.934055 2.606398 0.006337 -0.008205 221349.000000 0 1 0
-8.015025 9.524074 -18.283900 22.118987 -0.871226 2.543863 0.001020 -0.002625 -216694.000000 0 1 0
-7.829925 9.433974 -16.934800 20.906818 -0.878046 2.514971 -0.002100 -0.008890 -64512.000000 0 1 0
-8.940325 9.621174 -16.055600 20.743160 -0.822062 2.455961 0.003586 -0.018379 145940.000000 0 1 0
-9.562925 11.034774 -16.161400 21.780877 -0.856734 2.406844 0.017938 -0.024856 -791081.000000 0 1 0
-8.621625 12.001774 -15.798300 21.632413 -0.947853 2.389567 0.003688 -0.023872 -303065.000000 0 1 0
-9.132925 13.321074 -15.910900 22.671966 -0.969801 2.348700 0.024754 -0.025148 -139376.000000 0 1 0
-8.049825 14.416274 -15.810400 22.860389 -1.061539 2.334508 0.039525 -0.020643 55754.900000 0 1 0
-7.383625 14.614574 -14.570900 21.918367 -1.102979 2.297996 0.032001 -0.015303 269627.000000 0 1 0
-8.239525 15.033974 -13.484100 21.811261 -1.069444 2.237269 0.029432 -0.033432 -517933.000000 0 1 0
-7.567325 15.866274 -12.401200 21.512620 -1.125763 2.185188 0.031168 -0.026079 159339.000000 0 1 0
-7.016325 17.152874 -12.739600 22.488826 -1.182516 2.173031 0.035631 -0.023046 478659.000000 0 1 0
-6.001625 17.260174 -13.734900 22.860021 -1.236158 2.215331 0.042818 -0.017060 -44365.100000 0 1 0
-5.801025 18.680074 -14.316800 24.239798 -1.269692 2.202638 0.062567 -0.010421 242036.000000 0 1 0
-5.341725 19.593374 -13.321800 24.287953 -1.304636 2.151359 0.067686 -0.021552 -128317.000000 0 1 0
-5.530125 20.904974 -13.709300 25.603615 -1.312184 2.135830 0.077182 -0.018861 14766.100000 0 0 1
-5.011725 22.045974 -12.754900 25.958232 -1.347265 2.084450 0.085643 -0.020751 -424989.000000 0 0 1
-5.234425 23.392674 -13.045000 27.290812 -1.350659 2.069172 0.079505 -0.027299 644731.000000 0 0 1
-6.604625 23.811074 -13.194000 28.011961 -1.300222 2.061235 0.073712 -0.031900 882092.000000 0 0 1
-7.402725 23.974574 -11.872300 27.758459 -1.271310 2.012743 0.047645 -0.032163 -359030.000000 0 0 1
-7.808025 22.678574 -11.498900 26.599016 -1.239217 2.017844 0.056638 -0.028947 -107058.000000 0 0 1
-8.647025 22.645874 -10.346200 26.356223 -1.206045 1.974201 0.070951 -0.030106 90154.400000 0 0 1
-8.001925 22.988174 -8.987900 25.947433 -1.235825 1.924515 0.066663 -0.025650 -191074.000000 0 0 1
-7.844525 24.386374 -8.976800 27.144332 -1.259573 1.907848 0.047485 -0.025075 -9344.380000 0 0 1
-7.329525 24.799574 -7.704300 26.983273 -1.283427 1.860347 0.047368 -0.022098 18960.900000 0 0 1
-7.449925 26.346774 -7.522500 28.394399 -1.295226 1.838927 0.049803 -0.024056 83843.900000 0 0 1
-6.483625 27.156874 -8.213900 29.103288 -1.336436 1.856917 0.036497 -0.027993 218013.000000 0 0 1
-6.592825 27.136774 -9.620400 29.536790 -1.332466 1.902558 0.045510 -0.025321 31552.500000 0 0 1
-5.714525 28.215574 -10.302300 30.576327 -1.370968 1.914458 0.045361 -0.022009 305566.000000 0 0 1
-6.300725 29.508474 -10.246100 31.865840 -1.360433 1.898150 0.034414 -0.019741 -62834.000000 0 0 1
-7.272225 29.706174 -11.254600 32.588465 -1.330713 1.923414 0.040748 -0.024782 -80044.200000 0 0 1
-8.205925 30.915874 -10.931900 33.802883 -1.311351 1.900118 0.051675 -0.020478 -254479.000000 0 0 1
-9.165525 30.582574 -9.975100 33.448517 -1.279617 1.873626 0.057659 -0.018631 -622317.000000 0 0 1
-10.275225 31.451474 -10.075600 34.587471 -1.255027 1.866390 0.061406 -0.018508 -136080.000000 0 0 1
-11.360325 30.914874 -9.123500 34.176376 -1.218643 1.841027 0.080198 -0.018138 129603.000000 0 0 1
-12.169825 29.845974 -9.659500 33.648072 -1.183623 1.861968 0.079431 -0.030389 326383.000000 0 0 1
-13.371325 29.765274 -8.895900 33.821604 -1.148587 1.836952 0.100239 -0.027419 389791.000000 0 0 1
-14.333025 28.700674 -9.456000 33.445182 -1.107631 1.857437 0.104352 -0.032768 -145175.000000 0 0 1
-14.281125 27.347874 -9.070900 32.158016 -1.089545 1.856750 0.084358 -0.028100 -49787.900000 0 0 1
-15.274125 26.542774 -9.676500 32.116232 -1.048622 1.876848 0.109284 -0.029797 -60044.000000 0 0 1
-15.438125 25.227774 -8.922000 30.893015 -1.021637 1.863773 0.093576 -0.030048 -210499.000000 0 0 1
-14.449625 24.241674 -9.060700 29.640288 -1.033275 1.881458 0.089385 -0.025335 367577.000000 0 0 1
-14.996325 22.944974 -8.644900 28.741884 -0.991910 1.876304 0.103702 -0.027938 324441.000000 0 0 1
-14.019525 21.802174 -8.983900 27.433416 -0.999334 1.904432 0.105244 -0.026324 -88580.500000 0 0 1
-13.971625 21.554874 -10.399000 27.712057 -0.995696 1.955465 0.102170 -0.026534 281314.000000 0 0 1
-13.228625 20.357174 -10.568100 26.478213 -0.994543 1.981358 0.105232 -0.031157 -103493.000000 0 0 1
-13.185125 19.846274 -12.070000 26.709680 -0.984390 2.039686 0.098612 -0.022052 820431.000000 0 0 1
-14.462125 19.398474 -12.568600 27.265794 -0.930163 2.049880 0.106522 -0.012234 708274.000000 0 0 1
-14.373625 19.154674 -13.955700 27.717579 -0.927041 2.098437 0.098384 -0.002841 -78758.400000 0 0 1
-15.705725 18.750774 -14.598500 28.484689 -0.873543 2.108894 0.088947 -0.002122 -212297.000000 0 0 1
-16.585925 19.825974 -14.662500 29.717857 -0.874148 2.086779 0.069670 -0.002833 -434544.000000 0 0 1
-17.912925 19.413274 -14.909700 30.332280 -0.825572 2.084660 0.060922 -0.000497 111016.000000 0 0 1
-18.815825 20.448774 -15.588300 31.861932 -0.826963 2.082021 0.061159 -0.004578 2854.640000 0 0 1
-19.242125 21.574674 -14.808200 32.480898 -0.842483 2.044185 0.065169 -0.015016 274638.000000 0 0 1
-20.201025 22.311174 -15.525500 33.866075 -0.834994 2.047033 0.072669 -0.018543 -134240.000000 0 0 1
-20.645725 23.680674 -14.995200 34.812014 -0.853760 2.016118 0.064047 -0.016259 -114508.000000 0 0 1
-21.831125 23.650474 -14.237400 35.194410 -0.825379 1.987268 0.086513 -0.012817 64575.400000 0 0 1
-22.142325 24.976974 -13.760900 36.103935 -0.845485 1.961833 0.073326 -0.023199 -104670.000000 0 0 1
-25.479695 -0.503326 4.066500 25.807065 0.019751 1.412564 0.128894 -0.043926 -93687.000000 0 0 1
-26.242635 0.174174 5.048800 26.724457 -0.006637 1.380734 0.157956 -0.038824 257253.000000 0 0 1
-27.633895 -0.075026 5.008400 28.084192 0.002715 1.391502 0.157675 -0.033921 343876.000000 0 0 1
-28.355435 0.726174 6.155100 29.024873 -0.025604 1.357111 0.156967 -0.022277 -221833.000000 0 0 1
-28.488985 2.106674 5.842600 29.158126 -0.073813 1.369054 0.178409 -0.030300 161445.000000 0 0 1
-28.747605 2.946474 7.008300 29.735883 -0.102138 1.332873 0.189370 -0.027553 310058.000000 0 0 1
-27.619265 3.048274 8.113600 28.947301 -0.109923 1.286702 0.196790 -0.025712 350287.000000 0 0 1
-27.415345 1.781774 8.759100 28.835701 -0.064901 1.262161 0.201020 -0.033272 1309130.000000 0 0 1
-26.284865 1.906474 9.676500 28.074248 -0.072404 1.218903 0.185900 -0.044252 720331.000000 0 0 1
-25.644665 0.598374 10.169200 27.593831 -0.023329 1.193367 0.170997 -0.036036 -984839.000000 0 0 1
-24.475025 0.216874 9.561300 26.277221 -0.008861 1.198385 0.152016 -0.035528 -676466.000000 0 0 1
-24.650425 -0.896426 8.677400 26.148504 0.036350 1.232532 0.127009 -0.031553 -321459.000000 0 0 1
-23.411125 -1.490626 7.978600 24.778232 0.063586 1.242955 0.098929 -0.035556 -171038.000000 0 1 0
-22.516025 -2.095726 8.872300 24.291586 0.092810 1.196904 0.106517 -0.042422 915707.000000 0 1 0
-21.240925 -2.373426 8.264800 22.915430 0.111277 1.201815 0.110809 -0.039069 1680520.000000 0 1 0
-19.928525 -2.473626 9.122200 22.056279 0.123493 1.144406 0.065443 -0.033731 673167.000000 0 1 0
-19.396725 -1.235626 9.645500 21.697819 0.063617 1.110138 0.056935 -0.028235 -94745.200000 0 1 0
-20.177625 -0.537726 10.657800 22.825740 0.026643 1.084991 0.085683 -0.028193 -229595.000000 0 1 0
-19.907525 1.007574 10.787000 22.664600 -0.050570 1.074763 0.057095 -0.013405 -110133.000000 0 1 0
-20.390025 1.698274 9.650400 22.622278 -0.083098 1.130079 0.067183 -0.016627 616187.000000 0 1 0
-21.745425 2.106174 9.638800 23.878985 -0.096555 1.155291 0.093446 -0.016287 -156402.000000 0 1 0
-22.087125 3.460974 9.020900 24.108008 -0.155433 1.187277 0.085886 -0.028349 -407961.000000 0 1 0
-21.977525 4.526674 9.928900 24.537429 -0.203128 1.154208 0.074691 -0.025441 544392.000000 0 1 0
-22.360425 5.762174 9.367700 24.918769 -0.252208 1.185397 0.070660 -0.017556 -586937.000000 0 1 0
-22.443725 6.916674 10.415400 25.691277 -0.298943 1.153373 0.072115 -0.020568 44833.900000 0 0 1
-23.497525 6.721674 11.332300 26.939480 -0.278618 1.136626 0.082863 -0.021073 320252.000000 0 0 1
-23.276125 7.605474 12.424500 27.458868 -0.315814 1.101256 0.074190 -0.024220 -117595.000000 0 0 1
-23.988425 7.178974 13.706800 28.545727 -0.290785 1.069948 0.084032 -0.026153 462013.000000 0 0 1
-25.405485 7.399674 13.640500 29.770070 -0.283422 1.094833 0.095045 -0.028625 533037.000000 0 0 1
-26.136295 6.995574 14.745900 30.813723 -0.261527 1.071794 0.094327 -0.030267 1103630.000000 0 0 1
-27.695355 7.007974 14.449800 32.014701 -0.247836 1.102520 0.123200 -0.029897 1122960.000000 0 0 1
-28.105665 5.984874 13.547400 31.769154 -0.209808 1.130251 0.150497 -0.022853 492177.000000 0 0 1
-29.471965 5.613174 13.716100 32.988419 -0.188204 1.141990 0.177785 -0.042613 297994.000000 0 0 1
-29.747355 4.476974 12.791700 32.689081 -0.149379 1.168737 0.202101 -0.028316 -287642.000000 0 0 1
-31.053125 3.959274 12.920400 33.866047 -0.126816 1.179362 0.183200 -0.033778 266096.000000 0 0 1
-31.277385 3.019474 11.895500 33.599032 -0.096240 1.208906 0.192586 -0.010526 44077.800000 0 0 1
-32.522885 2.151874 12.180500 34.795591 -0.066069 1.213163 0.152661 -0.000788 14527.800000 0 0 1
-32.258975 1.162874 13.125600 34.846450 -0.036032 1.184598 0.175343 0.000024 103496.000000 0 0 1
-33.473805 0.557974 13.494900 36.095973 -0.016667 1.187627 0.135978 0.006020 -60594.000000 0 0 1
-33.269245 -0.675126 14.393900 36.255797 0.020290 1.162540 0.139130 -0.011869 75232.900000 0 0 1
-32.998875 -2.010626 13.842800 35.841198 0.060855 1.174260 0.148553 -0.009186 235962.000000 0 0 1
-33.162215 -3.009726 14.851800 36.460484 0.090510 1.151257 0.167619 -0.008164 -33640.700000 0 0 1
-32.921545 -4.483926 14.452800 36.232818 0.135367 1.160494 0.153695 -0.010013 445507.000000 0 0 1
-33.925575 -4.868526 13.496300 36.834729 0.142533 1.195658 0.109581 -0.010980 638262.000000 0 0 1
-34.000595 -6.234926 13.405100 37.075753 0.181362 1.200856 0.106888 -0.013078 -771577.000000 0 0 1
-35.081676 -6.726926 12.367100 37.801067 0.189451 1.237497 0.098667 -0.008838 562704.000000 0 0 1
-36.399685 -6.921026 12.826700 39.209206 0.187897 1.237526 0.073532 -0.002163 246788.000000 0 0 1
36.393662 -5.694126 13.214500 39.134955 -0.155201 1.226361 0.075847 -0.005906 -1547500.000000 0 0 1
34.905972 -5.527126 12.910600 37.625252 -0.157039 1.220542 0.073236 -0.002745 -375227.000000 0 0 1
34.116572 -6.407026 13.685200 37.313204 -0.185636 1.195266 0.063909 0.001020 -305002.000000 0 0 1
32.789542 -6.362326 13.217000 35.921057 -0.191654 1.193998 0.079996 0.003846 101633.000000 0 0 1
31.824222 -7.415926 13.845900 35.489238 -0.228942 1.170009 0.071081 -0.002682 106324.000000 0 0 1
31.506582 -7.177126 15.181100 35.702124 -0.223976 1.131596 0.080854 0.007535 98077.100000 0 0 1
30.546532 -8.139426 15.565200 35.236577 -0.260409 1.113266 0.069948 0.011215 133762.000000 0 0 1
30.090842 -8.152126 17.030400 35.523942 -0.264566 1.070818 0.053551 0.004502 245912.000000 0 0 1
31.156222 -8.517926 17.894500 36.925308 -0.266873 1.064875 0.039078 0.005977 132895.000000 0 0 1
30.753812 -8.653326 19.235200 37.291687 -0.274282 1.028851 0.039356 -0.005733 -364919.000000 0 0 1
31.916372 -9.086726 20.123400 38.809466 -0.277366 1.025680 0.047426 -0.004221 -388449.000000 0 0 1
32.898222 -8.154126 20.406400 39.562659 -0.242963 1.028856 0.059832 0.001493 -866539.000000 0 0 1
34.128722 -8.527826 19.853300 40.393651 -0.244859 1.056990 0.025032 0.013372 -706636.000000 0 0 1
35.266182 -7.756426 20.525700 41.535167 -0.216493 1.053909 0.021570 0.002024 -359522.000000 0 0 1
35.371442 -8.171826 21.868400 42.380946 -0.227045 1.028626 0.031763 -0.005855 293660.000000 0 0 1
-36.689315 -8.197326 22.284300 43.702311 0.219815 1.035715 0.038639 -0.006517 209032.000000 0 0 1
-36.477035 -8.776426 23.714100 44.384212 0.236114 1.007127 0.042520 -0.006372 165786.000000 0 0 1
36.269772 -7.977726 24.720300 44.612036 -0.216508 0.983494 0.046250 -0.008593 373030.000000 0 0 1
36.030792 -8.834926 25.816300 45.196850 -0.240461 0.962833 0.049011 -0.016909 -63563.100000 0 0 1
35.670312 -8.146026 27.159900 45.567413 -0.224520 0.932239 0.069658 -0.020402 34164.200000 0 0 1
-36.621135 -7.567726 27.775600 46.581777 0.203781 0.931942 0.050321 -0.032236 -182339.000000 0 0 1
36.449222 -6.756526 28.841700 46.968501 -0.183288 0.909596 0.063758 -0.044047 181760.000000 0 0 1
-35.643207 -6.434526 29.572100 46.758426 0.178602 0.886092 0.082962 -0.041937 465622.000000 0 0 1
-35.279930 -7.484626 30.428600 47.186786 0.209050 0.869964 0.073035 -0.039615 156669.000000 0 0 1
-33.959685 -7.288926 30.925700 46.505780 0.211427 0.843321 0.076501 -0.044843 619445.000000 0 0 1
-33.550415 -8.052526 32.217100 47.206091 0.235557 0.819649 0.066265 -0.034309 -70407.300000 0 0 1
-33.633255 -9.443426 32.035800 47.399015 0.273729 0.828645 0.060824 -0.030606 191366.000000 0 0 1
-33.024015 -10.165426 33.096000 47.846281 0.298615 0.806935 0.050216 -0.019891 -82296.900000 0 0 1
-33.394385 -11.660126 33.059500 48.415638 0.335930 0.819171 0.054644 -0.017157 667343.000000 0 0 1
-34.785615 -11.854726 33.334800 49.616352 0.328450 0.834091 0.037511 -0.020473 270161.000000 0 0 1
-35.150541 -13.189426 33.163000 50.092974 0.358970 0.847274 0.037980 -0.016235 -596053.000000 0 0 1
-36.619775 -13.417126 33.458700 51.385910 0.351201 0.861729 0.043524 -0.012476 -647003.000000 0 0 1
36.457982 -14.777026 33.656700 51.771792 -0.385081 0.863084 0.042217 -0.018749 882360.000000 0 0 1
35.064752 -15.104126 33.819800 51.004415 -0.406730 0.845876 0.024480 -0.015874 666077.000000 0 0 1
34.827792 -16.596826 34.044700 51.453584 -0.444704 0.847768 0.013409 -0.007017 -158780.000000 0 0 1
35.330102 -17.011226 -32.844465 51.150335 -0.448733 2.268052 0.026470 -0.014656 292243.000000 0 0 1
35.427942 -18.461926 -32.746865 51.655967 -0.480394 2.257435 0.021966 -0.018046 -248796.000000 0 0 1
36.141142 -18.970526 -31.493265 51.554716 -0.483369 2.227956 0.029315 -0.020572 -254113.000000 0 0 1
35.251932 -18.968426 -30.433765 50.286320 -0.493647 2.220825 0.027083 -0.015781 -225288.000000 0 0 1
35.549852 -20.053626 -29.597465 50.417753 -0.513603 2.198200 0.027489 -0.015193 -753508.000000 0 0 1
34.508262 -20.248126 -28.465565 49.102903 -0.530629 2.189172 0.030116 -0.016862 -411725.000000 0 0 1
33.342572 -20.810426 -28.953565 48.817106 -0.557980 2.205704 0.032830 -0.013028 -882569.000000 0 0 1
32.356642 -19.907926 -29.361665 48.014427 -0.551569 2.228773 0.029620 -0.011141 -926039.000000 0 0 1
31.059352 -20.647526 -29.739365 47.701504 -0.586693 2.243940 0.038716 -0.002356 -998677.000000 0 0 1
30.030172 -19.886226 -30.179265 46.990012 -0.584910 2.268224 0.032694 0.001553 -1202280.000000 0 0 1
28.845032 -20.602526 -30.315365 46.642484 -0.620225 2.278317 0.044847 0.004388 -233396.000000 0 0 1
27.853362 -19.893826 -31.270365 46.361728 -0.620215 2.311065 0.044254 0.005828 36960.100000 0 0 1
28.315662 -19.876026 -32.607865 47.540572 -0.612030 2.326630 0.028521 0.002825 497061.000000 0 0 1
27.228762 -19.745026 -33.528265 47.491221 -0.627409 2.354615 0.059982 0.004096 430800.000000 0 0 1
27.645962 -19.884526 33.138200 47.516670 -0.623533 0.799031 0.060166 0.005117 25128.500000 0 0 1
28.612582 -18.943826 32.712600 47.409520 -0.584821 0.809306 0.033596 0.003914 225564.000000 0 0 1
28.820762 -18.883326 31.323000 46.565509 -0.580021 0.832991 0.045719 0.003004 29009.900000 0 0 1
27.658462 -18.229326 30.509700 45.034883 -0.582737 0.826481 0.041788 0.000631 140298.000000 0 0 1
27.471662 -16.808226 30.809200 44.569221 -0.549079 0.807556 0.046605 -0.005994 507787.000000 0 0 1
26.441562 -16.255126 30.004700 43.170214 -0.551199 0.802331 0.047184 -0.008905 78639.500000 0 0 1
26.157762 -14.822726 30.424600 42.773801 -0.515549 0.779464 0.052063 -0.010735 166257.000000 0 0 1
27.277562 -13.971426 30.187000 43.017684 -0.473356 0.792967 0.066271 -0.007892 498275.000000 0 0 1
27.192162 -12.786826 31.014700 43.183657 -0.439557 0.769578 0.081296 -0.017584 -391993.000000 0 0 1
28.416542 -11.869026 30.949000 43.660214 -0.395654 0.782915 0.082759 -0.024380 -334203.000000 0 0 1
28.715592 -11.418326 29.663700 42.835715 -0.378466 0.805849 0.079985 -0.028102 -437954.000000 0 0 1
30.093242 -11.165126 29.706800 43.735080 -0.355275 0.824064 0.088438 -0.028996 -226197.000000 0 0 1
30.702112 -10.625026 28.392300 43.146652 -0.333168 0.852581 0.094327 -0.028296 -208556.000000 0 0 1
30.507802 -9.219226 28.333900 42.644226 -0.293467 0.844072 0.102676 -0.034798 1038.440000 0 0 1
31.006642 -8.610726 27.130100 42.090365 -0.270880 0.870338 0.118474 -0.033064 150333.000000 0 0 1
30.829562 -7.109026 27.008600 41.598854 -0.226630 0.864181 0.107774 -0.035494 766789.000000 0 0 1
29.515542 -6.657926 26.649700 40.319992 -0.221860 0.848706 0.108907 -0.032821 296114.000000 0 0 1
29.455472 -5.266426 26.579200 40.022668 -0.176923 0.844502 0.102054 -0.027258 -461655.000000 0 0 1
28.044962 -4.716926 26.484900 38.861539 -0.166632 0.820959 0.081025 -0.019449 -599894.000000 0 0 1
27.467962 -5.029726 25.225200 37.631075 -0.181106 0.836144 0.085514 -0.020812 -149759.000000 0 0 1
26.100362 -4.687726 25.232500 36.604409 -0.177709 0.810233 0.076738 -0.019908 -8380.320000 0 0 1
25.358262 -5.216226 23.969800 35.281749 -0.202871 0.823876 0.074228 -0.017916 46037.700000 0 0 1
25.759862 -4.449826 22.799600 34.687076 -0.171055 0.853574 0.082735 -0.006169 51306.600000 0 0 1
24.944262 -4.696426 21.704000 33.396650 -0.186098 0.863362 0.069886 -0.003596 -172809.000000 0 0 1
25.301062 -3.848226 20.499700 32.790094 -0.150941 0.895435 0.075260 -0.004734 125681.000000 0 0 1
24.813362 -2.520326 20.624200 32.363755 -0.101224 0.879856 0.056130 0.003061 167579.000000 0 0 1
25.342762 -1.672526 19.595500 32.078600 -0.065901 0.913651 0.056202 0.005014 -140972.000000 0 0 1
24.274462 -0.628426 19.206700 30.960326 -0.025883 0.901588 0.044419 -0.005739 -291586.000000 0 0 1
23.267262 -1.309426 18.518900 29.766252 -0.056218 0.899318 0.050138 -0.004403 -1301660.000000 0 0 1
22.369762 -0.407126 17.999900 28.715299 -0.018198 0.893305 0.062431 -0.008259 -451568.000000 0 0 1
21.210462 -1.113726 17.266600 27.372606 -0.052460 0.888214 0.078646 -0.016643 -311953.000000 0 0 1
21.601862 -1.870926 16.161800 27.043384 -0.086394 0.930261 0.105106 -0.020066 557302.000000 0 0 1
20.426862 -2.450526 15.568000 25.799698 -0.119395 0.923016 0.113389 -0.025181 437484.000000 0 0 1
20.648962 -3.231126 14.256800 25.299727 -0.155220 0.972161 0.120879 -0.032900 -134189.000000 0 0 1
19.536162 -3.952826 13.748600 24.213849 -0.199639 0.966967 0.125837 -0.033598 665805.000000 0 1 0
19.692962 -4.231426 12.360100 23.632389 -0.211652 1.020411 0.120450 -0.031751 -352508.000000 0 1 0
18.600562 -5.171426 11.878800 22.667829 -0.271177 1.019211 0.106948 -0.029897 -357872.000000 0 1 0
18.842062 -6.519326 12.300500 23.427062 -0.333106 1.018016 0.134254 -0.035557 767372.000000 0 1 0
17.704162 -7.351526 12.153100 22.697580 -0.393577 1.005772 0.109274 -0.021090 -127388.000000 0 1 0
17.948862 -8.814826 12.491300 23.577434 -0.456509 1.012433 0.123727 -0.035546 -282619.000000 0 1 0
18.557662 -9.588226 11.473200 23.831811 -0.476896 1.068518 0.105427 -0.045267 484491.000000 0 1 0
18.319362 -10.945426 11.685700 24.330166 -0.538563 1.069803 0.120068 -0.040440 -160477.000000 0 1 0
18.830962 -11.735226 10.485500 24.541116 -0.557295 1.129333 0.101138 -0.041810 -74145.200000 0 1 0
18.127062 -11.462826 9.290400 23.373025 -0.563874 1.162023 0.087957 -0.031057 233731.000000 0 1 0
18.878962 -11.873126 8.184800 23.756626 -0.561404 1.219061 0.099469 -0.043339 -149844.000000 0 1 0
18.599762 -11.144726 6.902900 22.755353 -0.539821 1.262587 0.090436 -0.028837 -144104.000000 0 1 0
18.862762 -9.754826 6.903600 22.329803 -0.477271 1.256481 0.074790 -0.025006 382269.000000 0 1 0
19.147362 -9.336126 5.566400 22.017482 -0.453673 1.315205 0.041815 -0.026357 -501524.000000 0 1 0
19.989562 -8.029326 5.516100 22.236907 -0.381950 1.320119 0.088278 -0.018672 -273964.000000 0 1 0
20.499162 -7.788426 4.229000 22.332928 -0.363093 1.380284 0.092629 -0.022278 510230.000000 0 1 0
21.090562 -6.511926 4.248400 22.478120 -0.299474 1.380651 0.114688 -0.022660 -486755.000000 0 1 0
21.623462 -5.933526 2.869400 22.605625 -0.267810 1.443520 0.113393 -0.027586 20313.700000 0 1 0
20.562762 -5.625326 1.970800 21.409239 -0.267035 1.478612 0.075021 -0.037392 514521.000000 0 1 0
20.886062 -5.649426 0.600400 21.644955 -0.264166 1.543054 0.063862 -0.020497 -293577.000000 0 1 0
-26.054575 -15.272626 0.250900 30.201935 0.530194 1.562489 0.069258 -0.017989 -1071900.000000 0 0 1
-25.107645 -14.793626 -0.691600 29.150017 0.532446 1.594524 0.063482 -0.013664 366529.000000 0 0 1
-23.802125 -15.300626 -0.461600 28.299529 0.571315 1.587108 0.074196 -0.017271 212649.000000 0 0 1
-23.044625 -14.814226 0.768500 27.406324 0.571332 1.542752 0.094007 -0.027813 -1371780.000000 0 0 1
-23.501625 -15.340926 1.999200 28.136581 0.578313 1.499683 0.076869 -0.010388 -284521.000000 0 0 1
-22.647525 -15.021726 3.047600 27.346855 0.585657 1.459122 0.088921 -0.005379 -177290.000000 0 0 1
-23.063125 -15.678626 4.381400 28.229837 0.597049 1.414962 0.087818 0.000750 -280347.000000 0 0 1
-22.903025 -17.096526 4.355400 28.910366 0.641241 1.419569 0.092774 -0.006422 353997.000000 0 0 1
-23.301425 -17.699526 5.606200 29.793608 0.649610 1.381500 0.092338 -0.011783 -101662.000000 0 0 1
-23.570225 -19.208626 5.322500 30.868362 0.683792 1.397505 0.068376 -0.008503 -62920.900000 0 0 1
-23.869225 -19.863226 6.572300 31.740869 0.694051 1.362226 0.065454 -0.010866 38252.000000 0 0 1
-24.187425 -21.242626 6.445000 32.830149 0.720668 1.373200 0.063920 -0.016211 -77312.500000 0 0 1
-24.805825 -21.984726 7.645400 34.016309 0.725179 1.344103 0.073698 -0.017655 370607.000000 0 0 1
-23.860225 -22.129926 8.704100 33.686871 0.747793 1.309449 0.085165 -0.019221 -73948.500000 0 0 1
-24.456825 -22.810926 9.793400 34.848031 0.750591 1.285927 0.088247 -0.022640 190066.000000 0 0 1
-23.570925 -23.035326 11.062400 34.764801 0.773907 1.246959 0.096530 -0.025681 85030.500000 0 0 1
-23.293525 -21.865526 11.749000 34.040102 0.753787 1.218396 0.083108 -0.020868 -48455.600000 0 0 1
-22.606325 -22.028726 12.973500 34.126564 0.772458 1.180829 0.090411 -0.022639 -463138.000000 0 0 1
-23.314825 -21.442826 14.147800 34.692017 0.743597 1.150741 0.074884 -0.018006 -961836.000000 0 0 1
-24.536125 -22.051226 14.414200 36.000655 0.732110 1.158857 0.068858 -0.015489 -572143.000000 0 0 1
-25.137855 -21.440326 15.518400 36.502329 0.706181 1.131686 0.072386 -0.007671 -410943.000000 0 0 1
-26.531795 -21.971126 15.870100 37.927913 0.691645 1.139083 0.042387 -0.002555 -749848.000000 0 0 1
-27.529255 -21.643226 14.933400 38.069614 0.666263 1.167703 0.043158 0.003615 119413.000000 0 0 1
-28.100625 -22.686026 14.148600 38.787675 0.679185 1.197410 0.042378 -0.004461 12569.000000 0 0 1
-29.175435 -23.518626 14.863400 40.314419 0.678456 1.193200 0.051426 -0.006050 -734071.000000 0 0 1
-28.679705 -24.217826 15.987800 40.799979 0.701248 1.168146 0.042523 -0.001124 283113.000000 0 0 1
-29.533385 -25.273016 16.500200 42.227985 0.707819 1.169360 0.033215 0.003800 227884.000000 0 0 1
-29.417175 -26.585516 15.653300 42.628460 0.734878 1.194796 0.055309 0.000125 131743.000000 0 0 1
-29.992625 -26.606776 14.360600 42.587614 0.725648 1.226854 0.062147 -0.013025 557748.000000 0 0 1
-31.342485 -27.092916 14.296400 43.826527 0.712803 1.238511 0.055861 -0.016829 472792.000000 0 0 1
-31.848405 -27.345986 12.873800 43.907386 0.709483 1.273220 0.059885 -0.023637 -290520.000000 0 0 1
-31.510255 -28.580036 12.267300 44.274160 0.736673 1.290047 0.087960 -0.036861 11111.700000 0 0 1
-32.065725 -28.790686 10.971800 44.469031 0.731634 1.321493 0.070843 -0.018484 -85315.300000 0 0 1
-31.599955 -30.047656 10.191300 44.780368 0.760223 1.341200 0.089029 -0.025563 -175622.000000 0 0 1
-31.880815 -31.305996 10.792900 45.966710 0.776301 1.333785 0.070019 -0.013590 460738.000000 0 0 1
-30.991475 -32.363096 10.380900 45.995701 0.807045 1.343142 0.068581 -0.021698 203656.000000 0 0 1
-31.017965 -33.607506 11.324200 47.114924 0.825447 1.328067 0.054771 -0.016801 161489.000000 0 0 1
-32.248375 33.935016 11.177000 48.129703 -0.810877 1.336430 0.055521 -0.013343 -36359.800000 0 0 1
-32.300155 32.696820 11.881100 47.471492 -0.791501 1.317828 0.065269 -0.018405 -1134630.000000 0 0 1
-33.658525 32.313452 12.462500 48.294610 -0.765012 1.309791 0.080050 -0.014887 221307.000000 0 0 1
-34.746200 32.008235 11.558300 48.635582 -0.744406 1.330849 0.041896 -0.017179 713619.000000 0 0 1
-35.275954 33.228226 11.048100 49.704813 -0.755515 1.346650 0.054782 -0.011932 -404860.000000 0 0 1
-36.696545 33.079335 10.397000 50.487389 -0.733604 1.363380 0.039804 0.003244 647052.000000 0 0 1
-36.661745 32.328617 9.214200 49.740572 -0.722673 1.384475 0.026561 -0.004375 -191967.000000 0 0 1
35.460882 32.142605 8.707900 48.646159 0.736353 1.390821 0.017748 -0.000592 -360610.000000 0 0 1
35.319822 31.397615 7.329100 47.822754 0.726677 1.416934 0.017429 -0.008343 -228598.000000 0 0 1
35.537492 30.015515 7.455700 47.110848 0.701360 1.411869 0.040898 -0.016111 77402.000000 0 0 1
35.463702 29.464125 6.179200 46.518720 0.693256 1.437570 0.067627 -0.022993 -114201.000000 0 0 1
35.467512 27.920975 6.206200 45.563606 0.666904 1.434162 0.081887 -0.022998 -323863.000000 0 0 1
34.356212 27.316565 6.795300 44.415314 0.671745 1.417199 0.078913 -0.022620 -307121.000000 0 0 1
34.625832 26.760355 8.100900 44.504937 0.657961 1.387753 0.064156 -0.018242 80692.900000 0 0 1
33.638512 25.627015 8.484400 43.130945 0.651033 1.372792 0.062864 -0.009502 54069.000000 0 0 1
33.896112 24.449615 7.748200 42.506055 0.624885 1.387487 0.073359 -0.017178 148127.000000 0 0 1
32.798732 23.558265 7.717800 41.113418 0.622881 1.381956 0.069043 -0.017479 -577563.000000 0 0 1
33.135412 22.344155 6.880000 40.553067 0.593288 1.400318 0.057476 -0.016153 392832.000000 0 0 1
34.136092 21.439455 7.314400 40.968567 0.560796 1.391297 0.082745 -0.016652 1292430.000000 0 0 1
35.505492 21.914755 7.368700 42.369732 0.552986 1.395993 0.086077 -0.024207 354283.000000 0 0 1
36.562972 20.850855 7.296000 42.718154 0.518274 1.399161 0.073393 -0.021147 -624924.000000 0 0 1
36.361362 20.083955 6.105000 41.985532 0.504641 1.424872 0.091469 -0.031714 232688.000000 0 0 1
-36.463335 18.786355 6.328900 41.503697 -0.475743 1.417709 0.096225 -0.027062 26695.900000 0 0 1
36.465182 17.615655 5.392800 40.854658 0.450021 1.438410 0.092173 -0.023970 13163.500000 0 0 1
-36.336925 17.557955 4.129900 40.567351 -0.450116 1.468816 0.100154 -0.028641 83211.800000 0 0 1
36.430972 16.566355 3.344800 40.160273 0.426783 1.487413 0.093412 -0.027520 -734224.000000 0 0 1
-36.094895 15.991155 2.196400 39.539634 -0.417043 1.515218 0.107539 -0.018570 -144283.000000 0 0 1
-35.122006 15.097655 2.654800 38.321567 -0.405983 1.501464 0.111328 -0.025162 -712335.000000 0 0 1
-33.948065 15.795755 2.906900 37.555653 -0.435498 1.493316 0.119098 -0.029508 -578338.000000 0 0 1
-32.561765 15.056755 2.872700 35.989259 -0.433123 1.490890 0.116860 -0.025461 773643.000000 0 0 1
-32.424015 14.260355 4.065800 35.653964 -0.414346 1.456513 0.118830 -0.026259 246308.000000 0 0 1
-31.063405 13.963055 4.319600 34.330176 -0.422440 1.444637 0.115148 -0.028463 76451.800000 0 0 1
-30.753095 13.260955 5.686900 33.969789 -0.407116 1.402594 0.121440 -0.024243 -260842.000000 0 0 1
-31.228675 11.979455 5.886500 33.961572 -0.366293 1.396588 0.131663 -0.017951 180991.000000 0 0 1
-30.788315 11.418455 7.119900 33.600512 -0.355145 1.357279 0.122426 -0.010814 -57900.500000 0 0 1
-30.975725 9.901855 7.206300 33.308753 -0.309399 1.352723 0.130844 -0.008739 1039450.000000 0 0 1
-32.326675 9.369755 7.295100 34.438709 -0.282115 1.357351 0.123636 -0.007954 977962.000000 0 0 1
-32.470325 7.979155 7.330700 34.230514 -0.240962 1.354968 0.136929 -0.009346 -276936.000000 0 0 1
-33.912745 7.460555 7.283400 35.479319 -0.216543 1.364041 0.122082 -0.005507 -329964.000000 0 0 1
-34.628392 7.387355 8.489100 36.411033 -0.210182 1.335484 0.119118 -0.010418 -403977.000000 0 0 1
-35.892085 6.901055 8.124100 37.441518 -0.189954 1.352076 0.081872 -0.010919 314331.000000 0 0 1
36.625932 6.247155 9.266900 38.293097 0.168941 1.326371 0.077494 -0.014179 324817.000000 0 0 1
36.095582 7.070055 10.281800 38.191519 0.193422 1.298217 0.086261 -0.012464 -80030.600000 0 0 1
-36.429515 7.710755 11.166700 38.874934 -0.208584 1.279445 0.112729 -0.023856 -600328.000000 0 0 1
36.294472 8.780255 11.969800 39.212979 0.237357 1.260594 0.098350 -0.030580 -416665.000000 0 0 1
35.377462 8.220555 12.892600 38.540388 0.228315 1.229699 0.090759 -0.031133 251474.000000 0 0 1
35.058012 9.234955 13.809800 38.795092 0.257568 1.206847 0.128752 -0.046431 -453553.000000 0 0 1
34.314442 8.670655 15.045000 38.457941 0.247502 1.168854 0.119076 -0.050012 860779.000000 0 0 1
32.983592 8.175455 14.706400 37.027471 0.242968 1.162359 0.104581 -0.045358 1532040.000000 0 0 1
32.369562 7.747955 15.965600 36.915034 0.234939 1.123537 0.102381 -0.036841 -48502.500000 0 0 1
30.868382 7.456355 15.882600 35.506496 0.237013 1.107035 0.069492 -0.030050 -1064080.000000 0 0 1
30.086822 8.610655 15.738900 35.029605 0.278743 1.104812 0.054326 -0.032298 173590.000000 0 0 1
28.709782 8.362355 15.525200 33.692913 0.283430 1.091916 0.048827 -0.027080 443310.000000 0 0 1
27.865662 7.795555 16.715200 33.416519 0.272781 1.046958 0.045660 -0.012494 -658917.000000 0 0 1
27.944162 8.695655 17.845000 34.277320 0.301682 1.023235 0.061815 -0.025705 -169136.000000 0 0 1
27.315662 8.202455 18.967900 34.252108 0.291717 0.983907 0.057050 -0.019605 -403497.000000 0 0 1
27.848862 6.905755 19.697200 34.802705 0.243070 0.969190 0.056183 -0.022670 218338.000000 0 0 1
27.185362 6.703055 20.955200 34.972779 0.241746 0.928312 0.037867 -0.010001 74438.700000 0 0 1
27.813962 5.718555 21.743700 35.764603 0.202774 0.917299 0.049635 -0.009964 -184034.000000 0 0 1
27.262562 5.537755 23.216400 36.234173 0.200400 0.875345 0.044106 -0.003292 352068.000000 0 0 1
25.933762 5.055855 23.222100 35.176521 0.192538 0.849766 0.020707 -0.014322 -570174.000000 0 0 1
25.006562 5.963055 23.697700 34.963798 0.234088 0.826060 0.026557 -0.006853 997069.000000 0 0 1
23.494162 5.587855 23.369200 33.605346 0.233502 0.801818 0.052045 -0.026071 901450.000000 0 0 1
23.219062 5.357955 21.985900 32.422405 0.226787 0.825611 0.068591 -0.019841 -93437.800000 0 0 1
21.867762 5.191155 21.659000 31.213129 0.233074 0.803896 0.077838 -0.021616 -560797.000000 0 0 1
20.987462 4.007755 22.217300 30.824407 0.188688 0.765884 0.083210 -0.022405 253945.000000 0 0 1
19.823362 3.758255 21.419300 29.425781 0.187363 0.755528 0.090163 -0.031676 -124713.000000 0 0 1
18.712862 4.356755 21.973600 29.188896 0.228746 0.718480 0.092015 -0.026616 -1501120.000000 0 0 1
17.464262 4.226455 21.095100 27.710406 0.237441 0.705527 0.117870 -0.029601 -723333.000000 0 0 1
16.621762 3.200355 21.568400 27.417533 0.190212 0.665409 0.099765 -0.028928 -76574.700000 0 0 1
15.629962 3.070955 20.547000 25.998186 0.194007 0.659458 0.101496 -0.030566 72273.000000 0 0 1
14.637462 1.896655 20.886300 25.575186 0.128857 0.615192 0.101819 -0.024653 -92276.200000 0 0 1
15.104262 0.546355 20.841400 25.744926 0.036156 0.627438 0.078781 -0.026495 215427.000000 0 0 1
14.198562 -0.276545 21.556000 25.813500 -0.019475 0.582542 0.087793 -0.026670 -85684.000000 0 0 1
14.475162 -1.853045 21.545600 26.022624 -0.127323 0.595343 0.062266 -0.023682 -38646.900000 0 0 1
14.142162 -2.487345 20.318500 24.880295 -0.174101 0.615213 0.071986 -0.020740 14308.000000 0 1 0
14.482462 -3.824545 20.283700 25.215022 -0.258187 0.636082 0.066679 -0.017306 -251357.000000 0 0 1
14.041862 -4.503445 18.971000 24.028187 -0.310352 0.660752 0.063546 -0.017026 259218.000000 0 1 0
12.625662 -4.543745 18.887900 23.169068 -0.345451 0.617686 0.073247 -0.021481 -18338.400000 0 1 0
12.152762 -5.183445 17.765600 22.139880 -0.403161 0.639448 0.067711 -0.015791 -170864.000000 0 1 0
10.639662 -5.295745 17.535000 21.183096 -0.461835 0.595652 0.059068 -0.014138 319.241000 0 1 0
9.990062 -6.185745 18.403300 21.834519 -0.554410 0.568233 0.063963 -0.009771 419113.000000 0 1 0
8.566562 -6.177745 18.179200 21.024601 -0.624778 0.526317 0.052611 -0.018570 946842.000000 0 1 0
7.829462 -7.091645 19.175400 21.892644 -0.735991 0.503533 0.054623 -0.027777 -392178.000000 0 1 0
7.952762 -8.453145 18.879200 22.161369 -0.815889 0.551200 0.058365 -0.031040 -283085.000000 0 1 0
9.038662 -9.172945 19.422400 23.303861 -0.792771 0.585490 0.082016 -0.032414 13893.100000 0 1 0
9.204462 -10.582945 18.833000 23.481966 -0.854950 0.640127 0.089361 -0.033228 32039.200000 0 1 0
9.536562 -10.583845 17.475300 22.546616 -0.837402 0.683964 0.076758 -0.026102 -6345.800000 0 1 0
9.723662 -11.908845 16.959000 22.890563 -0.886071 0.736427 0.068715 -0.025125 273759.000000 0 1 0
9.778962 -11.994145 15.435000 21.856963 -0.886789 0.786705 0.065579 -0.022093 441070.000000 0 1 0
10.377062 -13.220845 14.962500 22.502235 -0.905330 0.843391 0.058362 -0.014077 141868.000000 0 1 0
10.050162 -13.473845 13.620700 21.635012 -0.929923 0.889800 0.045945 -0.003538 -222682.000000 0 1 0
10.981062 -14.517145 12.952300 22.340396 -0.923199 0.952349 0.072462 -0.014182 287197.000000 0 1 0
12.326562 -14.181645 12.689500 22.673478 -0.855266 0.976818 0.058217 -0.017854 85711.900000 0 1 0
12.502562 -13.272945 11.621600 21.622829 -0.815277 1.003363 0.033603 -0.013534 -1612780.000000 0 1 0
13.900462 -13.143145 11.096500 22.115547 -0.757402 1.045174 0.057791 -0.022738 -916456.000000 0 1 0
14.469862 -14.245045 10.402500 22.814693 -0.777569 1.097350 0.067447 -0.018822 -231496.000000 0 1 0
15.754062 -13.881645 9.968500 23.243527 -0.722301 1.127552 0.077421 -0.027369 -597729.000000 0 1 0
16.541662 -15.082745 9.463800 24.303895 -0.739298 1.170822 0.072888 -0.029282 -204987.000000 0 1 0
17.099262 -15.867845 10.514600 25.587694 -0.748063 1.147329 0.082430 -0.028922 92450.900000 0 0 1
16.248262 -16.907645 10.935900 25.874087 -0.805283 1.134420 0.096598 -0.024163 -37107.700000 0 0 1
16.735662 -17.652045 12.203000 27.213789 -0.812040 1.105808 0.081254 -0.020772 42726.800000 0 0 1
18.036062 -18.198945 12.140900 28.353176 -0.789893 1.128294 0.107637 -0.026429 38550.000000 0 0 1
18.360462 -18.762345 13.427800 29.486234 -0.796224 1.097984 0.089151 -0.023353 -283159.000000 0 0 1
19.625262 -19.603145 13.346400 30.782472 -0.784834 1.122344 0.048457 -0.030122 -650771.000000 0 0 1
20.785962 -18.856945 13.179500 31.005480 -0.736777 1.131757 0.056183 -0.032326 -117145.000000 0 0 1
21.950262 -19.642645 12.848700 32.136219 -0.729974 1.159476 0.048454 -0.034803 670495.000000 0 0 1
22.696562 -19.016745 11.669400 31.826803 -0.697409 1.195387 0.063721 -0.027330 -579801.000000 0 0 1
22.155662 -19.172945 10.373000 31.081736 -0.713352 1.230536 0.063686 -0.019488 650417.000000 0 0 1
20.911762 -18.517145 10.061200 29.688621 -0.724740 1.225059 0.065647 -0.019889 426750.000000 0 0 1
20.876862 -16.920345 10.119400 28.714869 -0.681100 1.210652 0.107642 -0.029150 481506.000000 0 0 1
21.860562 -16.229045 9.286900 28.766519 -0.638612 1.242071 0.097084 -0.016731 826413.000000 0 0 1
21.702262 -14.834345 9.386800 27.913402 -0.599593 1.227829 0.113385 -0.029095 70598.000000 0 0 1
-35.022772 25.096874 8.154600 43.851399 -0.621772 1.383748 0.097483 -0.026792 273425.000000 0 0 1
-34.040895 24.390874 8.911100 42.814775 -0.621725 1.361132 0.097179 -0.028498 562769.000000 0 0 1
-33.049045 25.313374 9.371500 42.671200 -0.653621 1.349370 0.100194 -0.025442 162440.000000 0 0 1
-31.855925 24.586374 10.075200 41.482519 -0.657307 1.325465 0.105192 -0.022240 253052.000000 0 0 1
-31.175955 23.725574 9.138100 40.228695 -0.650518 1.341642 0.093065 -0.023502 263536.000000 0 0 1
-30.438745 22.746974 9.907600 39.269613 -0.641773 1.315743 0.086035 -0.021183 -27513.600000 0 0 1
-29.641415 21.795774 8.977000 37.871569 -0.634036 1.331481 0.078140 -0.023754 -217056.000000 0 0 1
-30.390985 21.064974 7.990000 37.831008 -0.606102 1.357991 0.082225 -0.034166 -99119.300000 0 0 1
-29.638065 20.236574 7.186600 36.600287 -0.599082 1.373159 0.082290 -0.034363 -709571.000000 0 0 1
-30.557995 19.417574 6.315200 36.752074 -0.566067 1.398107 0.079049 -0.031565 -316002.000000 0 0 1
-31.158545 18.285674 6.957500 36.791678 -0.530701 1.380545 0.094070 -0.029600 458775.000000 0 0 1
-32.055865 17.717374 6.007200 37.115634 -0.504916 1.408230 0.089864 -0.030853 -169634.000000 0 0 1
-32.800195 16.522374 6.569900 37.309586 -0.466626 1.393782 0.093520 -0.019946 -619952.000000 0 0 1
-33.791865 16.817274 7.499700 38.483195 -0.461784 1.374659 0.088206 -0.021276 24217.900000 0 0 1
-34.576548 15.654074 7.803200 38.748905 -0.425127 1.368031 0.089430 -0.025545 497474.000000 0 0 1
-35.456898 15.943774 9.084900 39.924065 -0.422576 1.341231 0.107049 -0.032467 109548.000000 0 0 1
-36.501475 16.827674 8.841900 41.154677 -0.431975 1.354263 0.109865 -0.029851 -19274.700000 0 0 1
36.101422 17.224874 9.946200 41.218150 0.445180 1.327085 0.140748 -0.029358 693098.000000 0 0 1
35.109672 18.392874 9.662000 40.796337 0.482560 1.331689 0.119099 -0.032927 287501.000000 0 0 1
33.907642 18.026374 9.002800 39.442728 0.488632 1.340517 0.104655 -0.033459 -178478.000000 0 0 1
33.052682 19.118674 9.145900 39.263864 0.524408 1.335702 0.089558 -0.019870 -872658.000000 0 0 1
31.696142 18.952874 8.469600 37.889194 0.538915 1.345356 0.072370 -0.025929 -825512.000000 0 0 1
30.912642 20.085274 8.773200 37.894310 0.576195 1.337159 0.062508 -0.018521 215710.000000 0 0 1
29.613212 20.203074 8.205300 36.775447 0.598701 1.345783 0.043018 -0.019917 430315.000000 0 0 1
29.449532 20.129674 6.643500 36.285187 0.599587 1.386666 0.026866 -0.010778 -858314.000000 0 0 1
29.686112 18.873674 6.013900 35.688203 0.566310 1.401476 0.042279 -0.018527 10509.600000 0 0 1
29.333102 18.869074 4.679900 35.190543 0.571629 1.437414 0.047788 -0.017041 -830255.000000 0 0 1
27.910462 19.076074 4.144500 34.059762 0.599548 1.448811 0.066375 -0.017780 -1510430.000000 0 0 1
26.999162 18.098974 4.638800 32.833612 0.590550 1.429040 0.060080 -0.025107 503239.000000 0 0 1
25.624862 18.360374 4.431700 31.833581 0.621718 1.431128 0.091419 -0.024621 374341.000000 0 0 1
24.978862 19.670774 4.983000 32.182498 0.667070 1.415335 0.094928 -0.020278 -842236.000000 0 0 1
25.557262 20.832274 4.399400 33.264275 0.683894 1.438152 0.080581 -0.024797 131473.000000 0 0 1
24.895162 22.021674 4.794200 33.581358 0.724228 1.427543 0.078399 -0.018511 97136.200000 0 0 1
25.760662 23.289274 4.471400 35.014217 0.735056 1.442744 0.043308 -0.006219 -134545.000000 0 0 1
26.976762 23.218974 5.147200 35.963316 0.710675 1.427180 0.053190 -0.011021 -666801.000000 0 0 1
27.772262 24.348574 5.002300 37.271633 0.719805 1.436178 0.032500 -0.003697 -676569.000000 0 0 1
29.137272 24.235974 5.736300 38.331035 0.693824 1.420580 0.034385 -0.007545 167020.000000 0 0 1
30.037632 23.259774 5.194300 38.343933 0.658907 1.434913 0.034258 -0.008486 397560.000000 0 0 1
30.410982 23.181974 3.841000 38.431563 0.651320 1.470685 0.032800 -0.009413 -687588.000000 0 0 1
31.316152 24.326674 3.344700 39.795420 0.660439 1.486650 0.060770 -0.022603 -955683.000000 0 0 1
30.731822 25.586374 3.440500 40.136573 0.694287 1.484971 0.049679 -0.019587 -365965.000000 0 0 1
31.571972 26.637574 3.010300 41.417529 0.700831 1.498050 0.089463 -0.016461 -1143400.000000 0 0 1
30.932662 28.018474 3.114900 41.851727 0.736004 1.496300 0.071010 -0.005868 -697.450000 0 0 1
29.885932 28.304474 2.192500 41.220374 0.758228 1.517581 0.090798 -0.016639 -351724.000000 0 0 1
28.684092 27.730274 2.562100 39.978864 0.768492 1.506666 0.072850 -0.006967 -894381.000000 0 0 1
27.381062 28.264874 1.874700 39.397210 0.801280 1.523194 0.046417 -0.006461 685812.000000 0 0 1
27.008962 29.600574 2.302700 40.137021 0.831147 1.513394 0.044900 -0.004928 551053.000000 0 0 1
25.664362 29.901974 1.918200 39.452085 0.861513 1.522156 0.030423 -0.006197 820974.000000 0 0 1
25.168562 31.267974 2.528900 40.218628 0.893056 1.507876 0.047880 -0.014954 42234.800000 0 0 1
25.022562 31.419474 3.944400 40.359265 0.898253 1.472908 0.016145 -0.024216 559971.000000 0 0 1
26.288662 31.613674 4.582800 41.370523 0.877106 1.459794 0.025191 -0.031737 561912.000000 0 0 1
26.188962 31.622174 6.124300 41.513018 0.879105 1.422729 0.029612 -0.036581 210209.000000 0 0 1
25.614962 30.408474 6.692100 40.318554 0.870753 1.404044 0.033130 -0.039790 468102.000000 0 0 1
26.444762 29.271574 6.530500 39.984971 0.836090 1.406738 0.043033 -0.042625 356523.000000 0 0 1
25.708962 28.023674 7.116300 38.690035 0.828450 1.385812 0.061423 -0.031144 902056.000000 0 0 1
24.574162 27.544574 6.364700 37.458009 0.842330 1.400052 0.034361 -0.035661 444885.000000 0 0 1
24.103162 26.303374 6.791400 36.317393 0.829020 1.382688 0.042588 -0.029618 832234.000000 0 0 1
22.791362 25.922074 5.947500 35.025318 0.849578 1.400164 0.042959 -0.019699 779303.000000 0 0 1
22.928662 25.723374 4.519200 34.753974 0.842778 1.440393 0.036112 -0.020652 176996.000000 0 0 1
23.513062 26.753774 3.719300 35.811475 0.849779 1.466751 0.020972 -0.019684 -141958.000000 0 0 1
23.670462 26.445274 2.222600 35.560979 0.840710 1.508254 0.019903 -0.011606 -1349580.000000 0 0 1
24.662762 25.554774 2.008600 35.571517 0.803159 1.514300 0.006796 0.009152 -808654.000000 0 0 1
24.757862 25.331374 0.570100 35.425348 0.796847 1.554703 0.017804 0.004265 -309623.000000 0 0 1
26.017262 24.563174 0.138800 35.780815 0.756658 1.566917 0.039769 -0.002845 -869907.000000 0 0 1
27.159862 25.407274 -0.027300 37.191241 0.752071 1.571530 0.060265 -0.008580 1258930.000000 0 0 1
28.301762 24.863174 -0.722700 37.678767 0.720810 1.589978 0.077293 -0.006992 959640.000000 0 0 1
29.000432 23.724574 0.050900 37.468428 0.685666 1.569438 0.064336 -0.008882 -955269.000000 0 0 1
28.213562 22.547574 -0.142700 36.116735 0.674238 1.574747 0.056751 -0.010773 329618.000000 0 0 1
28.512992 21.511674 0.775100 35.725952 0.646344 1.549099 0.046730 -0.008861 697224.000000 0 0 1
27.189562 20.785274 1.279300 34.248161 0.652690 1.533434 0.051304 -0.010686 776058.000000 0 0 1
26.635062 19.951774 0.300600 33.280478 0.642912 1.561764 0.084556 -0.030262 -1064770.000000 0 0 1
25.433462 19.509374 0.761300 32.063316 0.654340 1.547050 0.078078 -0.031942 -1568690.000000 0 0 1
24.876562 18.369574 -0.105800 30.924033 0.636054 1.574218 0.094567 -0.038703 301657.000000 0 0 1
23.546462 18.001474 0.268000 29.640526 0.652722 1.561755 0.092328 -0.037130 440879.000000 0 0 1
22.995262 16.994474 -0.598900 28.599876 0.636451 1.591739 0.104972 -0.048746 612795.000000 0 0 1
21.480262 16.748074 -0.345400 27.240025 0.662237 1.583477 0.093246 -0.034763 -405901.000000 0 0 1
20.932762 15.716974 -1.163800 26.202256 0.644033 1.615227 0.093698 -0.034812 1843630.000000 0 0 1
19.520362 15.433774 -0.911300 24.901333 0.669014 1.607401 0.089647 -0.032658 1666610.000000 0 1 0
18.469062 16.463674 -1.338500 24.778023 0.728054 1.624842 0.083847 -0.033324 -793249.000000 0 1 0
18.515262 17.648674 -0.506400 25.584118 0.761440 1.590591 0.079997 -0.030770 -243687.000000 0 0 1
17.418962 18.502374 -0.716600 25.421873 0.815550 1.598988 0.052943 -0.028580 -89224.000000 0 0 1
17.667862 19.967974 -0.304100 26.663942 0.846437 1.582201 0.057401 -0.024612 -74288.000000 0 0 1
17.810262 20.174774 1.119700 26.934749 0.847566 1.529214 0.066889 -0.013414 112732.000000 0 0 1
17.949962 21.509574 1.588300 28.060392 0.875364 1.514163 0.082352 -0.016618 209619.000000 0 0 1
16.776262 22.535074 1.386900 28.128207 0.930856 1.521470 0.079695 -0.019357 433811.000000 0 0 1
15.608962 22.284874 2.149000 27.292371 0.959783 1.491975 0.071596 -0.012271 615550.000000 0 0 1
14.507262 22.877674 1.431100 27.127416 1.005663 1.518017 0.068601 -0.024664 628818.000000 0 0 1
13.084362 22.644974 1.981200 26.228239 1.046857 1.495187 0.067666 -0.024063 197604.000000 0 0 1
12.832962 23.317274 3.181700 26.804914 1.067675 1.451817 0.067193 -0.006263 -868646.000000 0 0 1
11.499862 23.223274 3.535100 26.154621 1.111007 1.435220 0.061192 -0.009811 -671136.000000 0 0 1
11.209262 23.643874 4.949300 26.630357 1.128093 1.383858 0.067672 -0.009893 -97729.500000 0 0 1
11.795962 22.708774 5.826100 26.244554 1.091714 1.346939 0.066045 -0.027002 12488.900000 0 0 1
11.161662 22.675474 7.081100 26.246939 1.113380 1.297624 0.052599 -0.012195 -612850.000000 0 0 1
11.822462 21.686074 8.066900 25.983289 1.071674 1.255114 0.053616 -0.012815 1291560.000000 0 0 1
13.138962 21.884074 8.630900 26.945082 1.030091 1.244735 0.064203 -0.011256 1006860.000000 0 0 1
14.202762 21.883574 7.714300 27.205141 0.995114 1.283291 0.058466 -0.005949 -423058.000000 0 0 1
15.613762 21.720174 8.340100 28.019864 0.947525 1.268567 0.070322 -0.014320 77536.600000 0 0 1
15.858962 20.474274 8.967800 27.406642 0.911749 1.237444 0.076316 -0.012720 800462.000000 0 0 1
17.146162 20.421874 9.611400 28.344714 0.872372 1.224847 0.063032 -0.012882 684949.000000 0 0 1
17.316662 21.247874 10.949200 29.516503 0.886986 1.190763 0.037655 -0.000589 -965675.000000 0 0 1
16.327662 20.959274 11.878200 29.102841 0.908981 1.150374 0.051056 -0.014703 -222768.000000 0 0 1
16.532362 21.531174 13.183400 30.178013 0.915979 1.118697 0.061204 -0.009429 -230358.000000 0 0 1
17.623962 20.982574 14.151000 30.840286 0.872176 1.094098 0.070280 -0.001022 782138.000000 0 0 1
18.928562 21.282074 13.614700 31.568611 0.843861 1.124893 0.068325 0.001953 834559.000000 0 0 1
19.895762 20.655974 14.514000 32.142912 0.804143 1.102299 0.053719 -0.003120 932945.000000 0 0 1
21.369962 21.038074 14.225200 33.190845 0.777572 1.127867 0.058397 -0.006919 544996.000000 0 0 1
22.018162 20.510674 13.040100 32.795296 0.749967 1.161874 0.054573 -0.005280 321114.000000 0 0 1
23.349962 20.986374 12.972800 33.969724 0.732138 1.178953 0.083289 -0.004954 46932.600000 0 0 1
24.044562 20.590674 11.674900 33.740482 0.708172 1.217470 0.078328 -0.009846 -220998.000000 0 0 1
23.869462 21.425674 10.555800 33.767376 0.731498 1.252864 0.100972 -0.013170 355836.000000 0 0 1
24.580262 21.034374 9.392000 33.687444 0.707818 1.288254 0.100033 -0.020158 -533197.000000 0 0 1
24.437062 22.125174 8.323600 33.999642 0.735787 1.323468 0.095116 -0.020475 50735.400000 0 0 1
25.083962 23.347474 8.557000 35.320418 0.749559 1.326094 0.077028 -0.020394 -114350.000000 0 0 1
26.482162 23.404074 8.638200 36.382332 0.723774 1.331079 0.066245 -0.025622 -634581.000000 0 0 1
26.991062 24.762574 9.180000 37.762083 0.742365 1.325235 0.083288 -0.025053 938439.000000 0 0 1
28.421102 24.970374 9.190800 38.932627 0.720857 1.332477 0.070471 -0.020627 1301890.000000 0 0 1
28.707932 26.155974 9.935700 40.087386 0.738917 1.320335 0.077645 -0.016908 417052.000000 0 0 1
29.985192 26.912774 9.498900 41.396114 0.731452 1.339270 0.067958 -0.020032 275214.000000 0 0 1
29.719582 27.640874 8.320500 41.430692 0.749175 1.368592 0.073846 -0.029557 687487.000000 0 0 1
30.955582 28.019174 7.711100 42.459195 0.735648 1.388171 0.069492 -0.022627 295719.000000 0 0 1
30.819942 28.968174 6.478400 42.790111 0.754436 1.418812 0.086086 -0.025737 -21758.900000 0 0 1
30.430352 30.279274 6.704600 43.448733 0.782910 1.415867 0.087378 -0.025526 67023.700000 0 0 1
30.644272 31.132974 5.547800 44.035345 0.793309 1.444475 0.084627 -0.024166 98533.500000 0 0 1
30.730552 32.635174 5.851500 45.206874 0.815447 1.440994 0.042483 -0.016623 1092520.000000 0 0 1
29.449562 33.077074 6.347600 44.739933 0.843349 1.428438 0.041186 -0.027620 1050990.000000 0 0 1
29.570242 -33.759007 6.623400 45.364515 -0.851445 1.424269 0.031329 -0.011533 138277.000000 0 0 1
28.203962 -33.312307 7.176200 44.234275 -0.868249 1.407844 0.049518 -0.022595 3388.370000 0 0 1
27.143762 -33.494807 6.290200 43.568940 -0.889754 1.425917 0.043417 -0.023597 -677842.000000 0 0 1
26.046062 -32.659307 6.569300 42.286917 -0.897577 1.414814 0.031813 -0.036674 150355.000000 0 0 1
24.855162 -32.827507 5.604900 41.555255 -0.922738 1.435506 0.040257 -0.023461 281057.000000 0 0 1
25.331762 -32.377907 4.344300 41.338843 -0.906893 1.465512 0.017515 -0.001302 134564.000000 0 0 1
24.302162 -32.440407 3.370900 40.673555 -0.927851 1.487824 0.029204 -0.011204 96052.200000 0 0 1
24.784662 -31.811607 2.078500 40.380416 -0.908925 1.519301 0.032422 0.004884 -150138.000000 0 0 1
24.840962 -30.418507 2.133100 39.330765 -0.885991 1.516535 0.036666 0.014609 10108.700000 0 0 1
25.294062 -29.893807 0.922100 39.169880 -0.868553 1.547253 0.024334 0.016093 -752205.000000 0 0 1
25.720362 -28.389307 0.965700 38.319999 -0.834683 1.545593 0.027658 0.012179 10122.300000 0 0 1
24.687462 -27.399407 1.062700 36.896173 -0.837417 1.541990 0.019314 0.019418 -2856.500000 0 0 1
23.859962 -27.409007 -0.060100 36.339442 -0.854512 1.572450 0.025636 0.010734 -742518.000000 0 0 1
22.662662 -26.456707 0.009300 34.836097 -0.862486 1.570529 0.011071 0.008555 -294467.000000 0 0 1
23.013462 -25.059807 0.103500 34.023875 -0.827940 1.567754 0.017491 0.005534 -188408.000000 0 0 1
23.150262 -24.403907 1.369900 33.665441 -0.811755 1.530094 0.023862 0.012663 277622.000000 0 0 1
21.918462 -24.405907 2.319500 32.885367 -0.839043 1.500205 0.016613 0.008656 -45798.700000 0 0 1
22.152862 -23.631007 3.450800 32.574251 -0.817672 1.464661 0.023138 0.002457 -628222.000000 0 0 1
21.069662 -23.466407 4.298300 31.828891 -0.839162 1.435338 0.022621 -0.001411 -709956.000000 0 0 1
21.390762 -22.511207 5.458900 31.529648 -0.810914 1.396784 0.024474 -0.002253 -10335.300000 0 0 1
21.289362 -21.110007 5.192300 30.427443 -0.781168 1.399312 0.046135 0.001487 578143.000000 0 0 1
19.944962 -20.649807 5.055400 29.150868 -0.802759 1.396493 0.027389 0.005121 -79423.400000 0 0 1
19.848162 -19.118107 5.140800 28.033540 -0.766665 1.386372 0.037049 0.000829 71532.300000 0 0 1
20.003562 -18.442107 6.400700 27.950363 -0.744806 1.339744 0.057877 -0.006376 214328.000000 0 0 1
18.808762 -18.500007 7.166900 27.338329 -0.777123 1.305541 0.049974 0.010426 339586.000000 0 0 1
19.007575 -26.495296 -11.751200 34.660919 -0.948491 1.916685 0.086180 -0.024578 -285608.000000 0 0 1
19.177975 -25.155886 -12.052300 33.850720 -0.919428 1.934826 0.094848 -0.029671 32267.100000 0 0 1
18.114675 -24.785426 -12.909200 33.303247 -0.939658 1.968851 0.061695 -0.019184 123789.000000 0 0 1
18.308775 -23.406126 -13.584500 32.674097 -0.906990 1.999572 0.055040 -0.020922 -254244.000000 0 0 1
18.295875 -22.329426 -12.655300 31.519818 -0.884360 1.983954 0.055832 -0.014848 -98527.000000 0 0 1
19.429075 -22.074226 -11.829300 31.696889 -0.849046 1.953253 0.053939 -0.025012 -512934.000000 0 0 1
19.494075 -22.595426 -10.367000 31.591881 -0.858950 1.905145 0.053821 -0.018648 -81131.300000 0 0 1
18.631675 -21.972626 -9.427300 30.311872 -0.867494 1.887052 0.046302 -0.018956 -39170.400000 0 0 1
17.320275 -22.480326 -9.529200 29.935976 -0.914327 1.894752 0.054610 -0.007158 171290.000000 0 0 1
16.290975 -21.893526 -8.480000 28.576787 -0.931082 1.872078 0.042114 -0.008922 -357507.000000 0 0 1
16.300675 -20.504026 -8.530500 27.548077 -0.899112 1.885630 0.032425 -0.012835 395995.000000 0 0 1
15.356075 -19.842226 -7.684700 26.240762 -0.912168 1.868006 0.031105 -0.015315 1533410.000000 0 0 1
13.845475 -19.922026 -8.175000 25.601073 -0.963445 1.895811 0.038853 -0.009305 980971.000000 0 0 1
13.328675 -21.251326 -8.065600 26.350073 -1.010622 1.881884 0.037327 -0.012581 -2368570.000000 0 0 1
12.001775 -21.386026 -8.213400 25.862418 -1.059397 1.893973 0.038860 -0.015085 -1976180.000000 0 0 1
11.422875 -22.754826 -7.820500 26.635022 -1.105552 1.868805 0.038362 -0.013658 -135629.000000 0 0 1
11.553275 -22.969626 -6.415400 26.499797 -1.104767 1.815318 0.039650 -0.010971 264446.000000 0 0 1
11.098075 -24.308926 -6.150900 27.421246 -1.142514 1.797033 0.025735 -0.005502 -182587.000000 0 0 1
11.633575 -24.952726 -4.913700 27.966463 -1.134532 1.747413 0.036281 -0.003638 -841201.000000 0 0 1
10.761975 -25.749046 -4.205900 28.222740 -1.174907 1.720379 0.061561 -0.009360 -649845.000000 0 0 1
11.321675 -26.198756 -2.981500 28.695722 -1.162889 1.674885 0.045531 -0.012212 -13426.100000 0 0 1
10.361675 -27.050676 -2.139000 29.046148 -1.204990 1.644504 0.060054 -0.010810 102556.000000 0 0 1
9.304275 -26.317876 -1.553200 27.957335 -1.230976 1.626381 0.045110 -0.005776 -208943.000000 0 0 1
8.532975 -27.231076 -0.774700 28.547212 -1.267133 1.597937 0.052128 -0.013964 440806.000000 0 0 1
7.717975 -26.573966 0.400400 27.674955 -1.288139 1.556328 0.057076 -0.013934 94821.600000 0 0 1
6.609175 -25.792006 0.023000 26.625351 -1.319945 1.569932 0.057466 -0.024904 -388804.000000 0 0 1
6.014675 -25.365356 1.214300 26.096975 -1.337975 1.524249 0.049659 -0.020124 -290018.000000 0 0 1
4.592375 -24.770626 1.139000 25.218468 -1.387482 1.525616 0.053855 -0.026947 392197.000000 0 0 1
3.616275 -25.735446 0.733600 25.998631 -1.431193 1.542576 0.062171 -0.027088 204931.000000 0 0 1
2.340775 -25.299256 1.160300 25.433794 -1.478536 1.525160 0.059731 -0.026453 997581.000000 0 0 1
1.046475 -25.928496 0.484500 25.954128 -1.530458 1.552128 0.075961 -0.025567 1070370.000000 0 0 1
0.553875 -27.092246 1.114600 27.120820 -1.550355 1.529687 0.073878 -0.022434 32047.800000 0 0 1
1.321575 -28.295416 0.913900 28.341001 -1.524124 1.538544 0.066473 -0.026084 -21946.500000 0 0 1
0.767475 -29.534526 1.647200 29.590379 -1.544816 1.515101 0.076373 -0.016687 57326.900000 0 0 1
1.021575 -29.506916 3.053500 29.682075 -1.536189 1.467740 0.061668 -0.013181 62720.700000 0 0 1
0.246775 -30.437206 3.770300 30.670826 -1.562689 1.447557 0.069257 -0.009568 -71406.000000 0 0 1
0.605075 -30.363416 5.290700 30.826849 -1.550871 1.398316 0.056267 -0.013536 -16923.700000 0 0 1
1.927075 -30.598736 5.726900 31.189640 -1.507900 1.386133 0.045916 -0.005065 -149498.000000 0 0 1
1.928875 -30.623926 7.146200 31.505770 -1.507894 1.341983 0.053264 -0.009502 909002.000000 0 0 1
3.306675 -31.168806 7.668500 32.268165 -1.465102 1.330851 0.052223 -0.004614 867439.000000 0 0 1
3.650575 -32.513156 7.520700 33.570715 -1.458985 1.344853 0.044133 -0.005487 -1299090.000000 0 0 1
4.899475 -32.791246 8.008600 34.108772 -1.422479 1.333788 0.034596 -0.005167 -984009.000000 0 0 1
5.233175 33.962652 7.666900 35.208369 1.417913 1.351280 0.039604 -0.001384 -81304.500000 0 0 1
5.245375 33.777776 6.278400 34.754430 1.416736 1.389149 0.037271 -0.002774 -172457.000000 0 0 1
5.155275 32.392630 6.078700 33.358806 1.412970 1.387551 0.033240 -0.004977 -255906.000000 0 0 1
5.679075 31.857075 4.775800 32.709836 1.394382 1.424268 0.037903 -0.015795 530235.000000 0 0 1
7.091375 31.857355 4.588700 32.958077 1.351770 1.431114 0.042789 -0.017242 136886.000000 0 0 1
7.664275 30.581695 4.604300 31.861902 1.325238 1.425781 0.043197 -0.012100 1791780.000000 0 0 1
9.147375 30.595825 3.957800 32.178303 1.280281 1.447488 0.022762 -0.005409 1551650.000000 0 0 1
10.133975 31.229195 4.705000 33.167712 1.257014 1.428461 0.021257 -0.011480 20498.600000 0 0 1
11.376875 31.242905 3.973300 33.486408 1.221578 1.451862 0.034727 -0.013801 467441.000000 0 0 1
12.547875 31.669395 4.852300 34.408496 1.193558 1.429304 0.037575 -0.018795 28599.100000 0 0 1
13.122875 30.645025 5.729300 33.825320 1.166200 1.400597 0.046351 -0.018251 477523.000000 0 0 1
14.236675 31.079585 6.500000 34.797608 1.141250 1.382898 0.055381 -0.017190 168146.000000 0 0 1
14.632475 29.979555 7.468300 34.185649 1.116729 1.350557 0.062181 -0.019307 -220518.000000 0 0 1
14.314375 30.240875 8.811700 34.598525 1.128699 1.313275 0.049473 -0.005027 176559.000000 0 0 1
14.654375 29.103475 9.576500 33.962808 1.104331 1.284949 0.048604 -0.008215 -23002.700000 0 0 1
14.421375 29.275905 11.103400 34.472310 1.113084 1.242853 0.034774 -0.000082 -127548.000000 0 0 1
15.151875 30.302255 11.744200 35.857109 1.107129 1.237110 0.049850 -0.020999 -154911.000000 0 0 1
14.487375 30.746935 12.906900 36.357202 1.130468 1.207880 0.044365 -0.012581 19973.700000 0 0 1
15.342475 31.617495 13.897800 37.791618 1.119016 1.194210 0.049502 -0.008255 537974.000000 0 0 1
16.394275 30.811755 14.441700 37.771672 1.081816 1.178467 0.060817 -0.014103 696279.000000 0 0 1
17.217075 31.587475 15.358000 39.116038 1.071754 1.167310 0.065847 -0.011151 -18814.800000 0 0 1
18.442875 30.841175 15.892200 39.292235 1.031852 1.154406 0.064736 -0.020620 69482.100000 0 0 1
19.466075 30.697725 14.903600 39.286075 1.005665 1.181691 0.060758 -0.015090 202779.000000 0 0 1
19.766975 29.320565 14.786100 38.328287 0.977619 1.174748 0.046442 -0.006403 376902.000000 0 0 1
21.160875 28.926805 14.168100 38.539302 0.939220 1.194340 0.071435 -0.013487 1259850.000000 0 0 1
22.204375 29.202375 15.129200 39.682562 0.920696 1.179642 0.078158 -0.019246 1352380.000000 0 0 1
23.538775 29.114545 14.553300 40.168759 0.890901 1.200058 0.085554 -0.018007 1168550.000000 0 0 1
24.610675 29.357365 15.628900 41.373938 0.873126 1.183434 0.092358 -0.024608 -450863.000000 0 0 1
25.070275 28.191745 16.242000 41.074271 0.843937 1.164260 0.088397 -0.010190 -364922.000000 0 0 1
25.789475 28.504495 17.368700 42.181454 0.835362 1.146410 0.073622 -0.014862 -942595.000000 0 0 1
26.763275 27.425255 17.825100 42.262888 0.797614 1.135403 0.041363 -0.000232 -702066.000000 0 0 1
26.231975 26.156025 18.172300 41.261201 0.783948 1.114729 0.057628 0.009531 -97594.900000 0 0 1
25.658275 26.147315 19.430800 41.467881 0.794838 1.083120 0.071208 0.006499 -83637.600000 0 0 1
24.990775 24.784265 19.803300 40.385262 0.781249 1.058294 0.067344 -0.000706 -127672.000000 0 0 1
25.965475 23.779735 20.002500 40.494218 0.741488 1.054159 0.052345 0.000676 383423.000000 0 0 1
25.344775 22.542555 20.332700 39.546721 0.726948 1.030787 0.055877 -0.001177 505720.000000 0 0 1
26.333075 21.329155 20.097500 39.398899 0.680794 1.035492 0.029353 -0.002130 652307.000000 0 0 1
25.681275 20.099455 20.337900 38.433660 0.664072 1.013175 0.015968 0.008385 318207.000000 0 0 1
26.616375 19.040255 20.331400 38.526985 0.620960 1.014884 0.022749 -0.007129 104047.000000 0 0 1
27.313675 18.656555 21.610700 39.511091 0.599258 0.992076 0.031145 -0.002907 82893.100000 0 0 1
26.445975 17.942855 22.493500 39.080599 0.596131 0.957499 0.021145 0.006077 364752.000000 0 0 1
27.172875 17.445155 23.582800 39.985586 0.570735 0.940007 0.041969 0.005371 -274695.000000 0 0 1
26.264275 16.754055 24.613800 39.703270 0.567824 0.902125 0.015723 0.008224 19906.500000 0 0 1
25.700575 15.579355 24.115400 38.532952 0.544956 0.894590 0.027003 -0.001205 428156.000000 0 0 1
24.629275 15.047955 24.886800 38.110300 0.548453 0.859231 0.031253 0.002063 185613.000000 0 0 1
24.043975 13.740455 24.287300 36.834574 0.519179 0.850827 0.037311 -0.004519 -579250.000000 0 0 1
22.991875 13.202955 25.021000 36.455381 0.521266 0.814344 0.018222 0.003127 -140952.000000 0 0 1
22.430875 12.152655 24.248900 35.197164 0.496512 0.810764 0.036474 -0.006118 52290.300000 0 0 1
21.110575 11.551955 24.791600 34.550362 0.500700 0.770518 0.044576 -0.005907 219980.000000 0 0 1
19.957475 12.370755 24.726000 34.098556 0.554891 0.759568 0.065299 -0.005118 313672.000000 0 0 1
18.799775 11.623755 25.024100 33.387854 0.553761 0.723494 0.080521 -0.007071 -223752.000000 0 0 1
17.470875 12.356655 25.168600 33.035993 0.615590 0.704626 0.071372 -0.016842 -368470.000000 0 0 1
17.328075 13.125255 26.313000 34.130756 0.648256 0.690470 0.096006 -0.009683 1178830.000000 0 0 1
16.098275 13.906455 26.373500 33.883705 0.712479 0.678757 0.109765 -0.013526 1090020.000000 0 0 1
15.702575 14.346255 27.836400 35.032144 0.740292 0.652455 0.100734 0.001078 145145.000000 0 0 1
15.202475 13.245955 28.673800 35.053636 0.716732 0.612875 0.097042 0.002785 -22223.600000 0 0 1
15.456875 13.466955 30.033900 36.363567 0.716708 0.598940 0.088799 0.001526 -791582.000000 0 0 1
16.868975 13.126555 30.465100 37.215469 0.661274 0.611803 0.082867 0.001442 -932291.000000 0 0 1
17.758175 14.207855 30.292100 37.879114 0.674786 0.643993 0.100088 -0.006433 -577280.000000 0 0 1
19.069475 13.806955 30.534800 38.557112 0.626675 0.656822 0.085033 0.003846 -1050790.000000 0 0 1
20.054475 14.849955 30.004700 39.025443 0.637381 0.693756 0.072240 0.004253 -608805.000000 0 0 1
20.015175 15.288755 28.654500 38.150146 0.652311 0.721073 0.091062 -0.003726 126353.000000 0 0 1
20.339775 14.434355 27.611200 37.208002 0.617181 0.734633 0.067768 -0.000977 -287389.000000 0 0 1
19.971175 15.110655 26.280200 36.301910 0.647727 0.761308 0.069134 -0.003783 3632.530000 0 0 1
20.887175 16.183055 26.042000 37.099207 0.659175 0.792657 0.062645 -0.007062 486520.000000 0 0 1
20.859675 16.675955 24.725000 36.394219 0.674396 0.823898 0.050947 -0.006610 202112.000000 0 0 1
22.064575 17.599555 24.334300 37.265909 0.673299 0.859269 0.044702 -0.008046 -26839.600000 0 0 1
22.071075 17.932755 22.954500 36.546206 0.682317 0.891693 0.053336 -0.015463 82742.900000 0 0 1
23.145075 18.616155 22.330400 37.160497 0.677372 0.926148 0.045202 -0.012685 -108886.000000 0 0 1
23.467975 20.078755 22.740400 38.353984 0.707725 0.936131 0.065756 -0.011331 509436.000000 0 0 1
22.409175 20.988155 22.373200 37.989918 0.752665 0.941069 0.068400 -0.010324 939619.000000 0 0 1
22.794675 22.210555 22.970400 39.249781 0.772420 0.945625 0.083917 -0.016622 -288669.000000 0 0 1
21.907275 23.404915 22.590400 39.217916 0.818438 0.956942 0.077265 -0.024657 -259563.000000 0 0 1
22.158175 24.173105 21.447500 39.183147 0.828860 0.991583 0.090490 -0.015738 -180778.000000 0 0 1
21.227375 25.204825 21.252200 39.211487 0.870851 0.997994 0.089921 -0.015558 -302506.000000 0 0 1
21.687075 26.198085 20.147200 39.529465 0.879326 1.035989 0.088701 -0.014748 -276738.000000 0 0 1
21.668075 25.518925 18.898800 38.443279 0.866826 1.056868 0.085095 -0.015101 337073.000000 0 0 1
22.007575 26.510335 17.864700 38.810807 0.877939 1.092461 0.080005 -0.017480 -98625.800000 0 0 1
22.133675 25.858115 16.479200 37.816739 0.862849 1.119909 0.062156 0.002654 68466.200000 0 0 1
20.921175 25.412655 15.880100 36.546904 0.882034 1.121299 0.050323 0.003018 -135896.000000 0 0 1
20.933475 25.110855 14.503500 35.764745 0.875876 1.153243 0.057723 0.006290 -841588.000000 0 0 1
19.538575 24.860005 13.917100 34.546512 0.904685 1.156167 0.058308 0.007647 -255606.000000 0 0 1
18.776375 26.064995 14.009900 35.045878 0.946531 1.159543 0.053103 0.005286 -154853.000000 0 0 1
17.882075 26.100235 15.100100 35.057152 0.970120 1.125497 0.051163 -0.001323 -95845.000000 0 0 1
16.398375 25.799775 14.719400 33.929277 1.004610 1.122062 0.038040 -0.005305 98064.800000 0 0 1
15.962975 24.406705 14.669200 32.644897 0.991586 1.104751 0.033626 0.001000 203098.000000 0 0 1
15.601675 23.801235 15.910100 32.604330 0.990565 1.061028 0.054382 0.002649 283594.000000 0 0 1
14.462875 24.383235 16.835100 32.971768 1.035430 1.034924 0.103961 -0.019502 77369.900000 0 0 1
14.708575 25.628695 17.409400 34.296639 1.049781 1.038385 0.090537 -0.025175 255113.000000 0 0 1
13.536175 26.039995 18.092500 34.476774 1.091417 1.018347 0.097006 -0.028081 179839.000000 0 0 1
13.791975 27.296995 18.886400 35.944967 1.102953 1.017581 0.106946 -0.042081 -283396.000000 0 0 1
13.923975 28.451655 18.079000 36.472236 1.115672 1.052165 0.101052 -0.033532 121338.000000 0 0 1
14.640975 29.431435 18.822500 37.879467 1.109182 1.050768 0.090894 -0.029089 -171615.000000 0 0 1
14.642675 30.779035 18.173900 38.627032 1.126748 1.080942 0.070209 -0.034726 -487980.000000 0 0 1
13.397475 31.414835 18.111300 38.657514 1.167681 1.083197 0.075274 -0.024785 -350775.000000 0 0 1
13.474375 32.599877 17.430400 39.346278 1.178855 1.111854 0.058070 -0.022465 1211620.000000 0 0 1
12.091275 33.413941 17.308700 39.525707 1.223592 1.117524 0.071757 -0.030913 1169080.000000 0 0 1
12.068275 -33.646916 16.545100 39.389066 -1.226415 1.137304 0.060148 -0.025763 27307.100000 0 0 1
12.821275 -32.489846 16.981500 38.837437 -1.194933 1.118263 0.060706 -0.028009 61617.900000 0 0 1
12.669375 -31.931526 18.458000 38.997861 -1.193080 1.077754 0.080230 -0.029996 175592.000000 0 0 1
13.456375 -32.714976 19.362300 40.326695 -1.180568 1.069987 0.090496 -0.034432 739115.000000 0 0 1
12.983475 -32.454966 20.676100 40.612764 -1.190250 1.036653 0.087541 -0.030065 508396.000000 0 0 1
14.044775 -33.064486 21.678600 41.958046 -1.169121 1.027836 0.095406 -0.027040 1073530.000000 0 0 1
15.275075 -32.366236 21.513200 41.757861 -1.129844 1.029568 0.097025 -0.026605 1251970.000000 0 0 1
16.451075 -32.975126 22.136700 42.988723 -1.108034 1.029856 0.103506 -0.022923 886938.000000 0 0 1
17.733175 -32.246236 21.781000 42.763269 -1.068007 1.036380 0.110831 -0.028751 -374514.000000 0 0 1
17.933775 -31.040016 22.519200 42.334587 -1.046888 1.009914 0.116027 -0.025815 850897.000000 0 0 1
19.118475 -30.325756 22.086200 42.106624 -1.008297 1.018633 0.117552 -0.022182 659119.000000 0 0 1
-4.895725 13.474774 18.353265 23.289053 -1.222300 0.663139 0.010878 0.014962 -584355.000000 0 1 0
-4.401425 14.574574 17.646765 23.306631 -1.277512 0.711847 0.004953 0.001862 371924.000000 0 1 0
-5.460925 15.529574 17.463065 23.998917 -1.232655 0.755891 0.014411 0.001646 379975.000000 0 1 0
-4.997025 17.007974 17.354665 24.807778 -1.285033 0.796007 0.014116 0.001897 -198300.000000 0 1 0
-4.727025 17.454474 18.645265 25.974013 -1.306320 0.770097 0.010918 0.006027 60303.600000 0 0 1
-4.425925 18.834674 18.585465 26.828218 -1.339996 0.805490 0.011175 -0.004776 -224701.000000 0 0 1
-3.606325 19.371974 19.728265 27.883389 -1.386741 0.784803 -0.002130 -0.006680 -372151.000000 0 0 1
-4.492125 19.634774 20.772565 28.934460 -1.345883 0.769990 -0.010111 -0.009994 212530.000000 0 0 1
-3.872825 20.226874 21.905665 30.066316 -1.381617 0.754552 -0.008662 -0.006570 -658801.000000 0 0 1
-4.865925 20.500474 22.990265 31.184915 -1.337752 0.741844 -0.000026 -0.007310 -602770.000000 0 0 1
-5.504925 19.347674 23.455255 30.899606 -1.293595 0.708899 0.015952 -0.014061 122800.000000 0 0 1
-6.467825 19.503574 24.487625 31.966638 -1.250586 0.698143 0.012199 -0.019688 338578.000000 0 0 1
-5.846125 19.993874 25.793935 33.155079 -1.286330 0.679355 0.012355 -0.026961 -527038.000000 0 0 1
-5.542925 21.373474 25.873045 34.014171 -1.317050 0.706475 0.017700 -0.023702 59549.100000 0 0 1
-4.464125 21.777474 26.672505 34.721885 -1.368609 0.694810 0.022901 -0.016156 655274.000000 0 0 1
-2.979125 21.458174 26.310585 34.081891 -1.432844 0.688844 0.029318 -0.013393 152334.000000 0 0 1
-2.617525 20.058474 26.486095 33.327272 -1.441035 0.652238 0.043789 -0.012052 -491757.000000 0 0 1
-1.353625 19.872474 25.940185 32.705362 -1.502786 0.654836 0.045155 -0.008892 -519607.000000 0 0 1
-0.534425 18.674574 26.486125 32.412037 -1.542186 0.614313 0.044138 -0.002541 -390411.000000 0 0 1
-0.958825 17.415674 26.010025 31.316872 -1.515797 0.590713 0.042383 -0.005284 -274701.000000 0 0 1
-0.356025 16.322374 26.681265 31.279970 -1.548988 0.549123 0.037840 -0.002744 528303.000000 0 0 1
1.174375 16.140774 26.360755 30.932073 1.498166 0.550593 0.039089 -0.000521 144333.000000 0 0 1
1.486975 15.882174 24.998125 29.654018 1.477443 0.567973 0.029366 0.001621 -170629.000000 0 0 1
1.001775 14.611274 24.599835 28.629439 1.502342 0.536995 0.037549 -0.000818 -259440.000000 0 0 1
1.167675 14.335374 23.095865 27.208186 1.489522 0.556977 0.027471 -0.003880 94393.100000 0 0 1
2.488575 14.136474 22.645465 26.811378 1.396542 0.564939 0.022983 -0.006848 -301193.000000 0 0 1
2.531275 13.389374 21.444665 25.407801 1.383950 0.566063 0.017740 -0.010146 305538.000000 0 0 1
3.981875 13.342274 20.907665 25.119754 1.280771 0.587517 0.015566 -0.014209 261595.000000 0 0 1
4.452475 14.571274 20.434165 25.489246 1.274242 0.640699 0.016349 -0.009187 1189550.000000 0 0 1
5.851875 14.416274 20.050065 25.378702 1.185196 0.659930 0.021466 -0.015620 1294110.000000 0 0 1
6.420875 15.597274 19.259965 25.601735 1.180273 0.719263 0.031976 -0.022495 -257367.000000 0 0 1
6.183975 15.445674 17.873465 24.418664 1.189972 0.749603 0.033802 -0.032037 277513.000000 0 1 0
6.790175 16.479474 17.101665 24.701144 1.179955 0.806065 0.037665 -0.019618 -76405.600000 0 1 0
6.880475 16.003574 15.583065 23.372788 1.164754 0.840999 0.038535 -0.022522 56626.100000 0 1 0
7.985775 15.241274 15.131165 22.913341 1.088167 0.849492 0.040201 -0.022460 120913.000000 0 1 0
7.972475 13.954774 15.613665 22.407200 1.051741 0.799850 0.044870 -0.027819 -848786.000000 0 1 0
8.997375 13.123374 14.907365 21.803790 0.969801 0.817968 0.045987 -0.035648 -34706.000000 0 1 0
10.323675 13.636674 15.098065 22.814222 0.922797 0.847602 0.042157 -0.041956 -57850.200000 0 1 0
11.147675 13.131174 14.095065 22.256892 0.866914 0.884999 0.046035 -0.033581 -1301060.000000 0 1 0
12.544175 13.679174 14.229565 23.387105 0.828653 0.916708 0.048684 -0.019013 -2169490.000000 0 1 0
13.169975 13.042774 15.327865 24.052144 0.780546 0.879837 0.039664 -0.029951 -239174.000000 0 1 0
14.463675 13.493674 15.641965 25.218014 0.750716 0.901710 0.042915 -0.026154 -471316.000000 0 0 1
15.506875 13.064574 14.634665 25.006393 0.700125 0.945624 0.046229 -0.030515 -3091760.000000 0 0 1
16.774775 13.464074 14.937565 26.187883 0.676347 0.963804 0.047331 -0.032072 -913755.000000 0 0 1
17.655975 13.097074 13.866965 25.991528 0.638228 1.008041 0.045470 -0.031268 -10036.900000 0 0 1
19.068875 13.689974 13.960165 27.311602 0.622653 1.034281 0.043470 -0.032120 188009.000000 0 0 1
19.966675 12.972374 14.825365 28.048923 0.576165 1.013900 0.029823 -0.030197 731850.000000 0 0 1
21.294275 13.489774 14.725565 29.193534 0.564683 1.042096 0.038493 -0.036634 662441.000000 0 0 1
22.214975 13.338474 15.958965 30.432032 0.540734 1.018770 0.040008 -0.029664 17941.400000 0 0 1
22.566575 12.002474 16.339565 30.336300 0.488817 1.002005 0.047681 -0.030773 364779.000000 0 0 1
23.116675 11.929574 17.651665 31.436868 0.476412 0.974604 0.033051 -0.028058 -303951.000000 0 0 1
23.302775 10.459974 18.137565 31.327331 0.421916 0.953332 0.047445 -0.020261 -9694.280000 0 0 1
22.122875 9.729274 18.439965 30.399222 0.414325 0.919028 0.035616 -0.017771 250023.000000 0 0 1
22.095275 8.490174 17.739165 29.579760 0.366858 0.927662 0.037547 -0.003131 163509.000000 0 0 1
20.988675 7.527274 18.260265 28.820507 0.344347 0.884617 0.062822 -0.007971 127730.000000 0 0 1
21.042575 6.196974 17.759565 28.224008 0.286401 0.890226 0.077604 -0.016790 32830.700000 0 0 1
20.153575 5.417074 18.504265 27.891201 0.262583 0.845383 0.080252 -0.018874 -714517.000000 0 0 1
19.880375 4.031674 17.944165 27.082776 0.200083 0.846555 0.108752 -0.014775 -341719.000000 0 0 1
19.110175 4.162974 16.716365 25.728700 0.214490 0.863585 0.100153 -0.020154 600527.000000 0 0 1
18.807075 3.008974 16.015065 24.884580 0.158647 0.871638 0.092360 -0.020163 11447.300000 0 1 0
17.940275 1.954174 16.753865 24.624465 0.108499 0.822522 0.103706 -0.023204 -187963.000000 0 1 0
18.623075 1.193474 17.764365 25.764627 0.063998 0.810016 0.115150 -0.035907 -178681.000000 0 0 1
17.745775 0.494874 18.584565 25.701041 0.027880 0.762509 0.108125 -0.029076 -312204.000000 0 0 1
18.457575 -0.237826 19.760565 27.041054 -0.012884 0.751359 0.105853 -0.034131 291208.000000 0 0 1
19.037075 -1.486726 19.359965 27.192441 -0.077938 0.778509 0.100698 -0.032686 -174834.000000 0 0 1
18.242875 -2.532026 19.842365 27.072737 -0.137914 0.748180 0.070999 -0.021624 -23483.000000 0 0 1
18.355475 -3.832326 19.044965 26.726782 -0.205827 0.777628 0.063455 -0.012642 247865.000000 0 0 1
17.512275 -3.706826 17.893365 25.309936 -0.208591 0.785592 0.069873 -0.019968 498445.000000 0 0 1
17.453575 -4.950726 17.224865 25.016654 -0.276391 0.811328 0.085530 -0.021408 -221716.000000 0 0 1
16.750175 -4.718926 15.882965 23.560671 -0.274607 0.831010 0.062909 -0.021525 -140308.000000 0 1 0
15.374275 -4.421426 15.993765 22.621182 -0.280029 0.785512 0.055767 -0.013399 437884.000000 0 1 0
14.614775 -4.248526 14.756165 21.198727 -0.282904 0.800863 0.040446 -0.021803 417046.000000 0 1 0
15.005875 -3.121826 13.812265 20.632517 -0.205114 0.837339 0.044227 -0.011965 -690944.000000 0 1 0
14.612175 -1.868126 14.294565 20.526572 -0.127157 0.800437 0.047154 -0.002099 116820.000000 0 1 0
14.999575 -0.915426 13.334765 20.090824 -0.060955 0.845010 0.046992 -0.015179 -25156.200000 0 1 0
14.246275 0.465074 13.425265 19.580868 0.032634 0.815325 0.057999 -0.007450 -437818.000000 0 1 0
14.808375 1.557474 12.723065 19.585456 0.104790 0.863714 0.064424 -0.011081 -56109.400000 0 1 0
15.894475 2.167174 13.364665 20.879302 0.135512 0.876179 0.086346 -0.021976 -199033.000000 0 1 0
16.138475 3.602674 12.858665 20.946955 0.219634 0.909845 0.078434 -0.020371 233975.000000 0 1 0
15.112575 4.549274 13.179165 20.561523 0.292398 0.875045 0.066579 -0.013340 602068.000000 0 1 0
15.157275 5.710674 12.440065 20.423271 0.360314 0.915856 0.071138 -0.020262 -598490.000000 0 1 0
14.192775 6.800274 12.816665 20.296441 0.446818 0.887344 0.061122 -0.015562 -519552.000000 0 1 0
14.214075 7.957274 12.058565 20.267391 0.510349 0.933563 0.040536 -0.026275 480086.000000 0 1 0
13.299375 8.993674 12.496965 20.345360 0.594606 0.909372 0.032924 -0.011540 -110618.000000 0 1 0
13.642375 9.813374 13.800065 21.745310 0.623582 0.883276 0.049316 -0.020229 -96130.000000 0 1 0
13.422975 9.045274 14.968165 22.046297 0.592970 0.824475 0.058870 -0.020614 460672.000000 0 1 0
14.061375 9.613274 16.090665 23.431748 0.599679 0.813852 0.075617 -0.028582 -15793.400000 0 1 0
13.391175 9.007574 17.318065 23.672248 0.592133 0.750165 0.062589 -0.031713 -666756.000000 0 1 0
12.082275 9.452474 17.468265 23.248031 0.663881 0.720635 0.065925 -0.040669 -421874.000000 0 1 0
11.317675 8.899474 18.533665 23.468855 0.666352 0.660455 0.059217 -0.021893 134097.000000 0 1 0
11.718975 9.362774 19.968565 24.974777 0.674095 0.644252 0.072612 -0.020667 -326493.000000 0 1 0
12.948275 8.700774 20.251865 25.563633 0.591661 0.656368 0.102767 -0.027364 166297.000000 0 0 1
13.373075 9.145174 21.535665 26.949178 0.599804 0.644964 0.108791 -0.014786 -59860.800000 0 0 1
14.863175 8.806974 21.789765 27.807744 0.534914 0.670379 0.110691 -0.017930 690359.000000 0 0 1
15.704975 9.559974 20.871565 27.814773 0.546809 0.722164 0.092573 -0.015956 650149.000000 0 0 1
16.820175 8.813774 20.375065 27.852185 0.482663 0.750214 0.084503 -0.022598 494296.000000 0 0 1
17.676075 9.645874 19.358165 27.932509 0.499538 0.805108 0.077760 -0.017763 342128.000000 0 0 1
18.596775 10.484474 20.043865 29.283456 0.513361 0.816910 0.067721 -0.018439 351788.000000 0 0 1
19.378575 11.375874 19.244865 29.585546 0.530831 0.862577 0.056615 -0.020080 611879.000000 0 0 1
20.379675 12.257574 20.066465 31.116592 0.541493 0.869930 0.044796 -0.011981 -87380.700000 0 0 1
19.706775 13.315874 20.758965 31.569037 0.594231 0.853203 0.053591 -0.011505 515252.000000 0 0 1
20.472975 13.953074 21.784565 32.990882 0.598226 0.849550 0.051390 -0.006005 -289556.000000 0 0 1
21.693575 14.777674 21.345065 33.831977 0.597997 0.888066 0.017828 -0.007776 188963.000000 0 0 1
22.855075 13.967274 21.064265 34.075541 0.548558 0.904392 -0.020733 0.006643 -153441.000000 0 0 1
23.878675 14.838174 20.749965 34.941717 0.556005 0.934967 -0.021248 0.002222 -734915.000000 0 0 1
25.284875 14.223774 20.704865 35.641719 0.512420 0.950942 -0.012703 -0.004513 -241578.000000 0 0 1
25.575375 13.368474 19.530265 34.846050 0.481649 0.975840 -0.003729 -0.016644 1013950.000000 0 0 1
26.903475 12.811174 19.493065 35.607622 0.444419 0.991493 0.034484 -0.023935 767779.000000 0 0 1
27.191775 11.984574 18.200065 34.846306 0.415129 1.021256 0.062261 -0.038030 -138640.000000 0 0 1
27.444575 12.657274 16.960165 34.656291 0.432124 1.059415 0.067217 -0.046730 248855.000000 0 0 1
27.682575 11.730174 15.903465 34.012383 0.400802 1.084247 0.101241 -0.055279 373766.000000 0 0 1
26.386275 11.446474 15.073165 32.472413 0.409304 1.088084 0.072431 -0.064825 480300.000000 0 0 1
26.063675 12.612674 14.362565 32.321479 0.450699 1.110330 0.088316 -0.061598 -323165.000000 0 0 1
25.172375 12.328774 13.318265 31.032617 0.455433 1.127223 0.079418 -0.054150 -191569.000000 0 0 1
24.774175 13.556374 12.480565 30.875549 0.500689 1.154669 0.066869 -0.053630 -75433.200000 0 0 1
24.097975 14.533374 13.244665 31.102291 0.542692 1.130904 0.046239 -0.041688 217561.000000 0 0 1
24.045875 15.766074 12.514965 31.359170 0.580348 1.160278 0.035137 -0.026632 -323775.000000 0 0 1
23.146175 16.766874 13.273065 31.512660 0.626909 1.136031 0.034383 -0.021194 572471.000000 0 0 1
21.803275 16.289174 13.454465 30.360215 0.641641 1.111674 0.055195 -0.021619 979338.000000 0 0 1
20.829275 17.333474 13.528765 30.287547 0.694051 1.107748 0.053377 -0.016615 -60080.200000 0 0 1
20.157475 17.749774 12.167365 29.485981 0.721968 1.145436 0.073301 -0.003026 -700710.000000 0 0 1
19.083875 17.037374 11.676065 28.121111 0.728802 1.142627 0.069401 -0.002540 -885764.000000 0 0 1
17.872275 17.422474 12.275165 27.814394 0.772655 1.113723 0.051591 -0.005954 -1057930.000000 0 0 1
16.691675 16.802474 11.546665 26.348826 0.788706 1.117175 0.051744 -0.006407 -759854.000000 0 0 1
16.236075 15.673674 12.146765 25.628463 0.767775 1.077018 0.045518 -0.003558 -787120.000000 0 0 1
15.144375 15.028174 11.618865 24.293953 0.781547 1.072122 0.048266 -0.010752 -799940.000000 0 1 0
15.332075 13.829574 10.671865 23.242598 0.733920 1.093757 0.059203 -0.017637 -251209.000000 0 1 0
15.572875 12.600274 11.311565 23.005062 0.680275 1.056757 0.048941 -0.023378 307371.000000 0 1 0
16.117275 11.671274 10.437565 22.470602 0.626749 1.087728 0.060648 -0.018043 -328152.000000 0 1 0
16.458575 10.349074 11.057565 22.366443 0.561324 1.053673 0.068124 -0.032416 -703438.000000 0 1 0
17.182975 9.549874 10.125865 22.113070 0.507266 1.095150 0.070119 -0.031483 540585.000000 0 1 0
17.810675 8.405274 10.685265 22.406331 0.440935 1.073688 0.077155 -0.028567 1265410.000000 0 1 0
19.110975 8.545974 11.577865 23.923002 0.420503 1.065618 0.069806 -0.025553 861785.000000 0 1 0
18.643175 9.208074 12.807965 24.421314 0.458765 1.018717 0.053801 -0.029536 624787.000000 0 1 0
19.735975 9.493674 13.686365 25.825475 0.448360 1.012248 0.061184 -0.031539 -583908.000000 0 0 1
19.261275 9.701474 15.169365 26.367119 0.466585 0.957809 0.046319 -0.024322 309117.000000 0 0 1
18.725175 8.535674 15.825365 25.960202 0.427699 0.915239 0.069960 -0.022961 203292.000000 0 0 1
17.687475 7.897074 15.125565 24.576275 0.419921 0.907835 0.084962 -0.026422 -1124890.000000 0 1 0
17.084475 6.703974 15.862465 24.257790 0.373939 0.858052 0.085479 -0.022485 -598206.000000 0 1 0
16.469975 6.926174 17.097265 24.729506 0.398081 0.807411 0.099099 -0.017645 33106.200000 0 1 0
15.860375 5.800274 17.723665 24.481074 0.350600 0.761250 0.099379 -0.001203 148560.000000 0 1 0
14.477975 5.441974 17.133365 23.082007 0.359542 0.734326 0.091503 -0.023593 -649744.000000 0 1 0
14.089275 4.210174 17.682465 22.997887 0.290375 0.693719 0.094384 -0.013690 245273.000000 0 1 0
13.339175 3.529174 16.653965 21.627372 0.258646 0.691891 0.068329 -0.009661 182149.000000 0 1 0
12.972575 2.080874 17.070465 21.541089 0.159051 0.655964 0.051773 -0.005357 326031.000000 0 1 0
14.145875 1.299374 17.336565 22.413180 0.091598 0.686453 0.065610 -0.006770 498424.000000 0 1 0
14.181475 -0.096226 16.977165 22.121203 -0.006785 0.695925 0.065977 -0.002077 -7722.700000 0 1 0
13.269075 -1.029426 17.838565 22.256291 -0.077426 0.640986 0.052588 -0.001947 1264870.000000 0 1 0
11.864075 -0.777326 17.643365 21.275546 -0.065426 0.592980 0.036557 0.001398 870530.000000 0 1 0
11.023275 -1.487326 18.559965 21.637861 -0.134116 0.539912 0.040579 -0.011829 502772.000000 0 1 0
-25.935055 14.157774 28.819445 41.275053 -0.499685 0.797876 0.077862 -0.009240 562747.000000 0 0 1
-24.814525 14.265574 29.730405 41.269410 -0.521750 0.766420 0.073822 -0.014308 1050670.000000 0 0 1
-24.121025 13.043474 29.884205 40.558868 -0.495715 0.742455 0.053878 -0.002426 230179.000000 0 0 1
-22.994325 13.012874 30.967175 40.706753 -0.514981 0.706347 0.057640 -0.013338 129679.000000 0 0 1
-23.418125 12.982074 32.330384 41.978525 -0.506185 0.691697 0.046597 -0.013005 -355721.000000 0 0 1
-22.333425 12.865574 33.185016 42.018450 -0.522637 0.660358 0.047811 -0.009951 -783373.000000 0 0 1
-22.730725 12.946774 -33.492570 42.497730 -0.517745 2.478517 0.065554 -0.010253 224705.000000 0 0 1
-23.573525 11.903674 -32.969740 42.242304 -0.467607 2.466247 0.038381 -0.003913 520479.000000 0 0 1
-24.135125 12.310274 -31.729910 41.723306 -0.471660 2.434855 0.044839 -0.011287 121208.000000 0 0 1
-25.018525 11.243474 -31.040110 41.422587 -0.422360 2.417880 0.036288 -0.008929 -67867.500000 0 0 1
-24.288925 10.219074 -30.396270 40.228281 -0.398248 2.427358 0.062055 -0.020464 111622.000000 0 0 1
-23.870125 9.209174 -31.245460 40.384038 -0.368208 2.455470 0.038116 -0.015958 -238655.000000 0 0 1
-22.982025 8.179374 -30.577540 39.116001 -0.341924 2.468206 0.032823 -0.002069 -153125.000000 0 0 1
-23.731525 7.364574 -29.700140 38.723643 -0.300906 2.444913 0.035894 -0.002328 580066.000000 0 0 1
-22.849425 6.710674 -28.784650 37.358873 -0.285659 2.450406 0.021111 0.010422 347817.000000 0 0 1
-23.540025 5.701574 -27.784390 36.859368 -0.237631 2.424614 0.019934 0.010683 50945.000000 0 0 1
-24.011325 4.529474 -28.430910 37.488351 -0.186448 2.431641 0.048243 0.001345 142875.000000 0 0 1
-24.357125 3.528574 -27.522110 36.921361 -0.143867 2.411969 0.076157 0.007868 -479456.000000 0 0 1
-25.014925 2.340074 -28.298330 37.842012 -0.093276 2.415541 0.088952 0.010197 334501.000000 0 0 1
-26.403375 2.476974 -28.580300 38.988551 -0.093539 2.393582 0.110936 -0.012354 521074.000000 0 0 1
-26.722225 3.336174 -29.635850 40.043613 -0.124204 2.403999 0.091482 -0.003874 -485694.000000 0 0 1
-28.078995 3.075374 -30.349080 41.460276 -0.109091 2.392055 0.133867 -0.013807 128096.000000 0 0 1
-29.165975 3.470074 -29.516560 41.640399 -0.118420 2.358655 0.113461 -0.016019 837225.000000 0 0 1
-30.428745 3.432974 -30.205460 43.012366 -0.112345 2.349350 0.117541 -0.019555 814264.000000 0 0 1
-30.894145 4.813674 -30.674370 43.801103 -0.154569 2.346629 0.131134 -0.034155 -453361.000000 0 0 1
-29.981625 5.372374 -31.598870 43.889051 -0.177307 2.374558 0.132990 -0.031131 205736.000000 0 0 1
-30.356895 6.648474 -32.121240 44.693594 -0.215606 2.372726 0.130276 -0.035604 -292497.000000 0 0 1
-30.028395 7.907274 -31.221950 44.034528 -0.257481 2.358923 0.107344 -0.032167 933970.000000 0 0 1
-28.630675 8.170674 -30.944550 42.942294 -0.277992 2.375475 0.063256 -0.035842 1305040.000000 0 0 1
-28.122365 7.441374 -29.797050 41.642594 -0.258678 2.368197 0.060051 -0.025036 -211570.000000 0 0 1
-28.447415 8.150074 -28.430010 41.035894 -0.279022 2.336173 0.044775 -0.009390 -402640.000000 0 0 1
-29.822875 8.307474 -28.220830 41.890729 -0.271673 2.309970 0.067208 -0.010982 30670.500000 0 0 1
-30.369155 7.344474 -27.272730 41.473228 -0.237284 2.288423 0.071829 -0.007529 828371.000000 0 0 1
-31.777645 7.697374 -26.658870 42.187245 -0.237649 2.254821 0.063786 -0.002796 760279.000000 0 0 1
-31.730565 8.544674 -25.466780 41.573995 -0.263049 2.230098 0.013703 0.003260 61603.800000 0 0 1
-31.289925 7.851074 -24.295800 40.385451 -0.245839 2.216296 0.023231 -0.001396 -26991.500000 0 0 1
-30.931755 8.939374 -23.247400 39.713064 -0.281338 2.196150 0.013809 -0.006650 -216123.000000 0 0 1
-32.037825 9.622974 -22.714500 40.434791 -0.291790 2.167304 0.010261 0.001752 -173658.000000 0 0 1
-31.571435 10.785074 -22.187900 40.067146 -0.329180 2.157679 0.024969 -0.001533 -758089.000000 0 0 1
-32.491065 11.616774 -21.317100 40.559061 -0.343374 2.124195 0.012773 -0.005812 -560156.000000 0 0 1
-32.650845 11.050074 -20.030800 39.867465 -0.326332 2.097209 0.010827 -0.010027 182219.000000 0 0 1
-33.364485 11.883074 -19.120100 40.248907 -0.342151 2.065813 0.004525 -0.008355 -25727.000000 0 0 1
-32.521105 12.875574 -18.271700 39.462104 -0.376979 2.052194 0.016236 -0.008684 208175.000000 0 0 1
-31.696755 12.350074 -17.191100 38.114859 -0.371537 2.038720 0.040604 -0.007323 676704.000000 0 0 1
-32.338245 11.902174 -15.986600 37.986776 -0.352666 2.005175 0.034193 -0.002359 -362792.000000 0 0 1
-32.867025 13.031774 -15.112000 38.450500 -0.377485 1.974715 0.023784 0.005257 -621071.000000 0 0 1
-33.818755 13.770674 -15.783100 39.779968 -0.386690 1.978781 0.008820 0.005385 -480616.000000 0 0 1
-34.649458 14.462674 -14.872700 40.385035 -0.395416 1.947947 -0.002854 0.008607 88695.800000 0 0 1
-35.261029 15.746474 -15.491200 41.608519 -0.419997 1.952291 -0.006988 0.000169 147993.000000 0 0 1
-36.156325 15.584774 -16.573400 42.718176 -0.406974 1.969225 -0.013179 -0.007799 359534.000000 0 0 1
36.608732 16.769874 -16.986900 43.703349 0.429556 1.970002 -0.013030 -0.005423 -207982.000000 0 0 1
36.025372 16.656274 -18.412200 43.752349 0.433075 2.005154 -0.012318 -0.004214 706814.000000 0 0 1
35.009182 15.635774 -18.540800 42.589688 0.420039 2.021207 0.028311 -0.014584 1292870.000000 0 0 1
33.660202 16.083674 -18.328200 41.564609 0.445750 2.027461 0.080212 -0.022617 425753.000000 0 0 1
32.649402 15.000474 -18.767300 40.536517 0.430677 2.052142 0.111260 -0.028137 -218382.000000 0 0 1
32.653462 14.709774 -20.165400 41.100723 0.423254 2.083613 0.105701 -0.029287 1098220.000000 0 0 1
31.662782 13.693474 -20.545600 40.151771 0.408188 2.107957 0.075747 -0.028650 793588.000000 0 0 1
32.103822 12.223374 -20.244200 39.873474 0.363798 2.103322 0.073901 -0.010176 -96931.500000 0 0 1
32.309422 12.009174 -18.856500 39.289777 0.355868 2.071376 0.096691 -0.008456 6980.930000 0 0 1
32.688842 10.688274 -18.605400 39.101925 0.316013 2.066690 0.070054 -0.003571 -249401.000000 0 0 1
33.112952 10.496474 -17.111900 38.722870 0.306970 2.028520 0.064169 -0.000325 238003.000000 0 0 1
32.050202 10.676974 -16.148900 37.443293 0.321570 2.016718 0.078334 -0.004857 572569.000000 0 0 1
32.483432 10.556874 -14.809000 37.228046 0.314225 1.979905 0.032095 -0.003724 -338819.000000 0 0 1
31.730212 11.417574 -13.745700 36.415816 0.345408 1.957854 0.059259 -0.013031 -187706.000000 0 0 1
30.333492 11.208474 -13.827500 35.170306 0.353947 1.974860 0.086305 -0.014034 -270452.000000 0 0 1
29.649882 12.158674 -13.106600 34.622707 0.389161 1.959031 0.097025 -0.014865 -608805.000000 0 0 1
28.133562 11.974874 -13.241400 33.320108 0.402416 1.979478 0.127602 -0.012194 -540325.000000 0 0 1
27.576162 10.843174 -12.574700 32.189163 0.374638 1.972134 0.113175 -0.014427 171953.000000 0 0 1
26.166962 10.769474 -12.695200 31.013861 0.390439 1.992526 0.118667 -0.006236 306713.000000 0 0 1
25.589962 10.175974 -14.054300 30.917955 0.378483 2.042683 0.118652 -0.020209 -375639.000000 0 0 1
25.866262 8.802574 -14.356900 30.865343 0.328017 2.054596 0.112366 -0.016505 891929.000000 0 0 1
27.232962 8.474274 -14.633400 32.055950 0.301679 2.044849 0.114528 -0.020399 519335.000000 0 0 1
27.953262 7.463374 -13.723800 32.022328 0.260909 2.013705 0.110499 -0.017550 -103660.000000 0 0 1
27.442062 6.125474 -13.806900 31.324411 0.219615 2.027254 0.112170 -0.027392 606585.000000 0 0 1
26.496962 5.810774 -12.780300 29.986500 0.215882 2.011086 0.115421 -0.027980 97852.700000 0 0 1
26.035862 4.350874 -12.893400 29.377474 0.165581 2.025156 0.116799 -0.032260 -353769.000000 0 0 1
25.200962 3.942774 -11.850500 28.125937 0.155195 2.005715 0.113472 -0.036484 212661.000000 0 0 1
24.840962 2.581174 -12.006600 27.710906 0.103536 2.018926 0.098846 -0.038327 -382472.000000 0 0 1
24.126562 1.981374 -10.779500 26.499329 0.081940 1.989727 0.093237 -0.041748 -333510.000000 0 0 1
24.877862 1.929974 -9.567300 26.723885 0.077423 1.936927 0.098948 -0.031083 1064500.000000 0 0 1
24.033262 1.622174 -8.417900 25.516469 0.067395 1.906995 0.101769 -0.022616 -243157.000000 0 0 1
24.836262 1.346174 -7.143700 25.878264 0.054149 1.850479 0.111798 -0.018968 -376331.000000 0 0 1
25.088262 -0.028926 -6.918300 26.024692 -0.001153 1.839867 0.092539 -0.027841 786538.000000 0 0 1
25.944862 -0.750326 -7.819700 27.108054 -0.028912 1.863419 0.087648 -0.027404 -414384.000000 0 0 1
26.175362 -2.171526 -7.427000 27.295154 -0.082771 1.846371 0.088690 -0.028921 -133140.000000 0 0 1
27.023462 -2.269126 -6.282600 27.836801 -0.083772 1.798452 0.090523 -0.033735 436604.000000 0 0 1
27.082462 -3.638926 -5.786600 27.931815 -0.133565 1.779476 0.100271 -0.035944 239608.000000 0 0 1
28.390982 -4.142526 -5.049800 29.132608 -0.144887 1.745015 0.091664 -0.023084 1023970.000000 0 0 1
29.498292 -4.016126 -5.952300 30.359651 -0.135316 1.768134 0.092130 -0.018459 1235900.000000 0 0 1
30.737702 -4.430626 -5.341200 31.511350 -0.143157 1.741119 0.100295 -0.016739 617976.000000 0 0 1
31.913082 -4.693726 -6.298100 32.865513 -0.146031 1.763622 0.095165 -0.015492 -213430.000000 0 0 1
31.745592 -5.857726 -7.105900 33.054340 -0.182469 1.787464 0.091496 -0.015600 -156731.000000 0 0 1
32.480032 -5.809126 -8.276300 34.017577 -0.176981 1.816558 0.095222 -0.016916 -1264090.000000 0 0 1
31.791722 -6.536026 -9.421200 33.796335 -0.202764 1.853303 0.085856 -0.018968 1029700.000000 0 0 1
30.510592 -6.029926 -9.882800 32.633204 -0.195119 1.878473 0.081125 -0.018066 909468.000000 0 0 1
29.476072 -6.460426 -9.033400 31.498861 -0.215764 1.861665 0.086788 -0.021494 -1124100.000000 0 0 1
28.254362 -5.518226 -9.120000 30.198248 -0.192877 1.877591 0.086726 -0.019470 -330169.000000 0 0 1
27.568162 -5.560826 -10.376200 29.976522 -0.199041 1.924254 0.074756 -0.019797 995714.000000 0 0 1
26.299262 -4.914126 -10.349400 28.686406 -0.184724 1.939897 0.085577 -0.021162 1494420.000000 0 0 1
25.013162 -5.673626 -9.817400 27.463242 -0.223051 1.936358 0.107480 -0.018208 184775.000000 0 0 1
25.059362 -5.863226 -8.416400 27.077386 -0.229839 1.886860 0.103482 -0.027833 1215910.000000 0 0 1
23.864762 -6.487526 -7.883500 25.956973 -0.265431 1.879385 0.102540 -0.028701 270827.000000 0 0 1
22.858362 -5.456326 -7.390800 24.635343 -0.234317 1.875497 0.121678 -0.014441 -972564.000000 0 1 0
22.094662 -4.953726 -8.429400 24.161297 -0.220557 1.927172 0.106097 -0.015969 205101.000000 0 1 0
21.622962 -3.630026 -8.171300 23.398712 -0.166327 1.927535 0.083934 -0.018617 -78487.200000 0 1 0
21.678162 -2.714726 -9.407100 23.786677 -0.124580 1.977384 0.092864 -0.012699 -364050.000000 0 1 0
22.987862 -2.520526 -9.879000 25.147356 -0.109210 1.974519 0.091444 -0.016848 368966.000000 0 0 1
23.006962 -1.879826 -11.152200 25.636412 -0.081526 2.020850 0.101653 -0.017699 -114958.000000 0 0 1
24.421962 -1.885126 -11.759000 27.170941 -0.077037 2.018369 0.088146 -0.021849 -184547.000000 0 0 1
25.347562 -0.949726 -11.255700 27.750526 -0.037451 1.988435 0.084368 -0.032567 780993.000000 0 0 1
26.647962 -1.240326 -11.770700 29.158218 -0.046511 1.986336 0.082270 -0.030589 108383.000000 0 0 1
27.705762 -0.284326 -11.163600 29.871660 -0.010262 1.953811 0.079405 -0.025361 -488778.000000 0 0 1
28.927102 -0.442926 -11.828000 31.255000 -0.015311 1.958902 0.082112 -0.028847 752708.000000 0 0 1
30.008602 0.513074 -11.611900 32.180983 0.017096 1.939955 0.089293 -0.028403 1018010.000000 0 0 1
30.013472 1.839074 -12.445500 32.543527 0.061198 1.963217 0.091936 -0.028295 -319252.000000 0 0 1
30.130752 1.617774 -13.821400 33.189012 0.053640 2.000328 0.089796 -0.026966 371538.000000 0 0 1
29.800142 2.746574 -14.543600 33.273239 0.091907 2.023164 0.088107 -0.023908 -202697.000000 0 0 1
30.102952 2.561774 -16.046800 34.208920 0.084896 2.059048 0.097260 -0.018478 -450287.000000 0 0 1
29.367222 1.619074 -16.762500 33.853161 0.055076 2.088807 0.078630 -0.019126 -315341.000000 0 0 1
29.478492 1.643674 -18.174600 34.669861 0.055701 2.122594 0.063554 -0.009977 152834.000000 0 0 1
28.367932 0.773474 -18.892700 34.092110 0.027259 2.158157 0.029974 -0.002601 237747.000000 0 0 1
28.413382 -0.623826 -18.900700 34.131304 -0.021952 2.157675 0.047725 0.000791 270174.000000 0 0 1
27.675662 -1.231426 -19.973000 34.152297 -0.044466 2.195456 0.018289 -0.000978 26545.400000 0 0 1
27.502062 -2.774226 -19.941100 34.083826 -0.100533 2.195751 0.024760 -0.000017 -151894.000000 0 0 1
26.417462 -3.191626 -19.122900 32.768187 -0.120232 2.193928 0.033326 0.000393 346139.000000 0 0 1
26.209462 -4.604226 -19.114400 32.764235 -0.173896 2.193695 0.047900 -0.005652 -53187.300000 0 0 1
27.128762 -5.380626 -18.125100 33.067206 -0.195796 2.150922 0.043376 -0.001546 -655619.000000 0 0 1
28.470662 -5.380426 -18.470200 34.360964 -0.186779 2.138307 0.046360 -0.009357 -726790.000000 0 0 1
29.190652 -5.241626 -17.253400 34.311057 -0.177672 2.097692 0.052008 -0.012361 -96349.000000 0 0 1
30.685552 -4.884526 -17.389200 35.606825 -0.157856 2.081014 0.081537 -0.013387 -24482.500000 0 0 1
31.498392 -5.908926 -17.908300 36.712005 -0.185439 2.080370 0.068585 -0.006979 -83538.000000 0 0 1
32.767812 -5.406326 -18.263000 37.901122 -0.163516 2.073571 0.078292 -0.006376 -319637.000000 0 0 1
33.622452 -6.491026 -18.929000 39.126842 -0.190710 2.075771 0.067372 -0.000511 -362231.000000 0 0 1
34.001072 -7.424226 -17.968100 39.166882 -0.214979 2.047393 0.077487 -0.007946 -195120.000000 0 0 1
34.473462 -8.594626 -18.588700 40.097718 -0.244330 2.052833 0.070357 -0.009705 188540.000000 0 0 1
35.394752 -9.547426 -17.758300 40.734494 -0.263471 2.021893 0.073485 -0.004601 -319453.000000 0 0 1
34.665212 -10.171126 -16.701300 39.800278 -0.285400 2.003831 0.074739 -0.004504 476472.000000 0 0 1
35.359102 -11.182726 -15.932000 40.362707 -0.306308 1.976560 0.078282 -0.003697 851876.000000 0 0 1
36.698162 -10.740526 -15.181000 41.140938 -0.284720 1.948729 0.083546 -0.010312 658363.000000 0 0 1
-36.186625 -11.550826 -14.120800 40.525182 0.308978 1.926708 0.084383 -0.012094 411031.000000 0 0 1
-35.519609 -12.710826 -14.595400 40.450382 0.343654 1.939946 0.071384 -0.003768 -658658.000000 0 0 1
-34.084877 -12.659126 -15.095100 39.368697 0.355611 1.964303 0.085478 -0.010423 -931335.000000 0 0 1
-34.030015 -12.055726 -16.385700 39.646861 0.340471 1.996862 0.083031 -0.003546 211182.000000 0 0 1
-32.694805 -12.059326 -16.870100 38.716635 0.353364 2.021648 0.108264 -0.010882 130907.000000 0 0 1
-32.475405 -11.071426 -18.043400 38.765870 0.328560 2.054934 0.128247 -0.012136 120218.000000 0 0 1
-32.597615 -9.713426 -17.607400 38.301118 0.289602 2.048465 0.123345 -0.009620 -316434.000000 0 0 1
-33.899995 -9.271426 -17.837900 39.412684 0.266965 2.040467 0.097897 -0.013403 -708633.000000 0 0 1
-34.212967 -7.848126 -17.268800 39.119453 0.225489 2.027997 0.105170 -0.016417 601987.000000 0 0 1
-35.478524 -7.387426 -17.777400 40.365030 0.205289 2.026858 0.100203 -0.018328 797099.000000 0 0 1
-35.937157 -6.138926 -17.251800 40.333488 0.169191 2.012775 0.087763 -0.023105 -117943.000000 0 0 1
24.759275 27.143674 -27.273040 45.756087 0.831305 2.209372 0.064391 0.001560 -194471.000000 0 0 1
25.455975 26.294774 -26.397550 45.124854 0.801605 2.195663 0.068159 -0.004840 -336306.000000 0 0 1
26.694175 25.881474 -26.897090 45.889902 0.769942 2.197061 0.069779 -0.013518 -401891.000000 0 0 1
27.412375 24.858474 -25.998580 45.225084 0.736578 2.183243 0.056935 -0.007913 -467316.000000 0 0 1
27.727575 25.518874 -24.780300 45.100938 0.743941 2.152491 0.065117 -0.003814 220560.000000 0 0 1
28.181475 24.547274 -23.847400 44.333539 0.716584 2.138751 0.066348 0.000220 -97764.000000 0 0 1
28.752975 25.300774 -22.595800 44.468336 0.721619 2.103811 0.051244 0.007938 -8100.280000 0 0 1
27.821875 26.030174 -21.801300 43.896736 0.752140 2.090531 0.053237 0.006651 -160806.000000 0 0 1
28.433975 26.831274 -20.840800 44.302903 0.756406 2.060559 0.024516 0.009818 -324880.000000 0 0 1
27.476275 27.649874 -19.976200 43.800797 0.788547 2.044370 0.040475 0.012078 -211722.000000 0 0 1
26.801375 26.962174 -18.943000 42.474814 0.788389 2.033067 0.061396 0.010947 113231.000000 0 0 1
25.957875 27.910274 -18.318100 42.288858 0.821626 2.018799 0.047545 0.008473 166955.000000 0 0 1
25.065175 27.383274 -17.166500 40.899822 0.829567 2.003934 0.042722 0.007516 845518.000000 0 0 1
24.042575 26.415174 -17.498900 39.774594 0.832385 2.026341 0.052342 0.011917 632686.000000 0 0 1
22.893975 26.494474 -16.690200 38.789870 0.858171 2.015591 0.034149 0.022516 -176629.000000 0 0 1
21.831075 25.522274 -17.189400 37.728740 0.863191 2.043848 0.037953 0.018094 -221915.000000 0 0 1
21.246175 25.807274 -18.473600 38.192791 0.882031 2.075666 0.035024 0.016596 321954.000000 0 0 1
20.236175 24.883274 -18.869600 37.212121 0.888032 2.102592 0.035790 0.018041 403122.000000 0 0 1
19.625075 25.183274 -20.270100 37.818221 0.908812 2.136474 0.038146 0.014508 355892.000000 0 0 1
18.636875 26.184274 -20.203000 37.961962 0.952222 2.131982 0.028745 0.014780 -449485.000000 0 0 1
17.716175 26.223574 -21.267500 38.129323 0.976647 2.162496 0.023103 0.009856 372468.000000 0 0 1
16.752975 27.433674 -20.978000 38.384178 1.022567 2.149008 0.023314 0.005293 86965.300000 0 0 1
15.956675 27.219874 -19.833400 37.267959 1.040575 2.131974 0.030797 0.004458 -55113.200000 0 0 1
14.873475 28.119674 -19.743100 37.439636 1.084270 2.126253 0.031761 -0.004092 88349.000000 0 0 1
14.264475 28.187174 -18.353000 36.535252 1.102310 2.097095 0.038138 -0.008940 290751.000000 0 0 1
13.406075 27.072374 -18.009800 35.170857 1.111001 2.108385 0.048653 -0.010313 383466.000000 0 0 1
12.856575 27.295874 -16.704700 34.487726 1.130610 2.076435 0.063307 -0.014970 399736.000000 0 0 1
11.845975 26.177474 -16.282800 33.026003 1.145844 2.086365 0.084050 -0.018414 -11093.200000 0 0 1
12.551175 25.025374 -16.025800 32.258760 1.105919 2.090691 0.075725 -0.016933 -86608.100000 0 0 1
11.695375 23.907674 -16.036700 31.073050 1.115835 2.113084 0.087520 -0.018462 87171.100000 0 0 1
12.576275 22.612674 -16.044600 30.445442 1.063236 2.125857 0.078293 -0.014109 462426.000000 0 0 1
13.042575 22.517574 -17.380500 31.292678 1.045798 2.159661 0.075767 -0.011231 -350872.000000 0 0 1
13.881475 21.456074 -17.732000 31.104377 0.996553 2.177400 0.072674 -0.011162 -784126.000000 0 0 1
13.171575 20.127774 -17.968800 30.024914 0.991336 2.212378 0.073034 -0.008222 -81124.900000 0 0 1
12.577775 19.559474 -16.809100 28.693541 0.999320 2.196681 0.076030 -0.012855 83910.200000 0 0 1
12.220775 18.183974 -16.957900 27.705137 0.979067 2.229491 0.076551 -0.017522 -397905.000000 0 0 1
13.420975 17.218674 -16.999100 27.669021 0.908716 2.232387 0.081089 -0.015376 -126826.000000 0 0 1
14.038675 17.077674 -15.723500 27.128579 0.882755 2.189024 0.092898 -0.018751 -284765.000000 0 0 1
15.029875 16.119274 -15.862400 27.154077 0.820358 2.194644 0.084157 -0.012282 -1114400.000000 0 0 1
15.451975 15.434374 -14.570600 26.254254 0.784828 2.159136 0.123650 -0.011343 -362419.000000 0 0 1
16.269275 16.081074 -13.578300 26.601889 0.779581 2.106477 0.104891 -0.014671 1230580.000000 0 0 1
17.608375 16.466174 -13.945200 27.850644 0.751890 2.095219 0.086939 -0.012891 875938.000000 0 0 1
18.607775 15.357574 -14.495300 28.146369 0.689997 2.111801 0.075153 -0.011866 -423517.000000 0 0 1
19.011675 14.268374 -13.683100 27.427314 0.643825 2.093109 0.097042 -0.017534 253072.000000 0 0 1
19.728875 14.709474 -12.554600 27.626349 0.640667 2.042543 0.091331 -0.015251 -463698.000000 0 0 1
20.586375 13.564774 -11.966900 27.404537 0.582620 2.022697 0.118196 -0.026230 -58915.000000 0 0 1
19.725875 12.606674 -11.384500 26.031620 0.568670 2.023428 0.150408 -0.033636 661532.000000 0 0 1
20.433675 11.548274 -10.721900 25.804202 0.514407 1.999300 0.155985 -0.012723 33989.600000 0 0 1
20.592375 10.269774 -11.533600 25.739816 0.462621 2.035417 0.132451 -0.016962 -1074840.000000 0 0 1
21.452175 10.339274 -12.601200 26.942284 0.449119 2.057495 0.115840 -0.005869 -185521.000000 0 0 1
21.549675 9.174274 -13.477200 27.022042 0.402486 2.092950 0.116184 -0.015403 74441.900000 0 0 1
22.235875 7.900674 -12.920000 26.903182 0.341399 2.071725 0.112597 0.001541 -316326.000000 0 0 1
21.427975 7.379974 -11.891600 25.593599 0.331685 2.054015 0.104150 -0.017826 205770.000000 0 0 1
22.053975 6.410074 -11.084400 25.501584 0.282860 2.020452 0.102808 -0.001455 -1028570.000000 0 0 1
22.033475 4.928074 -11.628400 25.396449 0.220042 2.046400 0.093254 -0.016683 777470.000000 0 0 1
20.746675 4.332374 -11.917000 24.314788 0.205864 2.083016 0.067359 -0.027167 1776390.000000 0 1 0
19.741475 5.054074 -12.659200 23.990099 0.250630 2.126668 0.026719 -0.032448 -223341.000000 0 1 0
18.709675 4.030174 -13.174100 23.234697 0.212164 2.173657 0.017442 -0.037684 -129064.000000 0 1 0
19.196375 3.266174 -14.289100 24.152580 0.168531 2.203861 0.026473 -0.039820 355732.000000 0 1 0
19.054175 1.879674 -14.047000 23.746852 0.098331 2.203753 0.054991 -0.036318 -526866.000000 0 1 0
20.185775 1.122874 -14.741100 25.020520 0.055570 2.200816 0.088916 -0.028068 104271.000000 0 0 1
21.348775 1.034774 -13.878800 25.484545 0.048432 2.146705 0.107568 -0.023252 1215320.000000 0 0 1
22.558075 0.739974 -14.565300 26.861912 0.032791 2.143884 0.079410 -0.027042 145946.000000 0 0 1
22.823775 -0.658426 -15.181800 27.419798 -0.028840 2.157574 0.071178 -0.022191 -1291580.000000 0 0 1
21.896875 -1.000126 -16.159200 27.232208 -0.045643 2.206055 0.071928 -0.021054 -229634.000000 0 0 1
22.341075 -2.148526 -16.839100 28.058779 -0.095874 2.214468 0.064462 -0.021636 -229153.000000 0 0 1
21.319775 -2.871626 -17.742100 27.884784 -0.133887 2.260443 0.072514 -0.024147 -598571.000000 0 0 1
20.342375 -3.537426 -17.001500 26.746525 -0.172173 2.259650 0.090213 -0.023386 -166648.000000 0 0 1
19.581775 -4.274926 -17.951500 26.906826 -0.214939 2.301203 0.096546 -0.022277 -134276.000000 0 0 1
18.806275 -5.386526 -17.246600 26.079415 -0.278954 2.293361 0.099837 -0.025148 -456357.000000 0 0 1
19.655475 -6.396426 -16.827200 26.653454 -0.314618 2.254067 0.104654 -0.019723 29950.100000 0 0 1
18.952075 -7.356426 -16.061700 25.909002 -0.370257 2.239446 0.106062 -0.014731 294917.000000 0 0 1
19.889775 -8.441426 -15.428500 26.549942 -0.401371 2.190891 0.126509 -0.015015 406707.000000 0 0 1
20.589475 -9.312526 -16.327200 27.878793 -0.424761 2.196477 0.113096 -0.017497 1189360.000000 0 0 1
21.387475 -10.301526 -15.577400 28.393678 -0.448870 2.151512 0.096800 -0.023082 41096.800000 0 0 1
21.918575 -11.315126 -16.573500 29.717620 -0.476551 2.162408 0.078974 -0.019868 -282620.000000 0 0 1
23.024875 -10.896826 -17.363000 30.827901 -0.442030 2.169078 0.080695 -0.016649 393787.000000 0 0 1
23.362375 -11.795626 -18.398800 31.991455 -0.467559 2.183542 0.067531 -0.007047 -28797.100000 0 0 1
22.415675 -11.638526 -19.682500 32.020596 -0.478900 2.232780 0.071450 -0.007206 1521660.000000 0 0 1
21.053475 -12.077726 -19.610400 31.203975 -0.520833 2.250366 0.078538 -0.017025 736009.000000 0 0 1
20.918475 -13.470426 -19.649900 31.704157 -0.572109 2.239271 0.065702 -0.011118 -1282290.000000 0 0 1
19.482775 -13.936526 -19.651400 30.983589 -0.620938 2.257837 0.065730 -0.011802 -827317.000000 0 0 1
18.866275 -13.496526 -20.838700 31.182431 -0.620973 2.302695 0.077672 -0.006777 522593.000000 0 0 1
17.445475 -13.679226 -20.805000 30.402530 -0.664978 2.324464 0.084444 -0.004542 827648.000000 0 0 1
16.722775 -13.219126 -22.092900 30.700044 -0.668913 2.374076 0.077132 -0.006101 -152798.000000 0 0 1
16.949975 -14.035926 -23.212600 31.986461 -0.691630 2.382849 0.065707 -0.006406 307897.000000 0 0 1
16.199175 -13.532026 -24.292500 32.181587 -0.695929 2.426233 0.070971 -0.010997 -143241.000000 0 0 1
16.116875 -14.456526 -25.549450 33.489091 -0.731144 2.438612 0.065679 -0.018689 -382895.000000 0 0 1
15.327175 -15.645126 -25.526960 33.635070 -0.795663 2.432478 0.079132 -0.021399 416140.000000 0 0 1
15.470075 -16.388426 -26.726820 34.960358 -0.814216 2.441045 0.082904 -0.022758 -336204.000000 0 0 1
16.538475 -17.486526 -26.784360 36.009744 -0.813254 2.409547 0.071233 -0.030463 -15785.800000 0 0 1
17.881075 -17.025726 -26.824250 36.457490 -0.760899 2.397596 0.063875 -0.021764 49229.800000 0 0 1
18.758175 -18.092026 -27.095510 37.594643 -0.767323 2.375648 0.069642 -0.023800 -600402.000000 0 0 1
20.202275 -17.631426 -27.169140 38.172782 -0.717551 2.362770 0.060697 -0.018110 -823526.000000 0 0 1
20.730275 -17.243326 -25.955510 37.426797 -0.693829 2.337133 0.055361 -0.019060 364691.000000 0 0 1
22.126775 -16.948326 -26.072140 38.165382 -0.653640 2.322844 0.060701 -0.014462 440380.000000 0 0 1
22.823975 -16.289826 -24.882100 37.488814 -0.619872 2.296578 0.050642 -0.010159 -62859.300000 0 0 1
22.566075 -14.939326 -24.559500 36.545591 -0.584783 2.307734 0.064836 -0.018946 -35642.800000 0 0 1
21.234275 -14.673726 -24.144700 35.343730 -0.604687 2.322849 0.081773 -0.016892 251952.000000 0 0 1
21.155775 -13.453826 -23.205700 34.162505 -0.566428 2.317569 0.086715 -0.012670 81609.600000 0 0 1
21.415875 -12.251226 -23.929300 34.370680 -0.519624 2.340904 0.095782 -0.016421 160614.000000 0 0 1
21.000475 -11.172526 -23.102600 33.159847 -0.488929 2.341589 0.093307 -0.014476 47793.500000 0 0 1
21.253775 -9.783026 -23.694800 33.299761 -0.431383 2.362513 0.109924 -0.014417 -184200.000000 0 0 1
20.446775 -8.730926 -23.275300 32.187564 -0.403570 2.379097 0.108220 -0.021019 -78478.800000 0 0 1
20.517075 -7.617226 -24.133800 32.579331 -0.355490 2.405013 0.083583 -0.018924 -293076.000000 0 0 1
19.864775 -6.396626 -23.478300 31.412684 -0.311524 2.414958 0.078647 -0.026474 120964.000000 0 0 1
18.448675 -6.565126 -23.446700 30.548359 -0.341885 2.445771 0.067738 -0.017527 535651.000000 0 0 1
17.794975 -5.572326 -22.606100 29.304398 -0.303468 2.451871 0.059618 -0.021775 -43070.300000 0 0 1
18.010275 -5.666226 -21.085300 28.303110 -0.304807 2.411304 0.087350 -0.024982 -499804.000000 0 0 1
17.287275 -6.695226 -20.377100 27.548179 -0.369504 2.403405 0.100468 -0.027472 323177.000000 0 0 1
17.791475 -8.017226 -20.486900 28.293561 -0.423371 2.380501 0.114314 -0.021373 -267871.000000 0 0 1
17.526575 -8.942226 -19.280600 27.547882 -0.471782 2.346046 0.097052 -0.017126 159526.000000 0 0 1
16.155275 -9.225926 -19.083700 26.651421 -0.518882 2.368921 0.073793 -0.018332 -294565.000000 0 0 1
15.858075 -10.467526 -18.584000 26.578426 -0.583426 2.345093 0.087515 -0.014045 -426812.000000 0 0 1
14.407875 -10.693626 -18.095100 25.482801 -0.638495 2.360423 0.070595 -0.007149 153474.000000 0 0 1
13.869975 -9.895026 -17.026900 24.087405 -0.619672 2.355874 0.069332 -0.010011 330808.000000 0 1 0
13.865675 -8.504726 -17.322700 23.762644 -0.550189 2.387640 0.063516 -0.023220 -948239.000000 0 1 0
12.566675 -7.770226 -16.943300 22.480506 -0.553781 2.424453 0.043244 -0.013067 -395642.000000 0 1 0
11.540675 -7.800926 -17.897500 22.679553 -0.594402 2.480215 0.033679 -0.014718 -621356.000000 0 1 0
10.728875 -6.694026 -17.611800 21.681657 -0.557827 2.518865 0.021459 -0.009766 320272.000000 0 1 0
9.269475 -6.875026 -18.162300 21.518789 -0.638158 2.575533 0.012735 -0.002873 671975.000000 0 1 0
9.172875 -6.641126 -19.520900 22.567936 -0.626650 2.615914 0.025957 -0.009406 87934.300000 0 1 0
7.912375 -6.043426 -19.791200 22.154464 -0.652271 2.675493 0.031108 -0.008800 339339.000000 0 1 0
7.493075 -5.801926 -21.232700 23.251582 -0.658876 2.721797 0.042713 -0.017199 31048.600000 0 1 0
7.300975 -6.998026 -21.890500 24.113701 -0.764215 2.708813 0.035602 -0.015169 66549.000000 0 1 0
6.779575 -6.876126 -23.226500 25.153808 -0.792468 2.747588 0.057849 -0.018094 74918.100000 0 0 1
6.894475 -8.144026 -24.053600 26.314152 -0.868298 2.724063 0.058575 -0.015838 189198.000000 0 0 1
6.119675 -9.267626 -23.570400 26.055768 -0.987195 2.701268 0.056588 -0.013328 321781.000000 0 0 1
5.870675 -10.085826 -24.656800 27.279049 -1.043664 2.699535 0.057418 -0.003688 -8054.600000 0 0 1
5.035275 -11.324726 -24.203800 27.192413 -1.152420 2.668347 0.055301 -0.008820 283176.000000 0 0 1
5.721675 -12.192726 -23.308600 26.920085 -1.132034 2.617632 0.049188 -0.010497 111137.000000 0 0 1
4.968375 -13.371226 -23.101100 27.150235 -1.215034 2.588420 0.055010 -0.009490 21752.200000 0 0 1
5.714475 -14.464226 -22.251100 27.147385 -1.194542 2.531580 0.068591 -0.011727 88064.800000 0 0 1
6.825075 -15.260626 -22.665600 28.163767 -1.150245 2.506099 0.082375 -0.014246 149209.000000 0 0 1
8.040975 -14.624426 -22.966600 28.390066 -1.068082 2.513187 0.089257 -0.010566 -84673.400000 0 0 1
8.784175 -14.071326 -21.705300 27.318199 -1.012729 2.489040 0.068672 -0.001123 -596313.000000 0 0 1
9.298875 -14.908026 -20.661100 27.121935 -1.013097 2.436861 0.078461 -0.012781 795357.000000 0 0 1
8.267975 -15.701126 -20.049000 26.774002 -1.086108 2.417081 0.088474 -0.013168 247917.000000 0 0 1
8.664775 -16.228026 -18.645200 26.192950 -1.080368 2.362911 0.085732 -0.009645 429600.000000 0 0 1
9.705475 -17.203826 -18.728400 27.219861 -1.057157 2.329583 0.099197 -0.007676 68824.200000 0 0 1
10.310275 -17.591826 -17.528400 26.889011 -1.040673 2.280857 0.097519 -0.009425 -646705.000000 0 0 1
9.431375 -18.382226 -16.520600 26.453493 -1.096747 2.245307 0.092731 -0.024314 -823688.000000 0 0 1
9.175975 -19.780226 -16.792300 27.521577 -1.136446 2.227047 0.101224 -0.030812 -331807.000000 0 0 1
8.102675 -20.036626 -17.610900 27.879446 -1.186508 2.254515 0.109298 -0.026029 -1049580.000000 0 0 1
6.660475 -19.776526 -17.186500 27.034213 -1.245941 2.259752 0.106261 -0.015212 -843519.000000 0 0 1
6.358175 -18.401826 -17.253900 26.014432 -1.238119 2.295941 0.087236 -0.013627 -757834.000000 0 0 1
4.989975 -18.161826 -17.352500 25.609784 -1.302662 2.315254 0.068340 -0.015646 -440952.000000 0 0 1
4.755275 -16.654126 -17.180600 24.395605 -1.292666 2.352162 0.035142 -0.002796 72575.500000 0 1 0
5.066275 -16.111926 -15.897100 23.194376 -1.266143 2.325930 0.023045 -0.007473 202694.000000 0 1 0
4.842375 -14.697526 -15.949500 22.222790 -1.252528 2.371303 0.015378 -0.000554 47188.000000 0 1 0
10.713475 29.773374 -18.070300 36.438552 1.225388 2.089681 0.073353 -0.030832 -799448.000000 0 0 1
9.752975 29.278074 -18.946300 36.211717 1.249242 2.121409 0.097565 -0.040812 -644187.000000 0 0 1
8.721275 28.792574 -18.112900 35.116237 1.276681 2.112736 0.090283 -0.038329 -87595.300000 0 0 1
7.602375 28.183374 -19.009200 34.834586 1.307320 2.148019 0.097708 -0.042716 302160.000000 0 0 1
6.742575 29.146374 -19.646200 35.790315 1.343460 2.151874 0.111284 -0.052034 -532038.000000 0 0 1
5.924375 28.397374 -20.443800 35.488844 1.365122 2.184700 0.102440 -0.056842 -574457.000000 0 0 1
4.947775 29.219374 -21.317500 36.506001 1.403055 2.194376 0.095752 -0.051587 -588451.000000 0 0 1
3.939175 29.777374 -20.570300 36.405307 1.439272 2.171273 0.091359 -0.050729 -1524150.000000 0 0 1
3.052975 30.494574 -21.335900 37.342474 1.471013 2.178955 0.091500 -0.061636 -1679360.000000 0 0 1
1.690075 30.394674 -20.616800 36.766085 1.515249 2.166095 0.105060 -0.057045 -415351.000000 0 0 1
1.018075 29.187474 -20.879600 35.901293 1.535930 2.191470 0.103059 -0.062734 147793.000000 0 0 1
0.355975 29.055874 -22.148900 36.536890 1.558546 2.222078 0.123170 -0.075975 -341465.000000 0 0 1
-0.426725 27.745874 -22.359800 35.636727 -1.555418 2.249054 0.117995 -0.064818 -128360.000000 0 0 1
-1.526925 27.548774 -21.529200 34.996756 -1.515427 2.233407 0.130166 -0.061634 -450805.000000 0 0 1
-2.213125 26.374974 -21.870200 34.334281 -1.487082 2.261369 0.129112 -0.060171 127345.000000 0 0 1
-3.359825 25.957174 -20.939400 33.518976 -1.442075 2.245547 0.102733 -0.055061 -473838.000000 0 0 1
-4.486225 26.754274 -20.843700 34.210776 -1.404659 2.225940 0.098832 -0.053141 -241379.000000 0 0 1
-5.419725 26.179074 -19.934100 33.347949 -1.366655 2.211501 0.080438 -0.050601 -26008.400000 0 0 1
-6.803025 26.857974 -19.974600 34.155769 -1.322718 2.195441 0.075051 -0.057004 -99998.600000 0 0 1
-7.707825 26.167674 -19.137900 33.322919 -1.284342 2.182565 0.072960 -0.046425 -773989.000000 0 0 1
-8.700425 26.991174 -18.619200 33.924850 -1.258969 2.151768 0.072249 -0.053653 387893.000000 0 0 1
-9.920925 26.267874 -17.958400 33.330618 -1.209676 2.139803 0.075877 -0.047034 415429.000000 0 0 1
-9.548325 25.552974 -16.803300 32.038662 -1.213194 2.122888 0.088924 -0.049616 -112016.000000 0 0 1
-10.736125 25.043474 -16.215900 31.707970 -1.165796 2.107626 0.048117 -0.037512 262071.000000 0 0 1
-10.639425 24.413774 -14.814100 30.474371 -1.159817 2.078437 0.055395 -0.029754 -149961.000000 0 0 1
-10.081025 23.118474 -14.995800 29.342204 -1.159596 2.107221 0.060426 -0.024912 -239590.000000 0 0 1
-10.490125 22.269274 -13.934300 28.286534 -1.130569 2.085886 0.081116 -0.022574 189053.000000 0 0 1
-9.749625 20.897874 -13.774400 26.860946 -1.134276 2.109244 0.099880 -0.009422 243205.000000 0 0 1
-10.369325 19.873774 -14.552800 26.725901 -1.089893 2.146614 0.071595 -0.007063 -180375.000000 0 0 1
-10.362625 20.012674 -15.940400 27.604120 -1.093008 2.186416 0.072658 -0.002743 409434.000000 0 0 1
-8.980425 19.827374 -16.643700 27.400466 -1.145508 2.223610 0.074378 -0.007805 344261.000000 0 0 1
-8.673425 18.481074 -16.849300 26.470310 -1.131998 2.260795 0.077144 -0.008961 -297545.000000 0 0 1
-7.809325 18.428374 -17.972100 26.899571 -1.169971 2.302473 0.093996 -0.018530 149881.000000 0 0 1
-7.218425 17.016774 -18.299100 26.010254 -1.169608 2.351155 0.083963 -0.020101 -185779.000000 0 0 1
-8.182925 16.074374 -18.671100 25.960657 -1.099922 2.373457 0.075510 -0.023713 -618136.000000 0 0 1
-7.882425 15.149774 -19.745300 26.106036 -1.091041 2.428512 0.086292 -0.033050 369918.000000 0 0 1
-6.583725 14.291574 -19.676500 25.194427 -1.139103 2.467040 0.063554 -0.029260 32918.900000 0 0 1
-6.709725 13.079174 -18.906900 23.949031 -1.096796 2.480732 0.032246 -0.025932 902551.000000 0 1 0
-5.421225 12.546974 -18.522400 23.019460 -1.162949 2.505867 0.042206 -0.021820 1064960.000000 0 1 0
-4.663825 13.266174 -17.396900 22.369505 -1.232735 2.461805 0.038480 -0.008593 -303244.000000 0 1 0
-4.083625 14.502174 -17.700500 23.244284 -1.296317 2.436419 0.036244 -0.018833 -369547.000000 0 1 0
-3.567125 15.008974 -16.470400 22.566962 -1.337459 2.388893 0.037843 -0.005741 657589.000000 0 1 0
-2.668625 16.307274 -16.595700 23.419351 -1.408588 2.358354 0.058674 -0.011127 868562.000000 0 1 0
-3.431825 17.504674 -16.802900 24.505683 -1.377200 2.326325 0.060490 -0.012775 -125396.000000 0 1 0
-2.566025 18.553574 -17.060800 25.335558 -1.433365 2.309586 0.074579 -0.012724 -251342.000000 0 0 1
-3.305225 19.801674 -17.525600 26.649155 -1.405405 2.288481 0.088137 -0.009923 256053.000000 0 0 1
-3.784925 19.701474 -18.882000 27.550021 -1.380995 2.325910 0.095136 -0.019466 -350434.000000 0 0 1
-4.165125 20.925674 -19.441300 28.865139 -1.374320 2.309759 0.117257 -0.023891 -156530.000000 0 0 1
-3.100725 22.040974 -19.646600 29.688515 -1.431034 2.293957 0.096309 -0.023818 -627491.000000 0 0 1
-1.965125 21.580374 -20.365300 29.737513 -1.479986 2.325174 0.117824 -0.026245 -827666.000000 0 0 1
-0.992125 22.547474 -20.218500 30.301166 -1.526823 2.301309 0.108853 -0.027382 -391131.000000 0 0 1
0.023475 22.233974 -19.083800 29.300880 1.569740 2.280099 0.114398 -0.026572 -296367.000000 0 0 1
-0.567425 22.242474 -17.780800 28.481687 -1.545291 2.245017 0.111165 -0.025244 299943.000000 0 0 1
0.482975 22.074774 -16.810200 27.750887 1.548921 2.221509 0.107962 -0.027298 587271.000000 0 0 1
0.029975 22.288574 -15.346400 27.060921 1.569451 2.173784 0.101416 -0.028258 -190723.000000 0 0 1
-0.902125 21.302674 -15.027200 26.085139 -1.528474 2.184725 0.098065 -0.016815 -417644.000000 0 0 1
-0.822825 21.053074 -13.624600 25.090610 -1.531733 2.144821 0.097197 -0.022370 147751.000000 0 0 1
-1.595725 19.803074 -13.125200 23.811320 -1.490390 2.154618 0.070062 -0.016690 -63097.100000 0 1 0
-1.112525 18.559874 -13.482800 22.967206 -1.510926 2.198201 0.058983 -0.011752 -347524.000000 0 1 0
-1.946425 17.556274 -12.959200 21.907811 -1.460380 2.203756 0.042377 -0.008592 -238747.000000 0 1 0
-1.477625 16.101274 -13.174000 20.856382 -1.479282 2.254480 0.022699 -0.000567 -970238.000000 0 1 0
-0.397025 15.870874 -12.312000 20.090486 -1.545786 2.230430 0.017093 -0.002421 -91710.900000 0 1 0
0.056375 14.507374 -12.270100 19.000590 1.566910 2.272834 0.015749 0.000346 56969.300000 0 1 0
0.603075 13.826874 -13.521700 19.348967 1.527208 2.344561 0.011016 0.001449 -1296970.000000 0 1 0
-0.231925 13.387274 -14.519000 19.750298 -1.553474 2.396652 0.020628 -0.012626 -489518.000000 0 1 0
0.510875 12.763374 -15.587600 20.152865 1.530791 2.455091 0.013724 -0.008004 -109070.000000 0 1 0
-0.208525 12.745374 -16.923000 21.186693 -1.554437 2.496021 0.026399 -0.006114 -118686.000000 0 1 0
-0.096225 13.999074 -17.541900 22.443297 -1.563923 2.468039 0.039315 -0.008568 -55297.100000 0 1 0
-0.279925 13.843074 -18.913900 23.440236 -1.550578 2.509679 0.053260 -0.013325 -284927.000000 0 1 0
-0.695325 15.171974 -19.567500 24.770130 -1.524999 2.481546 0.064121 -0.015716 97124.600000 0 1 0
0.285275 16.224974 -19.533900 25.394968 1.553216 2.448390 0.061773 -0.021756 111324.000000 0 0 1
-0.275425 17.463874 -19.872400 26.457041 -1.555027 2.420553 0.111912 -0.031482 124231.000000 0 0 1
0.783875 18.544474 -20.222800 27.449474 1.528551 2.399015 0.132608 -0.030352 306795.000000 0 0 1
1.280275 18.458074 -21.545500 28.399792 1.501546 2.432035 0.111285 -0.040114 -18411.300000 0 0 1
2.074075 19.550674 -21.994200 29.500432 1.465104 2.412164 0.106753 -0.026649 194942.000000 0 0 1
2.620675 19.324874 -23.431900 30.485614 1.436007 2.447480 0.111742 -0.037693 163886.000000 0 0 1
3.607275 18.276774 -23.442300 29.943185 1.375931 2.470098 0.091877 -0.029815 129277.000000 0 0 1
3.858175 17.877874 -24.736400 30.763507 1.358249 2.504927 0.093334 -0.042314 84012.400000 0 0 1
4.781575 16.639574 -24.891000 30.319973 1.290974 2.533859 0.064574 -0.033778 -613362.000000 0 0 1
6.074075 16.754874 -24.391200 30.208456 1.223006 2.510578 0.054939 -0.023419 -54504.600000 0 0 1
6.971575 15.744674 -24.936400 30.303823 1.153955 2.537257 0.052055 -0.036414 775149.000000 0 0 1
7.427975 15.775174 -26.460150 31.688649 1.130727 2.558936 0.043586 -0.038131 -823430.000000 0 0 1
8.444175 16.736274 -26.704100 32.626920 1.103521 2.529536 0.030605 -0.033615 502745.000000 0 0 1
9.045875 16.736174 -28.022640 33.870278 1.075277 2.545173 0.045782 -0.039636 599527.000000 0 0 1
9.718375 15.420874 -28.559970 33.880999 1.008460 2.573539 0.039646 -0.047665 -680334.000000 0 0 1
10.838775 14.945674 -27.881590 33.440025 0.943349 2.556714 0.061253 -0.043907 -152765.000000 0 0 1
11.261775 13.692274 -28.368920 33.452976 0.882491 2.583041 0.054242 -0.030492 -171584.000000 0 0 1
10.636975 12.552174 -27.527720 32.069887 0.867801 2.602874 0.047911 -0.027598 -464109.000000 0 0 1
9.232675 12.529074 -27.592270 31.678910 0.935732 2.628027 0.055025 -0.038650 -493376.000000 0 0 1
8.800875 11.966674 -26.373410 30.269018 0.936673 2.628642 0.053946 -0.031069 115384.000000 0 0 1
7.285775 11.664374 -26.364670 29.736105 1.012472 2.660785 0.058651 -0.042247 474423.000000 0 0 1
6.360775 12.755874 -26.362960 29.969609 1.108226 2.645936 0.067477 -0.038751 -47362.300000 0 0 1
5.056075 12.239974 -26.313840 29.458429 1.179066 2.675327 0.085570 -0.044005 158544.000000 0 0 1
3.893875 13.264174 -26.280600 29.694621 1.285255 2.657353 0.094341 -0.043556 -231847.000000 0 0 1
3.317075 13.712074 -27.522040 30.927118 1.333447 2.667922 0.093341 -0.044347 757246.000000 0 0 1
4.167575 14.625674 -28.248150 32.081724 1.293204 2.647725 0.097409 -0.052303 248649.000000 0 0 1
3.964375 14.462974 -29.757830 33.323000 1.303262 2.674790 0.109059 -0.058868 -350612.000000 0 0 1
4.817175 13.512274 -30.305530 33.529269 1.228339 2.699487 0.098225 -0.055598 -260425.000000 0 0 1
4.866875 13.455774 -31.700140 34.779925 1.223742 2.717590 0.097474 -0.053691 -361558.000000 0 0 1
5.928875 12.439174 -32.259100 35.078970 1.126019 2.737892 0.087969 -0.041304 2239490.000000 0 0 1
7.331775 12.807874 -32.000620 35.239697 1.050886 2.709483 0.090705 -0.034875 1901650.000000 0 0 1
7.805575 12.633474 -30.660350 34.067415 1.017356 2.690544 0.083970 -0.041200 -535970.000000 0 0 1
7.916275 11.242874 -29.998410 32.999610 0.957314 2.711803 0.087533 -0.036922 -705976.000000 0 0 1
8.915275 10.420474 -30.475450 33.418879 0.863087 2.718743 0.076487 -0.029072 -486702.000000 0 0 1
8.795475 9.171874 -29.803750 32.399802 0.806344 2.738557 0.077309 -0.027465 756501.000000 0 0 1
9.966675 8.164374 -30.180810 32.815742 0.686320 2.738125 0.056901 -0.020336 2216160.000000 0 0 1
11.208975 8.316574 -29.419300 32.562275 0.638333 2.698612 0.059822 -0.026169 1239170.000000 0 0 1
12.075975 7.224874 -29.615440 32.788752 0.539157 2.698009 0.029284 -0.014808 776525.000000 0 0 1
13.343775 7.206574 -28.627320 32.396211 0.495188 2.654426 0.032543 -0.000224 1212840.000000 0 0 1
14.034775 5.988274 -28.514930 32.340927 0.403288 2.650245 0.021000 -0.003065 -95288.800000 0 0 1
15.063375 5.863474 -29.470640 33.612560 0.371208 2.639910 0.014047 0.001514 -821542.000000 0 0 1
16.043975 4.736074 -29.096500 33.562566 0.287041 2.619812 0.011600 -0.002132 -60238.900000 0 0 1
16.912575 5.142974 -28.046260 33.152347 0.295206 2.579199 0.003262 -0.006172 123592.000000 0 0 1
17.595475 4.009574 -27.544720 32.930063 0.224049 2.561590 0.007320 -0.002566 -70130.300000 0 0 1
18.221675 4.323774 -26.147730 32.162529 0.232979 2.520061 0.014638 -0.002858 195964.000000 0 0 1
19.326175 5.222174 -26.219940 32.988747 0.263910 2.489498 0.039020 -0.007120 339076.000000 0 0 1
19.777575 5.552974 -24.935700 32.307540 0.273724 2.452499 0.053043 -0.013977 201212.000000 0 0 1
20.917875 6.603774 -25.014490 33.269987 0.305798 2.421680 0.054301 -0.011325 -112566.000000 0 0 1
20.408875 7.807274 -25.537660 33.610234 0.365367 2.433829 0.062743 -0.011869 825074.000000 0 0 1
21.269575 8.484774 -26.493260 35.018267 0.379572 2.428826 0.065597 -0.015871 -209115.000000 0 0 1
21.430875 7.914474 -27.954060 36.101950 0.353766 2.456419 0.069892 -0.014554 -360684.000000 0 0 1
20.424875 8.331774 -28.815210 36.289259 0.387318 2.488227 0.060419 -0.008933 -204671.000000 0 0 1
19.212475 7.635874 -28.661490 35.339875 0.378301 2.516697 0.052113 -0.002774 -672777.000000 0 0 1
17.976475 8.228874 -29.343590 35.382401 0.429287 2.548699 0.034384 -0.009022 -413964.000000 0 0 1
17.945475 7.989274 -30.723010 36.466038 0.418853 2.572723 0.033417 -0.008503 211405.000000 0 0 1
16.925075 8.759674 -31.314960 36.658107 0.477594 2.594891 0.023891 -0.010288 -440927.000000 0 0 1
16.475375 8.424474 -32.736440 37.604312 0.472676 2.627116 0.026979 0.007522 -347081.000000 0 0 1
15.693575 7.304174 -32.909370 37.184216 0.435607 2.657368 0.021955 0.012585 -303660.000000 0 0 1
14.328575 7.597274 -33.130420 36.887008 0.487529 2.686362 0.023242 0.007774 -105635.000000 0 0 1
13.493075 6.325274 -33.282620 36.466491 0.438361 2.720617 0.021257 0.002134 -148677.000000 0 0 1
13.332275 5.530574 -32.116330 35.210729 0.393222 2.719217 0.031158 -0.003605 -624980.000000 0 0 1
12.471575 4.481274 -32.264480 34.880061 0.344953 2.751864 0.037694 -0.012344 -761110.000000 0 0 1
12.514675 3.415674 -31.075360 33.674351 0.266444 2.746134 0.043006 -0.010809 -362057.000000 0 0 1
13.726975 2.742574 -30.872850 33.898148 0.197198 2.715901 0.029416 -0.015136 -214080.000000 0 0 1
13.621975 1.560774 -30.011560 32.995272 0.114080 2.713048 0.034578 -0.014678 28460.400000 0 0 1
12.881375 0.272474 -30.503480 33.112933 0.021149 2.741938 0.045263 -0.013665 191168.000000 0 0 1
13.638475 -0.627026 -31.289350 34.138316 -0.045942 2.730154 0.050139 -0.015130 79056.800000 0 0 1
14.494075 -1.451626 -30.510870 33.809742 -0.099820 2.696169 0.045616 -0.014602 73089.600000 0 0 1
14.811075 -2.794826 -31.227600 34.674804 -0.186505 2.691909 0.054960 -0.016693 -169739.000000 0 0 1
13.777775 -3.756426 -31.260080 34.367578 -0.266174 2.713070 0.069476 -0.014099 -36206.500000 0 0 1
13.921675 -4.703626 -32.250310 35.440367 -0.325822 2.714052 0.069118 -0.017814 -97730.500000 0 0 1
13.168875 -6.049226 -32.073640 35.195608 -0.430609 2.717219 0.075902 -0.013696 353007.000000 0 0 1
13.754475 -6.762626 -30.967410 34.552846 -0.456959 2.682000 0.071369 -0.013148 478245.000000 0 0 1
13.202075 -8.065626 -31.011010 34.655906 -0.548422 2.678838 0.083340 -0.013698 135068.000000 0 0 1
13.586775 -8.922026 -29.792110 33.937779 -0.581050 2.642140 0.057230 -0.010756 731066.000000 0 0 1
14.974575 -9.135326 -29.469960 34.295344 -0.547781 2.604694 0.083899 -0.011020 916652.000000 0 0 1
15.158275 -9.755426 -28.253280 33.514019 -0.571842 2.573686 0.085821 -0.006990 -32610.400000 0 0 1
14.947975 -11.330626 -28.244650 33.905535 -0.648604 2.555376 0.069445 -0.002475 88743.100000 0 0 1
13.577475 -11.654626 -28.404040 33.570338 -0.709339 2.579432 0.065738 -0.008421 230848.000000 0 0 1
13.331775 -13.025626 -28.515810 34.066913 -0.773783 2.562671 0.067619 -0.021074 121526.000000 0 0 1
-10.282825 -3.228726 -18.489400 21.401380 0.304244 2.613828 0.043492 0.010915 486485.000000 0 1 0
-11.376125 -2.640126 -19.178900 22.454770 0.228039 2.594638 0.071203 -0.004293 616744.000000 0 1 0
-12.238025 -3.572926 -19.861400 23.601065 0.284058 2.570937 0.068951 0.000609 164441.000000 0 1 0
-13.293525 -2.941126 -20.783300 24.845796 0.217738 2.561646 0.078068 -0.023713 -195093.000000 0 1 0
-14.286325 -2.258326 -20.062300 24.732468 0.156779 2.516951 0.074416 -0.023837 52803.500000 0 1 0
-15.282325 -1.725526 -20.951500 25.990233 0.112434 2.508378 0.072165 -0.022760 596132.000000 0 0 1
-15.760725 -0.339726 -20.461000 25.829603 0.021552 2.485125 0.066635 -0.020361 195564.000000 0 0 1
-14.801325 0.683074 -20.678900 25.439393 -0.046117 2.519858 0.067772 -0.025055 -181259.000000 0 0 1
-15.278825 1.919674 -20.156800 25.365808 -0.124988 2.489218 0.061224 -0.017148 -160262.000000 0 0 1
-14.894425 3.187374 -20.871500 25.838397 -0.210818 2.511157 0.090400 -0.024649 337830.000000 0 0 1
-13.573525 3.715974 -20.824500 25.133818 -0.267219 2.547300 0.090339 -0.025752 488810.000000 0 0 1
-13.303225 4.988274 -21.498300 25.768887 -0.358742 2.557610 0.107619 -0.027785 -411617.000000 0 0 1
-11.955325 5.549474 -21.059900 24.844433 -0.434587 2.582376 0.069482 -0.021604 -553045.000000 0 1 0
-12.010625 6.009774 -19.728300 23.865840 -0.463945 2.543895 0.070029 -0.029706 122286.000000 0 1 0
-10.788125 6.530074 -19.282900 23.040307 -0.544309 2.562428 0.043486 -0.019248 -480847.000000 0 1 0
-10.887925 6.967174 -17.854100 22.042171 -0.569242 2.514944 0.037971 -0.023458 276333.000000 0 1 0
-11.512025 8.282374 -17.645100 22.637888 -0.623663 2.464584 0.037138 -0.032152 453548.000000 0 1 0
-12.591525 8.283974 -16.735700 22.522308 -0.581909 2.408446 0.070821 -0.033602 54997.100000 0 1 0
-13.443825 9.571374 -16.676100 23.461456 -0.618703 2.361413 0.090797 -0.036412 261.836000 0 1 0
-12.738325 10.618774 -16.022800 23.059779 -0.694901 2.338990 0.047661 -0.026871 26408.500000 0 1 0
-13.425625 11.791574 -16.235100 24.142640 -0.720690 2.308332 0.060026 -0.030297 -37796.200000 0 1 0
-12.761525 13.004374 -15.454500 23.891668 -0.794823 2.274253 0.064664 -0.022878 -5793.340000 0 1 0
-12.990525 12.957574 -14.083300 23.129890 -0.784128 2.225443 0.091367 -0.027376 379130.000000 0 1 0
-12.463225 14.246374 -13.620300 23.319599 -0.852060 2.194531 0.084027 -0.026594 -406550.000000 0 1 0
-13.023125 14.703074 -12.243200 23.144721 -0.845915 2.128200 0.075667 -0.018430 1314560.000000 0 1 0
-14.390525 15.159774 -12.138200 24.171095 -0.811424 2.096912 0.072748 -0.015474 1334760.000000 0 1 0
-15.365425 14.123474 -12.247000 24.198302 -0.743307 2.101465 0.075860 -0.018922 -314072.000000 0 1 0
-16.816825 14.500574 -11.904400 25.194979 -0.711572 2.062911 0.056019 -0.008549 229749.000000 0 0 1
-17.675925 13.374574 -11.761700 25.092930 -0.647747 2.058644 0.048530 -0.012791 230560.000000 0 0 1
-18.915125 13.673274 -11.159700 25.870432 -0.625914 2.016806 0.095375 -0.008215 -40044.500000 0 0 1
-20.177225 13.321074 -11.963600 26.975899 -0.583515 2.030288 0.079380 -0.014396 -234837.000000 0 0 1
-20.524025 11.953974 -11.740200 26.494629 -0.527406 2.029868 0.093218 -0.019146 535668.000000 0 0 1
-21.656725 11.506774 -12.484100 27.518581 -0.488393 2.041665 0.114656 -0.019981 177929.000000 0 0 1
-22.249125 10.185074 -11.908900 27.213621 -0.429300 2.023733 0.109188 -0.024075 410566.000000 0 0 1
-21.296925 9.092374 -11.881900 26.027098 -0.403507 2.044877 0.105405 -0.030287 1149980.000000 0 0 1
-21.900925 7.866474 -11.416500 25.920424 -0.344834 2.026890 0.105160 -0.026608 756712.000000 0 0 1
-20.808125 6.719274 -11.421100 24.669175 -0.312346 2.052140 0.113449 -0.032819 466461.000000 0 1 0
-20.719325 6.199574 -12.730500 25.095632 -0.290738 2.102821 0.118042 -0.039351 923491.000000 0 0 1
-19.676025 5.206174 -12.836200 24.062797 -0.258667 2.133466 0.119765 -0.039589 435038.000000 0 1 0
-20.055225 4.012874 -13.743400 24.641352 -0.197483 2.162453 0.141859 -0.050404 159313.000000 0 1 0
-21.103425 3.141874 -13.327500 25.156473 -0.147794 2.129142 0.136193 -0.050808 610273.000000 0 0 1
-20.851825 1.981174 -14.037100 25.214357 -0.094728 2.161217 0.116598 -0.054069 -149177.000000 0 0 1
-21.767025 0.811174 -13.663000 25.712622 -0.037249 2.131017 0.140527 -0.047748 675403.000000 0 0 1
-23.076325 0.830274 -14.258000 27.138472 -0.035964 2.123958 0.110068 -0.041324 907312.000000 0 0 1
-23.601725 -0.473826 -14.310400 27.605316 0.020073 2.115767 0.092700 -0.041331 -570077.000000 0 0 1
-24.966525 -0.655026 -14.988200 29.127350 0.026230 2.111308 0.080325 -0.031024 -454242.000000 0 0 1
-25.959665 -0.075226 -14.161300 29.571139 0.002898 2.070185 0.121359 -0.038531 117666.000000 0 0 1
-27.184305 -0.189326 -14.894000 30.997637 0.006964 2.072008 0.081770 -0.022944 184645.000000 0 0 1
-28.421495 0.291874 -14.109100 31.732211 -0.010269 2.031558 0.086539 -0.017457 -395337.000000 0 0 1
-28.668375 -0.600426 -13.055700 31.506944 0.020941 1.998053 0.104499 -0.022811 121992.000000 0 0 1
-29.702735 -0.212526 -12.167800 32.099112 0.007155 1.959587 0.118620 -0.024391 143423.000000 0 0 1
-29.673265 -0.905326 -10.787800 31.586372 0.030500 1.919344 0.129451 -0.040877 -148412.000000 0 0 1
-29.922225 -2.317326 -10.727000 31.871273 0.077291 1.914071 0.138394 -0.041849 211158.000000 0 0 1
-29.013555 -3.158926 -11.379400 31.325004 0.108450 1.942570 0.143242 -0.038358 -561452.000000 0 0 1
-29.152125 -4.638326 -10.899600 31.466835 0.157785 1.924510 0.135495 -0.034871 66397.700000 0 0 1
-30.314465 -5.221126 -11.488200 32.836042 0.170559 1.928224 0.123520 -0.032452 478622.000000 0 0 1
-30.572645 -6.577626 -11.045100 33.165434 0.211917 1.910312 0.134594 -0.032462 87223.300000 0 0 1
-29.676675 -7.715226 -11.650100 32.801746 0.254346 1.933889 0.129375 -0.034581 116741.000000 0 0 1
-28.326035 -7.609226 -11.272400 31.421832 0.262435 1.937719 0.076342 -0.029136 -283032.000000 0 0 1
-27.603535 -8.708026 -11.795000 31.255509 0.305586 1.957755 0.080510 -0.031118 463321.000000 0 0 1
-26.135495 -8.816926 -11.261800 29.793127 0.325365 1.958431 0.098670 -0.045094 562715.000000 0 0 1
-25.373955 -7.636126 -11.590300 28.922017 0.292322 1.983124 0.081105 -0.040117 936931.000000 0 0 1
-24.034025 -7.620326 -11.096400 27.546938 0.307037 1.985390 0.082589 -0.049215 251746.000000 0 0 1
-23.809925 -7.246526 -9.633500 26.687618 0.295442 1.940107 0.078334 -0.047699 -624002.000000 0 0 1
-24.122425 -5.937126 -9.243200 26.506180 0.241328 1.927000 0.076929 -0.032864 464661.000000 0 0 1
-25.503495 -5.634426 -9.213400 27.695879 0.217435 1.909923 0.089132 -0.030770 -478616.000000 0 0 1
-25.893475 -4.278526 -8.625600 27.625691 0.163756 1.888337 0.098938 -0.039301 -512191.000000 0 0 1
-25.890375 -4.289626 -7.188400 27.210025 0.164193 1.838152 0.102891 -0.037277 441124.000000 0 0 1
-26.062895 -3.008726 -6.607300 27.055190 0.114932 1.817507 0.139065 -0.042415 -50461.900000 0 0 1
-25.785595 -2.875826 -5.072300 26.436632 0.111069 1.763860 0.136568 -0.037614 179827.000000 0 0 1
-24.430225 -3.141626 -4.748000 25.084840 0.127894 1.761223 0.095370 -0.029596 489333.000000 0 0 1
-24.170625 -2.847226 -3.311800 24.562040 0.117257 1.706042 0.070470 -0.026308 -503794.000000 0 1 0
-22.818625 -3.379426 -2.862100 23.244392 0.147031 1.694240 0.045714 -0.013071 -675092.000000 0 1 0
-22.798925 -4.759826 -2.967700 23.478802 0.205818 1.697534 0.073782 -0.018014 350014.000000 0 1 0
-21.668325 -5.395826 -2.423500 22.461179 0.244055 1.678904 0.060328 -0.018062 -291210.000000 0 1 0
-21.862425 -6.902626 -2.394800 23.050963 0.305825 1.674876 0.087574 -0.020088 -123372.000000 0 1 0
-22.645825 -7.393226 -1.335000 23.859493 0.315563 1.626778 0.105126 -0.011135 418332.000000 0 1 0
-22.965525 -8.721726 -1.534900 24.613812 0.362950 1.633196 0.092900 -0.020760 14157.800000 0 1 0
-23.589625 -9.436526 -0.346800 25.409421 0.380531 1.584445 0.100694 -0.025694 -112661.000000 0 0 1
-22.535225 -9.707926 0.540800 24.543281 0.406764 1.548760 0.095223 -0.023232 203599.000000 0 1 0
-22.816925 -10.711326 1.484100 25.249695 0.438907 1.511985 0.085375 -0.021559 -108679.000000 0 0 1
-21.534125 -11.305726 2.096900 24.411779 0.483458 1.484793 0.083130 -0.020093 -319220.000000 0 1 0
-20.834425 -12.120326 1.257100 24.136194 0.526889 1.518689 0.090264 -0.020830 1088840.000000 0 1 0
-19.618525 -12.619826 1.898900 23.404109 0.571623 1.489572 0.085645 -0.023559 1067250.000000 0 1 0
-18.872925 -13.742126 1.104900 23.372080 0.629363 1.523504 0.084929 -0.018368 118793.000000 0 1 0
-19.654025 -14.939726 0.860800 24.702572 0.649956 1.535943 0.088326 -0.018029 863160.000000 0 1 0
-18.955125 -16.021126 0.185600 24.819502 0.701709 1.563318 0.078947 -0.024601 370396.000000 0 1 0
-17.753125 -16.753926 0.856600 24.425422 0.756450 1.535719 0.084976 -0.023482 -239923.000000 0 1 0
-16.583425 -15.954426 0.805900 23.026141 0.766069 1.535790 0.088576 -0.022743 -171614.000000 0 1 0
-15.527525 -16.709326 1.364200 22.850966 0.822042 1.511061 0.092870 -0.021406 19431.200000 0 1 0
-15.336325 -16.648426 2.921600 22.823424 0.826398 1.442435 0.089487 -0.018168 -466373.000000 0 1 0
-14.940825 -15.356026 3.379900 21.690078 0.799102 1.414332 0.066181 -0.019694 -237366.000000 0 1 0
-14.103925 -15.346926 4.498400 21.323331 0.827579 1.358238 0.041219 -0.013445 -328253.000000 0 1 0
-14.628225 -15.684026 5.941200 22.254696 0.820215 1.300555 0.075881 -0.013770 -930472.000000 0 1 0
-15.506825 -14.698926 6.419100 22.309748 0.758658 1.278944 0.067520 -0.017228 52157.600000 0 1 0
-15.814525 -14.873726 7.798600 23.068270 0.754751 1.225935 0.072307 -0.026674 -46337.900000 0 1 0
-16.802725 -16.013826 8.185800 24.612629 0.761363 1.231753 0.060701 -0.022401 -590350.000000 0 1 0
-16.347225 -17.330326 7.975000 25.123148 0.814581 1.247772 0.060844 -0.010688 -155034.000000 0 0 1
-17.028125 -18.399726 8.635400 26.515601 0.824094 1.239073 0.058615 -0.013159 -152684.000000 0 0 1
-16.707925 -18.674826 10.119400 27.024177 0.840930 1.186985 0.070879 -0.017262 -108565.000000 0 0 1
-15.408725 -19.171426 10.354200 26.686735 0.893783 1.172346 0.060680 -0.013403 -158585.000000 0 0 1
-15.267425 -19.586226 11.717500 27.459321 0.908682 1.129931 0.079619 -0.019393 407917.000000 0 0 1
-13.856725 -20.156626 11.995000 27.242952 0.968541 1.114866 0.069639 -0.015587 375491.000000 0 0 1
-12.719925 -19.343826 12.008200 26.080202 0.989118 1.092313 0.071398 -0.021158 -1253170.000000 0 0 1
-11.583025 -20.071526 12.242700 26.209088 1.047395 1.084769 0.067877 -0.019880 -956633.000000 0 0 1
-10.369925 -19.242426 12.636500 25.248513 1.076508 1.046638 0.089927 -0.024343 -303560.000000 0 0 1
-9.733025 -18.689226 11.463900 23.988329 1.090661 1.072540 0.076338 -0.024208 20798.300000 0 1 0
-8.721625 -17.775226 11.883700 23.092157 1.114647 1.030231 0.074807 -0.029136 771365.000000 0 1 0
-7.729525 -17.303226 10.764700 21.795090 1.150682 1.054221 0.044626 -0.018951 1400050.000000 0 1 0
-6.590425 -18.108526 10.370500 21.883777 1.221757 1.077093 0.041463 -0.017663 813573.000000 0 1 0
-5.877725 -17.470026 9.321000 20.655036 1.246247 1.102608 0.033125 -0.007790 755244.000000 0 1 0
-4.762025 -18.320826 8.581300 20.783846 1.316499 1.145179 0.025839 -0.007474 1331740.000000 0 1 0
-3.510525 -18.337426 9.273500 20.846649 1.381645 1.109797 0.032982 -0.008869 -174409.000000 0 1 0
-2.526525 -18.997426 8.561600 20.990153 1.438579 1.150658 0.032895 -0.006781 -355016.000000 0 1 0
-1.122725 -18.923426 9.170400 21.058319 1.511536 1.120229 0.028443 -0.020308 -343283.000000 0 1 0
-0.133525 -19.498826 8.385700 21.225975 1.563949 1.164655 0.029610 -0.011759 -564083.000000 0 1 0
1.018575 -19.873226 9.099100 21.880956 -1.519587 1.141924 0.040072 -0.013436 377686.000000 0 1 0
2.151175 -20.531426 8.256800 22.233798 -1.466402 1.190320 0.053487 -0.026528 315147.000000 0 1 0
1.973775 -21.922026 7.815400 23.357044 -1.481002 1.229610 0.048636 -0.014757 -147797.000000 0 1 0
2.317375 -22.850426 8.872300 24.621736 -1.469727 1.202159 0.060253 -0.016623 -119658.000000 0 1 0
1.922875 -24.295426 8.525000 25.819388 -1.491815 1.234304 0.063227 -0.019683 7711.090000 0 0 1
2.119775 -25.212906 9.562900 27.048718 -1.486919 1.209440 0.080453 -0.023256 -109292.000000 0 0 1
1.947175 -26.538266 9.088900 28.119018 -1.497555 1.241656 0.080488 -0.018704 -990589.000000 0 0 1
2.055675 -27.495126 10.271300 29.422905 -1.496170 1.214194 0.090847 -0.027385 611925.000000 0 0 1
1.084875 -27.272886 11.306600 29.543637 -1.531039 1.178070 0.094870 -0.034717 1456960.000000 0 0 1
-0.316425 -27.402436 10.930400 29.503682 1.559250 1.191275 0.077779 -0.030810 1261970.000000 0 0 1
-1.182725 -27.666546 12.235400 30.274438 1.528073 1.154747 0.085182 -0.036511 489556.000000 0 0 1
-0.756925 -28.820556 12.980000 31.617681 1.544539 1.147761 0.084674 -0.035600 -335770.000000 0 0 1
-1.226125 -28.774046 14.296800 32.153500 1.528210 1.110022 0.088273 -0.040424 -116100.000000 0 0 1
-0.697425 -29.856756 15.245200 33.531007 1.547442 1.098806 0.057383 -0.019113 77534.300000 0 0 1
-0.875325 -29.490466 16.571800 33.839006 1.541123 1.059022 0.062645 -0.014308 -103174.000000 0 0 1
-0.414025 -30.442026 17.509300 35.120705 1.557197 1.048875 0.046027 -0.008758 -159917.000000 0 0 1
-0.748225 -30.119156 18.962100 35.598941 1.545959 1.009057 0.043260 -0.013390 822236.000000 0 0 1
-2.157725 -30.303506 19.169300 35.922421 1.499713 1.007909 0.022598 -0.004800 636369.000000 0 0 1
-2.561525 -30.210236 20.493900 36.595351 1.486209 0.976394 0.034359 -0.014331 550522.000000 0 0 1
-4.125725 -30.183106 20.587800 36.768179 1.434948 0.976489 0.053427 -0.024244 390326.000000 0 0 1
-4.652525 -28.982916 19.995800 35.517424 1.411628 0.972802 0.044564 -0.022595 -296921.000000 0 0 1
-5.924425 -28.700216 20.508200 35.768526 1.367231 0.960197 0.048674 -0.033352 -242206.000000 0 0 1
-5.949925 -27.776466 21.748600 35.776183 1.359778 0.917374 0.060960 -0.037230 -462868.000000 0 0 1
-5.263225 -28.276906 22.871100 36.747410 1.386771 0.899008 0.058636 -0.038105 30328.000000 0 0 1
-5.374825 -27.318986 23.932900 36.715112 1.376534 0.860769 0.060823 -0.038070 -213137.000000 0 0 1
-4.342425 -27.530606 25.080300 37.494164 1.414354 0.838052 0.066981 -0.038475 102973.000000 0 0 1
-4.508225 -28.713626 25.812500 38.872633 1.415061 0.844604 0.068654 -0.038002 54323.300000 0 0 1
-3.770825 -29.819516 25.334900 39.310047 1.445009 0.870441 0.057016 -0.036135 -24005.500000 0 0 1
-4.073225 -31.016286 26.241000 40.831253 1.440218 0.872819 0.069273 -0.028935 252391.000000 0 0 1
-3.400525 -30.876346 27.492200 41.481723 1.461105 0.846305 0.070671 -0.036042 267627.000000 0 0 1
-3.781525 -31.901146 28.417300 42.889696 1.452808 0.846555 0.064836 -0.029622 58650.500000 0 0 1
-3.110125 -31.746046 29.854000 43.689193 1.473139 0.818487 0.087305 -0.032823 -401248.000000 0 0 1
-1.724425 -31.832916 29.832100 43.660765 1.516678 0.818564 0.091093 -0.032543 -755178.000000 0 0 1
-1.179625 -31.402166 31.061700 44.185029 1.533249 0.791201 0.088707 -0.028095 -133500.000000 0 0 1
-29.231045 2.774574 -9.518600 30.866745 -0.094635 1.884283 0.148420 -0.027423 -121582.000000 0 0 1
-30.241335 2.432074 -10.411200 32.075635 -0.080249 1.901367 0.107707 -0.024701 -242729.000000 0 0 1
-30.705055 3.479674 -11.176600 32.860689 -0.112844 1.917842 0.089033 -0.027202 5993.720000 0 0 1
-31.648315 3.154974 -12.358800 34.121981 -0.099360 1.941418 0.096846 -0.029442 158788.000000 0 0 1
-32.870325 2.565374 -11.952900 35.070090 -0.077887 1.918595 0.105751 -0.029624 36067.000000 0 0 1
-33.682425 2.289874 -13.069700 36.201744 -0.067880 1.940162 0.109833 -0.023908 84151.000000 0 0 1
-34.966297 1.600074 -12.528300 37.177418 -0.045729 1.914511 0.082255 -0.022014 -25837.000000 0 0 1
-34.610775 0.395874 -11.891500 36.598773 -0.011437 1.901718 0.112589 -0.024806 -93058.400000 0 0 1
-35.181019 -0.709426 -12.513300 37.346888 0.020162 1.912461 0.090015 -0.024025 -478445.000000 0 0 1
-34.560438 -2.127726 -12.278200 36.738335 0.061488 1.911560 0.091284 -0.030867 652437.000000 0 0 1
-33.340935 -2.402426 -13.012100 35.870661 0.071932 1.942014 0.091196 -0.028509 977565.000000 0 0 1
-32.923225 -3.739526 -12.817600 35.527646 0.113099 1.939898 0.099603 -0.032325 94362.400000 0 0 1
-33.793525 -4.820126 -13.534000 36.720635 0.141679 1.948263 0.114471 -0.033297 178486.000000 0 0 1
-33.509355 -6.080626 -12.952700 36.436565 0.179507 1.934231 0.113735 -0.034923 324856.000000 0 0 1
-34.269193 -7.163626 -13.522200 37.530587 0.206072 1.939384 0.118123 -0.031775 -439631.000000 0 0 1
-34.186833 -8.544526 -12.849300 37.508038 0.244919 1.920452 0.107264 -0.031261 155948.000000 0 0 1
-32.869065 -9.072826 -12.830800 36.432417 0.269323 1.930697 0.097190 -0.025682 618622.000000 0 0 1
-32.351705 -9.433026 -14.129400 36.541137 0.283712 1.967815 0.095813 -0.022716 -385473.000000 0 0 1
-31.081485 -10.318826 -14.057800 35.639284 0.320543 1.976262 0.095588 -0.026755 -70403.800000 0 0 1
-31.336115 -11.515926 -13.343600 35.953029 0.352176 1.951033 0.098147 -0.025252 -700901.000000 0 0 1
-30.318325 -12.432026 -13.354800 35.385120 0.389140 1.957797 0.088783 -0.020196 -969412.000000 0 0 1
-30.688955 -13.938626 -13.746400 36.401384 0.426333 1.958036 0.096838 -0.019603 -288132.000000 0 0 1
-30.551125 -14.063526 -15.187700 36.902848 0.431409 1.994960 0.090913 -0.019219 169724.000000 0 0 1
-30.673045 -15.400726 -15.797000 37.783108 0.465321 2.002146 0.092308 -0.021436 32199.000000 0 0 1
-29.465825 -16.310926 -15.478100 37.065519 0.505568 2.001585 0.076515 -0.014491 -118608.000000 0 0 1
-28.288355 -16.030126 -16.167600 36.312356 0.515551 2.032235 0.084982 -0.021139 -524924.000000 0 0 1
-27.338595 -17.065226 -16.183600 36.062856 0.558036 2.036175 0.095319 -0.026873 -137519.000000 0 0 1
-25.974645 -16.657126 -16.738300 35.104311 0.570224 2.067825 0.095839 -0.031821 -216271.000000 0 0 1
-26.057975 -16.181826 -18.088400 35.609826 0.555713 2.103612 0.086445 -0.028638 -931749.000000 0 0 1
-24.809225 -16.157126 -18.668000 35.000637 0.577257 2.133366 0.059342 -0.010201 -1246800.000000 0 0 1
-24.922825 -15.797126 -20.160400 35.737069 0.564932 2.170177 0.065631 -0.014728 8271.110000 0 0 1
-25.509145 -16.684826 -21.076800 37.058486 0.579233 2.175775 0.064294 -0.029724 -2465.920000 0 0 1
-26.914165 -16.703726 -21.107000 38.064316 0.555450 2.158569 0.085524 -0.030869 -270190.000000 0 0 1
-27.550135 -17.926626 -21.814900 39.449508 0.576861 2.156736 0.087117 -0.022367 -105532.000000 0 0 1
-27.260845 -17.835426 -23.186100 39.985639 0.579358 2.189354 0.068269 -0.016106 4189.850000 0 0 1
-27.578045 -19.033326 -23.850800 41.129997 0.604093 2.189388 0.051965 -0.020249 -501352.000000 0 0 1
-26.834155 -19.271626 -25.185010 41.542173 0.622820 2.222135 0.055051 -0.024819 -499854.000000 0 0 1
-25.501965 -19.642726 -25.128180 40.836409 0.656332 2.233611 0.064466 -0.022554 -799168.000000 0 0 1
-25.120375 -20.928926 -24.621300 40.929959 0.694627 2.216233 0.059557 -0.017512 -1203660.000000 0 0 1
-23.630125 -21.062526 -24.415900 39.976855 0.728011 2.227805 0.069645 -0.012951 -1101810.000000 0 0 1
-22.941925 -21.037726 -25.625870 40.318768 0.742128 2.259558 0.068565 -0.023290 -402472.000000 0 0 1
-21.578725 -21.360626 -25.428740 39.604779 0.780319 2.267982 0.059642 -0.021105 68469.700000 0 0 1
-20.707425 -21.048626 -26.689900 39.801920 0.793569 2.305771 0.051307 -0.024630 -221535.000000 0 0 1
-20.679225 -21.910826 -27.817220 41.006248 0.814308 2.316332 0.058512 -0.008305 430349.000000 0 0 1
-21.846025 -21.958126 -28.670330 42.206586 0.787957 2.317585 0.079778 -0.023826 602280.000000 0 0 1
-21.436625 -21.919626 -30.160850 43.007857 0.796538 2.347998 0.081126 -0.023770 -124840.000000 0 0 1
-20.832425 -23.148526 -30.540340 43.618305 0.838011 2.346435 0.069863 -0.020060 168013.000000 0 0 1
-20.083825 -23.021526 -31.742060 44.055749 0.853445 2.375316 0.081466 -0.019494 352916.000000 0 0 1
-19.574525 -24.433626 -32.220140 44.925511 0.895366 2.370558 0.071652 -0.022721 583120.000000 0 0 1
-18.737825 -24.561426 -33.404380 45.499696 0.919092 2.395235 0.067366 -0.019212 484361.000000 0 0 1
-19.416825 -24.325326 33.533335 45.751711 0.897145 0.748160 0.060016 -0.012733 -514888.000000 0 0 1
-18.544225 -24.569826 32.302292 44.620653 0.924258 0.761312 0.057430 -0.011560 -223038.000000 0 0 1
-17.686725 -23.490726 31.940055 43.414301 0.925427 0.744091 0.056364 -0.020906 -17399.300000 0 0 1
-17.304825 -23.591026 30.559425 42.306878 0.937917 0.763634 0.056702 -0.014096 74123.200000 0 0 1
-16.274425 -22.539426 30.117565 40.987197 0.945429 0.745418 0.042250 -0.011026 59500.200000 0 0 1
-16.905125 -21.239226 30.031365 40.481735 0.898537 0.734972 0.053424 -0.015904 284477.000000 0 0 1
-16.000525 -20.204726 29.726655 39.343637 0.901002 0.714281 0.051151 -0.015526 38634.100000 0 0 1
-15.245325 -19.533026 30.928795 39.630157 0.908066 0.675434 0.050467 -0.024910 109546.000000 0 0 1
-14.882825 -18.201426 30.633785 38.616307 0.885371 0.654609 0.051811 -0.025801 -9037.230000 0 0 1
-14.495425 -17.471126 31.797905 39.069993 0.878219 0.620014 0.051872 -0.026496 -25087.500000 0 0 1
-14.069425 -16.001926 31.566665 38.084966 0.849574 0.593750 0.058192 -0.025730 275670.000000 0 0 1
-12.733225 -15.840626 31.100785 37.152648 0.893722 0.578821 0.074637 -0.027706 264781.000000 0 0 1
-12.458125 -14.575526 30.556815 36.074503 0.863563 0.560391 0.068562 -0.026500 -122399.000000 0 0 1
-11.002125 -14.400826 30.105835 35.139605 0.918400 0.541863 0.076345 -0.024016 85260.100000 0 0 1
-10.504925 -13.064526 30.195905 34.537341 0.893572 0.506810 0.076382 -0.022945 435133.000000 0 0 1
-9.176025 -12.862526 30.687255 34.515962 0.951139 0.475477 0.067420 -0.024615 611238.000000 0 0 1
-8.826025 -11.394026 30.421485 33.662877 0.911725 0.442439 0.059201 -0.019287 -330622.000000 0 0 1
-9.446225 -10.511926 31.353455 34.391436 0.838744 0.423480 0.065800 -0.012334 54014.700000 0 0 1
-9.183325 -9.106626 31.250455 33.820926 0.781205 0.392390 0.056681 -0.011360 -154001.000000 0 0 1
-9.987225 -8.216526 32.257999 34.753913 0.688432 0.381296 0.041607 -0.008626 428070.000000 0 0 1
-11.347625 -8.104026 31.827755 34.748378 0.620167 0.412929 0.041033 -0.013606 632897.000000 0 0 1
-12.265325 -7.607326 32.794194 35.829719 0.555162 0.414596 0.047806 -0.013337 328014.000000 0 0 1
-12.100625 -6.124826 33.242144 35.902350 0.468562 0.387374 0.034081 -0.008355 -493545.000000 0 0 1
-12.265825 -5.168626 32.185785 34.829440 0.398804 0.392130 0.044152 -0.010575 234190.000000 0 0 1
-12.602825 -3.914626 32.744546 35.303835 0.301167 0.383110 0.039937 -0.012306 -166061.000000 0 0 1
-12.181225 -2.729826 31.785055 34.148556 0.220459 0.374235 0.037176 -0.010794 100925.000000 0 0 1
-10.792525 -2.525126 31.906455 33.776867 0.229836 0.334348 0.046097 -0.012052 -22669.300000 0 0 1
-10.284925 -1.509226 31.010515 32.706413 0.145702 0.323440 0.035935 -0.008748 421581.000000 0 0 1
-8.746625 -1.293226 31.033255 32.268232 0.146791 0.277557 0.047238 -0.010013 381403.000000 0 0 1
-8.328425 -0.694626 32.223905 33.290017 0.083212 0.253761 0.063731 -0.024889 73731.300000 0 0 1
-6.954725 -0.367426 32.344481 33.085777 0.052782 0.212082 0.073475 -0.029405 218962.000000 0 0 1
-6.675325 0.354374 33.716474 34.372753 -0.053037 0.195725 0.111318 -0.039881 154229.000000 0 0 1
-7.283525 1.644074 33.927332 34.739265 -0.222004 0.216628 0.112036 -0.028775 129995.000000 0 0 1
-6.801825 2.649674 33.028315 33.825363 -0.371468 0.217517 0.116332 -0.030934 147097.000000 0 0 1
-7.626125 3.951974 33.008797 34.108013 -0.478113 0.254567 0.115927 -0.030488 2449.030000 0 0 1
-8.877325 3.887774 32.360805 33.780814 -0.412783 0.290977 0.083090 -0.019194 -157496.000000 0 0 1
-9.554725 5.066174 32.774890 34.513074 -0.487536 0.318721 0.068464 -0.013832 313512.000000 0 0 1
-10.935625 5.208174 32.060115 34.271912 -0.444474 0.361229 0.045255 -0.003639 662707.000000 0 0 1
-11.732125 6.319774 32.476505 35.104211 -0.494105 0.389378 0.043384 -0.000868 177748.000000 0 0 1
-12.880725 6.478574 31.668235 34.796007 -0.466018 0.427244 0.014380 0.006274 -21051.400000 0 0 1
-13.758825 7.672474 31.987235 35.656070 -0.508690 0.457624 0.019654 0.001097 268213.000000 0 0 1
-14.633525 7.583374 33.137398 37.009928 -0.478117 0.461546 0.017862 0.002062 487742.000000 0 0 1
-15.124525 8.885374 33.452448 37.772575 -0.531164 0.482952 0.025972 0.003232 430088.000000 0 0 1
-15.991525 8.879574 -33.399190 38.079937 -0.506878 2.640548 0.025907 0.008020 410544.000000 0 0 1
-15.155825 9.129474 -32.284510 36.814887 -0.542163 2.640258 0.028086 0.000359 -206941.000000 0 0 1
-15.833525 9.706474 -31.243870 36.346878 -0.549948 2.605288 0.035179 0.001241 -1221560.000000 0 0 1
-14.934725 9.996374 -29.997040 34.968499 -0.589849 2.601829 0.049466 -0.007813 232059.000000 0 0 1
-14.026225 11.047074 -30.067330 34.968802 -0.667135 2.605739 0.059858 -0.010828 102067.000000 0 0 1
-12.869525 10.889774 -30.883150 35.184951 -0.702265 2.641916 0.054939 -0.019122 -200076.000000 0 0 1
-12.161425 12.242574 -31.012350 35.490093 -0.788723 2.633823 0.058936 -0.018866 -352694.000000 0 0 1
-12.750425 13.170474 -31.885070 36.778967 -0.801602 2.619821 0.059372 -0.017392 -89945.400000 0 0 1
-12.065025 14.409174 -32.124250 37.217691 -0.873713 2.612261 0.061446 -0.017920 115916.000000 0 0 1
-11.978325 15.489774 -31.039750 36.699856 -0.912546 2.578809 0.065443 -0.018259 -214382.000000 0 0 1
-13.231425 16.095474 -30.959400 37.317815 -0.882749 2.549213 0.064195 -0.015272 -267846.000000 0 0 1
-13.234225 17.227874 -30.082420 37.106554 -0.915757 2.516149 0.064700 -0.015186 -648265.000000 0 0 1
-14.562125 17.960374 -29.956540 37.842103 -0.889510 2.484251 0.060269 -0.018691 -599429.000000 0 0 1
-14.942225 18.611174 -31.220050 39.298058 -0.894312 2.488886 0.054762 -0.019154 -150237.000000 0 0 1
-16.277225 19.035174 -31.234180 40.035733 -0.863341 2.465714 0.049299 -0.021253 -79125.200000 0 0 1
-16.660425 20.332774 -30.493490 40.259712 -0.884345 2.430148 0.034095 -0.025134 -489929.000000 0 0 1
-16.345225 21.471574 -31.244500 41.284545 -0.920134 2.429213 0.041099 -0.020202 231295.000000 0 0 1
-16.984825 22.648174 -30.777850 41.817462 -0.927332 2.397946 0.018966 -0.007340 565823.000000 0 0 1
-18.460625 22.931474 -31.196760 42.893881 -0.892993 2.385177 0.031966 -0.006853 104507.000000 0 0 1
-19.444325 22.159674 -30.547890 42.453580 -0.850572 2.373965 0.035818 -0.013146 -657075.000000 0 0 1
-20.560825 22.269774 -31.351460 43.607389 -0.825277 2.373084 0.065425 -0.015015 -999958.000000 0 0 1
-21.821325 21.410674 -30.971730 43.518217 -0.775900 2.362706 0.092212 -0.024645 -372418.000000 0 0 1
-22.613925 22.066074 -29.999310 43.569023 -0.773137 2.330280 0.116906 -0.021824 145880.000000 0 0 1
-23.572325 22.981874 -30.460360 44.851472 -0.772716 2.317385 0.127094 -0.015950 402318.000000 0 0 1
-24.826525 22.331174 -31.221190 45.714334 -0.732532 2.322607 0.130172 -0.029721 209372.000000 0 0 1
-24.514725 21.702274 -32.432060 46.084693 -0.724620 2.351457 0.123521 -0.022362 675952.000000 0 0 1
-25.763135 21.366474 -33.050910 47.038580 -0.692379 2.349889 0.139205 -0.022432 532014.000000 0 0 1
-25.642065 20.564074 33.818884 47.160508 -0.675939 0.771161 0.129858 -0.011658 -271228.000000 0 0 1
-25.422915 19.209874 34.066266 46.646054 -0.647083 0.752015 0.125667 -0.015520 264844.000000 0 0 1
-25.063015 18.519774 32.901137 45.316901 -0.636378 0.758275 0.111966 -0.027799 -159751.000000 0 0 1
-24.768525 17.033474 32.994641 44.634800 -0.602428 0.738895 0.087735 -0.008758 427029.000000 0 0 1
-25.902765 16.206074 33.328219 45.214602 -0.559067 0.742010 0.086987 -0.004612 799400.000000 0 0 1
-25.946915 15.054374 32.542771 44.259558 -0.525733 0.744730 0.087455 -0.012879 -117297.000000 0 0 1
-26.852645 13.923074 33.128289 44.859782 -0.478337 0.739975 0.055150 0.001420 473403.000000 0 0 1
-28.238055 14.298774 33.253306 45.908877 -0.468727 0.760730 0.057398 0.011278 1323100.000000 0 0 1
-29.162205 13.292174 32.744652 45.818427 -0.427668 0.774657 0.070901 0.014604 577659.000000 0 0 1
-29.359295 12.029574 33.605722 46.217133 -0.388872 0.756669 0.063683 0.005464 -353261.000000 0 0 1
-28.135805 11.331574 33.783002 45.401754 -0.382871 0.731624 0.074692 -0.011896 -69652.400000 0 0 1
-28.329615 9.925874 34.044611 45.388606 -0.337005 0.722629 0.084533 -0.015387 301381.000000 0 0 1
-27.066595 9.081374 -33.613660 44.101588 -0.323717 2.437481 0.070006 -0.018076 1426910.000000 0 0 1
-26.066925 8.786674 33.545056 43.381574 -0.325120 0.686836 0.056792 -0.011330 704670.000000 0 0 1
-25.233095 9.901474 33.222094 42.877217 -0.373938 0.684367 0.043481 -0.012462 -219465.000000 0 0 1
-23.974325 9.449574 32.420135 41.414102 -0.375457 0.671598 0.036282 -0.007223 137437.000000 0 0 1
-24.199925 9.348974 31.032695 40.448335 -0.368660 0.696304 0.038484 -0.010866 421327.000000 0 0 1
-23.004225 8.926074 30.393365 39.148765 -0.370135 0.681933 0.033961 -0.007719 286338.000000 0 0 1
-23.077025 9.109974 28.848145 38.049391 -0.375984 0.710285 0.052453 -0.010821 -8571.080000 0 0 1
-23.247525 10.435274 28.344045 38.114659 -0.421919 0.732280 0.053458 -0.005019 205632.000000 0 0 1
-23.218125 10.530974 26.915475 37.073245 -0.425816 0.758297 0.050183 -0.003502 -447579.000000 0 0 1
-23.872925 11.897874 26.468845 37.577596 -0.462354 0.789249 0.058871 -0.008085 350518.000000 0 0 1
-25.279785 11.972774 26.516515 38.542709 -0.442314 0.812098 0.072128 -0.009520 2685.200000 0 0 1
-25.951135 11.305674 25.446075 38.062874 -0.410859 0.838569 0.076845 -0.005778 -398372.000000 0 0 1
-27.430465 11.737174 25.472325 39.230485 -0.404314 0.864134 0.079521 -0.009615 -230664.000000 0 0 1
-27.665985 13.095974 25.068225 39.564215 -0.442110 0.884588 0.089943 -0.014181 47288.400000 0 0 1
-28.842055 13.621274 25.655435 40.934149 -0.441220 0.893422 0.089790 -0.018636 102330.000000 0 0 1
-29.124725 15.024774 25.064925 41.258258 -0.476268 0.917871 0.114779 -0.025848 -224474.000000 0 0 1
-28.125575 15.981974 25.361455 41.105655 -0.516736 0.905894 0.121613 -0.029168 29798.200000 0 0 1
-28.109205 17.034874 24.423345 40.948921 -0.544838 0.931745 0.116854 -0.029065 -243476.000000 0 0 1
-22.672225 -9.660526 31.971495 40.367462 0.402798 0.656700 0.046164 -0.029687 746056.000000 0 0 1
-21.752125 -9.157626 30.937935 38.912374 0.398477 0.651679 0.045230 -0.022697 818582.000000 0 0 1
-22.427125 -8.840726 29.733775 38.278345 0.375495 0.681263 0.039710 -0.019549 294428.000000 0 0 1
-21.435925 -8.279126 28.663085 36.737110 0.368577 0.675776 0.059157 -0.016293 -156698.000000 0 0 1
-20.913625 -6.998426 28.866355 36.326631 0.322921 0.652393 0.053362 -0.013250 1026890.000000 0 0 1
-19.564225 -6.971326 29.385195 35.983996 0.342303 0.615269 0.050580 -0.007776 1188760.000000 0 0 1
-18.342025 -7.434026 28.505355 34.702303 0.385067 0.606890 0.058256 -0.013065 -614545.000000 0 0 1
-18.079525 -8.817026 28.521255 34.900876 0.453743 0.614247 0.059456 -0.009983 107776.000000 0 0 1
-17.671525 -9.339526 29.809665 35.890467 0.486192 0.590660 0.066342 -0.013944 -728144.000000 0 0 1
-16.220825 -9.017826 30.164645 35.416693 0.507393 0.551562 0.060574 -0.015663 -731904.000000 0 0 1
-15.196625 -9.602126 29.394785 34.455647 0.563517 0.548861 0.055488 -0.013384 256330.000000 0 0 1
-13.918125 -9.183226 29.876875 34.215106 0.583236 0.509052 0.049608 -0.018247 829497.000000 0 0 1
-12.694025 -9.993226 29.376885 33.526172 0.666911 0.502799 0.055954 -0.015429 311995.000000 0 0 1
-12.362425 -9.706226 28.015415 32.123260 0.665614 0.511273 0.069186 -0.022990 -397850.000000 0 0 1
-11.235425 -10.392026 27.568505 31.531753 0.746421 0.506785 0.075781 -0.019588 -131059.000000 0 0 1
-10.623325 -10.095726 26.159695 29.985135 0.759939 0.510660 0.064599 -0.020164 378570.000000 0 0 1
-11.464225 -10.630626 25.122955 29.590565 0.747688 0.556670 0.068402 -0.022418 197144.000000 0 0 1
-11.114125 -10.330226 23.798075 28.223850 0.748859 0.567606 0.062018 -0.025848 -256634.000000 0 0 1
-12.282625 -10.741926 22.901465 28.119903 0.718582 0.619064 0.077340 -0.023483 -634526.000000 0 0 1
-12.480825 -12.178726 22.752265 28.666320 0.773148 0.653940 0.079139 -0.019274 -35843.400000 0 0 1
-13.619125 -12.619326 22.034865 28.814288 0.747312 0.700190 0.078692 -0.018299 300790.000000 0 0 1
-14.854725 -12.515226 22.978065 30.087957 0.700129 0.701777 0.073868 -0.019736 -156030.000000 0 0 1
-16.129625 -12.890126 22.471765 30.517214 0.674228 0.743116 0.054597 -0.007048 1519260.000000 0 0 1
-17.145925 -12.924826 23.537115 31.859530 0.645937 0.739541 0.057085 -0.007013 1407820.000000 0 0 1
-18.512525 -13.556226 23.113765 32.568865 0.632059 0.781740 0.067526 -0.005937 34199.900000 0 0 1
-18.380625 -14.957926 22.895165 32.951107 0.683092 0.802624 0.060342 -0.006803 946897.000000 0 0 1
-19.617325 -15.712226 22.919865 34.015198 0.675312 0.831440 0.060268 -0.007418 746373.000000 0 0 1
-20.407425 -15.732026 24.274105 35.400449 0.656742 0.815231 0.062256 -0.006329 -333086.000000 0 0 1
-19.874625 -16.561126 25.347025 36.217996 0.694707 0.795614 0.074736 -0.010597 872640.000000 0 0 1
-20.728625 -16.523526 26.533365 37.506296 0.672992 0.784930 0.067361 -0.011828 466278.000000 0 0 1
-20.200325 -17.444626 27.701175 38.467170 0.712326 0.766814 0.067537 -0.012028 81327.600000 0 0 1
-20.297225 -18.850226 27.410535 38.969806 0.748452 0.790657 0.066948 -0.010672 206367.000000 0 0 1
-19.760625 -19.569626 28.493255 39.816053 0.780542 0.773282 0.062482 -0.013398 -118484.000000 0 0 1
-19.847525 -21.073126 28.193415 40.408780 0.815340 0.798607 0.055509 -0.006242 -144645.000000 0 0 1
-21.169225 -21.548426 28.102625 41.258069 0.794275 0.821474 0.052479 -0.004163 -175524.000000 0 0 1
-21.215425 -22.823426 27.478875 41.546258 0.821895 0.848107 0.057052 0.004179 -227317.000000 0 0 1
-22.610725 -23.319726 27.111455 42.309402 0.800833 0.875269 0.060857 0.001722 -610828.000000 0 0 1
-23.331125 -23.986126 28.083835 43.684979 0.799240 0.872555 0.056721 0.006222 40576.900000 0 0 1
-24.552525 -24.531226 27.592435 44.339034 0.784964 0.899111 0.040597 0.006265 209442.000000 0 0 1
-25.110695 -25.490336 28.631415 45.826435 0.792901 0.895947 0.018165 0.005695 -391625.000000 0 0 1
-25.953705 -24.890026 29.598455 46.574421 0.764481 0.882129 0.015025 0.007374 277242.000000 0 0 1
-26.488205 -25.821456 30.566065 47.986007 0.772653 0.880224 0.012086 0.010679 -307018.000000 0 0 1
-27.566595 -25.170916 31.417325 48.790782 0.740003 0.871186 0.019266 -0.001889 -516823.000000 0 0 1
-28.710265 -24.899526 30.650885 48.823585 0.714435 0.892088 0.030918 -0.005041 -410982.000000 0 0 1
-29.484225 -23.839326 31.182165 49.091347 0.679930 0.882546 0.044109 -0.018633 -62302.300000 0 0 1
-30.646615 -23.543226 30.176335 49.031721 0.655058 0.907846 0.058708 -0.019397 676271.000000 0 0 1
-31.731925 -24.494526 30.255295 50.222303 0.657383 0.924257 0.063704 -0.024701 472678.000000 0 0 1
-32.730615 -24.337526 29.309915 50.226282 0.639374 0.947694 0.059285 -0.028354 -722613.000000 0 0 1
-34.089119 -24.920626 29.659375 51.602172 0.631258 0.958473 0.070486 -0.029162 -526499.000000 0 0 1
-34.177442 -26.352536 29.571255 52.316468 0.656838 0.970075 0.078369 -0.029259 349410.000000 0 0 1
-35.186744 -26.836076 30.467585 53.726675 0.651564 0.967834 0.078579 -0.020999 416649.000000 0 0 1
-34.962833 -28.316636 30.743905 54.492378 0.680753 0.971348 0.076504 -0.023599 102803.000000 0 0 1
-33.844465 -28.656756 31.533775 54.415406 0.702586 0.952680 0.077730 -0.023601 -27909.200000 0 0 1
-33.624565 -30.060806 31.740755 55.151962 0.729498 0.957563 0.076967 -0.031543 200027.000000 0 0 1
-32.583215 -30.346256 32.857753 55.337086 0.749866 0.935055 0.073596 -0.025153 116971.000000 0 0 1
-33.025325 -30.105236 -33.993130 56.147397 0.739176 2.221098 0.069689 -0.020202 -537731.000000 0 0 1
-32.099635 -30.569166 -33.093170 55.317432 0.760981 2.212101 0.055679 -0.020032 -227933.000000 0 0 1
-32.556405 -30.196646 -31.618000 54.511052 0.747812 2.189561 0.055940 -0.022055 133796.000000 0 0 1
-32.484295 -28.815886 -31.204830 53.472667 0.725626 2.193909 0.056268 -0.013467 -1033180.000000 0 0 1
-31.249075 -28.275276 -30.939660 52.280574 0.735480 2.204087 0.043225 -0.006529 -1192080.000000 0 0 1
-31.327755 -26.719206 -30.959630 51.515462 0.706171 2.215520 0.030672 -0.003174 -79607.900000 0 0 1
-32.108355 -26.252166 -29.883250 51.118796 0.685388 2.195164 0.028433 -0.005958 -39425.800000 0 0 1
-32.093385 -24.860026 -29.886210 50.410235 0.659070 2.205402 0.025862 0.003996 151046.000000 0 0 1
-30.943085 -24.179126 -29.102780 48.878179 0.663300 2.208578 0.030071 0.001771 -17588.400000 0 0 1
-30.842445 -22.809226 -29.358880 48.305911 0.636773 2.224046 0.031892 0.002415 182432.000000 0 0 1
-29.787175 -22.318726 -28.562450 46.917106 0.643036 2.225325 0.029831 0.000618 -107376.000000 0 0 1
-29.728605 -20.791226 -28.817450 46.330448 0.610301 2.242088 0.040636 -0.015808 -271073.000000 0 0 1
-29.327605 -20.393726 -30.064530 46.689275 0.607616 2.270418 0.048067 -0.002504 257370.000000 0 0 1
-28.965975 -19.022826 -30.028310 45.854062 0.581092 2.284803 0.040722 -0.013960 -320447.000000 0 0 1
-28.411695 -18.419626 -31.364700 46.154647 0.575187 2.317955 0.046470 -0.008824 89692.500000 0 0 1
-29.308875 -18.060526 -32.415240 47.285732 0.552256 2.326112 0.052798 -0.016000 167885.000000 0 0 1
-30.238235 -17.088926 -31.978100 47.212086 0.514395 2.314922 0.057310 -0.011314 348516.000000 0 0 1
-31.370315 -16.583526 -32.941450 48.417446 0.486294 2.319054 0.055827 -0.015486 968069.000000 0 0 1
-32.261235 -17.601726 -33.402590 49.662270 0.499459 2.308506 0.071989 -0.025725 939220.000000 0 0 1
-33.623485 -17.191226 -33.496880 50.478886 0.472636 2.296393 0.076125 -0.022241 601205.000000 0 0 1
-34.434357 -18.012126 33.668714 51.417350 0.481945 0.856862 0.070372 -0.024455 -227467.000000 0 0 1
-34.696566 -19.341926 34.027994 52.305508 0.508552 0.862472 0.052633 -0.025795 -49746.300000 0 0 1
-35.500887 -20.010126 33.113792 52.509440 0.513264 0.888437 0.053888 -0.021226 -302743.000000 0 0 1
-35.664861 -21.486926 33.496291 53.438486 0.542232 0.893332 0.048895 -0.023493 798027.000000 0 0 1
-34.523909 -22.254826 33.045430 52.717909 0.572584 0.893312 0.066677 -0.028366 744111.000000 0 0 1
-34.679845 -23.587526 33.408050 53.620526 0.597280 0.898166 0.066550 -0.034122 -1008390.000000 0 0 1
-33.357445 -24.331126 33.461064 53.144761 0.630190 0.889731 0.061309 -0.028736 71594.500000 0 0 1
-32.474345 -24.076426 -33.573550 52.549411 0.637973 2.263857 0.039401 -0.028753 667439.000000 0 0 1
-31.797715 -22.834426 -33.550240 51.557000 0.622781 2.279356 0.036795 -0.027746 -878874.000000 0 0 1
-30.430125 -22.916926 -32.861060 50.309316 0.645482 2.282573 0.035547 -0.018039 -574469.000000 0 0 1
-29.504365 -23.820626 -33.422170 50.546723 0.679212 2.293231 0.037879 -0.015509 771025.000000 0 0 1
-28.165645 -23.851026 -32.924440 49.459010 0.702641 2.299216 0.046952 -0.016363 679524.000000 0 0 1
-27.986185 -24.319726 -31.477880 48.636740 0.715416 2.274707 0.030117 -0.001373 -1202340.000000 0 0 1
-28.181785 -25.678406 -31.236450 49.288024 0.738952 2.257192 0.038561 -0.004685 -111494.000000 0 0 1
-27.575195 -26.025876 -30.002280 48.351570 0.756502 2.240180 0.020817 0.002319 -139669.000000 0 0 1
-27.262765 -27.495876 -29.778350 48.847023 0.789655 2.226383 0.024851 -0.001532 -248321.000000 0 0 1
-28.355465 -28.386476 -29.721690 49.931986 0.785945 2.208365 0.019603 0.005684 -183820.000000 0 0 1
-28.116635 -29.523516 -28.889430 49.967812 0.809801 2.187269 0.028930 0.001507 -2528.460000 0 0 1
-28.724595 -30.809686 -29.504780 51.428310 0.820407 2.181821 0.028303 0.005792 -66943.400000 0 0 1
-28.073495 -31.225026 -30.694430 52.012223 0.838495 2.202027 0.035056 -0.013974 202325.000000 0 0 1
-28.478175 -32.482056 -31.210940 53.293650 0.850984 2.196467 0.039678 -0.007965 -223322.000000 0 0 1
-28.123525 -32.633666 -32.705240 54.088090 0.859494 2.220143 0.048665 -0.023546 -752334.000000 0 0 1
-26.750895 -32.783666 -32.830220 53.555601 0.886386 2.230663 0.039192 -0.024849 -1146870.000000 0 0 1
-26.500935 -33.371096 -34.069924 54.559044 0.899646 2.245236 0.058453 -0.029441 -1048840.000000 0 0 1
-25.027025 -33.539026 33.806126 53.796583 0.929728 0.891293 0.058687 -0.028069 -870882.000000 0 0 1
-24.849625 33.891192 32.669320 53.229702 -0.938123 0.910004 0.057256 -0.018709 -409966.000000 0 0 1
-23.694625 33.141909 32.867722 52.346045 -0.950111 0.891953 0.056964 -0.015382 -932706.000000 0 0 1
-23.497625 32.183675 31.723625 50.934425 -0.940147 0.898438 0.057162 -0.017734 -512243.000000 0 0 1
-24.636425 31.400045 31.506465 50.848536 -0.905517 0.902545 0.086094 -0.040999 -24679.500000 0 0 1
-24.503425 30.628595 30.355665 49.598337 -0.896044 0.912172 0.084649 -0.029013 59885.500000 0 0 1
-25.907405 30.093815 29.967655 49.748283 -0.860015 0.924310 0.090847 -0.031615 191167.000000 0 0 1
-26.417225 29.119565 30.815345 49.954022 -0.834018 0.906031 0.084310 -0.031409 652336.000000 0 0 1
-27.757865 28.745675 30.467995 50.250489 -0.802879 0.919369 0.085076 -0.036458 783598.000000 0 0 1
-28.223415 27.419165 31.187175 50.209677 -0.770945 0.900601 0.072176 -0.041415 -62670.700000 0 0 1
-27.493515 26.266025 30.817445 48.943971 -0.762569 0.889697 0.085814 -0.031087 -43159.300000 0 0 1
-27.967505 25.054635 31.429645 48.966709 -0.730516 0.873878 0.082270 -0.019671 950021.000000 0 0 1
-29.223015 24.445995 30.672065 48.911827 -0.696623 0.892986 0.073424 -0.012118 908492.000000 0 0 1
-28.903205 24.127755 29.303915 47.710200 -0.695590 0.909416 0.088800 -0.021766 -243178.000000 0 0 1
-30.025065 23.657595 28.627065 47.756624 -0.667337 0.927999 0.086940 -0.016587 33699.400000 0 0 1
-29.515175 23.432785 27.168845 46.458445 -0.671025 0.946164 0.104351 -0.030510 -75091.500000 0 0 1
-28.419185 22.587055 27.198425 45.360549 -0.671551 0.927789 0.099706 -0.030820 -435171.000000 0 0 1
-27.684345 22.610655 25.988745 44.193659 -0.684860 0.942132 0.106364 -0.036938 350268.000000 0 0 1
-26.248565 22.018055 25.983035 42.998837 -0.697973 0.921943 0.115240 -0.039963 282968.000000 0 0 1
-26.254645 20.634055 26.264625 42.484128 -0.666097 0.904318 0.122266 -0.040482 300461.000000 0 0 1
-24.937125 20.183155 26.526765 41.627986 -0.680423 0.879893 0.107209 -0.031791 -14027.200000 0 0 1
-24.907625 18.981355 27.430175 41.630471 -0.651181 0.851445 0.120419 -0.035404 -104590.000000 0 0 1
-23.648025 18.482255 27.816555 40.921676 -0.663393 0.823373 0.092398 -0.017375 95832.000000 0 0 1
-23.875225 17.427855 28.750615 41.235353 -0.630549 0.799267 0.088418 -0.018261 -319929.000000 0 0 1
-22.703425 16.520655 29.116155 40.449079 -0.629058 0.767250 0.071916 -0.018384 -625196.000000 0 0 1
-21.678325 17.063755 29.903765 40.686074 -0.666847 0.745148 0.088388 -0.023931 541723.000000 0 0 1
-20.583425 16.134455 29.947725 39.760083 -0.664820 0.717866 0.064742 -0.019365 945348.000000 0 0 1
-19.375125 16.419555 30.891765 39.991229 -0.703015 0.688085 0.061030 -0.026989 147289.000000 0 0 1
-19.653025 16.107655 32.208092 41.025103 -0.686580 0.667967 0.060695 -0.017870 329091.000000 0 0 1
-18.634225 16.576155 33.062342 41.414028 -0.727014 0.646268 0.053235 -0.022829 -681095.000000 0 0 1
-18.840125 16.033855 -33.638880 41.756545 -0.705102 2.507476 0.053964 -0.024843 672226.000000 0 0 1
-19.859825 16.708855 -32.876440 41.886260 -0.699445 2.473328 0.064022 -0.025011 1340960.000000 0 0 1
-21.215125 16.419455 -33.248570 42.721744 -0.658654 2.462684 0.074287 -0.016291 283287.000000 0 0 1
-22.253025 17.318455 -32.532630 43.052271 -0.661338 2.427449 0.094670 -0.027474 -46447.500000 0 0 1
-22.314025 16.887955 -31.187130 41.901740 -0.647859 2.410270 0.089157 -0.026450 580517.000000 0 0 1
-23.226725 17.666755 -30.373860 42.120854 -0.650265 2.376203 0.077998 -0.021425 113731.000000 0 0 1
-23.074825 17.422655 -28.893690 40.875931 -0.646726 2.355850 0.077701 -0.017620 304685.000000 0 0 1
-23.744325 16.285355 -28.326160 40.390309 -0.601175 2.348031 0.076121 -0.021240 1151760.000000 0 0 1
-25.186285 16.321655 -28.298490 41.249847 -0.574994 2.326810 0.081180 -0.010922 973708.000000 0 0 1
-25.897135 15.199855 -27.523210 40.733577 -0.530755 2.312695 0.085960 -0.009678 -177741.000000 0 0 1
-25.685605 13.884655 -27.981850 40.441536 -0.495568 2.334926 0.071517 -0.006852 202879.000000 0 0 1
-26.442425 12.935755 -27.230940 40.100619 -0.454974 2.317285 0.050229 -0.006751 121482.000000 0 0 1
-26.006565 11.472655 -27.434750 39.504794 -0.415465 2.338474 0.059327 -0.010874 -374687.000000 0 0 1
-24.945725 11.098555 -26.636590 38.144135 -0.418611 2.343836 0.061736 -0.013460 -124588.000000 0 0 1
-23.966025 10.319455 -27.340860 37.793969 -0.406593 2.379537 0.058101 -0.003948 570113.000000 0 0 1
-22.815425 9.726755 -26.493420 36.291248 -0.402991 2.389151 0.070139 -0.009274 511815.000000 0 0 1
-23.389125 8.792755 -25.563900 35.747401 -0.359589 2.367601 0.074279 -0.012854 396380.000000 0 0 1
-22.336925 8.090955 -24.967000 34.463790 -0.347522 2.381020 0.087325 -0.010674 -419851.000000 0 0 1
-22.808325 7.181055 -23.815200 33.748348 -0.305019 2.354165 0.075590 0.001861 274747.000000 0 0 1
-23.633125 6.158855 -24.381200 34.509404 -0.254932 2.355349 0.075347 -0.016713 415123.000000 0 0 1
-23.476025 4.975055 -23.691900 33.722115 -0.208831 2.349789 0.068008 0.001778 -222017.000000 0 0 1
35.719592 24.448174 -10.357400 44.507058 0.600211 1.805663 0.003502 0.009551 117615.000000 0 0 1
36.296092 23.812074 -9.200000 44.374105 0.580617 1.779639 0.011020 0.005633 -460557.000000 0 0 1
-35.974034 23.123074 -9.586700 43.825934 -0.571277 1.791324 0.018536 0.003637 -423859.000000 0 0 1
-35.194651 22.669274 -8.318300 42.682005 -0.572224 1.766942 0.022229 0.006270 -104504.000000 0 0 1
-35.665678 21.481474 -7.734700 42.347608 -0.542110 1.754475 0.019954 -0.001349 -42885.700000 0 0 1
-34.799656 21.064274 -6.698000 41.225998 -0.544308 1.733990 0.032910 -0.004816 65426.700000 0 0 1
-35.443733 20.090174 -5.636100 41.129538 -0.515664 1.708262 0.036671 0.000856 -110983.000000 0 0 1
-35.774718 18.809474 -6.203200 40.891398 -0.484055 1.723084 0.031528 0.000094 334491.000000 0 0 1
-36.211525 17.938574 -5.153100 40.738451 -0.459947 1.697628 0.038953 -0.012267 -69964.000000 0 0 1
36.508152 16.718874 -5.841400 40.576938 0.429445 1.715257 0.037173 -0.008033 89402.600000 0 0 1
35.267452 17.059574 -6.433800 39.701587 0.450539 1.733568 0.037717 -0.012561 -34467.500000 0 0 1
35.020012 16.233474 -7.575100 39.335850 0.434064 1.764582 0.047939 -0.014113 266661.000000 0 0 1
33.616672 16.461774 -8.193400 38.317130 0.455366 1.786292 0.035966 -0.022429 232925.000000 0 0 1
33.247982 15.399274 -9.091700 37.752152 0.433747 1.814013 0.041240 -0.034785 -117259.000000 0 0 1
32.517692 15.882574 -10.182400 37.594384 0.454348 1.845071 0.058415 -0.021556 -514608.000000 0 0 1
31.819462 14.734974 -11.017900 36.755840 0.433678 1.875237 0.066751 -0.026229 175789.000000 0 0 1
30.672342 14.093174 -10.488300 35.347059 0.430705 1.872056 0.075995 -0.020354 347789.000000 0 0 1
30.648642 13.650874 -9.133100 34.772103 0.419021 1.836570 0.065401 -0.018947 -786915.000000 0 0 1
29.491482 12.633274 -8.887500 33.291662 0.404722 1.841032 0.094884 -0.007661 276835.000000 0 0 1
29.765602 11.391574 -9.474200 33.249353 0.365512 1.859744 0.094647 -0.008967 -282661.000000 0 0 1
28.673902 10.563674 -9.428000 31.979229 0.352978 1.870060 0.110787 -0.012440 -1004640.000000 0 0 1
29.034212 9.203974 -10.023900 32.065202 0.306983 1.888736 0.126646 -0.014414 -113031.000000 0 0 1
29.955842 8.630574 -9.117200 32.480188 0.280513 1.855320 0.110457 -0.013098 267208.000000 0 0 1
30.104762 7.248274 -9.371800 32.352200 0.236271 1.864689 0.106449 -0.017450 52907.000000 0 0 1
31.207662 6.637774 -8.440200 33.003260 0.209574 1.829408 0.105638 -0.020566 909419.000000 0 0 1
32.533902 7.016074 -8.809100 34.427900 0.212401 1.829545 0.101317 -0.019593 327443.000000 0 0 1
33.496912 6.637274 -7.868100 35.042881 0.195612 1.797255 0.105554 -0.024999 1238020.000000 0 0 1
34.989532 6.971974 -8.310800 36.632570 0.196683 1.799658 0.096932 -0.021852 1441250.000000 0 0 1
35.525192 6.092874 -9.327900 37.231332 0.169856 1.824033 0.093413 -0.018858 1017060.000000 0 0 1
-36.483175 6.292574 -9.526000 38.227780 -0.170798 1.822641 0.087374 -0.019241 354321.000000 0 0 1
-35.951826 5.577274 -10.783400 37.946297 -0.153905 1.858942 0.083683 -0.014974 -1165980.000000 0 0 1
-34.630603 5.778974 -11.099200 36.822105 -0.165351 1.876986 0.090717 -0.013358 -807657.000000 0 0 1
-34.235368 6.937674 -11.781500 36.864556 -0.199939 1.896092 0.068486 -0.010976 -594281.000000 0 0 1
-33.494385 8.032074 -10.988100 36.154202 -0.235359 1.879604 0.067088 -0.001532 -909095.000000 0 0 1
-34.158715 8.683674 -9.958100 36.624960 -0.248942 1.846157 0.074822 -0.004843 -148899.000000 0 0 1
-35.108782 9.601274 -10.466400 37.872900 -0.266945 1.850797 0.057248 -0.007379 -412136.000000 0 0 1
-35.819017 10.351874 -9.312200 38.430201 -0.281339 1.815547 0.056849 -0.015122 124469.000000 0 0 1
-35.020149 11.172774 -8.464100 37.721118 -0.308830 1.797109 0.062472 -0.017085 -95612.300000 0 0 1
-35.831441 11.782674 -7.518700 38.461076 -0.317698 1.767552 0.058413 -0.021168 -657750.000000 0 0 1
-35.032008 12.640874 -6.564300 37.816971 -0.346297 1.745261 0.052984 -0.027161 -72762.600000 0 0 1
-34.406783 13.678974 -7.326500 37.744120 -0.378407 1.766146 0.044280 -0.021431 -435222.000000 0 0 1
-33.518805 14.440574 -6.608600 37.090619 -0.406790 1.749927 0.056029 -0.020393 -328313.000000 0 0 1
-32.668825 15.411474 -7.472000 36.886263 -0.440792 1.774777 0.041853 -0.009395 -13946.400000 0 0 1
-33.489905 16.462774 -7.929200 38.150607 -0.456884 1.780162 0.015963 -0.007573 56796.100000 0 0 1
-32.753435 17.436074 -8.651800 38.100627 -0.489186 1.799872 0.012990 0.001986 519084.000000 0 0 1
-33.603115 18.376574 -9.571800 39.477679 -0.500438 1.815698 0.000951 -0.000019 666905.000000 0 0 1
-32.944045 18.315074 -10.833800 39.218914 -0.507396 1.850675 -0.003708 -0.001710 937990.000000 0 0 1
-33.928125 18.818374 -11.762000 40.541257 -0.506409 1.865153 -0.005788 -0.004139 196648.000000 0 0 1
-33.512245 18.787874 -13.218100 40.629705 -0.510966 1.902158 -0.005775 0.010806 432790.000000 0 0 1
-32.555055 19.845774 -13.502400 40.447511 -0.547453 1.911155 0.001746 0.001973 658230.000000 0 0 1
-32.332375 20.012974 -14.859200 40.825205 -0.554256 1.943324 -0.008014 0.000523 -349242.000000 0 0 1
-31.458265 21.209074 -15.259800 40.893871 -0.593198 1.953205 0.015981 -0.005409 943177.000000 0 0 1
-30.076355 21.119674 -14.813600 39.624115 -0.612202 1.953956 0.007373 -0.002788 1397570.000000 0 0 1
-29.458335 22.388874 -14.770500 39.839965 -0.649882 1.950608 0.022029 -0.006410 127829.000000 0 0 1
-28.802675 22.988774 -16.079600 40.207354 -0.673610 1.982222 0.008860 -0.010531 -578584.000000 0 0 1
-29.802755 23.434274 -16.976500 41.539992 -0.666339 1.991802 0.020275 0.000545 503439.000000 0 0 1
-29.292375 24.255474 -18.089100 42.113974 -0.691611 2.014766 0.011171 -0.002345 -109173.000000 0 0 1
-28.577465 25.584674 -17.812900 42.291210 -0.730198 2.005560 0.023391 0.000555 411854.000000 0 0 1
-29.462415 26.640174 -17.467300 43.391696 -0.735136 1.985096 0.037327 0.001968 110047.000000 0 0 1
-28.715685 27.804574 -17.542800 43.651285 -0.769279 1.984371 0.048157 -0.003115 -25510.900000 0 0 1
-29.345625 29.089374 -16.920300 44.650352 -0.781013 1.959459 0.051641 -0.009039 -288955.000000 0 0 1
-29.419815 29.300774 -15.491000 44.317400 -0.783371 1.927884 0.049801 -0.012363 484448.000000 0 0 1
-28.244135 28.982374 -14.748900 43.072488 -0.798298 1.920288 0.047102 -0.013742 164121.000000 0 0 1
-28.493255 29.711174 -13.453900 43.308508 -0.806320 1.886676 0.048692 -0.014287 -7204.730000 0 0 1
-28.047815 31.037374 -13.543300 43.970666 -0.835952 1.883894 0.065118 -0.010897 57150.900000 0 0 1
-28.355785 31.864574 -12.462800 44.437855 -0.843598 1.855064 0.058338 -0.010687 -59552.000000 0 0 1
-27.708855 33.248374 -12.737100 45.116169 -0.876025 1.857006 0.041634 -0.017947 -62471.900000 0 0 1
-28.197665 34.054874 -13.802100 46.317823 -0.879210 1.873379 0.029678 -0.021829 -178337.000000 0 0 1
-27.607125 -32.888807 -13.763500 45.091694 0.872484 1.880980 0.040360 -0.020811 81381.200000 0 0 1
-27.758465 -32.170907 -15.151700 45.111790 0.858893 1.913325 0.033258 -0.025884 -187151.000000 0 0 1
-26.998025 -32.750707 -16.149200 45.412540 0.881384 1.934364 0.032126 -0.029474 -226910.000000 0 0 1
-27.299645 -32.094507 -17.352500 45.567941 0.865953 1.961463 0.035505 -0.018103 173824.000000 0 0 1
-26.443805 -32.542307 -18.598800 45.871471 0.888421 1.988272 0.029785 -0.014229 -169931.000000 0 0 1
-26.683915 -33.841407 -19.153600 47.160709 0.903108 1.989017 0.037451 -0.011246 26647.900000 0 0 1
-26.132315 33.329674 -18.393600 46.174555 -0.905854 1.980513 0.018500 -0.022035 -509206.000000 0 0 1
-26.543375 31.955674 -19.021200 45.689407 -0.877655 2.000185 0.030914 -0.025985 514161.000000 0 0 1
-27.886745 31.497974 -19.005800 46.162900 -0.846134 1.995128 0.056749 -0.027847 551527.000000 0 0 1
-28.759645 32.186674 -19.916800 47.537123 -0.841569 2.003111 0.060588 -0.027091 -311525.000000 0 0 1
-30.233035 31.783374 -19.908900 48.172436 -0.810392 1.996854 0.062128 -0.026386 -342724.000000 0 0 1
-30.554755 30.496674 -20.382700 47.739864 -0.784447 2.011917 0.047901 -0.015709 -924026.000000 0 0 1
-31.917975 30.381974 -20.518400 48.608911 -0.760748 2.006570 0.056904 -0.014260 -1241740.000000 0 0 1
-32.237795 29.024374 -21.160800 48.264574 -0.732993 2.024651 0.046470 -0.019188 -1029870.000000 0 0 1
-33.585745 28.731674 -21.236600 49.035747 -0.707662 2.018708 0.046711 -0.022866 -807741.000000 0 0 1
-33.708265 27.472674 -21.881500 48.680540 -0.683828 2.036993 0.036377 -0.013273 -195253.000000 0 0 1
-35.090571 26.788074 -21.891300 49.276547 -0.652021 2.031138 0.034800 -0.012708 226456.000000 0 0 1
-35.952949 27.412474 -22.844800 50.655139 -0.651424 2.038667 0.026468 -0.002944 -809817.000000 0 0 1
36.376302 26.626974 -23.154400 50.678964 0.631873 2.045285 0.020670 -0.001878 -712281.000000 0 0 1
35.552952 27.190574 -24.331400 50.944644 0.652900 2.068723 0.034042 -0.007769 -496976.000000 0 0 1
36.261422 27.281474 -25.501150 52.052648 0.645007 2.082784 0.028568 -0.001277 -571304.000000 0 0 1
35.359882 27.577374 -26.535550 52.105357 0.662368 2.105129 0.055134 -0.010901 -311918.000000 0 0 1
35.980542 27.881474 -27.929840 53.404606 0.659250 2.121146 0.048397 -0.002993 -49933.500000 0 0 1
36.617292 26.768574 -28.489170 53.563191 0.631254 2.131615 0.018767 0.015395 244438.000000 0 0 1
-36.000623 27.179674 -29.625400 53.967062 -0.646679 2.151908 -0.007620 0.015017 -37247.300000 0 0 1
-35.838586 26.037774 -30.676780 53.883529 -0.628310 2.176470 -0.023280 0.015956 -527772.000000 0 0 1
-35.164713 24.889174 -30.335630 52.690402 -0.615934 2.184297 -0.019952 0.018821 -116306.000000 0 0 1
-33.769605 25.051874 -30.597850 52.002029 -0.638263 2.199872 -0.032032 0.022615 469767.000000 0 0 1
-32.970315 24.132574 -29.580090 50.442090 -0.631848 2.197424 -0.028308 0.024228 35944.200000 0 0 1
-32.930835 22.771174 -29.956990 50.003875 -0.604988 2.213165 -0.016137 0.011241 -88886.300000 0 0 1
-32.988605 21.970174 -28.730740 48.952957 -0.587536 2.198027 -0.006838 0.012338 -215596.000000 0 0 1
-32.542575 20.550874 -28.928590 48.147906 -0.563265 2.215332 -0.003867 0.002867 -654669.000000 0 0 1
-31.181475 20.399074 -29.204600 47.342531 -0.579326 2.235567 0.058126 -0.005348 -516994.000000 0 0 1
-30.915455 19.049374 -29.401440 46.723534 -0.552229 2.251402 0.051251 -0.003905 -41078.900000 0 0 1
-29.441695 18.619174 -29.612820 45.720959 -0.563909 2.275340 0.086607 -0.012629 124753.000000 0 0 1
-28.906325 19.162674 -30.849540 46.416353 -0.585407 2.297790 0.094979 -0.012053 547374.000000 0 0 1
-27.628355 18.694974 -31.260370 45.716942 -0.594888 2.323728 0.104477 -0.016242 297863.000000 0 0 1
-27.665835 17.325674 -32.001600 45.713015 -0.559496 2.346270 0.101886 -0.014720 -186042.000000 0 0 1
-27.931095 16.219174 -31.106010 44.841850 -0.526096 2.337386 0.067612 -0.004905 216700.000000 0 0 1
-27.894855 14.977874 -31.885880 44.935164 -0.492761 2.359723 0.043385 0.003147 -232437.000000 0 0 1
-28.443935 13.822774 -31.096210 44.352010 -0.452357 2.347767 0.047803 0.006789 385708.000000 0 0 1
-29.814395 13.920674 -30.705560 45.005718 -0.436828 2.321644 0.040445 0.013943 635917.000000 0 0 1
-30.552855 12.712874 -30.536080 45.028283 -0.394303 2.316043 0.038316 0.013260 148659.000000 0 0 1
-30.236785 11.769974 -29.356960 43.756446 -0.371214 2.306242 0.030063 -0.002998 -319467.000000 0 0 1
-30.708625 12.286374 -28.111940 43.408015 -0.380588 2.275254 0.017976 0.000551 269818.000000 0 0 1
-30.689395 11.324874 -27.086770 42.470988 -0.353514 2.262397 0.013944 0.004530 -94431.700000 0 0 1
-30.639935 11.907374 -25.677110 41.712170 -0.370660 2.233916 0.008696 -0.003380 614118.000000 0 0 1
-29.281385 12.137974 -25.303380 40.558488 -0.392968 2.244486 0.029607 -0.012017 393898.000000 0 0 1
-29.286855 12.811074 -24.081400 40.021960 -0.412355 2.216430 0.025862 -0.008770 -111654.000000 0 0 1
-27.877275 13.003774 -23.495700 38.707732 -0.436462 2.223080 0.041733 -0.008819 -270025.000000 0 0 1
-27.083765 13.932774 -24.214800 38.910269 -0.475127 2.242505 0.055938 -0.006463 561750.000000 0 0 1
-25.724935 14.014074 -23.780200 37.731478 -0.498816 2.252669 0.061267 -0.011952 644072.000000 0 0 1
-25.409245 14.805674 -22.466800 37.008037 -0.527593 2.223176 0.063174 -0.019023 -793993.000000 0 0 1
-25.342995 16.184574 -22.540200 37.580160 -0.568334 2.214035 0.078717 -0.023282 188593.000000 0 0 1
-25.578985 16.748574 -21.258900 37.238958 -0.579727 2.178371 0.072180 -0.023907 467352.000000 0 0 1
-27.047315 17.011674 -20.778200 38.114143 -0.561442 2.147373 0.061920 -0.027059 323886.000000 0 0 1
-27.761975 15.823974 -20.695600 38.071423 -0.518059 2.145516 0.062670 -0.018081 804006.000000 0 0 1
-29.089815 15.951974 -20.141700 38.811994 -0.501591 2.116425 0.059676 -0.011246 370978.000000 0 0 1
-30.077415 14.747174 -20.310200 39.174408 -0.455863 2.115840 0.026981 -0.014036 658643.000000 0 0 1
-30.749665 14.603774 -21.607700 40.320030 -0.443387 2.136375 0.021181 -0.011328 524625.000000 0 0 1
-31.571615 15.715174 -21.878000 41.501571 -0.461856 2.126052 0.004476 -0.006192 -1110200.000000 0 0 1
-32.166595 15.808474 -23.271700 42.733707 -0.456789 2.146678 -0.005454 -0.002699 69768.700000 0 0 1
-33.210835 14.862974 -23.513800 43.321661 -0.420801 2.144531 0.003590 -0.001729 440088.000000 0 0 1
-33.699085 15.083674 -24.843000 44.500788 -0.420855 2.163083 0.009736 -0.001584 964374.000000 0 0 1
-35.051411 14.338074 -25.198780 45.488024 -0.388291 2.157916 0.011902 -0.001552 803989.000000 0 0 1
-34.917522 12.901474 -25.458870 45.098064 -0.353926 2.170651 0.009952 0.001495 80786.400000 0 0 1
-34.640038 12.026074 -24.378400 44.032545 -0.334154 2.157531 -0.000940 -0.001202 -336906.000000 0 0 1
-34.606850 10.554974 -24.962800 43.956602 -0.296035 2.174744 0.010464 -0.011261 911362.000000 0 0 1
-35.912324 10.059074 -25.319880 45.077447 -0.273102 2.167232 0.014677 -0.005429 1007260.000000 0 0 1
-35.656574 8.796074 -25.922580 44.952667 -0.241860 2.185436 0.018742 0.003434 68082.000000 0 0 1
36.455832 8.160074 -26.426470 45.759948 0.220205 2.186462 0.042496 -0.000359 -169817.000000 0 0 1
35.659982 7.562274 -25.422410 44.442336 0.208970 2.179777 0.030891 0.006124 -309215.000000 0 0 1
34.643542 6.849374 -26.068930 43.893941 0.195193 2.206703 0.043365 0.002949 -8618.100000 0 0 1
33.675392 6.038674 -25.140700 42.456477 0.177434 2.204523 0.058517 -0.002243 55376.000000 0 0 1
34.353012 5.061074 -24.417900 42.449708 0.146273 2.183669 0.060400 -0.007361 -221771.000000 0 0 1
33.572302 4.357874 -23.501600 41.211840 0.129084 2.177623 0.061817 -0.007431 -223030.000000 0 0 1
34.428252 3.423474 -22.605400 41.328305 0.099112 2.149538 0.056059 -0.007094 263555.000000 0 0 1
35.226812 2.479174 -23.288500 42.301641 0.070262 2.153800 0.057673 -0.015273 328212.000000 0 0 1
36.225022 1.842074 -22.520200 42.694319 0.050807 2.126422 0.090251 -0.020690 335315.000000 0 0 1
-36.472155 0.750574 -23.388400 43.333574 -0.020576 2.140912 0.094178 -0.018184 138696.000000 0 0 1
36.326882 -0.544026 -23.337300 43.180643 -0.014975 2.141777 0.080713 -0.022809 262262.000000 0 0 1
-36.359755 -1.479126 -24.114000 43.654376 0.040658 2.156018 0.084968 -0.022720 192109.000000 0 0 1
-22.914525 29.168074 27.174325 45.981474 -0.904896 0.938518 0.057800 -0.015471 -1392240.000000 0 0 1
-24.240625 29.425574 26.869275 46.641508 -0.881714 0.956871 0.054733 -0.018359 -193781.000000 0 0 1
-24.623825 28.813574 25.621845 45.749686 -0.863643 0.976357 0.051528 -0.013499 -339533.000000 0 0 1
-25.013525 27.319974 25.588355 45.020232 -0.829442 0.966267 0.058103 -0.021901 47351.300000 0 0 1
-26.336145 27.087174 26.078275 45.906252 -0.799455 0.966629 0.072969 -0.021725 623426.000000 0 0 1
-26.435145 26.781174 27.448305 46.577437 -0.791900 0.940598 0.082406 -0.018319 -315185.000000 0 0 1
-25.758415 25.465874 28.045985 45.810304 -0.779687 0.911931 0.085905 -0.014594 1268830.000000 0 0 1
-24.323225 25.416074 28.133485 45.045411 -0.807366 0.896231 0.084130 -0.015130 698528.000000 0 0 1
-23.910925 25.956074 29.357915 45.905743 -0.826387 0.876915 0.077947 -0.013804 -990194.000000 0 0 1
-22.498625 25.680074 29.815165 45.327678 -0.851337 0.852943 0.071922 -0.008446 -1063230.000000 0 0 1
-21.522925 26.318474 29.041685 44.713732 -0.885303 0.863866 0.069112 -0.016158 -78970.400000 0 0 1
-20.214325 26.261874 29.550875 44.402243 -0.914793 0.842597 0.078953 -0.024183 698496.000000 0 0 1
-19.280625 24.983674 29.436245 43.155752 -0.913533 0.820175 0.070692 -0.017890 58071.800000 0 0 1
-18.736325 24.727274 28.159095 41.897763 -0.922373 0.833768 0.072259 -0.018264 81293.800000 0 0 1
-19.598225 24.129474 27.185905 41.296433 -0.888654 0.852223 0.075254 -0.021561 -93083.300000 0 0 1
-19.613325 22.558674 27.303835 40.485500 -0.855126 0.830631 0.068096 -0.015063 204939.000000 0 0 1
-20.246825 22.047974 28.487365 41.322839 -0.827958 0.810156 0.073468 -0.013874 151662.000000 0 0 1
-20.295425 20.675974 28.444315 40.601468 -0.794686 0.794595 0.074662 -0.013586 111982.000000 0 0 1
-20.795325 20.126674 29.822925 41.556412 -0.769060 0.770376 0.082913 -0.024377 -139458.000000 0 0 1
-19.914325 20.363074 30.903035 42.026571 -0.796539 0.744656 0.069475 -0.023073 -64419.000000 0 0 1
-20.387425 19.989674 32.201029 43.036501 -0.775548 0.725412 0.070408 -0.017261 -134002.000000 0 0 1
-19.448525 20.398274 33.394461 43.698109 -0.809229 0.700983 0.087526 -0.022283 -315353.000000 0 0 1
-19.431225 21.821974 33.739676 44.633359 -0.843286 0.713723 0.061928 -0.014411 330298.000000 0 0 1
-18.648225 22.624974 32.821243 44.009996 -0.881454 0.729110 0.067646 -0.008819 1498260.000000 0 0 1
-17.105625 22.626974 33.231637 43.691236 -0.923477 0.706557 0.058401 0.003260 889679.000000 0 0 1
-16.575425 21.371974 33.226296 42.842651 -0.911131 0.683222 0.068560 -0.013195 -712958.000000 0 0 1
-15.212725 21.458674 33.576318 42.652911 -0.954101 0.664543 0.050635 -0.006317 -419023.000000 0 0 1
-14.343225 20.195274 33.261009 41.471338 -0.953240 0.640120 0.046464 -0.013392 815940.000000 0 0 1
-12.970325 20.232374 33.685725 41.380023 -1.000726 0.619692 0.038665 -0.010472 780043.000000 0 0 1
-12.704025 20.316474 -33.070670 40.838959 -1.011977 2.514577 0.046907 -0.008670 -1392600.000000 0 0 1
-11.251425 20.235074 -32.680460 40.050783 -1.063331 2.525211 0.040013 -0.005690 -797341.000000 0 0 1
-10.560825 21.460274 -32.791090 40.587313 -1.113480 2.511401 0.035786 -0.008950 333019.000000 0 0 1
-9.181925 21.205374 -32.496830 39.875050 -1.162169 2.523468 0.036541 -0.005035 247374.000000 0 0 1
-8.299825 22.452774 -32.516690 40.377584 -1.216718 2.507004 0.047041 -0.009993 -232254.000000 0 0 1
-8.376825 23.245374 -31.363120 39.926982 -1.224917 2.474319 0.066880 -0.013052 183099.000000 0 0 1
-7.828925 22.701874 -30.123820 38.524170 -1.238710 2.468578 0.063085 -0.012000 59044.500000 0 0 1
-7.487425 23.881174 -29.164310 38.430834 -1.266975 2.432385 0.075015 -0.015619 -155538.000000 0 0 1
-6.334525 24.498274 -29.665540 38.991485 -1.317768 2.435374 0.073401 -0.016154 -375987.000000 0 0 1
-5.994125 25.638974 -28.907130 39.101262 -1.341132 2.402810 0.099232 -0.020551 -57074.400000 0 0 1
-4.689725 26.298074 -29.408490 39.729605 -1.394322 2.404188 0.081608 -0.021648 -246459.000000 0 0 1
-3.556625 25.676374 -28.856720 38.789638 -1.433155 2.409726 0.081281 -0.017614 389021.000000 0 0 1
-2.293925 25.874974 -29.492590 39.301262 -1.482373 2.419499 0.086600 -0.019093 1077280.000000 0 0 1
-1.500725 27.222574 -29.303550 40.025226 -1.515724 2.392236 0.092479 -0.032524 -16451.300000 0 0 1
-0.945525 27.293374 -27.964000 39.087179 -1.536167 2.368031 0.097535 -0.046907 268582.000000 0 0 1
-0.116025 28.425574 -27.856220 39.799444 -1.566715 2.346075 0.100143 -0.050387 -590536.000000 0 0 1
0.436775 28.664174 -26.420480 38.985477 1.555560 2.315427 0.108869 -0.061409 -38248.900000 0 0 1
1.543475 27.912674 -25.960080 38.150039 1.515556 2.319205 0.135544 -0.065584 -338509.000000 0 0 1
2.757775 28.350174 -26.468840 38.883636 1.473826 2.319540 0.135359 -0.063513 -655560.000000 0 0 1
3.908675 28.475974 -25.419870 38.370935 1.434387 2.294917 0.134445 -0.068832 370487.000000 0 0 1
4.300675 27.203074 -24.830300 37.081624 1.413999 2.304483 0.130543 -0.048403 -45050.300000 0 0 1
5.539075 27.365074 -24.193700 36.944062 1.371081 2.284812 0.099984 -0.034567 -388188.000000 0 0 1
5.980375 26.141974 -23.449600 35.623748 1.345901 2.289298 0.106556 -0.029849 109638.000000 0 0 1
7.246975 26.371174 -22.845500 35.635296 1.302610 2.266716 0.102436 -0.033005 -1569.360000 0 0 1
7.949075 25.185174 -22.563100 34.735778 1.265067 2.277807 0.094658 -0.026593 -622063.000000 0 0 1
9.354175 25.430174 -22.075900 34.950532 1.218320 2.254454 0.097289 -0.010457 -1347750.000000 0 0 1
9.577475 26.105874 -20.837800 34.748505 1.219172 2.213891 0.097614 -0.005748 602389.000000 0 0 1
10.925675 26.258674 -20.391100 34.995504 1.176506 2.192816 0.103130 -0.016821 752713.000000 0 0 1
11.815675 25.062874 -20.005400 34.175633 1.130256 2.196133 0.073395 0.001511 -195841.000000 0 0 1
12.051675 24.143474 -21.050100 34.223631 1.107814 2.233277 0.064082 -0.003623 65524.700000 0 0 1
11.960175 22.817374 -20.596500 32.983241 1.088000 2.245228 0.061126 0.003121 -229364.000000 0 0 1
12.379075 21.781174 -21.698600 33.143480 1.053983 2.284565 0.061223 -0.010071 191465.000000 0 0 1
11.450375 21.767574 -22.769100 33.516717 1.086543 2.317653 0.061906 -0.018908 396998.000000 0 0 1
11.688175 20.628574 -23.578500 33.437960 1.055297 2.353419 0.052356 -0.023333 42975.900000 0 0 1
10.719075 20.614974 -24.774100 33.965155 1.091304 2.388237 0.085095 -0.019143 1370420.000000 0 0 1
9.334075 20.305274 -24.452700 33.126480 1.139916 2.401138 0.068532 -0.016436 947902.000000 0 0 1
8.686475 19.912174 -25.618000 33.589157 1.159444 2.438253 0.066524 -0.014649 802468.000000 0 0 1
7.133475 19.582674 -25.481910 32.919528 1.221462 2.456036 0.053304 -0.018934 2147470.000000 0 0 1
6.173175 20.673974 -25.336840 33.278773 1.280628 2.436191 0.078405 -0.011392 687802.000000 0 0 1
6.351575 21.384074 -24.159500 32.883165 1.282072 2.396031 0.081870 -0.013901 -563994.000000 0 0 1
5.005475 21.779474 -23.514700 32.439812 1.344894 2.381644 0.098826 -0.018265 -164222.000000 0 0 1
4.471475 23.043174 -23.967700 33.547468 1.379131 2.366622 0.098798 -0.020821 -219264.000000 0 0 1
3.149375 23.243874 -23.548600 33.237521 1.436124 2.358159 0.119759 -0.019908 -281502.000000 0 0 1
2.490475 24.441174 -24.244600 34.516287 1.469250 2.349575 0.108625 -0.022359 1057620.000000 0 0 1
1.043475 24.391274 -24.220100 34.389480 1.528042 2.352216 0.129926 -0.047005 1066910.000000 0 0 1
0.495175 25.002874 -25.338970 35.601296 1.550994 2.362773 0.121157 -0.032593 717589.000000 0 0 1
-1.062925 24.906374 -25.511700 35.669372 -1.528145 2.367745 0.119487 -0.031634 910360.000000 0 0 1
-1.352625 23.585974 -25.941980 35.087235 -1.513510 2.402911 0.126957 -0.033659 -1009930.000000 0 0 1
-2.522225 23.540174 -26.667760 35.660494 -1.464058 2.415574 0.121255 -0.029336 -689374.000000 0 0 1
-3.107725 22.279074 -27.359330 35.419599 -1.432200 2.453462 0.107651 -0.031860 -165477.000000 0 0 1
-2.391625 21.753674 -28.455530 35.897902 -1.461295 2.485988 0.119379 -0.044483 -113424.000000 0 0 1
-2.860625 20.453774 -28.901620 35.522439 -1.431840 2.521141 0.086080 -0.036317 245664.000000 0 0 1
-4.129225 20.405974 -29.815100 36.364742 -1.371139 2.532016 0.083272 -0.030426 363075.000000 0 0 1
-3.908525 20.649374 -31.222600 37.636737 -1.383729 2.549147 0.073994 -0.029902 72237.300000 0 0 1
-3.477625 21.923774 -31.666560 38.671912 -1.413484 2.530204 0.082426 -0.028375 10199.500000 0 0 1
-3.134425 22.051074 -33.187730 39.968737 -1.429598 2.550518 0.062480 -0.019534 -304289.000000 0 0 1
-1.943925 21.384574 -33.499460 39.790610 -1.480142 2.571579 0.072372 -0.020241 -68032.500000 0 0 1
-1.711625 21.469574 33.245014 39.611907 -1.491241 0.574860 0.072832 -0.015481 510077.000000 0 0 1
-0.527525 20.526074 32.851581 38.740475 -1.545102 0.558613 0.077066 -0.014235 688942.000000 0 0 1
-1.045725 19.220474 32.717720 37.960102 -1.516443 0.531796 0.073435 0.003967 1191680.000000 0 0 1
0.038175 18.368374 32.278569 37.138991 1.568718 0.517358 0.071450 -0.007939 1209080.000000 0 0 1
-0.581625 16.997074 31.753865 36.021476 -1.536591 0.491712 0.063694 -0.008231 331588.000000 0 0 1
-1.316725 17.116274 30.568945 35.059392 -1.494019 0.511689 0.055496 -0.006553 -343403.000000 0 0 1
-1.921325 15.880674 30.342655 34.301079 -1.450396 0.485166 0.049512 -0.005263 -27410.400000 0 0 1
-3.080925 16.015174 29.311075 33.542764 -1.380743 0.507747 0.052580 -0.009614 800659.000000 0 0 1
-4.276825 16.611974 29.842525 34.421290 -1.318814 0.521689 0.043108 -0.014904 342008.000000 0 0 1
-4.546725 17.823174 29.205055 34.514830 -1.321022 0.562059 0.044861 -0.016045 1190950.000000 0 0 1
-6.088125 18.209774 29.254375 34.992565 -1.248147 0.580813 0.029715 -0.017964 1509050.000000 0 0 1
-6.903625 17.524774 28.301675 33.996508 -1.195529 0.587214 0.023787 -0.019728 -255089.000000 0 0 1
-8.208325 18.076374 28.396795 34.648374 -1.144545 0.610135 0.017507 -0.008509 -162203.000000 0 0 1
-9.172625 17.194674 27.553275 33.748731 -1.080742 0.615605 0.022442 -0.020571 -343680.000000 0 0 1
-9.411225 15.875574 27.991865 33.528339 -1.035679 0.582896 0.039133 -0.030043 187480.000000 0 0 1
-10.100125 15.743374 29.246485 34.716325 -1.000386 0.568997 0.041804 -0.028431 -245218.000000 0 0 1
-10.525625 14.305174 29.621845 34.538102 -0.936451 0.540101 0.043482 -0.031738 768858.000000 0 0 1
-9.389925 13.415774 29.771885 33.978211 -0.960126 0.502865 0.039494 -0.026780 922675.000000 0 0 1
-8.730525 13.380174 31.046445 34.916083 -0.992668 0.475261 0.030802 -0.023873 -333663.000000 0 0 1
-9.521925 12.970074 32.286535 36.073677 -0.937519 0.462328 0.051078 -0.019669 -654660.000000 0 0 1
-9.842425 11.628674 32.230800 35.650019 -0.868400 0.441553 0.052121 -0.013693 405375.000000 0 0 1
-10.384525 11.301974 33.518623 36.865581 -0.827678 0.429409 0.053538 -0.007763 -184185.000000 0 0 1
-10.645525 9.782174 33.728127 36.696112 -0.743160 0.404956 0.057531 -0.010034 -684638.000000 0 0 1
-9.508125 8.973774 33.715572 36.161759 -0.756494 0.369925 0.070691 -0.015128 -485758.000000 0 0 1
-9.312825 8.150974 -33.269120 35.496499 -0.718967 2.785456 0.104530 -0.028680 172896.000000 0 0 1
-8.537625 8.850974 -32.109440 34.383817 -0.803417 2.775836 0.098396 -0.032178 34907.600000 0 0 1
-9.300025 9.817274 -31.373100 34.163441 -0.812448 2.734621 0.085217 -0.025260 651776.000000 0 0 1
-8.522925 10.598974 -30.413990 33.316502 -0.893544 2.721082 0.078379 -0.029261 331000.000000 0 0 1
-7.642425 11.728474 -30.993060 34.007845 -0.993288 2.717349 0.046041 -0.021530 38749.600000 0 0 1
-8.321425 12.837974 -31.490140 35.009836 -0.995696 2.689341 0.043209 -0.016054 364999.000000 0 0 1
-7.308525 13.717974 -31.971990 35.550042 -1.081278 2.689081 0.026031 -0.018264 432131.000000 0 0 1
-7.872825 15.114474 -32.441920 36.645694 -1.090585 2.657905 0.026335 -0.011147 173402.000000 0 0 1
-8.666925 15.209574 -33.611750 37.897183 -1.052853 2.661429 0.034680 -0.013096 172747.000000 0 0 1
-8.874225 16.591974 -33.755720 38.645751 -1.079659 2.633071 0.039130 -0.014378 -1049450.000000 0 0 1
-9.223225 17.003374 32.959774 38.216872 -1.073780 0.530725 0.039221 -0.020109 786526.000000 0 0 1
-10.441625 16.516374 32.398005 37.834493 -1.007037 0.542717 0.037315 -0.026888 1537800.000000 0 0 1
-11.694825 16.801374 33.078622 38.900518 -0.962717 0.554167 0.044536 -0.024855 1204590.000000 0 0 1
-12.951125 16.440174 32.178399 38.385678 -0.903555 0.576654 0.054820 -0.028149 544898.000000 0 0 1
-13.241425 15.065974 32.007545 37.773030 -0.849764 0.559793 0.050137 -0.025534 61917.100000 0 0 1
-14.223225 14.530374 32.855697 38.638436 -0.796080 0.554171 0.051063 -0.022992 -297376.000000 0 0 1
-14.110025 12.960174 33.013507 38.170022 -0.742947 0.525832 0.041169 -0.013156 64668.800000 0 0 1
-14.572025 12.331174 31.878535 37.157001 -0.702297 0.539547 0.037048 -0.021490 -143862.000000 0 0 1
-13.442525 11.809674 31.245515 36.006278 -0.720826 0.520080 0.036660 -0.013238 -244259.000000 0 0 1
-13.654825 11.254674 29.801795 34.659326 -0.689340 0.535822 0.039005 -0.013933 -96295.200000 0 0 1
-14.241525 9.961074 29.824035 34.518359 -0.610349 0.527626 0.033902 -0.012228 -15569.000000 0 0 1
-14.375725 9.517774 28.485925 33.297108 -0.584815 0.544266 0.028330 -0.010185 552825.000000 0 0 1
-15.258325 8.203374 28.423345 33.286609 -0.493299 0.547368 0.029120 -0.003266 683997.000000 0 0 1
-14.506025 7.004974 28.720285 32.929458 -0.449875 0.511163 0.008930 -0.003310 253857.000000 0 0 1
-15.166125 5.770774 28.391435 32.701479 -0.363588 0.519232 0.014009 0.001231 -561877.000000 0 0 1
-14.245525 4.584074 28.387925 32.090855 -0.311326 0.485137 0.018079 0.001327 -740877.000000 0 0 1
-13.331025 4.535574 27.336365 30.750032 -0.327942 0.475669 0.018413 -0.007773 -449047.000000 0 0 1
-13.826425 4.520174 26.001625 29.794068 -0.315970 0.510068 0.030124 -0.009100 -270948.000000 0 0 1
-12.682825 4.438874 24.946725 28.335432 -0.336667 0.494076 0.022127 0.003936 -53573.300000 0 0 1
-11.938425 3.252974 24.911615 27.815398 -0.266021 0.461007 0.014233 -0.005174 -230598.000000 0 0 1
-11.226825 3.138674 23.717755 26.427727 -0.272609 0.456826 0.015052 -0.003205 -504173.000000 0 0 1
-10.404825 1.838974 23.677025 25.927663 -0.174936 0.419739 0.017363 -0.012536 -71894.500000 0 0 1
-9.029925 2.031374 23.939335 25.666277 -0.221277 0.368925 0.012963 -0.019153 -26567.500000 0 0 1
-8.353625 0.836374 24.179865 25.595867 -0.099789 0.334183 -0.003590 -0.009661 395974.000000 0 0 1
-6.805525 1.023574 24.129545 25.091788 -0.149284 0.277836 0.025400 -0.018737 -281078.000000 0 0 1
-6.289325 1.205374 22.829265 23.710417 -0.189358 0.273480 0.024782 -0.017694 476775.000000 0 1 0
-4.911525 1.542774 22.674165 23.251258 -0.304354 0.223263 0.023343 -0.017944 617341.000000 0 1 0
-4.499625 2.904574 23.265845 23.874311 -0.573216 0.226253 0.040447 -0.019191 -832980.000000 0 1 0
-4.636525 2.995974 24.691165 25.300728 -0.573677 0.219955 0.047934 -0.020314 -39342.700000 0 0 1
-4.263325 4.241274 25.304005 26.008787 -0.782805 0.233329 0.046484 -0.019923 -230660.000000 0 0 1
5.045175 -23.477226 13.110000 27.358838 -1.359119 1.071068 0.063706 -0.010477 340802.000000 0 0 1
4.564475 -24.816426 13.068200 28.415969 -1.388900 1.092926 0.079442 -0.029553 -520508.000000 0 0 1
3.166975 -24.934726 13.140500 28.362705 -1.444462 1.089079 0.092998 -0.030653 -162037.000000 0 0 1
2.673275 -26.195426 13.865600 29.759059 -1.469097 1.086112 0.088484 -0.034826 -83210.800000 0 0 1
2.898075 -26.222266 15.211500 30.453174 -1.460723 1.047770 0.076133 -0.029030 -59227.300000 0 0 1
2.512675 -27.477726 15.786400 31.789139 -1.479606 1.051122 0.075998 -0.027219 -89374.800000 0 0 1
2.170475 -27.423476 17.330300 32.513033 -1.491814 1.008623 0.062906 -0.021226 624398.000000 0 0 1
3.206175 -26.959106 18.228100 32.700712 -1.452425 0.979519 0.069427 -0.028066 691236.000000 0 0 1
2.824475 -27.259466 19.593400 33.689130 -1.467550 0.950109 0.061078 -0.023910 199688.000000 0 0 1
3.435775 -26.328276 20.667300 33.646990 -1.441032 0.909375 0.060249 -0.022586 -58722.600000 0 0 1
2.800575 -25.075966 20.708300 32.641706 -1.459574 0.883548 0.054724 -0.019446 -135866.000000 0 0 1
3.401775 -24.344326 21.736000 32.812680 -1.431959 0.846743 0.061682 -0.024509 -251516.000000 0 0 1
2.613475 -23.163626 22.343500 32.289562 -1.458445 0.806578 0.063694 -0.024963 -133203.000000 0 0 1
2.305175 -21.988626 21.554300 30.877198 -1.466343 0.798104 0.056817 -0.022500 -449536.000000 0 0 1
3.405475 -21.295226 21.070500 30.150454 -1.412222 0.797015 0.058156 -0.012304 -546522.000000 0 0 1
3.005975 -20.143126 20.132800 28.637581 -1.422659 0.791161 0.040437 -0.009567 -5546.270000 0 0 1
2.541375 -19.035526 20.822500 28.326425 -1.438074 0.744995 0.023572 -0.011265 -90649.500000 0 0 1
2.018975 -18.070626 19.946800 26.990714 -1.459531 0.739175 0.005763 -0.017956 -82189.600000 0 0 1
1.671075 -16.742226 20.590800 26.590894 -1.471314 0.685101 0.041845 -0.012250 -302808.000000 0 0 1
2.627275 -15.729326 20.586900 26.041020 -1.405294 0.659079 -0.002136 0.005355 -749805.000000 0 0 1
1.992875 -14.603326 20.980500 25.640009 -1.435167 0.612398 0.017039 0.002573 -65666.800000 0 0 1
2.832575 -13.298226 20.894700 24.928995 -1.360929 0.576880 -0.009361 0.010636 -427969.000000 0 1 0
3.225275 -12.821226 19.614300 23.653900 -1.324352 0.593085 -0.024041 0.001257 54321.800000 0 1 0
2.249275 -12.532526 18.605300 22.545080 -1.393212 0.600154 -0.017391 -0.007640 929535.000000 0 1 0
1.130675 -11.465826 18.879700 22.117565 -1.472501 0.547926 -0.013100 -0.017131 430324.000000 0 1 0
1.773575 -10.205326 18.868800 21.525006 -1.398726 0.502048 -0.005592 -0.011972 -79362.800000 0 1 0
1.484175 -9.414726 20.019100 22.172149 -1.414439 0.444341 0.005875 -0.010664 1188120.000000 0 1 0
-0.028625 -8.947826 20.141700 22.039793 1.567597 0.418059 0.008043 -0.011945 1186570.000000 0 1 0
-0.421025 -8.101126 21.195300 22.694630 1.518872 0.365530 0.014577 -0.018371 -901976.000000 0 1 0
-1.732825 -7.646326 21.180100 22.584632 1.347939 0.354529 0.022468 -0.020148 -561295.000000 0 1 0
-2.053325 -6.902126 22.514700 23.638257 1.281642 0.309557 0.027929 -0.011383 -102648.000000 0 1 0
-2.317325 -7.841526 23.553800 24.932730 1.283455 0.334136 0.027731 -0.007049 46210.200000 0 1 0
-2.460925 -7.242026 24.824800 25.976408 1.243227 0.298879 0.034615 -0.004231 -95088.700000 0 0 1
-2.591225 -8.177726 26.049900 27.426027 1.263941 0.318123 0.038253 -0.006803 -308953.000000 0 0 1
-1.418125 -8.930426 26.205600 27.721780 1.413314 0.332261 0.038880 -0.011694 -362414.000000 0 0 1
-1.497625 -10.062226 27.076200 28.924244 1.423045 0.359402 0.055535 -0.016536 -136928.000000 0 0 1
-0.234525 -10.949226 27.130100 29.257185 1.549380 0.383670 0.060067 -0.019295 101070.000000 0 0 1
0.763375 -10.522826 28.023200 29.943486 -1.498378 0.360077 0.059642 -0.016777 -295931.000000 0 0 1
1.875775 -11.396126 28.003900 30.292056 -1.407661 0.391170 0.062338 -0.018500 -20007.900000 0 0 1
3.007475 -10.871426 28.909700 31.032299 -1.300906 0.372005 0.075097 -0.019228 -169250.000000 0 0 1
2.606875 -10.618026 30.244700 32.160226 -1.330044 0.346880 0.075333 -0.027477 -244614.000000 0 0 1
3.644175 -10.121926 31.031900 32.843755 -1.225216 0.333709 0.081332 -0.017150 -129461.000000 0 0 1
3.096875 -10.008726 32.477800 34.125837 -1.270722 0.312047 0.079862 -0.019824 -47862.900000 0 0 1
3.020775 -11.258026 33.162400 35.151288 -1.308649 0.338002 0.073541 -0.021119 276249.000000 0 0 1
2.651575 -11.178626 -33.589765 35.500209 -1.337900 2.812033 0.072505 -0.019250 596064.000000 0 0 1
3.758575 -10.494126 -32.674465 34.523531 -1.226871 2.812823 0.044978 -0.003150 586867.000000 0 0 1
3.574275 -9.096326 -32.732965 34.160878 -1.196394 2.851440 0.050775 -0.010189 410126.000000 0 0 1
4.273575 -8.480626 -31.658565 33.052219 -1.104016 2.850165 0.058327 -0.006973 92179.500000 0 0 1
3.491775 -7.233026 -31.160865 32.179320 -1.121040 2.889332 0.054483 -0.007832 80266.400000 0 0 1
3.484575 -6.220126 -32.134465 32.915894 -1.060148 2.923259 0.083661 -0.009650 623390.000000 0 0 1
2.502175 -5.195826 -31.850665 32.368539 -1.121998 2.962472 0.065696 -0.003872 592696.000000 0 0 1
2.601675 -4.015026 -32.824265 33.171094 -0.995839 2.996858 0.079416 -0.005467 -100187.000000 0 0 1
1.989475 -4.130626 -34.061965 34.369136 -1.121944 3.007796 0.081941 -0.011643 -327661.000000 0 0 1
2.001475 -2.935326 33.342100 33.530847 -0.972350 0.106154 0.112621 -0.003886 234187.000000 0 0 1
1.326275 -3.037426 31.953200 32.124632 -1.159104 0.103356 0.099561 -0.008055 1076880.000000 0 0 1
-0.099825 -3.199026 31.985700 32.145431 1.539602 0.099731 0.079707 -0.016004 510312.000000 0 0 1
-0.610125 -3.751726 30.761100 30.995048 1.409583 0.122942 0.093412 -0.020426 43924.300000 0 0 1
-2.143525 -3.665226 30.818700 31.109819 1.041608 0.136912 0.065339 -0.020733 -74572.500000 0 0 1
-2.717925 -2.453326 30.333600 30.553776 0.734275 0.120124 0.059427 -0.021995 -635675.000000 0 0 1
-4.105925 -2.576426 30.307500 30.692689 0.560388 0.158595 0.050078 -0.021856 -425189.000000 0 0 1
-4.841125 -1.419726 29.586700 30.013746 0.285265 0.168892 0.041218 -0.024105 -225553.000000 0 0 1
-4.690525 -1.331426 28.138000 28.557324 0.276579 0.171579 0.032931 -0.017930 -424658.000000 0 0 1
-5.694425 -0.650526 27.433000 28.025331 0.113746 0.205963 0.012938 -0.017289 9902.250000 0 0 1
-5.975125 0.888874 27.750800 28.400689 -0.147679 0.214339 0.033377 -0.016554 -200985.000000 0 0 1
-6.888725 0.997074 28.791100 29.620536 -0.143742 0.237208 0.033763 -0.018746 -690312.000000 0 0 1
-7.278225 2.330774 29.029000 30.018126 -0.309920 0.257424 0.038892 -0.021873 -543854.000000 0 0 1
-8.723425 2.357174 29.526900 30.878670 -0.263909 0.296985 0.041807 -0.017188 -216606.000000 0 0 1
-9.586925 1.782374 28.538700 30.158637 -0.183818 0.329247 0.018083 -0.010967 -718222.000000 0 0 1
-10.876225 2.289574 28.600300 30.684061 -0.207482 0.370656 0.011369 -0.002843 -1030280.000000 0 0 1
-11.779325 1.445374 27.707200 30.141840 -0.122094 0.404683 0.013585 0.000611 -412377.000000 0 0 1
-12.192225 0.228674 28.276400 30.793789 -0.018754 0.407158 0.012886 0.001126 -58049.300000 0 0 1
-12.550325 -0.718426 27.342200 30.093566 0.057181 0.430941 0.012254 0.004625 -953315.000000 0 0 1
-12.306425 -2.183326 27.805300 30.485238 0.175586 0.422442 0.014017 0.003882 105615.000000 0 0 1
-11.015825 -2.621026 28.187300 30.376670 0.233589 0.381987 0.019789 -0.008707 655642.000000 0 0 1
-9.887425 -2.469226 27.320200 29.159074 0.244728 0.357037 0.009923 -0.002505 80330.200000 0 0 1
-9.888925 -3.150126 25.927600 27.927667 0.308388 0.380756 0.003511 -0.003101 -601719.000000 0 0 1
-10.850325 -2.622626 25.017200 27.394671 0.237161 0.419693 -0.003209 0.002430 415569.000000 0 0 1
-10.745525 -3.145826 23.636000 26.153834 0.284799 0.442393 0.007309 -0.005217 -137096.000000 0 0 1
-9.628425 -2.460026 22.807800 24.878787 0.250145 0.410912 0.006861 -0.002405 -255367.000000 0 1 0
-8.333525 -2.639926 23.267300 24.855263 0.306783 0.359390 0.014071 -0.007167 -1049710.000000 0 1 0
-7.413625 -2.106826 22.344300 23.636165 0.276883 0.332149 0.010362 -0.004989 -708848.000000 0 1 0
-5.965625 -2.337226 22.743600 23.628852 0.373402 0.274595 0.015805 -0.004740 -560023.000000 0 1 0
-5.508725 -3.678226 22.520900 23.474802 0.588724 0.286054 0.025351 -0.011080 -75656.100000 0 1 0
-5.771325 -4.521026 23.613800 24.725683 0.664512 0.301031 0.019215 -0.008869 -108313.000000 0 1 0
-5.644225 -6.032026 23.294000 24.715442 0.818599 0.340800 0.026654 -0.008069 146803.000000 0 1 0
-6.605025 -6.480226 22.337300 24.177979 0.775861 0.392725 0.036345 -0.012263 297161.000000 0 1 0
-6.080125 -6.286426 21.041000 22.786197 0.802079 0.393924 0.027337 -0.007717 -197669.000000 0 1 0
-7.161025 -6.329426 19.963400 22.133216 0.723833 0.446496 0.028356 -0.009553 -329240.000000 0 1 0
-8.084825 -5.297726 20.140200 22.339605 0.580070 0.447465 0.024820 -0.009700 -934149.000000 0 1 0
-8.958325 -5.148726 19.085100 21.702581 0.521640 0.496210 0.029346 -0.006286 67719.700000 0 1 0
-9.737525 -3.781826 19.151400 21.815080 0.370446 0.499343 0.026748 -0.009908 405423.000000 0 1 0
-9.088625 -2.641626 18.552300 20.827125 0.282859 0.471747 0.026265 -0.016644 -246764.000000 0 1 0
-9.703025 -1.440026 18.782500 21.189730 0.147335 0.481295 0.020480 -0.006131 -415489.000000 0 1 0
-8.795525 -0.326226 18.198100 20.214810 0.037073 0.450485 0.023921 -0.007782 -312628.000000 0 1 0
-7.555725 -0.086326 18.786900 20.249544 0.011425 0.382407 0.017374 -0.007913 -315787.000000 0 1 0
-7.624425 0.704574 19.945000 21.364253 -0.092148 0.366552 0.023556 -0.010925 -301106.000000 0 1 0
-7.490525 2.216074 19.639700 21.136148 -0.287645 0.378555 0.024658 -0.022259 -420529.000000 0 1 0
-8.577325 2.733174 18.872200 20.909344 -0.308479 0.445089 0.017550 -0.021696 407087.000000 0 1 0
-8.514725 4.133474 18.798600 21.046936 -0.451940 0.466439 0.020321 -0.015622 31464.300000 0 1 0
-9.445625 4.684074 17.688500 20.592314 -0.460361 0.537511 0.025727 -0.011286 -110151.000000 0 1 0
-10.816025 4.595774 18.043300 21.532956 -0.401789 0.577301 0.023741 -0.003959 -567617.000000 0 1 0
-11.646325 5.189774 17.146000 21.367170 -0.419201 0.639413 0.021010 0.010995 -508024.000000 0 1 0
-11.748425 6.778474 17.224400 21.923803 -0.523313 0.667053 0.030655 0.015298 -869601.000000 0 1 0
-10.580025 7.429274 16.774600 21.178249 -0.612200 0.656608 0.033383 0.006434 221258.000000 0 1 0
-10.782025 8.818874 16.897100 21.898324 -0.685575 0.689418 0.035220 -0.000409 -83373.300000 0 1 0
-9.496525 9.642674 16.706600 21.500596 -0.793034 0.680863 0.025840 -0.000792 -298075.000000 0 1 0
-8.751525 9.699074 17.919600 22.175962 -0.836709 0.629938 0.031406 0.009083 402931.000000 0 1 0
-7.588325 10.525974 17.921800 22.126222 -0.946171 0.626678 0.027414 -0.001148 698067.000000 0 1 0
-7.979225 12.021674 17.728100 22.857695 -0.984825 0.683154 0.023295 0.004586 -680652.000000 0 1 0
-8.220025 12.400274 16.408900 22.149212 -0.985413 0.736484 0.024430 -0.008948 -342152.000000 0 1 0
-8.829925 13.669674 16.406000 23.108102 -0.997274 0.781344 0.033165 -0.008754 83899.200000 0 1 0
-8.772925 14.294874 15.030400 22.521558 -1.020356 0.840113 0.039962 -0.001945 887199.000000 0 1 0
-7.441325 14.572274 14.579700 21.915568 -1.098665 0.842945 0.037268 -0.006893 351116.000000 0 1 0
-7.455625 15.218974 13.350200 21.573858 -1.115269 0.903565 0.030184 -0.013925 -70652.600000 0 1 0
-6.456525 16.406574 13.275700 22.070492 -1.195878 0.925402 0.002075 -0.001680 -267683.000000 0 1 0
-5.108925 16.089474 13.372800 21.536111 -1.263334 0.900845 -0.002339 -0.012470 -1262380.000000 0 1 0
-4.347625 17.251174 13.388700 22.265717 -1.323918 0.925651 0.002540 -0.016001 1619340.000000 0 1 0
-2.762025 17.006574 13.461300 21.864559 -1.409793 0.907563 0.007650 -0.020663 1634920.000000 0 1 0
-2.208725 16.606874 14.677800 22.273405 -1.438572 0.851330 0.004145 -0.017023 -130998.000000 0 1 0
-2.546225 15.238774 15.036500 21.559217 -1.405237 0.798962 -0.003126 -0.009926 -552294.000000 0 1 0
-1.492725 14.615374 15.954500 21.688325 -1.469015 0.744206 -0.008342 -0.004936 735881.000000 0 1 0
-0.223925 14.321574 15.300800 20.958819 -1.555162 0.752414 -0.012975 -0.015438 921668.000000 0 1 0
0.743675 13.809674 16.209300 21.307312 1.516997 0.706346 -0.007292 -0.005032 156365.000000 0 1 0
1.638375 14.886274 16.889400 22.572932 1.461178 0.725429 -0.005290 -0.008035 -624302.000000 0 1 0
0.890575 15.622374 17.773600 23.680215 1.513852 0.721876 -0.013461 -0.006717 -702524.000000 0 1 0
1.669375 16.503474 18.537400 24.875423 1.469986 0.729947 0.002240 -0.009150 -189369.000000 0 1 0
0.833875 17.682974 19.089100 26.034144 1.523674 0.747732 0.013254 -0.011107 306016.000000 0 0 1
0.430275 18.715274 18.212100 26.117565 1.547810 0.799155 0.001146 -0.009252 333677.000000 0 0 1
-0.580325 18.441874 17.231100 25.245798 -1.539339 0.819573 0.009471 -0.009888 -67145.500000 0 0 1
-1.126025 19.624874 16.443500 25.627960 -1.513482 0.874183 -0.002369 -0.003731 53542.900000 0 0 1
-1.918025 20.558974 17.168600 26.853511 -1.477772 0.877153 -0.003830 -0.002013 344279.000000 0 0 1
-2.930525 21.153874 16.357700 26.900720 -1.433139 0.917161 0.012661 -0.012832 -430869.000000 0 0 1
-3.548125 22.399374 17.060000 28.378949 -1.413699 0.925857 0.007965 -0.003305 16910.700000 0 0 1
-4.601125 21.963174 17.913500 28.713148 -1.364290 0.897101 0.018928 -0.006560 -19346.600000 0 0 1
-4.833925 22.900874 18.957200 30.119633 -1.362770 0.890020 0.019523 -0.010574 368636.000000 0 0 1
-5.982225 22.586374 19.971100 30.737211 -1.311882 0.863558 0.024327 -0.018650 469409.000000 0 0 1
-7.293925 22.664774 19.470100 30.756757 -1.259445 0.885329 0.025460 -0.017030 126378.000000 0 0 1
-8.286525 22.329374 20.435400 31.382687 -1.215446 0.861674 0.010395 -0.018110 432475.000000 0 0 1
-9.780425 22.485574 20.120300 31.718831 -1.160516 0.883651 0.028781 -0.018620 -64663.500000 0 0 1
-10.108225 23.865074 20.079800 32.785917 -1.170148 0.911638 0.035739 -0.016091 -627434.000000 0 0 1
-11.187125 24.000374 19.215000 32.716753 -1.134616 0.943060 0.029638 -0.015485 -182659.000000 0 0 1
-11.936725 25.376974 19.337600 34.064923 -1.131127 0.967125 0.035857 -0.013662 290473.000000 0 0 1
-12.509725 25.572974 20.658600 35.174536 -1.115844 0.943057 0.033427 -0.017212 100755.000000 0 0 1
-13.158325 26.797774 20.688100 36.321615 -1.114356 0.964800 0.044225 -0.015393 348478.000000 0 0 1
-14.200725 27.121174 21.853300 37.613633 -1.088445 0.950847 0.053710 -0.021805 900699.000000 0 0 1
-15.340525 26.254274 21.880300 37.461529 -1.041997 0.947058 0.040599 -0.024699 425700.000000 0 0 1
-16.124825 26.593874 23.025300 38.696364 -1.025731 0.933500 0.030255 -0.015278 254412.000000 0 0 1
-17.565425 26.041874 22.897300 38.871708 -0.977385 0.940916 0.043670 -0.017821 53588.600000 0 0 1
-17.737325 24.724474 23.257000 38.298830 -0.948488 0.918200 0.059703 -0.024443 -183508.000000 0 0 1
-19.088925 24.325074 23.194800 38.653525 -0.905428 0.927208 0.071491 -0.017092 -92195.000000 0 0 1
27.905475 23.770774 23.505475 43.546212 0.705557 1.000618 0.076217 -0.013425 137961.000000 0 0 1
27.449275 23.075074 24.668785 43.525518 0.699037 0.968221 0.074126 -0.026147 143390.000000 0 0 1
27.076475 21.771874 24.250285 42.370111 0.677229 0.961435 0.074689 -0.017695 -200225.000000 0 0 1
26.633375 20.882074 25.417135 42.325270 0.664943 0.926646 0.093075 -0.018762 148656.000000 0 0 1
25.363475 21.291274 25.897485 42.039315 0.698335 0.907103 0.089208 -0.018201 146116.000000 0 0 1
25.179975 20.648374 27.125435 42.381314 0.686837 0.876255 0.085590 -0.018306 -744918.000000 0 0 1
23.877875 20.968274 27.815615 42.231859 0.720609 0.851786 0.096480 -0.026142 -867388.000000 0 0 1
23.697975 22.344074 28.088455 43.009452 0.756001 0.859157 0.093584 -0.038738 444576.000000 0 0 1
22.583875 22.586574 28.972545 43.123000 0.785458 0.834081 0.131140 -0.040622 357290.000000 0 0 1
22.295475 23.979774 29.705485 44.210108 0.821780 0.834003 0.114250 -0.044531 -276860.000000 0 0 1
21.756475 25.021474 28.963225 44.025979 0.855083 0.852814 0.087765 -0.044491 -105554.000000 0 0 1
21.632375 26.177674 29.757355 45.152303 0.880183 0.851249 0.088033 -0.049913 -576594.000000 0 0 1
20.273075 26.393274 30.443075 45.104139 0.915802 0.829898 0.091503 -0.042378 -952527.000000 0 0 1
19.267775 26.614774 29.440435 44.117259 0.944176 0.840189 0.092146 -0.047922 720906.000000 0 0 1
18.016375 26.997374 30.031665 44.219327 0.982329 0.824189 0.075380 -0.048793 526679.000000 0 0 1
17.172175 25.789274 30.459755 43.448440 0.983349 0.793920 0.062687 -0.032722 -846250.000000 0 0 1
17.583775 25.187574 31.673475 44.122693 0.961338 0.770087 0.061803 -0.032454 122737.000000 0 0 1
16.423675 24.830674 32.396636 43.998199 0.986430 0.743185 0.041980 -0.017202 142051.000000 0 0 1
16.689775 24.298474 33.830211 44.871457 0.968940 0.716763 0.050133 -0.016923 -414634.000000 0 0 1
17.125375 25.280774 -33.457590 45.296869 0.975395 2.401831 0.059097 -0.023748 49481.300000 0 0 1
17.283875 24.937274 -32.097460 44.168393 0.964720 2.384312 0.042674 -0.015501 -140184.000000 0 0 1
17.874975 26.081674 -31.263420 44.465379 0.969973 2.350538 0.041145 -0.003802 -239343.000000 0 0 1
16.925475 27.090374 -31.043930 44.543077 1.012357 2.341920 0.046608 -0.008765 -25740.000000 0 0 1
17.426875 28.244774 -30.432470 45.028863 1.017974 2.312905 0.052932 -0.009774 -273350.000000 0 0 1
16.876575 28.532474 -29.046920 44.075440 1.036660 2.290321 0.064102 -0.009715 -249199.000000 0 0 1
17.162475 27.488774 -28.138220 42.917860 1.012668 2.285812 0.048053 -0.006573 191344.000000 0 0 1
16.877075 27.780874 -26.755390 42.100636 1.024875 2.259466 0.031240 0.004915 -648936.000000 0 0 1
17.541175 26.880474 -25.714240 41.127544 0.992622 2.246225 0.023322 0.014938 -126552.000000 0 0 1
18.935575 27.138474 -25.755050 41.932987 0.961589 2.232162 0.036565 0.013737 -596066.000000 0 0 1
19.492675 26.590774 -24.615000 41.145253 0.938224 2.212107 0.038076 0.012252 -425956.000000 0 0 1
21.008775 26.810174 -24.606200 42.019271 0.906128 2.196408 0.033522 0.013955 420232.000000 0 0 1
21.769275 26.063074 -23.602400 41.355271 0.874926 2.178182 0.041274 0.017096 -303608.000000 0 0 1
23.025275 25.609474 -23.963500 41.955426 0.838483 2.178722 0.047955 0.019860 -768276.000000 0 0 1
24.005775 25.637074 -22.799600 41.873125 0.818247 2.146580 0.060893 0.018114 -238556.000000 0 0 1
23.607175 24.731974 -21.808000 40.553152 0.808663 2.138578 0.057217 0.018554 11071.400000 0 0 1
24.298775 24.922474 -20.610000 40.451604 0.798069 2.105397 0.054401 0.026145 -130985.000000 0 0 1
23.797975 23.885074 -19.624700 39.012424 0.787225 2.097906 0.048053 0.019485 -534902.000000 0 0 1
24.257575 22.575574 -19.898500 38.652772 0.749499 2.111572 0.056252 0.016013 381975.000000 0 0 1
23.793475 21.773474 -18.816700 37.340084 0.741097 2.098936 0.055357 0.006050 -442734.000000 0 0 1
24.060475 20.224974 -18.964200 36.709630 0.699005 2.113672 0.078202 0.004191 394144.000000 0 0 1
23.215575 19.520974 -19.877600 36.265002 0.699162 2.150912 0.061864 0.002888 560541.000000 0 0 1
21.823875 19.448574 -19.631300 35.212448 0.727910 2.162180 0.060811 -0.006146 -147028.000000 0 0 1
20.974675 19.091874 -20.873300 35.215498 0.738441 2.205241 0.056807 0.001951 97134.200000 0 0 1
20.746075 20.073074 -21.931200 36.253351 0.768912 2.220490 0.055743 0.004126 -14303.500000 0 0 1
20.528875 21.434374 -21.502200 36.649853 0.806973 2.197765 0.049718 0.006423 -258252.000000 0 0 1
20.355675 22.353274 -22.752900 37.838034 0.832136 2.215953 0.050145 0.010295 118764.000000 0 0 1
19.074275 22.106574 -23.280200 37.342955 0.858899 2.243900 0.059226 -0.000600 -370561.000000 0 0 1
18.918675 22.606874 -24.600600 38.395007 0.873983 2.266237 0.051970 0.004011 109523.000000 0 0 1
17.393975 22.645474 -24.867300 37.864898 0.915812 2.287281 0.043616 -0.003946 -21556.300000 0 0 1
16.802075 23.629374 -24.045900 37.667789 0.952681 2.263172 0.040425 -0.001356 -799324.000000 0 0 1
15.417775 23.533274 -24.184900 37.100299 0.990811 2.280856 0.050125 -0.009566 -449599.000000 0 0 1
14.696275 24.626374 -23.348400 36.980895 1.032755 2.254107 0.043914 -0.006426 4143.310000 0 0 1
14.892775 25.954774 -23.837200 38.257773 1.049866 2.243456 0.029364 0.002064 -85108.900000 0 0 1
13.925375 26.809874 -23.306700 38.156096 1.091740 2.227899 0.056238 -0.002100 -108534.000000 0 0 1
13.984175 28.225174 -23.933800 39.560642 1.110795 2.220550 0.051060 -0.009863 38529.300000 0 0 1
13.856175 28.151974 -25.367390 40.348875 1.113415 2.250678 0.057016 -0.024979 -116814.000000 0 0 1
13.301775 29.341774 -25.953000 41.369495 1.145169 2.248937 0.083201 -0.033992 53632.800000 0 0 1
14.151575 30.644974 -25.893850 42.542602 1.138180 2.225163 0.091295 -0.033270 504607.000000 0 0 1
15.203075 30.703274 -26.877110 43.545420 1.111027 2.236001 0.059084 -0.015186 282516.000000 0 0 1
15.818175 31.975574 -26.917920 44.690339 1.111401 2.217202 0.069163 -0.020576 -151082.000000 0 0 1
17.289875 31.851274 -27.344860 45.400273 1.073473 2.217183 0.048874 0.000843 64363.200000 0 0 1
18.218875 31.359974 -26.378410 44.846359 1.044495 2.199622 0.015548 0.010450 -15995.400000 0 0 1
19.450475 31.133974 -26.985770 45.561794 1.012388 2.204694 0.026833 0.010229 -1257700.000000 0 0 1
20.478075 30.289274 -26.251870 45.010581 0.976303 2.193505 0.011634 0.018750 -698624.000000 0 0 1
20.881675 30.774674 -25.001260 44.812810 0.974623 2.162655 0.020506 0.015151 402885.000000 0 0 1
21.678475 32.001474 -25.025890 46.047213 0.975385 2.145378 0.017859 0.004564 1288800.000000 0 0 1
23.204575 31.945174 -25.486450 46.994740 0.942579 2.143999 0.011641 0.009583 894274.000000 0 0 1
23.313075 31.451574 -26.797500 47.442671 0.932927 2.171035 0.008194 0.012918 296228.000000 0 0 1
24.605075 31.589974 -27.385030 48.510577 0.909061 2.170644 0.003836 0.018774 -29194.000000 0 0 1
24.561975 31.054174 -28.876770 49.005308 0.901604 2.200936 0.018056 0.009210 -67474.100000 0 0 1
23.694975 31.747374 -29.758550 49.547138 0.929629 2.215061 0.029060 -0.007869 -468646.000000 0 0 1
22.460475 31.091474 -29.809980 48.577645 0.945195 2.231479 0.020118 -0.012323 -856341.000000 0 0 1
21.476775 31.876474 -30.678890 49.178814 0.977906 2.244421 0.017149 -0.006702 -826296.000000 0 0 1
20.845575 32.990174 -30.052920 49.255128 1.007270 2.227044 0.032694 -0.006837 -172311.000000 0 0 1
19.925175 33.638274 -30.843610 49.798337 1.036031 2.238737 0.043232 -0.016569 -359664.000000 0 0 1
18.456275 33.158974 -30.752600 48.845410 1.062900 2.251822 0.053587 -0.022522 -460904.000000 0 0 1
18.145175 31.813874 -31.135770 48.070845 1.052461 2.275366 0.075567 -0.035331 100120.000000 0 0 1
18.294375 31.292974 -32.480650 48.671624 1.041765 2.301431 0.084666 -0.038001 -391695.000000 0 0 1
17.645175 32.079174 -33.680640 49.747474 1.067914 2.314519 0.106495 -0.045316 -307071.000000 0 0 1
18.092575 33.415774 -33.853110 50.891928 1.074550 2.298553 0.087780 -0.037703 111379.000000 0 0 1
17.718375 34.071874 33.080614 50.686887 1.091254 0.859724 0.083550 -0.039721 765741.000000 0 0 1
16.208375 -33.718807 32.922337 49.835225 -1.122714 0.849147 0.095353 -0.038594 906594.000000 0 0 1
15.376075 33.413374 32.490950 49.076869 1.139511 0.847256 0.096223 -0.040402 282354.000000 0 0 1
13.998275 33.571374 32.775403 48.961372 1.175746 0.837377 0.086984 -0.037783 199238.000000 0 0 1
13.210475 34.068674 31.576325 48.293431 1.200886 0.858144 0.081299 -0.034607 -988983.000000 0 0 1
13.736875 -32.979907 30.997635 47.299359 -1.176128 0.856150 0.102011 -0.029310 -109702.000000 0 0 1
12.981175 -32.407807 29.970475 46.010936 -1.189810 0.861398 0.107512 -0.034479 -458534.000000 0 0 1
13.363775 -31.006407 29.502875 44.837567 -1.163854 0.852644 0.105655 -0.033289 -196174.000000 0 0 1
13.137375 -30.030807 30.474895 44.756667 -1.158417 0.821803 0.101286 -0.038849 408828.000000 0 0 1
13.477875 -28.729307 29.979105 43.655159 -1.132146 0.813822 0.117557 -0.044945 -272628.000000 0 0 1
13.372375 -27.637207 31.083335 43.689923 -1.120149 0.779232 0.101830 -0.032533 1234870.000000 0 0 1
11.989675 -27.350707 31.402965 43.335432 -1.157658 0.760272 0.087426 -0.028001 1689290.000000 0 0 1
11.167175 -26.416907 30.653595 41.978586 -1.170851 0.752153 0.062117 -0.033728 257440.000000 0 0 1
11.416475 -24.896507 30.794365 41.212436 -1.140849 0.726942 0.048888 -0.024647 -288695.000000 0 0 1
10.934475 -24.411907 32.026795 41.727923 -1.149677 0.695841 0.064694 -0.024140 8382.570000 0 0 1
11.338775 -23.113407 32.283913 41.292232 -1.114720 0.673185 0.055520 -0.020313 176639.000000 0 0 1
10.459275 -22.492107 33.413060 41.613987 -1.135522 0.638604 0.055311 -0.021082 -311600.000000 0 0 1
10.321175 -23.167607 -33.465900 41.990846 -1.151691 2.493076 0.058556 -0.021745 915544.000000 0 0 1
11.471175 -23.534907 -32.636620 41.840515 -1.117270 2.465501 0.060123 -0.017037 1179870.000000 0 0 1
12.367175 -22.333707 -32.171040 41.069664 -1.065083 2.470799 0.058648 -0.022328 532204.000000 0 0 1
13.046775 -21.532307 -33.198900 41.665640 -1.026038 2.492766 0.047139 -0.017878 942611.000000 0 0 1
14.183475 -20.821707 -32.721010 41.296234 -0.972808 2.485445 0.049454 -0.022029 196642.000000 0 0 1
14.336775 -19.488807 -33.455700 41.287293 -0.936548 2.515485 0.041544 -0.020860 -560223.000000 0 0 1
14.776675 -19.639307 33.374574 41.447734 -0.925759 0.634749 0.061282 -0.010106 300509.000000 0 0 1
14.609475 -18.496207 32.573189 40.206456 -0.902267 0.626391 0.040241 -0.004615 -251314.000000 0 0 1
15.664275 -17.370307 32.731394 40.229855 -0.836996 0.620463 0.055840 -0.004720 -733790.000000 0 0 1
15.537975 -16.717007 33.958079 40.915011 -0.821935 0.591749 0.045333 -0.009802 429358.000000 0 0 1
16.120975 -15.400707 33.900687 40.574921 -0.762552 0.581739 0.059930 -0.006744 1045260.000000 0 0 1
17.690875 -15.352007 -34.034105 41.315511 -0.714733 2.538810 0.066623 -0.004494 1043510.000000 0 0 1
18.372175 -15.930207 32.996560 40.988795 -0.714329 0.635097 0.073711 -0.008983 124733.000000 0 0 1
19.767775 -15.978207 33.253479 41.855249 -0.679779 0.652633 0.092914 -0.007633 188413.000000 0 0 1
20.565775 -16.620907 32.096325 41.585812 -0.679711 0.689114 0.102339 -0.011572 -393653.000000 0 0 1
20.668875 -15.773107 30.968525 40.435663 -0.651854 0.698401 0.087946 -0.001807 39436.900000 0 0 1
21.314775 -16.444107 29.968835 40.284729 -0.657113 0.731871 0.078236 -0.003558 -896993.000000 0 0 1
21.821775 -15.625507 28.751795 39.332074 -0.621417 0.751008 0.058113 0.004721 264433.000000 0 0 1
22.751975 -14.603407 29.210895 39.801863 -0.570626 0.746739 0.042907 -0.002805 810557.000000 0 0 1
23.142875 -13.831207 28.085555 38.931907 -0.538686 0.764972 0.024480 -0.004889 205601.000000 0 0 1
23.848875 -12.530807 28.543935 39.249792 -0.483780 0.756507 0.024542 -0.000178 -163154.000000 0 0 1
22.876575 -11.558807 28.603765 38.407279 -0.467853 0.730638 0.042159 -0.003772 -309887.000000 0 0 1
23.440575 -10.294307 28.831835 38.557853 -0.413808 0.726122 0.029318 -0.011150 -224131.000000 0 0 1
22.455675 -9.093307 28.781875 37.621030 -0.384762 0.699681 0.044176 -0.011382 344390.000000 0 0 1
21.445575 -9.266107 29.771905 37.843622 -0.407848 0.665337 0.057623 -0.019286 -438668.000000 0 0 1
20.508575 -8.245107 29.724105 37.041947 -0.382257 0.639416 0.058374 -0.018612 -116921.000000 0 0 1
19.421675 -8.307107 30.836745 37.377993 -0.404175 0.600599 0.054870 -0.013143 69921.000000 0 0 1
19.786575 -7.887507 32.136525 38.554864 -0.379324 0.585335 0.058871 -0.018174 196075.000000 0 0 1
20.208875 -8.920707 33.051794 39.754229 -0.415700 0.589168 0.068392 -0.019348 -205618.000000 0 0 1
20.214175 -8.381407 -33.699360 40.180937 -0.393055 2.565670 0.057962 -0.025770 489813.000000 0 0 1
18.916575 -8.020507 -33.226000 39.065745 -0.401018 2.587760 0.049966 -0.027708 444553.000000 0 0 1
19.052275 -7.429007 -31.981950 37.960828 -0.371793 2.572701 0.039051 -0.029836 -500107.000000 0 0 1
17.798375 -6.724207 -31.501650 36.801509 -0.361222 2.598255 0.031789 -0.022639 -544553.000000 0 0 1
17.937475 -5.902607 -30.341550 35.737983 -0.317905 2.584886 0.019429 -0.019755 58397.100000 0 0 1
16.731575 -5.745807 -29.623030 34.503388 -0.330793 2.603240 0.017792 -0.013294 -24561.100000 0 0 1
16.883775 -4.704407 -28.482490 33.443169 -0.271742 2.589957 0.004600 -0.008540 -237593.000000 0 0 1
17.674875 -5.097107 -27.357770 32.967094 -0.280764 2.549637 0.005725 -0.011295 351634.000000 0 0 1
17.181375 -6.162907 -26.499700 32.177868 -0.344402 2.538417 0.027575 -0.011905 678828.000000 0 0 1
15.805675 -5.842807 -25.789340 30.806620 -0.354085 2.562823 0.031496 -0.009637 463812.000000 0 0 1
15.786275 -4.766007 -24.830000 29.806882 -0.293207 2.555357 0.002731 -0.004998 -140116.000000 0 0 1
14.482975 -4.630207 -24.277200 28.645730 -0.309431 2.582050 0.046309 -0.019243 65519.900000 0 0 1
14.422275 -3.403907 -23.332800 27.640698 -0.231776 2.575768 0.054087 -0.026578 -145459.000000 0 0 1
14.383675 -2.120907 -23.985100 28.047698 -0.146397 2.596644 0.030056 -0.028318 174672.000000 0 0 1
14.096975 -1.171907 -22.997700 26.999857 -0.082941 2.590153 0.051114 -0.034904 -149281.000000 0 0 1
14.473775 0.264093 -23.421500 27.534098 0.018244 2.587990 0.032893 -0.031617 55328.700000 0 0 1
13.711675 0.747093 -24.552400 28.131629 0.054432 2.631642 0.043206 -0.029593 457595.000000 0 0 1
14.273475 1.946093 -25.037160 28.885615 0.135508 2.619483 0.032883 -0.015383 -347800.000000 0 0 1
13.660875 2.479093 -26.334380 29.770203 0.179520 2.656407 0.020747 -0.007745 178630.000000 0 0 1
12.379875 3.039093 -26.066090 29.016176 0.240726 2.686749 0.036139 -0.024401 290822.000000 0 0 1
11.877475 3.654093 -27.219650 29.922168 0.298459 2.713313 0.041690 -0.018976 -158149.000000 0 0 1
10.553575 4.431093 -27.089710 29.408586 0.397515 2.741820 0.059988 -0.021245 -94653.100000 0 0 1
10.617475 5.656093 -26.422980 29.032672 0.489476 2.714350 0.045940 -0.036196 -194190.000000 0 0 1
9.524075 6.463093 -26.756740 29.127353 0.596223 2.735350 0.046385 -0.040720 -287270.000000 0 0 1
8.896675 5.164174 -31.476010 33.114328 0.525929 2.825719 0.066591 -0.026420 -164568.000000 0 0 1
8.667175 4.294974 -30.357400 31.861238 0.460077 2.833127 0.048936 -0.010409 436149.000000 0 0 1
8.292975 2.948674 -30.707370 31.943868 0.341622 2.862448 0.048478 -0.001533 -308814.000000 0 0 1
8.207775 1.909974 -29.555600 30.733517 0.228634 2.863837 0.059407 -0.008885 -175090.000000 0 0 1
9.394375 1.501074 -28.902350 30.427838 0.158445 2.823601 0.061822 -0.018478 244445.000000 0 0 1
9.103975 0.461374 -27.944780 29.393978 0.050635 2.826273 0.074732 -0.020186 -329597.000000 0 0 1
10.249375 0.092574 -27.019750 28.898532 0.009032 2.779019 0.067866 -0.028411 -388305.000000 0 0 1
11.283675 -0.644026 -27.629200 29.851445 -0.057014 2.753299 0.054138 -0.019074 392754.000000 0 0 1
12.226875 -1.136926 -26.653710 29.346368 -0.092719 2.709868 0.053668 -0.020926 221698.000000 0 0 1
13.099975 -2.245026 -27.228890 30.299537 -0.169728 2.687494 0.050423 -0.015251 -331570.000000 0 0 1
12.362775 -3.403126 -27.564420 30.400933 -0.268619 2.706181 0.073713 -0.016718 -363495.000000 0 0 1
13.123175 -4.522726 -27.836250 31.105138 -0.331889 2.679022 0.060968 -0.009627 -762382.000000 0 0 1
12.466275 -5.873426 -27.417220 30.685650 -0.440298 2.675846 0.083246 -0.006437 -171249.000000 0 0 1
12.159875 -5.833726 -26.012310 29.300771 -0.447318 2.663271 0.076361 -0.008426 -126639.000000 0 0 1
11.645075 -6.998826 -25.513550 28.905580 -0.541163 2.652270 0.083968 -0.011464 -219578.000000 0 0 1
11.116875 -6.830726 -24.082000 27.389532 -0.550974 2.645063 0.081661 -0.011583 -142734.000000 0 0 1
12.153975 -6.500926 -23.201000 26.986433 -0.491161 2.605534 0.045861 -0.006774 -299797.000000 0 0 1
11.674375 -6.422826 -21.876900 25.615278 -0.502969 2.594531 0.049814 -0.011844 124826.000000 0 0 1
12.755475 -6.334326 -20.766200 25.180566 -0.460921 2.540453 0.050334 -0.023128 213873.000000 0 0 1
13.317975 -5.051526 -20.661100 25.095167 -0.362536 2.538014 0.049024 -0.029899 -37630.500000 0 0 1
14.370975 -5.112226 -19.710300 24.922996 -0.341773 2.482990 0.059581 -0.031128 257869.000000 0 1 0
15.079975 -3.800426 -19.269100 24.761807 -0.246877 2.462556 0.075275 -0.031294 350684.000000 0 1 0
16.006575 -3.298526 -20.255900 26.026760 -0.203228 2.462706 0.073610 -0.026147 858513.000000 0 0 1
16.606875 -2.020726 -19.913000 26.007676 -0.121085 2.442861 0.082154 -0.021556 -13244.400000 0 0 1
17.655475 -1.475526 -20.866000 27.373033 -0.083380 2.437630 0.051195 -0.026082 776102.000000 0 0 1
18.912175 -2.184326 -20.847400 28.232176 -0.114989 2.401531 0.070677 -0.030172 392212.000000 0 0 1
19.892775 -1.617726 -21.622000 29.425337 -0.081144 2.396181 0.063063 -0.026874 458326.000000 0 0 1
21.200575 -2.489326 -21.832700 30.534045 -0.116883 2.367461 0.040578 -0.022203 7331.780000 0 0 1
22.030675 -2.471726 -20.688200 30.322627 -0.111728 2.321659 0.040819 -0.012732 571390.000000 0 0 1
23.398675 -2.790626 -20.920200 31.510956 -0.118704 2.296821 0.033285 -0.011836 759795.000000 0 0 1
24.274075 -1.844326 -21.794200 32.674446 -0.075834 2.300985 0.033566 -0.013509 -1120850.000000 0 0 1
23.884775 -1.763526 -23.194900 33.340604 -0.073701 2.340184 0.038310 -0.015185 215500.000000 0 0 1
24.845675 -1.146126 -24.037600 34.589412 -0.046097 2.339134 0.027769 -0.003302 -749448.000000 0 0 1
26.009075 -1.947526 -24.524300 35.800924 -0.074739 2.325426 0.025258 -0.008555 -1300040.000000 0 0 1
26.983575 -2.154526 -23.496000 35.844349 -0.079677 2.285642 0.031504 -0.003179 1290980.000000 0 0 1
28.201675 -2.862126 -23.877800 37.063130 -0.101141 2.270834 0.026492 0.004874 1338610.000000 0 0 1
29.165475 -2.004926 -24.723400 38.286958 -0.068635 2.272788 0.031987 -0.009618 -1348190.000000 0 0 1
28.727475 -1.927126 -26.012170 38.802250 -0.066983 2.305514 0.044681 -0.009668 137945.000000 0 0 1
29.305375 -0.836226 -26.754380 39.690064 -0.028527 2.310518 0.053349 -0.018237 -634093.000000 0 0 1
28.640175 -0.557326 -28.128310 40.146881 -0.019457 2.347083 0.049870 -0.025206 879144.000000 0 0 1
27.303975 -0.017426 -28.007980 39.114630 -0.000638 2.368922 0.041273 -0.019902 811084.000000 0 0 1
27.150775 1.311074 -27.536810 38.693144 0.048251 2.362671 0.034307 -0.014749 -1602300.000000 0 0 1
25.692875 1.700674 -27.603600 37.748839 0.066096 2.390940 0.026129 -0.013878 -1282060.000000 0 0 1
24.919475 1.085374 -26.654220 36.504873 0.043528 2.389345 0.023953 -0.015849 464530.000000 0 0 1
23.525475 1.204574 -27.018320 35.845343 0.051158 2.424542 0.012526 -0.012513 933726.000000 0 0 1
22.570675 0.850374 -25.857020 34.332841 0.037658 2.423600 0.016962 -0.008236 -397953.000000 0 0 1
22.572175 1.808974 -24.877400 33.640162 0.079971 2.403146 0.025271 -0.008818 1192110.000000 0 0 1
21.590375 1.529974 -23.818000 32.183571 0.070745 2.403966 0.027158 -0.012615 555497.000000 0 0 1
21.833575 2.305774 -22.490700 31.430132 0.105217 2.368247 0.038125 -0.014208 -387660.000000 0 0 1
21.415275 3.661474 -22.416700 31.217445 0.169338 2.371839 0.050424 -0.015390 502578.000000 0 0 1
21.567875 4.106874 -21.082600 30.438720 0.188164 2.335917 0.052931 -0.019929 -313157.000000 0 0 1
21.038575 5.530974 -20.737100 30.053962 0.257080 2.332279 0.060562 -0.009375 -419644.000000 0 0 1
21.898175 6.483974 -21.251600 31.196194 0.287872 2.320230 0.061765 -0.008615 170841.000000 0 0 1
21.674475 7.754674 -20.640800 30.918611 0.343588 2.301757 0.064408 -0.008621 -238395.000000 0 0 1
22.221675 8.036174 -19.208300 30.452286 0.347004 2.253338 0.065768 -0.016402 211953.000000 0 0 1
23.646475 8.187474 -19.192800 31.536552 0.333326 2.225078 0.063681 -0.015661 901405.000000 0 0 1
24.195775 8.549574 -17.927200 31.303598 0.339656 2.180578 0.088979 -0.029942 3274.700000 0 0 1
23.854475 9.962574 -17.391200 31.156744 0.395620 2.162992 0.101403 -0.037688 1317000.000000 0 0 1
22.459375 10.264774 -17.058200 30.012853 0.428691 2.175311 0.086562 -0.044420 1445720.000000 0 0 1
22.314375 11.676374 -16.867500 30.311411 0.482087 2.160932 0.078522 -0.035156 297200.000000 0 0 1
20.802175 12.033474 -16.670100 29.247688 0.524440 2.177257 0.065626 -0.039321 982343.000000 0 0 1
19.937175 11.768074 -17.771200 29.185511 0.533225 2.225476 0.061891 -0.041614 3407.860000 0 0 1
19.448275 10.504974 -17.811100 28.387060 0.495249 2.249054 0.056059 -0.043194 -777408.000000 0 0 1
18.523475 10.327874 -19.018600 28.486686 0.508626 2.301819 0.065250 -0.025808 209553.000000 0 0 1
19.325175 10.233774 -20.218000 29.781875 0.487012 2.317018 0.076824 -0.018449 713290.000000 0 0 1
18.550475 9.935374 -21.382000 30.000362 0.491709 2.364171 0.056070 -0.024139 -14026.500000 0 0 1
19.312675 10.132774 -22.716000 31.490780 0.483188 2.376552 0.075490 -0.027287 -209116.000000 0 0 1
19.401475 11.456074 -23.231200 32.362749 0.533386 2.371488 0.075709 -0.031709 290857.000000 0 0 1
19.914175 11.578974 -24.556900 33.670289 0.526663 2.388145 0.082163 -0.032283 52955.200000 0 0 1
20.256675 13.036774 -24.963000 34.690658 0.571848 2.374006 0.095093 -0.038205 -140766.000000 0 0 1
20.984175 13.257974 -26.129530 36.039726 0.563480 2.381860 0.099454 -0.038211 -102038.000000 0 0 1
21.142375 14.650874 -26.350600 36.823936 0.605987 2.368255 0.108559 -0.036304 -235226.000000 0 0 1
19.980475 15.365274 -27.038810 36.964960 0.655560 2.391274 0.078744 -0.034705 -486244.000000 0 0 1
18.772875 15.392074 -26.344370 35.824051 0.686764 2.397027 0.067321 -0.036690 -1306670.000000 0 0 1
17.725375 15.601174 -27.213220 36.029778 0.721745 2.426905 0.059649 -0.039205 -673959.000000 0 0 1
16.377475 15.312274 -26.519160 34.726838 0.751797 2.439745 0.056235 -0.039561 -445464.000000 0 0 1
16.174875 13.924674 -26.284610 33.858586 0.710778 2.459580 0.050953 -0.031710 -404502.000000 0 0 1
14.808775 13.671974 -26.164530 33.027342 0.745505 2.485215 0.040262 -0.029034 -628190.000000 0 0 1
14.569775 12.167974 -25.785470 32.019188 0.695811 2.507000 0.038766 -0.026050 -36188.700000 0 0 1
13.232575 11.715874 -25.835790 31.302569 0.724679 2.541630 0.037845 -0.027623 -10508.100000 0 0 1
13.244475 10.374774 -25.389950 30.458195 0.664492 2.556390 0.051249 -0.027437 194950.000000 0 0 1
11.874375 9.634674 -25.257590 29.525812 0.681644 2.597198 0.048639 -0.038588 189714.000000 0 0 1
11.171575 10.071174 -24.128300 28.432508 0.733643 2.584161 0.049081 -0.041133 210196.000000 0 0 1
9.986675 9.277074 -23.975700 27.579557 0.748579 2.624639 0.058558 -0.045508 360326.000000 0 0 1
9.042375 9.879174 -22.904100 26.532253 0.829594 2.612479 0.053106 -0.044419 -305340.000000 0 0 1
8.359875 11.018174 -23.393000 27.175727 0.921728 2.607646 0.049169 -0.043007 -18740.000000 0 0 1
7.560375 11.668174 -22.415200 26.377012 0.995865 2.586403 0.052148 -0.025341 -50693.400000 0 0 1
8.243475 12.638974 -21.408400 26.191948 0.992857 2.527620 0.052177 -0.029366 -241577.000000 0 0 1
9.195075 11.951374 -20.652900 25.571997 0.915011 2.510931 0.056650 -0.033550 -447354.000000 0 0 1
9.878875 12.826874 -19.747500 25.535948 0.914511 2.454860 0.060852 -0.034187 585423.000000 0 0 1
11.016075 12.047674 -18.947800 25.010388 0.830097 2.430420 0.075975 -0.038308 1191950.000000 0 0 1
12.142575 11.530974 -19.675100 25.836313 0.759569 2.436465 0.081625 -0.039604 503111.000000 0 0 1
11.861975 10.486274 -20.584300 25.968862 0.723918 2.485945 0.071287 -0.043627 -999883.000000 0 0 1
13.083675 9.932574 -21.332100 26.923913 0.649336 2.485383 0.068101 -0.045484 -381116.000000 0 0 1
13.882175 9.093974 -20.574800 26.433644 0.579940 2.462840 0.088560 -0.051715 -290865.000000 0 0 1
14.766275 8.405474 -21.435500 27.352798 0.517491 2.471345 0.075612 -0.045024 -143090.000000 0 0 1
15.381175 7.095374 -20.848400 26.862254 0.432213 2.459290 0.092206 -0.043303 -106416.000000 0 0 1
16.265775 7.417074 -19.808700 26.682823 0.427826 2.407407 0.075324 -0.036886 -19937.100000 0 0 1
16.821675 6.209474 -19.298000 26.342724 0.353619 2.392892 0.062068 -0.037170 43553.700000 0 0 1
17.595575 6.321074 -17.987400 25.944302 0.344885 2.336866 0.062499 -0.035567 -601483.000000 0 0 1
18.875875 6.880474 -18.036800 26.999366 0.349544 2.302375 0.054340 -0.043736 -133668.000000 0 0 1
19.484575 6.976374 -16.767000 26.635517 0.343825 2.251703 0.058874 -0.054989 18717.300000 0 0 1
20.299375 5.792074 -16.219800 26.621320 0.277947 2.225947 0.072872 -0.056818 1059410.000000 0 0 1
21.631075 5.632074 -16.819000 27.973245 0.254714 2.215865 0.066442 -0.051232 1739240.000000 0 0 1
22.255175 4.542674 -16.178500 27.886781 0.201352 2.189708 0.089210 -0.052309 183939.000000 0 0 1
23.626675 4.075674 -16.752500 29.248541 0.170822 2.180670 0.050930 -0.012840 186767.000000 0 0 1
24.226075 3.142474 -15.852000 29.121535 0.128994 2.146398 0.055773 -0.016003 821619.000000 0 0 1
25.426175 2.750974 -16.567300 30.471851 0.107775 2.145626 0.060529 -0.022543 424710.000000 0 0 1
26.261975 1.697674 -15.877500 30.735459 0.064554 2.113655 0.080231 -0.032674 -488252.000000 0 0 1
25.645875 0.445174 -16.011100 30.236806 0.017357 2.128835 0.078642 -0.017839 -68316.900000 0 0 1
26.597175 -0.522426 -15.647700 30.863136 -0.019640 2.102500 0.069366 -0.018772 -235893.000000 0 0 1
26.301575 -2.032626 -15.923700 30.813449 -0.077128 2.113879 0.051621 -0.019912 -354557.000000 0 0 1
25.602475 -2.632926 -14.865800 29.722232 -0.102478 2.094577 0.055193 -0.023153 338512.000000 0 0 1
25.509675 -4.059026 -15.068000 29.904245 -0.157794 2.098875 0.049810 -0.017215 -908096.000000 0 0 1
24.979875 -4.880626 -13.847500 28.975299 -0.192952 2.069067 0.056174 -0.019469 851100.000000 0 0 1
23.596175 -4.842026 -13.487200 27.606689 -0.202394 2.081221 0.075260 -0.012894 1153980.000000 0 0 1
22.626975 -5.165326 -14.487400 27.359557 -0.224436 2.128830 0.089513 -0.011457 -396659.000000 0 0 1
21.171075 -5.002526 -14.018200 25.879521 -0.232035 2.143221 0.111220 -0.017813 -300932.000000 0 0 1
20.712975 -6.117726 -13.241100 25.333390 -0.287192 2.120781 0.111439 -0.014009 447999.000000 0 0 1
20.898775 -5.940726 -11.840700 24.743751 -0.276956 2.069779 0.122406 -0.018299 -465046.000000 0 1 0
20.562675 -7.126026 -10.930100 24.353048 -0.333599 2.036239 0.108671 -0.017093 1434300.000000 0 1 0
19.144275 -7.491926 -10.955700 23.295055 -0.373019 2.060429 0.097085 -0.010781 1975010.000000 0 1 0
18.900275 -8.583326 -11.808300 23.881580 -0.426289 2.088001 0.093159 -0.020370 -912270.000000 0 1 0
17.501275 -9.156126 -11.667700 22.940456 -0.482011 2.104364 0.097565 -0.018132 -783795.000000 0 1 0
16.508575 -8.224626 -11.950900 21.977296 -0.462209 2.145736 0.087414 -0.014183 -928771.000000 0 1 0
15.261975 -8.789626 -12.144600 21.393380 -0.522523 2.174482 0.075470 -0.015273 -659278.000000 0 1 0
14.124675 -7.806326 -12.471400 20.395612 -0.504893 2.228719 0.053439 -0.014155 -350931.000000 0 1 0
14.309175 -6.994526 -13.653600 20.978481 -0.454659 2.279484 0.054272 -0.015995 32866.300000 0 1 0
15.237475 -5.944626 -13.524500 21.223368 -0.371971 2.261715 0.054651 -0.016717 -269726.000000 0 1 0
15.096275 -4.852626 -14.585800 21.545094 -0.311013 2.314461 0.047948 -0.018484 274836.000000 0 1 0
13.934475 -4.044826 -14.357500 20.412448 -0.282511 2.350924 0.049774 -0.018720 439279.000000 0 1 0
13.688875 -2.982226 -15.247700 20.706794 -0.214506 2.398474 0.045597 -0.021484 -350379.000000 0 1 0
14.734175 -1.851426 -15.434000 21.418031 -0.125000 2.375475 0.070194 -0.024793 345560.000000 0 1 0
15.876575 -2.278526 -16.200200 22.797013 -0.142542 2.361187 0.066913 -0.022923 766166.000000 0 1 0
17.059575 -1.520226 -16.042500 23.467041 -0.088878 2.323505 0.069167 -0.021448 259130.000000 0 1 0
18.055075 -2.194626 -15.076300 23.624076 -0.120958 2.262922 0.081197 -0.023160 -462486.000000 0 1 0
17.616075 -2.194426 -13.706500 22.427879 -0.123931 2.228292 0.072377 -0.017681 607870.000000 0 1 0
18.683375 -2.535226 -12.816400 22.798158 -0.134870 2.167802 0.076424 -0.014225 161926.000000 0 1 0
18.299975 -2.633426 -11.313400 21.675264 -0.142922 2.119932 0.080027 -0.015342 -406629.000000 0 1 0
18.321275 -1.396626 -10.624600 21.225028 -0.076083 2.095053 0.084298 -0.012478 520248.000000 0 1 0
17.851975 -1.557226 -9.307400 20.192713 -0.087010 2.049838 0.081193 -0.008384 -669003.000000 0 1 0
17.740975 -0.235426 -8.469600 19.660411 -0.013269 2.016169 0.071310 -0.010501 1085600.000000 0 1 0
19.056775 0.310574 -8.135800 20.723137 0.016296 1.974248 0.082556 -0.011478 2177510.000000 0 1 0
19.828375 0.977474 -9.150600 21.859858 0.049257 2.002703 0.071658 -0.000731 -10194.800000 0 1 0
19.266975 2.324374 -9.633900 21.666358 0.120060 2.031577 0.060581 -0.012100 -516494.000000 0 1 0
19.238475 3.324574 -8.687400 21.369199 0.171119 1.989458 0.056399 -0.007892 224986.000000 0 1 0
18.457675 4.329774 -9.203800 21.074692 0.230412 2.022749 0.041265 -0.023753 -798223.000000 0 1 0
18.867975 5.717374 -8.610200 21.513354 0.294225 1.982560 0.076380 -0.015815 -34762.900000 0 1 0
18.080475 6.708274 -9.224000 21.377247 0.355280 2.016937 0.059044 -0.023838 513777.000000 0 1 0
18.728175 7.937274 -9.064900 22.269200 0.400866 1.990029 0.096308 -0.013125 -61369.700000 0 1 0
-26.567085 -29.134676 5.912400 39.869735 0.831461 1.421954 0.073968 -0.013539 37021.100000 0 0 1
-26.710785 -27.864106 6.579500 39.155641 0.806528 1.401961 0.078050 -0.017792 874193.000000 0 0 1
-25.382235 -27.343416 6.807400 37.924411 0.822577 1.390319 0.069671 -0.016327 890505.000000 0 0 1
-25.534915 -26.165156 7.821700 37.387514 0.797588 1.360033 0.079791 -0.016164 55475.400000 0 0 1
-26.430985 -25.096136 7.484600 37.207959 0.759498 1.368259 0.075691 -0.018318 3094230.000000 0 0 1
-27.903955 -25.344526 7.581400 38.450661 0.737369 1.372324 0.062723 -0.017554 2741580.000000 0 0 1
-28.470755 -25.570866 9.002400 39.312800 0.731789 1.339752 0.051909 -0.008856 -703787.000000 0 0 1
-28.007935 -26.674016 9.774300 39.893414 0.761009 1.323266 0.055767 -0.009725 -238352.000000 0 0 1
-28.545915 -26.831906 11.077100 40.712683 0.754457 1.295243 0.062764 -0.014183 -317414.000000 0 0 1
-27.616345 -27.689206 12.005500 40.908271 0.786716 1.272938 0.054869 -0.013869 193302.000000 0 0 1
-26.389405 -27.075076 12.281300 39.752871 0.798222 1.256717 0.060593 -0.011127 -468475.000000 0 0 1
-26.479125 -26.058436 13.312700 39.464086 0.777391 1.226710 0.060725 -0.006851 -1472820.000000 0 0 1
-25.199015 -25.532956 13.892900 38.469921 0.791981 1.201310 0.068269 -0.010839 -799325.000000 0 0 1
-24.451925 -26.552156 14.528700 38.910111 0.826553 1.188134 0.070332 -0.014713 -488499.000000 0 0 1
-23.374325 -26.077396 15.262300 38.201144 0.840005 1.159798 0.090767 -0.020382 -387130.000000 0 0 1
-22.549125 -27.161546 16.018300 38.765945 0.877919 1.144825 0.097162 -0.027033 -249758.000000 0 0 1
-23.238125 -27.913266 16.970300 40.089299 0.876543 1.133698 0.093180 -0.021262 -261836.000000 0 0 1
-22.463825 -28.984176 17.460800 40.615088 0.911463 1.126404 0.096108 -0.012602 -152027.000000 0 0 1
-23.179825 -30.014066 18.366800 42.136537 0.913176 1.119772 0.111314 -0.019442 385372.000000 0 0 1
-24.237425 -30.752746 17.725300 42.981047 0.903330 1.145712 0.069351 -0.009695 512303.000000 0 0 1
-24.787325 -31.681466 18.567000 44.304178 0.906885 1.138364 0.080121 -0.006146 -525245.000000 0 0 1
-25.904805 -32.526286 17.929300 45.282204 0.898238 1.163699 0.067800 -0.009730 -242620.000000 0 0 1
-25.408435 -33.213436 16.819800 45.073568 0.917761 1.188380 0.070727 -0.017297 -25590.800000 0 0 1
-26.150345 33.884363 16.495500 45.870384 -0.913518 1.202945 0.055740 -0.016935 -969789.000000 0 0 1
-25.658435 33.207017 15.204600 44.634528 -0.912937 1.223192 0.056957 -0.020012 509734.000000 0 0 1
-24.356025 32.621284 15.242800 43.470761 -0.929456 1.212537 0.047316 -0.021259 485093.000000 0 0 1
-23.336625 33.554425 14.993700 43.535141 -0.963106 1.219192 0.060343 -0.022367 -737219.000000 0 0 1
-21.908925 32.980928 15.030500 42.351606 -0.984440 1.207991 0.087315 -0.024806 66129.500000 0 0 1
-21.755325 32.077785 13.957200 41.195654 -0.974848 1.225152 0.069186 -0.018167 -143523.000000 0 0 1
-20.536525 31.368945 13.918700 39.993622 -0.991140 1.215335 0.074003 -0.016583 -60025.500000 0 0 1
-20.460525 30.518835 12.676300 38.867994 -0.980198 1.238582 0.064269 -0.017350 56199.100000 0 0 1
-20.106125 31.216345 11.529400 38.879860 -0.998587 1.269730 0.047326 -0.012457 -87275.100000 0 0 1
-20.012425 30.298635 10.429800 37.779428 -0.987071 1.291093 0.048713 -0.007613 163081.000000 0 0 1
-19.595925 30.832155 9.021800 37.629974 -1.004634 1.328688 0.037933 -0.005453 1053820.000000 0 0 1
-18.223225 31.294275 8.930000 37.298290 -1.043480 1.329027 0.046215 -0.014230 823382.000000 0 0 1
-17.795725 31.600505 7.632300 37.061189 -1.057916 1.363374 0.066867 -0.028203 23483.700000 0 0 1
-17.281125 30.441035 6.680200 35.635922 -1.054472 1.382224 0.061420 -0.022003 -367493.000000 0 0 1
-18.216125 29.431955 6.312500 35.184014 -1.016579 1.390406 0.046937 -0.007996 64450.400000 0 0 1
-17.908525 28.228665 6.963700 34.147707 -1.005459 1.365427 0.035476 -0.000073 -133717.000000 0 0 1
-18.885825 27.108295 6.532000 33.677902 -0.962302 1.375604 0.031439 0.004325 77818.200000 0 0 1
-18.740725 26.689545 5.224900 33.027960 -0.958612 1.411933 0.036015 -0.000479 -575696.000000 0 0 1
-19.817725 26.009715 4.706100 33.036266 -0.919700 1.427858 0.035275 0.000512 -1297110.000000 0 0 1
-19.561925 25.262185 3.404700 32.131587 -0.911889 1.464636 0.048721 -0.010061 -1670930.000000 0 0 1
-19.232225 26.033375 2.256900 32.445472 -0.934532 1.501180 0.054140 -0.010976 690473.000000 0 0 1
-17.921025 26.594565 2.206800 32.145046 -0.977830 1.502091 0.044700 -0.012269 186399.000000 0 0 1
-16.700325 25.674615 2.542600 30.733557 -0.994097 1.487971 0.035696 -0.019546 -1137970.000000 0 0 1
-16.433225 24.635095 1.610000 29.656886 -0.982518 1.516482 0.056781 -0.024394 87917.200000 0 0 1
-16.041125 25.077495 0.301800 29.770615 -1.001723 1.560659 0.067862 -0.027049 -272134.000000 0 0 1
-15.682225 23.904835 -0.584000 28.595705 -0.990196 1.591220 0.072904 -0.022406 681017.000000 0 0 1
-16.838025 23.115555 -0.946500 28.613700 -0.941245 1.603881 0.089493 -0.031441 729566.000000 0 0 1
-16.588225 22.061655 -1.879800 27.666215 -0.926078 1.638794 0.088943 -0.023136 -312413.000000 0 0 1
-15.722025 20.888555 -1.374800 26.180219 -0.925594 1.623333 0.087020 -0.025714 42667.600000 0 0 1
-16.334025 19.997955 -0.439300 25.824631 -0.885904 1.587808 0.100657 -0.034675 -46025.400000 0 0 1
-15.384225 19.238555 0.256600 24.634574 -0.896265 1.560380 0.111750 -0.031746 -164850.000000 0 1 0
-15.979825 18.129755 1.186700 24.196096 -0.848345 1.521732 0.099412 -0.019790 134221.000000 0 1 0
-16.586725 17.043155 0.555800 23.788600 -0.798970 1.547430 0.074874 -0.018404 578282.000000 0 1 0
-17.392525 16.245055 1.458600 23.843851 -0.751299 1.509585 0.094012 -0.032677 307625.000000 0 1 0
-17.892025 15.018055 0.715300 23.370455 -0.698291 1.540185 0.095140 -0.025188 -142017.000000 0 1 0
-19.019825 15.254255 -0.102300 24.381478 -0.675971 1.574992 0.119536 -0.032059 125769.000000 0 1 0
-19.361725 14.100955 -0.838900 23.967000 -0.629461 1.605806 0.081309 -0.025312 -658815.000000 0 1 0
-20.528925 14.285255 -1.793900 25.074356 -0.607942 1.642401 0.074218 -0.016295 -1218690.000000 0 0 1
-21.249825 13.135755 -2.177500 25.076774 -0.553664 1.657739 0.065124 -0.020716 1057050.000000 0 0 1
-22.196325 12.576755 -1.206600 25.540311 -0.515509 1.618057 0.083140 -0.026616 1477970.000000 0 0 1
-23.519125 13.483955 -1.103900 27.132727 -0.520570 1.611493 0.098390 -0.028748 146938.000000 0 0 1
-23.283725 14.755755 -0.484500 27.569891 -0.564857 1.588371 0.102762 -0.037153 232342.000000 0 0 1
-24.458925 15.443255 -0.073700 28.926433 -0.563185 1.573344 0.084201 -0.028984 159214.000000 0 0 1
-24.063425 16.727555 0.744400 29.315757 -0.607460 1.545401 0.074340 -0.038878 -19307.600000 0 0 1
-23.948725 16.402255 2.123900 29.104748 -0.600513 1.497757 0.083704 -0.034221 117427.000000 0 0 1
-23.723625 17.586755 2.820400 29.665788 -0.637922 1.475580 0.072335 -0.034253 625215.000000 0 0 1
-25.055325 18.376655 3.127300 31.229005 -0.632820 1.470487 0.076268 -0.032671 304260.000000 0 0 1
-25.942515 17.579155 3.927900 31.582735 -0.595547 1.446105 0.082868 -0.031349 712933.000000 0 0 1
-27.204325 18.221255 4.160100 33.005997 -0.590164 1.444419 0.080637 -0.035900 417122.000000 0 0 1
-28.276875 17.965855 3.106000 33.645220 -0.566011 1.478348 0.087419 -0.041526 -1043960.000000 0 0 1
-29.508635 18.575755 3.352400 35.029370 -0.561830 1.474947 0.085501 -0.042924 -40769.300000 0 0 1
-30.309415 18.577455 2.194400 35.617381 -0.549870 1.509147 0.082166 -0.038293 156696.000000 0 0 1
-31.591855 19.445455 2.215700 37.162889 -0.551754 1.511140 0.090181 -0.042579 365030.000000 0 0 1
-32.679765 18.923155 2.953600 37.878445 -0.524871 1.492741 0.091935 -0.035517 360708.000000 0 0 1
-33.897665 19.634355 2.866400 39.278185 -0.525003 1.497754 0.097417 -0.033632 218997.000000 0 0 1
-34.204322 20.348255 4.181400 40.018386 -0.536663 1.466118 0.090727 -0.036994 -606513.000000 0 0 1
-33.247275 21.339955 4.483300 39.760218 -0.570629 1.457798 0.093981 -0.038339 292493.000000 0 0 1
-33.477445 21.938455 5.767000 40.438761 -0.580106 1.427698 0.095381 -0.034792 113866.000000 0 0 1
-32.273775 22.828455 6.186800 40.012640 -0.615634 1.415552 0.093341 -0.033859 -12049.500000 0 0 1
-32.393165 24.124915 5.564700 40.771246 -0.640135 1.433883 0.088132 -0.032020 280824.000000 0 0 1
-31.405865 24.996365 6.050500 40.592550 -0.672244 1.421184 0.078215 -0.033488 -268452.000000 0 0 1
-31.687215 26.431835 5.597200 41.641927 -0.695219 1.435976 0.080000 -0.028437 -64693.800000 0 0 1
-32.614675 26.994895 6.510800 42.834938 -0.691400 1.418207 0.090218 -0.026486 262750.000000 0 0 1
-33.132535 28.297785 6.158100 44.005132 -0.706857 1.430395 0.084850 -0.020593 -607712.000000 0 0 1
-34.201670 28.676865 7.137200 45.200182 -0.697759 1.412231 0.081594 -0.017712 -1235520.000000 0 0 1
-33.651975 29.061825 8.391900 45.248967 -0.712336 1.384256 0.085335 -0.017984 686650.000000 0 0 1
-34.610048 29.613495 9.308400 46.491513 -0.707755 1.369217 0.083053 -0.013605 777096.000000 0 0 1
-35.855254 28.762185 9.733300 46.985100 -0.676066 1.362128 0.075583 -0.015984 251775.000000 0 0 1
-35.476330 27.681565 10.643800 46.239912 -0.662602 1.338527 0.085267 -0.020576 118457.000000 0 0 1
-36.545295 27.155955 11.372800 46.929149 -0.639055 1.326020 0.084426 -0.022440 -145617.000000 0 0 1
-36.017275 25.878735 12.089000 45.968434 -0.623040 1.304682 0.110938 -0.016185 142618.000000 0 0 1
-34.967555 26.157275 12.987800 45.558927 -0.642248 1.281710 0.115239 -0.021025 83342.300000 0 0 1
-34.540749 24.964785 13.647300 44.749889 -0.625841 1.260891 0.118589 -0.019725 175787.000000 0 0 1
-33.373095 25.182315 14.649700 44.300408 -0.646419 1.233762 0.120091 -0.021689 203762.000000 0 0 1
-33.721895 26.115165 15.631900 45.426031 -0.658952 1.219497 0.115751 -0.027880 -76597.700000 0 0 1
-32.597715 26.463215 16.411500 45.080485 -0.681902 1.198185 0.133923 -0.023767 -122756.000000 0 0 1
-32.774705 27.710525 17.373900 46.302342 -0.701867 1.186154 0.129396 -0.028791 -222902.000000 0 0 1
-32.528745 28.917495 16.735500 46.630652 -0.726695 1.203713 0.137165 -0.023296 104139.000000 0 0 1
-32.824395 30.020195 17.562500 47.823576 -0.740807 1.194762 0.104586 -0.022888 12869.600000 0 0 1
-32.760955 31.414645 16.858000 48.418511 -0.764423 1.215175 0.086866 -0.022127 6768.990000 0 0 1
-31.414385 31.708505 16.582700 47.615951 -0.790058 1.215083 0.081033 -0.009954 -200911.000000 0 0 1
-31.258545 32.804212 15.646100 47.937599 -0.809521 1.238320 0.074716 -0.003052 -853042.000000 0 0 1
-29.887135 32.980315 14.985000 46.962668 -0.834560 1.246034 0.095026 -0.008876 -313419.000000 0 0 1
-29.573695 31.993395 13.981600 45.756594 -0.824680 1.260265 0.081824 -0.006254 302489.000000 0 0 1
-29.198345 30.705205 14.505100 44.785610 -0.810548 1.240970 0.085698 -0.011951 -649508.000000 0 0 1
-30.136105 29.603755 14.068000 44.525001 -0.776487 1.249331 0.106884 -0.013959 -256814.000000 0 0 1
-30.112775 29.389975 12.700900 43.952960 -0.773251 1.277650 0.110025 -0.019905 -592599.000000 0 0 1
-31.179665 28.626515 12.285700 44.074792 -0.742734 1.288308 0.109368 -0.020042 -513892.000000 0 0 1
-31.156885 28.387435 10.741800 43.496945 -0.738921 1.321259 0.101561 -0.017957 -110888.000000 0 0 1
-30.084545 27.585395 10.318400 42.101107 -0.742090 1.323188 0.080377 -0.010414 -73618.700000 0 0 1
-30.037565 27.672575 8.930200 41.806401 -0.744441 1.355529 0.077844 -0.018202 319584.000000 0 0 1
-28.742955 27.007055 8.371200 40.318922 -0.754271 1.361650 0.081886 -0.018865 240037.000000 0 0 1
-28.575165 27.280675 6.982600 40.118973 -0.762227 1.395858 0.068188 -0.021224 211106.000000 0 0 1
-27.538875 26.470115 6.389700 38.728347 -0.765612 1.405051 0.055686 -0.017527 -313689.000000 0 0 1
-27.248435 26.729325 4.932900 38.487238 -0.775781 1.442273 0.047674 -0.016387 293212.000000 0 0 1
-26.503185 27.974845 4.683500 38.819401 -0.812405 1.449853 0.036083 -0.006354 680391.000000 0 0 1
-26.444055 28.230155 3.307200 38.822252 -0.818055 1.485505 0.031537 -0.002898 -115410.000000 0 0 1
-25.371915 29.273365 2.889600 38.846026 -0.856673 1.496342 0.029664 -0.002514 572483.000000 0 0 1
-24.047625 28.806695 3.175100 37.658932 -0.875197 1.486384 0.029612 0.002046 495738.000000 0 0 1
-23.140225 29.906595 3.064100 37.937622 -0.912268 1.489941 0.032488 0.000191 795345.000000 0 0 1
-21.642825 29.568565 3.312100 36.792416 -0.938945 1.480653 0.030246 -0.006918 356832.000000 0 0 1
-20.724125 30.561035 3.006500 37.047338 -0.974905 1.489554 0.036659 -0.017238 317546.000000 0 0 1
-19.381325 30.053825 3.131900 35.898147 -0.998024 1.483441 0.056402 -0.021559 851421.000000 0 0 1
-18.235125 30.894135 2.582800 35.967182 -1.037580 1.498925 0.059042 -0.029714 -123837.000000 0 0 1
-18.104025 32.129315 3.246900 37.021493 -1.057667 1.482980 0.068404 -0.030936 -87329.400000 0 0 1
-17.055425 32.886550 2.681900 37.143038 -1.092369 1.498529 0.080041 -0.024403 -172844.000000 0 0 1
-16.581625 34.024929 3.654500 38.026326 -1.117330 1.474543 0.092729 -0.031943 -71424.800000 0 0 1
-17.520725 -33.131476 3.732600 37.664344 1.084356 1.471532 0.091780 -0.036355 335228.000000 0 0 1
-17.020225 -32.134286 4.577800 36.650466 1.083704 1.445565 0.096512 -0.040888 386777.000000 0 0 1
-18.097825 -31.045516 4.908800 36.269155 1.043012 1.435036 0.096510 -0.033830 208637.000000 0 0 1
-18.423725 -30.106616 3.947000 35.516486 1.021637 1.459435 0.094858 -0.022151 -755.929000 0 0 1
-19.372725 -29.217066 4.473400 35.340497 0.985293 1.443876 0.102222 -0.020088 -178735.000000 0 0 1
-20.033825 -28.236566 3.481400 34.796234 0.953723 1.470578 0.074424 -0.029761 87569.200000 0 0 1
-19.097125 -27.325976 2.904500 33.464089 0.960834 1.483892 0.066127 -0.020696 65090.900000 0 0 1
-19.640025 -26.341746 2.021700 32.919681 0.930126 1.509345 0.055159 -0.014868 -101592.000000 0 0 1
-18.676425 -25.149476 1.875200 31.381863 0.932037 1.511006 0.067343 -0.016053 92709.600000 0 0 1
-17.650325 -25.478696 0.958700 31.009950 0.964954 1.539876 0.084758 -0.023902 -199015.000000 0 0 1
-16.711225 -24.387526 0.907200 29.577685 0.970048 1.540120 0.075517 -0.014203 905349.000000 0 0 1
-15.382325 -24.728026 0.159900 29.122444 1.014314 1.565306 0.071784 -0.017960 287995.000000 0 0 1
-15.510925 -24.985526 -1.244600 29.434917 1.015226 1.613092 0.061339 -0.020473 -91761.300000 0 0 1
-15.571025 -23.793426 -2.035900 28.508399 0.991316 1.642271 0.091562 -0.025521 -373556.000000 0 0 1
-15.714025 -24.061826 -3.530000 28.954498 0.992267 1.693016 0.050963 -0.023768 -465476.000000 0 0 1
-14.504025 -24.444526 -4.139900 28.723516 1.035285 1.715429 0.073223 -0.020726 -217529.000000 0 0 1
-14.632325 -24.454726 -5.523000 29.028298 1.031596 1.762226 0.049416 -0.017401 -463050.000000 0 0 1
-13.338825 -24.782726 -6.252700 28.830609 1.077034 1.789411 0.073550 -0.018865 -262658.000000 0 0 1
-12.975725 -26.119166 -6.055800 29.786792 1.109721 1.775528 0.065666 -0.022200 -202521.000000 0 0 1
-11.817225 -26.385346 -6.827000 29.705912 1.149714 1.802689 0.067842 -0.017721 188915.000000 0 0 1
23.613175 12.867174 28.224885 38.984489 0.498931 0.761208 0.038516 0.000708 -439524.000000 0 0 1
24.365675 11.682074 28.342615 39.159428 0.447071 0.761539 0.031105 -0.000020 -457361.000000 0 0 1
23.745175 10.618474 29.019545 38.970750 0.420510 0.730787 0.034813 -0.004132 -502643.000000 0 0 1
23.654475 10.811174 30.554995 40.125097 0.428698 0.705182 0.042889 0.001124 708888.000000 0 0 1
22.683775 11.787374 30.988705 40.172076 0.479235 0.689759 0.049386 0.005882 626108.000000 0 0 1
23.078675 12.138574 32.280947 41.497347 0.484203 0.679473 0.048670 -0.001539 104412.000000 0 0 1
22.158975 13.242874 32.912518 41.828552 0.538675 0.665119 0.045899 0.001881 381744.000000 0 0 1
20.939375 12.689774 33.375314 41.393229 0.544837 0.632928 0.059835 0.001573 -81387.300000 0 0 1
20.247875 13.516474 -33.923420 41.754879 0.588614 2.519125 0.054172 -0.000329 77436.900000 0 0 1
18.927175 12.949374 -33.310960 40.441863 0.600021 2.538658 0.051342 0.003527 -288208.000000 0 0 1
17.873275 12.909374 33.947525 40.478888 0.625518 0.576001 0.051545 0.003988 -246269.000000 0 0 1
16.812775 12.229274 -33.511550 39.436640 0.628866 2.586320 0.045610 -0.001003 981371.000000 0 0 1
15.443675 12.173174 33.878107 39.171666 0.667523 0.525920 0.044472 0.005623 809277.000000 0 0 1
15.448775 11.092474 32.962941 38.056052 0.622715 0.523313 0.050671 0.010508 -246785.000000 0 0 1
14.148275 10.905874 32.479729 37.068107 0.656698 0.502840 0.051379 0.013075 -202769.000000 0 0 1
14.063275 9.807774 31.393105 35.770032 0.608981 0.499886 0.060213 0.013972 -17488.200000 0 0 1
14.376275 8.484774 31.937155 36.036794 0.533177 0.481638 0.039914 0.006662 575666.000000 0 0 1
15.091675 7.656774 30.955945 35.279674 0.469511 0.500289 0.033939 -0.006685 591241.000000 0 0 1
15.598175 6.286774 31.415175 35.633409 0.383129 0.491510 0.060838 -0.013772 -624.725000 0 0 1
14.559675 5.353774 31.665245 35.260953 0.352366 0.455535 0.058626 -0.012736 -145129.000000 0 0 1
15.005775 4.102574 32.156740 35.721987 0.266878 0.450580 0.052604 -0.019343 -240646.000000 0 0 1
13.912675 2.994774 32.251940 35.252217 0.212020 0.415558 0.033593 -0.009351 16846.400000 0 0 1
14.375275 1.729474 32.697305 35.759661 0.119733 0.416865 0.040651 -0.013451 83079.400000 0 0 1
13.298475 0.852574 33.020853 35.608328 0.064023 0.383568 0.046302 -0.016524 -8379.410000 0 0 1
13.760675 -0.507226 33.580702 36.294311 -0.036844 0.389147 0.020051 -0.020152 -113194.000000 0 0 1
14.536875 -1.200926 32.614135 35.727367 -0.082425 0.420558 0.040056 -0.013182 131706.000000 0 0 1
14.989575 -2.442126 33.115545 36.432000 -0.161503 0.429993 0.055056 -0.016042 -107910.000000 0 0 1
15.115975 -3.653826 32.182207 35.742658 -0.237170 0.450139 0.059467 -0.016490 -1292690.000000 0 0 1
15.337675 -4.943926 32.747294 36.497561 -0.311823 0.457304 0.067384 -0.019675 889588.000000 0 0 1
16.643875 -5.339326 33.225394 37.542693 -0.310427 0.484296 0.057754 -0.021114 1270320.000000 0 0 1
17.855775 -5.162726 32.249460 37.222441 -0.281459 0.522852 0.056923 -0.021071 -364652.000000 0 0 1
18.072475 -3.766726 32.026275 36.965996 -0.205482 0.522907 0.050203 -0.026288 -248818.000000 0 0 1
19.256875 -3.433026 31.339375 36.942785 -0.176422 0.557988 0.063353 -0.035975 -157154.000000 0 0 1
19.285975 -1.885926 31.145425 36.681645 -0.097478 0.556567 0.067520 -0.035951 -180478.000000 0 0 1
19.581475 -1.074526 32.290326 37.779014 -0.054820 0.545793 0.042202 -0.032196 14374.900000 0 0 1
19.207675 0.289174 32.183571 37.480670 0.015054 0.538125 0.038088 -0.022607 191874.000000 0 0 1
20.243675 1.287874 31.574945 37.529217 0.063533 0.571033 0.061540 -0.029117 -10472.300000 0 0 1
20.670375 1.102074 30.238245 36.644651 0.053266 0.600285 0.074393 -0.035470 222022.000000 0 0 1
21.729075 1.988474 29.855625 36.979252 0.091258 0.631130 0.074388 -0.035089 28480.700000 0 0 1
21.490075 3.456674 29.547275 36.698956 0.159484 0.634909 0.076170 -0.025210 -652983.000000 0 0 1
21.120775 4.062774 30.745315 37.521563 0.190038 0.610426 0.062200 -0.028373 114822.000000 0 0 1
20.315775 5.186474 30.544635 37.048684 0.249954 0.601574 0.062854 -0.028217 -458506.000000 0 0 1
19.797975 5.800374 31.866685 37.961688 0.285002 0.574538 0.058867 -0.016121 60778.500000 0 0 1
18.764975 5.030674 32.463427 37.832606 0.261929 0.539276 0.049107 -0.008953 283654.000000 0 0 1
18.523475 5.440774 33.803619 38.928214 0.285688 0.518915 0.037011 -0.007507 18220.200000 0 0 1
17.433575 4.603974 -33.636470 38.164620 0.258192 2.649513 0.046719 -0.012525 -131611.000000 0 0 1
17.813175 3.250674 -33.426840 38.016177 0.180501 2.645143 0.023830 -0.011648 -359583.000000 0 0 1
16.744375 2.629774 -32.775900 36.899179 0.155782 2.664330 0.021732 -0.011777 -193533.000000 0 0 1
16.731975 1.091474 -32.713360 36.760226 0.065141 2.667948 0.016787 -0.010932 74427.800000 0 0 1
17.812175 0.621874 -31.918940 36.557886 0.034899 2.632335 0.002443 -0.015569 243447.000000 0 0 1
17.964475 -0.720326 -32.177350 36.859505 -0.040076 2.632061 0.012823 -0.014095 -230201.000000 0 0 1
19.023775 -1.321926 -31.218000 36.581622 -0.069377 2.593230 0.013936 -0.014981 -165862.000000 0 0 1
18.722975 -1.440626 -29.808280 35.230083 -0.076793 2.579427 0.008831 -0.015192 210940.000000 0 0 1
18.912575 -0.222426 -29.130770 34.732359 -0.011760 2.565727 0.004145 -0.006347 -319386.000000 0 0 1
18.494175 -0.201626 -27.632190 33.250761 -0.010902 2.551743 -0.002894 -0.014918 -152945.000000 0 0 1
17.176075 -0.626426 -27.367590 32.317100 -0.036455 2.580822 0.005308 -0.017362 3754.450000 0 0 1
16.961875 -0.830026 -25.969100 31.028830 -0.048896 2.562454 0.013441 -0.025634 42772.800000 0 0 1
17.696675 -2.073526 -25.338590 30.976055 -0.116639 2.528732 0.024522 -0.021007 -689249.000000 0 0 1
19.039275 -1.823026 -25.044370 31.512504 -0.095460 2.489382 0.026817 -0.019143 -678400.000000 0 0 1
19.846775 -2.969126 -25.193330 32.208913 -0.148501 2.468961 0.033990 -0.013603 77050.800000 0 0 1
20.433375 -3.147726 -26.616480 33.702641 -0.152847 2.481189 0.039409 -0.020460 -638827.000000 0 0 1
21.555175 -2.296126 -26.737710 34.420966 -0.106123 2.460342 0.040082 -0.014565 -306427.000000 0 0 1
22.009175 -2.367826 -28.074230 35.751542 -0.107171 2.473911 0.036294 -0.016888 -384533.000000 0 0 1
23.513775 -2.234826 -28.279460 36.845894 -0.094759 2.445738 0.026816 -0.023098 -624045.000000 0 0 1
24.323575 -3.347826 -27.955770 37.207114 -0.136778 2.420910 0.027865 -0.024294 -1035820.000000 0 0 1
25.592975 -2.919126 -28.308090 38.273615 -0.113569 2.403308 0.020445 -0.027498 -969328.000000 0 0 1
26.736575 -3.896526 -27.967450 38.887088 -0.144719 2.373441 0.039847 -0.024303 -238210.000000 0 0 1
26.782175 -5.078426 -28.719800 39.596745 -0.187395 2.382277 0.062765 -0.031540 -59022.400000 0 0 1
27.877475 -5.939926 -28.529320 40.328135 -0.209933 2.356651 0.058842 -0.032661 -184295.000000 0 0 1
27.811475 -6.865026 -27.297100 39.569413 -0.242004 2.332083 0.053407 -0.019568 -180527.000000 0 0 1
27.913075 -6.202426 -26.058450 38.686596 -0.218653 2.309836 0.042850 -0.006855 170689.000000 0 0 1
27.592875 -7.117426 -25.093920 37.970111 -0.252442 2.292795 0.024643 -0.005754 -265570.000000 0 0 1
27.747875 -6.605026 -23.611900 37.028270 -0.233688 2.262269 0.008115 0.007741 288976.000000 0 0 1
29.064875 -6.221226 -23.228900 37.723367 -0.210864 2.234159 0.002851 0.008420 630208.000000 0 0 1
29.031575 -5.967526 -21.850900 36.822623 -0.202729 2.206085 0.008338 0.004672 140758.000000 0 0 1
30.475275 -5.575326 -21.434800 37.673297 -0.180945 2.176043 0.035079 0.001972 94083.300000 0 0 1
30.937575 -4.414326 -22.059500 38.252338 -0.141728 2.185460 0.042954 -0.006866 723618.000000 0 0 1
32.202775 -3.994626 -21.504300 38.928276 -0.123416 2.156047 0.062608 -0.006200 869110.000000 0 0 1
32.733975 -2.762326 -22.277000 39.691414 -0.084188 2.166698 0.073986 -0.018169 282173.000000 0 0 1
31.870075 -1.628326 -22.047100 38.786954 -0.051048 2.175375 0.055882 -0.015662 622100.000000 0 0 1
32.324475 -0.466626 -22.719800 39.513020 -0.014435 2.183395 0.060886 -0.013604 156068.000000 0 0 1
31.318075 0.663174 -22.472900 38.552469 0.021172 2.193111 0.049350 -0.007647 -129628.000000 0 0 1
30.083775 0.573774 -23.132800 37.953777 0.019070 2.226225 0.029767 -0.001500 -12714.200000 0 0 1
29.185875 1.566774 -22.619000 36.957939 0.053631 2.229409 0.030016 0.006673 -183286.000000 0 0 1
27.968975 1.534874 -23.569600 36.607997 0.054823 2.270299 0.020269 0.006614 -396764.000000 0 0 1
26.992775 2.460374 -23.128900 35.631578 0.090898 2.277213 0.021385 0.006474 403715.000000 0 0 1
26.042675 2.728974 -24.171000 35.635733 0.104408 2.316215 0.025899 0.001361 173909.000000 0 0 1
25.115575 3.921774 -23.850100 34.856846 0.154898 2.324344 0.032878 0.003366 -153617.000000 0 0 1
25.730875 5.184874 -23.823000 35.447090 0.198841 2.307800 0.031256 0.006545 1109080.000000 0 0 1
24.710175 6.219074 -23.594500 34.727080 0.246560 2.317777 0.053249 -0.008615 1021280.000000 0 0 1
25.295275 7.533074 -23.050000 35.041414 0.289442 2.288681 0.079759 -0.010463 201655.000000 0 0 1
26.142475 8.304774 -23.889200 36.374334 0.307591 2.287310 0.074564 -0.002102 264222.000000 0 0 1
26.449075 9.567274 -23.320800 36.536913 0.347081 2.263059 0.094797 -0.007666 -347845.000000 0 0 1
27.295375 10.450374 -24.260500 37.984466 0.365646 2.263598 0.126073 -0.008573 -325033.000000 0 0 1
26.742375 10.892874 -25.489140 38.516303 0.386806 2.293981 0.113479 -0.015409 404410.000000 0 0 1
25.503875 11.597474 -25.390910 37.810678 0.426784 2.307065 0.121034 -0.018884 517300.000000 0 0 1
24.914175 11.832674 -26.842200 38.486777 0.443397 2.342615 0.104107 -0.025821 -170403.000000 0 0 1
24.338975 10.750374 -27.524520 38.282574 0.415925 2.373134 0.084112 -0.016850 192880.000000 0 0 1
25.227875 9.825974 -28.128640 39.041207 0.371412 2.375299 0.075994 -0.014915 24071.500000 0 0 1
26.144775 10.245574 -29.285240 40.572729 0.373485 2.377190 0.062981 -0.011328 -965188.000000 0 0 1
27.136875 11.205874 -29.016450 41.278760 0.391611 2.350318 0.054500 -0.007754 419775.000000 0 0 1
27.855675 11.681074 -30.143540 42.673401 0.397069 2.355164 0.043205 0.004696 243939.000000 0 0 1
28.790175 10.646974 -30.857030 43.524574 0.354215 2.358814 0.037533 -0.003339 -693099.000000 0 0 1
28.163075 9.669374 -31.651780 43.456769 0.330725 2.386709 0.035872 -0.001143 -34154.200000 0 0 1
29.050375 8.585574 -31.849520 43.954844 0.287361 2.381245 0.034586 -0.001195 -124752.000000 0 0 1
28.571675 7.450874 -32.743250 44.090550 0.255097 2.407795 0.040978 0.002631 55217.800000 0 0 1
27.417675 6.746674 -32.318490 42.915397 0.241277 2.423519 0.051923 -0.001795 66420.000000 0 0 1
27.092875 5.674574 -33.214630 43.236979 0.206464 2.446821 0.061627 -0.004798 62647.700000 0 0 1
25.831875 4.830774 -32.846280 42.065428 0.184873 2.466802 0.047765 -0.012468 1137060.000000 0 0 1
24.536475 5.454574 -32.798180 41.322047 0.218748 2.487698 0.051693 -0.009629 845934.000000 0 0 1
24.338875 6.273074 -31.673610 40.434513 0.252249 2.470803 0.055750 -0.000896 -63097.100000 0 0 1
22.828575 6.584774 -31.421750 39.393267 0.280822 2.494173 0.043012 -0.003640 623963.000000 0 0 1
22.340675 7.651674 -32.218250 39.945832 0.329977 2.509086 0.051364 -0.001739 -81309.600000 0 0 1
20.961175 7.884174 -32.043550 39.093736 0.359763 2.531613 0.051253 -0.001905 -10664.400000 0 0 1
20.375375 8.970074 -33.007510 39.813488 0.414709 2.548209 0.048892 -0.003794 -251059.000000 0 0 1
20.045375 8.517974 33.848261 40.250189 0.401815 0.571766 0.055643 -0.004734 100504.000000 0 0 1
19.913575 9.666374 33.000407 39.736836 0.451913 0.590838 0.046825 -0.001977 267886.000000 0 0 1
18.759075 9.585874 31.950945 38.270808 0.472408 0.582909 0.053388 0.002192 271462.000000 0 0 1
18.945275 8.679274 30.871655 37.246642 0.429589 0.593758 0.050806 -0.008603 92881.800000 0 0 1
19.994775 8.974474 29.960545 37.120971 0.421890 0.631563 0.056846 -0.007498 -329021.000000 0 0 1
19.732375 10.093274 28.915895 36.433087 0.472812 0.653976 0.064859 -0.004813 282920.000000 0 0 1
18.839575 9.798374 27.839265 35.013746 0.479594 0.651632 0.065539 -0.000573 2727150.000000 0 0 1
17.388275 9.737674 28.132565 34.476305 0.510499 0.616344 0.077769 -0.006990 2099780.000000 0 0 1
16.568675 8.708774 27.326345 33.122392 0.483930 0.600574 0.083034 -0.006355 -407757.000000 0 0 1
16.456475 9.005374 25.933275 32.006985 0.500709 0.626238 0.086501 -0.008142 930689.000000 0 0 1
15.112075 8.799674 25.472455 30.897493 0.527299 0.601623 0.102386 -0.009463 643951.000000 0 0 1
14.766675 7.338474 25.147285 30.071479 0.461214 0.580387 0.092886 -0.006015 -298466.000000 0 0 1
14.689575 6.555674 26.304485 30.833203 0.419757 0.548856 0.074273 -0.007371 6005.880000 0 0 1
14.560875 5.151274 26.084505 30.314289 0.340034 0.534607 0.076810 -0.014861 -51494.500000 0 0 1
14.850675 4.186574 27.327965 31.382919 0.274780 0.513987 0.071898 -0.020939 1699160.000000 0 0 1
16.294175 3.985674 27.504645 32.216320 0.239897 0.547653 0.068500 -0.015451 1719030.000000 0 0 1
16.603475 3.806974 28.868495 33.519523 0.225392 0.533083 0.059627 -0.018792 132128.000000 0 0 1
17.436875 2.473374 29.017155 33.943445 0.140907 0.545501 0.072304 -0.022947 324682.000000 0 0 1
16.754675 1.221174 28.803165 33.344156 0.072757 0.528004 0.070031 -0.031439 -95299.800000 0 0 1
15.953675 0.758274 29.843445 33.848574 0.047494 0.491396 0.049555 -0.018285 -103759.000000 0 0 1
15.410475 -0.669226 29.671445 33.441370 -0.043399 0.479409 0.056861 -0.026137 6487.320000 0 0 1
14.622275 -1.062226 28.545065 32.089874 -0.072517 0.474470 0.055164 -0.020439 455830.000000 0 0 1
15.308975 -1.249526 27.305335 31.329018 -0.081440 0.512407 0.067384 -0.025192 -248119.000000 0 0 1
16.430875 -2.338626 27.153975 31.824223 -0.141382 0.548613 0.067419 -0.020494 2669570.000000 0 0 1
17.759475 -2.107026 27.788535 33.046047 -0.118090 0.571846 0.068900 -0.029693 2377490.000000 0 0 1
18.467975 -0.945326 27.418465 33.071619 -0.051143 0.593366 0.072276 -0.030355 -774527.000000 0 0 1
19.944575 -0.776426 27.841485 34.256929 -0.038910 0.621981 0.085346 -0.032143 -95324.600000 0 0 1
20.784075 -1.501226 27.005565 34.110585 -0.072104 0.657199 0.069147 -0.031247 -1127940.000000 0 0 1
22.097375 -1.395326 27.441845 35.260400 -0.063061 0.678902 0.061097 -0.032363 238349.000000 0 0 1
23.237675 -1.964826 26.498325 35.298886 -0.084353 0.721699 0.059873 -0.026574 538451.000000 0 0 1
23.359175 -1.380326 25.215715 34.400416 -0.059023 0.748066 0.063070 -0.015182 84015.300000 0 0 1
22.558575 -2.016126 24.241205 33.175143 -0.089136 0.751444 0.072241 -0.004599 -110207.000000 0 0 1
22.535275 -1.317626 22.917065 32.167789 -0.058403 0.777852 0.061182 -0.024889 -461001.000000 0 0 1
21.567975 -0.318226 22.933965 31.484053 -0.014753 0.754767 0.056243 -0.019324 -218333.000000 0 0 1
21.628175 0.468874 21.750065 30.676752 0.021675 0.782706 0.049756 -0.016961 -124732.000000 0 0 1
-30.683665 -27.312107 -9.790700 42.229093 0.727329 1.804773 0.016019 0.005694 -22854.000000 0 0 1
-30.590485 -26.069007 -9.104900 41.210072 0.705766 1.793573 0.024257 0.006403 -57668.400000 0 0 1
-31.331785 -26.148407 -7.893400 41.565920 0.695465 1.761857 0.046958 -0.003616 -423729.000000 0 0 1
-31.358215 -24.772007 -7.228500 40.610850 0.668594 1.749744 0.070296 -0.010526 391425.000000 0 0 1
-30.203845 -24.159307 -6.654300 39.245688 0.674665 1.741174 0.046684 -0.015255 -16701.200000 0 0 1
-29.452265 -24.851807 -5.675700 38.952044 0.700883 1.717027 0.052064 -0.018569 -537244.000000 0 0 1
-28.306995 -24.071007 -5.087700 37.504453 0.704700 1.706872 0.039690 -0.019281 -1288490.000000 0 0 1
-28.499595 -23.004907 -4.102300 36.854871 0.679117 1.682337 0.049070 -0.018711 -224428.000000 0 0 1
-29.255515 -21.927907 -4.603800 36.849874 0.643201 1.696058 0.056669 -0.020779 -287349.000000 0 0 1
-29.259255 -20.748907 -3.605700 36.050273 0.616834 1.670982 0.060307 -0.018814 -666746.000000 0 0 1
-28.099015 -20.003107 -3.438700 34.662711 0.618654 1.670164 0.063872 -0.032582 -315162.000000 0 0 1
-28.308105 -18.785307 -2.714500 34.082327 0.585878 1.650526 0.071713 -0.018986 -873326.000000 0 0 1
-27.170085 -17.831907 -2.928000 32.630715 0.580796 1.660649 0.073168 -0.015579 -562482.000000 0 0 1
-27.400695 -16.999407 -4.059800 32.500152 0.555285 1.696040 0.083253 -0.029704 -147115.000000 0 0 1
-26.484415 -15.951007 -4.123900 31.190790 0.542094 1.703400 0.082352 -0.030907 -250252.000000 0 0 1
-26.847115 -14.966707 -5.249000 31.182076 0.508567 1.739936 0.077164 -0.036265 229213.000000 0 0 1
-28.145135 -14.402407 -5.154300 32.033494 0.472979 1.732402 0.071594 -0.031659 223485.000000 0 0 1
-28.436925 -13.524407 -6.230900 32.099725 0.443932 1.766147 0.099465 -0.051265 -272526.000000 0 0 1
-29.802805 -12.864607 -6.098200 33.028674 0.407496 1.756495 0.100279 -0.041190 543555.000000 0 0 1
-30.952685 -13.621507 -6.540700 34.444083 0.414570 1.761850 0.106293 -0.038858 852207.000000 0 0 1
-32.180775 -13.026807 -6.173800 35.262101 0.384638 1.746787 0.103255 -0.038515 -355120.000000 0 0 1
-33.349665 -13.769907 -6.801200 36.716029 0.391573 1.757110 0.071582 -0.033908 -781462.000000 0 0 1
-33.634385 -14.981407 -6.148900 37.329926 0.419038 1.736268 0.070146 -0.038740 213536.000000 0 0 1
-33.982585 -15.904007 -7.186300 38.202047 0.437725 1.760037 0.071685 -0.032889 -635761.000000 0 0 1
-34.897212 -17.079407 -6.751600 39.434827 0.455148 1.742853 0.062368 -0.032497 -520902.000000 0 0 1
-36.271615 -16.907407 -6.845100 40.599825 0.436189 1.740205 0.052239 -0.036542 -502531.000000 0 0 1
36.617232 -16.151007 -5.757500 40.432976 -0.415409 1.713678 0.076087 -0.040396 -230834.000000 0 0 1
35.082892 -16.200307 -5.526800 39.035942 -0.432601 1.712856 0.087117 -0.047117 -15215.800000 0 0 1
34.341782 -15.452107 -6.484100 38.212160 -0.422813 1.741308 0.105403 -0.045990 962012.000000 0 0 1
32.920272 -15.455907 -6.329100 36.914589 -0.438947 1.743100 0.098094 -0.047691 857507.000000 0 0 1
32.220272 -14.704107 -5.158600 35.790611 -0.428132 1.715433 0.113467 -0.051448 -602340.000000 0 0 1
32.502722 -15.282107 -3.915400 36.128937 -0.439508 1.679383 0.105622 -0.050008 252411.000000 0 0 1
32.135922 -14.470707 -2.833100 35.357394 -0.423101 1.651010 0.113651 -0.047848 -737625.000000 0 0 1
32.130532 -15.267507 -1.477500 35.604085 -0.443588 1.612306 0.114191 -0.042419 1415190.000000 0 0 1
33.427522 -15.729407 -0.950500 36.955608 -0.439813 1.596519 0.135934 -0.040813 1445700.000000 0 0 1
34.154732 -16.637707 -1.745300 38.031633 -0.453297 1.616703 0.121888 -0.037884 -694680.000000 0 0 1
33.593012 -18.012307 -2.106600 38.175534 -0.492180 1.626006 0.127930 -0.039327 -940565.000000 0 0 1
33.817622 -18.920407 -1.040100 38.764612 -0.510095 1.597631 0.129046 -0.043463 79443.700000 0 0 1
33.742732 -20.280407 -1.410800 39.393619 -0.541177 1.606617 0.110382 -0.033226 -415008.000000 0 0 1
34.942152 -20.829207 -2.201100 40.738860 -0.537551 1.624852 0.102538 -0.037578 -248287.000000 0 0 1
35.133672 -20.160807 -3.428500 40.652031 -0.520956 1.655234 0.082345 -0.047884 -696649.000000 0 0 1
35.905202 -20.813907 -4.340100 41.728153 -0.525352 1.674994 0.104749 -0.040283 -681429.000000 0 0 1
35.975022 -20.072107 -5.690300 41.586911 -0.508923 1.708056 0.110669 -0.044171 -397074.000000 0 0 1
34.849862 -20.254007 -6.499000 40.828601 -0.526466 1.730654 0.103006 -0.049344 -76539.900000 0 0 1
34.650622 -19.192107 -7.343000 40.285509 -0.505813 1.754095 0.100126 -0.057721 24390.800000 0 0 1
33.463922 -19.421407 -8.312400 39.574248 -0.525860 1.782418 0.107131 -0.066643 82928.700000 0 0 1
33.747392 -20.457307 -9.256200 40.534740 -0.544958 1.801181 0.117021 -0.063790 203033.000000 0 0 1
32.630752 -20.706207 -10.082700 39.939627 -0.565445 1.826006 0.125022 -0.067431 -221605.000000 0 0 1
32.647352 -22.111607 -10.750800 40.869946 -0.595319 1.836978 0.124036 -0.057361 -17956.700000 0 0 1
32.418252 -23.137007 -9.815200 41.019536 -0.619864 1.812422 0.117984 -0.053092 113971.000000 0 0 1
32.095022 -24.305407 -10.587600 41.628602 -0.648154 1.827956 0.092284 -0.040376 -145956.000000 0 0 1
31.219582 -25.369407 -9.863700 41.419340 -0.682384 1.811249 0.079802 -0.029172 261658.000000 0 0 1
29.880352 -24.895607 -9.782700 40.103964 -0.694646 1.817216 0.075627 -0.031341 404197.000000 0 0 1
29.062752 -25.951807 -9.233000 40.042329 -0.728911 1.803471 0.044770 -0.008094 1357090.000000 0 0 1
27.592762 -25.454707 -8.885600 38.577928 -0.745115 1.803212 0.025855 -0.009302 954019.000000 0 0 1
26.864662 -25.102307 -10.028600 38.110480 -0.751498 1.837077 0.020996 -0.013343 -1014960.000000 0 0 1
25.654262 -24.554907 -9.611600 36.789502 -0.763506 1.835123 0.037522 -0.015455 -548638.000000 0 0 1
24.826162 -24.241907 -10.910900 36.373838 -0.773492 1.875453 0.065971 -0.028067 -519519.000000 0 0 1
24.233362 -25.349107 -11.516700 36.911617 -0.807897 1.888102 0.068426 -0.024713 -139816.000000 0 0 1
23.441962 -24.849107 -12.555900 36.395801 -0.814529 1.923016 0.085603 -0.013557 -184562.000000 0 0 1
22.693262 -26.030907 -13.202900 36.971730 -0.853792 1.935966 0.096957 -0.024800 -107032.000000 0 0 1
23.618762 -26.989707 -13.709300 38.395769 -0.851908 1.935907 0.099493 -0.022011 489334.000000 0 0 1
23.064562 -28.264807 -13.690300 38.965339 -0.886365 1.929804 0.102864 -0.023311 -322957.000000 0 0 1
24.010562 -29.331107 -14.266900 40.501424 -0.884814 1.930778 0.100046 -0.025520 -249679.000000 0 0 1
24.125662 -29.286307 -15.680600 41.056261 -0.881719 1.962680 0.101951 -0.022886 249992.000000 0 0 1
24.608562 -30.495907 -16.118800 42.372130 -0.891834 1.961036 0.097845 -0.026803 -565322.000000 0 0 1
24.505662 -30.665407 -17.634900 43.033526 -0.896586 1.993025 0.088120 -0.018909 1001340.000000 0 0 1
23.128462 -30.688207 -18.078500 42.467917 -0.924957 2.010529 0.082325 -0.016234 1143910.000000 0 0 1
23.044162 -30.415007 -19.442300 42.826500 -0.922412 2.042021 0.058413 -0.008061 1232920.000000 0 0 1
21.528562 -30.434707 -19.919200 42.267303 -0.955142 2.061523 0.042795 -0.002655 1161940.000000 0 0 1
21.504362 -30.334907 -21.317500 42.861171 -0.954123 2.091351 0.021933 0.001518 -496706.000000 0 0 1
20.213262 -30.167807 -21.797400 42.353266 -0.980471 2.111404 0.034665 -0.008197 -999374.000000 0 0 1
20.014562 -30.179907 -23.364200 43.096349 -0.985215 2.143777 0.025126 -0.005530 -420354.000000 0 0 1
20.572862 -29.126507 -24.123900 43.052974 -0.955836 2.165581 0.024959 -0.002985 368573.000000 0 0 1
20.529962 -29.485007 -25.490860 44.052570 -0.962568 2.187864 0.024463 -0.005078 -519888.000000 0 0 1
21.051062 -28.343507 -26.376640 44.070724 -0.931976 2.212433 0.025210 -0.008541 -338737.000000 0 0 1
20.212662 -27.272507 -26.654220 43.160037 -0.932992 2.236442 0.040746 -0.016193 40454.800000 0 0 1
19.050462 -27.582907 -27.446330 43.324795 -0.966365 2.256867 0.070296 -0.021254 454148.000000 0 0 1
18.222762 -26.260007 -27.603740 42.232967 -0.964152 2.283136 0.068101 -0.029782 -542927.000000 0 0 1
17.469562 -25.887307 -26.511880 40.966060 -0.977163 2.274659 0.046798 -0.023541 -306069.000000 0 0 1
16.982162 -24.568707 -26.811910 40.135940 -0.965993 2.302351 0.042390 -0.014202 -52124.800000 0 0 1
15.862062 -24.071107 -25.862270 38.728287 -0.988143 2.302029 0.051318 -0.019689 -529096.000000 0 0 1
14.630162 -24.715207 -26.137830 38.833867 -1.036317 2.309146 0.089202 -0.030940 345621.000000 0 0 1
13.480962 -24.168507 -25.476030 37.614906 -1.061992 2.314863 0.086084 -0.032584 852023.000000 0 0 1
13.498762 -24.416807 -23.926200 36.754048 -1.065770 2.279673 0.079862 -0.027571 -830821.000000 0 0 1
14.509962 -23.660707 -23.289500 36.232152 -1.020690 2.268925 0.048799 -0.018916 -243508.000000 0 0 1
14.647262 -24.020407 -21.946200 35.681339 -1.023214 2.233260 0.055700 -0.024230 -262.471000 0 0 1
16.035462 -23.572807 -21.435100 35.668989 -0.973447 2.215479 0.034136 -0.024365 -12604.700000 0 0 1
16.133762 -22.187007 -21.366800 34.772140 -0.942066 2.232524 0.033422 -0.029017 -105669.000000 0 0 1
17.326162 -21.854207 -20.699600 34.731480 -0.900457 2.209294 0.032966 -0.029949 -726208.000000 0 0 1
17.427462 -20.433007 -20.027900 33.501358 -0.864617 2.211580 0.054734 -0.024430 -54283.300000 0 0 1
16.522862 -20.303207 -18.948800 32.315355 -0.887694 2.197368 0.041783 -0.021160 835578.000000 0 0 1
15.216762 -19.925207 -19.449500 31.730849 -0.918588 2.230588 0.068474 -0.027131 184125.000000 0 0 1
14.197162 -19.909607 -18.276300 30.528266 -0.951345 2.212634 0.072966 -0.023628 -306039.000000 0 0 1
14.278062 -18.867507 -17.266100 29.291024 -0.922987 2.201196 0.077391 -0.017240 -111649.000000 0 0 1
13.370962 -19.053207 -16.219200 28.370227 -0.958884 2.179370 0.079757 -0.016149 -396466.000000 0 0 1
13.446662 -17.885607 -15.226100 27.065509 -0.926135 2.168281 0.080638 -0.017254 -110153.000000 0 0 1
12.473762 -16.892207 -15.513800 26.107841 -0.934739 2.207092 0.080298 -0.028175 105391.000000 0 0 1
12.663662 -15.749907 -14.720800 25.002597 -0.893593 2.200334 0.077287 -0.019947 321283.000000 0 0 1
11.333562 -15.139307 -14.156200 23.623002 -0.928180 2.213366 0.069071 -0.014781 491339.000000 0 1 0
10.617662 -14.445907 -15.178400 23.490483 -0.936968 2.273327 0.071747 -0.014081 89426.600000 0 1 0
9.422162 -13.897407 -14.629000 22.269322 -0.975002 2.287513 0.068060 -0.020008 -15351.500000 0 1 0
8.539562 -13.403507 -15.780100 22.396198 -1.003533 2.352639 0.045501 -0.009800 -563209.000000 0 1 0
8.882262 -12.275707 -16.587000 22.465888 -0.944430 2.401371 0.035668 0.000399 181917.000000 0 1 0
10.000562 -12.397007 -17.473600 23.643682 -0.891988 2.402439 0.048128 0.000383 427000.000000 0 1 0
10.217662 -11.132807 -18.390400 23.802244 -0.828235 2.453775 0.044418 0.000815 364208.000000 0 1 0
9.267962 -11.059007 -19.460800 24.226421 -0.873283 2.503592 0.040503 0.001710 535045.000000 0 1 0
9.490262 -9.837907 -20.140800 24.341350 -0.803383 2.545315 0.032675 -0.004974 223751.000000 0 1 0
9.080962 -9.948307 -21.588100 25.445604 -0.830946 2.583755 0.035964 -0.004887 -210719.000000 0 0 1
10.111362 -10.538407 -22.299300 26.656265 -0.806076 2.561752 0.044758 0.003217 -596727.000000 0 0 1
9.703762 -10.698707 -23.651800 27.713408 -0.834125 2.593351 0.063950 0.006648 196957.000000 0 0 1
10.779762 -11.383707 -24.516200 29.100449 -0.812641 2.572644 0.083627 0.005733 8395.050000 0 0 1
10.874862 -12.775407 -24.243600 29.482635 -0.865586 2.536239 0.086012 -0.000411 -116953.000000 0 0 1
11.883062 -13.393807 -25.017140 30.764566 -0.845095 2.520392 0.074512 -0.014845 -142514.000000 0 0 1
11.982662 -14.910307 -24.829600 31.343428 -0.893834 2.485167 0.074337 -0.019677 -252587.000000 0 0 1
10.878962 -15.653807 -25.264360 31.649350 -0.963453 2.495194 0.080897 -0.020792 -410672.000000 0 0 1
10.887162 -16.871707 -24.579500 31.738567 -0.997739 2.456620 0.093574 -0.026610 252706.000000 0 0 1
9.903262 -17.970407 -25.044870 32.376776 -1.067119 2.455211 0.088570 -0.023377 196079.000000 0 0 1
10.147862 -18.356807 -26.400690 33.718658 -1.065797 2.470222 0.086374 -0.036874 -400210.000000 0 0 1
9.001762 -18.899007 -26.991980 34.158032 -1.126281 2.481946 0.089848 -0.032172 -349486.000000 0 0 1
9.252862 -20.001107 -28.033450 35.658576 -1.137499 2.475372 0.079817 -0.036815 -199017.000000 0 0 1
10.043762 -21.127207 -27.604540 36.183513 -1.127026 2.438589 0.083886 -0.039778 365316.000000 0 0 1
10.248862 -22.056707 -28.698740 37.618548 -1.135819 2.438565 0.086307 -0.031115 18828.400000 0 0 1
10.844662 -23.437507 -28.338010 38.340139 -1.137427 2.402561 0.072662 -0.027096 112410.000000 0 0 1
10.760562 -24.368007 -29.433090 39.697560 -1.154962 2.406000 0.069290 -0.027604 88906.300000 0 0 1
11.247862 -25.724507 -29.123520 40.452986 -1.158602 2.374505 0.088332 -0.025508 747104.000000 0 0 1
10.466762 -26.580807 -28.043250 40.031441 -1.195671 2.346937 0.100777 -0.026994 486041.000000 0 0 1
11.045062 -26.279307 -26.790400 39.119316 -1.172918 2.325178 0.114771 -0.032798 -66556.200000 0 0 1
10.214862 -26.594707 -25.663990 38.343998 -1.204077 2.304075 0.109180 -0.030940 804064.000000 0 0 1
9.203162 -25.483207 -25.268850 37.048708 -1.224226 2.321350 0.098422 -0.026988 9950.760000 0 0 1
9.903462 -24.392507 -24.874100 36.218694 -1.185125 2.327839 0.105687 -0.023076 -606899.000000 0 0 1
9.040462 -23.360107 -24.447200 35.001288 -1.201543 2.344048 0.105655 -0.032138 -2754.120000 0 0 1
9.740762 -21.954807 -24.237100 34.122324 -1.153216 2.360721 0.113940 -0.039899 354427.000000 0 0 1
10.606762 -21.914007 -23.134400 33.584633 -1.120016 2.330682 0.118269 -0.035903 -26590.600000 0 0 1
11.607662 -20.922307 -23.271400 33.377220 -1.064277 2.342314 0.089288 -0.032764 84540.500000 0 0 1
12.530862 -20.716607 -22.050000 32.747562 -1.026803 2.309503 0.080813 -0.026593 -10004.200000 0 0 1
11.945962 -20.127307 -20.867300 31.356956 -1.035155 2.298928 0.087503 -0.023294 -238953.000000 0 0 1
11.575962 -18.761307 -20.953900 30.414724 -1.017961 2.330821 0.069533 -0.021156 79115.200000 0 0 1
12.734562 -17.717207 -20.844900 30.175791 -0.947585 2.333367 0.075585 -0.021377 17372.800000 0 0 1
13.614162 -17.882007 -21.918600 31.393257 -0.920081 2.343669 0.071725 -0.020146 -329978.000000 0 0 1
14.636962 -16.897707 -21.909600 31.301817 -0.856966 2.346119 0.082189 -0.017174 -110262.000000 0 0 1
15.808462 -17.208907 -22.824300 32.665006 -0.827788 2.344429 0.060278 -0.019368 -816737.000000 0 0 1
16.997362 -17.749907 -22.335500 33.209096 -0.807052 2.308475 0.064689 -0.019764 -131026.000000 0 0 1
18.056862 -17.131707 -23.035800 33.914506 -0.759113 2.317511 0.051412 -0.021363 437873.000000 0 0 1
19.443762 -17.273607 -22.314300 34.269015 -0.726363 2.279896 0.030953 -0.016422 457647.000000 0 0 1
19.852162 -18.575607 -22.096000 35.034194 -0.752191 2.253249 0.032796 -0.020454 1074930.000000 0 0 1
21.265162 -18.612307 -21.760800 35.667317 -0.718971 2.226989 0.041529 -0.027763 1474820.000000 0 0 1
21.688362 -20.107707 -21.456700 36.538950 -0.747598 2.198426 0.035882 -0.029658 -14551.700000 0 0 1
21.054262 -20.628507 -20.297600 35.788403 -0.775184 2.173845 0.037141 -0.032454 225855.000000 0 0 1
21.309662 -22.019007 -20.236700 36.721416 -0.801768 2.154463 0.047085 -0.026167 -435977.000000 0 0 1
-16.906225 12.915074 28.952345 35.928510 -0.652353 0.633717 0.044076 -0.021320 -441571.000000 0 0 1
-18.134825 13.429074 28.524475 36.371109 -0.637402 0.669291 0.038412 -0.022258 -179945.000000 0 0 1
-18.382425 13.240774 27.120225 35.337490 -0.624218 0.695922 0.044955 -0.023234 95836.100000 0 0 1
-19.659425 13.870574 26.519295 35.807245 -0.614437 0.736815 0.054918 -0.018096 -54859.400000 0 0 1
-19.620225 15.273574 26.555595 36.379045 -0.661469 0.752519 0.054968 -0.024054 -480315.000000 0 0 1
-20.646425 15.970074 25.940025 36.799497 -0.658374 0.788512 0.072270 -0.025781 -920397.000000 0 0 1
-20.511225 17.474774 26.247815 37.616829 -0.705632 0.798520 0.065792 -0.021131 922398.000000 0 0 1
-19.342725 18.156974 25.735335 36.961117 -0.753788 0.800593 0.046952 -0.025112 1069340.000000 0 0 1
-18.182825 18.094674 26.562115 36.926661 -0.782968 0.767972 0.050970 -0.014343 520295.000000 0 0 1
-16.923825 18.869574 26.091375 36.376318 -0.839705 0.770930 0.052411 -0.021943 244256.000000 0 0 1
-17.135025 20.261674 25.974675 37.132577 -0.868812 0.796082 0.054125 -0.025721 896827.000000 0 0 1
-15.934025 20.952674 25.534995 36.673473 -0.920624 0.800595 0.056794 -0.023117 898472.000000 0 0 1
-16.097025 22.502074 25.266295 37.467896 -0.949838 0.830719 0.053752 -0.016466 67924.800000 0 0 1
-15.784125 23.306274 26.438525 38.617569 -0.975504 0.816708 0.049137 -0.010763 -20372.200000 0 0 1
-16.082525 24.663074 26.225785 39.429768 -0.992954 0.843133 0.052110 -0.018592 -392188.000000 0 0 1
-15.461825 25.558674 27.295425 40.464232 -1.026742 0.830432 0.035404 -0.008312 -274454.000000 0 0 1
-14.090925 25.834274 27.154405 40.041548 -1.071464 0.825546 0.039989 -0.011157 -431933.000000 0 0 1
-13.723025 26.635574 28.256195 41.184800 -1.095052 0.814705 0.044652 -0.006882 163540.000000 0 0 1
-12.204725 26.870874 28.412435 40.966641 -1.144456 0.804390 0.042538 -0.007137 259376.000000 0 0 1
-11.441025 27.484274 27.439365 40.487049 -1.176339 0.826123 0.039895 -0.007608 -547070.000000 0 0 1
-10.094025 27.669974 27.777285 40.485730 -1.220997 0.814681 0.028704 -0.002651 -74550.200000 0 0 1
-9.285625 28.382574 26.666675 40.036295 -1.254613 0.841879 0.039829 -0.008668 778567.000000 0 0 1
-7.870925 28.123774 26.659025 39.542404 -1.297911 0.830931 0.025810 -0.009063 919519.000000 0 0 1
-7.347025 28.421174 25.376945 38.803753 -1.317829 0.857961 0.039175 -0.015294 -337951.000000 0 0 1
-5.891025 27.931574 25.256915 38.115466 -1.362934 0.846455 0.029915 -0.018263 -264787.000000 0 0 1
-5.103425 28.668874 26.169055 39.150590 -1.394629 0.838713 0.040790 -0.020719 -267319.000000 0 0 1
-3.717825 28.465374 26.043885 38.760594 -1.440923 0.834003 0.026252 -0.015474 32443.200000 0 0 1
-2.910425 29.480774 25.227695 38.910451 -1.472392 0.865378 0.020512 -0.015139 -459181.000000 0 0 1
-2.810125 29.193574 23.874475 37.817352 -1.474834 0.887555 0.010552 -0.010888 -11392.000000 0 0 1
-2.548525 30.365874 23.139965 38.262766 -1.487065 0.921326 0.007769 -0.010693 -638626.000000 0 0 1
-2.850625 30.191974 21.614865 37.240888 -1.476659 0.951568 0.006145 -0.007060 409320.000000 0 0 1
-4.187425 29.997474 21.186865 36.963039 -1.432100 0.960402 0.009845 -0.004625 -132721.000000 0 0 1
-4.730325 28.746474 21.619065 36.278364 -1.407705 0.932383 0.004791 -0.006282 971377.000000 0 0 1
-6.295025 28.652774 21.314165 36.261583 -1.354532 0.942473 0.027546 -0.010902 1412290.000000 0 0 1
-6.537125 28.608574 19.897865 35.455741 -1.346151 0.974958 0.018716 -0.008456 -257102.000000 0 0 1
-7.461025 27.631974 19.495765 34.630590 -1.307071 0.972829 0.021636 -0.013926 -1012660.000000 0 0 1
-6.861925 26.260574 19.175365 33.232490 -1.315210 0.955738 0.013574 -0.012520 116261.000000 0 0 1
-5.964625 26.311274 18.072465 32.472664 -1.347869 0.980576 0.011218 -0.014432 -409076.000000 0 0 1
-4.656125 26.540474 18.490165 32.679695 -1.397129 0.969393 0.011504 -0.012100 -686386.000000 0 0 1
-3.575125 26.827874 17.383565 32.166826 -1.438315 0.999861 0.009555 -0.007077 479923.000000 0 0 1
-3.069425 25.747474 16.646465 30.813286 -1.452144 1.000078 0.016183 -0.013772 -465340.000000 0 0 1
-2.432525 26.164674 15.521865 30.519431 -1.478093 1.037250 0.023128 -0.020945 -370734.000000 0 0 1
-1.850325 25.007074 14.668465 29.050668 -1.496939 1.041499 0.034115 -0.020869 649168.000000 0 0 1
-0.771625 24.324174 15.349665 28.772783 -1.539084 1.008088 0.016882 -0.020662 559095.000000 0 0 1
-0.273725 23.177774 14.662165 27.427417 -1.558987 1.006785 0.016452 -0.026110 -246129.000000 0 0 1
1.058675 22.732074 15.299565 27.421610 1.524258 0.978897 0.010920 -0.020185 -283626.000000 0 0 1
2.088475 23.664874 15.024565 28.109172 1.482772 1.006871 0.026850 -0.028606 -272317.000000 0 0 1
3.262875 23.060574 15.564165 28.012134 1.430238 0.981685 0.026374 -0.021546 -291792.000000 0 0 1
4.387175 24.104174 15.585665 29.037415 1.390758 1.004223 0.048179 -0.025276 354515.000000 0 0 1
5.685175 23.514874 15.673865 28.826040 1.333579 0.995910 0.052262 -0.023850 388654.000000 0 0 1
6.751575 24.445474 15.646065 29.798730 1.301325 1.018013 0.071146 -0.028446 -130132.000000 0 0 1
8.099275 23.700074 15.715765 29.568176 1.241498 1.010415 0.087283 -0.025051 -119352.000000 0 0 1
8.650975 23.188874 14.496065 28.682733 1.213722 1.040958 0.072145 -0.022881 346142.000000 0 0 1
9.471075 24.138374 13.798865 29.372965 1.196888 1.081753 0.078766 -0.021554 -427821.000000 0 0 1
10.077075 23.447774 12.607465 28.465659 1.164895 1.111965 0.074387 -0.014759 -250901.000000 0 0 1
11.166875 22.592674 12.938965 28.329222 1.111743 1.096474 0.078736 -0.011564 225361.000000 0 0 1
11.634275 21.837574 11.885165 27.449830 1.081282 1.123003 0.073427 -0.014117 -74295.200000 0 0 1
12.744175 20.844874 12.253065 27.332405 1.022050 1.105936 0.069954 -0.012444 -208175.000000 0 0 1
12.253775 19.719874 12.932165 26.575728 1.014796 1.062585 0.058652 -0.017363 -474269.000000 0 0 1
13.224975 18.766974 13.178265 26.471984 0.956927 1.049714 0.058455 -0.021453 -709861.000000 0 0 1
14.008275 18.916374 14.475165 27.633157 0.933379 1.019452 0.056179 -0.019084 -11429.100000 0 0 1
14.862575 17.776274 14.671665 27.425350 0.874433 1.006327 0.060824 -0.014298 511127.000000 0 0 1
15.641875 17.870974 15.882265 28.570725 0.851815 0.981360 0.054049 -0.024981 512028.000000 0 0 1
16.784775 16.816374 15.950765 28.617233 0.786339 0.979566 0.045389 -0.022654 99165.900000 0 0 1
17.351775 16.627474 17.207165 29.557462 0.764085 0.949414 0.048616 -0.024547 114467.000000 0 0 1
18.449575 15.722474 17.138065 29.686635 0.705762 0.955379 0.048580 -0.021510 437977.000000 0 0 1
19.048675 15.459374 18.573965 30.770708 0.681757 0.922756 0.047427 -0.021121 181356.000000 0 0 1
19.617975 16.643974 19.241765 32.126817 0.703567 0.928630 0.065560 -0.018603 209300.000000 0 0 1
18.682775 17.440874 19.900165 32.392079 0.751033 0.909231 0.057361 -0.013159 -178547.000000 0 0 1
19.322275 18.646274 20.692165 33.899846 0.767596 0.914242 0.047484 -0.008581 -79540.000000 0 0 1
18.315775 19.475574 21.174165 34.104411 0.816078 0.900953 0.082758 -0.017680 291939.000000 0 0 1
18.923075 20.555674 21.875765 35.484752 0.826728 0.906528 0.071237 -0.012205 670996.000000 0 0 1
17.771575 21.509974 22.325065 35.733967 0.880282 0.895975 0.089554 -0.019453 956411.000000 0 0 1
16.954075 21.037474 23.421695 35.757402 0.892469 0.856592 0.104905 -0.023250 637324.000000 0 0 1
16.202875 22.095374 23.991255 36.418663 0.938059 0.851623 0.096208 -0.030472 164562.000000 0 0 1
15.392475 21.851574 25.269255 36.782534 0.957117 0.813457 0.107696 -0.030897 619648.000000 0 0 1
14.282175 20.958574 25.176765 35.736702 0.972630 0.789068 0.101545 -0.030615 561356.000000 0 0 1
13.517375 20.884974 26.404345 36.277969 0.996371 0.755638 0.092909 -0.022494 546112.000000 0 0 1
12.591275 19.632874 26.423815 35.244971 1.000536 0.723159 0.091403 -0.017108 595695.000000 0 0 1
13.350975 18.373374 26.461935 34.872101 0.942409 0.709284 0.091208 -0.018911 605257.000000 0 0 1
14.001775 17.999874 25.246425 34.020981 0.909688 0.734622 0.105719 -0.025428 -188502.000000 0 0 1
13.135775 17.527074 24.061735 32.537886 0.927643 0.738470 0.114748 -0.027565 -126126.000000 0 0 1
12.459675 18.551474 23.291555 32.278433 0.979367 0.764711 0.100472 -0.028379 486756.000000 0 0 1
13.310775 19.345074 22.446365 32.484580 0.968122 0.807945 0.097599 -0.027327 339684.000000 0 0 1
14.015975 18.583874 21.276565 31.535697 0.924612 0.830263 0.107390 -0.021732 444851.000000 0 0 1
13.143675 18.093174 20.229865 30.155706 0.942542 0.835446 0.074298 -0.024912 182162.000000 0 0 1
13.760875 17.053674 19.496165 29.330700 0.891853 0.843702 0.056373 -0.019607 -376837.000000 0 0 1
12.824475 16.283574 18.587565 27.840968 0.903680 0.839771 0.058829 -0.019415 -567405.000000 0 0 1
12.269775 17.053074 17.566165 27.384756 0.947099 0.874399 0.067392 -0.020213 -368392.000000 0 0 1
11.183175 16.329374 17.068365 26.135052 0.970311 0.859148 0.057434 -0.023232 -323240.000000 0 0 1
10.721775 16.987374 15.717565 25.506258 1.007779 0.906857 0.050089 -0.016976 -313060.000000 0 0 1
10.035675 18.205074 15.772165 26.094074 1.066989 0.921740 0.053246 -0.019529 183023.000000 0 0 1
9.620575 18.637274 14.438865 25.463391 1.094272 0.967884 0.045330 -0.007915 -13103.800000 0 0 1
8.542775 19.774874 14.444765 25.935996 1.163010 0.980101 0.052075 -0.008068 85413.100000 0 0 1
7.286575 19.275674 14.808465 25.375903 1.209381 0.947686 0.026818 -0.013756 -609740.000000 0 0 1
6.436975 20.355074 15.176565 26.193354 1.264513 0.952798 0.041724 -0.015288 403683.000000 0 0 1
5.083475 19.882474 15.776465 25.885350 1.320483 0.915399 0.030690 -0.020656 228327.000000 0 0 1
4.193975 19.302174 14.841765 24.707111 1.356842 0.926410 0.034599 -0.022859 862215.000000 0 1 0
2.938975 18.974974 15.517565 24.687690 1.417130 0.891103 0.019582 -0.018578 1209390.000000 0 1 0
1.838775 18.556874 14.528265 23.639145 1.472030 0.908936 0.011703 -0.020672 -171235.000000 0 1 0
1.150575 19.570574 13.842465 23.998855 1.512073 0.955994 0.014654 -0.027141 -21826.300000 0 1 0
0.185975 19.123674 12.896165 23.066438 1.561072 0.977511 0.012685 -0.031064 -54117.600000 0 1 0
-0.729525 20.179074 12.286465 23.636507 -1.534660 1.024169 0.017823 -0.026888 937653.000000 0 1 0
-1.897225 20.507074 13.087965 24.401524 -1.478543 1.004680 0.025469 -0.028371 122791.000000 0 1 0
-2.946225 20.866074 12.283465 24.391736 -1.430527 1.043046 0.036825 -0.030399 -212124.000000 0 1 0
-4.248725 21.395574 12.939565 25.362464 -1.374767 1.035396 0.040250 -0.027432 114067.000000 0 0 1
-4.750925 20.531174 13.863965 25.225184 -1.343398 0.988901 0.038991 -0.027402 -684566.000000 0 0 1
-5.832525 21.236774 14.412165 26.319753 -1.302762 0.991327 0.041116 -0.021216 -1064440.000000 0 0 1
-6.647625 20.590774 15.484665 26.607250 -1.258515 0.949645 0.036070 -0.014857 -1474380.000000 0 0 1
-7.545225 19.635974 15.007165 25.840219 -1.203936 0.951125 0.042124 -0.012159 -440443.000000 0 0 1
-8.267125 18.986174 16.016665 26.179261 -1.160126 0.912453 0.035215 -0.001358 -197126.000000 0 0 1
-9.286225 19.755774 16.866165 27.586085 -1.131394 0.912966 0.032865 0.005762 117897.000000 0 0 1
-10.460525 20.149574 16.110465 27.838373 -1.091951 0.953645 0.027491 0.001891 366338.000000 0 0 1
-11.611625 19.659574 16.720165 28.300046 -1.037292 0.938724 0.018405 0.008380 209633.000000 0 0 1
-12.935825 19.569274 15.888765 28.332753 -0.986708 0.975455 0.017102 0.004574 342840.000000 0 0 1
-13.478525 20.762374 15.451265 29.180274 -0.994998 1.012773 0.007486 0.002156 -388211.000000 0 0 1
-14.553825 20.475274 14.614865 29.062776 -0.952859 1.043878 0.008911 -0.002925 -359501.000000 0 0 1
-15.421725 21.647774 14.108465 30.091602 -0.951801 1.082807 0.009729 -0.013010 16182.700000 0 0 1
-16.454025 22.016874 14.992065 31.308780 -0.929002 1.071457 0.007105 -0.018472 103529.000000 0 0 1
-17.440025 22.930774 14.504065 32.254345 -0.920577 1.104392 0.017565 -0.012932 128743.000000 0 0 1
-18.636225 22.939474 15.468465 33.358683 -0.888535 1.088628 0.046775 -0.020259 -341033.000000 0 0 1
-19.415525 21.724374 15.311165 32.914173 -0.841461 1.086953 0.047970 -0.026307 1092180.000000 0 0 1
-20.575625 21.614974 16.162365 33.937965 -0.810028 1.074431 0.054423 -0.026574 1337090.000000 0 0 1
-21.801025 22.571774 16.005165 35.226907 -0.802766 1.099160 0.058712 -0.032166 -72535.300000 0 0 1
-22.435125 22.384574 14.724665 34.945954 -0.784270 1.135857 0.064893 -0.025652 779814.000000 0 0 1
-23.399825 23.452574 14.497165 36.162727 -0.786524 1.158312 0.073701 -0.029723 421945.000000 0 0 1
-22.879925 24.749874 13.771665 36.410245 -0.824638 1.182906 0.056108 -0.019775 -296750.000000 0 0 1
-21.793025 25.281874 14.502265 36.392647 -0.859376 1.160922 0.036224 -0.024764 69350.400000 0 0 1
-21.402825 26.504474 13.902665 36.794730 -0.891488 1.183330 0.038443 -0.015583 -806701.000000 0 0 1
-19.970025 26.949274 14.180665 36.416432 -0.933065 1.170813 0.041495 -0.010195 -998254.000000 0 0 1
-19.071225 26.226574 13.396865 35.085906 -0.942066 1.179020 0.034833 -0.008071 -773828.000000 0 0 1
-17.816125 26.811774 13.640565 34.962130 -0.984303 1.169999 0.024006 -0.010639 -378616.000000 0 0 1
-16.792925 26.428474 12.552465 33.734714 -1.004746 1.189533 0.022928 -0.011367 478012.000000 0 0 1
-15.456725 26.875574 12.769265 33.530001 -1.048871 1.180101 0.029358 -0.008036 847400.000000 0 0 1
-14.525125 26.382674 11.784865 32.340497 -1.067527 1.197808 0.025338 -0.003572 987045.000000 0 0 1
-13.057525 26.674774 12.244965 32.124472 -1.115577 1.179732 0.037559 0.007979 -278004.000000 0 0 1
-12.080125 25.933374 11.580465 30.863838 -1.134870 1.186171 0.042856 0.001551 877671.000000 0 0 1
-10.734325 26.245574 11.994065 30.788204 -1.182559 1.170635 0.049471 -0.002749 921192.000000 0 0 1
-10.049825 27.492574 11.404365 31.414967 -1.220339 1.199286 0.050445 -0.003776 -82834.300000 0 0 1
-8.777825 27.700074 12.028065 31.448667 -1.263919 1.178332 0.066761 -0.017282 515581.000000 0 0 1
-8.243525 28.931274 11.607065 32.244353 -1.293218 1.202558 0.078544 -0.022621 -807669.000000 0 0 1
-6.944725 29.351574 12.242465 32.551836 -1.338464 1.185222 0.060835 -0.027728 -406453.000000 0 0 1
-5.793025 28.766274 11.647565 31.570927 -1.372072 1.192935 0.073649 -0.020800 337567.000000 0 0 1
-4.610125 29.184374 12.332365 32.016686 -1.414125 1.175387 0.067410 -0.021776 86710.800000 0 0 1
-3.322025 28.669674 11.685365 31.137338 -1.455438 1.186092 0.074511 -0.034427 -533087.000000 0 0 1
-2.943625 29.511874 10.649465 31.512327 -1.471381 1.226063 0.096988 -0.035855 41289.900000 0 0 1
-1.817425 28.983574 9.980665 30.707723 -1.508173 1.239762 0.088139 -0.033925 114356.000000 0 0 1
-1.358925 29.725274 8.698365 31.001615 -1.525112 1.286400 0.082751 -0.031957 -169189.000000 0 0 1
-2.276825 29.708674 7.657665 30.764088 -1.494307 1.319236 0.086798 -0.030102 -214579.000000 0 0 1
-1.816325 30.493374 6.538665 31.239383 -1.511302 1.359929 0.089312 -0.023470 184148.000000 0 0 1
11.809575 -34.110707 -26.373470 44.705327 -1.237499 2.201781 0.156142 -0.050969 21395.600000 0 0 1
12.334575 -33.515407 -25.206770 43.712761 -1.218153 2.185413 0.141730 -0.043237 165600.000000 0 0 1
13.569975 -32.862307 -25.424110 43.708818 -1.179190 2.191577 0.140404 -0.035695 -78355.200000 0 0 1
14.330575 -32.772307 -24.110400 43.135842 -1.158573 2.163905 0.124972 -0.028740 -870360.000000 0 0 1
13.772175 -31.818107 -23.294800 41.769755 -1.162303 2.162403 0.140195 -0.032016 65395.000000 0 0 1
14.065275 -32.002507 -21.906100 41.253723 -1.156704 2.130587 0.096753 -0.024563 444448.000000 0 0 1
15.526375 -31.664307 -21.432700 41.268115 -1.114904 2.116889 0.056126 -0.009767 309016.000000 0 0 1
16.353975 -32.766007 -21.687700 42.560781 -1.107858 2.105481 0.066652 -0.015309 487112.000000 0 0 1
17.597675 -32.661907 -20.966900 42.615598 -1.076606 2.085183 0.040749 -0.016505 812619.000000 0 0 1
18.635075 -33.791407 -21.138400 43.999513 -1.066822 2.071934 0.014516 -0.005810 616876.000000 0 0 1
20.001875 -33.475407 -20.880700 44.234393 -1.032210 2.062407 0.006550 0.002296 815110.000000 0 0 1
20.855575 33.693074 -21.279600 44.977768 1.016533 2.063618 0.007174 0.015572 -276683.000000 0 0 1
22.320975 33.856274 -20.896700 45.619572 0.987921 2.046613 0.027068 0.018884 -524897.000000 0 0 1
23.168575 -33.733807 -21.820800 46.377796 -0.968981 2.060655 0.023590 0.011543 -388485.000000 0 0 1
24.491575 -33.744007 -21.373900 46.854443 -0.942961 2.044490 0.018989 0.022113 -269313.000000 0 0 1
25.437575 -33.213507 -22.498800 47.501613 -0.917209 2.064219 0.022726 0.010504 42557.300000 0 0 1
25.382875 -31.788207 -22.711400 46.589571 -0.896971 2.079996 0.018589 0.005245 272894.000000 0 0 1
24.182575 -31.350207 -23.355400 45.968545 -0.913759 2.103743 0.004261 0.006329 401983.000000 0 0 1
23.897575 -29.836807 -23.327900 44.783033 -0.895481 2.118712 0.006437 -0.009405 -643995.000000 0 0 1
24.758675 -29.108507 -24.126800 45.192916 -0.865974 2.133958 0.006921 -0.005153 -354639.000000 0 0 1
24.716675 -27.705407 -23.858700 44.133221 -0.842349 2.141954 0.030888 -0.006422 142972.000000 0 0 1
25.195975 -26.817307 -25.050860 44.514612 -0.816560 2.168512 0.035253 -0.012137 438149.000000 0 0 1
24.236675 -26.729107 -26.102840 44.533356 -0.834263 2.197084 0.023244 -0.012816 -161709.000000 0 0 1
24.890575 -26.273907 -27.263530 45.311797 -0.812429 2.216408 0.033854 -0.013415 -722410.000000 0 0 1
24.037375 -25.898907 -28.505620 45.399550 -0.822659 2.249627 0.033580 -0.014584 604708.000000 0 0 1
23.220875 -24.676907 -28.401850 44.213390 -0.815788 2.268398 0.047663 -0.019324 -55743.700000 0 0 1
22.066575 -24.966407 -27.662490 43.306680 -0.846975 2.263679 0.029186 -0.016196 -1329410.000000 0 0 1
21.418075 -23.618707 -27.301300 41.975448 -0.834222 2.278922 0.037607 -0.017316 -357550.000000 0 0 1
21.018075 -22.928107 -28.479880 42.172991 -0.828834 2.312182 0.056717 -0.021047 65565.000000 0 0 1
20.340275 -21.764207 -28.103880 40.954067 -0.819204 2.327089 0.045114 -0.011608 -559610.000000 0 0 1
19.416275 -21.186407 -29.187650 40.960646 -0.828967 2.363962 0.068563 -0.020881 710698.000000 0 0 1
18.186975 -21.937607 -29.203160 40.802564 -0.878602 2.368449 0.061918 -0.024516 723885.000000 0 0 1
17.114975 -21.337207 -29.906380 40.528883 -0.894765 2.400754 0.055885 -0.030204 272549.000000 0 0 1
15.884675 -22.284407 -29.842590 40.490713 -0.951521 2.399451 0.053565 -0.028208 -145143.000000 0 0 1
16.070575 -23.426907 -30.638430 41.782733 -0.969536 2.393929 0.053159 -0.020785 91026.400000 0 0 1
15.141075 -24.395507 -30.228660 41.691304 -1.015331 2.381917 0.068050 -0.025903 -125306.000000 0 0 1
15.572375 -25.778507 -30.694890 43.002402 -1.027380 2.365698 0.088816 -0.023091 312079.000000 0 0 1
14.668375 -26.799007 -30.235820 42.983169 -1.069992 2.351014 0.103395 -0.025425 450375.000000 0 0 1
15.120575 -28.089407 -30.680340 44.259799 -1.076979 2.336698 0.126294 -0.022720 612919.000000 0 0 1
14.298475 -29.258907 -30.013320 44.286899 -1.116239 2.315429 0.141201 -0.040000 267351.000000 0 0 1
14.613075 -29.462707 -28.646450 43.614357 -1.110365 2.287380 0.169535 -0.046002 -68207.800000 0 0 1
14.181475 -28.501307 -27.711870 42.206474 -1.109092 2.287070 0.150231 -0.038364 -163261.000000 0 0 1
15.217575 -28.266207 -26.587560 41.682747 -1.076929 2.262507 0.117384 -0.024445 -197006.000000 0 0 1
15.460475 -29.406207 -25.770210 42.045868 -1.086757 2.230531 0.123379 -0.030191 279166.000000 0 0 1
16.338375 -29.172707 -24.654300 41.543036 -1.060265 2.206152 0.124075 -0.034711 -535880.000000 0 0 1
15.908475 -28.113107 -23.615900 40.014211 -1.055848 2.202088 0.109225 -0.031554 1335010.000000 0 0 1
14.778575 -28.446707 -22.741000 39.303619 -1.091657 2.187805 0.102525 -0.030691 1459680.000000 0 0 1
13.502875 -28.628307 -23.345700 39.331022 -1.130075 2.206283 0.125191 -0.030006 248600.000000 0 0 1
12.329375 -28.215407 -22.383100 38.067386 -1.158828 2.199363 0.107731 -0.025339 399072.000000 0 0 1
12.279775 -26.804207 -22.111100 36.853211 -1.141203 2.214269 0.088849 -0.023975 568744.000000 0 0 1
10.914275 -26.493307 -21.828400 36.020768 -1.180019 2.221812 0.089850 -0.018337 504344.000000 0 0 1
10.701075 -25.044907 -21.426800 34.653544 -1.167000 2.237393 0.111856 -0.024221 -285384.000000 0 0 1
11.239475 -24.612707 -20.212300 33.773484 -1.142423 2.212382 0.089953 -0.018506 -104197.000000 0 0 1
10.956375 -23.240007 -19.963000 32.537078 -1.130253 2.231340 0.090758 -0.030756 -30666.500000 0 0 1
11.472375 -22.627007 -18.612700 31.464733 -1.101547 2.203766 0.095751 -0.028943 -134893.000000 0 0 1
10.653475 -22.888707 -17.509100 30.723900 -1.135171 2.177163 0.096295 -0.030154 174531.000000 0 0 1
11.182275 -22.313307 -16.318000 29.819525 -1.106231 2.149842 0.078917 -0.026923 -76500.000000 0 0 1
10.243475 -22.632007 -15.139400 29.091888 -1.145774 2.118115 0.055515 -0.020073 63538.700000 0 0 1
10.325675 -23.968507 -14.669400 29.938273 -1.164022 2.082873 0.070403 -0.014749 -53928.500000 0 0 1
9.598275 -24.129907 -13.479900 29.258964 -1.192209 2.049591 0.072760 -0.016230 -152785.000000 0 0 1
9.450275 -25.620107 -13.089500 30.282546 -1.217418 2.017778 0.065209 -0.007001 453873.000000 0 0 1
10.675075 -26.257507 -12.730000 31.071962 -1.184653 1.992915 0.048709 -0.013260 262531.000000 0 0 1
10.585275 -27.664807 -12.871400 32.296479 -1.205357 1.980719 0.043237 -0.012505 -383839.000000 0 0 1
11.878075 -28.382207 -12.413000 33.177114 -1.174440 1.954269 0.051050 -0.014766 1372000.000000 0 0 1
13.159275 -27.955707 -12.945800 33.500475 -1.130847 1.967561 0.046321 -0.014222 1181590.000000 0 0 1
13.355675 -28.135007 -14.329000 34.282254 -1.127593 2.002007 0.043966 -0.006864 -486318.000000 0 0 1
14.706075 -27.728807 -14.982200 34.779616 -1.083162 2.016148 0.017497 -0.004434 685797.000000 0 0 1
15.818975 -28.517507 -14.546100 35.708223 -1.064343 1.990358 0.065633 -0.012898 500717.000000 0 0 1
17.022075 -27.961507 -15.041300 36.025513 -1.023955 2.001508 0.079844 -0.018025 1102920.000000 0 0 1
18.367575 -28.733307 -14.746900 37.154297 -1.002020 1.978944 0.075358 -0.023833 984360.000000 0 0 1
18.525675 -30.002607 -15.314700 38.443427 -1.017631 1.980535 0.059198 -0.018500 654794.000000 0 0 1
19.904375 -30.398607 -15.460200 39.487685 -0.991069 1.973079 0.076535 -0.014672 1045710.000000 0 0 1
20.179275 -31.278907 -16.706900 40.800658 -0.997845 1.992676 0.063993 -0.017245 -70534.200000 0 0 1
19.795175 -32.613607 -16.533700 41.579557 -1.025274 1.979740 0.044785 -0.010023 -28183.900000 0 0 1
20.375075 -33.416407 -17.553900 42.894514 -1.023251 1.992411 0.042436 -0.015288 257201.000000 0 0 1
20.162275 33.348874 -17.322100 42.646452 1.027011 1.989065 0.017154 0.000708 70387.700000 0 0 1
21.005575 32.976174 -16.251200 42.341041 1.003620 1.964722 0.042447 -0.008446 293421.000000 0 0 1
20.663375 31.660274 -15.812400 40.980240 0.992554 1.966930 0.032330 -0.011225 -587575.000000 0 0 1
21.571875 31.234474 -14.673500 40.697049 0.966378 1.939659 0.041625 -0.015630 -1527220.000000 0 0 1
22.909175 31.064274 -15.045100 41.426736 0.935358 1.942468 0.040768 -0.009477 -355347.000000 0 0 1
23.670475 30.604674 -13.935100 41.123284 0.912470 1.916503 0.051781 -0.007733 -9843.640000 0 0 1
23.288275 29.223174 -13.343300 39.678474 0.897942 1.913766 0.059118 -0.008618 -1404830.000000 0 0 1
23.745275 28.079274 -13.971200 39.337999 0.868832 1.933879 0.051653 -0.004946 -127898.000000 0 0 1
23.492375 26.889574 -13.229500 38.078348 0.852725 1.925624 0.012600 -0.008258 -746618.000000 0 0 1
22.110175 26.557274 -12.662600 36.803398 0.876522 1.922034 0.006211 -0.005039 -752943.000000 0 0 1
21.307475 26.207574 -13.785400 36.481265 0.888162 1.958298 0.016760 -0.009774 954164.000000 0 0 1
19.875375 26.385674 -13.640800 35.739415 0.925210 1.962403 0.031353 -0.015470 1386260.000000 0 0 1
19.371775 27.885574 -13.838600 36.665758 0.963644 1.957811 0.030811 -0.015834 -428163.000000 0 0 1
19.529275 28.537674 -15.091500 37.729893 0.970663 1.982300 0.032357 -0.011635 14896.600000 0 0 1
18.941675 27.910074 -16.222500 37.428984 0.974531 2.019082 0.031432 -0.006151 -56976.700000 0 0 1
19.023475 28.839074 -17.488500 38.722506 0.987672 2.039395 0.021886 -0.000989 262158.000000 0 0 1
18.064975 29.901374 -17.432600 39.042682 1.027329 2.033647 0.020314 -0.005292 343552.000000 0 0 1
18.027275 30.431274 -18.696000 40.007318 1.035989 2.057047 0.016303 0.010682 -110047.000000 0 0 1
16.883975 31.434574 -18.948000 40.400839 1.077900 2.058955 0.012458 0.003844 -61026.200000 0 0 1
17.003875 32.601374 -18.239700 41.044708 1.090043 2.031285 0.031875 -0.008809 829185.000000 0 0 1
15.827375 33.424974 -18.443700 41.326805 1.128557 2.033411 0.034998 -0.013642 779940.000000 0 0 1
16.030175 -33.405407 -17.718100 41.070900 -1.123384 2.016843 0.035875 -0.012727 -368671.000000 0 0 1
15.035775 -32.511907 -18.055500 40.113585 -1.137621 2.037684 0.029470 -0.007122 -565662.000000 0 0 1
14.728775 -31.647907 -17.022100 38.836564 -1.135214 2.024504 0.041107 -0.004279 225933.000000 0 0 1
13.565775 -30.690007 -17.382700 37.789748 -1.154593 2.048774 0.047882 0.001386 -112322.000000 0 0 1
12.312875 -31.239107 -17.640700 37.929975 -1.195344 2.054528 0.040774 0.006258 -134878.000000 0 0 1
11.327475 -30.248307 -17.918300 36.936936 -1.212479 2.077280 0.034648 0.014943 418929.000000 0 0 1
9.932075 -30.755007 -18.345000 37.162556 -1.258427 2.087069 0.062644 0.000883 -1111360.000000 0 0 1
9.252475 -31.309307 -17.234600 36.917644 -1.283456 2.056509 0.060383 0.005186 655951.000000 0 0 1
8.050675 -31.973907 -17.652500 37.399931 -1.324135 2.062346 0.081720 0.001480 1261500.000000 0 0 1
6.891175 -31.292007 -18.471900 36.984984 -1.354035 2.093752 0.084205 0.007562 -483199.000000 0 0 1
7.038675 -31.275607 -19.851100 37.706401 -1.349431 2.125234 0.078016 0.016814 2663.800000 0 0 1
6.814675 -32.517507 -20.494600 39.036607 -1.364217 2.123523 0.091504 -0.003889 -934451.000000 0 0 1
6.681875 -32.174207 -22.014800 39.553489 -1.366029 2.161064 0.087332 0.011300 -304256.000000 0 0 1
7.841075 -31.576607 -22.578300 39.602326 -1.327400 2.177455 0.102873 -0.001104 591059.000000 0 0 1
9.071875 -32.282107 -22.664700 40.473719 -1.296843 2.165165 0.092623 -0.013876 125767.000000 0 0 1
9.130675 -33.568407 -23.465900 41.962550 -1.305219 2.164230 0.113330 -0.027010 -451702.000000 0 0 1
8.271675 33.650174 -22.941800 41.558164 1.329762 2.155606 0.117066 -0.036006 -1182.650000 0 0 1
8.022475 32.632374 -23.883500 41.226854 1.329733 2.188689 0.117441 -0.049566 -228666.000000 0 0 1
6.810175 31.671274 -23.605200 40.083083 1.358994 2.200502 0.114846 -0.061449 34411.400000 0 0 1
5.590175 32.324974 -23.749900 40.499528 1.399553 2.197433 0.107013 -0.054325 -442790.000000 0 0 1
5.115775 32.969274 -22.559200 40.274827 1.416856 2.165341 0.082624 -0.051042 -260138.000000 0 0 1
3.808175 33.814774 -22.740100 40.927415 1.458650 2.159905 0.076147 -0.038387 1045830.000000 0 0 1
2.604775 33.041574 -22.876000 40.272098 1.492126 2.174914 0.080553 -0.051545 370838.000000 0 0 1
1.497675 33.877674 -23.095900 41.028776 1.526617 2.168710 0.072382 -0.037640 -357133.000000 0 0 1
0.197375 33.273074 -22.539100 40.188897 1.564864 2.166183 0.070963 -0.046077 -336090.000000 0 0 1
-0.036925 33.468374 -21.151400 39.591857 -1.569693 2.134400 0.056261 -0.043127 179488.000000 0 0 1
-1.272125 32.858874 -20.801400 38.910438 -1.532101 2.134827 0.051166 -0.047423 321656.000000 0 0 1
-1.753425 33.325574 -19.411000 38.606415 -1.518230 2.097622 0.062632 -0.044829 187078.000000 0 0 1
-0.931525 32.852874 -18.349700 37.641607 -1.542449 2.080003 0.071714 -0.052119 -12481.100000 0 0 1
-1.623425 32.805974 -17.151100 37.054388 -1.521351 2.052018 0.056985 -0.039262 129457.000000 0 0 1
-0.824125 31.915074 -16.150500 35.778342 -1.544980 2.039135 0.056847 -0.030872 57140.000000 0 0 1
0.400475 32.427074 -15.721100 36.039263 1.558447 2.022192 0.048336 -0.027600 -691174.000000 0 0 1
1.197875 31.336374 -15.373600 34.924931 1.532589 2.026606 0.063036 -0.023315 -89323.500000 0 0 1
2.330075 31.614774 -14.373500 34.806906 1.497227 1.996487 0.073019 -0.027255 640928.000000 0 0 1
3.496575 32.292874 -14.878500 35.727098 1.462940 2.000332 0.064636 -0.028102 363641.000000 0 0 1
4.439475 32.450974 -13.871600 35.569593 1.434835 1.971411 0.071237 -0.029338 280368.000000 0 0 1
5.849875 32.901674 -14.372600 36.377367 1.394836 1.976970 0.071481 -0.039247 838238.000000 0 0 1
6.682175 31.897474 -14.937400 35.850052 1.364293 2.000568 0.066519 -0.029806 -48690.100000 0 0 1
7.925775 32.388274 -15.369100 36.715493 1.330801 2.002699 0.060772 -0.012031 168965.000000 0 0 1
9.115275 31.397074 -15.430900 36.152139 1.288241 2.011783 0.056796 -0.024456 115742.000000 0 0 1
9.657275 31.232674 -14.114400 35.608415 1.270917 1.978365 0.056209 -0.025518 992069.000000 0 0 1
10.711475 30.201974 -14.114400 35.015871 1.229975 1.985683 0.066711 -0.031582 1115200.000000 0 0 1
10.187075 28.738274 -13.766300 33.454087 1.230138 1.994894 0.071186 -0.036762 127197.000000 0 0 1
9.419575 28.082774 -14.771200 33.099229 1.247167 2.033389 0.090595 -0.039128 433997.000000 0 0 1
8.779575 26.890874 -14.236500 31.668249 1.255218 2.037059 0.069122 -0.033237 146338.000000 0 0 1
7.905675 26.196574 -15.315300 31.357911 1.277705 2.081055 0.079521 -0.029551 70968.800000 0 0 1
8.685975 25.396174 -16.173200 31.336628 1.241249 2.113101 0.080984 -0.025422 -156624.000000 0 0 1
7.839775 24.558074 -16.911900 30.831371 1.261788 2.151400 0.073745 -0.009213 72129.500000 0 0 1
8.606275 23.597974 -17.851200 30.815543 1.221083 2.188656 0.085459 -0.003034 -89501.600000 0 0 1
7.757075 22.757474 -18.603600 30.400144 1.242289 2.229330 0.086983 -0.008331 33902.300000 0 0 1
8.532075 22.011374 -19.534000 30.641052 1.201007 2.262059 0.078742 -0.006031 -304438.000000 0 0 1
7.781775 21.102874 -20.494300 30.428665 1.217513 2.309756 0.066321 -0.007448 -310916.000000 0 0 1
7.393875 19.859174 -19.934800 29.093856 1.214381 2.325660 0.053624 -0.008473 151171.000000 0 0 1
6.635075 19.213374 -20.950800 29.190992 1.238282 2.371311 0.045866 -0.006207 -10046.000000 0 0 1
25.333075 -12.538226 -9.575800 29.844057 -0.459587 1.897435 0.067893 -0.010920 -234716.000000 0 0 1
25.722875 -11.734226 -8.445700 29.507427 -0.427980 1.861079 0.070265 -0.016299 758901.000000 0 0 1
24.808075 -11.934926 -7.362000 28.497054 -0.448406 1.832102 0.051954 -0.010146 -347737.000000 0 0 1
25.376575 -11.517326 -6.028200 28.512428 -0.426056 1.783828 0.039472 -0.012344 -415325.000000 0 0 1
25.564475 -10.117126 -5.709000 28.080088 -0.376837 1.775535 0.053273 -0.009005 580166.000000 0 0 1
26.535075 -9.459426 -6.510600 28.913299 -0.342443 1.797921 0.052156 -0.017812 -763124.000000 0 0 1
26.919775 -8.010926 -6.020200 28.724416 -0.289240 1.781947 0.099683 -0.017317 303734.000000 0 0 1
27.599875 -7.863426 -4.737200 29.086555 -0.277554 1.734391 0.099670 -0.024423 868943.000000 0 0 1
28.927475 -8.374026 -4.749600 30.487405 -0.281781 1.727222 0.090028 -0.020284 -181980.000000 0 0 1
29.668775 -8.271826 -3.414000 30.988945 -0.271901 1.681189 0.100637 -0.021941 -628871.000000 0 0 1
29.944975 -6.945326 -2.992300 30.885158 -0.227907 1.667833 0.111408 -0.017755 333230.000000 0 0 1
30.239775 -6.936626 -1.585600 31.065655 -0.225487 1.621859 0.102833 -0.015084 -181787.000000 0 0 1
30.621975 -5.566226 -0.980400 31.139195 -0.179809 1.602286 0.101685 -0.024082 -731224.000000 0 0 1
29.624175 -4.611226 -0.798200 29.991537 -0.154418 1.597414 0.133550 -0.020652 -612734.000000 0 0 1
29.982275 -3.306726 -0.256900 30.165167 -0.109845 1.579313 0.132460 -0.019223 -358863.000000 0 0 1
30.476475 -3.209326 1.228600 30.669607 -0.104918 1.530726 0.125007 -0.019866 384340.000000 0 0 1
29.490075 -3.341026 2.280600 29.766225 -0.112812 1.494104 0.131620 -0.030536 1109970.000000 0 0 1
30.168775 -3.231926 3.525200 30.545497 -0.106721 1.455130 0.123873 -0.023397 94166.300000 0 0 1
29.547375 -4.213026 4.536600 30.189033 -0.141631 1.419952 0.127519 -0.031099 -187298.000000 0 0 1
29.922975 -5.569426 4.284500 30.736947 -0.184020 1.430948 0.121107 -0.038669 270901.000000 0 0 1
29.908875 -6.281726 5.490000 31.050620 -0.207020 1.393054 0.107426 -0.045529 -211209.000000 0 0 1
30.807475 -7.522026 5.470700 32.180895 -0.239477 1.399968 0.080933 -0.037972 -951284.000000 0 0 1
32.151075 -7.251226 5.596100 33.430349 -0.221825 1.402609 0.101431 -0.035681 -946444.000000 0 0 1
32.952375 -8.436526 5.524600 34.460923 -0.250638 1.409787 0.092209 -0.033333 319737.000000 0 0 1
34.448975 -8.147526 5.808400 35.872714 -0.232242 1.408163 0.101943 -0.036377 13035.200000 0 0 1
35.077275 -7.649326 4.638600 36.200056 -0.214709 1.442305 0.107577 -0.036004 -591712.000000 0 0 1
36.381275 -7.301626 5.026100 37.445596 -0.198066 1.436166 0.110372 -0.028755 -108580.000000 0 0 1
-36.125911 -7.097626 3.774000 37.009470 0.193998 1.468645 0.105393 -0.024369 107374.000000 0 0 1
-36.143211 -8.290426 2.958000 37.199632 0.225477 1.491195 0.111224 -0.025909 -32906.400000 0 0 1
-35.095811 -8.105526 2.059800 36.078502 0.226974 1.513673 0.150140 -0.030205 -423422.000000 0 0 1
-34.739011 -9.335126 1.222300 35.992187 0.262520 1.536830 0.143864 -0.029583 -367754.000000 0 0 1
-34.268811 -10.427826 1.968100 35.874286 0.295392 1.515908 0.136834 -0.031579 355773.000000 0 0 1
-33.972611 -11.532926 1.140400 35.894947 0.327270 1.539020 0.122443 -0.034764 -683722.000000 0 0 1
-33.661211 -12.878326 1.834100 36.087288 0.365405 1.519950 0.102222 -0.032167 423981.000000 0 0 1
-32.373111 -13.021626 2.401300 34.976382 0.382432 1.502087 0.103974 -0.029439 387838.000000 0 0 1
-31.298911 -13.207826 1.488800 34.004191 0.399318 1.526999 0.099251 -0.024213 -272134.000000 0 0 1
-30.078211 -13.876926 2.157800 33.195240 0.432262 1.505747 0.098891 -0.018644 96393.000000 0 0 1
-29.407811 -12.978326 3.043400 32.288056 0.415614 1.476398 0.108148 -0.014868 562226.000000 0 0 1
-28.041211 -13.322826 3.219500 31.211735 0.443543 1.467462 0.099057 -0.013188 242419.000000 0 0 1
-27.237311 -12.273826 4.011100 30.143106 0.423374 1.437332 0.102603 -0.009014 848688.000000 0 0 1
-25.853811 -12.598426 4.280700 29.076869 0.453432 1.423039 0.094374 -0.007268 1365350.000000 0 0 1
-25.316411 -11.550026 5.086500 28.287740 0.428020 1.390000 0.091014 0.006304 -717046.000000 0 0 1
-23.888711 -11.752226 5.554600 27.196303 0.457193 1.365108 0.090126 0.008882 -707232.000000 0 0 1
-23.727211 -12.703526 6.575000 27.705428 0.491564 1.331192 0.083457 -0.000644 13822.600000 0 0 1
-22.377511 -13.091426 6.686600 26.774037 0.529336 1.318383 0.084947 0.001689 95750.600000 0 0 1
-21.704111 -12.698326 8.016700 26.392867 0.529366 1.262175 0.079576 -0.010975 -422319.000000 0 0 1
-21.534411 -11.324626 8.323100 25.714821 0.484141 1.241191 0.077717 -0.009461 860679.000000 0 0 1
-22.697911 -10.529426 8.613800 26.462455 0.434348 1.239245 0.076516 -0.006268 -99279.400000 0 0 1
-23.132711 -10.308526 10.085400 27.259922 0.419210 1.191818 0.071532 -0.007326 -265320.000000 0 0 1
-23.614511 -11.477226 10.723700 28.361410 0.452405 1.183044 0.051335 -0.008938 188645.000000 0 0 1
-24.876911 -12.019226 10.386100 29.515989 0.450075 1.211217 0.041291 -0.010836 -94653.500000 0 0 1
-26.003111 -11.496026 11.330500 30.605565 0.416267 1.191561 0.064534 -0.020941 -349605.000000 0 0 1
-26.070911 -12.135126 12.542800 31.373166 0.435641 1.159504 0.047442 -0.025264 267318.000000 0 0 1
-27.159411 -11.746926 13.370500 32.471436 0.408221 1.146410 0.042829 -0.032165 136632.000000 0 0 1
-27.136211 -12.467026 14.725100 33.296085 0.430663 1.112694 0.043894 -0.035302 -214491.000000 0 0 1
-27.425411 -13.842826 14.604500 34.015709 0.467436 1.127028 0.038235 -0.032133 449219.000000 0 0 1
-27.259211 -14.511226 15.841200 34.707116 0.489185 1.096823 0.026571 -0.018882 -579017.000000 0 0 1
-27.007011 -15.990826 15.682000 35.085756 0.534590 1.107430 0.031258 -0.008137 -318600.000000 0 0 1
-28.201811 -16.750826 15.497800 36.278287 0.535969 1.129411 0.034140 -0.007332 384326.000000 0 0 1
-27.930211 -18.109926 15.628200 36.773724 0.575249 1.131853 0.029535 -0.001919 -492445.000000 0 0 1
-29.067311 -18.933826 16.206000 38.288808 0.577344 1.133759 0.016628 0.005760 -408996.000000 0 0 1
-29.248011 -18.648126 17.578400 38.887002 0.567599 1.101748 0.027200 0.008429 103855.000000 0 0 1
-29.947211 -19.652326 18.329500 40.237047 0.580744 1.097820 0.034782 0.016285 94869.400000 0 0 1
-29.257811 -21.055526 18.505300 40.519141 0.623796 1.096508 0.026782 0.017754 -856028.000000 0 0 1
-28.106811 -20.944726 19.238000 39.984685 0.640411 1.068848 0.036874 0.017098 -636662.000000 0 0 1
-27.396311 -22.174526 19.315600 40.191540 0.680445 1.069470 0.036439 0.009050 120289.000000 0 0 1
-26.046311 -22.149426 20.072100 39.647151 0.704718 1.039944 0.046228 0.004407 -479549.000000 0 0 1
-25.020611 -21.518726 19.392300 38.277250 0.710294 1.039528 0.039567 0.001763 -780662.000000 0 0 1
-23.831711 -21.721426 20.128900 38.012411 0.739105 1.012744 0.053633 0.000453 81434.500000 0 0 1
-22.615111 -21.279326 19.251000 36.535653 0.754976 1.015836 0.057166 -0.000187 58179.700000 0 0 1
-22.400711 -22.095726 18.057200 36.277754 0.778544 1.049795 0.059018 -0.012795 1243960.000000 0 0 1
-21.048311 -21.935426 17.563100 35.109212 0.806034 1.046918 0.068493 -0.018805 1065610.000000 0 0 1
-20.673311 -22.747926 16.280500 34.783741 0.833141 1.083714 0.077813 -0.017428 -423282.000000 0 0 1
-20.736211 -24.189226 16.304400 35.790258 0.862108 1.097802 0.087554 -0.018959 1199490.000000 0 0 1
-19.643911 -24.864026 17.010700 35.964802 0.902150 1.078124 0.090616 -0.024036 734444.000000 0 0 1
-18.218211 -24.879226 16.444700 34.947207 0.938742 1.080873 0.089321 -0.029158 111206.000000 0 0 1
-17.495611 -23.639526 16.599300 33.770703 0.933661 1.056951 0.094366 -0.034813 -129038.000000 0 0 1
-16.267811 -23.726526 15.936000 32.886864 0.969774 1.064924 0.093275 -0.034651 -314022.000000 0 0 1
-15.429411 -22.436426 15.821700 31.492636 0.968377 1.044431 0.087466 -0.034514 -267195.000000 0 0 1
-15.800211 -21.406426 14.887400 30.487972 0.934951 1.060651 0.102249 -0.025851 -173922.000000 0 0 1
-16.764511 -20.491226 15.389700 30.623227 0.885097 1.044251 0.093883 -0.026042 -185108.000000 0 0 1
-16.318611 -19.303226 16.249400 30.049203 0.868989 0.999456 0.088063 -0.032516 -630925.000000 0 0 1
-15.836811 -18.168826 15.487600 28.649199 0.853868 0.999653 0.083315 -0.023467 153196.000000 0 0 1
-15.873411 -16.968226 16.243300 28.350144 0.818722 0.960692 0.075081 -0.021587 -382570.000000 0 0 1
-15.147011 -15.819126 15.485500 26.823076 0.807100 0.955354 0.066510 -0.011696 -35795.400000 0 0 1
-15.798411 -15.212626 14.397600 26.235561 0.766511 0.989890 0.059954 -0.024442 -103650.000000 0 0 1
-15.837411 -15.985226 13.255000 26.116012 0.790043 1.038465 0.079694 -0.023354 -394694.000000 0 0 1
-16.816211 -15.393426 12.247000 25.879172 0.741254 1.077834 0.065782 -0.010808 503983.000000 0 0 1
-18.181311 -15.578126 12.651000 27.079252 0.708441 1.084693 0.058370 -0.007518 243665.000000 0 0 1
-18.992011 -14.549126 12.169600 26.841623 0.653704 1.100236 0.084714 -0.013091 -393623.000000 0 0 1
-20.488911 -14.749626 12.605600 28.217868 0.623946 1.107696 0.052470 -0.016467 502193.000000 0 0 1
-21.045411 -15.869926 11.989400 28.957030 0.646107 1.143907 0.057201 -0.021665 -246916.000000 0 0 1
-21.283611 -15.773526 10.609500 28.536954 0.637788 1.189869 0.076730 -0.013053 -994823.000000 0 0 1
-21.944611 -17.006726 9.923600 29.483428 0.659300 1.227511 0.077485 -0.016260 152339.000000 0 0 1
-21.195211 -18.228226 9.838400 29.636115 0.710280 1.232402 0.083329 -0.007617 -72713.000000 0 0 1
-21.912311 -19.214526 9.122600 30.537996 0.719895 1.267435 0.079515 -0.013016 176011.000000 0 0 1
-21.191611 -20.581326 9.062400 30.899878 0.770790 1.273138 0.074144 -0.005185 56685.500000 0 0 1
-20.040711 -20.718826 8.250600 29.982866 0.802034 1.292022 0.090730 -0.002939 -54497.100000 0 0 1
-19.561011 -22.071626 8.286600 30.634255 0.845629 1.296883 0.084379 -0.007648 346037.000000 0 0 1
-18.221811 -22.340426 7.542600 29.799662 0.886590 1.314902 0.076357 -0.010670 489777.000000 0 0 1
-17.131411 -21.678726 8.168800 28.812874 0.902035 1.283342 0.062684 -0.016124 -277412.000000 0 0 1
-15.937311 -21.875126 7.472300 28.077648 0.941160 1.301420 0.072571 -0.015226 -9849.220000 0 0 1
-14.614111 -21.424126 8.105500 27.171024 0.972162 1.267870 0.038524 -0.012734 28929.000000 0 0 1
-13.410711 -21.715826 7.440100 26.585322 1.017569 1.287151 0.053620 -0.007204 -406549.000000 0 0 1
-12.336611 -21.611326 8.334700 26.243258 1.052094 1.247605 0.055844 -0.002194 86968.400000 0 0 1
-11.037411 -22.232726 7.769400 26.009270 1.109994 1.267449 0.053692 0.001342 165281.000000 0 0 1
-11.110111 -23.639026 7.662200 27.220349 1.131443 1.285452 0.047487 0.008201 133297.000000 0 0 1
-9.867211 -24.197426 7.226300 27.112667 1.183602 1.301007 0.063490 -0.001579 692542.000000 0 0 1
-9.795811 -25.758926 7.303900 28.510123 1.207398 1.311722 0.056015 -0.006490 -289283.000000 0 0 1
-10.517011 -26.431746 6.325600 29.142030 1.192107 1.351994 0.068261 -0.010704 -550827.000000 0 0 1
-10.391111 -27.829226 6.247000 30.355659 1.213439 1.363522 0.076069 -0.008543 147599.000000 0 0 1
-9.225011 -28.405306 5.392300 30.348627 1.256778 1.392169 0.085985 -0.008536 937709.000000 0 0 1
-7.946011 -28.153346 5.996700 29.861520 1.295711 1.368605 0.083563 -0.016258 337771.000000 0 0 1
-6.783011 -28.797436 5.533700 30.098561 1.339471 1.385892 0.088103 -0.010275 459457.000000 0 0 1
-6.604011 -30.221156 6.037100 31.517897 1.355655 1.378060 0.096218 -0.021006 -391192.000000 0 0 1
-6.476011 -30.151776 7.477100 31.732875 1.359230 1.332933 0.095005 -0.017921 -77586.900000 0 0 1
-6.445011 -31.449196 8.070300 33.101659 1.368661 1.324511 0.124230 -0.028664 -125120.000000 0 0 1
-6.773011 -31.662776 9.622500 33.778655 1.360061 1.281926 0.105391 -0.025631 -382190.000000 0 0 1
-5.979011 -31.003866 10.602300 33.307612 1.380288 1.246845 0.082177 -0.017578 -36381.400000 0 0 1
-6.281011 -31.225886 11.995100 34.035121 1.372298 1.210627 0.064960 -0.015979 -469078.000000 0 0 1
-5.372011 -30.394556 12.911400 33.457313 1.395860 1.174606 0.062077 -0.014075 22870.800000 0 0 1
-5.533011 -28.996006 12.679400 32.127088 1.382243 1.165094 0.069068 -0.011612 13373.100000 0 0 1
-4.887011 -28.210936 13.694900 31.737833 1.399268 1.124641 0.059184 -0.021288 -454467.000000 0 0 1
-5.679011 -27.708856 14.874900 31.957699 1.368643 1.086647 0.056568 -0.024012 -411486.000000 0 0 1
-6.249011 -28.590566 15.828800 33.271933 1.355611 1.074991 0.042554 -0.019732 165856.000000 0 0 1
-5.316011 -29.247586 16.684300 34.088812 1.391000 1.059353 0.032535 -0.016845 261789.000000 0 0 1
-5.809011 -30.666386 17.140600 35.608595 1.383588 1.068589 0.030565 -0.017609 27775.600000 0 0 1
-5.798011 -31.676726 16.167000 36.033370 1.389763 1.105523 0.032948 -0.008806 179847.000000 0 0 1
-6.348011 -32.918376 16.605400 37.411977 1.380294 1.110903 0.027385 -0.010055 5154.810000 0 0 1
-5.908011 34.069241 15.727200 37.986348 -1.399092 1.143928 0.017424 -0.013362 -272735.000000 0 0 1
-6.471011 33.992349 14.456800 37.501371 -1.382680 1.175046 0.028458 -0.016365 -213491.000000 0 0 1
-5.873011 32.957922 13.720900 36.179829 -1.394450 1.181820 0.030553 -0.021114 -503831.000000 0 0 1
-4.579011 33.387187 13.027500 36.130145 -1.434498 1.201916 0.060812 -0.022815 -445930.000000 0 0 1
-4.733011 33.959007 11.737100 36.240517 -1.432314 1.240983 0.065246 -0.023384 241499.000000 0 0 1
-3.497011 -33.870466 11.161500 35.833178 1.467914 1.254041 0.077899 -0.027517 -117094.000000 0 0 1
-3.724011 -33.582576 9.615200 35.129898 1.460356 1.293554 0.075449 -0.028543 -814847.000000 0 0 1
-3.802011 33.440740 8.809100 34.789921 -1.457588 1.314801 0.094117 -0.035915 499683.000000 0 0 1
-4.785011 32.421632 9.032300 33.994720 -1.424267 1.301869 0.092615 -0.036215 50097.400000 0 0 1
-6.257011 32.759060 9.218400 34.601808 -1.382068 1.301126 0.114749 -0.027422 -479887.000000 0 0 1
-7.089011 33.113620 8.106900 34.820794 -1.359898 1.335822 0.130023 -0.029521 1214230.000000 0 0 1
-8.400011 33.487068 8.643200 35.590010 -1.325024 1.325489 0.109757 -0.028512 1470840.000000 0 0 1
-9.429111 33.936423 7.566900 36.025643 -1.299786 1.359178 0.116682 -0.035277 26758.500000 0 0 1
-9.252611 -33.027756 7.008300 35.007995 1.297652 1.369243 0.125269 -0.040231 -132821.000000 0 0 1
-9.856611 -33.029946 5.733000 34.942773 1.280795 1.405983 0.105028 -0.032462 -287768.000000 0 0 1
-10.129211 -31.644866 5.125000 33.619400 1.261012 1.417758 0.087433 -0.034360 513172.000000 0 0 1
-11.196311 -30.891566 5.714100 33.351119 1.223083 1.398615 0.096685 -0.031790 776210.000000 0 0 1
-12.494411 -31.143846 5.153400 33.950066 1.189270 1.418414 0.095299 -0.030516 438203.000000 0 0 1
-13.618511 -30.291906 5.759200 33.708038 1.148295 1.399099 0.081421 -0.031636 -160131.000000 0 0 1
-14.172911 -30.674156 6.986400 34.504855 1.137969 1.366911 0.094071 -0.032540 -496134.000000 0 0 1
-14.976111 -29.679466 7.488100 34.076770 1.103479 1.349246 0.086401 -0.030365 -386969.000000 0 0 1
33.233372 -13.038326 -12.455500 37.809978 -0.373874 1.906489 0.084921 -0.019012 -680012.000000 0 0 1
32.431032 -13.009826 -11.350400 36.740427 -0.381500 1.884869 0.085769 -0.016819 -213794.000000 0 0 1
32.326002 -14.355326 -10.840800 36.994172 -0.417920 1.868202 0.074746 -0.019984 -67273.200000 0 0 1
33.423432 -14.792426 -9.821100 37.847004 -0.416663 1.833295 0.071784 -0.028327 25396.500000 0 0 1
34.678182 -14.839026 -10.457900 39.142569 -0.404330 1.841256 0.079352 -0.031112 -753680.000000 0 0 1
35.570702 -15.531526 -9.635200 39.991752 -0.411687 1.814120 0.070061 -0.032802 1360250.000000 0 0 1
-36.342015 -15.482126 -10.193300 40.796343 0.402727 1.823330 0.057299 -0.035307 1565490.000000 0 0 1
-35.611060 -14.304526 -9.925300 39.639357 0.381960 1.823879 0.053350 -0.015308 29532.700000 0 0 1
-34.329511 -14.340726 -10.503700 38.658756 0.395703 1.845958 0.058647 -0.029940 131799.000000 0 0 1
-33.655855 -12.984726 -10.859800 37.673000 0.368213 1.863211 0.079841 -0.032582 111915.000000 0 0 1
-33.312595 -12.260626 -9.666100 36.789746 0.352662 1.836656 0.090762 -0.029957 272370.000000 0 0 1
-32.773515 -10.989326 -9.982400 35.979395 0.323530 1.851933 0.096335 -0.024396 -326066.000000 0 0 1
-33.222315 -9.794526 -9.154200 35.825330 0.286696 1.829185 0.091801 -0.029847 -328684.000000 0 0 1
-32.716805 -9.742826 -7.857000 35.029194 0.289431 1.797020 0.099687 -0.022038 40284.500000 0 0 1
-33.403515 -8.891926 -6.988000 35.266036 0.260164 1.770267 0.132134 -0.034818 -468509.000000 0 0 1
-32.829465 -8.924626 -5.586100 34.476473 0.265434 1.733540 0.126681 -0.026103 -858189.000000 0 0 1
-31.605465 -8.238526 -5.548100 33.129445 0.254993 1.739056 0.141918 -0.042149 51405.200000 0 0 1
-30.919915 -8.315926 -4.307200 32.307085 0.262733 1.704515 0.143598 -0.035498 -283516.000000 0 0 1
-30.212205 -9.634726 -3.935000 31.954491 0.308706 1.694254 0.131655 -0.032149 -778796.000000 0 0 1
-30.947435 -10.794026 -3.576900 32.970425 0.335593 1.679498 0.140603 -0.034795 -165928.000000 0 0 1
-31.601225 -10.755226 -2.369700 33.465322 0.328045 1.641666 0.120806 -0.034842 -339643.000000 0 0 1
-32.368525 -12.076326 -2.101300 34.611768 0.357094 1.631544 0.119865 -0.028907 135818.000000 0 0 1
-33.703515 -12.198326 -2.580600 35.935853 0.347263 1.642669 0.113391 -0.034191 574252.000000 0 0 1
-34.249651 -13.450126 -2.177300 36.860346 0.374205 1.629900 0.106232 -0.039225 -54280.000000 0 0 1
-35.789631 -13.498726 -2.343200 38.322367 0.360671 1.631979 0.093615 -0.029033 -53959.500000 0 0 1
-36.375225 -12.605126 -1.467000 38.525294 0.333581 1.608884 0.101541 -0.038766 -217022.000000 0 0 1
35.668332 -12.809326 -1.247900 37.919204 -0.344779 1.603712 0.112304 -0.036146 -97407.900000 0 0 1
35.092912 -11.722226 -0.299500 37.000172 -0.322381 1.578891 0.100231 -0.033995 2988.160000 0 0 1
35.566472 -12.008826 1.021100 37.553009 -0.325626 1.543602 0.111222 -0.032397 301521.000000 0 0 1
35.386692 -10.916526 1.885500 37.080232 -0.299230 1.519925 0.103242 -0.035041 -544345.000000 0 0 1
35.639372 -11.230926 3.376900 37.519355 -0.305276 1.480670 0.107630 -0.041183 18435.400000 0 0 1
34.629322 -11.872226 4.121200 36.839164 -0.330280 1.458692 0.103447 -0.047602 -86841.700000 0 0 1
35.140562 -12.024326 5.430300 37.535739 -0.329689 1.425617 0.095140 -0.042807 -398974.000000 0 0 1
34.135402 -12.163826 6.564400 36.827648 -0.342312 1.391592 0.090838 -0.031725 -151575.000000 0 0 1
33.403312 -10.995426 6.930200 35.842828 -0.318000 1.376221 0.085836 -0.029071 323820.000000 0 0 1
32.911672 -11.096726 8.265100 35.701924 -0.325197 1.337174 0.074593 -0.012226 -681164.000000 0 0 1
32.114192 -9.921426 8.830300 34.752413 -0.299640 1.313888 0.073267 -0.027232 -247185.000000 0 0 1
30.788342 -9.881126 8.330000 33.390831 -0.310553 1.318664 0.072353 -0.023951 -532914.000000 0 0 1
30.003492 -9.186226 9.208500 32.701571 -0.297109 1.285344 0.090174 -0.014764 -928649.000000 0 0 1
28.539452 -9.377026 8.801200 31.303196 -0.317452 1.285794 0.069758 -0.019394 -559445.000000 0 0 1
28.070262 -8.767326 7.598600 30.373415 -0.302735 1.317938 0.095843 -0.023968 236859.000000 0 0 1
27.157762 -9.673426 6.983300 29.662867 -0.342182 1.333143 0.118468 -0.040533 -363638.000000 0 0 1
26.239162 -8.993426 5.971800 28.373187 -0.330200 1.358737 0.125202 -0.042212 -841198.000000 0 0 1
25.208762 -8.264426 6.577100 27.332045 -0.316798 1.327774 0.129830 -0.040246 -279518.000000 0 0 1
24.312362 -7.790326 5.595600 26.136007 -0.310090 1.355031 0.129809 -0.045939 -377844.000000 0 0 1
24.670362 -6.504826 4.803100 25.961689 -0.257802 1.384717 0.125432 -0.039296 -855406.000000 0 0 1
25.565662 -6.630526 3.714800 26.671458 -0.253762 1.431062 0.110338 -0.041478 304190.000000 0 0 1
26.037862 -5.398226 3.261400 26.790816 -0.204426 1.448758 0.124613 -0.034992 -286421.000000 0 0 1
26.834962 -5.381326 2.000400 27.442220 -0.197909 1.497837 0.130885 -0.038295 13824.300000 0 0 1
25.992262 -5.548326 0.845300 26.591279 -0.210304 1.539002 0.142841 -0.040740 385600.000000 0 0 1
26.713962 -5.439226 -0.343500 27.264243 -0.200864 1.583396 0.133255 -0.035538 -674583.000000 0 0 1
25.802562 -5.745126 -1.520000 26.478087 -0.219083 1.628234 0.137037 -0.030400 974902.000000 0 0 1
24.642862 -4.882626 -1.669100 25.177303 -0.195602 1.637139 0.151480 -0.027566 650234.000000 0 0 1
24.061562 -5.018526 -2.890100 24.748678 -0.205622 1.687841 0.144120 -0.026978 -297837.000000 0 1 0
22.850462 -4.088926 -3.080200 23.416886 -0.177069 1.702716 0.119640 -0.024321 -196349.000000 0 1 0
23.243762 -2.740726 -3.079400 23.606498 -0.117370 1.701616 0.108948 -0.026228 288622.000000 0 1 0
23.487262 -2.187326 -4.377700 23.991668 -0.092860 1.754292 0.104694 -0.023803 -275999.000000 0 1 0
22.282462 -1.494826 -5.042600 22.894769 -0.066985 1.792868 0.085484 -0.018634 -174152.000000 0 1 0
22.027362 -0.233326 -4.455200 22.474606 -0.010592 1.770351 0.077081 -0.011972 297787.000000 0 1 0
21.390562 0.645074 -5.366100 22.062804 0.030148 1.816480 0.097374 -0.009152 -436199.000000 0 1 0
21.429562 2.131174 -4.821000 22.068305 0.099124 1.791030 0.111934 -0.002977 23235.700000 0 1 0
22.754562 2.610974 -4.734000 23.387989 0.114245 1.774616 0.140652 -0.004068 413672.000000 0 1 0
23.352862 2.389574 -3.460200 23.728447 0.101970 1.717143 0.141521 -0.003119 -52709.000000 0 1 0
24.500662 3.392374 -3.172100 24.936978 0.137586 1.698347 0.133400 -0.016863 -172597.000000 0 1 0
24.111462 4.716274 -2.987000 24.749303 0.193164 1.691782 0.125705 -0.004205 199774.000000 0 1 0
25.227662 5.518274 -2.734100 25.968473 0.215347 1.676277 0.118991 -0.011432 -228048.000000 0 0 1
24.832162 7.028874 -2.659700 25.944467 0.275840 1.673492 0.104890 -0.012032 -168766.000000 0 0 1
23.889562 7.385674 -1.701400 25.063003 0.299838 1.638733 0.116509 -0.017395 506760.000000 0 0 1
22.954962 8.363874 -2.153600 24.525959 0.349410 1.658719 0.118916 -0.015535 342085.000000 0 1 0
21.751062 8.678974 -1.234300 23.451158 0.379656 1.623453 0.100797 -0.015592 218288.000000 0 1 0
22.177262 9.364674 -0.048600 24.073438 0.399552 1.572815 0.084893 -0.019321 1399450.000000 0 1 0
20.992562 9.835274 0.636400 23.191061 0.438142 1.543351 0.061207 -0.016408 848772.000000 0 1 0
21.292762 10.555474 2.018600 23.851090 0.460226 1.486062 0.068919 -0.018313 -681283.000000 0 1 0
22.053462 11.737474 1.970300 25.060039 0.489097 1.492092 0.085499 -0.026416 251281.000000 0 0 1
21.438562 12.979074 1.662400 25.116367 0.544386 1.504560 0.086279 -0.026525 -187267.000000 0 0 1
20.440062 13.660574 2.650300 24.727141 0.589149 1.463408 0.079447 -0.014495 463900.000000 0 1 0
19.137762 13.045074 2.551000 23.300976 0.598298 1.461096 0.072724 -0.012914 1755030.000000 0 1 0
18.157662 13.723174 3.422700 23.016105 0.647189 1.421534 0.070011 -0.015097 462479.000000 0 1 0
18.294262 13.600874 4.937600 23.324744 0.639296 1.357493 0.070999 -0.006229 -435213.000000 0 1 0
17.728762 12.405974 5.509500 22.328721 0.610568 1.321476 0.041657 -0.002188 542331.000000 0 1 0
18.068562 12.316574 6.827200 22.908112 0.598309 1.268173 0.060763 -0.013702 -182123.000000 0 1 0
18.272162 10.887874 7.278100 22.480846 0.537379 1.241110 0.057423 -0.012386 665400.000000 0 1 0
19.387762 10.205174 6.663100 22.900389 0.484522 1.275566 0.057162 -0.017792 922762.000000 0 1 0
19.552862 8.958774 7.231800 22.690813 0.429637 1.246428 0.066939 -0.018227 179352.000000 0 1 0
20.459162 8.034774 6.365300 22.883443 0.374217 1.288916 0.066042 -0.023500 140238.000000 0 1 0
19.938662 7.789174 5.074800 21.999434 0.372426 1.338021 0.044275 -0.014399 1120920.000000 0 1 0
20.906962 6.990874 4.369600 22.473691 0.322692 1.375118 0.055955 -0.017461 303100.000000 0 1 0
20.473662 6.598874 2.967200 21.714517 0.311797 1.433722 0.055934 -0.014713 -948752.000000 0 1 0
21.285462 5.641874 2.400500 22.150938 0.259100 1.462213 0.048687 -0.015873 -23891.600000 0 1 0
21.101162 5.557774 1.007500 21.844060 0.257538 1.524658 0.053874 -0.006931 -330267.000000 0 1 0
22.193262 4.608074 0.462100 22.671320 0.204725 1.550412 0.095275 -0.016717 290405.000000 0 1 0
21.924062 3.311274 0.877000 22.190047 0.149901 1.531264 0.070231 -0.008562 559735.000000 0 1 0
22.867162 2.429174 0.270500 22.997416 0.105833 1.559034 0.085403 -0.006681 167230.000000 0 1 0
22.812662 0.890174 0.516600 22.835867 0.039001 1.548172 0.110161 -0.008126 89080.200000 0 1 0
21.755562 0.293174 -0.237700 21.758836 0.013475 1.581721 0.055808 -0.018917 992894.000000 0 1 0
22.155562 -1.052526 -0.621100 22.189243 -0.047470 1.598791 0.095856 -0.019767 -741378.000000 0 1 0
22.376962 -2.167326 0.427800 22.485745 -0.096554 1.551770 0.127356 -0.015300 844666.000000 0 1 0
23.466062 -2.107426 1.381400 23.600966 -0.089567 1.512231 0.139573 -0.015594 437990.000000 0 1 0
24.751862 -2.104826 0.844500 24.855546 -0.084833 1.536813 0.156987 -0.028145 -1441210.000000 0 1 0
25.737662 -1.575726 1.870900 25.853635 -0.061146 1.498368 0.157411 -0.034624 -728884.000000 0 0 1
25.729362 -0.142426 2.177100 25.821699 -0.005535 1.486383 0.149022 -0.032795 628487.000000 0 0 1
26.623562 0.238374 3.227400 26.819526 0.008953 1.450166 0.149321 -0.034357 97211.300000 0 0 1
26.264362 1.644174 3.785400 26.586637 0.062519 1.427931 0.143831 -0.028697 72795.300000 0 0 1
26.579562 2.756774 2.893100 26.878299 0.103348 1.462950 0.164616 -0.029956 439135.000000 0 0 1
27.952262 3.103874 2.849200 28.268020 0.110589 1.469833 0.175012 -0.031520 172729.000000 0 0 1
28.263262 3.977874 1.623300 28.587945 0.139825 1.513983 0.183763 -0.034816 -125598.000000 0 0 1
27.996262 3.370874 0.357500 28.200732 0.119828 1.558119 0.203020 -0.025398 302665.000000 0 0 1
28.399642 4.159074 -0.777800 28.713108 0.145414 1.597888 0.189336 -0.022876 477832.000000 0 0 1
29.832222 3.841674 -1.338300 30.108321 0.128071 1.615260 0.172295 -0.024850 746153.000000 0 0 1
30.862022 4.295274 -0.464800 31.162956 0.138288 1.585712 0.162331 -0.032218 122210.000000 0 0 1
32.157812 4.018374 -0.933600 32.421348 0.124314 1.599596 0.136523 -0.029656 417101.000000 0 0 1
33.342512 4.380974 0.018900 33.629101 0.130645 1.570234 0.094309 -0.029028 258536.000000 0 0 1
33.506872 3.483874 1.105200 33.705628 0.103603 1.538001 0.100402 -0.036183 297578.000000 0 0 1
32.742562 3.826674 2.266000 33.043208 0.116344 1.502166 0.103123 -0.025673 110062.000000 0 0 1
32.690282 2.778674 3.396600 32.983518 0.084796 1.467635 0.108687 -0.022801 108675.000000 0 0 1
31.793342 1.660074 3.232900 32.000376 0.052167 1.469597 0.140571 -0.028479 500969.000000 0 0 1
31.847142 0.623574 4.214000 32.130781 0.019578 1.439266 0.128810 -0.023803 509292.000000 0 0 1
33.205132 -0.160326 4.214100 33.471856 -0.004828 1.444562 0.112194 -0.019856 396599.000000 0 0 1
34.325722 0.502674 4.723500 34.652840 0.014643 1.434061 0.107355 -0.025307 -248446.000000 0 0 1
35.448462 -0.343926 4.701000 35.760469 -0.009702 1.438957 0.098239 -0.038614 41580.700000 0 0 1
-36.605265 0.400174 4.904500 36.934532 -0.010932 1.437614 0.112894 -0.046183 407290.000000 0 0 1
-36.139515 1.339274 3.973700 36.381980 -0.037041 1.461356 0.093161 -0.043474 226936.000000 0 0 1
-35.855513 0.835874 2.680700 35.965297 -0.023308 1.496191 0.127191 -0.042943 -1074880.000000 0 0 1
-35.813410 1.991374 1.692700 35.908649 -0.055547 1.523640 0.101392 -0.045610 396413.000000 0 0 1
-34.664271 2.822274 1.778800 34.824431 -0.081238 1.519695 0.132658 -0.055279 464242.000000 0 0 1
-33.483055 2.245574 1.266600 33.582165 -0.066966 1.533071 0.166541 -0.058780 -1352240.000000 0 0 1
-32.230955 3.071474 1.462400 32.409983 -0.095009 1.525659 0.171146 -0.052892 -618085.000000 0 0 1
-31.734815 2.968074 2.800200 31.996078 -0.093256 1.483167 0.166786 -0.048400 50954.000000 0 0 1
-31.102295 4.141874 3.239100 31.543615 -0.132390 1.467929 0.187604 -0.034044 -684635.000000 0 0 1
-31.185135 4.453874 4.772900 31.861108 -0.141861 1.420427 0.177703 -0.025117 570820.000000 0 0 1
-32.471425 4.886374 5.263100 33.256132 -0.149362 1.411869 0.161504 -0.004958 1471830.000000 0 0 1
-33.508745 3.873574 5.270000 34.141081 -0.115088 1.415817 0.140039 -0.008189 45943.300000 0 0 1
-33.476335 2.861974 6.458700 34.213604 -0.085285 1.380881 0.118492 -0.012176 -615743.000000 0 0 1
-33.794905 3.590974 7.673400 34.840662 -0.105861 1.348733 0.118638 -0.008175 305117.000000 0 0 1
-33.881795 2.761674 8.821000 35.119978 -0.081329 1.316910 0.109885 -0.011318 593697.000000 0 0 1
-35.108220 1.762274 8.920100 36.266526 -0.050153 1.322287 0.091904 -0.008803 490703.000000 0 0 1
-34.928183 0.655674 8.019000 35.842882 -0.018770 1.345160 0.095827 -0.015341 -9251.000000 0 0 1
-35.815201 -0.360126 8.430100 36.795718 0.010055 1.339638 0.092422 -0.010473 -157170.000000 0 0 1
-35.500681 -1.164726 9.700300 36.820520 0.032797 1.304201 0.094607 -0.003345 466658.000000 0 0 1
-34.320943 -1.987526 9.606200 35.695328 0.057845 1.298321 0.097960 -0.016485 677185.000000 0 0 1
-34.156872 -2.831026 10.752900 35.921184 0.082694 1.266788 0.100645 0.000000 -113582.000000 0 0 1
-32.923095 -3.739326 10.620800 34.795317 0.113093 1.260610 0.125379 0.005241 -195005.000000 0 0 1
-33.080835 -4.648626 9.549200 34.743900 0.139609 1.292367 0.109955 -0.019248 -275692.000000 0 0 1
-31.979535 -5.519726 9.404700 33.787666 0.170918 1.288724 0.114680 -0.030405 2724.780000 0 0 1
-32.189725 -6.770026 8.444700 33.960633 0.207295 1.319498 0.108224 -0.011645 -130749.000000 0 0 1
-33.123915 -7.694526 8.921600 35.156712 0.228247 1.314224 0.120905 -0.019997 -370066.000000 0 0 1
-33.340565 -8.651026 7.972100 35.355168 0.253876 1.343354 0.117678 -0.025758 -43995.500000 0 0 1
-34.447714 -9.583626 8.504500 36.753468 0.271346 1.337287 0.123334 -0.028407 939476.000000 0 0 1
-35.744789 -8.944726 8.507700 37.816385 0.245203 1.343880 0.118926 -0.032915 680589.000000 0 0 1
36.676612 -9.840926 8.923000 39.008174 -0.262142 1.340006 0.102709 -0.039201 -216138.000000 0 0 1
8.238175 -23.681726 10.607100 27.225030 -1.236020 1.170590 0.083868 -0.026073 -40817.100000 0 0 1
7.619275 -24.461126 9.584600 27.354426 -1.268836 1.212813 0.088476 -0.029934 261971.000000 0 0 1
6.244975 -24.762426 9.817700 27.359910 -1.323752 1.203777 0.083700 -0.031628 848508.000000 0 0 1
5.713575 -25.862296 8.850300 27.925456 -1.353366 1.248310 0.074974 -0.020086 -143940.000000 0 0 1
5.389975 -25.389846 7.558800 27.033897 -1.361613 1.287414 0.080004 -0.020124 -121294.000000 0 0 1
4.996275 -26.443416 6.671800 27.725979 -1.384056 1.327778 0.071031 -0.015224 -237721.000000 0 0 1
4.460675 -25.953186 5.276800 26.857217 -1.400585 1.373034 0.064418 -0.016707 166737.000000 0 0 1
3.088875 -25.630336 5.314800 26.357207 -1.450858 1.367759 0.059543 -0.022390 -322141.000000 0 0 1
2.273775 -26.682576 4.821400 27.209848 -1.485786 1.392663 0.056858 -0.019737 -575703.000000 0 0 1
0.777475 -26.439406 4.940200 26.908219 -1.541399 1.386154 0.063154 -0.025251 -562735.000000 0 0 1
0.250075 -26.439586 6.297400 27.180351 -1.561338 1.336982 0.061219 -0.024339 -863394.000000 0 0 1
-1.127325 -26.436416 6.436100 27.231936 1.528179 1.332195 0.062373 -0.024057 -450119.000000 0 0 1
-1.740125 -27.838706 6.449800 28.629032 1.508370 1.343557 0.066124 -0.017728 -429463.000000 0 0 1
-1.393625 -28.645546 7.584000 29.665241 1.522184 1.312274 0.050877 -0.021313 314488.000000 0 0 1
-2.269925 -29.767696 7.821300 30.861643 1.494689 1.314571 0.069267 -0.018153 358477.000000 0 0 1
-2.099625 -30.365416 9.276300 31.820067 1.501761 1.274977 0.070375 -0.017623 -381217.000000 0 0 1
-0.842725 -30.936176 9.433000 32.353341 1.543562 1.274937 0.077459 -0.016250 -676300.000000 0 0 1
-0.635125 -31.263186 10.799000 33.081847 1.550484 1.238269 0.078846 -0.010869 -575207.000000 0 0 1
0.802175 -31.404186 11.264500 33.372973 -1.545258 1.226501 0.072114 -0.016842 -729924.000000 0 0 1
1.458375 -32.611906 10.908900 34.418997 -1.526107 1.248291 0.067793 -0.014953 -140202.000000 0 0 1
2.825475 -32.549816 11.242400 34.552357 -1.484209 1.239390 0.069295 -0.012276 15037.700000 0 0 1
3.315975 -33.090046 12.587500 35.558290 -1.470919 1.208956 0.071603 -0.011572 -321757.000000 0 0 1
2.887875 -32.380536 13.728500 35.288959 -1.481846 1.171217 0.063367 -0.011295 162726.000000 0 0 1
3.612475 -32.723056 14.892800 36.133694 -1.460846 1.145975 0.061790 -0.011843 -304612.000000 0 0 1
3.431875 -31.615926 15.964300 35.583752 -1.462671 1.105553 0.067690 -0.011970 395905.000000 0 0 1
4.116975 -30.380616 15.689700 34.439773 -1.436104 1.097785 0.060878 -0.016681 2143670.000000 0 0 1
5.574675 -30.298096 15.861500 34.650235 -1.388837 1.095322 0.060477 -0.007411 1699580.000000 0 0 1
6.193775 -29.088506 15.201600 33.400489 -1.361001 1.098277 0.066920 -0.015116 -207293.000000 0 0 1
6.394775 -29.099216 13.827400 32.845921 -1.354477 1.136273 0.057435 -0.013421 416837.000000 0 0 1
5.177375 -29.012916 13.056700 32.234018 -1.394204 1.153752 0.052222 -0.005043 325748.000000 0 0 1
5.294875 -29.132976 11.508500 31.768090 -1.391010 1.200098 0.047722 -0.013671 -10012.700000 0 0 1
5.634975 -30.464096 11.070200 32.899292 -1.387893 1.227612 0.043277 -0.012622 970429.000000 0 0 1
7.050375 -30.750566 11.162600 33.465038 -1.345415 1.230719 0.040696 -0.014029 750400.000000 0 0 1
7.445575 -32.102906 10.593100 34.615704 -1.342897 1.259787 0.026025 -0.011712 -429613.000000 0 0 1
7.210375 -33.126866 11.526400 35.808332 -1.356480 1.243070 0.032107 -0.010686 113806.000000 0 0 1
7.287275 33.855177 10.890200 36.302532 1.358783 1.266120 0.035109 -0.010243 21871.000000 0 0 1
7.046575 32.637937 11.860100 35.433757 1.358159 1.229497 0.037910 -0.009585 -149386.000000 0 0 1
5.768675 32.588345 12.432700 35.353216 1.395595 1.211441 0.037674 -0.007031 -397842.000000 0 0 1
5.706575 31.459505 13.286900 34.623795 1.391353 1.176942 0.047678 -0.007809 450459.000000 0 0 1
4.345475 31.285615 14.023500 34.559100 1.432782 1.152961 0.049142 -0.017005 461247.000000 0 0 1
4.053675 32.165394 15.123000 35.773594 1.445431 1.134327 0.080144 -0.020883 1134030.000000 0 0 1
2.916275 31.664425 15.902300 35.553110 1.478956 1.107071 0.065510 -0.015553 1310400.000000 0 0 1
3.247175 31.898825 17.387900 36.474899 1.469350 1.073890 0.057570 -0.015677 110306.000000 0 0 1
3.343675 33.270191 17.686200 37.827073 1.470632 1.084275 0.060310 -0.016555 490354.000000 0 0 1
4.043875 33.363698 18.960400 38.587382 1.450179 1.057143 0.060814 -0.015688 316384.000000 0 0 1
4.218975 -33.405426 19.486400 38.902982 -1.445165 1.046161 0.062668 -0.024560 169115.000000 0 0 1
3.026075 -32.891346 20.034600 38.631373 -1.479052 1.025572 0.051625 -0.021883 -120377.000000 0 0 1
3.274375 -31.908526 20.936000 38.303938 -1.468537 0.992527 0.055328 -0.025495 -235935.000000 0 0 1
1.948175 -31.349866 21.448000 38.034539 -1.508733 0.971685 0.039951 -0.023031 -369059.000000 0 0 1
1.198275 -32.289826 22.153700 39.177227 -1.533703 0.969789 0.042129 -0.022223 -559561.000000 0 0 1
0.185175 -31.719166 22.925600 39.137232 -1.564958 0.944961 0.039062 -0.019128 -283055.000000 0 0 1
-0.878325 -32.726636 23.449800 40.270303 1.543965 0.949229 0.023751 -0.023362 -931038.000000 0 0 1
-1.844625 -33.003656 22.486000 39.978296 1.514963 0.973444 0.014334 -0.022118 -626426.000000 0 0 1
-2.702325 -34.018346 22.938300 41.118317 1.491526 0.978990 0.016294 -0.021313 479362.000000 0 0 1
-4.104225 -33.462126 23.373100 41.022681 1.448753 0.964582 0.039316 -0.013617 -36306.300000 0 0 1
-4.888925 -33.015016 22.283400 40.130322 1.423783 0.982102 0.031140 -0.018468 -1522300.000000 0 0 1
-6.003325 -32.569376 22.969500 40.303872 1.388518 0.964402 0.043413 -0.011787 -563716.000000 0 0 1
-7.188625 -32.336586 21.948900 39.737707 1.352047 0.985622 0.025650 -0.017802 432644.000000 0 0 1
-7.772525 -33.516006 21.415200 40.525863 1.342920 1.014043 0.015804 -0.005000 -5767.810000 0 0 1
-8.812625 -33.133316 20.534300 39.964190 1.310840 1.031168 0.030852 -0.022687 23176.700000 0 0 1
-10.018725 -34.093532 20.505100 41.026856 1.284982 1.047432 0.044452 -0.022765 372397.000000 0 0 1
-10.683925 -34.043946 21.804100 41.815730 1.266703 1.022267 0.062435 -0.024389 -60008.100000 0 0 1
-11.999425 33.683415 21.833900 41.896036 -1.228572 1.022605 0.042762 -0.016340 78300.000000 0 0 1
-12.513025 33.751063 23.305000 42.881617 -1.215762 0.996227 0.032700 -0.010141 15627.700000 0 0 1
-12.865725 -33.247356 23.907600 42.924199 1.201573 0.980060 0.022792 -0.010669 273934.000000 0 0 1
-11.704325 -32.496916 24.226700 42.189735 1.225093 0.959130 0.023760 -0.006243 117967.000000 0 0 1
-11.972925 -31.114976 24.838400 41.574497 1.203465 0.930487 0.019383 -0.007362 -209462.000000 0 0 1
-12.503725 -31.201076 26.143400 42.583185 1.189647 0.909758 0.013406 -0.002582 -12082.000000 0 0 1
-13.087825 -29.999266 26.509400 42.118825 1.159417 0.890021 0.023330 -0.015650 -358797.000000 0 0 1
-13.824025 -29.959506 27.865200 43.187325 1.138483 0.869489 0.029834 -0.019861 456280.000000 0 0 1
-12.958525 -29.804206 29.021200 43.571138 1.160664 0.841876 0.023498 -0.012908 313364.000000 0 0 1
-13.767625 -29.685426 30.144900 44.491426 1.136539 0.826378 0.032510 -0.012938 -307987.000000 0 0 1
-13.106225 -29.248486 31.470900 44.918422 1.149524 0.794525 0.037083 -0.009726 -519897.000000 0 0 1
-14.033225 -29.067416 32.519100 45.818533 1.121018 0.781672 0.045931 -0.009841 249832.000000 0 0 1
-13.482225 -28.683146 33.786900 46.325456 1.131403 0.753443 0.042911 -0.009542 60405.300000 0 0 1
-12.595625 -29.680766 -33.550365 46.531974 1.169459 2.376066 0.047453 -0.007056 293507.000000 0 0 1
-11.305325 -29.863356 34.053300 46.682520 1.208901 0.753256 0.040463 -0.011914 -194035.000000 0 0 1
-10.901225 -31.087726 -33.463465 46.958352 1.233534 2.364022 0.034566 -0.007485 -1188230.000000 0 0 1
-9.480225 -31.434306 -33.808365 47.127442 1.277883 2.370833 0.038800 -0.014575 -815705.000000 0 0 1
-8.581625 -30.648176 -33.050865 45.883708 1.297784 2.375057 0.053212 -0.020186 331634.000000 0 0 1
-7.278625 -31.189476 -32.816865 45.855298 1.341532 2.368367 0.058160 -0.025702 751893.000000 0 0 1
-6.511025 -30.441736 -31.678765 44.414377 1.360086 2.364927 0.058876 -0.017184 283042.000000 0 0 1
-7.132825 -30.598446 -30.374165 43.700480 1.341776 2.339290 0.058614 -0.025209 224779.000000 0 0 1
-6.313225 -30.017316 -29.382765 42.476381 1.363498 2.334697 0.054555 -0.017576 279110.000000 0 0 1
-6.944425 -30.275526 -27.994965 41.815673 1.345322 2.304312 0.066538 -0.024507 19741.200000 0 0 1
-6.687425 -31.566556 -27.550465 42.428731 1.362031 2.277506 0.055474 -0.019362 -405360.000000 0 0 1
-7.230125 -31.829646 -26.289765 41.911249 1.347436 2.248842 0.067011 -0.028466 -251555.000000 0 0 1
-6.706025 -33.132626 -25.594165 42.400506 1.371095 2.218841 0.055286 -0.029378 163295.000000 0 0 1
-5.556025 -32.845576 -24.828965 41.547307 1.403227 2.211310 0.037667 -0.032996 -117905.000000 0 0 1
-5.481525 -33.959706 -23.975865 41.930309 1.410764 2.179498 0.061068 -0.038535 -4077.410000 0 0 1
-4.653225 -33.767546 -22.668865 40.936256 1.433857 2.157669 0.072938 -0.047699 -169225.000000 0 0 1
-5.220925 -33.037986 -21.622265 39.828242 1.414064 2.144668 0.071129 -0.036784 -73906.400000 0 0 1
-4.988925 -31.632386 -21.736065 38.703407 1.414369 2.167122 0.042731 -0.025073 -319400.000000 0 0 1
-5.864525 -30.835396 -20.762765 37.633850 1.382853 2.155203 0.068012 -0.035374 362677.000000 0 0 1
-7.261825 -30.873416 -21.067765 38.075617 1.339783 2.157134 0.082840 -0.036816 316357.000000 0 0 1
-7.981825 -29.895146 -20.361965 37.041043 1.309888 2.152818 0.085855 -0.038615 -53560.500000 0 0 1
-8.200925 -28.555596 -21.154765 36.471925 1.291131 2.189560 0.101004 -0.054343 -329734.000000 0 0 1
-7.033425 -27.812756 -21.492265 35.846002 1.323104 2.213763 0.093555 -0.040698 -152934.000000 0 0 1
-7.194825 -27.001376 -22.630765 35.958188 1.310386 2.251530 0.117105 -0.054733 -1066290.000000 0 0 1
-6.357425 -27.491896 -23.825465 36.930664 1.343544 2.272003 0.097791 -0.047166 1425280.000000 0 0 1
-4.929925 -27.281656 -23.941165 36.630210 1.392021 2.283115 0.095919 -0.031875 1187710.000000 0 0 1
-4.205525 -27.697136 -22.812765 36.128105 1.420108 2.254206 0.067981 -0.030170 -980974.000000 0 0 1
-2.652025 -27.532656 -22.771365 35.827579 1.474770 2.259558 0.069288 -0.029576 641054.000000 0 0 1
-2.131325 -26.233406 -22.945565 34.917518 1.489730 2.287809 0.072054 -0.034594 249068.000000 0 0 1
-2.555225 -25.331716 -21.912965 33.591711 1.470266 2.281454 0.086544 -0.037803 -1053290.000000 0 0 1
-2.518425 -23.895426 -22.413165 32.858542 1.465790 2.321442 0.086053 -0.034539 -46699.400000 0 0 1
-3.302225 -23.492726 -23.511965 33.400978 1.431148 2.351712 0.087660 -0.035669 972655.000000 0 0 1
-4.728125 -23.664526 -23.329365 33.565223 1.373595 2.339280 0.080927 -0.041800 107100.000000 0 0 1
-5.391825 -23.764626 -24.637465 34.653050 1.347689 2.361681 0.084862 -0.032928 -470660.000000 0 0 1
-5.457525 -22.491426 -25.215365 34.226648 1.332748 2.398999 0.097158 -0.037049 -43882.100000 0 0 1
-6.108325 -22.538426 -26.470565 35.298485 1.306136 2.418717 0.110874 -0.033026 136396.000000 0 0 1
-6.179325 -21.232826 -27.240165 35.086230 1.287592 2.459694 0.111977 -0.024420 -6961.760000 0 0 1
-6.373825 -21.283426 -28.600465 36.215969 1.279823 2.481148 0.111253 -0.027380 455434.000000 0 0 1
-5.274025 -21.851026 -29.339365 36.960533 1.333963 2.487832 0.109046 -0.026036 455783.000000 0 0 1
-5.659825 -22.314226 -30.700565 38.372946 1.322393 2.498187 0.119723 -0.034149 -229903.000000 0 0 1
-5.990925 -21.266926 -31.593065 38.552497 1.296211 2.531302 0.129123 -0.043089 -78586.300000 0 0 1
-6.995725 -21.491626 -32.560765 39.636265 1.256104 2.534814 0.126895 -0.035377 10937.400000 0 0 1
-6.798225 -20.728726 -33.862365 40.280959 1.253888 2.569287 0.121488 -0.031204 219526.000000 0 0 1
-5.592025 -21.075826 33.634300 40.084003 1.311443 0.575178 0.110907 -0.032515 -131811.000000 0 0 1
-5.502525 -20.337526 32.431100 38.673880 1.306562 0.576127 0.115977 -0.031174 917710.000000 0 0 1
-4.093625 -20.446026 31.725400 37.964441 1.373193 0.581461 0.072282 -0.028810 -295106.000000 0 0 1
-3.914025 -21.772726 31.296700 38.325639 1.392929 0.615301 0.087202 -0.031933 894214.000000 0 0 1
-2.630825 -22.229926 30.812000 38.085039 1.452998 0.628294 0.084132 -0.029520 788259.000000 0 0 1
-1.373725 -21.867926 31.602300 38.455151 1.508060 0.606240 0.061761 -0.038794 -1528640.000000 0 0 1
-0.893625 -20.641526 31.305700 37.508906 1.527531 0.583353 0.042181 -0.035459 -165625.000000 0 0 1
0.184375 -20.130226 32.070500 37.865247 -1.561637 0.560548 0.042638 -0.028219 28817.100000 0 0 1
-0.206525 -19.653926 33.523500 38.860578 1.560289 0.530289 0.035748 -0.027791 -467640.000000 0 0 1
-1.041125 -18.546226 33.398800 38.216832 1.514718 0.507568 0.035548 -0.031381 -533725.000000 0 0 1
-1.734425 -18.280226 -33.587765 38.279405 1.476200 2.641289 0.042293 -0.036092 370550.000000 0 0 1
-3.012125 -17.409526 -33.808965 38.147222 1.399476 2.660038 0.052064 -0.032323 540892.000000 0 0 1
-2.695825 -16.028126 34.065600 37.744316 1.404163 0.445174 0.068094 -0.026482 -702186.000000 0 0 1
-3.794925 -15.234226 -33.912465 37.370287 1.326660 2.708022 0.071673 -0.026603 -759468.000000 0 0 1
-3.396425 -13.750926 34.047400 36.876132 1.328647 0.394234 0.070620 -0.031015 52817.100000 0 0 1
-2.566225 -13.227626 -33.053565 35.694450 1.379172 2.754510 0.055713 -0.028338 261865.000000 0 0 1
-2.194325 -11.877626 -33.176865 35.307186 1.388112 2.792441 0.051067 -0.024356 -3098.460000 0 0 1
-1.448825 -11.341926 33.725100 35.610683 1.443744 0.326876 0.063189 -0.027439 -187040.000000 0 0 1
-2.250425 -11.251526 32.546000 34.509468 1.373391 0.338952 0.063106 -0.028633 293681.000000 0 0 1
-1.474125 -10.878126 31.409300 33.272373 1.436104 0.336229 0.072074 -0.023336 449532.000000 0 0 1
-0.555525 -12.008526 30.845900 33.105632 1.524568 0.371616 0.063204 -0.027781 315750.000000 0 0 1
-1.293025 -13.099926 30.379500 33.108821 1.472410 0.408884 0.068542 -0.034175 -57182.300000 0 0 1
-0.360025 -13.962226 29.819000 32.927893 1.545016 0.438040 0.059303 -0.036053 -121646.000000 0 0 1
-0.620425 -15.437126 30.266700 33.981803 1.530628 0.471971 0.045825 -0.033989 -250553.000000 0 0 1
-1.602125 -16.005526 29.456300 33.562141 1.471030 0.499829 0.050603 -0.037159 -118617.000000 0 0 1
-2.047025 -17.193426 30.036700 34.669981 1.452296 0.522928 0.060639 -0.030661 -167199.000000 0 0 1
-2.299825 -18.407526 29.095800 34.506402 1.446501 0.567588 0.070493 -0.034405 400483.000000 0 0 1
-3.502125 -18.217926 28.341800 33.873520 1.380878 0.579576 0.080657 -0.037646 463652.000000 0 0 1
-3.931925 -19.481326 27.833000 34.200263 1.371641 0.620093 0.093555 -0.036894 165934.000000 0 0 1
-5.078225 -19.411726 26.807500 33.485005 1.314925 0.642530 0.065972 -0.035796 -592496.000000 0 0 1
-5.481625 -20.620726 26.219200 33.803979 1.310974 0.683092 0.076979 -0.021368 -759391.000000 0 0 1
-4.607925 -21.377626 25.452000 33.556522 1.358496 0.709817 0.082857 -0.032647 -1028580.000000 0 0 1
-30.127005 -33.531807 -0.334400 45.079156 0.838832 1.578214 0.030127 -0.018053 88622.500000 0 0 1
-29.183315 -32.526507 0.042700 43.699443 0.839521 1.569819 0.040256 -0.021449 477190.000000 0 0 1
-29.545655 -31.907407 1.282400 43.504860 0.823811 1.541315 0.025599 -0.014627 -158381.000000 0 0 1
-28.631845 -30.718107 1.506200 42.019677 0.820536 1.534944 0.048191 -0.017940 690812.000000 0 0 1
-27.270415 -30.949107 1.886600 41.292638 0.848501 1.525092 0.057257 -0.020438 406469.000000 0 0 1
-26.603685 -29.696407 1.931000 39.916931 0.840276 1.522402 0.070400 -0.016886 456770.000000 0 0 1
-25.069485 -29.793007 2.147700 38.996345 0.871284 1.515694 0.066180 -0.018431 292612.000000 0 0 1
-24.853025 -30.282107 3.451500 39.326730 0.883550 1.482919 0.060092 -0.015571 144312.000000 0 0 1
-23.480125 -30.518507 3.719700 38.685032 0.915011 1.474494 0.064708 -0.013971 354992.000000 0 0 1
-23.071425 -31.133607 5.084400 39.082518 0.933051 1.440333 0.070723 -0.015599 -52416.800000 0 0 1
-23.453825 -30.326307 6.118300 38.822679 0.912498 1.412541 0.072388 -0.016350 -202375.000000 0 0 1
-23.099625 -30.977207 7.310000 39.327040 0.930055 1.383832 0.069678 -0.022845 -214231.000000 0 0 1
-23.670825 -30.368807 8.655300 39.465005 0.908715 1.349683 0.075248 -0.020687 -105849.000000 0 0 1
-23.156825 -29.070507 8.920400 38.221806 0.898148 1.335239 0.091100 -0.021308 190203.000000 0 0 1
-23.730625 -28.534807 10.118700 38.467725 0.877060 1.304620 0.081106 -0.019318 124784.000000 0 0 1
-22.978225 -27.296207 10.674700 37.242864 0.871076 1.280095 0.086281 -0.023073 1218530.000000 0 0 1
-21.645225 -27.551607 11.177500 36.776940 0.904882 1.261985 0.086091 -0.022445 831437.000000 0 0 1
-21.196725 -26.422907 11.971500 35.927538 0.894709 1.231088 0.098970 -0.021934 410132.000000 0 0 1
-19.765825 -26.683507 12.500100 35.481683 0.933241 1.210772 0.101326 -0.021471 70493.300000 0 0 1
-19.757725 -27.625807 13.590700 36.582236 0.949948 1.190160 0.104848 -0.021410 722371.000000 0 0 1
-18.402225 -27.937707 13.963700 36.251100 0.988338 1.175378 0.116210 -0.023056 975800.000000 0 0 1
-18.263625 -29.111107 14.977300 37.487812 1.010490 1.159798 0.141594 -0.036945 64624.800000 0 0 1
-18.323325 -30.421507 14.386300 38.316810 1.028676 1.185907 0.141323 -0.031717 -26359.100000 0 0 1
-18.495825 -31.474807 15.316700 39.589901 1.039515 1.173546 0.145069 -0.030236 -74122.100000 0 0 1
-17.852525 -32.794307 14.920500 40.209458 1.072279 1.190636 0.141809 -0.030894 70387.300000 0 0 1
-18.195725 -33.835907 15.814800 41.545889 1.077396 1.180288 0.138249 -0.017507 226532.000000 0 0 1
-17.356325 33.261474 15.626400 40.641752 -1.089850 1.176140 0.121332 -0.022775 105590.000000 0 0 1
-17.491425 32.109474 16.644700 40.174797 -1.071998 1.143615 0.113872 -0.024626 660076.000000 0 0 1
-18.737525 31.385974 16.486500 40.099612 -1.032583 1.147094 0.120737 -0.024289 1038250.000000 0 0 1
-18.989125 30.328074 17.471800 39.820130 -1.011389 1.116569 0.090280 -0.013464 -235454.000000 0 0 1
-19.395925 30.677374 18.909600 40.925251 -1.006997 1.090489 0.080075 -0.016759 -377662.000000 0 0 1
-18.556125 31.465874 19.719400 41.512477 -1.037968 1.075806 0.082687 -0.014037 -27638.700000 0 0 1
-19.312225 31.984174 20.840700 42.781821 -1.027583 1.061985 0.073526 -0.015779 73199.800000 0 0 1
-18.784125 33.090474 21.753300 43.829543 -1.054496 1.051446 0.062091 -0.005049 -273579.000000 0 0 1
-17.582625 32.814174 22.436800 43.466409 -1.078902 1.028403 0.042106 -0.006378 -160402.000000 0 0 1
-17.416525 33.702774 23.556400 44.655529 -1.093824 1.015125 0.039784 -0.009956 -112231.000000 0 0 1
-18.129725 33.248774 24.849800 45.295479 -1.071588 0.990089 0.030278 -0.015415 -956325.000000 0 0 1
-19.502625 33.247274 24.699700 45.780004 -1.040293 1.000917 0.022581 -0.016958 -1050680.000000 0 0 1
-20.107225 32.283974 25.590800 45.841515 -1.013764 0.978527 0.027042 -0.011412 -1309070.000000 0 0 1
-21.589225 32.361074 25.474000 46.500091 -0.982469 0.991032 0.074872 -0.015181 -1567910.000000 0 0 1
-22.069425 31.969774 24.180000 45.758042 -0.966596 1.014044 0.059489 -0.005605 805338.000000 0 0 1
-23.482225 32.201574 24.084300 46.566187 -0.940724 1.027213 0.046239 -0.008185 631103.000000 0 0 1
-24.026125 31.868174 22.658900 45.894019 -0.924790 1.054431 0.041602 -0.015162 -141157.000000 0 0 1
-23.696325 32.785274 21.697500 45.903938 -0.944949 1.078476 0.041639 -0.008615 62268.200000 0 0 1
-23.716325 32.120274 20.428300 44.849654 -0.934787 1.097881 0.029857 -0.000439 -42927.000000 0 0 1
-23.298025 33.060474 19.298000 44.813008 -0.956917 1.125601 0.056234 -0.004122 157135.000000 0 0 1
-21.927225 33.423974 19.246300 44.366488 -0.990192 1.122087 0.076976 -0.009400 394086.000000 0 0 1
-21.739125 -33.761307 18.293300 44.125505 0.998717 1.143321 0.097925 -0.009974 -1028070.000000 0 0 1
-20.417025 -33.091107 18.502300 43.060554 1.017975 1.126657 0.110716 -0.009869 -955713.000000 0 0 1
-20.439525 -32.062307 19.479600 42.722599 1.003263 1.097351 0.109834 -0.026635 -220438.000000 0 0 1
-19.150825 -31.560607 19.612200 41.802684 1.025395 1.082456 0.105566 -0.026468 -515117.000000 0 0 1
-19.147425 -30.493407 20.715200 41.540236 1.010100 1.048723 0.090617 -0.019398 -129069.000000 0 0 1
-19.605325 -29.252207 20.266500 40.629932 0.980340 1.048574 0.130758 -0.028812 216535.000000 0 0 1
-20.029125 -28.551807 21.451100 40.945344 0.959064 1.019378 0.105890 -0.022376 -201462.000000 0 0 1
-21.041125 -27.459107 21.126900 40.534891 0.916963 1.022537 0.089088 -0.028593 -1017130.000000 0 0 1
-20.461325 -26.305507 20.608100 39.183406 0.909718 1.016977 0.086507 -0.027153 214023.000000 0 0 1
-21.300825 -25.170607 20.347800 38.746839 0.868479 1.017908 0.085795 -0.016237 -55988.400000 0 0 1
-22.512525 -25.340007 19.386600 39.048303 0.844417 1.051260 0.084733 -0.020288 -544102.000000 0 0 1
-23.623825 -25.905507 20.028400 40.377186 0.831433 1.051773 0.078442 -0.014500 -564738.000000 0 0 1
-24.730425 -25.583607 19.222200 40.442648 0.802354 1.075497 0.067086 -0.004810 -309753.000000 0 0 1
-26.077545 -26.150607 19.760600 41.885247 0.786797 1.079488 0.055528 -0.007749 42130.200000 0 0 1
-26.318445 -27.562807 19.662500 42.883362 0.808489 1.094477 0.042813 -0.000684 125144.000000 0 0 1
-26.617485 -28.040407 18.329600 42.787021 0.811426 1.128084 0.055976 -0.010829 -889495.000000 0 0 1
-27.730195 -29.055207 18.340000 44.153418 0.808728 1.142447 0.063876 -0.014859 175296.000000 0 0 1
-29.016195 -28.433407 18.548200 44.659085 0.775254 1.142492 0.038877 -0.012391 -82141.200000 0 0 1
-29.985765 -29.292507 18.045500 45.638110 0.773704 1.164288 0.041088 -0.004201 -263600.000000 0 0 1
-31.426665 -28.804007 18.333600 46.405031 0.741882 1.164644 0.043433 -0.004080 144769.000000 0 0 1
-31.756715 -27.548807 17.852700 45.674332 0.714564 1.169220 0.046357 0.006793 273914.000000 0 0 1
-33.170595 -27.396607 17.979700 46.627589 0.690353 1.174936 0.041978 0.016842 327482.000000 0 0 1
-33.828455 -26.225507 17.244500 46.146661 0.659466 1.187813 0.034710 0.008547 -261695.000000 0 0 1
-33.992125 -26.329007 15.844500 45.822803 0.659036 1.217729 0.049512 -0.005729 290988.000000 0 0 1
-34.774129 -25.287807 15.267600 45.626887 0.628750 1.229596 0.045174 -0.000295 -197289.000000 0 0 1
-33.989145 -24.034907 14.887200 44.210490 0.615498 1.227350 0.026531 0.001609 -130732.000000 0 0 1
-33.447305 -23.447507 16.046900 43.886339 0.611416 1.196469 0.018810 0.001290 -78615.800000 0 0 1
-32.760665 -22.260707 15.840600 42.658233 0.596831 1.190347 0.035419 0.009704 -89106.500000 0 0 1
-33.513845 -20.936107 16.267700 42.733317 0.558384 1.180265 0.040800 -0.002311 173456.000000 0 0 1
-33.784445 -20.692907 17.647500 43.370720 0.549559 1.151740 0.045461 0.005137 294063.000000 0 0 1
-34.447833 -19.468707 17.859500 43.412503 0.514412 1.146817 0.053956 0.003138 -88293.200000 0 0 1
-34.916628 -19.150507 19.272700 44.241946 0.501663 1.120069 0.051953 0.001075 -670160.000000 0 0 1
-35.956928 -19.954207 19.706400 45.600583 0.506634 1.123918 0.060494 0.002416 -277567.000000 0 0 1
-36.218665 -19.695207 21.047900 46.289383 0.498060 1.098758 0.062753 0.004169 -192229.000000 0 0 1
35.740212 -20.002807 21.507600 46.260695 -0.510239 1.087250 0.081873 -0.002964 176782.000000 0 0 1
35.386132 -21.333407 21.691900 46.667238 -0.542531 1.087364 0.082005 -0.012143 67788.300000 0 0 1
36.173732 -22.003907 22.654500 48.020175 -0.546489 1.079499 0.075526 -0.004648 -653235.000000 0 0 1
35.482162 -23.196707 23.202500 48.326256 -0.579012 1.070003 0.079557 -0.002781 380470.000000 0 0 1
34.429172 -22.925607 24.159700 47.902426 -0.587456 1.042165 0.089962 -0.018174 791417.000000 0 0 1
33.933532 -24.073007 24.787900 48.429684 -0.617018 1.033479 0.090763 -0.033413 -475028.000000 0 0 1
32.877812 -23.839907 25.880500 48.156952 -0.627378 1.003422 0.106020 -0.035312 -1513370.000000 0 0 1
31.611082 -24.053607 25.463400 47.182849 -0.650455 1.000745 0.093831 -0.025467 -1954100.000000 0 0 1
30.786032 -24.382607 26.535900 47.396680 -0.669845 0.976569 0.061166 -0.020773 -442407.000000 0 0 1
29.389852 -24.869307 26.152300 46.542332 -0.702276 0.974111 0.048715 -0.021698 -639284.000000 0 0 1
28.442762 -23.940607 25.754400 45.226458 -0.699663 0.964954 0.049363 -0.007428 -1627610.000000 0 0 1
27.263262 -24.599207 25.547100 44.733218 -0.734076 0.962952 0.040305 -0.002830 -1243270.000000 0 0 1
26.171762 -23.679107 24.970700 43.234212 -0.735438 0.955050 0.043634 0.000426 -365672.000000 0 0 1
26.212562 -23.243907 23.600200 42.241532 -0.725444 0.977983 0.048613 -0.001209 -107754.000000 0 0 1
27.171762 -22.241707 23.336300 42.161370 -0.685956 0.984236 0.044704 0.001746 -155291.000000 0 0 1
27.101662 -21.654607 21.895900 41.022586 -0.674139 1.007765 0.050299 -0.001284 345924.000000 0 0 1
26.106962 -20.621407 21.780200 39.764218 -0.668541 0.991143 0.040671 -0.000736 567849.000000 0 0 1
26.080962 -20.097507 20.485900 38.778841 -0.656544 1.014228 0.011017 -0.004111 -17408.100000 0 0 1
25.356462 -18.733707 20.449900 37.577924 -0.636303 0.995361 0.030783 -0.001970 -212336.000000 0 0 1
25.998962 -17.641007 21.079400 37.835067 -0.596169 0.979859 0.033768 -0.011882 212427.000000 0 0 1
25.850662 -17.644107 22.501900 38.547461 -0.598911 0.947462 0.038381 -0.004105 -295556.000000 0 0 1
26.103662 -16.300907 23.169900 38.522266 -0.558217 0.925459 0.056365 0.000615 758142.000000 0 0 1
24.881462 -15.518107 23.198900 37.391012 -0.557651 0.901492 0.031370 0.003583 878764.000000 0 0 1
24.993262 -14.319307 23.932300 37.449442 -0.520275 0.877526 0.020432 0.003090 -1015420.000000 0 0 1
23.830162 -13.385607 23.781900 36.230234 -0.511788 0.854746 0.008928 0.001799 -65438.500000 0 0 1
22.679262 -14.036607 24.374300 36.131451 -0.554214 0.830373 0.022700 0.007408 -572557.000000 0 0 1
21.546462 -13.361807 23.997400 34.909356 -0.555096 0.812865 0.026755 0.007993 -1015320.000000 0 0 1
20.246862 -14.082107 24.388600 34.684939 -0.607713 0.790983 0.055243 0.008361 -168986.000000 0 0 1
19.853762 -15.180107 23.590400 34.367346 -0.652777 0.814243 0.064784 0.005727 -241056.000000 0 0 1
18.518962 -15.496407 23.856100 33.944132 -0.696772 0.791464 0.064161 0.007750 -377535.000000 0 0 1
17.860162 -16.529907 22.990200 33.477941 -0.746736 0.813820 0.066456 -0.005423 23373.400000 0 0 1
18.359362 -17.812407 23.417800 34.680562 -0.770278 0.829502 0.058388 -0.007320 177118.000000 0 0 1
17.750062 -18.888007 22.733100 34.476301 -0.816447 0.850798 0.057621 -0.010422 66282.000000 0 0 1
18.208162 -20.350207 23.058900 35.740467 -0.840894 0.869542 0.051624 -0.005669 -218800.000000 0 0 1
17.652662 -20.762207 24.293200 36.508154 -0.866168 0.842742 0.061162 -0.006292 -7973.620000 0 0 1
17.709362 -22.139907 24.625800 37.552989 -0.896126 0.855606 0.085760 -0.014854 -522476.000000 0 0 1
17.179262 -23.246807 23.713900 37.388369 -0.934376 0.883747 0.079101 -0.016269 -216967.000000 0 0 1
17.879962 -23.477407 22.507400 37.114212 -0.919924 0.919226 0.063065 -0.004838 -22649.900000 0 0 1
19.076162 -24.220407 22.612200 38.234012 -0.903658 0.937983 0.070886 -0.005673 76318.000000 0 0 1
20.068262 -24.132907 21.428300 38.004005 -0.877098 0.971764 0.066862 0.015067 -259160.000000 0 0 1
19.558162 -24.720507 20.273300 37.478419 -0.901462 0.999251 0.062218 0.003780 574000.000000 0 0 1
20.622462 -25.216107 19.405800 37.917319 -0.885278 1.033526 0.054492 -0.005258 832644.000000 0 0 1
20.100562 -26.045407 18.180700 37.589010 -0.913519 1.065953 0.050517 -0.013085 82311.200000 0 0 1
19.546162 -27.313707 18.477600 38.334224 -0.949666 1.067845 0.063392 -0.018157 -168960.000000 0 0 1
18.943162 -27.725807 17.286100 37.767354 -0.971413 1.095390 0.062842 -0.021017 -346136.000000 0 0 1
18.063662 -28.961607 17.559300 38.384887 -1.013125 1.095667 0.060945 -0.015977 -704203.000000 0 0 1
17.021962 -28.669407 18.413700 38.088665 -1.034998 1.066213 0.086780 -0.023365 -601052.000000 0 0 1
16.289862 -29.834707 18.848100 38.867985 -1.071026 1.064518 0.100547 -0.025330 -227841.000000 0 0 1
15.150962 -29.372507 19.726900 38.489562 -1.094572 1.032672 0.087777 -0.018758 -275134.000000 0 0 1
14.152862 -28.607807 19.034200 37.161955 -1.111381 1.033057 0.079962 -0.023835 731282.000000 0 0 1
12.950762 -28.541907 19.838200 37.093353 -1.144832 1.006504 0.061151 -0.020604 1125900.000000 0 0 1
11.757662 -27.974107 19.004100 35.804317 -1.172909 1.011279 0.059460 -0.020135 84983.200000 0 0 1
11.585462 -28.838307 17.852500 35.841075 -1.188792 1.049388 0.045716 -0.023046 -120715.000000 0 0 1
10.736962 -28.245407 16.909100 34.626623 -1.207535 1.060625 0.052293 -0.017680 -86605.200000 0 0 1
10.645462 -28.970307 15.584600 34.575776 -1.218651 1.103205 0.049546 -0.018530 324969.000000 0 0 1
9.778162 -30.120907 15.673000 35.334465 -1.256899 1.111228 0.065633 -0.020211 388938.000000 0 0 1
9.802762 -30.904407 14.495200 35.514607 -1.263639 1.150372 0.052817 -0.017367 -377032.000000 0 0 1
8.615562 -31.859407 14.364700 35.994365 -1.306689 1.160281 0.050803 -0.011778 -472313.000000 0 0 1
8.442162 -32.787307 15.426800 37.205695 -1.318788 1.143254 0.053271 -0.014466 -386662.000000 0 0 1
7.379162 -33.636007 15.107200 37.603996 -1.354835 1.157375 0.044944 -0.012430 -203182.000000 0 0 1
7.127962 33.423574 16.088600 37.772824 1.360682 1.130806 0.072804 -0.023306 640825.000000 0 0 1
8.250762 32.526274 16.138000 37.235314 1.322372 1.122528 0.065757 -0.020037 382538.000000 0 0 1
8.037862 31.518074 17.133500 36.763474 1.321095 1.085979 0.078531 -0.034900 110281.000000 0 0 1
9.302362 30.722374 17.523200 36.571311 1.276784 1.071109 0.094450 -0.033065 -206000.000000 0 0 1
9.875762 30.012974 16.465200 35.628810 1.252906 1.090399 0.089157 -0.028250 -287220.000000 0 0 1
11.084462 29.452074 16.938000 35.737737 1.210837 1.077022 0.087404 -0.033411 -220689.000000 0 0 1
11.815062 28.610574 15.869600 34.785124 1.179167 1.097056 0.077012 -0.025867 -126408.000000 0 0 1
11.244362 27.341774 15.614900 33.434016 1.180628 1.084860 0.086078 -0.025698 216879.000000 0 0 1
12.057762 26.696374 14.649200 32.751871 1.146560 1.107076 0.086397 -0.014863 168964.000000 0 0 1
-9.510025 -9.239326 18.858865 23.053470 0.770961 0.612786 0.068718 -0.027784 -24552.400000 0 1 0
-9.459925 -9.395126 17.476465 21.981478 0.781962 0.651700 0.056303 -0.030171 -150532.000000 0 1 0
-9.172725 -10.756726 17.147165 22.223215 0.864712 0.689463 0.066304 -0.030793 -110924.000000 0 1 0
-9.582825 -11.087326 15.695665 21.473547 0.858056 0.751112 0.063012 -0.026101 -985007.000000 0 1 0
-10.963725 -11.037626 15.629865 22.052780 0.788757 0.783074 0.065254 -0.016790 -962288.000000 0 1 0
-11.514125 -11.423426 14.392865 21.684655 0.781444 0.844995 0.069521 -0.021914 45077.100000 0 1 0
-11.743825 -12.932826 14.209665 22.518658 0.833544 0.887932 0.063199 -0.021251 -510838.000000 0 1 0
-10.612925 -13.698326 13.843365 22.179203 0.911636 0.896741 0.083664 -0.020876 -5895.130000 0 1 0
-10.546225 -15.001926 14.431565 23.335610 0.958066 0.904046 0.102388 -0.022082 310522.000000 0 1 0
-10.041825 -15.126126 15.879965 24.120763 0.984730 0.852168 0.114777 -0.027708 144592.000000 0 1 0
-11.121425 -14.742726 16.703365 24.900531 0.924506 0.835505 0.110229 -0.023568 85201.200000 0 1 0
-10.955125 -15.039126 18.092365 25.952336 0.941236 0.799398 0.132551 -0.018219 24586.000000 0 0 1
-12.332525 -14.863526 18.787265 26.943958 0.878196 0.799212 0.080456 -0.015624 -306747.000000 0 0 1
-12.763925 -13.497326 18.785665 26.419629 0.813318 0.779807 0.083762 -0.013233 -125498.000000 0 0 1
-13.869525 -13.314926 17.923565 26.285074 0.765000 0.820451 0.094232 -0.019514 -463112.000000 0 0 1
-15.258725 -13.494626 18.509965 27.523670 0.724122 0.833200 0.060190 -0.010241 -955399.000000 0 0 1
-15.483625 -14.894326 18.844765 28.578116 0.766002 0.850759 0.065562 -0.014613 -207977.000000 0 0 1
-16.410725 -14.979726 19.902165 29.829520 0.739843 0.840357 0.061550 -0.012876 -160621.000000 0 0 1
-16.946825 -16.440726 20.092065 31.002958 0.770241 0.865750 0.060322 -0.023597 -755007.000000 0 0 1
-18.005125 -16.795926 19.286065 31.276827 0.750666 0.906348 0.048348 -0.009715 -601516.000000 0 0 1
-18.375725 -18.104126 19.592965 32.393069 0.777953 0.921218 0.055487 -0.014748 288573.000000 0 0 1
-19.599025 -18.680226 18.793665 32.958678 0.761400 0.964024 0.052986 -0.010550 273664.000000 0 0 1
-19.420425 -18.827426 17.412365 32.168545 0.769895 0.998831 0.052903 -0.016098 97438.800000 0 0 1
-19.882325 -17.713226 16.651065 31.405782 0.727766 1.011970 0.047284 -0.024084 -739624.000000 0 0 1
-19.409125 -17.667226 15.200465 30.329839 0.738451 1.045844 0.054043 -0.028673 -577393.000000 0 0 1
-19.973325 -18.665426 14.403165 30.899563 0.751562 1.085887 0.060395 -0.017982 -3917.720000 0 0 1
-19.647125 -18.386226 13.065365 29.912649 0.752258 1.118776 0.073787 -0.023892 -40489.500000 0 0 1
-19.573525 -19.624426 12.270165 30.311679 0.786697 1.154036 0.080923 -0.022121 -956176.000000 0 0 1
-18.540125 -20.488026 12.498165 30.326549 0.835267 1.146017 0.094816 -0.026637 -853041.000000 0 0 1
-18.733325 -21.724526 11.829765 31.029596 0.859198 1.179658 0.079503 -0.019108 -176178.000000 0 0 1
-18.014425 -22.884326 12.571465 31.721500 0.903912 1.163305 0.087035 -0.017825 111044.000000 0 0 1
-18.084725 -24.095426 11.892765 32.389577 0.926946 1.194822 0.092439 -0.026847 79262.500000 0 0 1
-17.142825 -24.230626 10.827565 31.594870 0.955064 1.221007 0.071778 -0.019246 -133872.000000 0 0 1
-17.221725 -25.432696 9.881665 32.265417 0.975572 1.259533 0.071369 -0.019095 438152.000000 0 0 1
-18.482025 -25.412896 9.205465 32.743566 0.942002 1.285816 0.065671 -0.020003 154550.000000 0 0 1
-18.495425 -26.388996 8.179565 33.247032 0.959482 1.322220 0.079918 -0.022029 27968.200000 0 0 1
-19.770125 -26.421136 7.321165 33.801386 0.928404 1.352472 0.068569 -0.021990 12518.600000 0 0 1
-19.942525 -25.214836 6.582165 32.814892 0.901626 1.368842 0.067059 -0.018627 -239798.000000 0 0 1
-20.944525 -25.184096 5.602465 33.231001 0.877048 1.401396 0.072590 -0.014110 -169008.000000 0 0 1
-20.994425 -23.815726 4.880865 32.121294 0.848276 1.418254 0.070087 -0.015316 183446.000000 0 0 1
-21.928925 -23.865526 3.804465 32.633036 0.827662 1.453947 0.066566 -0.017430 271700.000000 0 0 1
-21.946725 -22.688826 3.027265 31.711289 0.802022 1.475187 0.059284 -0.011648 251406.000000 0 0 1
-22.658325 -22.744326 1.636265 32.146250 0.787292 1.519874 0.036809 -0.008822 -43337.400000 0 0 1
-21.872625 -23.383326 0.676665 32.025763 0.818767 1.549666 0.041444 -0.017739 85044.500000 0 0 1
-22.182625 -22.934326 -0.619535 31.912943 0.802058 1.590211 0.037517 -0.015456 -188203.000000 0 0 1
-21.423725 -23.765226 -1.683435 32.040535 0.837168 1.623361 0.045134 -0.016516 240334.000000 0 0 1
-20.037625 -23.409126 -1.707735 30.861139 0.862844 1.626161 0.048815 -0.020054 585584.000000 0 0 1
-19.287425 -23.969526 -2.776035 30.890926 0.893218 1.660783 0.061487 -0.021386 -40141.100000 0 0 1
-18.971525 -25.491686 -2.734835 31.893951 0.931002 1.656650 0.073428 -0.013898 -418913.000000 0 0 1
-20.155025 -26.229746 -2.976935 33.212749 0.915621 1.660549 0.082229 -0.020340 -114175.000000 0 0 1
-19.805825 -27.472266 -3.554335 34.053331 0.946155 1.675362 0.076118 -0.023552 115123.000000 0 0 1
-20.940525 -28.403516 -4.079735 35.523366 0.935505 1.685897 0.073731 -0.024169 127761.000000 0 0 1
-21.601525 -27.863466 -5.209635 35.639008 0.911322 1.717500 0.067267 -0.022271 -159147.000000 0 0 1
-22.461325 -28.752506 -5.869335 36.954929 0.907627 1.730296 0.071773 -0.028449 -212662.000000 0 0 1
-22.965225 -28.160426 -7.193935 37.042730 0.886667 1.766245 0.057829 -0.012126 217262.000000 0 0 1
-21.977325 -28.068896 -8.242235 36.589618 0.906521 1.798008 0.076925 -0.010219 437820.000000 0 0 1
-22.510725 -28.008416 -9.560735 37.183487 0.893796 1.830840 0.075615 -0.006831 198915.000000 0 0 1
-23.235425 -26.632206 -9.934035 36.713000 0.853409 1.844798 0.055498 -0.005650 -178801.000000 0 0 1
-22.430825 -25.512176 -10.135835 35.450644 0.849581 1.860756 0.052406 -0.002200 -143196.000000 0 0 1
-22.309925 -24.589026 -9.099335 34.426020 0.833956 1.838291 0.044784 0.002328 -155629.000000 0 0 1
-22.074425 -23.168126 -9.612435 33.413189 0.809568 1.862604 0.046122 0.002359 -429352.000000 0 0 1
-23.206425 -22.546026 -10.127335 33.903161 0.770965 1.874141 0.036662 0.007061 -373755.000000 0 0 1
-23.033125 -21.153026 -10.258335 32.912137 0.742874 1.887766 0.047193 0.010047 166816.000000 0 0 1
-24.351225 -20.409826 -10.577435 33.487688 0.697570 1.892160 0.067180 0.006756 -387371.000000 0 0 1
-24.929925 -20.621926 -11.844935 34.453845 0.691105 1.921748 0.054716 0.011644 -90077.000000 0 0 1
-26.191205 -20.044726 -12.040535 35.110464 0.653236 1.920834 0.054574 0.000414 -307640.000000 0 0 1
-26.295605 -18.512526 -11.967735 34.313250 0.613416 1.927064 0.062248 -0.005182 -1290940.000000 0 0 1
-25.740975 -17.874126 -13.096435 33.964669 0.606947 1.966643 0.067541 0.009759 406316.000000 0 0 1
-25.384645 -16.485626 -13.017735 32.948710 0.575977 1.976963 0.080847 -0.005428 598382.000000 0 0 1
-24.198425 -16.169526 -12.030435 31.492042 0.589067 1.962772 0.053059 -0.004817 -201664.000000 0 0 1
-24.593125 -16.401026 -10.700235 31.437405 0.588160 1.918103 0.091170 -0.012790 -137147.000000 0 0 1
-23.584225 -16.332726 -9.737535 30.295101 0.605693 1.898028 0.072376 -0.009712 -428102.000000 0 0 1
-24.177425 -16.562726 -8.361535 30.476007 0.600621 1.848725 0.057916 -0.020184 123224.000000 0 0 1
-24.432225 -17.948126 -8.118435 31.384356 0.633578 1.832449 0.058616 -0.011567 503406.000000 0 0 1
-25.101135 -18.247026 -6.841835 31.777848 0.628579 1.787797 0.059038 -0.003277 510289.000000 0 0 1
-25.269985 -19.778026 -6.501635 32.741620 0.664083 1.770699 0.059100 -0.001641 -420538.000000 0 0 1
-26.135215 -20.224926 -7.481435 33.883166 0.658596 1.793432 0.045245 -0.016086 -283465.000000 0 0 1
-26.646085 -21.528726 -7.225735 35.010157 0.679570 1.778680 0.042596 -0.003299 159192.000000 0 0 1
-25.974035 -22.691726 -8.039435 35.414650 0.718054 1.799801 0.028152 0.006820 157482.000000 0 0 1
-26.648885 -23.900426 -7.796335 36.635724 0.731080 1.785243 0.031229 0.002257 -122799.000000 0 0 1
-26.185655 -24.911926 -8.692235 37.173210 0.760476 1.806812 0.026876 0.007623 -147233.000000 0 0 1
-26.829505 -26.300936 -8.470335 38.513739 0.775450 1.792539 0.037289 -0.006394 262930.000000 0 0 1
-26.415055 -26.868216 -7.215135 38.362929 0.793903 1.759999 0.055745 -0.026612 669516.000000 0 0 1
-27.229295 -28.039356 -7.015235 39.709614 0.800054 1.748392 0.063900 -0.030167 519134.000000 0 0 1
-26.943595 -28.709846 -5.678035 39.780053 0.817124 1.714021 0.077973 -0.035403 33621.700000 0 0 1
-27.519075 -27.974266 -4.622435 39.512351 0.793601 1.688052 0.064069 -0.034013 172234.000000 0 0 1
-26.999965 -28.335826 -3.322135 39.280449 0.809534 1.655472 0.060401 -0.034713 52691.100000 0 0 1
-27.372095 -29.792106 -2.766735 40.551892 0.827707 1.639076 0.065722 -0.019442 -26007.600000 0 0 1
-26.708595 -30.857766 -3.471035 40.958501 0.857350 1.655643 0.089276 -0.036250 100061.000000 0 0 1
-26.652735 -32.040786 -2.688135 41.763696 0.876941 1.635206 0.078807 -0.039787 29150.000000 0 0 1
-25.589325 -32.196296 -1.574235 41.156934 0.899240 1.609055 0.088249 -0.035820 -814547.000000 0 0 1
-24.281725 -32.021626 -2.025535 40.237911 0.922010 1.621157 0.088451 -0.039878 -858495.000000 0 0 1
-23.505125 -32.048516 -0.856635 39.753391 0.937989 1.592347 0.109533 -0.025293 71741.200000 0 0 1
-22.397725 -30.958916 -0.687735 38.217607 0.944494 1.588793 0.117965 -0.024869 399504.000000 0 0 1
-22.854925 -29.643916 -0.321635 37.432777 0.914001 1.579389 0.096084 -0.026642 -43555.100000 0 0 1
-23.271525 -28.878436 -1.448135 37.116371 0.892502 1.609822 0.104651 -0.033987 -231083.000000 0 0 1
-23.770925 -27.445276 -1.182935 36.327667 0.857017 1.603365 0.062883 -0.025508 751456.000000 0 0 1
-25.117975 -27.502856 -0.670635 37.252778 0.830689 1.588800 0.076920 -0.029331 632525.000000 0 0 1
-25.650215 -26.234846 -0.340935 36.692191 0.796666 1.580088 0.065612 -0.035330 142239.000000 0 0 1
-25.029325 -25.647426 0.962765 35.849469 0.797594 1.543937 0.062911 -0.019643 -148762.000000 0 0 1
-25.327305 -26.443486 2.123365 36.677500 0.806955 1.512871 0.056219 -0.018963 56052.100000 0 0 1
-24.611625 -25.994836 3.255965 35.945304 0.812724 1.480091 0.062154 -0.010307 -6512.960000 0 0 1
-25.327555 -24.893126 4.042965 35.742108 0.776748 1.457439 0.072155 -0.016276 -48417.200000 0 0 1
-25.507075 -23.760126 3.253965 35.010609 0.749954 1.477720 0.054941 -0.016008 -184936.000000 0 0 1
-26.244285 -22.737726 3.866565 34.938760 0.713931 1.459902 0.049426 -0.007124 -315300.000000 0 0 1
-26.481775 -21.539926 2.976565 34.265328 0.682850 1.483819 0.053212 -0.009440 -228779.000000 0 0 1
-25.391435 -20.678426 2.808565 32.866553 0.683451 1.485238 0.036214 -0.004011 -187038.000000 0 0 1
-25.643685 -19.897626 1.697965 32.502264 0.659889 1.518531 0.034249 -0.005633 564876.000000 0 0 1
-24.531125 -18.811326 1.541565 30.951874 0.654189 1.520970 0.040399 -0.005383 1930000.000000 0 0 1
-23.192625 -19.336726 1.311565 30.224609 0.694981 1.527389 0.042612 -0.015717 1731570.000000 0 0 1
-22.117425 -18.419126 1.544765 28.824139 0.694416 1.517178 0.056968 -0.013319 -271798.000000 0 0 1
-20.766525 -19.085726 1.540365 28.246879 0.743247 1.516237 0.052952 -0.021397 -1069280.000000 0 0 1
-20.373725 -19.426326 0.283165 28.152282 0.761599 1.560738 0.028631 -0.013457 441907.000000 0 0 1
-19.191125 -20.233826 0.233765 27.888378 0.811840 1.562414 0.068035 -0.014085 431604.000000 0 0 1
-18.776925 -20.624926 -1.189135 27.917280 0.832265 1.613404 0.074474 -0.019269 -170127.000000 0 0 1
-18.348925 -19.531826 -1.980335 26.871862 0.816615 1.644559 0.089744 -0.029328 33413.500000 0 0 1
-17.979525 -20.013726 -3.262235 27.100825 0.838888 1.691463 0.079444 -0.023525 281588.000000 0 0 1
-17.231825 -18.929026 -4.184235 25.937456 0.832299 1.732825 0.094473 -0.019812 1118190.000000 0 0 1
-15.827025 -18.941526 -3.870735 24.985170 0.874738 1.726344 0.134013 -0.035274 471979.000000 0 1 0
-15.220125 -18.053226 -4.818535 24.099573 0.870340 1.772096 0.131420 -0.031286 1051710.000000 0 1 0
-13.646625 -18.125526 -4.692435 23.168599 0.925445 1.774741 0.137077 -0.032497 762903.000000 0 1 0
-13.005825 -19.290326 -5.117935 23.821448 0.977586 1.787330 0.113637 -0.030644 -233174.000000 0 1 0
-11.639225 -18.974026 -5.291135 22.879714 1.020561 1.804168 0.097644 -0.036235 -89049.200000 0 1 0
-10.720025 -20.182426 -5.308935 23.461331 1.082535 1.799058 0.092795 -0.041978 -127151.000000 0 1 0
-10.974925 -21.010726 -6.414535 24.556991 1.089430 1.835072 0.083353 -0.034656 -488929.000000 0 1 0
-9.865825 -21.813826 -6.699935 24.860946 1.146053 1.843666 0.086094 -0.028652 -280267.000000 0 1 0
-10.053525 -22.921526 -7.767135 26.206833 1.157458 1.871695 0.085087 -0.009243 -277925.000000 0 0 1
-10.284825 -22.533726 -9.086835 26.384029 1.142617 1.922403 0.082358 -0.008412 -82299.600000 0 0 1
-10.555825 -23.741026 -9.784935 27.763406 1.152422 1.930973 0.089346 -0.002747 -528521.000000 0 0 1
-11.318625 -23.398926 -11.042335 28.241001 1.120254 1.972518 0.112391 -0.004523 -764754.000000 0 0 1
-10.788625 -22.600326 -12.062235 27.796882 1.125419 2.019660 0.096515 -0.003810 -454310.000000 0 0 1
-11.728025 -22.014226 -12.970735 28.114279 1.081295 2.050321 0.108321 -0.018444 -306772.000000 0 0 1
-11.211925 -20.965526 -13.952135 27.566694 1.079714 2.101480 0.099471 -0.011005 -401957.000000 0 0 1
-11.048525 -19.716526 -13.352735 26.250844 1.060027 2.104423 0.110002 -0.011922 -112850.000000 0 0 1
-10.883025 -18.656526 -14.247535 25.874668 1.042720 2.153923 0.100597 -0.004104 -72816.100000 0 0 1
-10.348625 -17.406426 -13.527035 24.352790 1.034409 2.159714 0.108532 -0.008823 -466624.000000 0 1 0
-11.162825 -16.978526 -12.485035 23.848587 0.989190 2.121765 0.110533 -0.015976 -311578.000000 0 1 0
-10.550525 -16.091626 -11.574135 22.454723 0.990457 2.112321 0.092597 -0.020008 -94568.800000 0 1 0
-10.283425 -14.637926 -12.027535 21.556421 0.958382 2.162717 0.097854 -0.024047 -463476.000000 0 1 0
-11.436425 -13.960126 -12.405135 21.898957 0.884445 2.173014 0.090699 -0.015273 -319130.000000 0 1 0
-11.502925 -13.948326 -13.854135 22.777404 0.881186 2.224638 0.101352 -0.019977 -91662.400000 0 1 0
-12.809825 -13.281226 -14.330035 23.363058 0.803464 2.231108 0.104338 -0.022294 -16485.400000 0 1 0
-12.949225 -11.901826 -14.038535 22.503696 0.743276 2.244433 0.081790 -0.008688 718633.000000 0 1 0
-14.123625 -11.361826 -14.690735 23.332071 0.677452 2.251882 0.094321 -0.011925 651428.000000 0 1 0
-14.275725 -9.881326 -14.176035 22.414212 0.605456 2.255518 0.077381 -0.018984 -155636.000000 0 1 0
-13.327025 -8.873526 -14.455835 21.571282 0.587423 2.305197 0.063911 -0.013218 -39090.500000 0 1 0
-13.213525 -8.363926 -15.761635 22.203190 0.564319 2.360126 0.063144 -0.012964 -67642.400000 0 1 0
-12.170625 -7.250226 -15.921535 21.311620 0.537263 2.414458 0.049890 0.000083 1432330.000000 0 1 0
-10.769225 -7.613026 -15.978135 20.717991 0.615358 2.451552 0.041606 -0.002326 1104070.000000 0 1 0
-9.879825 -6.547726 -15.831135 19.776463 0.585277 2.498932 0.031431 0.004489 197972.000000 0 1 0
11.638175 22.032574 16.169765 29.704255 1.084824 0.995172 0.086484 -0.013468 -413969.000000 0 0 1
12.281775 22.142974 17.379965 30.711830 1.064384 0.969266 0.109394 -0.030804 -73382.100000 0 0 1
12.724275 20.861774 17.856265 30.264947 1.023105 0.939740 0.089687 -0.024753 251346.000000 0 0 1
14.007475 20.964574 18.746165 31.418807 0.981768 0.931471 0.097764 -0.029633 -492196.000000 0 0 1
15.139775 21.224974 18.006865 31.685320 0.951200 0.966354 0.091858 -0.017501 -425434.000000 0 0 1
16.277275 20.728974 18.752065 32.346252 0.905119 0.952400 0.112111 -0.027922 -80718.600000 0 0 1
17.589575 21.142774 18.125365 32.938411 0.876879 0.988096 0.087152 -0.012873 -1269110.000000 0 0 1
17.812675 22.517274 18.383265 34.091985 0.901526 1.001279 0.090863 -0.013474 12363.500000 0 0 1
18.939875 23.112474 17.763665 34.762813 0.884298 1.034453 0.079507 -0.007102 623674.000000 0 0 1
20.306975 22.808574 18.448965 35.678686 0.843354 1.027353 0.059752 -0.007017 -210500.000000 0 0 1
20.860675 21.566874 18.135965 35.060106 0.802041 1.027124 0.066667 -0.003200 135774.000000 0 0 1
22.079575 21.367774 18.833065 36.038504 0.769017 1.020920 0.074327 -0.007979 82294.600000 0 0 1
22.386675 19.819174 18.744965 35.289327 0.724640 1.010804 0.063471 -0.010864 -141717.000000 0 0 1
22.560775 19.275474 17.420565 34.409426 0.707031 1.039939 0.046008 -0.005613 16808.000000 0 0 1
22.119175 17.954474 17.262465 33.310865 0.681844 1.026024 0.039527 -0.006810 -41358.100000 0 0 1
23.107375 16.787974 17.622165 33.560804 0.628304 1.017985 0.017341 -0.002286 120058.000000 0 0 1
24.074875 16.647474 16.604665 33.651938 0.604990 1.054775 0.025872 -0.008986 -23464.300000 0 0 1
24.937475 15.568074 16.904765 33.911852 0.558084 1.048939 0.011563 -0.007504 -35014.300000 0 0 1
26.223375 15.510574 16.008265 34.416680 0.534130 1.087014 0.108904 -0.040917 -333356.000000 0 0 1
27.112375 16.605674 16.118165 35.645821 0.549542 1.101593 0.087953 -0.035235 510715.000000 0 0 1
28.165675 16.478474 17.079365 36.831374 0.529358 1.088609 0.090451 -0.049986 671615.000000 0 0 1
29.278175 15.443474 16.711265 37.080707 0.485384 1.103277 0.101599 -0.055029 -511171.000000 0 0 1
29.996975 15.648574 15.484465 37.208400 0.480834 1.141584 0.151634 -0.052213 249357.000000 0 0 1
29.872175 14.600474 14.524165 36.283220 0.454619 1.158952 0.182212 -0.062125 -688628.000000 0 0 1
28.982675 14.796574 13.361765 35.177704 0.472037 1.181177 0.143481 -0.046109 -740143.000000 0 0 1
29.586975 15.611074 12.341465 35.656788 0.485509 1.217366 0.146656 -0.037450 648512.000000 0 0 1
28.740275 15.715674 11.158765 34.604969 0.500396 1.242468 0.124068 -0.033543 1315280.000000 0 0 1
27.422575 16.566374 11.398765 34.005503 0.543439 1.228975 0.115366 -0.033010 86987.800000 0 0 1
27.591975 17.990674 11.396465 34.854854 0.577798 1.237702 0.096583 -0.025913 -116730.000000 0 0 1
28.370375 18.526874 12.417865 36.087763 0.578506 1.219514 0.097053 -0.028554 -475166.000000 0 0 1
27.733075 18.510374 13.810665 36.090053 0.588543 1.178109 0.092749 -0.025756 -274590.000000 0 0 1
26.608375 19.344074 13.906765 35.715500 0.628613 1.170842 0.094431 -0.008227 -14850.000000 0 0 1
26.009775 19.349274 15.192065 35.800861 0.639601 1.132553 0.073538 -0.007024 186769.000000 0 0 1
26.760575 20.226974 16.268465 37.281655 0.647234 1.119240 0.067449 -0.010186 -3851.210000 0 0 1
26.774075 21.604274 16.061465 37.967966 0.678940 1.134013 0.048759 0.002337 993278.000000 0 0 1
25.499375 22.300674 16.181165 37.541554 0.718579 1.125173 0.064487 -0.003125 998386.000000 0 0 1
25.522175 23.810274 15.954465 38.377800 0.750711 1.142061 0.057672 0.006358 -218033.000000 0 0 1
25.646575 24.160674 14.627865 38.150484 0.755574 1.177294 0.099475 -0.006670 50430.500000 0 0 1
25.471575 25.534274 14.414565 38.840443 0.786627 1.190579 0.094604 -0.012861 -183013.000000 0 0 1
25.108775 25.981474 12.958665 38.385083 0.802478 1.226434 0.082988 -0.016297 -51426.800000 0 0 1
23.933275 25.337974 12.531465 37.038523 0.813900 1.225648 0.096114 -0.007535 14977.800000 0 0 1
23.550675 25.754874 11.231765 36.661975 0.830073 1.259429 0.079594 -0.026065 100984.000000 0 0 1
22.693975 24.674074 10.516865 35.134469 0.827176 1.266804 0.080166 -0.026924 1048500.000000 0 0 1
21.292775 24.563474 10.869665 34.276758 0.856603 1.248111 0.073612 -0.020064 1135800.000000 0 0 1
20.737975 23.265274 10.914465 33.022146 0.842769 1.233942 0.082482 -0.012608 169816.000000 0 0 1
20.466275 22.552174 9.561765 31.920156 0.833849 1.266573 0.088563 -0.008111 -795017.000000 0 0 1
19.507375 23.140474 8.723165 31.497823 0.870381 1.290183 0.077249 -0.005714 -69737.700000 0 0 1
19.991975 23.965974 7.667265 32.137734 0.875558 1.329898 0.070094 -0.010686 -25176.400000 0 0 1
18.909875 24.372874 6.613665 31.549341 0.910951 1.359601 0.070572 -0.010719 -490532.000000 0 0 1
18.568575 23.267174 5.716765 30.312288 0.897240 1.381064 0.063060 -0.000257 479879.000000 0 0 1
17.568375 23.368574 4.715865 29.613805 0.926147 1.410870 0.088197 -0.025550 123840.000000 0 0 1
16.204375 23.992874 5.065865 29.392223 0.976784 1.397577 0.078855 -0.010760 -510590.000000 0 0 1
16.355675 25.421074 5.198265 30.671829 0.999082 1.400494 0.078758 -0.025350 -29845.000000 0 0 1
15.188475 25.954974 5.765865 30.620184 1.041341 1.381363 0.074610 -0.027430 -182333.000000 0 0 1
14.863475 27.262974 5.023065 31.455108 1.071654 1.410420 0.078234 -0.029771 -297135.000000 0 0 1
14.472275 27.112874 3.727365 30.958811 1.080492 1.450106 0.083301 -0.024159 392275.000000 0 0 1
13.898375 28.305374 3.156965 31.691095 1.114362 1.471014 0.083191 -0.023296 157836.000000 0 0 1
13.326975 28.197774 1.703465 31.234989 1.129287 1.516232 0.090533 -0.022441 -104454.000000 0 0 1
14.327475 27.902474 0.765265 31.375313 1.096420 1.546403 0.111700 -0.028675 -288979.000000 0 0 1
14.457675 26.549874 0.356165 30.233211 1.072149 1.559015 0.090359 -0.023912 -117061.000000 0 0 1
15.610275 26.230274 -0.599735 30.529783 1.033970 1.590442 0.095350 -0.032531 -138360.000000 0 0 1
15.358575 26.708374 -1.897735 30.867855 1.048927 1.632314 0.094061 -0.031866 -287737.000000 0 0 1
16.436475 26.522374 -2.781235 31.326176 1.016002 1.659696 0.079996 -0.019994 -218468.000000 0 0 1
16.201575 27.096874 -4.182435 31.846890 1.031913 1.702506 0.088994 -0.018876 -1030960.000000 0 0 1
15.050475 26.628474 -4.808235 30.963068 1.056356 1.726717 0.107291 -0.021862 -853968.000000 0 0 1
15.019675 26.904374 -6.147535 31.420188 1.061632 1.767722 0.102908 -0.021460 -412561.000000 0 0 1
13.678675 26.662674 -6.802735 30.729165 1.096781 1.794023 0.112702 -0.033902 -433897.000000 0 0 1
13.369375 25.275074 -6.927335 29.420359 1.084254 1.808489 0.114874 -0.034136 -1233400.000000 0 0 1
12.152775 25.146274 -7.539635 28.928725 1.120611 1.834469 0.094174 -0.038861 -1186370.000000 0 0 1
11.916875 23.717174 -8.077535 27.744600 1.105185 1.866214 0.097629 -0.032260 39749.800000 0 0 1
12.640675 23.392074 -9.257735 28.154599 1.075367 1.905848 0.092510 -0.032730 -196657.000000 0 0 1
12.186175 22.216574 -9.807435 27.171029 1.069092 1.940085 0.099668 -0.027507 -329321.000000 0 0 1
12.664475 21.779374 -11.154235 27.552623 1.044099 1.987593 0.093340 -0.023457 -200494.000000 0 0 1
12.251975 20.480874 -11.537635 26.508379 1.031690 2.021107 0.102319 -0.022307 -238624.000000 0 0 1
12.429775 20.158374 -12.907835 26.971681 1.018256 2.069822 0.100444 -0.027365 122510.000000 0 0 1
13.793975 19.598674 -13.396235 27.456163 0.957510 2.080494 0.097833 -0.020066 -379248.000000 0 0 1
14.835075 20.496774 -13.319535 28.593832 0.944291 2.055356 0.088223 -0.021962 -1798580.000000 0 0 1
15.960675 19.944874 -13.885335 29.074795 0.895909 2.068687 0.088191 -0.012835 -750597.000000 0 0 1
17.234275 20.700174 -13.446435 30.105217 0.876511 2.033812 0.087982 -0.011473 -279446.000000 0 0 1
17.558475 21.940074 -14.052835 31.418929 0.895877 2.034510 0.076358 -0.012667 -226602.000000 0 0 1
16.635775 23.006074 -13.911635 31.615851 0.944732 2.026418 0.080862 -0.015805 35942.800000 0 0 1
17.164075 24.220274 -14.718735 33.134096 0.954278 2.031097 0.068771 -0.021240 -63955.100000 0 0 1
17.204475 24.089874 -16.157635 33.725142 0.950618 2.070423 0.057973 -0.018294 212355.000000 0 0 1
15.969975 24.433074 -16.775535 33.666509 0.991880 2.092417 0.059075 -0.013869 504657.000000 0 0 1
16.156275 24.188474 -18.275435 34.352570 0.981918 2.131753 0.047092 0.002740 84790.800000 0 0 1
16.369175 22.836974 -18.742635 33.775193 0.948895 2.159067 0.055692 0.005014 -109725.000000 0 0 1
16.485875 22.884074 -20.148135 34.661395 0.946504 2.191103 0.050430 0.008141 -227711.000000 0 0 1
16.872775 21.498874 -20.799735 34.344157 0.905379 2.221349 0.051130 0.005276 -481042.000000 0 0 1
15.821675 20.635874 -21.133235 33.507885 0.916688 2.253244 0.064513 0.006618 -132865.000000 0 0 1
16.278775 19.557574 -21.882235 33.560832 0.876638 2.281038 0.058356 0.003907 245431.000000 0 0 1
15.153775 18.505974 -22.168735 32.612280 0.884662 2.318241 0.053505 -0.003677 16678.100000 0 0 1
14.751175 17.873374 -21.015835 31.284501 0.880808 2.307385 0.064860 -0.005710 615488.000000 0 0 1
13.785175 16.811274 -21.200135 30.366029 0.883981 2.343611 0.057610 -0.013651 115180.000000 0 0 1
12.309275 17.165774 -21.145835 29.888600 0.948697 2.356734 0.054458 -0.017336 -1169840.000000 0 0 1
11.752275 17.414574 -19.892835 28.932823 0.977148 2.328909 0.043964 -0.015518 -357270.000000 0 0 1
10.427875 17.798374 -20.216435 28.882987 1.040817 2.346114 0.048829 -0.008860 -222944.000000 0 0 1
9.386175 17.451174 -19.161935 27.564897 1.077326 2.339435 0.045487 -0.013662 -603726.000000 0 0 1
9.414375 16.043274 -18.924635 26.535993 1.040131 2.364804 0.040649 -0.024831 -135231.000000 0 0 1
8.095475 15.607174 -18.719135 25.681250 1.092299 2.387514 0.054911 -0.011438 -15797.300000 0 0 1
7.485175 15.644474 -17.274635 24.478367 1.124533 2.354221 0.051311 -0.015054 -229278.000000 0 1 0
7.053075 16.917974 -16.888235 24.923407 1.175808 2.315298 0.068212 -0.021601 -162804.000000 0 1 0
6.520475 16.894374 -15.564635 23.878743 1.202456 2.280778 0.059665 -0.031177 -378242.000000 0 1 0
6.245975 18.292974 -15.051435 24.498792 1.241767 2.232389 0.069796 -0.032856 -364602.000000 0 1 0
7.326875 19.119474 -14.693235 25.201757 1.204843 2.193242 0.067846 -0.033815 -282421.000000 0 0 1
7.859575 19.828374 -15.824135 26.558249 1.193414 2.209092 0.082709 -0.024746 361091.000000 0 0 1
9.161075 20.640574 -15.484235 27.381018 1.153078 2.171848 0.073357 -0.010837 444226.000000 0 0 1
9.077075 21.841174 -14.720335 27.858903 1.176919 2.127498 0.081271 -0.019182 -211609.000000 0 0 1
8.788875 21.697674 -13.392935 26.970430 1.185935 2.090449 0.071427 -0.030718 -344736.000000 0 0 1
8.287875 22.929474 -12.704435 27.492769 1.223957 2.051159 0.066621 -0.028956 270667.000000 0 0 1
6.949975 23.332074 -13.060735 27.627353 1.281293 2.063201 0.073483 -0.030153 411584.000000 0 0 1
6.463175 24.398074 -12.306635 28.080098 1.311839 2.024468 0.063469 -0.036551 -55730.900000 0 0 1
6.005975 24.024274 -10.863435 27.041666 1.325821 1.984201 0.060555 -0.037081 -713588.000000 0 0 1
7.037375 23.766674 -9.949335 26.708963 1.282919 1.952508 0.052295 -0.036206 -145884.000000 0 0 1
6.526475 22.958774 -8.898535 25.473204 1.293833 1.927651 0.055897 -0.041754 309252.000000 0 0 1
7.542075 22.849574 -7.715135 25.268741 1.251981 1.881074 0.052795 -0.041772 238287.000000 0 0 1
7.673875 24.054274 -7.018635 26.206062 1.261980 1.841931 0.054752 -0.038803 63098.800000 0 0 1
8.669575 23.990074 -6.028635 26.211250 1.224018 1.802876 0.058736 -0.033472 -257072.000000 0 0 1
8.848375 25.398974 -5.382635 27.429444 1.235570 1.768314 0.050345 -0.032287 108684.000000 0 0 1
9.310875 26.368874 -6.329135 28.671726 1.231362 1.793374 0.065374 -0.035900 -105823.000000 0 0 1
9.461175 27.640174 -5.745735 29.774260 1.240999 1.764991 0.061563 -0.030158 234753.000000 0 0 1
9.798675 28.736774 -6.799335 31.113457 1.242179 1.791108 0.064771 -0.022924 1531460.000000 0 0 1
11.167075 28.735974 -7.296835 31.681281 1.200148 1.803203 0.071383 -0.026660 1023820.000000 0 0 1
11.329875 29.923874 -8.070835 32.999132 1.208853 1.817880 0.062576 -0.017568 1506890.000000 0 0 1
12.819075 30.066974 -8.623435 33.804072 1.167782 1.828748 0.076726 -0.022814 1088200.000000 0 0 1
13.802275 30.080074 -7.664135 33.971350 1.140606 1.798361 0.071491 -0.012960 -575502.000000 0 0 1
15.022175 30.581674 -8.195935 35.043942 1.114201 1.806859 0.067533 -0.013049 1128580.000000 0 0 1
16.214275 30.852274 -7.192735 35.587933 1.086922 1.774310 0.064095 -0.012080 1136850.000000 0 0 1
17.040275 29.710274 -6.922735 34.942748 1.050054 1.770232 0.063196 -0.012068 -79173.400000 0 0 1
18.224875 30.062074 -6.257035 35.707490 1.025800 1.746936 0.045986 -0.004305 343754.000000 0 0 1
19.254475 28.906774 -6.065135 35.257939 0.983194 1.743678 0.035389 -0.005526 98990.200000 0 0 1
18.865975 27.987674 -5.057535 34.129366 0.977678 1.719531 0.062590 -0.018509 1929.650000 0 0 1
19.902875 27.008874 -4.789435 33.890152 0.935731 1.712593 0.052073 -0.016378 445438.000000 0 0 1
20.050375 25.809474 -5.741435 33.182986 0.910325 1.744695 0.057039 -0.006856 -290871.000000 0 0 1
20.436775 26.228974 -7.024035 33.984672 0.908888 1.778979 0.036972 -0.002040 149147.000000 0 0 1
20.370175 25.272974 -8.028335 33.438323 0.892404 1.813259 0.037793 -0.014243 -468422.000000 0 0 1
21.032275 25.879374 -9.322935 34.626807 0.888357 1.843401 0.032774 -0.016078 1177410.000000 0 0 1
22.466675 25.903774 -9.425635 35.561209 0.856337 1.839056 0.022111 -0.014124 1137720.000000 0 0 1
23.125675 24.643874 -9.510835 35.108024 0.817169 1.845126 0.032095 -0.011830 -510333.000000 0 0 1
24.662075 24.705874 -9.538235 36.188066 0.786285 1.837522 0.021345 -0.005558 -164751.000000 0 0 1
25.225775 25.142774 -10.766135 37.207640 0.783750 1.864347 0.029045 -0.009006 -819782.000000 0 0 1
26.570075 25.391774 -10.523435 38.228965 0.762726 1.849671 0.039932 0.002946 -369715.000000 0 0 1
27.407275 25.433974 -11.853835 39.224472 0.748072 1.877801 0.045675 -0.001144 321737.000000 0 0 1
27.220175 26.673874 -12.536435 40.119767 0.775262 1.888594 0.061180 0.001327 35741.300000 0 0 1
28.073775 26.729674 -13.674635 41.104841 0.760877 1.909937 0.049552 0.003935 300040.000000 0 0 1
27.896375 27.898874 -14.667335 42.091397 0.785443 1.926728 0.058805 -0.004889 -55053.400000 0 0 1
28.242775 29.172574 -14.171435 43.006081 0.801591 1.906593 0.070750 -0.013104 38477.500000 0 0 1
28.192075 30.126774 -15.208635 43.974063 0.818561 1.923946 0.066559 0.002285 -104256.000000 0 0 1
28.607975 31.517674 -14.745835 45.046861 0.833754 1.904288 0.066515 -0.009067 405510.000000 0 0 1
29.981975 31.655074 -14.399635 45.916359 0.812536 1.889784 0.076433 -0.022899 473468.000000 0 0 1
30.378575 33.030574 -14.235335 47.079947 0.827197 1.877969 0.081106 -0.019635 39688.900000 0 0 1
16.658375 -32.140307 -27.977190 45.751764 -1.092615 2.228751 0.094384 -0.044673 179824.000000 0 0 1
17.706075 -32.995207 -27.518860 46.470167 -1.078279 2.204562 0.072564 -0.031164 443506.000000 0 0 1
17.989875 -32.745807 -26.141330 45.599261 -1.068430 2.181305 0.074577 -0.035082 57760.400000 0 0 1
19.253975 -33.504307 -25.603050 46.354830 -1.049209 2.155950 0.007096 -0.020644 592643.000000 0 0 1
20.511175 -33.007207 -26.030850 46.773809 -1.014779 2.160995 0.012409 -0.014457 453569.000000 0 0 1
20.965375 -33.443107 -27.303250 47.994331 -1.010834 2.175946 0.032428 -0.013252 -567463.000000 0 0 1
22.405175 -32.924707 -27.483450 48.387687 -0.973280 2.174851 0.047382 -0.002905 -269696.000000 0 0 1
22.477675 -31.558507 -27.731800 47.647014 -0.951893 2.192014 0.043576 -0.012254 507379.000000 0 0 1
23.814575 -31.091007 -27.602620 47.913352 -0.917157 2.184739 0.004599 0.001633 58433.500000 0 0 1
24.131975 -29.804607 -28.395020 47.717334 -0.890185 2.208146 -0.011656 0.005883 -438198.000000 0 0 1
24.323975 -30.158607 -29.711950 48.826195 -0.892083 2.224997 -0.007933 -0.003329 91045.800000 0 0 1
24.894075 -29.026707 -30.377620 48.837122 -0.861891 2.242115 0.008909 -0.014232 236199.000000 0 0 1
25.454075 -29.305907 -31.794700 50.176180 -0.855623 2.257073 0.020158 -0.006255 63179.000000 0 0 1
26.565375 -30.143507 -31.984290 51.355087 -0.848411 2.243121 0.028509 -0.015403 -257930.000000 0 0 1
26.781175 -30.538507 -33.300150 52.523630 -0.850855 2.257515 0.026378 -0.020685 -94444.100000 0 0 1
28.044675 -31.421707 -33.481240 53.803540 -0.842126 2.242457 0.015877 -0.026629 36970.600000 0 0 1
29.149675 -30.559807 -33.547810 53.935711 -0.809010 2.242086 0.034535 -0.023854 -434475.000000 0 0 1
30.340975 -31.235007 -33.947760 55.214589 -0.799916 2.232971 0.036024 -0.017919 813114.000000 0 0 1
31.489475 -30.174307 34.035015 55.321407 -0.764073 0.908127 0.055711 -0.027262 288134.000000 0 0 1
31.369575 -29.464007 32.827220 54.127667 -0.754084 0.919173 0.061941 -0.021158 464207.000000 0 0 1
32.573275 -28.710107 32.706882 54.360175 -0.722444 0.925206 0.074221 -0.023748 395899.000000 0 0 1
32.606475 -27.769107 31.528935 53.182509 -0.705448 0.936210 0.070394 -0.025423 -236059.000000 0 0 1
33.816675 -27.046307 31.474675 53.532471 -0.674614 0.942268 0.064879 -0.032053 162500.000000 0 0 1
33.851975 -26.125907 30.391015 52.460776 -0.657288 0.952915 0.077846 -0.030794 -56414.400000 0 0 1
34.527875 -26.652707 29.052535 52.407926 -0.657382 0.983210 0.079867 -0.027613 -88480.200000 0 0 1
33.865075 -27.704607 28.375135 52.149179 -0.685673 0.995463 0.071592 -0.039767 872569.000000 0 0 1
32.602775 -27.347707 27.787975 50.823317 -0.697965 0.992311 0.074565 -0.042436 123178.000000 0 0 1
31.933975 -28.532007 27.135505 50.697040 -0.729195 1.005995 0.055909 -0.032154 -114325.000000 0 0 1
30.691175 -28.126107 26.576335 49.389551 -0.741815 1.002619 0.044401 -0.026434 339488.000000 0 0 1
30.081075 -29.148707 25.770655 49.179720 -0.769658 1.019244 0.036039 -0.016054 -69379.300000 0 0 1
28.760775 -28.688207 25.148885 47.777210 -0.784135 1.016461 0.023447 -0.005608 -647429.000000 0 0 1
27.671175 -28.609507 26.010525 47.547295 -0.802069 0.991966 0.015778 -0.005867 -749471.000000 0 0 1
26.555175 -28.241207 25.238685 46.257262 -0.816157 0.993673 0.011453 0.010727 -1006470.000000 0 0 1
25.290575 -28.158307 26.027285 45.933898 -0.839000 0.968393 0.021760 0.005056 -961100.000000 0 0 1
25.357675 -27.029307 26.875335 45.780768 -0.817297 0.943393 0.015718 -0.000483 -377387.000000 0 0 1
24.134675 -26.849707 27.516475 45.393234 -0.838600 0.919548 0.026993 -0.012636 -496324.000000 0 0 1
24.062575 -25.597807 28.468895 45.218727 -0.816303 0.889781 0.031657 -0.000761 85680.100000 0 0 1
22.754075 -25.337507 28.979245 44.716147 -0.839066 0.865747 0.055270 -0.003408 413651.000000 0 0 1
22.693775 -24.404807 30.030335 44.860039 -0.821711 0.837365 0.059285 -0.005162 -372327.000000 0 0 1
22.380475 -22.977307 29.530525 43.599246 -0.798556 0.826686 0.059918 -0.007405 -301110.000000 0 0 1
23.197275 -22.512707 28.440655 43.055852 -0.770423 0.849242 0.065643 -0.006085 318840.000000 0 0 1
23.078275 -21.107107 28.194925 42.107844 -0.740816 0.837142 0.091686 -0.001103 -154591.000000 0 0 1
23.745675 -20.164007 29.234335 42.721079 -0.704009 0.817143 0.076223 0.000433 -501384.000000 0 0 1
23.304375 -20.218507 30.607095 43.458902 -0.714614 0.789392 0.084118 0.001340 293925.000000 0 0 1
24.004575 -19.275407 31.396925 43.971898 -0.676561 0.775569 0.085834 -0.002709 -197610.000000 0 0 1
23.360375 -19.153607 32.777755 44.575206 -0.686769 0.744634 0.098469 -0.001564 -176754.000000 0 0 1
23.605775 -20.203607 33.654404 45.804337 -0.707895 0.745509 0.087085 -0.002386 370719.000000 0 0 1
22.903475 -20.041807 -33.261940 45.084364 -0.718861 2.400559 0.086132 -0.011749 -5586.200000 0 0 1
22.908775 -21.176707 -32.198380 44.833030 -0.746129 2.371986 0.068373 -0.003227 658444.000000 0 0 1
24.186875 -21.419507 -31.591590 45.186599 -0.724793 2.344985 0.060911 -0.003095 626582.000000 0 0 1
24.025375 -22.516907 -30.780620 45.074120 -0.752999 2.322506 0.047387 -0.005869 539131.000000 0 0 1
25.302475 -22.902607 -29.984630 45.429315 -0.735655 2.291653 0.047052 -0.004697 505730.000000 0 0 1
26.417975 -23.465807 -30.645330 46.772746 -0.726286 2.285239 0.053541 -0.000008 -268321.000000 0 0 1
27.340775 -23.961507 -29.723860 46.959340 -0.719623 2.256180 0.056102 -0.013145 -610972.000000 0 0 1
28.584175 -24.583407 -30.336730 48.391282 -0.710291 2.248370 0.049865 -0.012740 -479527.000000 0 0 1
29.385975 -23.719507 -31.139570 48.947149 -0.679098 2.260343 0.053757 -0.007187 177175.000000 0 0 1
29.228175 -23.766407 -32.577260 49.803677 -0.682698 2.283806 0.050087 -0.005075 -25406.200000 0 0 1
29.492875 -25.061707 -33.347480 51.087897 -0.704352 2.282001 0.046327 -0.004905 213005.000000 0 0 1
28.433775 -26.009907 -33.208010 50.870097 -0.740907 2.282071 0.067348 -0.009715 391104.000000 0 0 1
28.738375 -27.259707 -33.775110 52.055200 -0.758999 2.276846 0.058802 -0.014160 150811.000000 0 0 1
28.144375 -27.305407 32.931233 51.207004 -0.770269 0.872257 0.059681 -0.017575 31169.700000 0 0 1
28.890275 -26.504207 32.042735 50.634552 -0.742351 0.885602 0.048644 -0.021984 92395.500000 0 0 1
28.496375 -26.618507 30.686135 49.620834 -0.751339 0.904076 0.045957 -0.015247 -57996.100000 0 0 1
29.594575 -25.983407 29.771745 49.369354 -0.720515 0.923489 0.056199 -0.018593 186065.000000 0 0 1
29.788275 -24.556807 29.580785 48.635388 -0.689430 0.916986 0.045172 -0.023525 121411.000000 0 0 1
30.127875 -23.917607 30.790025 49.272370 -0.670992 0.895800 0.041408 -0.012521 -1864310.000000 0 0 1
30.516175 -22.461407 30.793305 48.826011 -0.634513 0.888375 0.037618 -0.005182 1060630.000000 0 0 1
31.859475 -22.289107 30.296895 49.292315 -0.610462 0.908870 0.056508 -0.010320 1112320.000000 0 0 1
32.886375 -22.755907 31.166135 50.701804 -0.605307 0.908797 0.053470 -0.015381 -995945.000000 0 0 1
34.251875 -22.050607 30.963105 51.167706 -0.571989 0.920867 0.061620 -0.024399 154518.000000 0 0 1
34.805175 -22.561207 29.719275 51.025911 -0.575119 0.949075 0.076074 -0.033763 44951.100000 0 0 1
36.145875 -22.150507 29.582815 51.694412 -0.549784 0.961533 0.064695 -0.035189 -101216.000000 0 0 1
36.570875 -22.412107 28.129535 51.293296 -0.549807 0.990340 0.084527 -0.034388 -174706.000000 0 0 1
-36.543511 -23.759407 27.789395 51.693211 0.576493 1.003228 0.080690 -0.034297 226888.000000 0 0 1
-36.153311 -23.848107 26.440365 50.743345 0.583121 1.022703 0.082816 -0.025087 -217331.000000 0 0 1
-35.916311 -25.285107 26.007575 51.046175 0.613406 1.036203 0.068561 -0.037195 -328461.000000 0 0 1
36.320675 -26.045007 25.888985 51.650493 -0.622101 1.045772 0.077065 -0.040932 -159305.000000 0 0 1
36.462975 -27.352707 25.509415 52.234561 -0.643597 1.060584 0.076168 -0.034345 20505.300000 0 0 1
-36.363011 -28.279807 26.610835 53.199179 0.661000 1.046953 0.083672 -0.031876 -550669.000000 0 0 1
-36.066511 -29.632807 26.100175 53.480049 0.687783 1.060958 0.081087 -0.028571 700417.000000 0 0 1
-35.156211 -30.355007 26.981065 53.715580 0.712241 1.044546 0.084713 -0.028015 911731.000000 0 0 1
-33.672611 -29.847007 26.936545 52.442979 0.725244 1.031380 0.091928 -0.021459 -192146.000000 0 0 1
-33.118011 -29.996707 25.651375 51.522792 0.735984 1.049662 0.080482 -0.019813 -891241.000000 0 0 1
-31.852211 -29.424607 25.736075 50.425355 0.745802 1.035170 0.061998 -0.010365 -657045.000000 0 0 1
-31.249611 -29.292307 24.318565 49.254137 0.753080 1.054415 0.063454 -0.004920 -144058.000000 0 0 1
-30.930111 -30.520907 23.706015 49.499219 0.778739 1.071376 0.071778 -0.009397 206847.000000 0 0 1
-30.485411 -30.264307 22.427365 48.459006 0.781759 1.089633 0.062151 0.002292 -679193.000000 0 0 1
-30.557111 -31.512107 21.527165 48.889352 0.800783 1.114837 0.067200 -0.001714 276404.000000 0 0 1
-29.645911 -32.579107 21.787465 49.142363 0.832502 1.111459 0.073071 -0.005824 792926.000000 0 0 1
-28.272911 -32.338207 21.485265 48.028468 0.852370 1.107002 0.083677 -0.006947 603816.000000 0 0 1
-27.342611 -33.582407 21.366265 48.289892 0.887460 1.112458 0.072419 0.002941 -63179.400000 0 0 1
-27.524011 33.795674 20.245165 48.058147 -0.887322 1.135958 0.061758 -0.001460 574883.000000 0 0 1
-28.636011 32.867074 20.206665 48.047633 -0.854084 1.136740 0.068773 -0.001478 725009.000000 0 0 1
-28.513611 31.706074 21.266365 47.650388 -0.838362 1.108170 0.074575 -0.002211 -442613.000000 0 0 1
-27.514211 30.786374 21.032965 46.338087 -0.841465 1.099656 0.064320 -0.004314 -532624.000000 0 0 1
-27.578811 29.737574 22.012065 46.145911 -0.823044 1.073547 0.070722 -0.015162 46743.600000 0 0 1
-26.585911 28.629874 21.648865 44.667144 -0.822399 1.064809 0.068140 -0.012561 -590831.000000 0 0 1
-25.243111 28.983874 21.569265 44.073947 -0.854272 1.059408 0.063724 -0.008290 -670927.000000 0 0 1
-24.528511 27.962574 20.905365 42.668345 -0.850727 1.058764 0.056591 -0.010804 62101.800000 0 0 1
-23.006611 28.226774 21.027665 42.050180 -0.886938 1.047127 0.037389 -0.002913 10406.200000 0 0 1
-22.473011 28.166674 22.353965 42.403980 -0.897363 1.015533 0.045585 -0.011879 458289.000000 0 0 1
-21.181611 28.738574 22.376065 42.133770 -0.935638 1.010931 0.055280 -0.012679 291688.000000 0 0 1
-20.436311 28.861174 23.753475 42.600913 -0.954661 0.979327 0.047074 -0.011157 -184499.000000 0 0 1
-20.204111 27.652774 24.441415 42.074515 -0.939804 0.950953 0.048430 -0.021968 305817.000000 0 0 1
-19.821811 27.665974 25.807295 42.712139 -0.949103 0.922017 0.049683 -0.018389 1022380.000000 0 0 1
-18.330911 28.120674 26.111765 42.527860 -0.993110 0.909688 0.051601 -0.014799 329293.000000 0 0 1
-18.148611 29.464274 25.889945 43.218107 -1.018729 0.928478 0.032362 -0.007395 439586.000000 0 0 1
-16.856111 29.957974 26.256695 43.255320 -1.058286 0.918495 0.027736 -0.000570 243811.000000 0 0 1
-16.676311 30.075774 27.794545 44.217511 -1.064523 0.891061 0.015201 0.003362 -483227.000000 0 0 1
-16.727211 28.804474 28.471155 43.818991 -1.044677 0.863548 0.032674 0.000586 113905.000000 0 0 1
-16.927111 28.968274 29.857385 44.912709 -1.041977 0.843588 0.028463 0.004881 -230689.000000 0 0 1
-16.732111 27.656774 30.690125 44.572912 -1.026715 0.811326 0.033425 0.004504 -1182310.000000 0 0 1
-15.406611 27.445774 31.000685 44.177785 -1.059283 0.792980 0.034561 0.003863 -854127.000000 0 0 1
-15.161911 26.318874 31.885415 44.036875 -1.048147 0.761123 0.043255 0.004202 -281847.000000 0 0 1
-15.632911 26.436574 33.341201 45.331182 -1.036771 0.744388 0.037575 0.003886 -44423.800000 0 0 1
-16.997111 26.131474 33.556968 45.802029 -0.994108 0.748585 0.043892 0.001187 -290964.000000 0 0 1
-17.449811 26.793174 -33.488480 46.301710 -0.993523 2.379317 0.043051 0.000225 -317568.000000 0 0 1
-18.740711 26.188274 -32.936680 46.063704 -0.949667 2.367456 0.038081 0.000950 -1186580.000000 0 0 1
-19.819711 26.291474 -33.773710 47.167002 -0.924839 2.368917 0.038626 0.005869 -1182410.000000 0 0 1
-20.893311 25.639974 -33.144340 46.823990 -0.887052 2.357245 0.046048 0.004480 -339395.000000 0 0 1
-22.289811 25.762874 -33.800530 47.989970 -0.857549 2.352268 0.087493 -0.012665 115193.000000 0 0 1
-22.634211 24.892074 33.238742 47.294152 -0.832870 0.791458 0.091005 -0.011512 133584.000000 0 0 1
-22.635611 23.491474 33.573634 46.812489 -0.803950 0.771029 0.092908 -0.012039 -416560.000000 0 0 1
-22.995811 22.651674 32.297910 45.662464 -0.777859 0.785099 0.090179 -0.014927 -1308700.000000 0 0 1
-24.249111 22.768674 31.780835 46.004928 -0.753922 0.808182 0.111920 -0.024106 -1354050.000000 0 0 1
-24.280211 22.103774 30.513945 44.824171 -0.738510 0.822014 0.117528 -0.022550 -130023.000000 0 0 1
-25.689511 21.870874 29.951675 45.115285 -0.705280 0.844785 0.118746 -0.021173 65599.400000 0 0 1
-26.281711 20.694874 30.476555 45.252918 -0.667026 0.831901 0.118904 -0.021699 576073.000000 0 0 1
-27.511111 20.333674 29.824895 45.385503 -0.636494 0.853770 0.114978 -0.030642 762846.000000 0 0 1
-28.082811 18.889974 30.171885 45.341130 -0.592135 0.842711 0.129660 -0.029500 40949.600000 0 0 1
-28.845711 18.915174 31.382815 46.634107 -0.580397 0.832595 0.121072 -0.022648 145479.000000 0 0 1
-29.117511 17.736574 32.102855 46.829572 -0.547111 0.815471 0.106031 -0.010512 14908.400000 0 0 1
-29.900711 16.635174 31.383195 46.429371 -0.507703 0.828565 0.087420 -0.011266 -482068.000000 0 0 1
-31.241211 16.883274 31.082915 47.193282 -0.495456 0.851800 0.065906 -0.006822 -292037.000000 0 0 1
-32.004211 15.708074 30.810195 47.119860 -0.456271 0.858110 0.063081 -0.000563 874626.000000 0 0 1
-33.537311 16.011774 30.693765 48.199952 -0.445430 0.880455 0.051435 0.007416 479581.000000 0 0 1
-34.052311 16.246974 32.011675 49.480010 -0.445175 0.867203 0.040608 0.007768 1779380.000000 0 0 1
-35.509511 16.165674 32.020015 50.473119 -0.427211 0.883568 0.051691 0.004282 1625760.000000 0 0 1
-36.056211 16.742174 33.400468 51.922462 -0.434711 0.872027 0.049792 0.011173 -428210.000000 0 0 1
35.990275 16.846774 33.636941 52.063015 0.437797 0.868357 0.038856 -0.003360 -517841.000000 0 0 1
35.903575 17.153774 -33.131530 51.778538 0.445709 2.265125 0.031808 -0.005138 77588.900000 0 0 1
34.479275 17.501374 -32.643020 50.603214 0.469702 2.271922 0.034408 -0.011871 -75905.100000 0 0 1
33.669475 16.373374 -32.653910 49.678957 0.452625 2.288025 0.034835 -0.009661 -219467.000000 0 0 1
32.447675 16.611774 -31.992550 48.500783 0.473166 2.291122 0.040553 -0.021704 171495.000000 0 0 1
31.361175 15.503574 -31.903130 47.346529 0.459122 2.310166 0.044686 -0.019976 154412.000000 0 0 1
30.694275 15.277974 -33.121570 47.671726 0.461843 2.338916 0.049199 -0.019429 124948.000000 0 0 1
29.770575 14.205274 -33.007170 46.664229 0.445208 2.356515 0.044141 -0.023913 57427.300000 0 0 1
30.334975 12.824174 -33.534040 47.002149 0.399965 2.365217 0.039165 -0.014961 164832.000000 0 0 1
31.378375 12.370274 -32.692140 46.972355 0.375522 2.340590 0.046207 -0.012356 201804.000000 0 0 1
32.271075 11.549374 -33.414490 47.867928 0.343683 2.343475 0.060012 -0.010485 -192119.000000 0 0 1
17.930075 -21.067926 10.207200 29.487829 -0.865687 1.217332 0.033356 -0.021362 -176053.000000 0 0 1
17.719175 -22.322626 10.816100 30.483714 -0.899862 1.208079 0.028096 -0.023432 66680.100000 0 0 1
18.887175 -23.065126 11.107800 31.813655 -0.884659 1.214130 0.023672 -0.024231 -506049.000000 0 0 1
18.586075 -24.437626 11.700300 32.856305 -0.920576 1.206700 0.027196 -0.022799 -287949.000000 0 0 1
17.841475 -25.321896 10.879200 32.830986 -0.956999 1.233041 0.026326 -0.018629 1248320.000000 0 0 1
16.420775 -25.191996 11.130300 32.064967 -0.993139 1.216301 0.035074 -0.020229 714334.000000 0 0 1
15.528875 -26.011016 10.191500 31.962253 -1.032577 1.246269 0.038669 -0.023515 -178384.000000 0 0 1
15.666875 -25.571556 8.866000 31.272375 -1.021114 1.283345 0.050149 -0.024494 1826.970000 0 0 1
14.882675 -26.451986 8.054900 31.401959 -1.058308 1.311387 0.068372 -0.019070 23201.400000 0 0 1
14.707875 -25.846136 6.655800 30.473661 -1.053441 1.350610 0.081527 -0.020373 -400621.000000 0 0 1
13.837475 -24.756126 6.667000 29.134007 -1.061106 1.339911 0.087308 -0.032275 -123028.000000 0 0 1
13.445875 -24.310226 5.374400 28.295986 -1.065580 1.379700 0.086330 -0.024006 -56064.900000 0 0 1
12.733075 -22.968926 5.558800 26.844050 -1.064611 1.362210 0.095336 -0.026221 -374478.000000 0 0 1
11.983475 -22.601526 4.454200 25.966759 -1.083277 1.398409 0.099667 -0.022995 -229190.000000 0 0 1
11.322075 -21.385026 4.742300 24.657618 -1.083876 1.377265 0.106007 -0.019196 1116860.000000 0 1 0
10.302475 -20.774226 3.663200 23.476126 -1.110413 1.414117 0.081660 -0.017144 1462110.000000 0 1 0
11.098875 -20.286926 2.568700 23.266771 -1.070186 1.460169 0.077085 -0.013296 434207.000000 0 1 0
10.301075 -19.421526 1.767700 22.055217 -1.083130 1.490561 0.051936 -0.003357 -111926.000000 0 1 0
10.962275 -18.937626 0.520800 21.887814 -1.046064 1.547000 0.044184 -0.001975 -198403.000000 0 1 0
12.052175 -18.106826 0.856500 21.767996 -0.983522 1.531439 0.039670 0.008331 -377475.000000 0 1 0
12.773775 -17.787226 -0.305000 21.900862 -0.947997 1.584723 0.048254 0.003761 -131566.000000 0 1 0
13.910375 -16.777526 0.020600 21.794136 -0.878557 1.569851 0.045373 0.006899 1332790.000000 0 1 0
15.087675 -17.408726 0.617700 23.045243 -0.856702 1.543989 0.061300 0.002444 1005380.000000 0 1 0
16.224875 -16.558826 0.505800 23.188297 -0.795584 1.548982 0.053173 -0.009229 1081080.000000 0 1 0
17.475275 -17.184726 1.252500 24.541166 -0.777016 1.519737 0.049160 -0.002251 783023.000000 0 1 0
17.894775 -18.491226 0.738700 25.742846 -0.801789 1.542097 0.033211 -0.002876 419027.000000 0 0 1
19.022375 -18.938326 1.503000 26.884381 -0.783184 1.514861 0.027131 0.002405 387048.000000 0 0 1
19.492575 -20.231626 0.889800 28.108200 -0.804001 1.539135 0.001387 0.000073 -263682.000000 0 0 1
18.747475 -21.321826 1.357000 28.424101 -0.849557 1.523037 0.015131 0.004850 39831.800000 0 0 1
18.969475 -22.412126 0.488400 29.366357 -0.868400 1.554164 0.015528 -0.000496 -648234.000000 0 0 1
17.902075 -23.453326 0.590100 29.510863 -0.918833 1.550799 0.027565 -0.007362 -603911.000000 0 0 1
18.027775 -24.151426 1.813700 30.192409 -0.929573 1.510689 0.016732 -0.005586 588311.000000 0 0 1
16.819275 -24.887226 2.035100 30.106539 -0.976484 1.503148 0.031350 -0.006582 -278866.000000 0 0 1
16.829875 -25.652066 3.392600 30.867182 -0.990157 1.460664 0.034841 -0.012177 -259295.000000 0 0 1
17.668575 -26.739886 3.626500 32.254481 -0.986896 1.458124 0.027708 -0.004411 384584.000000 0 0 1
19.042975 -26.330016 3.506200 32.683300 -0.944641 1.463311 0.025086 -0.002113 -426023.000000 0 0 1
20.057175 -27.491526 3.550000 34.215154 -0.940495 1.466854 0.036358 0.000777 -86353.900000 0 0 1
20.288875 -28.182696 2.315800 34.803243 -0.946836 1.504207 0.027528 0.005766 -171781.000000 0 0 1
21.321975 -29.140396 2.350700 36.184459 -0.939112 1.505786 0.046264 0.012316 -51950.800000 0 0 1
20.984975 -30.572396 2.935600 37.197558 -0.969254 1.491795 0.048545 0.009023 -56882.400000 0 0 1
21.007275 -30.574916 4.356400 37.351162 -0.968797 1.453897 0.072247 -0.001051 -76531.900000 0 0 1
20.150775 -31.588326 4.860000 37.782214 -1.002961 1.441807 0.068102 -0.010253 -19984.400000 0 0 1
20.111275 -31.921376 6.353800 38.259749 -1.008591 1.403953 0.084360 -0.020049 302555.000000 0 0 1
21.272975 -32.644826 6.729100 39.541180 -0.993263 1.399784 0.067556 -0.036172 459995.000000 0 0 1
20.923475 -33.444366 7.859200 40.225421 -1.011751 1.374153 0.060222 -0.038523 89927.900000 0 0 1
22.101675 33.924339 8.337600 41.338365 0.993368 1.367712 0.071970 -0.044822 210800.000000 0 0 1
23.157575 -33.590036 8.965600 41.772548 -0.967208 1.354484 0.091046 -0.045030 -241173.000000 0 0 1
24.234175 33.779472 9.192200 42.577512 0.948472 1.353190 0.115760 -0.048967 -745567.000000 0 0 1
25.236275 -33.819916 10.141800 43.399452 -0.929734 1.334930 0.106855 -0.043295 -542154.000000 0 0 1
25.780775 -32.626306 9.564900 42.668625 -0.902070 1.344708 0.069734 -0.035044 359893.000000 0 0 1
26.590975 -31.910026 10.523000 42.849309 -0.876071 1.322677 0.050780 -0.026720 87256.300000 0 0 1
27.198175 -30.701856 9.830300 42.177950 -0.845837 1.335566 0.040381 -0.025260 147293.000000 0 0 1
26.223475 -29.706766 9.505100 40.749350 -0.847597 1.335370 0.038786 -0.026980 716861.000000 0 0 1
26.738775 -28.965126 8.358400 40.296445 -0.825344 1.361857 0.044720 -0.018949 317447.000000 0 0 1
26.441875 -27.395346 8.405500 38.991412 -0.803107 1.353518 0.044106 -0.014718 214491.000000 0 0 1
27.132075 -26.817386 9.527700 39.320463 -0.779565 1.326051 0.040418 -0.031491 210197.000000 0 0 1
26.776875 -25.460456 9.656700 38.190152 -0.760203 1.315163 0.059396 -0.033724 77864.100000 0 0 1
27.641275 -24.712326 10.716700 38.595166 -0.729511 1.289429 0.074094 -0.037482 560798.000000 0 0 1
29.010175 -24.633926 10.355500 39.441817 -0.703999 1.305131 0.051447 -0.028968 -36455.100000 0 0 1
29.769075 -23.820526 11.197700 39.736681 -0.674849 1.285129 0.055689 -0.035119 279395.000000 0 0 1
31.168675 -23.398426 10.688500 40.413076 -0.643951 1.303130 0.061167 -0.026835 402765.000000 0 0 1
31.033275 -22.643326 9.486800 39.569986 -0.630347 1.328691 0.049046 -0.021464 -1025240.000000 0 0 1
32.252075 -22.453526 8.882000 40.289541 -0.608163 1.348516 0.045488 -0.025986 -905342.000000 0 0 1
32.148875 -21.842826 7.452000 39.575138 -0.596785 1.381365 0.054392 -0.013127 -238513.000000 0 0 1
31.605175 -20.534126 7.349600 38.399923 -0.576170 1.378212 0.054507 0.000791 -88415.100000 0 0 1
31.998175 -19.987026 6.143200 38.224382 -0.558333 1.409382 0.048450 -0.000505 -182518.000000 0 0 1
31.690775 -18.522326 6.071800 37.205491 -0.528923 1.406867 0.060407 0.005179 -67674.600000 0 0 1
32.384375 -17.644026 6.969700 37.531802 -0.498866 1.384011 0.053582 0.013071 127866.000000 0 0 1
31.994375 -16.333026 6.764800 36.553663 -0.472010 1.384658 0.061109 0.011994 50047.300000 0 0 1
32.436075 -15.434926 7.988300 36.798762 -0.444147 1.351973 0.061295 -0.023822 -442260.000000 0 0 1
33.794875 -15.318026 8.239000 38.008113 -0.425566 1.352292 0.069771 -0.014927 -894933.000000 0 0 1
34.042475 -14.992226 9.583400 38.412218 -0.414840 1.318644 0.068977 -0.030644 1065350.000000 0 0 1
35.575875 -15.006326 9.963000 39.875984 -0.399167 1.318271 0.055831 -0.037660 978937.000000 0 0 1
36.271675 -13.926626 9.399800 39.974262 -0.366597 1.333427 0.072868 -0.026823 584698.000000 0 0 1
-35.783011 -14.291426 9.133400 39.599088 0.379982 1.338054 0.075173 -0.032860 574036.000000 0 0 1
-34.990211 -13.415826 8.215800 38.364028 0.366129 1.354971 0.083140 -0.034787 -292618.000000 0 0 1
-35.545711 -13.398926 6.890500 38.607095 0.360478 1.391357 0.100023 -0.037236 367532.000000 0 0 1
-34.680711 -12.776326 5.963400 37.437259 0.352971 1.410824 0.107261 -0.031637 -248982.000000 0 0 1
-33.547811 -13.588626 5.367200 36.591163 0.384854 1.423585 0.099538 -0.023179 -92919.200000 0 0 1
-32.539111 -14.031626 6.239600 35.980730 0.407130 1.396500 0.091691 -0.021861 4850.470000 0 0 1
-31.595211 -14.940426 5.719700 35.414526 0.441709 1.408579 0.082781 -0.012078 243418.000000 0 0 1
-30.786011 -15.535926 6.886700 35.164899 0.467355 1.373682 0.070080 -0.016096 229137.000000 0 0 1
-31.658411 -16.325926 7.697800 36.442379 0.476121 1.357961 0.064446 -0.025950 118877.000000 0 0 1
-31.404311 -16.269126 9.075800 36.514180 0.477986 1.319608 0.052128 -0.034845 79338.400000 0 0 1
-32.411411 -17.108426 9.916000 37.967419 0.485680 1.306561 0.025136 -0.024707 -1169980.000000 0 0 1
-33.659311 -16.531426 10.044200 38.821685 0.456534 1.309093 0.050450 -0.023155 -666918.000000 0 0 1
-34.523511 -17.238126 10.911900 40.101065 0.463100 1.295211 0.051474 -0.020000 -163325.000000 0 0 1
-35.161111 -18.567726 10.527100 41.132518 0.485855 1.311985 0.046172 -0.021318 -792380.000000 0 0 1
-34.319511 -19.737326 10.470700 40.951513 0.521913 1.312240 0.054769 -0.019736 -183549.000000 0 0 1
-33.850911 -20.222926 11.733500 41.140320 0.538514 1.281574 0.054500 -0.026927 -509990.000000 0 0 1
-34.851411 -20.872426 12.758700 42.580083 0.539609 1.266481 0.054838 -0.023012 282862.000000 0 0 1
-35.323011 -22.153926 12.393500 43.498395 0.560166 1.281875 0.033616 -0.019020 517006.000000 0 0 1
-36.365511 -22.241726 11.404400 44.127147 0.548917 1.309385 0.039391 -0.018673 141288.000000 0 0 1
36.579875 -23.675226 11.216800 44.993557 -0.574418 1.318841 0.029952 -0.010425 -364770.000000 0 0 1
36.144275 -24.344026 12.360700 45.297099 -0.592735 1.294410 0.063400 -0.000351 -110818.000000 0 0 1
35.259075 -25.365106 12.060900 45.078335 -0.623623 1.299942 0.029712 0.009605 -267787.000000 0 0 1
34.404775 -25.869906 13.274400 45.046091 -0.644734 1.271671 0.035539 -0.010830 75868.800000 0 0 1
33.515075 -24.876226 13.698200 43.928665 -0.638516 1.253680 0.034219 -0.009371 -368171.000000 0 0 1
32.907475 -25.164956 14.915500 44.030093 -0.652855 1.225201 0.047380 0.000876 -498729.000000 0 0 1
32.462675 -23.813626 15.606500 43.179589 -0.632902 1.200993 0.053597 -0.006753 183172.000000 0 0 1
33.448575 -22.944526 16.171000 43.666460 -0.601244 1.191432 0.066922 -0.008531 91956.700000 0 0 1
34.418775 -22.447126 15.288400 43.843594 -0.577904 1.214609 0.058437 -0.003261 603.940000 0 0 1
35.602875 -21.672526 15.933700 44.622258 -0.546814 1.205657 0.064552 -0.010803 62327.000000 0 0 1
35.362275 -20.412326 16.477500 44.030235 -0.523512 1.187228 0.084901 -0.008538 -14995.900000 0 0 1
34.525475 -20.313026 17.610000 43.757737 -0.531808 1.156612 0.070319 -0.005854 39573.700000 0 0 1
34.610275 -18.900926 18.170100 43.419681 -0.499850 1.139030 0.078054 -0.007377 -382058.000000 0 0 1
34.153375 -17.966526 17.233600 42.264005 -0.484273 1.150796 0.081194 -0.017093 48615.800000 0 0 1
34.153575 -16.571926 17.663000 41.869763 -0.451752 1.135305 0.077725 -0.018852 280261.000000 0 0 1
35.463175 -15.814426 18.075800 42.830683 -0.419472 1.135114 0.061632 -0.018330 221367.000000 0 0 1
35.985375 -16.116626 19.333900 43.914605 -0.421078 1.114907 0.052899 -0.002202 -474122.000000 0 0 1
-36.206111 -15.479426 19.485600 43.933856 0.404017 1.111273 0.041709 -0.012324 -497502.000000 0 0 1
-35.642411 -15.422726 20.957400 44.129974 0.408381 1.075944 0.047519 -0.001773 305256.000000 0 0 1
-35.044411 -16.683026 21.433300 44.337574 0.444308 1.066249 0.051298 0.000302 429789.000000 0 0 1
-34.645211 -16.618526 22.757400 44.658318 0.447258 1.036089 0.047458 0.005112 -68.618400 0 0 1
-33.643811 -17.685226 23.270300 44.566581 0.483965 1.021430 0.046844 0.008527 -534647.000000 0 0 1
-34.137611 -19.018326 23.203600 45.447555 0.508284 1.034963 0.050380 0.003523 694799.000000 0 0 1
-33.205511 -19.979326 23.719900 45.435813 0.541659 1.021540 0.035750 0.007156 812470.000000 0 0 1
-31.957411 -20.410126 22.879400 44.286751 0.568367 1.027898 0.036910 0.015879 894377.000000 0 0 1
-30.831911 -19.518326 22.850400 43.054763 0.564371 1.011336 0.041796 0.025262 942805.000000 0 0 1
-29.692311 -20.270726 22.391000 42.354369 0.599016 1.013777 0.035006 0.020498 34187.300000 0 0 1
-28.444011 -19.392126 22.355300 41.047238 0.598382 0.994856 0.046949 0.017655 -636746.000000 0 0 1
-28.056211 -19.124526 23.647000 41.377278 0.598304 0.962467 0.036818 0.016691 -295638.000000 0 0 1
-27.047811 -18.178426 23.765400 40.334024 0.591744 0.940710 0.047610 0.008723 -519632.000000 0 0 1
-26.756811 -17.671426 25.182700 40.772229 0.583684 0.905054 0.043393 -0.001357 -652645.000000 0 0 1
-25.816111 -16.584826 25.328100 39.787444 0.571029 0.880734 0.047827 -0.004703 560201.000000 0 0 1
-25.467311 -16.246326 26.641400 40.277677 0.567842 0.848055 0.040953 -0.013719 208631.000000 0 0 1
-24.322011 -17.181526 27.121500 40.278292 0.615021 0.832062 0.040017 -0.009058 -269508.000000 0 0 1
-24.762011 -18.537026 27.413800 41.331525 0.642609 0.845622 0.043406 -0.007962 690496.000000 0 0 1
-23.761411 -19.030326 28.328700 41.584531 0.675285 0.821353 0.043891 -0.011137 531978.000000 0 0 1
-24.203311 -20.328626 28.947100 42.860097 0.698608 0.829309 0.038715 -0.004025 -131092.000000 0 0 1
-25.250411 -20.192226 29.888200 44.029692 0.674545 0.824643 0.031746 -0.012984 84247.500000 0 0 1
-25.730911 -21.447326 30.326600 45.185952 0.694851 0.835036 0.021774 -0.008201 -24314.600000 0 0 1
-27.004311 -21.232426 31.201200 46.406504 0.666307 0.833424 0.038163 -0.010459 -699346.000000 0 0 1
-26.724611 -20.676726 32.491200 46.876539 0.658495 0.804984 0.046289 -0.013253 963736.000000 0 0 1
-27.830111 -20.698726 33.431100 48.172511 0.639491 0.803784 0.049172 -0.021374 343653.000000 0 0 1
-29.090611 -19.889926 33.158100 48.387317 0.599718 0.815830 0.043662 -0.026274 -531367.000000 0 0 1
-29.787011 -20.347726 31.968400 48.200359 0.599298 0.845657 0.051222 -0.026743 -722971.000000 0 0 1
-31.079911 -19.881026 32.140200 48.930650 0.569082 0.854160 0.073089 -0.025051 -863233.000000 0 0 1
-32.130911 -20.455326 31.153000 49.206963 0.566915 0.885243 0.067545 -0.007403 -114517.000000 0 0 1
-32.156711 -19.910726 29.903600 48.215313 0.554402 0.901786 0.060556 -0.015689 -70526.400000 0 0 1
-33.296711 -20.301126 29.201200 48.718752 0.547524 0.928066 0.061331 -0.018573 -361466.000000 0 0 1
-33.547311 -19.291926 28.072200 47.808461 0.521884 0.943225 0.057981 -0.009138 -1274800.000000 0 0 1
-34.732311 -19.543526 27.459900 48.397613 0.512534 0.967474 0.041225 -0.013414 -995876.000000 0 0 1
-35.185911 -18.469626 26.676600 47.862474 0.483381 0.979594 0.053119 -0.004342 -98230.000000 0 0 1
-36.440011 -18.832526 25.853600 48.486566 0.477004 1.008404 0.039107 -0.000505 -397519.000000 0 0 1
35.911075 -19.352026 26.610400 48.705437 -0.494271 0.992792 0.058172 -0.001479 -53405.000000 0 0 1
34.869075 -19.593226 25.682700 47.532599 -0.511940 0.999982 0.107266 -0.011619 -26137.500000 0 0 1
33.578375 -20.247426 26.224100 47.171697 -0.542615 0.981317 0.093412 -0.017930 -141712.000000 0 0 1
32.782375 -19.404026 26.993500 46.688857 -0.534445 0.954328 0.083552 -0.015890 -523572.000000 0 0 1
31.789875 -20.131326 27.621400 46.677706 -0.564519 0.937572 0.075499 -0.010303 -470071.000000 0 0 1
-30.238215 -6.022426 33.855772 45.791184 0.196594 0.738690 0.066496 -0.019591 -104917.000000 0 0 1
-30.967575 -5.888526 32.687453 45.410736 0.187908 0.767257 0.075983 -0.022120 80822.200000 0 0 1
-30.382835 -4.853226 31.947165 44.354163 0.158398 0.766599 0.080394 -0.022185 20374.700000 0 0 1
-31.003015 -4.756626 30.557665 43.790219 0.152238 0.798448 0.071242 -0.030832 110271.000000 0 0 1
-30.662225 -5.841826 29.666605 43.062819 0.188266 0.810806 0.072225 -0.034839 255688.000000 0 0 1
-29.389485 -5.687626 29.037975 41.704854 0.191163 0.800604 0.055362 -0.027294 357236.000000 0 0 1
-29.206605 -6.544826 27.737485 40.807212 0.220445 0.823415 0.044115 -0.028192 -222841.000000 0 0 1
-29.867595 -6.023226 26.624285 40.462390 0.198995 0.852636 0.066697 -0.031998 -218504.000000 0 0 1
-29.675045 -6.818326 25.510315 39.722462 0.225846 0.873413 0.081652 -0.027352 -9025.930000 0 0 1
-30.466135 -6.269026 24.293655 39.467299 0.202938 0.907727 0.092451 -0.021744 367562.000000 0 0 1
-29.969395 -5.003326 23.743015 38.560714 0.165422 0.907483 0.106458 -0.027307 160681.000000 0 0 1
-30.719015 -4.658726 22.621565 38.433017 0.150509 0.941474 0.120115 -0.026271 243220.000000 0 0 1
-30.040935 -3.378026 22.002465 37.389534 0.111977 0.941636 0.126270 -0.026251 533500.000000 0 0 1
-28.812565 -3.756026 21.423965 36.100663 0.129630 0.935457 0.151726 -0.023333 453790.000000 0 0 1
-27.910635 -2.658726 21.116065 35.099295 0.094972 0.925282 0.155256 -0.021600 -104312.000000 0 0 1
-26.582615 -3.076326 20.556365 33.744086 0.115214 0.915765 0.152559 -0.017525 -930533.000000 0 0 1
-26.619115 -3.624826 19.225765 33.035536 0.135341 0.949644 0.168963 -0.019759 412847.000000 0 0 1
-25.316545 -3.547826 18.648565 31.643064 0.139232 0.940553 0.129108 -0.013797 65361.200000 0 0 1
-25.307575 -4.072126 17.185365 30.860854 0.159538 0.980188 0.129674 -0.019382 -300959.000000 0 0 1
-25.992475 -3.316026 16.256865 30.836511 0.126891 1.015500 0.168579 -0.023975 -225068.000000 0 0 1
-25.859875 -3.813526 14.932565 30.104112 0.146414 1.051775 0.156185 -0.026069 586346.000000 0 0 1
-27.194615 -4.067826 14.136365 30.918135 0.148481 1.095930 0.175928 -0.025414 1170270.000000 0 0 1
-27.931905 -2.892326 13.707765 31.248354 0.103181 1.116676 0.185974 -0.026706 278148.000000 0 0 1
-29.231085 -3.146326 13.242765 32.244790 0.107223 1.147580 0.187869 -0.020718 -111660.000000 0 0 1
-29.777215 -1.921526 12.479465 32.343652 0.064441 1.174678 0.173845 -0.010023 -272985.000000 0 0 1
-29.058415 -1.643826 11.318565 31.228249 0.056509 1.199905 0.182119 -0.017394 112783.000000 0 0 1
-29.545275 -0.465526 10.675065 31.418099 0.015755 1.224119 0.178720 -0.012637 -75008.500000 0 0 1
-30.657585 -0.666226 9.623865 32.139541 0.021728 1.266691 0.166408 -0.009193 165549.000000 0 0 1
-30.340375 -1.409626 8.483565 31.535635 0.046427 1.298426 0.142076 -0.017818 -374998.000000 0 0 1
-31.549425 -1.667626 7.838665 32.551372 0.052808 1.327597 0.125651 -0.018166 -106638.000000 0 0 1
-31.270825 -2.284726 6.478065 32.016398 0.072933 1.367054 0.136140 -0.024327 -354481.000000 0 0 1
-30.946595 -1.390926 5.422165 31.448788 0.044916 1.397518 0.148264 -0.036750 368531.000000 0 0 1
-31.969005 -0.564826 4.861665 32.341491 0.017666 1.419902 0.139817 -0.028295 2891.130000 0 0 1
-31.635555 -0.057326 3.421365 31.820078 0.001812 1.463066 0.139725 -0.027685 -170006.000000 0 0 1
-31.815735 -1.111126 2.515065 31.934325 0.034910 1.491957 0.141414 -0.044957 422377.000000 0 0 1
-31.266795 -0.822226 1.216765 31.301262 0.026291 1.531914 0.147917 -0.056087 -171302.000000 0 0 1
-32.097955 -1.373726 0.014465 32.127341 0.042772 1.570346 0.152221 -0.054099 -1055200.000000 0 0 1
-33.322045 -0.771326 -0.040035 33.330995 0.023143 1.571997 0.147911 -0.050635 -1098930.000000 0 0 1
-34.126022 -1.219726 -1.094935 34.165362 0.035727 1.602850 0.143200 -0.047825 -270426.000000 0 0 1
-35.602530 -0.814126 -0.929335 35.623961 0.022863 1.596887 0.121594 -0.039562 -462994.000000 0 0 1
-36.277395 -1.617026 0.014265 36.313418 0.044544 1.570403 0.114805 -0.032328 -18595.500000 0 0 1
35.772262 -1.287626 -0.074635 35.795507 -0.035980 1.572881 0.104562 -0.026099 375008.000000 0 0 1
34.739612 -2.356726 0.452965 34.822406 -0.067736 1.557788 0.103844 -0.021995 310236.000000 0 0 1
34.916632 -2.650426 1.843065 35.065551 -0.075762 1.518212 0.104960 -0.025225 282595.000000 0 0 1
34.025102 -3.699326 2.158265 34.293596 -0.108298 1.507820 0.102123 -0.017816 -305727.000000 0 0 1
34.044502 -4.296826 3.596865 34.502584 -0.125548 1.466357 0.111306 -0.018646 276428.000000 0 0 1
33.428032 -3.376126 4.550065 33.904788 -0.100656 1.436189 0.117446 -0.028838 462004.000000 0 0 1
33.413192 -3.924426 5.837065 34.145481 -0.116916 1.399006 0.111790 -0.034149 -47811.100000 0 0 1
32.774942 -2.987126 6.868465 33.619869 -0.090889 1.365050 0.127747 -0.030515 127200.000000 0 0 1
31.379012 -2.766226 6.846265 32.236094 -0.087928 1.356788 0.139117 -0.027864 -7960.200000 0 0 1
31.046712 -1.578626 7.445865 31.966096 -0.050803 1.335707 0.145655 -0.030321 -209658.000000 0 0 1
29.550012 -1.369826 7.741665 30.577983 -0.046323 1.314833 0.124235 -0.025948 -571868.000000 0 0 1
28.802042 -0.901026 6.606465 29.563742 -0.031273 1.345428 0.132494 -0.034241 1433310.000000 0 0 1
27.376562 -0.908926 6.855265 28.236447 -0.033189 1.325565 0.122829 -0.021584 1326570.000000 0 0 1
26.663262 -2.288226 6.710865 27.589876 -0.085610 1.325095 0.135649 -0.037269 -843451.000000 0 0 1
27.058662 -3.106826 7.744565 28.316106 -0.114318 1.293762 0.112682 -0.040391 141825.000000 0 0 1
26.529762 -4.412526 7.644565 27.959579 -0.164815 1.293855 0.120307 -0.050661 -606572.000000 0 0 1
26.985362 -5.471926 8.659065 28.864011 -0.200061 1.266109 0.104201 -0.031162 -405455.000000 0 0 1
26.369362 -5.360526 9.919765 28.678916 -0.200553 1.217609 0.093432 -0.021095 487157.000000 0 0 1
26.729962 -6.427926 10.803065 29.538370 -0.235995 1.196379 0.087629 -0.014777 -228441.000000 0 0 1
25.761662 -6.491126 12.013165 29.156716 -0.246830 1.146126 0.085743 -0.011617 1248440.000000 0 0 1
24.503262 -7.108426 11.635565 28.041504 -0.282351 1.142919 0.105720 -0.026819 1501730.000000 0 0 1
23.409762 -6.795026 12.508865 27.398194 -0.282502 1.096674 0.121159 -0.025854 1592310.000000 0 0 1
22.245762 -7.864126 12.568465 26.733588 -0.339799 1.081350 0.115190 -0.028404 860920.000000 0 0 1
22.676762 -8.950226 13.336665 27.788644 -0.375918 1.070219 0.100709 -0.029171 510831.000000 0 0 1
21.609062 -9.886326 13.484065 27.322354 -0.429080 1.054667 0.146702 -0.052154 156459.000000 0 0 1
22.015462 -11.107226 14.326165 28.518241 -0.467257 1.044481 0.112327 -0.041611 -268913.000000 0 0 1
21.936562 -10.873826 15.718065 29.094852 -0.460197 1.000080 0.093311 -0.035993 373957.000000 0 0 1
22.488662 -11.925626 16.453865 30.309902 -0.487589 0.996964 0.086952 -0.035406 -370027.000000 0 0 1
22.334662 -11.608126 17.954665 30.918533 -0.479311 0.951197 0.084552 -0.031869 -144941.000000 0 0 1
21.024862 -11.618826 18.473965 30.303949 -0.504855 0.915212 0.078979 -0.028321 -142506.000000 0 0 1
20.924962 -11.991826 19.801665 31.205190 -0.520395 0.883353 0.094077 -0.021457 205533.000000 0 0 1
21.444462 -11.011826 20.912165 31.913068 -0.474393 0.856236 0.060891 -0.013067 21336.400000 0 0 1
20.600962 -9.881526 21.050965 31.067464 -0.447246 0.826317 0.065445 -0.018430 -15039.100000 0 0 1
20.792262 -8.761926 20.280965 30.338211 -0.398820 0.838612 0.057078 -0.012327 -1236580.000000 0 0 1
21.795362 -7.677826 20.714465 31.033464 -0.338695 0.839966 0.044522 -0.001097 1225070.000000 0 0 1
23.194362 -8.031326 20.703465 32.110965 -0.333341 0.870103 0.051571 -0.004323 944494.000000 0 0 1
23.774862 -8.273326 19.439665 31.805543 -0.334880 0.913216 0.062063 -0.010175 -1191630.000000 0 0 1
25.137762 -8.939326 19.616365 33.115259 -0.341667 0.936804 0.068297 -0.013459 -540226.000000 0 0 1
25.134862 -10.129626 20.433565 33.939670 -0.383099 0.924723 0.050349 -0.018424 -502201.000000 0 0 1
26.296862 -10.829826 20.144265 34.851133 -0.390663 0.954510 0.054963 -0.023374 -431556.000000 0 0 1
26.132462 -12.346326 20.384565 35.367610 -0.441367 0.956526 0.028970 -0.020727 -614795.000000 0 0 1
25.229262 -12.925926 19.516165 34.416216 -0.473470 0.967861 0.055475 -0.025007 -248816.000000 0 0 1
25.033562 -14.313326 19.788765 34.973501 -0.519400 0.969367 0.036349 -0.021413 -365771.000000 0 0 1
23.982662 -14.967026 18.893865 34.002325 -0.557935 0.981635 0.068208 -0.024716 -477501.000000 0 0 1
24.334462 -15.039926 17.485665 33.527808 -0.553586 1.022156 0.052225 -0.024006 971023.000000 0 0 1
23.297562 -15.731226 16.731665 32.713858 -0.593908 1.033919 0.052857 -0.024919 456660.000000 0 0 1
23.208562 -17.250926 16.890765 33.489248 -0.639199 1.042151 0.038955 -0.019053 -372637.000000 0 0 1
24.311862 -17.967226 16.383765 34.384816 -0.636444 1.074147 0.047093 -0.018857 30123.400000 0 0 1
24.157762 -19.372426 16.639265 35.153286 -0.675906 1.077724 0.041162 -0.008442 -235594.000000 0 0 1
25.358762 -20.281626 16.323865 36.343909 -0.674611 1.104983 0.035966 -0.003288 -184048.000000 0 0 1
25.593362 -20.413426 14.887465 35.963381 -0.673280 1.143994 0.054587 -0.022640 185072.000000 0 0 1
26.346262 -21.570626 14.539465 37.024498 -0.686061 1.167232 0.049286 -0.031670 -162670.000000 0 0 1
26.838362 -21.590126 13.055865 36.835945 -0.677449 1.208489 0.054755 -0.045458 -690045.000000 0 0 1
25.871362 -21.529126 12.078265 35.759126 -0.694046 1.226253 0.054800 -0.033549 -323467.000000 0 0 1
26.462062 -21.255726 10.798165 35.618071 -0.676721 1.262784 0.067529 -0.031607 -395830.000000 0 0 1
25.354962 -20.978926 9.760565 34.325764 -0.691232 1.282467 0.040943 -0.027980 312890.000000 0 0 1
24.629362 -22.101626 9.227765 34.354607 -0.731360 1.298853 0.042621 -0.031313 211687.000000 0 0 1
23.632462 -22.496926 10.146865 34.169633 -0.760787 1.269293 0.033357 -0.018339 -720720.000000 0 0 1
22.630462 -23.566826 9.616465 34.058912 -0.805664 1.284556 0.033664 -0.014476 -198719.000000 0 0 1
23.109462 -24.878326 9.480365 35.254158 -0.822242 1.298530 0.027088 -0.012878 -53326.900000 0 0 1
22.920162 -25.561156 8.228765 35.304661 -0.839819 1.335554 0.034208 -0.003048 -262690.000000 0 0 1
21.505462 -26.044726 7.860665 34.678563 -0.880572 1.342137 0.036142 0.002958 179822.000000 0 0 1
20.557462 -24.997926 7.620865 33.250310 -0.882565 1.339544 0.016590 0.001535 -342921.000000 0 0 1
19.277462 -25.532576 7.822865 32.935242 -0.924094 1.330982 0.040050 -0.012176 -244864.000000 0 0 1
18.116762 -24.535226 7.650365 31.443957 -0.934762 1.325028 0.035964 -0.020837 -734593.000000 0 0 1
17.860362 -24.068726 6.347465 30.636358 -0.932398 1.362097 0.045319 -0.024050 4584.990000 0 0 1
17.056162 -22.914326 6.386165 29.270499 -0.930924 1.350850 0.064463 -0.019744 -168237.000000 0 0 1
16.761262 -22.184726 5.054765 28.260443 -0.923764 1.390965 0.070201 -0.015956 -568216.000000 0 0 1
16.044262 -21.008526 5.271465 26.954867 -0.918583 1.373961 0.102147 -0.016660 -46713.500000 0 0 1
15.791962 -20.390226 4.043465 26.105497 -0.911807 1.415281 0.100342 -0.012818 -186510.000000 0 0 1
14.921462 -19.158926 4.099365 24.627612 -0.909101 1.403564 0.111693 -0.002554 -164974.000000 0 1 0
15.608162 -18.063826 4.648665 24.321320 -0.858198 1.378478 0.071436 -0.003328 210289.000000 0 1 0
14.808162 -16.909126 4.648665 22.952348 -0.851542 1.366850 0.054553 0.007764 -433426.000000 0 1 0
15.706362 -15.724526 4.649265 22.706083 -0.785976 1.364579 0.035410 0.005344 -702416.000000 0 1 0
16.361462 -15.630826 5.901465 23.384770 -0.762564 1.315674 0.063925 -0.003664 26759.500000 0 1 0
17.369262 -14.657826 5.878265 23.475458 -0.700939 1.317702 0.071526 -0.007936 323498.000000 0 1 0
18.808962 -15.028026 5.449165 24.684246 -0.674120 1.348208 0.094149 -0.022872 449918.000000 0 1 0
19.747362 -13.951226 5.492865 24.794487 -0.615065 1.347407 0.106135 -0.025181 1717100.000000 0 1 0
21.141262 -14.315326 5.310765 26.078454 -0.595210 1.365716 0.110664 -0.021689 1674750.000000 0 0 1
22.092462 -13.064226 5.381965 26.224348 -0.534030 1.364100 0.109206 -0.026719 209063.000000 0 0 1
22.253162 -12.603026 6.647065 26.423909 -0.515307 1.316510 0.124228 -0.034775 441631.000000 0 0 1
23.342562 -11.695826 6.607565 26.931904 -0.464488 1.322922 0.128788 -0.037963 121312.000000 0 0 1
23.574762 -10.944626 8.001765 27.195266 -0.434642 1.272143 0.138702 -0.040042 -345775.000000 0 0 1
24.159162 -11.741226 8.984065 28.323752 -0.452381 1.248029 0.131170 -0.033926 209902.000000 0 0 1
24.266662 -11.092826 10.204665 28.566709 -0.428761 1.205504 0.139905 -0.044106 -43244.400000 0 0 1
24.698062 -12.023126 11.372465 29.730166 -0.453036 1.178271 0.115550 -0.029973 735132.000000 0 0 1
23.670362 -13.033426 11.678765 29.437218 -0.503321 1.162839 0.121072 -0.033883 1606860.000000 0 0 1
24.165862 -14.129026 12.486465 30.651755 -0.529070 1.151229 0.116193 -0.036167 -405280.000000 0 0 1
22.989462 -14.999726 12.870365 30.317543 -0.578103 1.132366 0.094907 -0.035751 138008.000000 0 0 1
21.958762 -14.260226 13.563365 29.487390 -0.575960 1.092833 0.089804 -0.040217 1040960.000000 0 0 1
20.779262 -15.090726 13.668565 29.091879 -0.628120 1.081685 0.077219 -0.040453 1051230.000000 0 0 1
19.549262 -14.290326 14.199565 28.071600 -0.631224 1.040448 0.078653 -0.040803 -561235.000000 0 0 1
19.732162 -14.018226 15.546265 28.767260 -0.617689 0.999866 0.084515 -0.035090 235061.000000 0 0 1
18.919462 -12.934926 15.915165 27.902524 -0.599691 0.963823 0.093061 -0.044681 -437529.000000 0 0 1
17.415362 -13.128426 16.135965 27.129684 -0.645955 0.933815 0.113235 -0.042516 -484179.000000 0 0 1
16.783362 -13.302226 14.823865 26.045680 -0.670203 0.965326 0.110529 -0.048965 -449924.000000 0 0 1
15.398062 -13.153626 14.763865 25.061722 -0.706950 0.940851 0.125725 -0.045456 -359477.000000 0 0 1
15.010662 -11.632226 14.430965 23.851235 -0.659267 0.920979 0.100711 -0.036782 -395459.000000 0 1 0
15.346862 -10.645026 15.331665 24.164079 -0.606437 0.883459 0.087868 -0.029416 -29953.400000 0 1 0
14.913662 -9.402826 14.931165 23.103466 -0.562533 0.868105 0.073906 -0.022247 -908890.000000 0 1 0
15.469062 -8.304226 15.795065 23.616438 -0.492674 0.838181 0.086791 -0.024951 231787.000000 0 1 0
16.891562 -8.259226 15.742365 24.522678 -0.454773 0.873756 0.090242 -0.031569 381629.000000 0 1 0
17.436462 -9.008126 16.837365 25.858720 -0.476860 0.861725 0.097273 -0.030611 -672726.000000 0 0 1
18.972262 -8.931026 16.737165 26.829883 -0.439968 0.897168 0.092308 -0.030837 -182883.000000 0 0 1
19.481462 -7.641326 17.085365 27.015309 -0.373795 0.886107 0.073205 -0.025779 -479025.000000 0 0 1
20.735462 -7.553726 16.493465 27.550908 -0.349348 0.928977 0.065158 -0.013147 -671490.000000 0 0 1
21.397062 -6.162726 16.713465 27.841576 -0.280428 0.926913 0.046152 -0.003516 -92404.600000 0 0 1
21.790462 -5.866926 18.034865 28.887738 -0.263006 0.896550 0.062190 -0.007046 220920.000000 0 0 1
22.240262 -4.553326 18.168865 29.076961 -0.201943 0.895851 0.068509 -0.005345 -129228.000000 0 0 1
-5.719525 -33.085807 -5.976800 34.104336 1.399619 1.746956 0.058920 -0.024099 291022.000000 0 0 1
-6.616925 -31.992407 -6.176800 33.248318 1.366844 1.757660 0.057548 -0.025610 188301.000000 0 0 1
-6.184925 -30.833307 -5.473500 31.920296 1.372831 1.743122 0.064027 -0.031204 -608256.000000 0 0 1
-6.991025 -29.562307 -5.727900 30.912995 1.338578 1.757164 0.065196 -0.031518 315706.000000 0 0 1
-8.309825 -29.392707 -5.250200 30.992725 1.295270 1.741018 0.064706 -0.027692 237540.000000 0 0 1
-9.300225 -30.161307 -5.917100 32.112469 1.271697 1.756117 0.060001 -0.020302 -785099.000000 0 0 1
-10.726225 -29.791407 -5.538500 32.144281 1.225202 1.743962 0.038595 -0.009903 34714.700000 0 0 1
-11.680125 -30.300507 -6.484400 33.114853 1.202873 1.767885 0.049325 -0.012705 -397061.000000 0 0 1
-12.990025 -30.128007 -6.035100 33.359556 1.163719 1.752709 0.058637 -0.010400 -567770.000000 0 0 1
-14.057825 -30.696507 -6.943700 34.469014 1.141341 1.773632 0.069091 -0.010873 -227096.000000 0 0 1
-14.015125 -30.048907 -8.168900 34.148081 1.134380 1.812359 0.085890 -0.016102 279789.000000 0 0 1
-15.129225 -30.355907 -9.013000 35.094283 1.108434 1.830529 0.104433 -0.015883 481985.000000 0 0 1
-15.198825 -29.557207 -10.323000 34.802257 1.095840 1.871946 0.102073 -0.016041 -110807.000000 0 0 1
-15.454225 -28.156707 -10.163200 33.688631 1.068825 1.877251 0.106168 -0.016418 394893.000000 0 0 1
-14.296125 -27.347307 -9.971100 32.429573 1.089106 1.883329 0.102609 -0.014905 206074.000000 0 0 1
-14.640225 -25.894207 -9.716300 31.293012 1.056217 1.886509 0.087998 -0.006952 77658.000000 0 0 1
-15.206425 -25.184207 -10.813000 31.343270 1.027582 1.923021 0.106907 -0.019033 271786.000000 0 0 1
-15.773125 -23.969007 -10.344400 30.501006 0.988774 1.916809 0.095345 -0.000049 -140788.000000 0 0 1
-16.407425 -23.080107 -11.427600 30.536617 0.952799 1.954358 0.108300 -0.001790 315866.000000 0 0 1
-17.662725 -23.591407 -11.875300 31.773402 0.928132 1.953845 0.106684 -0.015595 251959.000000 0 0 1
-18.233225 -22.899507 -12.998400 32.028055 0.898360 1.988699 0.109834 -0.021075 160674.000000 0 0 1
-19.674325 -23.438607 -13.195300 33.325115 0.872489 1.977906 0.088511 -0.005662 -21991.500000 0 0 1
-19.879125 -24.806707 -13.556300 34.559016 0.895226 1.973889 0.108681 -0.016568 18899.700000 0 0 1
-19.718125 -25.733307 -12.506500 34.747950 0.916977 1.938979 0.110617 -0.015743 -1071140.000000 0 0 1
-19.772425 -27.209207 -12.868800 36.012438 0.942387 1.936218 0.099733 -0.021722 -51071.300000 0 0 1
-18.737725 -27.754207 -13.652500 36.163366 0.976957 1.957916 0.104228 -0.025189 2693760.000000 0 0 1
-17.305525 -27.571907 -13.245700 35.144556 1.010293 1.957235 0.112124 -0.026897 2307650.000000 0 0 1
-16.503925 -28.747807 -13.824500 35.915633 1.049644 1.965913 0.100819 -0.026652 -377061.000000 0 0 1
-16.608125 -28.805707 -15.247000 36.579633 1.047793 2.000737 0.106298 -0.037575 -72260.500000 0 0 1
-16.028425 -29.974707 -15.807000 37.486727 1.079751 2.006082 0.118952 -0.033332 -130283.000000 0 0 1
-16.840025 -31.270807 -15.745800 38.850740 1.076808 1.988092 0.095712 -0.030305 -187394.000000 0 0 1
-17.038025 -31.663907 -14.439100 38.747708 1.077143 1.952653 0.108928 -0.029067 31053.800000 0 0 1
-17.328725 -33.038407 -14.365300 39.977279 1.087739 1.938353 0.069675 -0.023768 -714046.000000 0 0 1
-17.716525 -33.421107 -12.905200 39.967359 1.083360 1.899581 0.091012 -0.017958 1215140.000000 0 0 1
-19.055725 -33.128207 -12.409300 40.181954 1.048803 1.884757 0.084420 -0.016003 1520510.000000 0 0 1
-19.541725 -31.741807 -12.335600 39.263066 1.018952 1.890387 0.086675 -0.021124 -186765.000000 0 0 1
-18.989625 -30.741707 -11.281700 37.854130 1.017453 1.873425 0.104695 -0.021233 -235577.000000 0 0 1
-19.402525 -30.989207 -9.926400 37.885648 1.011402 1.835900 0.094898 -0.024144 269161.000000 0 0 1
-19.164925 -29.879507 -9.061800 36.635986 1.000486 1.820738 0.102549 -0.014930 -55184.400000 0 0 1
-19.481925 -30.187107 -7.584000 36.719530 0.997681 1.778832 0.092909 -0.018364 152420.000000 0 0 1
-18.525725 -31.109707 -7.078600 36.893399 1.033695 1.763860 0.101789 -0.016544 152979.000000 0 0 1
-18.698225 -31.270007 -5.691900 36.875936 1.031878 1.725769 0.103839 -0.026325 17949.800000 0 0 1
-17.758225 -32.268107 -4.932900 37.160715 1.067697 1.703934 0.095618 -0.019433 -105144.000000 0 0 1
-16.490125 -31.712707 -4.702800 36.051856 1.091289 1.701615 0.078170 -0.017218 -266648.000000 0 0 1
-16.143625 -32.118807 -3.421900 36.110162 1.105053 1.665702 0.076134 -0.017494 605041.000000 0 0 1
-14.988025 -31.327607 -2.665700 34.830530 1.124554 1.647405 0.069167 -0.012811 722379.000000 0 0 1
-13.687925 -31.806207 -2.914900 34.748967 1.164400 1.654780 0.045955 -0.009105 -869443.000000 0 0 1
-12.816625 -31.142107 -2.068800 33.739837 1.180370 1.632151 0.055168 -0.012001 -5519.470000 0 0 1
-11.378425 -31.722207 -2.085100 33.765583 1.226401 1.632588 0.049687 -0.011546 -562800.000000 0 0 1
-11.301825 -32.972807 -1.436000 34.885517 1.240584 1.611971 0.050394 -0.012078 341862.000000 0 0 1
-9.985525 -33.509607 -1.587000 35.001757 1.281185 1.616152 0.074293 -0.016815 1040090.000000 0 0 1
-8.841325 -32.852507 -0.754100 34.029765 1.307903 1.592958 0.076198 -0.016886 -571017.000000 0 0 1
-9.027525 -32.937907 0.685100 34.159497 1.303288 1.550739 0.081384 -0.020456 -963406.000000 0 0 1
-8.002825 -32.506407 1.492800 33.510299 1.329405 1.526234 0.086118 -0.028887 -303756.000000 0 0 1
-6.982425 -33.594307 1.905000 34.365109 1.365869 1.515334 0.094498 -0.028150 408471.000000 0 0 1
-7.586525 33.678474 2.832800 34.638414 -1.349231 1.488923 0.118720 -0.037931 -325064.000000 0 0 1
-6.694325 32.738974 3.308400 33.579755 -1.369101 1.472113 0.107629 -0.032222 -90208.400000 0 0 1
-5.883225 33.142274 4.605000 33.973941 -1.395112 1.434833 0.112226 -0.031789 87297.600000 0 0 1
-4.830125 34.048774 4.461400 34.677849 -1.429878 1.441786 0.101644 -0.029301 -478293.000000 0 0 1
-4.389725 -33.766307 5.769700 34.535816 1.441518 1.402945 0.083067 -0.022844 -291578.000000 0 0 1
-3.154025 -32.884407 5.667500 33.517945 1.475176 1.400892 0.085857 -0.015726 -489564.000000 0 0 1
-3.399225 -31.628907 5.128800 32.221841 1.463735 1.410945 0.086572 -0.012656 -15675.700000 0 0 1
-3.498425 -31.670107 3.672500 32.073695 1.460778 1.456043 0.087945 -0.025711 -266550.000000 0 0 1
-4.001925 -30.346607 3.027500 30.758701 1.439679 1.472209 0.084337 -0.027974 -97473.300000 0 0 1
-3.149825 -29.251207 3.233400 29.597456 1.463528 1.461332 0.079760 -0.018932 -4772.670000 0 0 1
-3.448425 -28.244807 2.289500 28.546498 1.449307 1.490508 0.086446 -0.024883 149645.000000 0 0 1
-2.649325 -26.963707 2.587700 27.216844 1.472855 1.475575 0.080843 -0.026820 30063.100000 0 0 1
-3.052125 -25.807707 1.855400 26.053708 1.453079 1.499522 0.094806 -0.031646 -132395.000000 0 0 1
-2.773025 -24.628507 2.542100 24.914158 1.458674 1.468584 0.063583 -0.027583 -908280.000000 0 1 0
-3.895525 -24.051207 3.358300 24.594996 1.410223 1.433824 0.047441 -0.023650 -834429.000000 0 1 0
-4.032025 -24.753207 4.558900 25.490430 1.409325 1.390981 0.072270 -0.025103 260966.000000 0 0 1
-5.001125 -24.185207 5.442700 25.289493 1.366886 1.353883 0.054573 -0.019014 252827.000000 0 0 1
-5.624725 -25.276507 6.383000 26.669871 1.351836 1.329117 0.070373 -0.018731 247295.000000 0 0 1
-4.757025 -25.770507 7.386700 27.227039 1.388259 1.296053 0.065096 -0.021801 58079.700000 0 0 1
-5.519425 -26.567407 8.248700 28.360751 1.365958 1.275682 0.071458 -0.024062 329125.000000 0 0 1
-4.708525 -27.120807 9.464100 29.108033 1.398897 1.239640 0.064769 -0.021310 -78347.300000 0 0 1
-4.601525 -26.196007 10.527500 28.604773 1.396913 1.193904 0.061596 -0.023618 -349548.000000 0 0 1
-5.715925 -25.800307 11.284500 28.734432 1.352773 1.167212 0.064993 -0.022595 -282135.000000 0 0 1
-5.278725 -24.739607 12.346300 28.148609 1.360577 1.116743 0.078231 -0.025231 127436.000000 0 0 1
-4.364825 -25.241807 13.284600 28.856214 1.399569 1.092382 0.082418 -0.027542 -587414.000000 0 0 1
-3.728225 -24.138007 13.887400 28.096315 1.417553 1.053792 0.073760 -0.034371 -639552.000000 0 0 1
-2.674525 -24.657507 14.827800 28.896529 1.462752 1.031964 0.063639 -0.035573 -608446.000000 0 0 1
-3.126325 -25.430507 15.964300 30.188466 1.448474 1.013585 0.064021 -0.036053 -195765.000000 0 0 1
-2.013925 -25.872707 16.697200 30.858538 1.493113 0.999065 0.058359 -0.034365 16737.400000 0 0 1
-2.401325 -26.541107 18.001600 32.159825 1.480566 0.976707 0.052936 -0.018489 35879.600000 0 0 1
-2.671725 -25.536307 19.007500 31.945675 1.466551 0.933538 0.067064 -0.022967 -62851.200000 0 0 1
-2.872325 -26.077207 20.299200 33.171200 1.461092 0.912269 0.075422 -0.021889 -40127.600000 0 0 1
-3.239325 -24.964907 21.313100 32.984664 1.441762 0.868265 0.087841 -0.032430 -193407.000000 0 0 1
-3.037525 -25.300407 22.676300 34.110874 1.451310 0.843594 0.081052 -0.036160 -36124.800000 0 0 1
-3.136025 -24.212707 23.576400 33.940190 1.441994 0.802869 0.076497 -0.039205 -151116.000000 0 0 1
-2.104325 -23.082707 23.404300 32.939350 1.479883 0.780549 0.076332 -0.032177 -398487.000000 0 0 1
-2.281325 -22.155707 22.354300 31.556212 1.468190 0.783573 0.086781 -0.029780 -21922.100000 0 0 1
-1.254925 -21.143307 22.294500 30.751569 1.511513 0.759780 0.079277 -0.029081 -186192.000000 0 0 1
-1.480525 -19.830207 21.434000 29.237740 1.496275 0.747937 0.079819 -0.009873 90283.700000 0 0 1
-2.403625 -18.905107 21.993600 29.101528 1.444333 0.713991 0.077445 -0.018648 265908.000000 0 0 1
-3.749925 -19.274907 22.180900 29.623914 1.378647 0.724622 0.101726 -0.025339 -27622.900000 0 0 1
-4.755825 -19.261207 20.964800 28.864075 1.328726 0.757831 0.097477 -0.028838 109182.000000 0 0 1
-4.539625 -20.231607 19.914700 28.749285 1.350069 0.805567 0.100488 -0.031731 -237170.000000 0 0 1
-5.236225 -21.439407 20.146800 29.882432 1.331252 0.830912 0.088777 -0.024636 156991.000000 0 0 1
-5.140025 -22.358007 18.882700 29.712904 1.344826 0.882134 0.091490 -0.029280 -30493.400000 0 0 1
-5.771125 -23.574007 19.124400 30.899553 1.330709 0.903427 0.079428 -0.033840 -305755.000000 0 0 1
-5.819425 -24.233607 17.889600 30.678514 1.335120 0.948219 0.077039 -0.030948 213272.000000 0 0 1
-6.637725 -25.555107 18.035900 31.975249 1.316670 0.971504 0.056133 -0.034371 1105730.000000 0 0 1
-8.046725 -25.395607 18.218300 32.273721 1.263949 0.970977 0.083509 -0.038452 394159.000000 0 0 1
-8.770925 -26.637707 18.083300 33.369182 1.252710 0.998081 0.071656 -0.035471 536965.000000 0 0 1
-10.293825 -26.439707 18.251800 33.736466 1.199520 0.999158 0.094170 -0.037993 -665198.000000 0 0 1
-10.960625 -25.809507 17.178800 32.884299 1.169202 1.021132 0.112732 -0.043154 1121880.000000 0 0 1
-12.400525 -25.813807 17.348900 33.482980 1.122965 1.026120 0.105143 -0.042965 1471110.000000 0 0 1
-12.956625 -24.867907 18.463700 33.573727 1.090476 0.988498 0.111614 -0.052044 -1030230.000000 0 0 1
-12.893225 -23.542807 18.090600 32.369257 1.069759 0.977759 0.109063 -0.042850 138896.000000 0 0 1
-12.965325 -22.626907 19.154100 32.356701 1.050463 0.937299 0.101938 -0.046170 754646.000000 0 0 1
-11.526025 -22.165107 19.607100 31.758142 1.091271 0.905378 0.098390 -0.040896 736941.000000 0 0 1
-10.926425 -23.053107 20.476000 32.712369 1.128191 0.894459 0.099698 -0.043246 178302.000000 0 0 1
-9.561525 -23.310907 20.158700 32.267543 1.181550 0.896003 0.088910 -0.043628 520446.000000 0 0 1
-8.892425 -24.292507 21.137300 33.406385 1.219890 0.885720 0.071509 -0.039068 73894.000000 0 0 1
-8.843325 -23.755507 22.451800 33.861657 1.214426 0.845917 0.064784 -0.031809 -132486.000000 0 0 1
-8.030525 -24.512907 23.280400 34.746927 1.254211 0.836589 0.060276 -0.036737 -107395.000000 0 0 1
-8.058325 -24.036607 24.736600 35.420255 1.247320 0.797673 0.066224 -0.035193 -122256.000000 0 0 1
-7.022825 -24.605307 25.482200 36.112099 1.292770 0.787468 0.065721 -0.032916 -249803.000000 0 0 1
-6.947025 -23.973807 26.724100 36.567500 1.288746 0.751280 0.069942 -0.033470 -117074.000000 0 0 1
-5.757925 -24.418707 27.580200 37.283969 1.339227 0.738122 0.060643 -0.036259 -383563.000000 0 0 1
-4.510225 -24.223207 27.005900 36.557140 1.386710 0.739610 0.057869 -0.032330 -225131.000000 0 0 1
-3.408725 -24.284507 27.928100 37.166321 1.431341 0.720561 0.056121 -0.030889 980897.000000 0 0 1
-2.099925 -23.765607 27.276500 36.238394 1.482665 0.718649 0.057583 -0.031240 -333863.000000 0 0 1
-2.080025 -22.359507 27.046800 35.153996 1.478037 0.692925 0.067096 -0.029922 -348143.000000 0 0 1
-0.838625 -21.795607 26.679800 34.461043 1.532339 0.685343 0.066553 -0.035012 338782.000000 0 0 1
0.179075 -21.534707 27.835300 35.193460 -1.562481 0.658481 0.059543 -0.030295 170259.000000 0 0 1
0.719975 -22.802507 28.288000 36.341211 -1.539232 0.678683 0.060286 -0.030057 290361.000000 0 0 1
1.796775 -22.544707 29.185800 36.922935 -1.491266 0.659250 0.043052 -0.031579 271675.000000 0 0 1
2.269775 -23.822907 29.937700 38.326866 -1.475806 0.674346 0.053947 -0.034152 -97686.400000 0 0 1
3.092175 -24.695107 29.153700 38.332076 -1.446231 0.706627 0.061212 -0.040642 534971.000000 0 0 1
3.766775 -25.747507 29.846600 39.597250 -1.425530 0.717040 0.050302 -0.027884 -844118.000000 0 0 1
4.994775 -25.327007 30.723100 40.128717 -1.376084 0.698801 0.050974 -0.034946 -655883.000000 0 0 1
6.062375 -24.894307 29.958300 39.420536 -1.331921 0.707534 0.055298 -0.030721 -782449.000000 0 0 1
6.767075 -25.973007 29.384700 39.797626 -1.315920 0.740171 0.052890 -0.029430 -1552030.000000 0 0 1
7.998875 -25.395207 28.669600 39.126008 -1.265658 0.748441 0.048739 -0.022006 -399022.000000 0 0 1
7.671775 -24.661307 27.542400 37.757383 -1.269201 0.753268 0.053346 -0.023455 231934.000000 0 0 1
8.826375 -24.437107 26.739500 37.283749 -1.224190 0.771036 0.042400 -0.015850 292735.000000 0 0 1
8.734675 -23.181607 25.776400 35.750584 -1.210454 0.765543 0.048975 -0.007671 268170.000000 0 0 1
7.697575 -23.314207 24.811700 34.905950 -1.251898 0.780139 0.050790 -0.013679 149659.000000 0 0 1
7.658975 -22.188307 23.957900 33.540451 -1.238421 0.775175 0.053164 -0.009074 468890.000000 0 0 1
6.802075 -22.381407 22.656700 32.565652 -1.275750 0.801369 0.053242 -0.002816 523983.000000 0 0 1
7.477975 -23.303607 21.791500 32.769615 -1.260283 0.843315 0.049277 -0.009756 298456.000000 0 0 1
6.876575 -23.317007 20.546700 31.829813 -1.284010 0.869096 0.055074 -0.016379 173542.000000 0 0 1
7.768575 -24.161607 19.563500 32.044727 -1.259710 0.914097 0.060058 -0.019218 557884.000000 0 0 1
9.093775 -23.689107 19.455000 31.974483 -1.204263 0.916685 0.065202 -0.008821 -183866.000000 0 0 1
9.797575 -24.446807 18.480100 32.173793 -1.189625 0.958945 0.065048 -0.016082 127799.000000 0 0 1
11.257375 -24.121107 18.142500 32.213454 -1.134140 0.972547 0.060124 -0.012331 -82129.100000 0 0 1
11.406875 -23.023307 17.240500 30.942274 -1.110796 0.979807 0.058191 -0.008925 -458744.000000 0 0 1
12.692475 -22.894807 16.700400 31.051159 -1.064595 1.002929 0.063088 -0.013048 -374136.000000 0 0 1
-13.092225 22.629874 11.337400 28.496565 -1.046308 1.161623 0.036167 -0.006717 318431.000000 0 0 1
-13.890725 21.433374 11.373900 27.959030 -0.995766 1.151841 0.010379 -0.011676 570021.000000 0 0 1
-13.076525 20.405474 10.869500 26.561719 -1.000892 1.149201 0.040722 -0.014091 371866.000000 0 0 1
-13.874225 19.668174 9.748600 25.968565 -0.956445 1.185968 0.038967 -0.013413 12798.900000 0 0 1
-14.139925 20.475774 8.600800 26.328094 -0.966428 1.238010 0.039064 -0.019228 -60900.500000 0 0 1
-14.884825 19.914674 7.549500 25.983595 -0.928942 1.275996 0.042166 -0.016666 919130.000000 0 0 1
-16.435425 19.722074 7.776500 26.824566 -0.876047 1.276672 0.042614 -0.018463 450532.000000 0 0 1
-16.772225 18.634074 8.515900 26.477477 -0.837935 1.243348 0.040474 -0.029829 965387.000000 0 0 1
-18.152625 18.871574 8.897600 27.655404 -0.804814 1.243239 0.044233 -0.021777 964293.000000 0 0 1
-18.727725 17.837974 9.869500 27.682630 -0.761070 1.206252 0.049122 -0.022029 -220719.000000 0 0 1
-19.046225 16.645174 9.170200 26.905633 -0.718227 1.222999 0.063755 -0.023857 20640.800000 0 0 1
-19.475325 15.607574 10.030800 26.897985 -0.675596 1.188642 0.066844 -0.026678 -361884.000000 0 0 1
-18.389025 14.928774 10.922700 26.083134 -0.681913 1.138712 0.055485 -0.017519 1079800.000000 0 0 1
-17.371725 14.091974 10.287400 24.620949 -0.681534 1.139740 0.046812 -0.006626 1069140.000000 0 1 0
-16.572725 13.298074 11.170200 24.005569 -0.676207 1.086804 0.036124 -0.008390 -3203.790000 0 1 0
-17.273525 12.186874 11.930800 24.274236 -0.614423 1.056984 0.037653 -0.013916 -536270.000000 0 1 0
-18.029325 11.248374 11.189700 24.016491 -0.557803 1.086125 0.022573 -0.015575 64968.000000 0 1 0
-18.975825 10.618174 12.048900 24.859677 -0.510156 1.064803 0.042059 -0.012508 -50007.000000 0 1 0
-20.045725 9.786574 11.330200 25.019623 -0.454173 1.100834 0.047140 -0.019391 -424925.000000 0 0 1
-19.615725 8.730074 10.438000 23.873473 -0.418734 1.118289 0.045046 -0.018257 253593.000000 0 1 0
-19.031425 9.163874 9.186200 23.033844 -0.448749 1.160574 0.050002 -0.011901 24760.300000 0 1 0
-19.995525 9.750574 8.091000 23.671903 -0.453709 1.221967 0.061642 -0.008765 237620.000000 0 1 0
-20.649825 8.710574 7.388800 23.598384 -0.399177 1.252334 0.056457 -0.016048 315609.000000 0 1 0
-21.449625 9.133274 6.313900 24.153021 -0.402549 1.306311 0.063106 -0.010105 13858.800000 0 1 0
-21.557525 8.042374 5.201900 23.589540 -0.357074 1.348452 0.061250 -0.012146 157496.000000 0 1 0
-22.396225 6.994074 5.700200 24.145398 -0.302692 1.332468 0.089729 -0.017341 732006.000000 0 1 0
-21.955925 5.742774 5.210100 23.284914 -0.255828 1.345132 0.078758 -0.009805 -466003.000000 0 1 0
-22.911825 4.598674 5.533300 24.014931 -0.198080 1.338296 0.088620 -0.017630 -98132.000000 0 1 0
-24.038525 4.653574 4.666500 24.925542 -0.191223 1.382467 0.115292 -0.015101 207489.000000 0 1 0
-24.879225 3.542774 4.843100 25.592629 -0.141448 1.380410 0.141133 -0.022918 -49950.800000 0 0 1
-26.044425 3.519574 3.830800 26.558887 -0.134324 1.426053 0.152453 -0.024136 -49723.900000 0 0 1
-25.572655 3.059274 2.565900 25.882497 -0.119065 1.471497 0.155492 -0.028417 -154277.000000 0 0 1
-26.571285 2.890974 1.639500 26.778328 -0.108374 1.509533 0.164887 -0.039785 -788470.000000 0 0 1
-26.074215 2.946774 0.177500 26.240801 -0.112537 1.564032 0.174392 -0.044355 -451771.000000 0 0 1
-25.568125 4.213274 -0.162100 25.913451 -0.163318 1.577052 0.164678 -0.043144 294881.000000 0 0 1
-25.532945 4.398974 -1.553500 25.955647 -0.170611 1.630684 0.159754 -0.039511 297273.000000 0 0 1
-26.896515 4.807474 -2.211300 27.412117 -0.176872 1.651553 0.185175 -0.049854 336596.000000 0 0 1
-27.886915 3.814774 -2.032900 28.219943 -0.135951 1.642896 0.175638 -0.053986 348618.000000 0 0 1
-29.163955 4.480074 -2.107500 29.581225 -0.152425 1.642101 0.152550 -0.039419 85054.200000 0 0 1
-30.317655 3.500474 -2.015200 30.585528 -0.114951 1.636731 0.152165 -0.043753 -875597.000000 0 0 1
-30.588355 2.832274 -3.221200 30.887624 -0.092330 1.675274 0.148203 -0.044870 790784.000000 0 0 1
-31.706665 1.974574 -2.956500 31.905366 -0.062196 1.663594 0.148931 -0.048998 381693.000000 0 0 1
-32.220545 1.321774 -4.285100 32.531103 -0.041000 1.702903 0.142486 -0.064674 495475.000000 0 0 1
-31.153685 0.500274 -4.829100 31.529709 -0.016057 1.724562 0.156804 -0.054016 946095.000000 0 0 1
-31.393615 -0.236726 -6.018700 31.966229 0.007540 1.760210 0.157885 -0.047770 -552913.000000 0 0 1
-31.805515 0.468674 -7.343300 32.645589 -0.014735 1.797678 0.141365 -0.040598 -21071.900000 0 0 1
-33.124215 0.979874 -7.351700 33.944384 -0.029573 1.789107 0.134503 -0.044677 228367.000000 0 0 1
-33.461635 1.563174 -8.582600 34.580132 -0.046681 1.821612 0.113488 -0.036922 -296155.000000 0 0 1
-34.966069 1.878874 -8.541200 36.043145 -0.053683 1.810044 0.121176 -0.034221 -378615.000000 0 0 1
-35.396588 2.906174 -7.767900 36.355254 -0.081919 1.786123 0.104072 -0.026027 -1017670.000000 0 0 1
36.670282 2.763674 -7.527500 37.536792 0.075223 1.772702 0.112117 -0.025829 -1192070.000000 0 0 1
36.373562 3.665674 -6.356800 37.106362 0.100439 1.742958 0.127585 -0.029158 354424.000000 0 0 1
34.985492 3.475174 -6.068600 35.677576 0.099007 1.741723 0.134628 -0.033269 496292.000000 0 0 1
34.438242 4.245374 -5.065500 35.066722 0.122656 1.715757 0.139858 -0.039249 -1312840.000000 0 0 1
33.061372 3.776674 -4.732100 33.611164 0.113739 1.712055 0.132668 -0.040749 -1297480.000000 0 0 1
32.901032 2.695374 -3.895300 33.240282 0.081741 1.688252 0.131886 -0.041978 -91892.100000 0 0 1
31.564452 2.258574 -3.992400 31.896004 0.071433 1.696295 0.120574 -0.036068 -174305.000000 0 0 1
31.429482 0.830974 -3.384300 31.622086 0.026433 1.678025 0.138023 -0.033391 -696557.000000 0 0 1
32.236092 -0.093326 -4.011300 32.484841 -0.002895 1.694595 0.114252 -0.034672 -96904.900000 0 0 1
32.014292 -1.412826 -3.516800 32.237848 -0.044102 1.680103 0.114944 -0.020520 369895.000000 0 0 1
33.323862 -2.223726 -3.743400 33.607109 -0.066632 1.682415 0.100743 -0.023275 423467.000000 0 0 1
33.226182 -3.516626 -3.183500 33.563083 -0.105446 1.665790 0.083986 -0.013258 888376.000000 0 0 1
34.536252 -4.134126 -3.209000 34.930522 -0.119137 1.662794 0.103060 -0.012632 1135760.000000 0 0 1
34.560102 -5.613026 -2.848500 35.128630 -0.161008 1.651973 0.097586 -0.012115 2369.080000 0 0 1
34.356202 -5.962226 -1.472800 34.900801 -0.171830 1.613008 0.091436 -0.008165 -43126.800000 0 0 1
34.515592 -7.338026 -1.115000 35.304617 -0.209481 1.602384 0.098933 -0.016229 8396.530000 0 0 1
34.083612 -7.579026 0.376700 34.918135 -0.218806 1.560008 0.093871 -0.011481 561278.000000 0 0 1
32.660152 -7.640026 0.500700 33.545584 -0.229793 1.555870 0.076213 -0.014868 643846.000000 0 0 1
32.245722 -7.892026 1.876500 33.250442 -0.240028 1.514331 0.085872 -0.028496 -779645.000000 0 0 1
32.053542 -9.444526 2.098600 33.481827 -0.286540 1.508076 0.097958 -0.029448 -440265.000000 0 0 1
30.910592 -10.059426 1.544400 32.542924 -0.314626 1.523321 0.096185 -0.037813 60878.100000 0 0 1
29.708772 -9.614126 2.140400 31.298944 -0.312976 1.502357 0.080033 -0.045173 -2385580.000000 0 0 1
28.592192 -10.572026 1.897400 30.543106 -0.354162 1.508634 0.092327 -0.042676 33280.600000 0 0 1
27.340362 -10.152526 2.557300 29.276423 -0.355557 1.483335 0.129891 -0.044778 2103530.000000 0 0 1
26.565362 -9.063426 2.035900 28.142655 -0.328791 1.498391 0.136247 -0.039694 -286410.000000 0 0 1
25.927062 -9.303626 0.622500 27.552813 -0.344527 1.548201 0.128848 -0.033652 -339126.000000 0 0 1
26.897162 -9.370126 -0.421100 28.485679 -0.335221 1.585580 0.120132 -0.040533 718291.000000 0 0 1
26.294162 -9.404126 -1.734700 27.979095 -0.343474 1.632836 0.109445 -0.024676 -31865.600000 0 0 1
25.629662 -10.709126 -2.164600 27.861272 -0.395791 1.648567 0.094955 -0.017148 -431907.000000 0 0 1
24.326762 -10.947326 -1.725000 26.732208 -0.422864 1.635370 0.112078 -0.013320 -343800.000000 0 0 1
23.993262 -12.301526 -1.864400 27.027396 -0.473762 1.639833 0.093105 -0.013473 210912.000000 0 0 1
22.511762 -12.545126 -1.464300 25.812861 -0.508408 1.627554 0.106863 -0.009093 -333049.000000 0 0 1
21.545362 -12.230826 -2.394100 24.890308 -0.516314 1.667131 0.094049 -0.003337 -771461.000000 0 1 0
20.298762 -12.521526 -1.833100 23.920464 -0.552726 1.647505 0.109861 -0.005240 -491683.000000 0 1 0
19.098762 -11.945426 -2.617900 22.678389 -0.558927 1.686490 0.102543 -0.006302 -71614.100000 0 1 0
18.918262 -12.599726 -3.846100 23.053117 -0.587547 1.738417 0.078628 -0.015805 543492.000000 0 1 0
17.916762 -11.934926 -4.616000 22.017272 -0.587632 1.782017 0.076331 -0.015636 191817.000000 0 1 0
17.906262 -12.433026 -6.130800 22.645111 -0.606917 1.844952 0.072314 -0.018796 -157626.000000 0 1 0
17.421562 -13.762726 -6.214900 23.055334 -0.668603 1.843737 0.074069 -0.013568 284842.000000 0 1 0
17.372062 -14.143426 -7.584500 23.650575 -0.683308 1.897254 0.062032 -0.018660 -30259.200000 0 1 0
16.495162 -15.390926 -7.955400 23.921943 -0.750781 1.909809 0.054071 -0.015468 547408.000000 0 1 0
15.074362 -15.179126 -7.979800 22.832421 -0.788861 1.927828 0.058936 -0.013515 1094480.000000 0 1 0
14.368562 -16.256726 -8.586500 23.333767 -0.846974 1.947638 0.060362 -0.015596 -40368.200000 0 1 0
14.483862 -16.169126 -10.195800 23.982853 -0.840322 2.009900 0.071268 -0.020423 -883656.000000 0 1 0
13.572162 -15.257126 -10.758200 23.080779 -0.843778 2.055686 0.068948 -0.014090 121045.000000 0 1 0
13.663262 -13.864126 -10.391900 22.065591 -0.792695 2.061169 0.056446 -0.012742 -297678.000000 0 1 0
13.542562 -12.947926 -11.617200 22.045614 -0.762955 2.125818 0.064164 -0.003870 199996.000000 0 1 0
14.730062 -12.885626 -12.388000 23.161965 -0.718708 2.135117 0.075394 -0.004895 434362.000000 0 1 0
14.436462 -12.296526 -13.640600 23.359836 -0.705520 2.194362 0.091115 -0.011967 -11104.500000 0 1 0
15.712762 -11.917626 -14.426000 24.434201 -0.648899 2.202353 0.093076 -0.019879 321849.000000 0 1 0
16.558962 -12.965626 -14.902400 25.775729 -0.664287 2.187264 0.094983 -0.016090 647903.000000 0 0 1
17.682462 -12.413926 -15.572600 26.632328 -0.612099 2.195338 0.096155 -0.015176 859351.000000 0 0 1
18.918762 -13.314126 -15.946800 28.097792 -0.613240 2.174319 0.084611 -0.002759 712249.000000 0 0 1
19.732862 -13.660926 -14.809000 28.201298 -0.605535 2.123650 0.071926 -0.017873 517275.000000 0 0 1
20.776462 -14.569226 -15.172100 29.565459 -0.611556 2.109670 0.052541 -0.010785 430290.000000 0 0 1
21.899762 -14.548726 -14.097900 29.833132 -0.586385 2.062988 0.036991 -0.014839 125109.000000 0 0 1
22.345162 -13.198926 -13.893800 29.437316 -0.533541 2.062331 0.043281 -0.021222 88797.600000 0 0 1
23.394562 -13.167826 -12.934900 29.799477 -0.512662 2.019796 0.037331 -0.017819 300976.000000 0 0 1
24.039562 -11.749326 -12.846700 29.681390 -0.454607 2.018415 0.051177 -0.020443 -42274.300000 0 0 1
23.207262 -10.757126 -12.202800 28.340803 -0.434043 2.015924 0.055349 -0.015471 528412.000000 0 0 1
23.780062 -9.465126 -12.130800 28.323776 -0.378805 2.013396 0.074753 -0.023505 -330585.000000 0 0 1
24.921862 -9.284226 -11.120300 28.826327 -0.356606 1.966837 0.078748 -0.018676 287081.000000 0 0 1
26.146862 -9.825126 -11.627800 30.255532 -0.359443 1.965267 0.066707 -0.010558 488272.000000 0 0 1
27.196762 -9.714026 -10.671500 30.788100 -0.343053 1.924752 0.072877 -0.012469 425512.000000 0 0 1
28.389012 -10.606426 -11.176100 32.300735 -0.357552 1.924102 0.073972 -0.011584 320429.000000 0 0 1
28.997572 -10.226826 -12.399400 33.154069 -0.339059 1.954107 0.074934 -0.011781 -741635.000000 0 0 1
30.312422 -10.672026 -12.426500 34.455086 -0.338516 1.939770 0.067400 -0.011705 -779576.000000 0 0 1
31.059202 -9.984226 -13.589000 35.341473 -0.311025 1.965469 0.067545 -0.008148 -313618.000000 0 0 1
30.765042 -10.520426 -14.879300 35.756968 -0.329495 1.999974 0.057936 -0.005919 722118.000000 0 0 1
31.554912 -9.878026 -15.921300 36.698442 -0.303379 2.019548 0.049916 -0.004624 -43577.000000 0 0 1
31.137362 -10.436126 -17.304700 37.120085 -0.323397 2.055766 0.018582 0.004283 1346750.000000 0 0 1
29.773102 -10.444926 -17.814600 36.233880 -0.337403 2.084787 0.026410 0.003039 1241220.000000 0 0 1
29.290652 -9.176326 -18.117200 35.642393 -0.303600 2.104012 0.009234 0.003913 428541.000000 0 0 1
27.804062 -9.213126 -18.640800 34.719260 -0.319973 2.137556 -0.000410 0.002258 790043.000000 0 0 1
27.563862 -9.795126 -19.909400 35.384957 -0.341443 2.168386 -0.012372 0.013213 307749.000000 0 0 1
26.218962 -9.561926 -20.290700 34.504737 -0.349706 2.199449 0.032986 0.014343 153305.000000 0 0 1
25.993562 -9.819126 -21.821100 35.330453 -0.361181 2.236520 0.053579 -0.004984 -39885.000000 0 0 1
25.930662 -11.232026 -22.048700 35.842751 -0.408759 2.233374 0.032499 -0.001814 105252.000000 0 0 1
25.244862 -11.560526 -23.229800 36.201829 -0.429434 2.267476 0.051317 -0.013053 -549651.000000 0 0 1
25.382362 -13.061226 -23.627700 37.055744 -0.475243 2.262209 0.035104 -0.008459 517693.000000 0 0 1
26.548162 -13.457326 -24.358600 38.460966 -0.469154 2.256649 0.034239 -0.003139 165330.000000 0 0 1
27.657562 -13.582226 -23.485900 38.742807 -0.456491 2.222071 0.010093 0.004431 -814416.000000 0 0 1
28.892612 -14.191526 -24.132500 40.231331 -0.456568 2.214102 0.006040 0.009511 -390368.000000 0 0 1
29.307682 -13.344826 -25.207000 40.895201 -0.427282 2.234934 0.022245 -0.009865 577600.000000 0 0 1
30.718462 -13.467726 -25.398310 42.072291 -0.413186 2.218909 0.003642 -0.007705 637415.000000 0 0 1
31.403512 -12.913026 -26.658330 43.169357 -0.390121 2.236394 0.017334 -0.008517 65890.900000 0 0 1
31.003262 -13.575626 -27.812220 43.806614 -0.412727 2.258658 0.025123 -0.009813 338031.000000 0 0 1
32.008902 -13.442426 -28.828750 45.126106 -0.397593 2.263797 0.017048 -0.012994 360270.000000 0 0 1
31.980442 -14.351626 -30.055710 46.174274 -0.421824 2.279591 0.025602 -0.018558 -148746.000000 0 0 1
32.345912 -15.675226 -29.744360 46.655093 -0.451262 2.262094 0.031401 -0.016113 -124452.000000 0 0 1
32.709042 -16.467526 -30.860120 47.889538 -0.466408 2.271037 0.002571 -0.017053 -50404.100000 0 0 1
31.576522 -16.991426 -31.770590 47.907783 -0.493663 2.295831 0.008407 -0.012409 232328.000000 0 0 1
30.797642 -16.018226 -32.453760 47.521836 -0.479608 2.322553 0.016092 -0.018782 -207626.000000 0 0 1
29.685402 -16.623226 -33.048540 47.431643 -0.510473 2.341669 0.028383 -0.011801 -123834.000000 0 0 1
28.964182 -15.692226 34.074735 47.394698 -0.496511 0.768496 0.055578 -0.009870 -313796.000000 0 0 1
28.231362 -14.600726 -33.632570 46.274623 -0.477298 2.384453 0.065630 -0.019790 233353.000000 0 0 1
28.940102 -13.595226 -32.938250 45.905207 -0.439173 2.371042 0.056139 -0.016405 232567.000000 0 0 1
27.934462 -12.408026 -32.688600 44.753076 -0.418006 2.389735 0.074966 -0.028642 440348.000000 0 0 1
27.402362 -11.943426 -33.857430 45.164814 -0.411028 2.418317 0.088089 -0.030793 -284141.000000 0 0 1
26.522962 -10.867426 -33.604920 44.168531 -0.388872 2.435394 0.067797 -0.039567 172199.000000 0 0 1
20.948075 -29.390707 9.428800 37.303321 -0.951568 1.315264 0.056659 -0.019984 -83375.100000 0 0 1
21.530075 -29.238807 8.178400 37.220132 -0.936087 1.349258 0.056564 -0.023686 -436403.000000 0 0 1
22.832675 -29.746807 8.131000 38.370780 -0.916147 1.357271 0.063629 -0.020210 -152149.000000 0 0 1
23.397875 -29.512607 6.642300 38.243623 -0.900455 1.396227 0.051654 -0.015762 -103518.000000 0 0 1
23.576775 -28.165507 6.368600 37.278938 -0.873851 1.399118 0.047905 -0.003619 442013.000000 0 0 1
24.240275 -27.952707 5.073700 37.345511 -0.856408 1.434517 0.034627 0.003924 470212.000000 0 0 1
24.522275 -26.444107 4.759900 36.377045 -0.823088 1.439571 0.025360 0.002632 117394.000000 0 0 1
25.381375 -25.702607 5.609800 36.555548 -0.791686 1.416728 0.037484 0.002364 161207.000000 0 0 1
25.357075 -24.350607 5.201600 35.538570 -0.765153 1.423904 0.037223 0.008175 96018.200000 0 0 1
26.240275 -23.392507 6.037900 35.668160 -0.728084 1.400697 0.047357 -0.004802 -251306.000000 0 0 1
27.580675 -23.283407 5.630200 36.530944 -0.701113 1.416058 0.033633 0.002596 -27566.400000 0 0 1
28.379875 -22.503507 6.546600 36.806020 -0.670421 1.391977 0.048990 -0.009403 370481.000000 0 0 1
28.144975 -21.002207 6.641600 35.739938 -0.641074 1.383878 0.059517 -0.006310 -364738.000000 0 0 1
28.535575 -20.313907 5.469200 35.452024 -0.618655 1.415907 0.047375 0.009927 135206.000000 0 0 1
28.049675 -18.960307 5.529600 34.305306 -0.594405 1.408902 0.078635 0.006666 11435.000000 0 0 1
28.027075 -18.137807 4.215500 33.649182 -0.574371 1.445188 0.097566 0.005831 645683.000000 0 0 1
29.321175 -17.672207 3.817800 34.447261 -0.542411 1.459738 0.091250 0.007179 579117.000000 0 0 1
29.219675 -17.010907 2.554200 33.906995 -0.527208 1.495395 0.096691 0.007436 146154.000000 0 0 1
30.323875 -15.956507 2.366900 34.347485 -0.484389 1.501831 0.097085 -0.010648 -67759.700000 0 0 1
30.014475 -14.754607 3.081700 33.586665 -0.456891 1.478913 0.102009 -0.019839 13304.900000 0 0 1
31.077175 -13.995207 3.616500 34.274418 -0.423134 1.465084 0.087984 -0.030868 7400.390000 0 0 1
30.528875 -12.953207 4.615800 33.482882 -0.401272 1.432500 0.089077 -0.032904 279083.000000 0 0 1
30.262875 -13.438407 5.968400 33.646013 -0.417900 1.392465 0.077572 -0.021170 66319.000000 0 0 1
29.842775 -12.416407 6.814800 33.033315 -0.394275 1.363003 0.069242 -0.017662 -421333.000000 0 0 1
29.548775 -12.731907 8.247100 33.215151 -0.406839 1.319878 0.074078 -0.006324 214594.000000 0 0 1
28.308075 -13.419707 8.462700 32.450778 -0.442681 1.306960 0.068259 -0.001605 519082.000000 0 0 1
27.795575 -13.381207 9.821100 32.374445 -0.448669 1.262580 0.082095 -0.001590 212546.000000 0 0 1
28.422475 -14.345907 10.847500 33.634958 -0.467431 1.242420 0.072256 -0.002036 -195479.000000 0 0 1
29.685475 -14.193507 11.430000 34.832858 -0.445999 1.236464 0.052103 0.005057 -150321.000000 0 0 1
30.063675 -15.348207 12.166800 35.880678 -0.472031 1.224846 0.055586 0.000766 68944.700000 0 0 1
30.952075 -15.124107 13.418700 36.970679 -0.454510 1.199359 0.059482 -0.000695 -483284.000000 0 0 1
32.234175 -14.701407 13.050400 37.755614 -0.427900 1.217860 0.055964 -0.004873 -691282.000000 0 0 1
32.988675 -14.799607 14.226400 38.854492 -0.421711 1.195933 0.056243 -0.010327 -412587.000000 0 0 1
34.510675 -14.807907 13.987800 40.073924 -0.405323 1.214239 0.071269 -0.012187 -7720.530000 0 0 1
35.012875 -13.456707 13.829400 39.977953 -0.366930 1.217571 0.077869 -0.015518 437293.000000 0 0 1
36.393775 -13.392707 13.513700 41.066916 -0.352615 1.235483 0.085969 -0.022877 155817.000000 0 0 1
-36.329711 -12.003707 13.610800 40.610230 0.319117 1.229025 0.086181 -0.025873 -30003.500000 0 0 1
-35.140611 -11.984307 12.860300 39.292156 0.328669 1.237352 0.095231 -0.032340 93754.700000 0 0 1
-34.342711 -10.826807 12.965400 38.271963 0.305395 1.225187 0.090473 -0.035719 524685.000000 0 0 1
-33.115611 -10.699107 12.006000 36.813838 0.312497 1.238592 0.102511 -0.033744 770335.000000 0 0 1
-32.061911 -11.644707 12.220700 36.234112 0.348381 1.226780 0.094829 -0.030817 376968.000000 0 0 1
-32.291911 -12.913507 11.597900 36.661117 0.380419 1.248912 0.083217 -0.031887 -490869.000000 0 0 1
-31.316811 -14.059707 11.960000 36.351886 0.421981 1.235545 0.060191 -0.030850 732423.000000 0 0 1
-30.028011 -13.923507 11.352200 34.991684 0.434175 1.240392 0.070394 -0.031263 306591.000000 0 0 1
-29.180711 -14.976707 11.747400 34.839878 0.474183 1.226874 0.049878 -0.020881 -551125.000000 0 0 1
-27.784411 -14.881007 11.146700 33.431524 0.491711 1.230869 0.047104 -0.012182 -701300.000000 0 0 1
-27.730111 -15.232107 9.801400 33.121648 0.502304 1.270376 0.057396 -0.016530 285084.000000 0 0 1
-26.583611 -14.755307 9.113000 31.740420 0.506714 1.279588 0.054126 -0.011043 -120082.000000 0 0 1
-26.719211 -14.638407 7.586700 31.396771 0.501199 1.326741 0.078209 -0.001781 -96103.300000 0 0 1
-26.686911 -15.849107 6.855000 31.786419 0.535915 1.353431 0.079726 0.000236 234722.000000 0 0 1
-26.608611 -15.616907 5.458500 31.332111 0.530740 1.395689 0.086136 0.000100 -448898.000000 0 0 1
-26.978311 -16.806907 4.554500 32.109887 0.557144 1.428475 0.078116 0.002534 -359533.000000 0 0 1
-28.363011 -16.999807 4.639000 33.391229 0.539953 1.431417 0.063715 -0.008567 -493603.000000 0 0 1
-28.815911 -17.973707 3.728100 34.165913 0.557694 1.461461 0.052896 -0.005803 242214.000000 0 0 1
-30.304011 -18.276707 4.065500 35.621614 0.542704 1.456417 0.072242 -0.017067 176209.000000 0 0 1
-31.187511 -17.428107 3.386400 35.886870 0.509587 1.476293 0.081351 -0.020054 121185.000000 0 0 1
-32.545311 -17.782307 3.635600 37.264263 0.500064 1.473078 0.099426 -0.024079 699241.000000 0 0 1
-33.602911 -16.779807 3.084600 37.685970 0.463132 1.488855 0.100901 -0.027160 261301.000000 0 0 1
-34.021511 -17.127207 1.768300 38.130451 0.466382 1.524405 0.104157 -0.031667 -209978.000000 0 0 1
-34.998411 -16.216607 1.343200 38.596260 0.433902 1.535988 0.116572 -0.031954 -516554.000000 0 0 1
-35.564211 -16.644007 -0.054600 39.266259 0.437720 1.572187 0.117524 -0.032411 -602924.000000 0 0 1
-34.638611 -16.838807 -1.093700 38.530183 0.452489 1.599186 0.113282 -0.030147 -119174.000000 0 0 1
-35.076811 -17.647907 -2.184500 39.326878 0.466142 1.626372 0.112193 -0.023085 -161663.000000 0 0 1
-33.896411 -18.042207 -3.074900 38.521980 0.489133 1.650703 0.092918 -0.022502 -21502.700000 0 0 1
-34.280411 -19.124707 -3.905600 39.448127 0.508881 1.669965 0.092965 -0.028462 397293.000000 0 0 1
-33.170011 -19.734607 -4.559700 38.865090 0.536700 1.688388 0.076803 -0.024050 192224.000000 0 0 1
-33.618711 -20.843207 -5.516700 39.938590 0.554987 1.709369 0.099538 -0.034625 -236650.000000 0 0 1
-34.112311 -21.982707 -4.906600 40.877425 0.572444 1.691118 0.116229 -0.039638 31102.500000 0 0 1
-34.448611 -22.958807 -5.917400 41.819006 0.587863 1.712773 0.111108 -0.034288 67939.900000 0 0 1
-35.085011 -24.263907 -5.366100 42.994072 0.605049 1.695933 0.109624 -0.027139 413852.000000 0 0 1
-34.142811 -25.250107 -4.910700 42.748268 0.636776 1.685925 0.111587 -0.024788 -31970.300000 0 0 1
-34.826311 -26.424507 -4.661200 43.964228 0.649078 1.677019 0.099178 -0.021253 -333003.000000 0 0 1
-33.965011 -27.595907 -4.246100 43.968005 0.682305 1.667520 0.067116 -0.015133 -722813.000000 0 0 1
-32.972511 -27.840807 -5.249000 43.472394 0.701213 1.691835 0.050745 -0.016999 689127.000000 0 0 1
-32.022411 -28.860307 -4.891600 43.385250 0.733507 1.683785 0.052947 -0.008115 818789.000000 0 0 1
-30.933211 -28.448107 -3.851500 42.201806 0.743573 1.662187 0.058776 -0.023990 -527337.000000 0 0 1
-31.476011 -28.336707 -2.525700 42.427437 0.732961 1.630361 0.054899 -0.015930 751779.000000 0 0 1
-30.511811 -28.532507 -1.444800 41.799067 0.751888 1.605369 0.064802 -0.016633 455526.000000 0 0 1
-31.194711 -28.320707 -0.054700 42.132831 0.737146 1.572095 0.060737 -0.015316 632585.000000 0 0 1
-31.868111 -29.469607 0.567200 43.409169 0.746315 1.557730 0.049341 -0.010956 190155.000000 0 0 1
-32.500711 -29.248507 1.768900 43.759575 0.732779 1.530362 0.066300 -0.009178 -273500.000000 0 0 1
-32.977611 -30.548507 2.409500 45.017106 0.747179 1.517247 0.055875 -0.002926 -769944.000000 0 0 1
-33.922111 -30.282807 3.406400 45.600017 0.728776 1.496025 0.060309 -0.000810 408043.000000 0 0 1
-34.659111 -31.437307 3.849100 46.950760 0.736693 1.488723 0.037771 0.004182 264203.000000 0 0 1
-35.642811 -32.209307 2.954500 48.130848 0.734839 1.509373 0.037395 0.007292 -195339.000000 0 0 1
-36.462911 -33.165707 3.642400 49.424438 0.738079 1.497033 0.048353 -0.001108 -168657.000000 0 0 1
36.095975 -33.768607 2.719500 49.503878 -0.752098 1.515834 0.049574 -0.001369 -390290.000000 0 0 1
34.961975 33.595874 3.385900 48.605420 0.765475 1.501079 0.038830 -0.004785 828536.000000 0 0 1
33.948975 -33.954307 4.160700 48.194806 -0.785477 1.484358 0.035200 -0.009844 604792.000000 0 0 1
33.212575 -32.882007 3.684900 46.881553 -0.780397 1.492115 0.042441 -0.002091 -255057.000000 0 0 1
32.227475 -33.070307 2.497000 46.243814 -0.798305 1.516774 0.043375 -0.007256 -132747.000000 0 0 1
32.910175 -33.551507 1.350900 47.017105 -0.795048 1.542060 0.047460 -0.009377 51456.000000 0 0 1
32.132575 -33.269707 0.200600 46.253822 -0.802783 1.566459 0.054770 -0.005115 -124990.000000 0 0 1
32.752475 -34.018307 -1.030100 47.233790 -0.804354 1.592607 0.061774 -0.007513 1001020.000000 0 0 1
33.848375 -33.476007 -1.769800 47.639141 -0.779867 1.607955 0.050916 -0.004727 901810.000000 0 0 1
35.089475 -33.273207 -1.070700 48.368626 -0.758836 1.592934 0.051359 -0.002117 358638.000000 0 0 1
36.326275 -33.192607 -1.983900 49.247165 -0.740352 1.611092 0.023153 0.005185 -267726.000000 0 0 1
-36.661311 33.801874 -2.537100 49.930505 -0.744840 1.621631 0.033861 -0.004941 -276428.000000 0 0 1
-35.854111 -34.111007 -3.612500 49.619837 0.760489 1.643664 0.031220 0.002852 -822252.000000 0 0 1
-35.031511 32.900374 -4.115900 48.234656 -0.754037 1.656231 0.027583 -0.004742 122096.000000 0 0 1
-33.884611 32.526574 -3.370200 47.090372 -0.764952 1.642426 0.041492 -0.005177 -37477.200000 0 0 1
-33.197411 31.534574 -4.095400 45.970314 -0.759716 1.660003 0.054406 -0.012816 479405.000000 0 0 1
-31.875511 31.071874 -3.412500 44.644762 -0.772632 1.647308 0.067651 -0.014134 839651.000000 0 0 1
-30.737911 31.971874 -3.462000 44.486013 -0.805073 1.648697 0.063124 -0.018951 1410270.000000 0 0 1
-29.458211 31.345774 -3.274100 43.140045 -0.816432 1.646764 0.056308 -0.018267 992461.000000 0 0 1
-29.069811 31.115274 -1.804900 42.620088 -0.819371 1.613158 0.051354 -0.012489 -795680.000000 0 0 1
-29.978111 30.238674 -1.256900 42.598643 -0.789725 1.600306 0.054689 -0.005751 -499636.000000 0 0 1
-29.724811 30.023074 0.143000 42.248903 -0.790390 1.567412 0.056735 -0.007982 375232.000000 0 0 1
-30.986811 29.378674 0.792200 42.707336 -0.758764 1.552246 0.046720 -0.009081 317016.000000 0 0 1
-31.338411 28.201874 0.253000 42.160476 -0.732768 1.564795 0.049424 -0.021578 -698019.000000 0 0 1
-32.707311 28.114674 0.023100 43.130078 -0.710032 1.570261 0.056142 -0.020589 -558906.000000 0 0 1
-33.242711 26.752774 -0.522600 42.673902 -0.677643 1.583043 0.067671 -0.021675 7849.050000 0 0 1
-33.381011 25.782174 0.412300 42.180356 -0.657659 1.561021 0.080245 -0.024979 17133.700000 0 0 1
-33.914111 24.612274 -0.134200 41.904045 -0.627782 1.573999 0.073513 -0.012288 -351036.000000 0 0 1
-33.923411 23.338674 0.818800 41.184487 -0.602614 1.550914 0.083371 -0.022333 887169.000000 0 0 1
-32.594411 22.869674 1.142900 39.833703 -0.611828 1.542101 0.097108 -0.031981 955208.000000 0 0 1
-32.055011 23.420674 2.309600 39.766644 -0.630995 1.512685 0.095062 -0.035187 -1577280.000000 0 0 1
-30.579511 23.103074 2.511200 38.407872 -0.647017 1.505367 0.076339 -0.041643 60388.300000 0 0 1
-29.691611 23.880474 1.657600 38.139434 -0.677347 1.527321 0.085020 -0.040038 530636.000000 0 0 1
-29.618711 25.302674 1.959100 39.004249 -0.706974 1.520547 0.057532 -0.032216 -791282.000000 0 0 1
-28.981511 26.117274 0.867800 39.022981 -0.733461 1.548556 0.037062 -0.023535 80423.100000 0 0 1
-27.690411 25.743474 0.416200 37.810826 -0.748978 1.559789 0.026111 -0.023128 -167341.000000 0 0 1
-27.230911 26.715074 -0.472900 38.150247 -0.775836 1.583192 0.020663 -0.020785 28758.800000 0 0 1
-25.930911 26.314174 -1.188400 36.962957 -0.792734 1.602953 0.021333 -0.017512 -44827.900000 0 0 1
-26.254811 25.315374 -2.148700 36.534917 -0.767184 1.629643 0.042544 -0.028673 324356.000000 0 0 1
-25.100811 24.654574 -2.663900 35.284488 -0.776430 1.646366 0.034615 -0.018087 167373.000000 0 0 1
-24.297011 23.637874 -1.894000 33.951157 -0.771648 1.626611 0.038539 -0.016768 -419746.000000 0 0 1
-24.833811 22.385774 -1.763800 33.480622 -0.733601 1.623502 0.054977 -0.025976 -113536.000000 0 0 1
-24.023811 21.606074 -0.872300 32.322235 -0.732462 1.597787 0.043148 -0.027087 -88455.300000 0 0 1
-24.765311 20.281974 -0.489000 32.014344 -0.686200 1.586071 0.061364 -0.032179 769699.000000 0 0 1
-25.778111 20.378374 0.571800 32.865120 -0.668940 1.553397 0.043914 -0.037707 1139960.000000 0 0 1
-26.987311 21.072774 0.314500 34.241432 -0.662948 1.561611 0.047033 -0.039756 -275781.000000 0 0 1
-27.894311 20.476874 -0.729200 34.611078 -0.633239 1.591866 0.053548 -0.047892 -1200450.000000 0 0 1
-28.428211 19.204974 -0.452100 34.310328 -0.594135 1.583973 0.052872 -0.044505 279561.000000 0 0 1
-29.089011 18.576474 -1.542000 34.549005 -0.568325 1.615443 0.072318 -0.039727 -84923.600000 0 0 1
-29.297311 17.064674 -1.365800 33.932300 -0.527427 1.611058 0.080270 -0.029179 46303.500000 0 0 1
-30.046111 16.718974 -0.208600 34.385119 -0.507777 1.576863 0.095677 -0.034408 376319.000000 0 0 1
-30.199611 15.304674 -0.008700 33.856309 -0.469060 1.571053 0.105505 -0.032685 446892.000000 0 0 1
-28.922911 14.523974 0.477600 32.368329 -0.465375 1.556041 0.128087 -0.032444 259337.000000 0 0 1
-28.677011 14.598674 1.906400 32.235487 -0.470879 1.511622 0.141770 -0.032943 453936.000000 0 0 1
-27.352311 14.376574 2.356700 30.990141 -0.483923 1.494676 0.141691 -0.028354 444868.000000 0 0 1
-26.606811 13.022174 2.224300 29.706008 -0.455156 1.495849 0.149560 -0.030932 -165441.000000 0 0 1
-26.535411 12.453474 0.902700 29.326301 -0.438800 1.540010 0.146624 -0.035440 488039.000000 0 0 1
-25.980511 11.125474 0.950500 28.278377 -0.404598 1.537178 0.151776 -0.026246 -18156.500000 0 0 1
-26.017511 10.386074 -0.422800 28.017141 -0.379813 1.585888 0.152764 -0.027286 -759172.000000 0 0 1
-27.271311 9.928374 -0.796900 29.033293 -0.349144 1.598248 0.157791 -0.023499 -519152.000000 0 0 1
-27.254711 9.026874 -1.853400 28.770451 -0.319833 1.635261 0.168091 -0.028650 378523.000000 0 0 1
-28.669311 8.510274 -2.257500 29.990840 -0.288558 1.646141 0.162751 -0.029061 496543.000000 0 0 1
-28.567511 7.657274 -3.368200 29.767118 -0.261885 1.684191 0.153046 -0.029965 1626340.000000 0 0 1
-29.900911 7.521174 -3.951600 31.084525 -0.246424 1.698266 0.146754 -0.024133 1464690.000000 0 0 1
-11.100825 17.709674 -19.824600 28.807562 -1.010887 2.329765 0.085811 -0.016338 277916.000000 0 0 1
-11.712425 16.755274 -20.668200 29.070511 -0.960722 2.361670 0.078840 -0.029384 -25364.200000 0 0 1
-11.120425 16.839774 -21.961200 29.825092 -0.987168 2.398431 0.073287 -0.032145 315677.000000 0 0 1
-11.362325 15.615974 -22.904000 29.959210 -0.941780 2.441071 0.074100 -0.027573 94356.300000 0 0 1
-10.562825 14.532074 -22.451300 28.754396 -0.942268 2.466734 0.076069 -0.030891 53390.300000 0 0 1
-10.478625 13.500274 -23.375400 28.956317 -0.910750 2.510298 0.067457 -0.028138 -51730.000000 0 0 1
-9.548025 12.337674 -22.987100 27.781104 -0.912179 2.545324 0.053071 -0.023074 -511990.000000 0 0 1
-8.179125 12.585374 -22.867500 27.353469 -0.994498 2.560749 0.047555 -0.024456 -708294.000000 0 0 1
-7.583625 11.447174 -22.319000 26.204712 -0.985692 2.590050 0.034486 -0.020624 -599852.000000 0 0 1
-6.064025 11.450674 -22.316600 25.805444 -1.083767 2.615552 0.041977 -0.016030 -316387.000000 0 0 1
-5.464225 11.196074 -23.636500 26.718794 -1.116756 2.656517 0.036494 -0.019980 -215357.000000 0 0 1
-4.076225 11.297674 -23.443700 26.341225 -1.224531 2.668142 0.037347 -0.017234 -322814.000000 0 0 1
-3.240225 11.016174 -24.715600 27.252817 -1.284730 2.706666 0.054186 -0.028126 -57514.700000 0 0 1
-3.202625 9.675474 -25.181970 27.166215 -1.251143 2.757021 0.044973 -0.027996 -82276.900000 0 0 1
-2.641325 9.575074 -26.477000 28.278794 -1.301636 2.782695 0.048147 -0.027026 -163813.000000 0 0 1
-2.386925 8.112274 -26.984500 28.278431 -1.284636 2.837915 0.057994 -0.005742 267839.000000 0 0 1
-1.337125 7.342974 -26.392630 27.427688 -1.390674 2.865993 0.072466 -0.014868 223871.000000 0 0 1
-1.376225 7.106474 -24.980000 26.007621 -1.379506 2.859546 0.079608 -0.027463 -71239.900000 0 0 1
-0.407425 6.005074 -24.457100 25.186835 -1.503053 2.900288 0.016643 -0.016291 891106.000000 0 0 1
0.999175 6.314474 -24.504000 25.324236 1.413862 2.886384 0.054838 -0.001217 924239.000000 0 0 1
1.827375 5.567574 -23.637100 24.352611 1.253657 2.898585 0.053583 0.016980 283376.000000 0 1 0
1.761375 6.062474 -22.196600 23.076938 1.288043 2.864490 0.038905 0.006655 -495821.000000 0 1 0
2.500075 7.235874 -22.036200 23.328145 1.238126 2.807227 0.037005 -0.008182 -24807.400000 0 1 0
2.315175 7.842474 -20.781300 22.332193 1.283740 2.766718 0.036350 -0.008784 10262.600000 0 1 0
2.332575 9.424774 -20.804000 22.958085 1.328178 2.704942 0.018543 -0.014419 437709.000000 0 1 0
3.150475 9.999774 -19.741300 22.352626 1.265586 2.653387 0.037409 -0.020821 475569.000000 0 1 0
3.465275 11.371674 -20.030600 23.292661 1.275007 2.605974 0.038325 -0.012331 -184753.000000 0 1 0
4.502875 11.914474 -19.030500 22.899574 1.209457 2.551774 0.028280 -0.002466 280902.000000 0 1 0
5.782075 11.318774 -19.231500 23.052064 1.098515 2.557592 0.041292 -0.008311 -212338.000000 0 1 0
6.252275 11.029274 -17.921800 21.952830 1.055086 2.525907 0.030174 -0.018999 69879.600000 0 1 0
7.459175 10.041874 -17.924100 21.857536 0.931915 2.532281 0.055038 -0.045004 -201117.000000 0 1 0
7.283375 8.711274 -18.402800 21.623989 0.874436 2.588752 0.053745 -0.027547 -204916.000000 0 1 0
7.029675 8.673374 -19.802800 22.733118 0.889692 2.628232 0.058606 -0.013648 -158844.000000 0 1 0
6.723275 7.230574 -20.262400 22.539931 0.821738 2.688176 0.061964 -0.018200 -701836.000000 0 1 0
7.771975 6.337274 -20.198100 22.550563 0.684061 2.680755 0.062442 -0.024877 -421520.000000 0 1 0
7.370175 4.977374 -20.489600 22.336460 0.593983 2.732083 0.060659 -0.015361 -91957.400000 0 1 0
7.705775 4.628074 -21.958000 23.726605 0.540859 2.753042 0.078562 -0.022174 -328341.000000 0 1 0
6.867375 5.280574 -22.866900 24.452820 0.655511 2.779461 0.083715 -0.019382 -115009.000000 0 1 0
7.201575 4.955174 -24.204000 25.734219 0.602673 2.795006 0.086242 -0.017046 91467.700000 0 0 1
6.109275 5.503574 -25.178790 26.487432 0.733288 2.825940 0.070326 -0.019655 319521.000000 0 0 1
6.006975 6.918874 -25.382780 26.985924 0.855830 2.795170 0.057921 -0.031151 303828.000000 0 0 1
5.449375 7.608274 -24.233500 25.977761 0.949252 2.773056 0.073860 -0.031363 -694150.000000 0 0 1
5.096175 9.089274 -24.465100 26.591860 1.059790 2.738933 0.073280 -0.041611 346284.000000 0 0 1
3.930375 9.393274 -25.218110 27.196222 1.174508 2.757837 0.081679 -0.038973 70559.600000 0 0 1
2.730475 9.297474 -24.496300 26.343258 1.285148 2.764907 0.067424 -0.030165 -525609.000000 0 0 1
1.520575 9.897874 -25.244260 27.157922 1.418362 2.763948 0.073299 -0.022269 -124570.000000 0 0 1
1.478875 11.326274 -25.257690 27.720434 1.440961 2.716882 0.083508 -0.046538 -536196.000000 0 0 1
0.504875 11.714674 -26.134820 28.644673 1.527725 2.719857 0.102918 -0.048629 -931356.000000 0 0 1
0.304775 13.235774 -26.301350 29.445536 1.547774 2.675254 0.092490 -0.054396 -414214.000000 0 0 1
-0.265525 13.862174 -25.208000 28.769318 -1.551644 2.638740 0.087091 -0.054622 -157221.000000 0 0 1
-0.593525 15.169274 -25.465650 29.647234 -1.531690 2.604022 0.082998 -0.058771 -444059.000000 0 0 1
-1.115625 16.016374 -24.339600 29.157932 -1.501253 2.558476 0.097352 -0.045627 -867001.000000 0 0 1
-2.359125 15.529674 -23.993400 28.677857 -1.420038 2.561939 0.090729 -0.040788 -1358480.000000 0 0 1
-2.604325 15.735874 -22.653700 27.705421 -1.406781 2.528136 0.087727 -0.045638 -423117.000000 0 0 1
-3.824825 14.936774 -22.142900 26.982300 -1.320115 2.533336 0.085708 -0.039819 904034.000000 0 0 1
-5.128825 15.318474 -22.600000 27.779858 -1.247715 2.521009 0.088379 -0.039477 434997.000000 0 0 1
-5.344325 14.817674 -23.963700 28.677242 -1.224646 2.560084 0.075351 -0.040603 -937060.000000 0 0 1
-6.797125 14.957074 -24.420200 29.432314 -1.144254 2.549379 0.046605 -0.034350 -199161.000000 0 0 1
-7.245525 16.252174 -24.787200 30.512884 -1.151425 2.518970 0.053140 -0.033410 1245660.000000 0 0 1
-8.650625 16.257974 -25.156910 31.177318 -1.081811 2.509678 0.057649 -0.027293 1145370.000000 0 0 1
-9.341125 17.587474 -25.512830 32.364801 -1.082561 2.478820 0.067010 -0.026973 -28326.900000 0 0 1
-9.695025 18.436174 -24.450200 32.120061 -1.086668 2.435977 0.072495 -0.033063 -243272.000000 0 0 1
-10.738125 19.269874 -24.862200 33.237996 -1.062404 2.415848 0.069092 -0.022761 -133194.000000 0 0 1
-11.452225 20.030574 -23.730900 33.098836 -1.051418 2.370244 0.059956 -0.018865 30247.200000 0 0 1
-10.878225 21.260674 -23.278000 33.349922 -1.097865 2.343387 0.067983 -0.017118 14441.700000 0 0 1
-11.492925 22.426474 -23.800600 34.662698 -1.097222 2.327646 0.059597 -0.019217 -48128.100000 0 0 1
-11.021925 22.973774 -25.192260 35.831928 -1.123470 2.350498 0.066275 -0.011355 -135048.000000 0 0 1
-11.384325 22.140774 -26.275730 36.197109 -1.095870 2.383148 0.059286 -0.018182 124462.000000 0 0 1
-11.334525 22.849274 -27.513020 37.517023 -1.110309 2.394029 0.075274 -0.010281 -73952.200000 0 0 1
-11.819825 21.964374 -28.683280 38.011479 -1.077107 2.425833 0.061891 -0.005976 273395.000000 0 0 1
-10.868825 21.023174 -29.185550 37.575278 -1.093647 2.460241 0.049985 -0.006127 204673.000000 0 0 1
-10.741125 19.822274 -28.403380 36.263567 -1.074215 2.470670 0.055124 -0.007922 -619057.000000 0 0 1
-9.827725 18.777974 -29.025970 35.940276 -1.088632 2.510896 0.051681 -0.016382 -633412.000000 0 0 1
-8.503625 19.188074 -28.678300 35.537849 -1.153635 2.509815 0.054884 -0.017759 196154.000000 0 0 1
-7.529325 18.575774 -29.556140 35.711560 -1.185703 2.545677 0.052227 -0.020936 503901.000000 0 0 1
-7.102325 17.132474 -29.153760 34.552951 -1.177807 2.575013 0.054018 -0.029406 -308456.000000 0 0 1
-8.172025 16.191774 -29.284660 34.446289 -1.103394 2.587075 0.047327 -0.026582 335842.000000 0 0 1
-7.899625 15.021774 -28.564310 33.226158 -1.086661 2.605466 0.030249 -0.027411 804297.000000 0 0 1
-9.188325 14.121174 -28.349140 32.977365 -0.993945 2.605389 0.042370 -0.017502 1027650.000000 0 0 1
-10.167925 14.632874 -27.467730 32.741165 -0.963523 2.566121 0.057431 -0.027522 -737318.000000 0 0 1
-11.362525 13.947174 -27.528560 32.885441 -0.887166 2.562765 0.085020 -0.030932 -367457.000000 0 0 1
-12.401525 14.466174 -26.499890 32.639120 -0.862092 2.518206 0.077367 -0.026168 161794.000000 0 0 1
-12.999625 15.718274 -26.816790 33.692649 -0.879784 2.491329 0.069528 -0.027213 161772.000000 0 0 1
-14.030425 15.979974 -25.855050 33.476798 -0.850269 2.453293 0.061492 -0.025985 225118.000000 0 0 1
-15.012725 17.074074 -26.218310 34.703108 -0.849553 2.427218 0.040901 -0.020198 -233880.000000 0 0 1
-14.409925 18.335774 -26.260930 35.120976 -0.904718 2.415430 0.045768 -0.018315 436260.000000 0 0 1
-15.429825 19.310974 -26.494520 36.234690 -0.896654 2.390864 0.032190 -0.010824 234053.000000 0 0 1
-14.926825 20.783874 -26.371980 36.745896 -0.947965 2.371269 0.039849 -0.010023 346491.000000 0 0 1
-15.923325 21.746974 -26.715960 37.950305 -0.938779 2.351771 0.018533 -0.007888 246666.000000 0 0 1
-15.400025 22.992874 -26.917160 38.605265 -0.980646 2.342337 0.033217 -0.006239 -167219.000000 0 0 1
-14.999925 23.870374 -25.734810 38.171625 -1.009762 2.310660 0.005292 -0.004669 19174.000000 0 0 1
-14.496925 25.132474 -26.079930 39.012368 -1.047595 2.302992 0.027814 -0.013448 2811.000000 0 0 1
-14.202825 25.894074 -24.922800 38.644136 -1.069108 2.271729 0.038159 -0.020518 -170785.000000 0 0 1
-14.051225 27.362574 -25.219270 39.776362 -1.096391 2.257545 0.054677 -0.019253 83105.400000 0 0 1
-15.215525 28.046074 -25.665430 40.948855 -1.073715 2.248195 0.052360 -0.019761 -102327.000000 0 0 1
-15.588025 29.165374 -24.843300 41.361759 -1.079954 2.215091 0.051928 -0.017714 -340893.000000 0 0 1
-17.029925 29.505074 -25.244070 42.400835 -1.047321 2.208519 0.050402 -0.021681 -390595.000000 0 0 1
-17.923325 28.528374 -24.778200 41.821919 -1.009854 2.204917 0.040335 -0.017450 -651914.000000 0 0 1
-19.189125 28.793074 -25.345760 42.891388 -0.982944 2.203006 0.025636 -0.015233 381305.000000 0 0 1
-20.200025 27.590974 -25.192040 42.472835 -0.938834 2.205741 0.025232 -0.004233 237724.000000 0 0 1
-20.534125 27.421874 -23.839900 41.736678 -0.928049 2.178761 0.045370 -0.015292 -231888.000000 0 0 1
-21.443825 26.361574 -23.687100 41.422807 -0.887908 2.179540 0.052882 -0.025123 -179794.000000 0 0 1
-22.133025 26.225374 -22.309200 40.930935 -0.869822 2.147239 0.059339 -0.020233 504104.000000 0 0 1
-23.142625 27.240274 -22.151800 42.051348 -0.866550 2.125604 0.060579 -0.018280 281053.000000 0 0 1
-23.641525 27.261474 -20.836300 41.668466 -0.856393 2.094452 0.041809 -0.015949 -556250.000000 0 0 1
-24.870325 28.165374 -20.770000 42.932671 -0.847447 2.075766 0.025800 -0.007559 -348252.000000 0 0 1
-26.101455 27.519174 -20.956500 43.333195 -0.811832 2.075574 0.020567 -0.006401 -680171.000000 0 0 1
-27.124325 28.403674 -21.219400 44.640347 -0.808434 2.066148 0.029202 -0.005443 -775508.000000 0 0 1
-28.494365 27.801774 -21.485900 45.238384 -0.773096 2.065702 0.022637 -0.004099 -447189.000000 0 0 1
-28.560845 27.309574 -22.785900 45.615040 -0.763006 2.093848 0.017390 0.001754 -205724.000000 0 0 1
-29.846365 26.802574 -23.032900 46.256869 -0.731719 2.092012 0.009009 0.008620 -126183.000000 0 0 1
-29.964995 26.207774 -24.466000 46.726154 -0.718611 2.121872 0.016442 0.014733 22062.700000 0 0 1
-29.522995 24.879774 -24.692200 45.829195 -0.700256 2.139794 0.037441 0.005412 -129561.000000 0 0 1
-29.735525 24.615074 -26.073900 46.582739 -0.691464 2.164860 0.042257 0.006344 100969.000000 0 0 1
-29.858215 23.127774 -26.396910 46.078235 -0.659052 2.180801 0.052270 0.000628 -493054.000000 0 0 1
-28.638815 22.482974 -26.296580 44.912982 -0.665560 2.196294 0.068826 -0.012869 -592499.000000 0 0 1
-28.919715 21.190074 -26.599180 44.641746 -0.632350 2.209103 0.075457 -0.021256 -13807.600000 0 0 1
-27.789725 20.140974 -26.474730 43.345576 -0.627153 2.227845 0.088326 -0.022481 63489.800000 0 0 1
-27.312415 19.875074 -25.116840 42.093256 -0.629072 2.210173 0.088740 -0.019006 290338.000000 0 0 1
-26.787855 18.635474 -24.796000 40.984285 -0.607813 2.220578 0.072278 -0.021327 -119817.000000 0 0 1
-27.821155 17.466674 -24.681600 41.088718 -0.560625 2.215161 0.071890 -0.013580 156091.000000 0 0 1
-28.538605 17.247974 -25.910490 42.229114 -0.543629 2.231369 0.068899 -0.013013 686831.000000 0 0 1
-29.293235 16.023174 -25.887880 42.249474 -0.500531 2.230318 0.045717 -0.008375 -97015.400000 0 0 1
-29.900355 15.520374 -27.181640 43.286889 -0.478787 2.249702 0.045129 -0.009399 406155.000000 0 0 1
-31.288855 15.844574 -27.259220 44.419681 -0.468752 2.231502 0.024978 0.001429 486833.000000 0 0 1
-31.805555 15.486874 -28.536650 45.450819 -0.453132 2.249594 0.022936 0.014877 545171.000000 0 0 1
-33.089475 16.267874 -28.947450 46.877627 -0.456932 2.236371 0.019437 0.006296 434300.000000 0 0 1
-34.268645 16.038374 -28.200980 47.189667 -0.437737 2.211312 0.005738 0.008232 -62241.700000 0 0 1
-35.357966 16.697174 -28.790300 48.557829 -0.441188 2.205461 0.003960 0.005460 77980.600000 0 0 1
36.699962 16.404874 -28.103900 49.049325 0.420356 2.180924 -0.007482 0.009457 127554.000000 0 0 1
36.491202 17.126174 -26.893490 48.457956 0.438807 2.159143 -0.005640 0.003543 -26838.800000 0 0 1
35.267602 16.836274 -26.266290 47.086961 0.445394 2.162559 -0.002404 -0.002511 -233665.000000 0 0 1
34.812312 17.819974 -25.179570 46.513001 0.473112 2.142832 0.002494 0.005228 -241345.000000 0 0 1
34.053532 18.833574 -25.776150 46.677151 0.505188 2.155823 0.001906 -0.010328 245975.000000 0 0 1
33.540052 19.833574 -24.896900 46.240257 0.534028 2.139363 0.021255 -0.002444 -452204.000000 0 0 1
33.035222 21.122674 -25.666630 46.864370 0.568886 2.150384 0.029180 -0.010329 114555.000000 0 0 1
31.803102 20.901074 -26.330790 46.277454 0.581422 2.176057 0.030795 -0.016183 -117303.000000 0 0 1
30.755282 21.384474 -25.514010 45.322708 0.607572 2.168736 0.058329 -0.005595 320648.000000 0 0 1
29.328902 21.190674 -26.149420 44.643267 0.625680 2.196591 0.040282 -0.014118 699042.000000 0 0 1
28.953812 19.888874 -26.362590 43.918979 0.601892 2.214616 0.055940 -0.026221 -644810.000000 0 0 1
27.762962 19.818174 -27.075570 43.550299 0.619951 2.241718 0.074170 -0.032228 -636522.000000 0 0 1
27.179862 18.389174 -27.271550 42.669006 0.594830 2.264178 0.092030 -0.034496 301506.000000 0 0 1
28.077562 17.538974 -27.992110 43.353470 0.558356 2.272699 0.072046 -0.043177 510408.000000 0 0 1
29.142752 16.992374 -27.238670 43.358804 0.527881 2.250054 0.068286 -0.035562 193251.000000 0 0 1
30.033352 15.959074 -28.033230 44.074440 0.488434 2.260155 0.060636 -0.030988 221154.000000 0 0 1
29.437262 14.706574 -28.408890 43.472989 0.463320 2.282974 0.070765 -0.030733 -51345.200000 0 0 1
28.930592 13.877774 -27.397440 42.192316 0.447270 2.277521 0.070746 -0.034611 -121441.000000 0 0 1
29.889982 13.292674 -26.318560 41.985388 0.418454 2.248301 0.066841 -0.028339 -160483.000000 0 0 1
30.191282 14.227274 -25.295280 41.878157 0.440374 2.219333 0.071247 -0.031703 18500.000000 0 0 1
31.047162 13.601974 -24.363100 41.743270 0.412920 2.194002 0.055585 -0.025312 -250679.000000 0 0 1
-14.924725 -31.041407 -23.500300 41.696288 1.122626 2.169542 0.097214 -0.018281 -217368.000000 0 0 1
-14.266725 -30.046207 -24.202700 41.134957 1.127490 2.199842 0.089439 -0.034764 -124294.000000 0 0 1
-14.444325 -30.054807 -25.622510 42.052859 1.122789 2.225965 0.068288 -0.024058 126980.000000 0 0 1
-13.800325 -28.744707 -26.228980 41.287607 1.123195 2.259161 0.064614 -0.025852 320844.000000 0 0 1
-14.503325 -27.532607 -25.862620 40.463143 1.085964 2.264208 0.085500 -0.018012 295653.000000 0 0 1
-13.947425 -26.405907 -26.516430 39.936495 1.084849 2.296905 0.065381 -0.015983 -152625.000000 0 0 1
-14.462925 -25.044707 -25.997180 38.887876 1.047097 2.303008 0.026584 -0.018835 -291803.000000 0 0 1
-13.998225 -24.808607 -24.691200 37.697117 1.057079 2.284964 0.036635 -0.031541 171345.000000 0 0 1
-14.438925 -23.569407 -24.196100 36.734871 1.021154 2.289844 0.026204 -0.026803 -293597.000000 0 0 1
-13.869425 -23.160907 -22.805500 35.339487 1.031238 2.272247 0.046515 -0.031086 -1552480.000000 0 0 1
-12.527725 -22.919807 -22.818400 34.683437 1.070575 2.288830 0.043110 -0.041863 -1525260.000000 0 0 1
-12.189425 -22.015307 -21.738900 33.254106 1.065133 2.283287 0.033632 -0.034530 -320119.000000 0 0 1
-10.676925 -21.857307 -21.698500 32.596986 1.116405 2.299174 0.046809 -0.036704 -509763.000000 0 0 1
-10.100525 -21.012607 -22.663600 32.514443 1.122717 2.342046 0.066761 -0.034450 1017340.000000 0 0 1
-8.687725 -20.764607 -22.484700 31.815204 1.174537 2.355659 0.084682 -0.027583 1034790.000000 0 0 1
-8.213325 -19.481507 -23.256100 31.429826 1.171812 2.403773 0.105566 -0.024763 -187191.000000 0 0 1
-8.639225 -18.216007 -22.788100 30.426249 1.127947 2.417290 0.081987 -0.025358 -174303.000000 0 0 1
-8.857225 -17.169907 -23.769200 30.630556 1.094543 2.459090 0.079762 -0.019323 -56447.700000 0 0 1
-7.640725 -16.631807 -24.558300 30.628545 1.140149 2.501116 0.092795 -0.025350 -35615.500000 0 0 1
-7.209625 -17.468707 -25.633910 31.847005 1.179376 2.506317 0.078578 -0.025081 -721933.000000 0 0 1
-6.080825 -16.849407 -26.130890 31.681262 1.224451 2.540655 0.069993 -0.019248 -969128.000000 0 0 1
-5.579925 -17.576707 -27.335260 32.974120 1.263398 2.548098 0.065335 -0.007645 -67278.400000 0 0 1
-6.402725 -17.324107 -28.490270 33.953130 1.216782 2.566434 0.084837 -0.014800 298517.000000 0 0 1
-5.906425 -17.991107 -29.625800 35.160401 1.253585 2.572871 0.083724 -0.024500 -146682.000000 0 0 1
-6.768225 -17.739107 -30.932990 36.295105 1.206302 2.591093 0.087412 -0.022884 285236.000000 0 0 1
-6.395625 -16.661707 -31.684580 36.365218 1.204288 2.628617 0.086486 -0.025104 -90988.300000 0 0 1
-6.585025 -15.361807 -31.075180 35.284762 1.165828 2.648128 0.071043 -0.021979 -352822.000000 0 0 1
-7.377025 -14.379607 -31.902270 35.762388 1.096787 2.672684 0.068351 -0.022211 -142718.000000 0 0 1
-6.599725 -13.901407 -32.989780 36.402350 1.127550 2.705133 0.071476 -0.028190 -147945.000000 0 0 1
-7.312925 -13.135007 -33.942600 37.122868 1.062785 2.724650 0.069372 -0.024900 -274015.000000 0 0 1
-7.670125 -11.636907 -33.561180 36.340077 0.988036 2.747983 0.050960 -0.021698 136664.000000 0 0 1
-6.641825 -10.672407 -33.650400 35.921630 1.014115 2.784087 0.039930 -0.019856 -321310.000000 0 0 1
-6.271025 -10.396007 33.208013 35.357811 1.028016 0.350507 0.028339 -0.016598 111174.000000 0 0 1
-5.121625 -9.348507 33.129143 34.801806 1.069602 0.311296 0.035888 -0.018762 296495.000000 0 0 1
-5.054625 -8.800007 31.808525 33.388196 1.049422 0.308837 0.026685 -0.011232 91933.900000 0 0 1
-3.986325 -7.863307 31.669515 32.873706 1.101602 0.271502 0.030120 -0.017584 -175903.000000 0 0 1
-4.191825 -6.798007 30.576055 31.601890 1.018242 0.255493 0.030435 -0.013630 -38509.400000 0 0 1
-5.248725 -5.916007 30.806425 31.805409 0.845094 0.251297 0.012888 -0.014181 -29197.700000 0 0 1
-6.500925 -6.378207 30.318325 31.656664 0.775870 0.291815 0.020062 -0.008996 -791456.000000 0 0 1
-7.721925 -5.509807 30.469305 31.911826 0.619747 0.301821 0.016202 -0.010252 -282771.000000 0 0 1
-8.745125 -6.106307 29.671415 31.530256 0.609552 0.345088 0.012748 -0.007390 -492643.000000 0 0 1
-9.939825 -5.368407 29.711865 31.787023 0.495203 0.363335 0.022239 -0.009049 -91660.500000 0 0 1
-11.043625 -6.044607 28.865795 31.491793 0.500798 0.411271 0.030157 -0.012544 -144731.000000 0 0 1
-10.807625 -5.800207 27.539325 30.147331 0.492557 0.419012 0.016348 -0.016953 -151557.000000 0 0 1
-11.645625 -6.584007 26.794035 29.948122 0.514562 0.463078 0.028147 -0.024313 -567656.000000 0 0 1
-11.314925 -6.533707 25.306555 28.480494 0.523667 0.476605 0.022030 -0.020035 -502752.000000 0 0 1
-10.089325 -7.122707 24.983105 27.869032 0.614718 0.459111 0.019188 -0.016367 -312201.000000 0 0 1
-9.523525 -6.651107 23.777145 26.462943 0.609643 0.454440 0.018275 -0.015068 -312394.000000 0 0 1
-10.279125 -6.916907 22.431565 25.625751 0.592311 0.504632 0.032163 -0.017182 269434.000000 0 0 1
-11.389325 -6.030007 22.378265 25.823718 0.486924 0.522493 0.020190 -0.013326 64685.200000 0 0 1
-12.360425 -6.319907 21.381465 25.492908 0.472648 0.575864 0.031033 -0.007775 787713.000000 0 0 1
-13.516525 -5.245907 21.376565 25.829702 0.370215 0.595985 0.028365 -0.000227 360363.000000 0 0 1
-13.063225 -3.921407 20.977965 25.021996 0.291628 0.576490 0.016021 0.005249 358946.000000 0 0 1
-14.083925 -2.968907 20.663565 25.182420 0.207759 0.608415 0.024112 0.001205 699639.000000 0 0 1
-13.379425 -1.698907 20.059865 24.172163 0.126303 0.591913 0.006661 0.003437 703102.000000 0 1 0
-12.500525 -0.912907 20.887665 24.359619 0.072900 0.540462 0.014476 -0.004187 306487.000000 0 1 0
-12.749525 0.508093 20.873365 24.464380 -0.039831 0.548678 0.033482 -0.009373 -469904.000000 0 1 0
-12.605725 1.183093 19.527265 23.272689 -0.093580 0.575237 0.042314 -0.015514 437495.000000 0 1 0
-13.516325 0.848093 18.465065 22.899103 -0.062664 0.632814 0.045853 -0.008859 82873.800000 0 1 0
-14.830125 1.360093 18.614065 23.838328 -0.091456 0.674777 0.038168 -0.003700 -44025.000000 0 1 0
-15.738425 0.604093 17.607665 23.623988 -0.038364 0.729767 0.052286 -0.001395 -221298.000000 0 1 0
-16.021325 -0.635907 18.136165 24.207596 0.039670 0.723953 0.029401 0.000946 139800.000000 0 1 0
-16.750325 -1.468907 17.236865 24.079879 0.087470 0.772998 0.030321 0.002212 -49201.600000 0 1 0
-16.809725 -2.929907 17.570565 24.492365 0.172565 0.770748 0.025397 0.007490 -100049.000000 0 1 0
-17.441225 -3.251907 18.784165 25.838267 0.184333 0.756868 0.039190 0.003958 -140165.000000 0 0 1
-17.292125 -4.581707 19.157865 26.211322 0.259008 0.751156 0.047914 0.002601 -343873.000000 0 0 1
-18.089125 -4.985807 20.386965 27.707454 0.268947 0.743959 0.053575 0.005301 -568799.000000 0 0 1
-17.582325 -4.470707 21.611765 28.216905 0.248996 0.698332 0.052708 0.007341 148220.000000 0 0 1
-18.462225 -4.496607 22.742565 29.636084 0.238906 0.696029 0.057576 0.000788 -321977.000000 0 0 1
-18.485725 -5.888607 23.416525 30.409396 0.308386 0.691889 0.065744 0.006239 908878.000000 0 0 1
-17.293125 -6.357807 24.085715 30.324833 0.352311 0.653012 0.035541 -0.007620 625977.000000 0 0 1
-16.226025 -6.781807 23.289125 29.183216 0.395891 0.646775 0.045332 -0.010343 73797.900000 0 0 1
-15.059625 -7.420807 24.133735 29.398943 0.457840 0.607803 0.058503 -0.016744 408741.000000 0 0 1
-15.467325 -8.674807 24.654665 30.370099 0.511133 0.623556 0.067078 -0.020534 238675.000000 0 0 1
-15.113825 -8.919707 26.022885 31.387568 0.533159 0.593331 0.064136 -0.018339 12808.300000 0 0 1
-15.894925 -10.161307 26.466575 32.502006 0.568802 0.619264 0.068477 -0.015191 -385790.000000 0 0 1
-15.573425 -11.422807 25.933025 32.334716 0.632845 0.640130 0.073019 -0.018495 -323119.000000 0 0 1
-14.569325 -12.057407 26.672845 32.696895 0.691338 0.616753 0.087007 -0.012231 -222852.000000 0 0 1
-14.600025 -13.591207 26.456735 33.133675 0.749629 0.646022 0.083207 -0.015464 -187940.000000 0 0 1
-15.770425 -14.119707 27.028095 34.330603 0.730228 0.664397 0.067982 -0.015530 -77498.600000 0 0 1
-15.963625 -15.496807 26.854815 34.873621 0.770561 0.691860 0.071977 -0.011771 -64960.300000 0 0 1
-15.090225 -16.492707 27.668915 35.570959 0.829775 0.679557 0.071797 -0.011758 946533.000000 0 0 1
-13.715225 -16.480407 27.249495 34.673422 0.876719 0.666662 0.071062 -0.013346 478407.000000 0 0 1
-12.868325 -17.246507 28.025395 35.333533 0.929770 0.654804 0.074199 -0.016029 166838.000000 0 0 1
-11.433725 -17.408907 27.425805 34.437986 0.989674 0.649506 0.071462 -0.017469 -129839.000000 0 0 1
-10.672025 -18.324207 28.121715 35.220726 1.043418 0.646093 0.074507 -0.030492 -955503.000000 0 0 1
-9.595125 -18.669807 27.305745 34.441716 1.096061 0.655390 0.072483 -0.028003 -1271010.000000 0 0 1
-8.549925 -19.328407 28.159145 35.208322 1.154322 0.643857 0.087955 -0.036555 -998588.000000 0 0 1
-8.968625 -20.461107 28.900935 36.528854 1.157693 0.658059 0.086247 -0.034434 -214529.000000 0 0 1
-7.898725 -21.013007 29.588025 37.140107 1.211240 0.649048 0.099092 -0.036432 -130553.000000 0 0 1
-8.473525 -22.218507 30.388435 38.586521 1.206451 0.663989 0.083357 -0.026604 239242.000000 0 0 1
-8.642025 -23.382607 29.548255 38.659155 1.216775 0.700799 0.085915 -0.032924 63693.500000 0 0 1
-9.145925 -24.464607 30.311205 40.011674 1.213040 0.711231 0.062588 -0.030113 -188024.000000 0 0 1
-9.159225 -25.785507 29.538935 40.265772 1.229489 0.747193 0.064407 -0.027246 -64230.900000 0 0 1
-10.105925 -25.906307 28.495285 39.815169 1.198858 0.773186 0.057292 -0.026550 130308.000000 0 0 1
-9.716625 -26.941807 27.563335 39.749354 1.224663 0.804560 0.049404 -0.023873 185783.000000 0 0 1
-10.861725 -27.377907 26.573225 39.669423 1.193109 0.836767 0.038697 -0.017719 155382.000000 0 0 1
-11.229525 -26.530107 25.516635 38.484379 1.170388 0.845925 0.041934 -0.022515 243143.000000 0 0 1
-11.870525 -25.323007 25.879445 38.103933 1.132448 0.824151 0.044333 -0.021271 -481606.000000 0 0 1
-12.256525 -24.358207 24.734255 36.814780 1.104609 0.834084 0.051310 -0.034797 -647144.000000 0 0 1
-13.345425 -24.698907 23.957815 36.906818 1.075412 0.864339 0.041062 -0.031040 -527345.000000 0 0 1
-13.446525 -23.814707 22.870465 35.651191 1.056789 0.874336 0.065753 -0.037720 423291.000000 0 0 1
-14.830925 -23.895507 22.147665 35.797634 1.015326 0.903721 0.061141 -0.035037 235012.000000 0 0 1
-15.231425 -25.156607 21.630665 36.506668 1.026369 0.936622 0.067417 -0.042888 330310.000000 0 0 1
-16.165125 -25.106307 20.545565 36.245802 0.998745 0.968131 0.085707 -0.041959 -23640.200000 0 0 1
-16.604325 -26.508607 20.096165 37.178834 1.011209 0.999733 0.095309 -0.033603 11730.700000 0 0 1
-15.655125 -27.163007 19.283665 36.807222 1.047956 1.019362 0.099129 -0.038627 71719.400000 0 0 1
-15.982825 -28.499507 19.079665 37.837893 1.059691 1.042286 0.107601 -0.028654 258244.000000 0 0 1
-15.023625 -29.131307 18.032865 37.410247 1.094651 1.067826 0.107016 -0.027807 350154.000000 0 0 1
-15.248325 -28.739807 16.716765 36.577837 1.082997 1.096156 0.115160 -0.034067 13846.600000 0 0 1
-14.041425 -28.876007 15.992365 35.871174 1.118196 1.108698 0.107296 -0.037603 237342.000000 0 0 1
-14.081825 -28.363607 14.496565 34.827322 1.109973 1.141489 0.106975 -0.029045 -33405.400000 0 0 1
-14.302125 -26.966507 14.371565 33.738482 1.083152 1.130763 0.102915 -0.029057 -91239.800000 0 0 1
-14.647925 -26.566207 13.065765 33.030883 1.066899 1.164117 0.093328 -0.026305 568037.000000 0 0 1
-13.531125 -26.741007 11.970965 32.271919 1.102355 1.190775 0.076339 -0.022306 564879.000000 0 0 1
-14.017125 -26.209507 10.794965 31.621975 1.079690 1.222416 0.055858 -0.003445 -91014.000000 0 0 1
-13.329625 -26.786507 9.704165 31.454199 1.109051 1.257162 0.061492 -0.008584 37233.900000 0 0 1
-13.381625 -25.969607 8.388965 30.395116 1.094999 1.291169 0.066816 -0.007823 -1229870.000000 0 0 1
-14.462725 -26.144607 7.583265 30.825586 1.065513 1.322239 0.059371 -0.019376 -1192650.000000 0 0 1
-14.503925 -25.396307 6.369265 29.931652 1.051895 1.356363 0.058807 -0.020595 213199.000000 0 0 1
-15.602925 -25.956007 5.421065 30.766109 1.029547 1.393669 0.064929 -0.016806 300382.000000 0 0 1
-15.236625 -27.158407 4.755165 31.501514 1.059526 1.419267 0.061466 -0.024199 -66480.700000 0 0 1
-15.942825 -27.289507 3.551365 31.804135 1.042067 1.458899 0.076804 -0.016949 -319010.000000 0 0 1
-15.491525 -28.553807 2.823865 32.607996 1.073700 1.484087 0.074900 -0.015895 524195.000000 0 0 1
-14.208825 -28.373607 2.214265 31.809672 1.106528 1.501130 0.057219 -0.009237 -115597.000000 0 0 1
-13.662025 -29.610307 1.908565 32.665943 1.138507 1.512336 0.053917 -0.013538 665339.000000 0 0 1
-12.238325 -29.370207 1.270765 31.843374 1.175984 1.530879 0.046614 -0.014019 429189.000000 0 0 1
-12.249125 -28.749807 0.003065 31.250479 1.168029 1.570698 0.052096 -0.013871 -182661.000000 0 0 1
-12.386625 -27.379707 -0.052235 30.051282 1.145947 1.572535 0.046218 -0.020309 -160813.000000 0 0 1
-12.321425 -26.792907 -1.496435 29.528235 1.139760 1.621496 0.053313 -0.022575 484528.000000 0 0 1
-11.005825 -27.032607 -1.986835 29.254701 1.184157 1.638764 0.064530 -0.025720 41875.100000 0 0 1
-10.767425 -26.176507 -3.131435 28.477233 1.180553 1.680982 0.084650 -0.030070 -922829.000000 0 0 1
-9.357725 -26.390607 -3.570735 28.227315 1.230042 1.697635 0.076198 -0.032212 -1247520.000000 0 0 1
-8.875125 -25.475407 -4.506335 27.350891 1.235565 1.736311 0.078917 -0.032999 -1156410.000000 0 0 1
-7.645825 -25.970107 -4.901535 27.512363 1.284477 1.749910 0.094811 -0.019234 -531195.000000 0 0 1
-6.820425 -24.968407 -5.778335 26.520345 1.304140 1.790441 0.065327 -0.014492 -21617.900000 0 0 1
-7.229225 -24.729007 -7.098835 26.724126 1.286384 1.839658 0.074529 -0.012456 -290397.000000 0 0 1
-6.350525 -23.805707 -7.678335 25.806931 1.310102 1.872901 0.063637 -0.006365 -555818.000000 0 0 1
-6.482525 -23.557507 -9.236335 26.120665 1.302264 1.932216 0.067971 -0.004277 -271365.000000 0 0 1
-6.070425 -24.627407 -10.002235 27.265435 1.329123 1.946413 0.053367 -0.005147 -155468.000000 0 0 1
-6.163725 -24.568907 -11.433635 27.791198 1.324994 1.994799 0.041221 0.004255 982423.000000 0 0 1
-7.588825 -25.073907 -11.906335 28.775891 1.276903 1.997378 0.046152 -0.002800 993068.000000 0 0 1
-7.732325 -24.971907 -13.302335 29.331503 1.270518 2.041504 0.045446 -0.000006 -440132.000000 0 0 1
-8.768825 -25.777407 -13.770135 30.512024 1.242901 2.039020 0.061397 -0.002777 -793516.000000 0 0 1
-8.981125 -25.736007 -15.310035 31.263394 1.235038 2.082555 0.066321 -0.011335 94815.000000 0 0 1
-8.030425 -26.351007 -16.139235 31.927076 1.274989 2.100761 0.059909 -0.020170 1043400.000000 0 0 1
-6.683525 -25.808207 -16.164535 31.177319 1.317394 2.115858 0.066525 -0.017589 1523180.000000 0 0 1
-5.579125 -26.734907 -16.784435 32.056187 1.365066 2.121861 0.057504 -0.016598 159021.000000 0 0 1
-5.622025 -26.706807 -18.166135 32.785197 1.363317 2.158073 0.093905 -0.024923 -77139.500000 0 0 1
-4.691125 -27.536807 -18.812635 33.677851 1.402058 2.163500 0.075840 -0.027757 46563.000000 0 0 1
-25.570965 14.459174 -4.283800 29.686578 -0.514630 1.715603 0.091109 -0.032121 -6286.980000 0 0 1
-25.340555 13.093374 -4.056300 28.810306 -0.476915 1.712059 0.094420 -0.019438 646417.000000 0 0 1
-24.127625 12.675374 -4.691500 27.655335 -0.483719 1.741262 0.102989 -0.017370 258073.000000 0 0 1
-23.869525 11.134374 -4.644100 26.745021 -0.436464 1.745325 0.108739 -0.027940 1535.090000 0 0 1
-24.521025 10.331374 -5.603100 27.192143 -0.398756 1.778339 0.110858 -0.027769 1508210.000000 0 0 1
-25.949965 10.092874 -5.406300 28.363618 -0.370932 1.762577 0.124731 -0.029935 1636110.000000 0 0 1
-26.612645 9.577074 -6.749000 29.077520 -0.345440 1.805036 0.139630 -0.026831 12981.400000 0 0 1
-26.525745 10.540174 -7.758500 29.578788 -0.378225 1.836201 0.171556 -0.016098 14290.900000 0 0 1
-26.714455 9.883274 -9.024700 29.879531 -0.354345 1.877624 0.156132 -0.014541 -153493.000000 0 0 1
-27.095595 10.867174 -10.192100 30.921604 -0.381427 1.906688 0.121698 -0.017686 -68621.400000 0 0 1
-26.075415 11.723974 -10.688200 30.522392 -0.422536 1.928555 0.116545 -0.012389 199587.000000 0 0 1
-26.404175 12.495074 -11.826100 31.514504 -0.441998 1.955472 0.110834 -0.012719 -253508.000000 0 0 1
-25.279945 13.485874 -12.180400 31.133688 -0.490057 1.972763 0.080028 -0.002625 -67060.700000 0 0 1
-25.069845 14.589274 -11.339300 31.143599 -0.527038 1.943460 0.080516 0.000659 75122.200000 0 0 1
-24.582025 15.666374 -12.096400 31.560008 -0.567403 1.964144 0.059626 0.005026 -110018.000000 0 0 1
-24.669625 17.059574 -11.419500 32.093994 -0.605013 1.934582 0.060714 -0.002881 209723.000000 0 0 1
-23.653025 17.353774 -10.473100 31.149717 -0.632975 1.913695 0.055921 0.005408 139644.000000 0 0 1
-23.879625 18.605774 -9.897800 31.849297 -0.661897 1.886799 0.035783 0.008597 607380.000000 0 0 1
-22.766625 18.854574 -8.809200 30.845035 -0.691682 1.860424 0.029959 0.002533 409416.000000 0 0 1
-22.939525 18.198774 -7.527500 30.233763 -0.670665 1.822420 0.047152 -0.009063 336594.000000 0 0 1
-23.965125 18.810674 -6.745000 31.203584 -0.665477 1.788677 0.038112 -0.015925 49391.400000 0 0 1
-24.113125 18.010174 -5.418400 30.580520 -0.641516 1.748921 0.048890 -0.017191 76362.000000 0 0 1
-23.017725 18.038774 -4.519900 29.591257 -0.664717 1.724141 0.061245 -0.027888 65728.900000 0 0 1
-23.336125 17.490474 -3.280600 29.347125 -0.643182 1.682817 0.060458 -0.026334 -82175.400000 0 0 1
-22.141625 17.312074 -2.301200 28.200265 -0.663594 1.652489 0.066248 -0.035045 -319552.000000 0 0 1
-21.701025 18.567574 -1.822900 28.618390 -0.707741 1.634536 0.065023 -0.034575 672197.000000 0 0 1
-20.571925 18.396274 -0.951800 27.613998 -0.729625 1.605271 0.112150 -0.044923 344873.000000 0 0 1
-20.005725 19.725174 -0.433800 28.098037 -0.778337 1.586236 0.102769 -0.037392 52576.500000 0 0 1
-20.824525 20.385174 0.525400 29.146049 -0.774737 1.552769 0.076479 -0.028153 287937.000000 0 0 1
-20.172825 21.550574 0.909700 29.532993 -0.818407 1.539989 0.074318 -0.028117 175023.000000 0 0 1
-21.084125 22.397874 1.820600 30.814277 -0.815603 1.511679 0.059611 -0.024534 116601.000000 0 0 1
-20.885625 22.095474 3.182500 30.570371 -0.813539 1.466503 0.070152 -0.015990 626371.000000 0 0 1
-22.130125 22.038274 3.891900 31.473399 -0.783319 1.446822 0.060152 -0.017919 500126.000000 0 0 1
-21.938625 21.601874 5.310900 31.243397 -0.777664 1.399982 0.062933 -0.011625 -150896.000000 0 0 1
-21.201225 22.588474 6.006100 31.556367 -0.817067 1.379299 0.060329 -0.008291 76435.300000 0 0 1
-20.467925 22.046974 7.083900 30.906094 -0.822522 1.339533 0.051259 -0.007560 -26325.900000 0 0 1
-21.226825 21.785874 8.440300 31.566455 -0.798395 1.300121 0.047669 -0.019746 -796943.000000 0 0 1
-22.297225 20.919674 8.264300 31.671717 -0.753534 1.306804 0.055198 -0.016893 57792.400000 0 0 1
-22.934325 20.488874 9.473600 32.179595 -0.729141 1.271971 0.065525 -0.023865 186642.000000 0 0 1
-23.505025 21.452774 10.578300 33.535178 -0.739781 1.249877 0.057397 -0.017160 -1044000.000000 0 0 1
-24.786725 21.890674 10.229500 34.615401 -0.723434 1.270798 0.068074 -0.016980 -187316.000000 0 0 1
-25.377535 22.612274 11.317600 35.824883 -0.727840 1.249376 0.076562 -0.016324 -204836.000000 0 0 1
-26.750865 23.140474 10.863100 37.001314 -0.713159 1.272819 0.081479 -0.021133 -443185.000000 0 0 1
-27.493295 23.837874 11.835800 38.265019 -0.714306 1.256328 0.082217 -0.020859 118990.000000 0 0 1
-27.068965 25.154474 12.011800 38.855627 -0.748755 1.256508 0.071340 -0.018157 -320275.000000 0 0 1
-27.623835 25.828774 13.281900 40.082548 -0.751829 1.233048 0.086523 -0.015629 -11212.400000 0 0 1
-27.080765 25.331274 14.494900 39.813859 -0.752031 1.198166 0.066957 -0.019888 116007.000000 0 0 1
-27.452935 26.051074 15.651000 40.954559 -0.759203 1.178669 0.073597 -0.014057 774621.000000 0 0 1
-26.236775 26.158274 16.672400 40.627485 -0.783900 1.147934 0.067856 -0.021947 857913.000000 0 0 1
-25.871985 24.929074 17.253500 39.856011 -0.766839 1.123094 0.076347 -0.031919 -537339.000000 0 0 1
-24.711925 25.179374 17.976800 39.596028 -0.794767 1.099541 0.069409 -0.033405 -570397.000000 0 0 1
-24.146225 23.954774 18.796700 38.861128 -0.781418 1.065932 0.079210 -0.031066 -283001.000000 0 0 1
-23.027525 24.147674 19.617500 38.706890 -0.809138 1.039302 0.084706 -0.038756 140023.000000 0 0 1
-22.565625 22.889374 20.139500 37.930599 -0.792520 1.011067 0.091470 -0.039185 -373818.000000 0 0 1
-21.080425 22.888574 20.543700 37.286925 -0.826498 0.987279 0.069571 -0.040224 -225807.000000 0 0 1
-20.248825 22.947274 19.347800 36.206763 -0.847787 1.007034 0.058762 -0.039725 -97625.500000 0 0 1
-18.904225 22.629174 19.506400 35.354616 -0.874844 0.986353 0.050696 -0.036272 -452741.000000 0 0 1
-18.626625 21.077774 19.513500 34.234491 -0.847055 0.964296 0.047157 -0.026420 -392914.000000 0 0 1
-19.201825 20.364674 20.628400 34.770115 -0.814779 0.935670 0.061624 -0.028377 87175.000000 0 0 1
-18.403025 20.378674 21.783700 35.049840 -0.836297 0.900132 0.047697 -0.025132 -416304.000000 0 0 1
-19.213225 20.123974 23.076600 36.147639 -0.808546 0.878380 0.050761 -0.030620 -153994.000000 0 0 1
-20.118825 21.194174 23.282200 37.363364 -0.811422 0.898059 0.065756 -0.036859 -16462.400000 0 0 1
-20.973325 20.904274 24.364700 38.347198 -0.783749 0.882307 0.077150 -0.033351 -456042.000000 0 0 1
-22.200925 21.779974 24.464700 39.569810 -0.775827 0.904261 0.084653 -0.035593 -1049990.000000 0 0 1
-21.781825 23.144574 24.653400 40.223244 -0.815722 0.911053 0.087104 -0.040600 549206.000000 0 0 1
-22.798425 24.144574 24.859800 41.481783 -0.814067 0.928177 0.088157 -0.036931 273025.000000 0 0 1
-23.693525 24.439974 23.621800 41.432896 -0.800905 0.964142 0.079892 -0.040728 55700.900000 0 0 1
-24.600725 23.381474 23.340900 41.190856 -0.759993 0.968359 0.084747 -0.045324 393245.000000 0 0 1
-25.444805 23.783674 22.223300 41.315570 -0.751668 1.002862 0.076180 -0.043137 762752.000000 0 0 1
-26.724585 22.891474 22.110300 41.558253 -0.708296 1.009798 0.091732 -0.033177 607423.000000 0 0 1
-27.940125 23.386774 22.640700 42.897472 -0.696917 1.014804 0.102211 -0.043668 155043.000000 0 0 1
-28.961785 22.430074 22.515500 42.998150 -0.658980 1.019680 0.099476 -0.037151 662859.000000 0 0 1
-30.424665 22.964274 22.701400 44.366335 -0.646561 1.033656 0.124050 -0.026564 -123126.000000 0 0 1
-30.738975 23.892874 21.686300 44.565116 -0.660735 1.062579 0.111509 -0.035864 402783.000000 0 0 1
-32.119895 24.200174 21.551600 45.626829 -0.645694 1.078847 0.100377 -0.034304 40304.600000 0 0 1
-33.005705 23.176474 20.885500 45.417283 -0.612198 1.092961 0.095065 -0.039973 -1368100.000000 0 0 1
-33.024405 21.872474 21.499300 45.069239 -0.584982 1.073526 0.088815 -0.037366 68229.000000 0 0 1
-33.676945 20.929974 20.714700 44.735883 -0.556073 1.089369 0.113355 -0.041641 -497870.000000 0 0 1
-35.200423 20.933874 20.634700 45.859434 -0.536517 1.104081 0.108087 -0.043091 -548339.000000 0 0 1
-35.836898 20.134574 19.645800 45.559212 -0.511887 1.124958 0.114669 -0.035272 208389.000000 0 0 1
36.168162 20.170674 19.791100 45.898581 0.508729 1.124983 0.110705 -0.038182 339996.000000 0 0 1
35.442392 19.226474 18.782000 44.481277 0.497045 1.134876 0.138867 -0.045786 -43871.400000 0 0 1
35.556752 17.816174 19.046500 44.096121 0.464498 1.124163 0.162491 -0.042724 171739.000000 0 0 1
34.965532 17.132974 17.940300 42.871688 0.455613 1.139042 0.177175 -0.056808 -220469.000000 0 0 1
35.220432 15.623174 17.737400 42.416716 0.417504 1.139366 0.192456 -0.067985 -134487.000000 0 0 1
34.405472 15.055174 16.728800 41.112620 0.412478 1.151736 0.217268 -0.064871 -120961.000000 0 0 1
34.656812 13.692874 16.549900 40.773627 0.376274 1.152836 0.178097 -0.055638 -403184.000000 0 0 1
33.606752 13.041474 15.678800 39.310541 0.370172 1.160540 0.166050 -0.060487 -479471.000000 0 0 1
33.640932 13.461874 14.335100 38.967031 0.380647 1.194071 0.168888 -0.058339 399666.000000 0 0 1
32.789352 12.633674 13.502300 37.643903 0.367768 1.203938 0.169424 -0.056785 92834.000000 0 0 1
32.975302 12.876274 12.006800 37.380907 0.372275 1.243798 0.168918 -0.057615 88219.500000 0 0 1
34.275792 12.473774 11.579800 38.269005 0.349025 1.263388 0.160264 -0.053635 557814.000000 0 0 1
34.319132 12.415974 10.173700 37.887510 0.347130 1.298936 0.137681 -0.039258 949133.000000 0 0 1
35.814282 12.374274 9.637300 39.098120 0.332671 1.321739 0.119914 -0.023588 1272610.000000 0 0 1
36.555562 11.200174 10.049200 39.531499 0.297307 1.313768 0.109700 -0.018867 1262890.000000 0 0 1
-35.444646 11.245074 9.802100 38.455894 -0.307213 1.313060 0.112020 -0.013292 1235170.000000 0 0 1
-34.881017 10.988974 8.350800 37.512381 -0.305199 1.346301 0.126276 -0.026260 -223031.000000 0 0 1
-35.355089 11.993274 7.460500 38.072037 -0.327042 1.373563 0.110148 -0.028416 66355.000000 0 0 1
-34.908718 11.831374 6.131600 37.365713 -0.326773 1.405954 0.115050 -0.036431 8793.760000 0 0 1
-35.756181 12.751774 5.216600 38.318731 -0.342570 1.434235 0.118717 -0.035980 -771707.000000 0 0 1
36.342202 12.347074 5.248000 38.739481 0.327510 1.434909 0.111438 -0.040973 -445695.000000 0 0 1
35.384782 13.387374 4.894000 38.147816 0.361693 1.442151 0.091994 -0.033614 1002080.000000 0 0 1
34.664962 13.993174 6.158200 37.886567 0.383665 1.407529 0.111684 -0.028246 -1197210.000000 0 0 1
33.783522 15.042874 5.768900 37.428527 0.418916 1.416048 0.097794 -0.020565 62933.800000 0 0 1
33.059862 15.521674 6.864700 37.161821 0.438953 1.385005 0.104069 -0.021314 493415.000000 0 0 1
31.863222 14.611874 7.321500 35.810280 0.429967 1.364892 0.116114 -0.036811 -473028.000000 0 0 1
32.334502 13.439574 7.992200 35.916813 0.393918 1.346398 0.124933 -0.030600 322820.000000 0 0 1
31.437032 12.305974 7.922700 34.676983 0.373113 1.340289 0.138561 -0.022136 106640.000000 0 0 1
31.659932 11.343974 6.708800 34.293513 0.344056 1.373898 0.135091 -0.023789 -54774.000000 0 0 1
31.103732 11.840474 5.480900 33.729501 0.363738 1.407577 0.137095 -0.032774 347725.000000 0 0 1
31.380322 10.924774 4.418500 33.520120 0.335018 1.438595 0.141353 -0.036859 -231551.000000 0 0 1
30.590502 11.171874 3.131300 32.716886 0.350158 1.474941 0.116070 -0.042832 -864118.000000 0 0 1
29.271712 10.764574 3.173200 31.349296 0.352396 1.469402 0.113493 -0.040331 -555683.000000 0 0 1
28.517492 11.258374 2.076600 30.729637 0.376006 1.503168 0.120993 -0.042089 680760.000000 0 0 1
26.976762 10.987074 2.169000 29.209006 0.386766 1.496470 0.154233 -0.031875 805176.000000 0 0 1
26.576662 9.637174 1.821500 28.328642 0.347871 1.506453 0.118111 -0.035973 -300981.000000 0 0 1
25.223562 9.391874 2.091600 26.996485 0.356441 1.493242 0.121234 -0.032529 -515262.000000 0 0 1
24.828962 7.885474 2.267900 26.149597 0.307517 1.483959 0.121417 -0.026893 663678.000000 0 0 1
25.563162 7.149474 3.315800 26.750416 0.272711 1.446523 0.141047 -0.021160 1274730.000000 0 0 1
26.980162 7.051274 3.208800 28.070376 0.255632 1.456233 0.173945 -0.032088 79882.200000 0 0 1
27.635662 6.503974 4.487800 28.743205 0.231141 1.414021 0.171592 -0.033096 -204395.000000 0 0 1
29.045712 6.578374 4.478600 30.116213 0.222726 1.421532 0.192872 -0.033722 172370.000000 0 0 1
29.558262 5.951074 5.633500 30.673156 0.198678 1.386086 0.180680 -0.023684 62443.700000 0 0 1
31.100292 5.836274 5.616600 32.137773 0.185502 1.395128 0.168836 -0.034577 -92921.600000 0 0 1
31.788612 7.004874 5.891500 33.080113 0.216892 1.391743 0.156598 -0.036573 -915330.000000 0 0 1
33.091102 6.714474 6.321300 34.352060 0.200191 1.385727 0.110566 -0.027457 -36212.400000 0 0 1
33.606222 7.888474 7.237800 35.270270 0.230558 1.364118 0.103462 -0.028568 423566.000000 0 0 1
32.745482 7.971874 8.376600 34.727292 0.238804 1.327183 0.119963 -0.032899 706548.000000 0 0 1
33.343192 8.858374 9.354100 35.745467 0.259674 1.306027 0.115277 -0.030643 188539.000000 0 0 1
32.738772 8.774474 10.771100 35.564522 0.261861 1.263103 0.131984 -0.041952 -67929.600000 0 0 1
31.423642 9.275574 10.914300 34.534092 0.287027 1.249239 0.125402 -0.044519 254762.000000 0 0 1
30.932332 9.192574 12.230200 34.509280 0.288871 1.208521 0.103854 -0.050266 666716.000000 0 0 1
29.446192 9.668174 12.449700 33.399803 0.317244 1.188828 0.089381 -0.055277 641238.000000 0 0 1
29.134582 11.093374 12.670300 33.651498 0.363814 1.184765 0.113717 -0.059880 249023.000000 0 0 1
29.181332 11.859774 11.465100 33.520932 0.386026 1.221722 0.114343 -0.055596 -739028.000000 0 0 1
27.920762 11.851774 10.617900 32.136791 0.401429 1.234072 0.084229 -0.043286 -677495.000000 0 0 1
27.996162 12.905074 9.678500 32.310980 0.431930 1.266584 0.073946 -0.018577 130326.000000 0 0 1
26.952462 12.878174 8.727400 31.119931 0.445739 1.286540 0.069743 -0.018190 22023.000000 0 0 1
27.109062 14.135474 7.816200 31.556392 0.480644 1.320501 0.080311 -0.018205 180415.000000 0 0 1
26.520162 15.282674 8.399200 31.739970 0.522785 1.302981 0.071237 -0.009579 345382.000000 0 0 1
26.807162 16.358374 7.529900 32.294268 0.547903 1.335465 0.070486 -0.007019 -1065060.000000 0 0 1
26.344862 17.677174 8.144200 32.754576 0.590991 1.319517 0.082388 -0.016830 735956.000000 0 0 1
24.969362 18.021674 7.961700 31.806264 0.625176 1.317787 0.086525 -0.013559 881659.000000 0 0 1
23.991262 17.169174 8.527000 30.709460 0.621148 1.289432 0.090074 -0.012143 -685705.000000 0 0 1
22.602462 17.803274 8.734600 30.068607 0.667177 1.276058 0.095495 -0.018945 -153529.000000 0 0 1
21.985562 18.311974 7.607100 29.606778 0.694488 1.310944 0.100405 -0.015802 62001.400000 0 0 1
21.064462 19.360074 7.829200 29.661767 0.743261 1.303682 0.122823 -0.024305 155188.000000 0 0 1
20.326962 19.897674 6.568400 29.193265 0.774726 1.343856 0.103777 -0.021484 -72512.800000 0 0 1
21.188462 20.432574 5.621900 29.967429 0.767239 1.382078 0.078105 -0.014032 -175841.000000 0 0 1
20.437762 20.979674 4.589700 29.646487 0.798482 1.415357 0.081959 -0.024165 -230525.000000 0 0 1
17.655275 16.760074 32.766001 40.819354 0.759392 0.638975 0.096148 -0.013776 55148.900000 0 0 1
16.996575 17.695374 31.916545 40.257616 0.805538 0.655394 0.082137 -0.016068 162474.000000 0 0 1
16.323875 17.086474 30.875885 38.881059 0.808219 0.653253 0.090864 -0.018594 -236269.000000 0 0 1
16.040375 17.987074 29.726795 38.268928 0.842546 0.681249 0.100407 -0.024239 603899.000000 0 0 1
17.212775 18.249274 28.947935 38.305334 0.814618 0.714050 0.110723 -0.018273 480047.000000 0 0 1
16.842075 18.737174 27.664885 37.417684 0.838612 0.738687 0.114707 -0.025358 -199457.000000 0 0 1
17.998575 18.961674 26.683195 37.356214 0.811450 0.775186 0.102581 -0.019266 -741106.000000 0 0 1
18.835275 20.018574 26.953805 38.496994 0.815844 0.795184 0.107825 -0.020370 -522196.000000 0 0 1
19.527075 20.306274 25.801315 38.201561 0.804957 0.829290 0.082889 -0.015144 -735102.000000 0 0 1
20.309575 21.596874 25.890005 39.359830 0.816107 0.852932 0.089702 -0.016643 -458493.000000 0 0 1
19.511275 22.748574 25.969665 39.656160 0.861853 0.856785 0.085312 -0.025556 103946.000000 0 0 1
20.286875 23.900874 26.270865 40.901925 0.867004 0.873315 0.083241 -0.025731 -151796.000000 0 0 1
19.551575 25.245674 26.231395 41.324257 0.911828 0.883086 0.099550 -0.028953 -85618.900000 0 0 1
19.352775 25.646874 24.843055 40.613661 0.924367 0.912599 0.096655 -0.027851 127524.000000 0 0 1
18.429775 26.707374 24.811995 40.848201 0.966771 0.917988 0.098378 -0.037086 -169011.000000 0 0 1
18.512475 27.614274 23.559905 40.747135 0.980217 0.954278 0.089488 -0.035227 338414.000000 0 0 1
19.761475 28.305674 23.495425 41.758378 0.961316 0.973206 0.102080 -0.033232 520370.000000 0 0 1
19.652375 29.265974 22.462965 41.800693 0.979449 1.003466 0.095327 -0.025875 1464900.000000 0 0 1
21.064775 29.974774 22.219665 42.847700 0.958227 1.025615 0.100267 -0.024143 1443840.000000 0 0 1
21.984575 29.235774 21.416465 42.387699 0.926032 1.041123 0.097064 -0.024697 -849021.000000 0 0 1
23.153075 29.944574 21.238665 43.403033 0.912613 1.059468 0.097313 -0.037351 -723030.000000 0 0 1
23.431275 30.406874 19.768265 43.178547 0.914246 1.095248 0.098676 -0.032644 -142792.000000 0 0 1
22.646375 31.448274 19.215365 43.256011 0.946698 1.110488 0.079837 -0.030076 155981.000000 0 0 1
22.714775 31.427974 17.796765 42.666186 0.944960 1.140526 0.092189 -0.020048 -18603.000000 0 0 1
22.157175 32.671274 17.052065 43.001459 0.974862 1.163045 0.103146 -0.025473 -127411.000000 0 0 1
23.040775 33.799974 17.245265 44.392733 0.972472 1.171825 0.094536 -0.024678 685117.000000 0 0 1
23.446575 -33.839607 16.016865 44.174663 -0.964869 1.199761 0.090321 -0.026112 24826.600000 0 0 1
24.386075 33.495474 15.083565 44.092419 0.941498 1.221656 0.076931 -0.026030 -339395.000000 0 0 1
23.923975 32.426474 14.266265 42.747621 0.935155 1.230536 0.091798 -0.031112 -265087.000000 0 0 1
22.921175 32.794874 13.344065 42.177578 0.960792 1.248887 0.083183 -0.032496 -28195.500000 0 0 1
22.325575 31.743374 12.444965 40.754758 0.957849 1.260477 0.082832 -0.042518 50976.400000 0 0 1
23.272575 31.362274 11.473265 40.704310 0.932399 1.285055 0.092167 -0.055738 71510.800000 0 0 1
22.786375 30.195374 10.832965 39.348858 0.924338 1.291889 0.077743 -0.051121 -462697.000000 0 0 1
23.817575 29.569374 9.894165 39.236708 0.892722 1.315878 0.072211 -0.046884 763141.000000 0 0 1
25.053075 29.012674 10.362765 39.708673 0.858504 1.306770 0.080838 -0.034083 1392920.000000 0 0 1
26.016175 29.999374 10.787165 41.148108 0.856387 1.305542 0.075197 -0.037198 66605.300000 0 0 1
27.429875 29.599774 11.248865 41.893695 0.823428 1.298951 0.078557 -0.035062 398483.000000 0 0 1
27.332675 28.777274 12.388665 41.577466 0.811138 1.268235 0.085279 -0.027116 -366211.000000 0 0 1
28.631775 28.608674 12.878565 42.474607 0.784995 1.262741 0.061020 -0.010545 -256413.000000 0 0 1
28.766475 27.454474 13.878465 42.117337 0.762066 1.235002 0.045709 -0.013731 -296194.000000 0 0 1
29.852975 27.618974 14.747765 43.260888 0.746547 1.222919 0.028808 -0.025091 -158977.000000 0 0 1
30.011375 26.497474 15.588565 42.962800 0.723295 1.199484 0.045919 -0.019654 335135.000000 0 0 1
31.206675 26.552574 16.610265 44.213083 0.704994 1.185659 0.049203 -0.027386 296878.000000 0 0 1
32.452575 26.523374 15.957365 44.847481 0.685199 1.207011 0.072513 -0.021515 -736807.000000 0 0 1
33.472875 26.707874 16.865765 46.023885 0.673457 1.195598 0.051865 -0.025331 -852799.000000 0 0 1
34.865475 26.877374 16.284065 46.937889 0.656736 1.216503 0.068756 -0.030231 -371989.000000 0 0 1
35.168475 28.163074 15.754365 47.730288 0.675231 1.234418 0.074003 -0.026715 -1325730.000000 0 0 1
36.514775 28.294274 15.529865 48.734705 0.659230 1.246479 0.098559 -0.027132 -980726.000000 0 0 1
-36.468211 29.490074 14.729865 49.158558 -0.679994 1.266481 0.070368 -0.024240 -59568.000000 0 0 1
36.663075 30.698474 15.384865 50.232176 0.697082 1.259519 0.057860 -0.020449 67167.100000 0 0 1
36.573275 31.736174 14.371265 50.510618 0.714705 1.282291 0.035088 -0.003298 -610071.000000 0 0 1
35.503875 32.758474 14.642965 50.478304 0.745201 1.276481 0.004232 -0.001855 -1344180.000000 0 0 1
35.317375 33.755874 13.635765 50.721890 0.762796 1.298614 -0.027820 0.001447 776159.000000 0 0 1
34.047375 -33.817307 13.574665 49.870889 -0.782008 1.295122 -0.029330 0.011073 957375.000000 0 0 1
32.732075 33.629174 13.301365 48.777417 0.798916 1.294603 0.005023 0.001571 -124085.000000 0 0 1
32.425775 32.716974 14.346865 48.245869 0.789868 1.268860 -0.000237 -0.017926 -451966.000000 0 0 1
31.543575 31.759974 13.836265 46.852271 0.788817 1.271009 0.027327 -0.019172 -687794.000000 0 0 1
31.013775 30.829274 14.961565 46.218469 0.782415 1.241144 0.050228 -0.024793 -702228.000000 0 0 1
30.041175 31.436274 15.720665 46.236899 0.808087 1.223877 0.049523 -0.024300 -476774.000000 0 0 1
29.570175 30.583474 16.715565 45.707267 0.802242 1.196402 0.049086 -0.023563 71100.300000 0 0 1
28.507175 31.162474 17.687465 45.788702 0.829869 1.174196 0.047190 -0.024943 95522.700000 0 0 1
28.133075 30.200774 18.693965 45.310275 0.820829 1.145515 0.037297 -0.017508 645866.000000 0 0 1
29.155175 29.980174 19.704865 46.228961 0.799348 1.130459 0.049295 -0.027825 573262.000000 0 0 1
28.909875 28.736774 20.600065 45.672155 0.782395 1.102864 0.056951 -0.026724 -165597.000000 0 0 1
27.902675 28.877074 21.572665 45.583161 0.802558 1.077809 0.071779 -0.029772 -128642.000000 0 0 1
27.748775 27.718574 22.325765 45.130407 0.784854 1.053313 0.056815 -0.022939 46818.200000 0 0 1
26.591375 27.662374 23.355425 44.919751 0.805136 1.024020 0.068270 -0.027300 121223.000000 0 0 1
25.293775 27.679274 22.745665 43.855246 0.830400 1.025521 0.096018 -0.024152 454119.000000 0 0 1
24.218375 27.621374 23.650115 43.689792 0.850949 0.998791 0.098382 -0.026108 139349.000000 0 0 1
23.938875 26.347374 24.472885 43.199259 0.833257 0.968530 0.093305 -0.031060 -699163.000000 0 0 1
25.035675 26.024174 25.293965 44.088857 0.804755 0.959775 0.064038 -0.025126 67693.300000 0 0 1
24.706475 24.979174 26.235735 43.848408 0.790887 0.929383 0.081234 -0.028412 -312550.000000 0 0 1
25.922075 24.605274 27.114725 44.861808 0.759343 0.921777 0.080764 -0.032566 159039.000000 0 0 1
26.354775 25.599874 28.054105 46.227271 0.770869 0.918675 0.103555 -0.038020 163094.000000 0 0 1
27.219275 26.520274 27.447935 46.878599 0.772392 0.945286 0.066879 -0.023947 -885200.000000 0 0 1
27.452875 27.929074 28.079045 48.188446 0.793996 0.948759 0.033070 -0.020241 -188891.000000 0 0 1
28.178975 27.741574 29.282775 49.204984 0.777576 0.933384 0.050431 -0.019326 308413.000000 0 0 1
28.450275 29.021874 29.976075 50.500024 0.795343 0.935290 0.051262 -0.021143 191101.000000 0 0 1
29.951875 29.300474 30.193715 51.645842 0.774405 0.946372 0.044916 -0.017181 -66741.900000 0 0 1
30.637375 29.694874 29.056025 51.620605 0.769778 0.972934 0.020538 -0.015875 -189127.000000 0 0 1
32.040775 29.717074 29.274085 52.599314 0.747790 0.980570 0.050504 -0.020028 340007.000000 0 0 1
32.781075 30.225874 28.014285 52.659306 0.744866 1.009846 0.042474 -0.012070 -223174.000000 0 0 1
32.587675 31.597274 27.660955 53.155176 0.769969 1.023499 0.040572 -0.016457 125483.000000 0 0 1
33.087475 31.929574 26.374605 53.008476 0.767591 1.050019 0.034819 -0.015433 -35911.500000 0 0 1
32.842375 33.414274 26.017305 53.591375 0.794030 1.063889 0.033861 -0.023298 -172472.000000 0 0 1
33.735675 -33.987907 26.705935 54.831383 -0.789123 1.062081 0.054456 -0.021960 245430.000000 0 0 1
33.407375 -32.622807 26.402175 53.641170 -0.773517 1.056181 0.052631 -0.023706 643943.000000 0 0 1
34.440675 -31.620707 27.092425 54.037290 -0.742737 1.045620 0.055738 -0.024384 615407.000000 0 0 1
34.350975 -31.471607 28.499615 54.613914 -0.741682 1.021792 0.063477 -0.028329 122412.000000 0 0 1
35.472975 -30.797307 28.991385 55.202414 -0.714960 1.017866 0.073082 -0.034523 -743928.000000 0 0 1
35.259475 -30.529207 30.508325 55.731687 -0.713621 0.991525 0.071848 -0.030153 -93115.600000 0 0 1
35.194875 -31.670707 31.331175 56.774602 -0.732742 0.986213 0.076637 -0.022392 345944.000000 0 0 1
33.954175 -32.355407 31.276075 56.373320 -0.761292 0.982670 0.067619 -0.029456 -234415.000000 0 0 1
33.798675 -33.387807 32.365002 57.485559 -0.779283 0.972772 0.078406 -0.027415 -330353.000000 0 0 1
33.550275 -32.708707 33.626845 57.673609 -0.772698 0.948313 0.070365 -0.026822 178964.000000 0 0 1
33.875975 -33.512107 -33.397990 58.189937 -0.779999 2.182115 0.069002 -0.032090 -238754.000000 0 0 1
33.073175 33.434974 -33.131900 57.527865 0.790838 2.184535 0.058630 -0.028125 -254302.000000 0 0 1
33.191475 32.435974 34.012615 57.538026 0.773887 0.938334 0.073645 -0.036184 100591.000000 0 0 1
32.338175 31.347874 -33.864050 56.349097 0.769850 2.215509 0.077140 -0.028541 -140084.000000 0 0 1
32.526875 30.255774 33.271173 55.501175 0.749240 0.927960 0.067894 -0.023264 1271.690000 0 0 1
33.761075 29.575874 33.316276 55.897377 0.719416 0.932254 0.077926 -0.030277 -150244.000000 0 0 1
33.914075 28.687374 32.278864 54.909517 0.702100 0.942391 0.065841 -0.026132 -479931.000000 0 0 1
35.306675 28.074874 32.159391 55.398432 0.671790 0.951440 0.061881 -0.018273 -476581.000000 0 0 1
35.643775 27.149874 33.182889 55.755704 0.650947 0.933347 0.050191 -0.014173 917015.000000 0 0 1
-36.423611 26.663974 33.062823 55.953527 -0.631915 0.938625 0.022566 -0.006375 893190.000000 0 0 1
-36.055911 25.354874 33.797103 55.544059 -0.612877 0.916660 -0.003235 -0.000741 99426.600000 0 0 1
-36.635211 24.198874 33.208916 55.050489 -0.583746 0.923233 0.008649 -0.000106 114252.000000 0 0 1
-36.493611 23.013374 33.983563 54.920685 -0.562626 0.903614 -0.002707 -0.004952 253311.000000 0 0 1
36.197175 21.852174 33.227324 53.775535 0.543134 0.904741 0.002656 -0.013058 -140935.000000 0 0 1
-36.416811 21.291574 32.228042 53.086363 -0.529066 0.918407 0.008580 -0.004428 374565.000000 0 0 1
36.277075 20.289874 31.516825 52.163353 0.509957 0.922041 0.009354 -0.000498 1014740.000000 0 0 1
-36.111511 19.514974 30.576895 51.184196 -0.495450 0.930555 0.010151 -0.006064 912575.000000 0 0 1
-35.714211 20.287174 29.409475 50.517240 -0.516589 0.949405 0.016331 -0.006187 397777.000000 0 0 1
-34.523811 19.762774 28.828915 49.128069 -0.519907 0.943681 0.036051 -0.007614 314267.000000 0 0 1
-34.853811 18.738574 27.746695 48.330129 -0.493299 0.959283 0.056587 -0.007775 -327520.000000 0 0 1
-35.418311 17.561774 28.283835 48.609135 -0.460313 0.949779 0.048929 -0.004125 232749.000000 0 0 1
-35.948611 16.734574 27.259275 48.118777 -0.435680 0.968544 0.053783 -0.014168 182563.000000 0 0 1
-36.581211 15.413574 27.797975 48.461229 -0.398777 0.959887 0.044658 -0.016932 -343676.000000 0 0 1
-35.604811 14.571174 28.276135 47.744754 -0.388453 0.936966 0.054453 -0.012592 -7408.850000 0 0 1
-36.205011 13.503274 29.037595 48.335527 -0.356987 0.926357 0.073490 -0.020584 450364.000000 0 0 1
-35.222511 12.287874 29.260395 47.410841 -0.335663 0.905660 0.080686 -0.015465 109204.000000 0 0 1
-34.149711 12.709274 30.057475 47.235370 -0.356282 0.881060 0.082250 -0.009251 -69191.100000 0 0 1
-33.469611 11.615774 30.693435 46.874599 -0.334048 0.856880 0.073098 -0.013576 320228.000000 0 0 1
-31.937011 11.869574 30.607415 45.800364 -0.355836 0.838904 0.078209 -0.008218 -708948.000000 0 0 1
-31.514111 11.848974 29.254965 44.602583 -0.359638 0.855418 0.076338 -0.013002 961151.000000 0 0 1
-30.209611 12.361574 28.929995 43.616210 -0.388407 0.845596 0.079831 -0.010951 774571.000000 0 0 1
-28.959811 11.687174 29.496655 42.957111 -0.383576 0.813920 0.080962 -0.014721 -756587.000000 0 0 1
-28.676311 10.409674 28.945795 42.054146 -0.348214 0.811656 0.073625 -0.019727 175713.000000 0 0 1
-27.502411 9.786574 29.454705 41.469740 -0.341872 0.780915 0.081474 -0.019814 6537.860000 0 0 1
-27.119711 8.618974 28.578455 40.329810 -0.307717 0.783258 0.073269 -0.022835 253396.000000 0 0 1
-27.975911 7.453074 28.664305 40.741162 -0.260363 0.790386 0.079602 -0.025316 1129110.000000 0 0 1
-29.223111 7.616374 27.956535 41.152974 -0.254957 0.823944 0.079188 -0.021193 553861.000000 0 0 1
-30.092711 6.318074 27.971705 41.568084 -0.206948 0.832657 0.074947 -0.019549 -113302.000000 0 0 1
-30.933711 6.236074 29.093995 42.921366 -0.198929 0.825970 0.085875 -0.021188 16609.900000 0 0 1
-31.383011 4.942174 29.280355 43.204834 -0.156197 0.826152 0.092881 -0.017969 -90875.600000 0 0 1
-32.113511 4.705174 30.636655 44.632061 -0.145482 0.814232 0.083126 -0.024612 -670901.000000 0 0 1
-33.432111 5.118874 30.714565 45.686907 -0.151933 0.833507 0.093744 -0.026659 -886363.000000 0 0 1
-33.967711 4.681674 31.956075 46.871251 -0.136964 0.820598 0.114352 -0.029405 92972.400000 0 0 1
-35.478011 4.988174 32.031855 48.058411 -0.139683 0.841266 0.100440 -0.033822 -9489.720000 0 0 1
-35.771911 6.374874 32.380874 48.670213 -0.176358 0.842885 0.093869 -0.033149 461919.000000 0 0 1
36.280575 6.782574 32.286470 49.037737 0.184814 0.852105 0.098292 -0.031127 611076.000000 0 0 1
36.085175 8.244574 32.746656 49.421214 0.224620 0.846507 0.080479 -0.024264 -94672.400000 0 0 1
36.211875 8.431174 -34.035271 50.406193 0.228754 2.312059 0.096875 -0.027738 202127.000000 0 0 1
35.923875 9.729374 -33.563810 50.117012 0.264488 2.304613 0.091514 -0.018746 -98150.700000 0 0 1
35.785175 9.822274 -32.018730 49.012804 0.267882 2.282695 0.084398 -0.013024 -193137.000000 0 0 1
34.629075 9.262074 -31.432300 47.675448 0.261348 2.290680 0.080971 -0.014071 95051.200000 0 0 1
34.756975 9.286074 -29.940570 46.805088 0.261074 2.264886 0.054960 -0.004387 667588.000000 0 0 1
33.429675 8.856174 -29.214180 45.270778 0.258971 2.272240 0.048725 -0.006179 569371.000000 0 0 1
33.252075 7.436674 -29.340900 44.965465 0.220025 2.281703 0.060724 -0.009814 -1203960.000000 0 0 1
32.078975 7.021174 -28.837270 43.702925 0.215474 2.291412 0.054180 -0.005377 -1798740.000000 0 0 1
35.662742 6.089074 -19.606800 41.150147 0.169110 2.067431 0.068672 -0.020850 -502049.000000 0 0 1
35.360752 6.876774 -18.495400 40.493859 0.192077 2.045130 0.066954 -0.012724 265526.000000 0 0 1
35.790532 8.224574 -18.554900 41.144746 0.225876 2.038644 0.032507 -0.010874 816035.000000 0 0 1
-36.077035 8.510474 -18.341100 41.356699 -0.231662 2.030280 0.045113 -0.015893 1318070.000000 0 0 1
-35.195047 7.742374 -19.148300 40.808002 -0.216536 2.059214 0.056677 -0.029363 52259.200000 0 0 1
-34.875799 8.424174 -20.360700 41.253438 -0.237008 2.086965 0.041873 -0.022956 -473492.000000 0 0 1
-33.937035 7.589674 -21.224500 40.740703 -0.220019 2.118778 0.031958 -0.013290 -408139.000000 0 0 1
-34.611174 6.480574 -21.708800 41.366692 -0.185096 2.123264 0.037264 -0.009925 -102513.000000 0 0 1
-35.428520 6.680574 -22.815900 42.665857 -0.186376 2.135017 0.029082 -0.001200 -14575.500000 0 0 1
-35.579004 5.391774 -23.665700 43.069735 -0.150399 2.152531 0.061284 0.000240 296717.000000 0 0 1
-34.328052 5.202174 -24.300800 42.379318 -0.150399 2.181461 0.077248 -0.001440 226730.000000 0 0 1
-34.246226 3.911474 -24.812900 42.470974 -0.113723 2.194730 0.105268 -0.005518 270020.000000 0 0 1
-33.086175 3.796774 -25.862170 42.165890 -0.114254 2.231083 0.113437 -0.009855 781879.000000 0 0 1
-31.796135 3.742574 -25.248240 40.773455 -0.117166 2.238561 0.090290 -0.010600 397089.000000 0 0 1
-30.749335 3.613274 -26.196950 40.556843 -0.116971 2.273039 0.100363 -0.005030 962881.000000 0 0 1
-29.320775 3.853774 -25.588060 39.106370 -0.130686 2.284079 0.090185 -0.010743 605300.000000 0 0 1
-28.964775 5.188474 -25.353280 38.841566 -0.177251 2.281986 0.071725 -0.003716 -365421.000000 0 0 1
-27.639965 5.244374 -24.905100 37.573063 -0.187510 2.295408 0.057485 -0.004643 -342173.000000 0 0 1
-27.086555 6.678574 -25.012370 37.468699 -0.241742 2.301715 0.041185 -0.004148 -238428.000000 0 0 1
-27.717665 7.640574 -24.184900 37.570689 -0.268977 2.270142 0.044218 -0.008680 -4867.000000 0 0 1
-27.347955 9.029074 -24.461900 37.786497 -0.318888 2.274927 0.030026 -0.014307 -372530.000000 0 0 1
-26.137205 9.619074 -23.757300 36.607231 -0.352639 2.277037 0.078350 -0.015096 -439092.000000 0 0 1
-26.210935 9.891174 -22.390800 35.863579 -0.360845 2.245073 0.046358 -0.012713 414191.000000 0 0 1
-24.899225 10.073374 -21.863900 34.633428 -0.384436 2.254018 0.095816 -0.023659 228620.000000 0 0 1
-24.940925 10.470274 -20.387600 33.872269 -0.397460 2.216670 0.114179 -0.035460 -997972.000000 0 0 1
-25.213595 11.827874 -20.008000 34.292040 -0.438629 2.193778 0.088579 -0.031319 826876.000000 0 0 1
-26.537785 12.380974 -20.132400 35.536686 -0.436524 2.173078 0.077081 -0.020361 443382.000000 0 0 1
-27.552135 11.639374 -19.223700 35.554828 -0.399708 2.142039 0.058568 -0.017432 -1033990.000000 0 0 1
-27.299855 11.823474 -17.842800 34.690663 -0.408709 2.111034 0.069795 -0.021919 112637.000000 0 0 1
-28.144835 11.090574 -16.979200 34.690428 -0.375370 2.082254 0.046378 -0.022783 -450408.000000 0 0 1
-27.477055 10.873274 -15.593100 33.411995 -0.376813 2.056343 0.072744 -0.021374 317439.000000 0 0 1
-26.597365 9.774474 -15.437400 32.268769 -0.352177 2.069629 0.094011 -0.025800 1319630.000000 0 0 1
-25.291175 9.921074 -16.032400 31.545349 -0.373828 2.103929 0.093625 -0.021745 456139.000000 0 0 1
-24.363225 8.684474 -15.806400 30.312194 -0.342417 2.119350 0.079185 -0.026184 -241873.000000 0 0 1
-23.007825 9.034874 -15.756100 29.312858 -0.374186 2.138284 0.099840 -0.028571 -200670.000000 0 0 1
-22.219325 7.936574 -15.375200 28.161754 -0.343068 2.148331 0.105820 -0.029309 914522.000000 0 0 1
-20.690325 8.272974 -15.164000 26.953266 -0.380375 2.168328 0.130569 -0.036412 866299.000000 0 0 1
-19.979525 8.460574 -16.365700 27.177175 -0.400567 2.217032 0.136478 -0.048948 -55959.200000 0 0 1
-18.592925 8.516174 -16.142400 26.053774 -0.429514 2.239004 0.143350 -0.048112 -132692.000000 0 0 1
-17.775925 9.163674 -17.311700 26.450924 -0.475979 2.284296 0.113793 -0.041610 156515.000000 0 0 1
-17.589425 8.436074 -18.570400 26.933528 -0.447203 2.331581 0.148238 -0.056473 600148.000000 0 0 1
-16.549525 7.443374 -18.525600 25.932382 -0.422657 2.366535 0.145525 -0.047805 -87351.000000 0 0 1
-16.270925 6.720874 -19.832800 26.518919 -0.391714 2.415649 0.117214 -0.039333 199160.000000 0 0 1
-17.325625 5.878174 -20.299300 27.327491 -0.327090 2.408063 0.114908 -0.033362 310180.000000 0 0 1
-18.362425 6.609774 -20.943100 28.626582 -0.345522 2.391457 0.110333 -0.032678 -382002.000000 0 0 1
-19.341025 5.655074 -21.624600 29.558052 -0.284458 2.391459 0.083851 -0.015035 -27374.600000 0 0 1
-20.045225 4.756074 -20.731800 29.227364 -0.232959 2.359341 0.096968 -0.026356 515775.000000 0 0 1
-20.821425 3.792074 -21.408100 30.103460 -0.180149 2.361930 0.044293 -0.002609 -487056.000000 0 0 1
-21.720725 3.001974 -20.476900 30.001752 -0.137338 2.322006 0.062382 -0.010540 -235923.000000 0 0 1
-22.341525 1.855474 -21.084700 30.775820 -0.082860 2.325546 0.070302 -0.006715 464153.000000 0 0 1
-23.124425 1.209474 -20.099900 30.662808 -0.052255 2.285659 0.071504 -0.012088 -261614.000000 0 0 1
-23.740125 -0.157326 -20.502300 31.368178 0.006627 2.283130 0.073892 -0.001526 279771.000000 0 0 1
-22.815325 -1.254526 -20.462800 30.673100 0.054931 2.301139 0.062654 -0.017374 403311.000000 0 0 1
-23.441725 -2.533026 -20.653300 31.344688 0.107639 2.290164 0.062030 -0.023616 -217799.000000 0 0 1
-23.945625 -2.799926 -22.095200 32.702146 0.116400 2.312642 0.069086 -0.021791 1019630.000000 0 0 1
-22.931625 -2.680226 -23.148100 32.693693 0.116351 2.357500 0.037555 -0.019397 739547.000000 0 0 1
-21.960725 -3.698826 -23.217400 32.171453 0.166863 2.377018 0.035131 -0.031299 -363737.000000 0 0 1
-21.025325 -3.499626 -24.399700 32.398411 0.164936 2.423579 0.052343 -0.027523 -314801.000000 0 0 1
-21.673625 -3.571726 -25.651730 33.771504 0.163328 2.433444 0.046806 -0.027649 209723.000000 0 0 1
-20.732225 -3.797926 -26.682960 34.003378 0.181181 2.473032 0.047106 -0.030176 146279.000000 0 0 1
-21.418925 -4.064226 -28.040380 35.518322 0.187520 2.480729 0.030320 -0.026316 278970.000000 0 0 1
-22.291225 -5.170126 -28.165690 36.289599 0.227906 2.459312 0.046932 -0.029839 505915.000000 0 0 1
-22.952225 -5.198626 -29.462470 37.707658 0.222740 2.467605 0.026819 -0.029687 -97469.200000 0 0 1
-22.610525 -6.516226 -30.193410 38.279747 0.280591 2.479580 0.054134 -0.027936 197746.000000 0 0 1
-21.313525 -6.490726 -30.765860 37.985971 0.295613 2.514824 0.035878 -0.030220 -94588.200000 0 0 1
-20.775125 -7.744026 -31.038300 38.143830 0.356801 2.521316 0.035364 -0.029475 -117191.000000 0 0 1
-19.317425 -7.480026 -31.523130 37.720305 0.369438 2.560216 0.040952 -0.028639 -100136.000000 0 0 1
-19.100025 -7.042926 -32.865250 38.659260 0.353270 2.587021 0.043731 -0.031847 111192.000000 0 0 1
-19.178725 -8.116426 -33.776500 39.680622 0.400345 2.589081 0.038603 -0.030191 -447528.000000 0 0 1
-19.044725 -7.718926 32.906664 38.796029 0.385071 0.558225 0.032628 -0.022815 -88417.600000 0 0 1
-17.772725 -7.219526 32.574911 37.803652 0.385852 0.532212 0.045814 -0.021180 -70472.700000 0 0 1
-17.456625 -5.845826 32.895265 37.696232 0.323139 0.510213 0.032431 -0.020117 -301206.000000 0 0 1
-16.178125 -5.393526 32.191406 36.429500 0.321796 0.487166 0.034918 -0.020301 -158051.000000 0 0 1
-16.440825 -5.497826 30.792485 35.337005 0.322711 0.512758 0.033938 -0.020540 686122.000000 0 0 1
-15.315725 -5.001826 30.052705 34.099190 0.315661 0.492123 0.046222 -0.019722 500620.000000 0 0 1
-15.503225 -5.130926 28.498415 32.845639 0.319612 0.520347 0.042105 -0.013682 37776.400000 0 0 1
-16.295025 -4.064626 28.004975 32.654672 0.244451 0.540192 0.032707 -0.021007 -254233.000000 0 0 1
-16.677725 -4.093426 26.647315 31.701451 0.240685 0.572460 0.043505 -0.015649 217171.000000 0 0 1
-15.631825 -3.860126 25.497255 30.155671 0.242097 0.563256 0.050721 -0.012006 138601.000000 0 0 1
-15.278225 -2.513526 25.404655 29.751276 0.163056 0.547360 0.045978 -0.006820 -441976.000000 0 0 1
-14.353525 -2.340426 24.372935 28.382058 0.161633 0.537982 0.041867 -0.006799 -286427.000000 0 0 1
-13.999425 -0.839226 24.277145 28.036903 0.059876 0.523850 0.046345 -0.011711 -502472.000000 0 0 1
-15.033425 -0.054026 23.802925 28.152904 0.003594 0.563319 0.049438 -0.014397 -322908.000000 0 0 1
-14.709925 1.285674 24.200625 28.349693 -0.087180 0.547849 0.042703 -0.008773 -467056.000000 0 0 1
-15.676025 2.316274 23.711095 28.518746 -0.146698 0.589135 0.032081 -0.009047 -910138.000000 0 0 1
-15.412825 2.675374 22.356765 27.286219 -0.171869 0.610533 0.038147 -0.009243 562650.000000 0 0 1
-16.337125 3.635974 21.835665 27.512147 -0.218990 0.653972 0.042929 -0.008748 57967.900000 0 0 1
-15.729525 4.464874 20.667765 26.353549 -0.276578 0.669310 0.034708 -0.006316 -61020.900000 0 0 1
-14.745625 5.331074 21.165765 26.340907 -0.346915 0.637591 0.059170 -0.007133 275046.000000 0 0 1
-13.569725 5.344174 20.347365 25.034234 -0.375177 0.621885 0.050331 -0.006071 308389.000000 0 0 1
-12.512125 6.316374 20.877365 25.145859 -0.467496 0.591239 0.043054 -0.005039 -112335.000000 0 0 1
-12.810725 7.701174 20.599465 25.451143 -0.541265 0.627713 0.049379 -0.009194 446705.000000 0 0 1
-11.649825 8.522174 20.725165 25.256253 -0.631574 0.608344 0.051211 -0.006293 356711.000000 0 0 1
-11.908825 10.074774 20.754565 25.962919 -0.702163 0.644513 0.038440 0.003524 -144602.000000 0 0 1
-12.459825 10.559874 19.549065 25.473989 -0.703049 0.696000 0.044502 0.001979 -54893.900000 0 0 1
-12.974725 11.787274 19.825065 26.463494 -0.737480 0.724022 0.030745 0.008984 -606848.000000 0 0 1
-13.450825 12.642674 18.609865 26.212382 -0.754437 0.781348 0.036106 0.009717 34028.000000 0 0 1
-12.445425 13.350074 17.898765 25.563233 -0.820454 0.795152 0.031703 0.006131 93510.300000 0 0 1
-12.126625 14.645374 18.332365 26.412452 -0.879204 0.803655 0.038861 0.005880 376854.000000 0 0 1
-13.201425 15.772074 17.946465 27.296731 -0.873891 0.853356 0.042352 0.003042 651266.000000 0 0 1
-13.383025 16.230774 16.623665 26.812117 -0.881266 0.902046 0.037482 0.007697 -12523.700000 0 0 1
-13.741425 15.250074 15.695065 25.840406 -0.837389 0.918032 0.045547 0.003634 -318371.000000 0 0 1
-14.109525 15.781774 14.312765 25.553832 -0.841284 0.976287 0.029969 0.003116 639573.000000 0 0 1
-15.258125 16.653774 14.331965 26.750024 -0.829105 1.005372 0.028457 -0.001748 318202.000000 0 0 1
-15.634025 16.964474 12.975665 26.468547 -0.826189 1.058443 0.012402 -0.004740 802147.000000 0 0 1
-16.818125 18.018774 12.904565 27.821814 -0.819849 1.088484 0.027175 -0.011440 -68120.100000 0 0 1
-18.027025 17.508974 13.347365 28.455051 -0.770821 1.082561 0.033806 -0.015031 -855123.000000 0 0 1
-18.988125 18.517474 13.573665 29.794129 -0.772850 1.097771 0.040365 -0.014451 247814.000000 0 0 1
-20.425325 17.939074 13.603465 30.398331 -0.720682 1.106821 0.047216 -0.015190 76131.200000 0 0 1
-20.979525 17.488874 12.398865 29.995550 -0.694905 1.144659 0.053100 -0.016996 201223.000000 0 0 1
-22.240725 16.877874 12.647765 30.650912 -0.649155 1.145447 0.085682 -0.024293 343810.000000 0 0 1
-22.980025 16.329674 11.412765 30.413664 -0.617807 1.186129 0.081997 -0.021972 -57619.900000 0 0 1
-22.404925 15.112674 10.998865 29.177878 -0.593423 1.184285 0.076483 -0.016836 23674.000000 0 0 1
-23.080225 14.616074 9.865965 29.045889 -0.564526 1.224232 0.081534 -0.013945 -174496.000000 0 0 1
-22.484825 13.281174 9.335665 27.732861 -0.533533 1.227462 0.099103 -0.015063 -547637.000000 0 0 1
-22.694825 12.080474 10.151365 27.641330 -0.489153 1.194742 0.096759 -0.024210 443259.000000 0 0 1
-24.046425 11.673074 10.334165 28.658091 -0.451931 1.201883 0.103348 -0.027240 413558.000000 0 0 1
-24.771025 11.123074 9.077265 28.630808 -0.422052 1.248184 0.120723 -0.018670 -441599.000000 0 0 1
-25.193145 12.188774 8.262165 29.180886 -0.450614 1.283734 0.124767 -0.016935 -84221.500000 0 0 1
-26.045185 11.754174 7.242765 29.478295 -0.423934 1.322556 0.145253 -0.023724 -649494.000000 0 0 1
-26.564195 12.863974 6.324865 30.185132 -0.450976 1.359696 0.128008 -0.018473 -451202.000000 0 0 1
-25.711915 13.168274 5.265965 29.363862 -0.473318 1.390486 0.131924 -0.017130 -435355.000000 0 0 1
-24.466425 13.705674 5.537565 28.585242 -0.510628 1.375843 0.117186 -0.016566 -1083850.000000 0 0 1
-24.562225 15.250474 5.595965 29.448169 -0.555639 1.379606 0.102038 -0.015260 170411.000000 0 0 1
-23.280725 15.665574 6.087565 28.713425 -0.592305 1.357164 0.093960 -0.026161 879315.000000 0 0 1
-23.281625 17.065774 6.349265 29.556520 -0.632542 1.354291 0.085762 -0.026928 -428654.000000 0 0 1
-21.899025 17.658674 6.634365 28.903475 -0.678612 1.339196 0.083783 -0.020962 -103199.000000 0 0 1
-21.209925 18.027874 5.440865 28.363148 -0.704479 1.377771 0.089260 -0.029996 -11843.100000 0 0 1
-19.890225 18.415674 5.671965 27.693488 -0.746923 1.364524 0.092088 -0.022937 -623033.000000 0 0 1
-19.152625 18.979874 4.415465 27.323158 -0.780868 1.408483 0.082369 -0.017850 625386.000000 0 0 1
-17.790325 19.266674 4.796465 26.659078 -0.825217 1.389893 0.067888 -0.017077 975375.000000 0 0 1
-17.204125 20.278474 3.995865 26.891734 -0.867236 1.421653 0.078210 -0.024313 36895.100000 0 0 1
-17.482225 21.750774 4.472865 28.261827 -0.893772 1.411863 0.071950 -0.022404 -308254.000000 0 0 1
-17.002925 21.998774 5.746165 28.391265 -0.912798 1.366996 0.060418 -0.023946 -133705.000000 0 0 1
-16.864925 23.368974 5.987865 29.434489 -0.945668 1.365936 0.036928 -0.014639 77814.600000 0 0 1
-16.150925 23.594974 7.331265 29.518174 -0.970544 1.319805 0.028475 0.001790 35208.200000 0 0 1
-17.019125 23.215774 8.365165 29.976637 -0.938209 1.287985 0.031727 -0.006741 171679.000000 0 0 1
-16.310425 23.008974 9.557765 29.779082 -0.954141 1.244058 0.021431 -0.001445 -425093.000000 0 0 1
-17.085025 22.133674 10.533965 29.879123 -0.913425 1.210499 0.014908 -0.010740 -57502.300000 0 0 1
-18.258925 22.811574 10.945165 31.201809 -0.895797 1.212386 0.021894 -0.001201 -616621.000000 0 0 1
-19.131925 21.913374 11.567665 31.305549 -0.853060 1.192316 0.024950 -0.013539 -313661.000000 0 0 1
-20.350225 22.692074 12.124465 32.803422 -0.839753 1.192207 0.029007 -0.019037 -861943.000000 0 0 1
-21.031525 23.459374 11.175965 33.430068 -0.839914 1.229925 0.043170 -0.013379 -206590.000000 0 0 1
-20.546125 24.727574 10.792865 33.912860 -0.877496 1.246910 0.029099 -0.001406 -816662.000000 0 0 1
-21.606725 25.537674 10.021065 34.920554 -0.868587 1.279737 0.036097 0.004680 762457.000000 0 0 1
-22.671225 25.990074 10.907065 36.172261 -0.853496 1.264498 0.051462 -0.008822 797205.000000 0 0 1
-23.384025 27.039474 10.313365 37.206334 -0.857767 1.289924 0.047436 -0.002160 -394963.000000 0 0 1
-24.259125 27.791474 11.335865 38.592396 -0.853158 1.272666 0.043482 -0.005106 -600484.000000 0 0 1
-23.627025 28.752374 12.183765 39.158389 -0.882938 1.254403 0.054062 -0.009326 630919.000000 0 0 1
-24.470025 29.343474 13.196265 40.422308 -0.875714 1.238240 0.054609 -0.009461 171725.000000 0 0 1
8.755475 -32.679907 28.090455 43.973950 -1.309028 0.877862 0.066913 -0.035144 -397196.000000 0 0 1
10.144575 -32.727407 27.957615 44.222435 -1.270216 0.886401 0.061911 -0.043433 -27593.600000 0 0 1
10.636175 -32.487207 26.624075 43.328838 -1.254399 0.909088 0.068043 -0.038725 825356.000000 0 0 1
12.181275 -32.622707 26.369125 43.680147 -1.213430 0.922679 0.046653 -0.028243 809719.000000 0 0 1
12.777675 -33.912207 26.274535 44.762238 -1.210460 0.943473 0.061345 -0.034021 543859.000000 0 0 1
14.083575 -33.837107 25.703465 44.765668 -1.176389 0.959196 0.071304 -0.030967 342414.000000 0 0 1
14.735275 32.980774 25.499345 44.216246 1.150620 0.956117 0.092328 -0.023975 97480.800000 0 0 1
14.586375 32.638574 24.121275 43.126265 1.150518 0.977234 0.083114 -0.037441 119198.000000 0 0 1
15.665375 31.812574 23.788415 42.700498 1.113225 0.979908 0.082233 -0.032847 -424837.000000 0 0 1
15.645275 31.130974 22.409965 41.426063 1.105100 0.999215 0.082143 -0.040472 -142436.000000 0 0 1
14.652875 30.151574 22.144965 40.177402 1.118432 0.987019 0.081954 -0.033977 231481.000000 0 0 1
15.063875 28.781674 22.402965 39.461347 1.088617 0.967064 0.083722 -0.033210 67158.600000 0 0 1
14.622975 28.238374 23.808675 39.725183 1.092978 0.928127 0.090672 -0.041092 239726.000000 0 0 1
15.519575 28.621374 24.868015 40.968994 1.073933 0.918521 0.082371 -0.036443 543361.000000 0 0 1
15.000375 28.237574 26.116455 41.284877 1.082485 0.885902 0.083354 -0.041667 -282615.000000 0 0 1
15.967275 28.579374 27.296845 42.624550 1.061299 0.875775 0.083628 -0.047274 293202.000000 0 0 1
15.931575 29.964074 27.676275 43.790833 1.082120 0.886651 0.083774 -0.047548 640014.000000 0 0 1
16.944075 30.249674 28.658765 44.982989 1.060201 0.880063 0.093313 -0.048006 634834.000000 0 0 1
16.645375 31.654174 29.297355 46.231918 1.086683 0.884464 0.095890 -0.049859 133214.000000 0 0 1
17.095475 32.712774 28.448265 46.601337 1.089238 0.914155 0.095606 -0.039799 -216631.000000 0 0 1
16.499875 33.941574 28.718955 47.424200 1.118310 0.920307 0.099859 -0.026003 -235528.000000 0 0 1
16.994275 -33.005407 28.022145 46.512395 -1.095305 0.924209 0.086072 -0.027622 -592964.000000 0 0 1
16.984775 -33.049207 26.593555 45.694090 -1.096072 0.949621 0.101767 -0.024130 -105504.000000 0 0 1
17.565175 -31.921707 25.985565 44.752434 -1.067755 0.951268 0.098529 -0.029470 416397.000000 0 0 1
19.120375 -31.780407 25.944675 45.262669 -1.029172 0.960388 0.097030 -0.021460 518521.000000 0 0 1
19.726575 -31.265107 27.134335 45.857571 -1.007933 0.937619 0.086146 -0.024405 -272944.000000 0 0 1
20.900675 -30.571607 26.849725 45.742421 -0.971119 0.943477 0.094413 -0.022598 -533889.000000 0 0 1
21.293775 -29.625007 28.005715 45.993325 -0.947579 0.916113 0.103507 -0.021060 264042.000000 0 0 1
20.299475 -28.603607 28.279725 45.055276 -0.953602 0.892243 0.097649 -0.022157 786758.000000 0 0 1
20.603475 -27.802407 29.435435 45.430407 -0.933036 0.865941 0.111471 -0.017011 -604534.000000 0 0 1
19.350975 -27.224707 30.063685 44.938514 -0.952867 0.837939 0.081741 -0.022311 -456518.000000 0 0 1
18.557475 -26.392107 29.238485 43.540926 -0.957963 0.834542 0.121451 -0.027442 169528.000000 0 0 1
17.260875 -26.377307 29.797955 43.377624 -0.991346 0.813522 0.097002 -0.025456 196565.000000 0 0 1
16.091875 -25.750407 28.985475 41.978443 -1.012256 0.808637 0.099142 -0.018646 -210810.000000 0 0 1
15.674775 -26.500607 27.847035 41.514312 -1.036660 0.835534 0.093284 -0.023484 934559.000000 0 0 1
14.766575 -25.863507 26.902965 40.134054 -1.052017 0.836146 0.092163 -0.043095 524210.000000 0 0 1
13.322175 -25.427007 27.344685 39.645237 -1.088182 0.809674 0.063353 -0.028126 21913.600000 0 0 1
12.463875 -26.474707 27.571675 40.205168 -1.130793 0.815129 0.061890 -0.022372 -310070.000000 0 0 1
11.953175 -27.017507 26.381505 39.608179 -1.154261 0.841880 0.058054 -0.024492 -1372380.000000 0 0 1
11.058375 -28.254407 26.480445 40.271741 -1.197738 0.853242 0.069882 -0.026485 -616366.000000 0 0 1
9.696975 -27.929107 26.585275 39.759819 -1.236618 0.838409 0.060981 -0.034663 -389035.000000 0 0 1
8.927975 -29.121507 26.645485 40.469158 -1.273317 0.852086 0.059432 -0.040762 562092.000000 0 0 1
7.390975 -28.862107 26.816775 40.084750 -1.320105 0.837931 0.047069 -0.038397 827270.000000 0 0 1
6.501675 -28.506407 25.765715 38.971260 -1.346554 0.848450 0.058040 -0.048282 257205.000000 0 0 1
6.781675 -27.298907 25.161765 37.740374 -1.327302 0.841015 0.076344 -0.042896 -416043.000000 0 0 1
5.564075 -26.751107 24.348355 36.598129 -1.365726 0.842915 0.076651 -0.042113 -40018.400000 0 0 1
5.282975 -27.505107 23.123465 36.319903 -1.381035 0.880636 0.056796 -0.038712 -5295.810000 0 0 1
4.626575 -28.746607 23.221065 37.242321 -1.411221 0.897568 0.049724 -0.037866 730324.000000 0 0 1
3.120975 -28.673907 23.738145 37.355494 -1.462379 0.882184 0.056412 -0.045362 305725.000000 0 0 1
2.291875 -28.074907 22.777165 36.225024 -1.489343 0.890827 0.051453 -0.038868 -423465.000000 0 0 1
0.946475 -28.118907 23.195755 36.463842 -1.537149 0.881324 0.058133 -0.035438 108877.000000 0 0 1
0.417575 -26.792007 23.841325 35.866346 -1.555212 0.843668 0.054317 -0.038622 -293514.000000 0 0 1
1.012375 -26.526907 25.066305 36.510565 -1.532651 0.814064 0.055825 -0.040581 -166840.000000 0 0 1
0.949375 -25.146107 25.338715 35.711041 -1.533060 0.781939 0.063158 -0.036737 222251.000000 0 0 1
2.232375 -24.615207 26.055565 35.913568 -1.480353 0.759025 0.060688 -0.032324 -171350.000000 0 0 1
3.330575 -24.474207 25.179825 35.271846 -1.435542 0.775775 0.074062 -0.036417 291324.000000 0 0 1
4.421875 -23.781807 25.828395 35.386909 -1.386960 0.752642 0.069853 -0.027176 485988.000000 0 0 1
4.265875 -22.277607 26.164985 34.627964 -1.381599 0.714223 0.061800 -0.020289 -673152.000000 0 0 1
4.274375 -21.459607 25.039245 33.252801 -1.374187 0.718192 0.061789 -0.020106 -21564.700000 0 0 1
3.804475 -20.168007 25.273405 32.557143 -1.384348 0.682056 0.070623 -0.017662 -169806.000000 0 0 1
3.971175 -19.164507 24.147675 31.083094 -1.366473 0.681109 0.072655 -0.016180 214522.000000 0 0 1
5.328975 -18.859607 23.888975 30.899286 -1.295415 0.687045 0.067464 -0.007451 -137434.000000 0 0 1
5.398875 -17.909007 22.874365 29.548552 -1.277999 0.685460 0.051747 0.000861 1428500.000000 0 0 1
6.848175 -17.348207 22.510565 29.233257 -1.194825 0.691904 0.046009 0.000529 1067900.000000 0 0 1
7.696775 -18.282707 21.892665 29.542960 -1.172330 0.736171 0.044934 0.003777 -935645.000000 0 0 1
8.897475 -17.767307 21.429965 29.224744 -1.106527 0.747661 0.034693 0.001440 -14413.400000 0 0 1
10.086675 -18.053707 22.410965 30.494732 -1.061295 0.745258 0.039255 0.006963 3663.130000 0 0 1
9.913375 -17.473307 23.716315 31.081426 -1.054735 0.702796 0.047220 0.012216 87286.300000 0 0 1
11.129375 -17.575207 24.429255 32.086436 -1.006291 0.705392 0.058133 0.018784 149334.000000 0 0 1
11.029875 -16.617407 25.592095 32.446135 -0.984813 0.662013 0.061437 -0.000125 -78867.900000 0 0 1
11.200575 -15.244207 25.337825 31.620312 -0.937131 0.641306 0.067763 0.001804 90491.300000 0 0 1
10.859675 -14.452707 26.453785 32.040849 -0.926404 0.599484 0.066721 0.001894 -99301.300000 0 0 1
11.219475 -12.977407 26.341735 31.435278 -0.857922 0.577249 0.078751 0.001967 -112721.000000 0 0 1
10.285975 -12.242907 25.567535 30.156076 -0.872044 0.558897 0.083091 -0.005716 52272.500000 0 0 1
10.581275 -10.863307 25.563935 29.723553 -0.798549 0.535416 0.090450 0.001602 -122550.000000 0 0 1
9.593375 -9.850707 24.926955 28.467918 -0.798632 0.504087 0.084331 -0.004109 48606.800000 0 0 1
8.322375 -9.783507 25.531665 28.580498 -0.865923 0.466107 0.076435 -0.002363 206300.000000 0 0 1
7.418575 -9.048607 24.672025 27.306068 -0.884063 0.442845 0.077302 -0.006543 295093.000000 0 0 1
5.942175 -9.233507 25.059135 27.359228 -0.998972 0.412977 0.077575 -0.012984 -933408.000000 0 0 1
5.525075 -8.341807 26.048995 27.904522 -0.985798 0.366731 0.084296 -0.010051 356104.000000 0 0 1
4.220375 -8.402007 26.633615 28.244552 -1.105306 0.339370 0.075199 -0.012545 1550620.000000 0 0 1
2.988275 -8.368607 25.639995 27.136188 -1.227827 0.333619 0.060977 -0.017287 159002.000000 0 0 1
2.966775 -7.119507 24.984485 26.147918 -1.175968 0.299427 0.070908 -0.020885 -561666.000000 0 0 1
1.816775 -7.010007 24.205395 25.265431 -1.317207 0.290698 0.059334 -0.021273 -173642.000000 0 0 1
1.676375 -5.668207 23.460425 24.193601 -1.283243 0.246815 0.044822 -0.027834 -128292.000000 0 1 0
1.261275 -4.528807 24.161105 24.614221 -1.299179 0.192174 0.054352 -0.028178 -171259.000000 0 1 0
1.825875 -3.364107 23.627665 23.935697 -1.073535 0.160604 0.053619 -0.025199 -518921.000000 0 1 0
0.987775 -2.614907 22.496065 22.669062 -1.209619 0.123622 0.044938 -0.029666 1249450.000000 0 1 0
-0.209925 -1.928907 22.880965 22.963086 1.462392 0.084597 0.042262 -0.035917 767192.000000 0 1 0
-1.263225 -2.663907 23.497515 23.681751 1.128001 0.124818 0.039980 -0.031332 24671.400000 0 1 0
-2.283525 -1.687907 24.179625 24.345796 0.636532 0.116904 0.035136 -0.029652 218605.000000 0 1 0
-1.717225 -0.945907 25.242405 25.318424 0.503484 0.077512 0.048685 -0.032744 -147808.000000 0 0 1
-2.466025 0.203093 25.525995 25.645642 -0.082171 0.096634 0.040781 -0.026400 -197326.000000 0 0 1
-1.829525 1.221093 26.575255 26.666128 -0.588536 0.082580 0.062709 -0.032407 -292911.000000 0 0 1
-1.944425 0.784093 27.918645 27.997256 -0.383307 0.074955 0.073208 -0.028481 143009.000000 0 0 1
-1.219425 -0.405907 28.336685 28.365815 0.321331 0.045324 0.080365 -0.030098 -712460.000000 0 0 1
0.228375 -0.084907 28.709495 28.710529 -0.355950 0.008486 0.103500 -0.030945 -1095930.000000 0 0 1
1.028975 0.346093 27.655715 27.677015 0.324461 0.039235 0.096795 -0.035428 -323343.000000 0 0 1
1.529275 -0.629907 26.699705 26.750882 -0.390722 0.061866 0.088714 -0.035887 -730470.000000 0 0 1
2.739775 -1.366907 27.239545 27.411086 -0.462777 0.111934 0.088595 -0.036917 -1157130.000000 0 0 1
2.450675 -2.445907 28.119785 28.332147 -0.784424 0.122514 0.101688 -0.034112 354110.000000 0 0 1
3.505275 -3.400507 28.428305 28.844738 -0.770228 0.170129 0.100546 -0.018660 908719.000000 0 0 1
4.023375 -4.334607 27.279855 27.913560 -0.822619 0.213489 0.092719 -0.024380 -39215.100000 0 0 1
4.865075 -3.687307 26.398015 27.094656 -0.648547 0.227255 0.093578 -0.021654 -858558.000000 0 0 1
5.465775 -4.491107 25.469445 26.433641 -0.687820 0.270924 0.083775 -0.022086 -539430.000000 0 0 1
6.714275 -3.783107 24.857775 26.025033 -0.513105 0.300635 0.081073 -0.025389 -224267.000000 0 0 1
7.855375 -3.707107 25.682125 27.111273 -0.440932 0.326141 0.069175 -0.016976 -140220.000000 0 0 1
8.578075 -4.905907 25.933535 27.752469 -0.519511 0.364061 0.062960 -0.004154 -654940.000000 0 0 1
9.333675 -5.533307 24.771735 27.043924 -0.535133 0.412849 0.068089 -0.021389 -983668.000000 0 0 1
8.528675 -6.034707 23.720895 25.919816 -0.615794 0.414881 0.080404 -0.024162 -126148.000000 0 0 1
9.161775 -6.223507 22.415165 25.002196 -0.596691 0.458928 0.079697 -0.031479 438846.000000 0 0 1
9.522475 -4.882807 21.664765 24.163638 -0.473809 0.458798 0.091495 -0.026007 393431.000000 0 1 0
8.287975 -4.282507 21.337365 23.287626 -0.476929 0.412171 0.069996 -0.021186 -232687.000000 0 1 0
8.366875 -3.150907 20.567365 22.426532 -0.360167 0.410053 0.053065 -0.017714 269718.000000 0 1 0
7.008475 -2.445907 20.283465 21.599077 -0.335777 0.350825 0.046573 -0.008326 401791.000000 0 1 0
6.520775 -1.706907 21.387865 22.424870 -0.256020 0.305301 0.048879 -0.010362 145876.000000 0 1 0
5.337175 -0.983907 21.086765 21.773956 -0.182303 0.251903 0.036687 -0.013977 272857.000000 0 1 0
4.565675 -0.582907 22.363465 22.832208 -0.126985 0.202981 0.033836 -0.022916 435897.000000 0 1 0
3.222275 -0.123907 22.261065 22.493408 -0.038434 0.143856 0.036823 -0.023796 481477.000000 0 1 0
2.802275 0.602093 23.434295 23.608927 0.211641 0.121705 0.054401 -0.029823 -326417.000000 0 1 0
1.315575 0.951093 23.390025 23.446291 0.625962 0.069293 0.057973 -0.036298 -399094.000000 0 1 0
1.142375 2.190093 22.724065 22.857923 1.090010 0.108276 0.049319 -0.035514 270.182000 0 1 0
-0.233425 2.469093 22.768665 22.903341 -1.476538 0.108498 0.040547 -0.029698 -306003.000000 0 1 0
-0.550325 3.932093 22.258665 22.610006 -1.431742 0.176520 0.038489 -0.018151 -397452.000000 0 1 0
-0.259725 4.956093 23.159675 23.685457 -1.518439 0.211098 0.049592 -0.013636 -591813.000000 0 1 0
-1.373625 5.728093 23.421885 24.151244 -1.335436 0.246385 0.033376 -0.000341 -631068.000000 0 1 0
-1.092125 7.081093 24.219125 25.256695 -1.417771 0.287630 0.040958 0.002580 329906.000000 0 0 1
-0.299825 8.043093 23.491715 24.832276 -1.533536 0.330083 0.039693 -0.002272 378859.000000 0 1 0
-0.317425 9.287093 24.133425 25.860647 -1.536631 0.367550 0.047596 0.002386 -740611.000000 0 0 1
0.375375 10.435093 23.318675 25.549808 1.534839 0.421014 0.040286 -0.003838 1391180.000000 0 0 1
1.809375 10.607093 23.360275 25.719384 1.401841 0.431654 0.026776 -0.007250 721117.000000 0 0 1
2.389675 10.671093 24.659185 26.975140 1.350492 0.417403 0.041041 -0.008758 -552776.000000 0 0 1
3.758975 11.399093 24.529805 27.308983 1.252264 0.455066 0.027690 -0.013983 1229740.000000 0 0 1
4.934575 10.771093 23.943565 26.714430 1.141201 0.459491 0.018338 -0.016998 1033950.000000 0 0 1
4.784775 10.324093 22.595865 25.299290 1.136808 0.466513 0.020090 -0.021834 -1648510.000000 0 0 1
6.055475 9.898093 21.906465 24.789801 1.021759 0.487111 0.018590 -0.022591 -292674.000000 0 1 0
6.917875 11.016093 21.611665 25.224499 1.010058 0.541818 0.016429 -0.030757 43229.900000 0 0 1
8.194775 10.583093 21.225465 25.093357 0.911907 0.562621 0.028542 -0.034015 -248527.000000 0 0 1
9.055575 11.779093 20.779165 25.544553 0.915382 0.620740 0.034923 -0.038788 -579949.000000 0 0 1
8.604675 12.386093 19.533765 24.678406 0.963633 0.657483 0.033044 -0.042322 -74106.900000 0 1 0
9.371175 13.408093 18.969665 25.048834 0.960796 0.711616 0.046020 -0.038551 700684.000000 0 0 1
10.821375 13.015093 18.455565 25.042019 0.877172 0.742199 0.052182 -0.040512 1046070.000000 0 0 1
11.830175 12.853093 19.431865 26.129532 0.826816 0.732246 0.060147 -0.041871 292285.000000 0 0 1
13.090675 12.591093 18.844165 26.172580 0.765948 0.766999 0.063470 -0.038875 -144429.000000 0 0 1
14.283475 12.531093 19.778065 27.426590 0.720139 0.765368 0.085300 -0.024925 -302238.000000 0 0 1
14.711175 13.721093 20.389665 28.643071 0.750590 0.778663 0.086118 -0.020278 -88965.500000 0 0 1
15.877975 13.536093 21.152565 29.711394 0.705948 0.778547 0.089055 -0.018988 -48699.300000 0 0 1
16.606775 14.776093 21.578365 30.979731 0.727130 0.800244 0.095402 -0.014061 -224148.000000 0 0 1
15.945575 15.408093 22.640265 31.689940 0.768257 0.774986 0.105873 -0.013980 747237.000000 0 0 1
16.840175 16.396093 23.194255 33.021157 0.772038 0.792024 0.096200 -0.007408 415440.000000 0 0 1
-21.549925 12.691274 -24.799000 35.220137 -0.532236 2.351971 0.076373 -0.012086 -192.158000 0 0 1
-21.367625 12.633674 -26.201240 36.092798 -0.533963 2.383198 0.078790 -0.017613 106017.000000 0 0 1
-22.117525 13.628674 -26.899290 37.396490 -0.552241 2.373590 0.075223 -0.014254 1747.890000 0 0 1
-21.731325 13.718574 -28.388250 38.292851 -0.563103 2.405870 0.080472 -0.010777 183691.000000 0 0 1
-20.387525 14.109674 -28.579960 37.835805 -0.605387 2.427012 0.071293 -0.014807 -84801.000000 0 0 1
-20.155425 14.397274 -29.969170 38.880249 -0.620267 2.450903 0.077495 -0.022522 953552.000000 0 0 1
-18.752825 15.054974 -30.325120 38.703147 -0.676453 2.471125 0.058235 -0.016669 779664.000000 0 0 1
-17.770725 14.045374 -30.588250 38.061952 -0.668839 2.504189 0.059599 -0.017632 -448644.000000 0 0 1
-16.493925 14.647374 -30.527560 37.663338 -0.726172 2.515866 0.055528 -0.017246 -186045.000000 0 0 1
-15.754325 14.354474 -29.224880 36.171028 -0.738939 2.511484 0.078146 -0.007442 -764090.000000 0 0 1
-16.407325 14.635274 -27.991050 35.593404 -0.728376 2.475774 0.080459 -0.020833 -282504.000000 0 0 1
-16.938625 13.471274 -27.411290 34.925221 -0.671868 2.473261 0.090208 -0.017340 -7550.980000 0 0 1
-17.747125 13.813274 -26.132880 34.477447 -0.661393 2.430992 0.084107 -0.027884 681474.000000 0 0 1
-16.855925 14.273974 -25.073120 33.414516 -0.702646 2.419412 0.107358 -0.032552 908351.000000 0 0 1
-17.621525 14.578774 -23.921000 33.094909 -0.691183 2.378642 0.106268 -0.030436 -136364.000000 0 0 1
-16.810025 14.993074 -22.665500 31.954563 -0.728329 2.359307 0.102265 -0.032042 93954.400000 0 0 1
-16.117025 16.201574 -23.005400 32.426808 -0.788014 2.359523 0.070765 -0.032601 83275.200000 0 0 1
-15.561525 16.899074 -21.919800 31.752439 -0.826580 2.332747 0.063644 -0.026314 -627907.000000 0 0 1
-15.198725 18.344074 -22.286300 32.621855 -0.878896 2.322892 0.062187 -0.021926 -24773.200000 0 0 1
-16.199425 19.346774 -22.277400 33.660089 -0.873710 2.294059 0.038946 -0.019223 496360.000000 0 0 1
-17.290325 19.074074 -23.177200 34.640413 -0.834411 2.303766 0.024485 -0.018370 55342.200000 0 0 1
-18.490225 20.011974 -22.969100 35.636317 -0.824901 2.271220 0.016529 -0.019540 -219151.000000 0 0 1
-18.215825 21.355774 -23.346700 36.509639 -0.864581 2.264601 0.011908 -0.015370 227577.000000 0 0 1
-19.427725 22.075674 -23.445700 37.609476 -0.849113 2.243878 0.052453 -0.032383 151669.000000 0 0 1
-19.150125 23.530774 -23.869900 38.603066 -0.887677 2.237428 0.036857 -0.025534 33470.900000 0 0 1
-18.505925 24.245574 -22.818300 38.091888 -0.918856 2.213089 0.047842 -0.021351 -302852.000000 0 0 1
-17.684325 25.308074 -23.255100 38.652731 -0.960902 2.216351 0.031072 -0.008369 145846.000000 0 0 1
-16.477525 25.400574 -22.233300 37.563514 -0.995331 2.204192 0.022556 -0.018499 206313.000000 0 0 1
-15.546625 24.348974 -22.260200 36.470352 -1.002554 2.227317 0.037472 -0.024251 172359.000000 0 0 1
-16.057825 23.135774 -21.659400 35.528121 -0.964062 2.226404 0.050029 -0.012610 -853917.000000 0 0 1
-14.935025 22.118174 -21.410800 34.215361 -0.976883 2.246909 0.072549 -0.014329 11144.000000 0 0 1
-14.245225 22.330374 -20.212300 33.318300 -1.002953 2.222627 0.079077 -0.023342 -525738.000000 0 0 1
-13.158125 21.472674 -20.044100 32.186611 -1.021029 2.243044 0.068687 -0.020017 -346988.000000 0 0 1
-12.282725 21.798374 -18.810600 31.302925 -1.057671 2.215450 0.059457 -0.019741 170525.000000 0 0 1
-12.981225 21.693674 -17.562800 30.782781 -1.031563 2.177959 0.077218 -0.018259 252836.000000 0 0 1
-13.755025 22.847874 -17.256800 31.765125 -1.028888 2.145114 0.079340 -0.027859 -57544.000000 0 0 1
-14.534725 22.837474 -15.936900 31.413265 -1.004011 2.102880 0.095594 -0.026848 82764.500000 0 0 1
-13.742025 23.100474 -14.781300 30.675103 -1.034150 2.073580 0.096979 -0.041617 225049.000000 0 0 1
-14.525125 23.533774 -13.670700 30.849729 -1.017823 2.029893 0.099721 -0.042896 405680.000000 0 0 1
-13.577825 23.839474 -12.474200 30.137742 -1.053066 1.997537 0.114230 -0.042342 159398.000000 0 0 1
-12.985625 25.117374 -12.425100 30.885143 -1.093643 1.984824 0.109442 -0.044537 92799.900000 0 0 1
-11.972525 25.183574 -11.449200 30.143622 -1.127013 1.960400 0.071568 -0.038769 -91019.200000 0 0 1
-11.488725 26.620074 -11.320200 31.125007 -1.163365 1.943034 0.093446 -0.039214 -164115.000000 0 0 1
-10.772025 27.026274 -12.450300 31.645947 -1.191518 1.975150 0.083330 -0.042918 -182974.000000 0 0 1
-10.723925 28.429774 -12.604800 32.895829 -1.210092 1.964026 0.064574 -0.035140 -334231.000000 0 0 1
-10.126425 28.785174 -13.994600 33.570516 -1.232525 2.000797 0.092351 -0.049254 1152580.000000 0 0 1
-8.739125 28.629574 -14.341000 33.191702 -1.274532 2.017579 0.075658 -0.047194 759625.000000 0 0 1
-8.193425 27.311574 -14.310100 31.903499 -1.279341 2.035931 0.079816 -0.049273 -1456400.000000 0 0 1
-6.827525 27.229174 -14.895800 31.779362 -1.325119 2.058644 0.079843 -0.049910 -779587.000000 0 0 1
-5.901325 28.056374 -14.209700 31.998458 -1.363480 2.030937 0.069930 -0.046549 -927631.000000 0 0 1
-4.598125 27.868074 -14.676100 31.830178 -1.407273 2.050003 0.088122 -0.050422 -132232.000000 0 0 1
-3.628625 28.881974 -13.986000 32.294636 -1.445815 2.018698 0.071047 -0.034241 -199829.000000 0 0 1
-3.667525 30.240574 -14.392000 33.690840 -1.450107 2.012166 0.059637 -0.021957 133434.000000 0 0 1
-4.719125 30.965874 -13.748900 34.208007 -1.419562 1.984410 0.045380 -0.017954 353825.000000 0 0 1
-4.803025 32.467074 -14.014300 35.687260 -1.423926 1.974359 0.044161 -0.021582 483754.000000 0 0 1
-3.757725 33.205374 -13.356700 35.987759 -1.458110 1.951039 0.026354 -0.023457 400397.000000 0 0 1
-3.616325 -33.687607 -13.816100 36.589852 1.463857 1.957993 0.032749 -0.021567 -348945.000000 0 0 1
-2.896325 -32.771107 -12.938400 35.351610 1.482645 1.945495 0.039726 -0.018582 -47568.700000 0 0 1
-3.528825 -32.553407 -11.651900 34.755484 1.462817 1.912671 0.046931 -0.013946 466281.000000 0 0 1
-2.485025 -32.105407 -10.816300 33.969469 1.493548 1.894851 0.036409 -0.022212 182453.000000 0 0 1
-2.900625 -31.960507 -9.307700 33.414382 1.480288 1.853084 0.038815 -0.022714 -356221.000000 0 0 1
-1.907425 -31.286007 -8.584300 32.498349 1.509904 1.838114 0.051171 -0.025648 -59420.300000 0 0 1
-2.145125 -31.421107 -7.121000 32.289258 1.502632 1.793162 0.060452 -0.039561 267366.000000 0 0 1
-1.075425 -30.642307 -6.309300 31.303590 1.535715 1.773738 0.078920 -0.033496 171794.000000 0 0 1
-1.083625 -30.794307 -4.932100 31.205595 1.535622 1.729514 0.091777 -0.031959 -72046.900000 0 0 1
0.097175 -30.257907 -4.359700 30.570531 -1.567585 1.713895 0.089737 -0.026181 131658.000000 0 0 1
0.182175 -30.386907 -2.789100 30.515183 -1.564801 1.662324 0.091659 -0.021742 -239410.000000 0 0 1
0.317775 -31.696407 -2.165800 31.771904 -1.560771 1.639016 0.084410 -0.020614 324467.000000 0 0 1
1.502775 -32.452407 -2.399100 32.575646 -1.524522 1.644510 0.072691 -0.018209 709413.000000 0 0 1
2.828375 -31.975507 -1.735600 32.147240 -1.482572 1.624812 0.066001 -0.018947 -353550.000000 0 0 1
2.907575 -32.233007 -0.324900 32.365511 -1.480835 1.580835 0.068644 -0.012213 1214890.000000 0 0 1
4.214875 -32.059007 0.316900 32.336443 -1.440074 1.560996 0.058290 -0.012138 1470910.000000 0 0 1
4.577275 -30.581607 0.469900 30.925830 -1.422225 1.555601 0.054763 -0.016485 -451721.000000 0 0 1
4.937975 -29.963007 -0.740800 30.376211 -1.407462 1.595186 0.057271 -0.023747 72410.900000 0 0 1
4.802475 -28.596507 -0.530800 29.001823 -1.404410 1.589100 0.069801 -0.018221 -420901.000000 0 0 1
4.371575 -27.728707 -1.726900 28.124261 -1.414428 1.632237 0.062459 -0.022497 271512.000000 0 0 1
3.050075 -28.029607 -2.174900 28.278826 -1.462407 1.647781 0.078267 -0.019618 290622.000000 0 0 1
2.561475 -27.031907 -3.027100 27.321209 -1.476321 1.681821 0.078616 -0.020631 -70241.600000 0 0 1
2.912275 -27.061907 -4.541100 27.594379 -1.463594 1.736114 0.063997 -0.016918 -136663.000000 0 0 1
2.234175 -27.998007 -5.311800 28.584876 -1.491167 1.757708 0.069246 -0.018018 -185495.000000 0 0 1
2.877575 -28.057307 -6.542500 28.953363 -1.468593 1.798732 0.073310 -0.021631 -134987.000000 0 0 1
2.122375 -28.887907 -7.574900 29.939852 -1.497459 1.826580 0.060237 -0.022490 -189870.000000 0 0 1
0.847575 -28.371907 -7.903000 29.464231 -1.540931 1.842345 0.070704 -0.026009 -391826.000000 0 0 1
0.445675 -28.889607 -9.161500 30.310742 -1.555371 1.877851 0.065052 -0.017357 306135.000000 0 0 1
-0.993025 -28.339007 -9.376500 29.866439 1.535770 1.890144 0.051813 -0.018041 -400872.000000 0 0 1
-1.030925 -26.930707 -9.471700 28.566394 1.532534 1.908761 0.055193 -0.017393 692535.000000 0 0 1
-2.335425 -26.308307 -9.424700 28.042935 1.482257 1.913549 0.055516 -0.013178 1553700.000000 0 0 1
-3.366525 -26.612307 -8.271900 28.070851 1.444962 1.869916 0.059527 -0.013053 -61645.500000 0 0 1
-2.991225 -26.360307 -6.906800 27.413812 1.457805 1.825487 0.072322 -0.024151 -566682.000000 0 0 1
-1.864525 -27.024307 -6.405700 27.835635 1.501911 1.803003 0.082101 -0.032076 -149360.000000 0 0 1
-1.527825 -26.758807 -4.931900 27.252369 1.513762 1.752770 0.096606 -0.024844 441338.000000 0 0 1
-2.504925 -27.225807 -3.991500 27.630622 1.479049 1.715763 0.111577 -0.032196 302894.000000 0 0 1
-2.079325 -26.904407 -2.700500 27.119428 1.493664 1.670540 0.110788 -0.024913 224772.000000 0 0 1
-3.200325 -27.099207 -1.624700 27.335851 1.453244 1.630266 0.106113 -0.020124 368482.000000 0 0 1
-4.087725 -26.000907 -1.721500 26.376509 1.414858 1.636109 0.088386 -0.019190 -964144.000000 0 0 1
-5.167325 -26.126107 -0.879700 26.646737 1.375532 1.603816 0.094256 -0.022162 -351429.000000 0 0 1
-6.311325 -25.100107 -1.024600 25.901699 1.324457 1.610364 0.076225 -0.025130 -9126.450000 0 0 1
-5.879725 -23.855107 -0.797400 24.581968 1.329137 1.603240 0.061561 -0.021746 -218459.000000 0 1 0
-6.366825 -23.351507 0.471000 24.208494 1.304615 1.551339 0.074339 -0.015901 129969.000000 0 1 0
-5.852425 -21.901707 0.815900 22.684826 1.309684 1.534822 0.046416 -0.016192 328843.000000 0 1 0
-4.583925 -21.933807 1.448700 22.454465 1.364773 1.506234 0.038908 -0.016954 19203.800000 0 1 0
-4.090425 -20.616307 1.584100 21.077786 1.374933 1.495570 0.011632 -0.010713 -186205.000000 0 1 0
-3.245625 -20.388707 2.879300 20.845235 1.412934 1.432226 0.016909 -0.006052 -183499.000000 0 1 0
-3.888225 -20.470207 4.136900 21.242919 1.383087 1.374801 0.012171 0.008523 -445993.000000 0 1 0
-3.034325 -20.215107 5.234300 21.101080 1.421807 1.320121 0.025184 0.000547 -360599.000000 0 1 0
-2.195725 -21.412907 5.653900 22.255345 1.468611 1.313934 0.028971 -0.012744 -244169.000000 0 1 0
-1.199925 -21.631807 4.690400 22.166974 1.515383 1.357591 0.039711 -0.018416 -464782.000000 0 1 0
-0.447725 -22.809407 4.922100 23.338735 1.551170 1.358302 0.046686 -0.021124 -439194.000000 0 1 0
0.441075 -23.184307 3.738000 23.487854 -1.551774 1.410971 0.052325 -0.029779 904993.000000 0 1 0
1.614575 -22.368607 3.456900 22.691663 -1.498741 1.417859 0.039979 -0.028655 1648520.000000 0 1 0
2.745375 -22.813307 4.256700 23.368859 -1.451031 1.387621 0.052258 -0.027542 11551.700000 0 1 0
3.882375 -21.815607 4.394300 22.589896 -1.394677 1.375023 0.061671 -0.028240 151068.000000 0 1 0
4.712175 -21.549807 3.266300 22.299495 -1.355520 1.423793 0.050515 -0.022625 473922.000000 0 1 0
5.790475 -20.632507 3.511700 21.715478 -1.297187 1.408369 0.057046 -0.022016 608973.000000 0 1 0
6.605975 -20.306207 2.291000 21.476257 -1.256277 1.463917 0.059244 -0.016298 -262470.000000 0 1 0
7.330375 -21.409307 1.789900 22.700145 -1.240915 1.491865 0.065220 -0.015483 -180937.000000 0 1 0
7.016175 -21.568307 0.394500 22.684228 -1.256293 1.553405 0.056490 -0.021026 130418.000000 0 1 0
7.904775 -22.578007 -0.385400 23.924891 -1.234024 1.586906 0.063462 -0.013075 -167301.000000 0 1 0
9.214975 -22.122307 -0.528300 23.970635 -1.176107 1.592838 0.058893 -0.006835 -517168.000000 0 1 0
9.993375 -22.868807 -1.480600 25.000841 -1.158816 1.630053 0.054328 -0.006381 816337.000000 0 0 1
11.382575 -22.240907 -1.784200 25.048040 -1.097765 1.642088 0.053480 -0.001297 520257.000000 0 0 1
11.323475 -21.329507 -2.870500 24.318897 -1.082749 1.689108 0.050427 0.007400 -215456.000000 0 1 0
12.638275 -21.082807 -3.298900 24.801078 -1.030775 1.704206 0.047847 0.001122 -160699.000000 0 1 0
12.766875 -19.912207 -4.294000 24.040123 -1.000662 1.750378 0.040567 -0.005276 -140914.000000 0 1 0
12.708975 -18.583707 -3.720100 22.819101 -0.970973 1.734553 0.055750 -0.004988 248992.000000 0 1 0
12.948375 -17.549207 -4.636900 22.296545 -0.935128 1.780290 0.056628 -0.012157 -1042340.000000 0 1 0
13.205575 -16.186707 -3.867200 21.245045 -0.886478 1.753845 0.058821 -0.008794 293900.000000 0 1 0
14.512775 -16.060407 -3.329500 21.900751 -0.835976 1.723415 0.045272 -0.005703 478594.000000 0 1 0
15.552775 -15.965707 -4.313800 22.702456 -0.798499 1.761973 0.047340 -0.007973 -1037020.000000 0 1 0
16.813575 -15.468307 -3.625000 23.132347 -0.743750 1.728152 0.046893 -0.011308 -528368.000000 0 1 0
17.481775 -16.485507 -2.829000 24.194786 -0.756076 1.687990 0.046663 -0.011691 755306.000000 0 1 0
18.867575 -16.139907 -2.910000 24.999002 -0.707639 1.687465 0.042622 -0.002278 153470.000000 0 1 0
19.737275 -17.171307 -2.186700 26.252533 -0.715988 1.654188 0.025542 -0.006678 677530.000000 0 0 1
21.155975 -16.955107 -2.348200 27.213324 -0.675614 1.657192 0.026572 -0.004584 915751.000000 0 0 1
21.761575 -17.755607 -1.370700 28.119505 -0.684370 1.619561 0.027274 -0.000442 711761.000000 0 0 1
23.334975 -17.724007 -1.385700 29.335672 -0.649583 1.618050 0.049522 -0.009530 922776.000000 0 0 1
23.904875 -16.499307 -0.959800 29.061855 -0.604123 1.603828 0.053117 -0.018926 264003.000000 0 0 1
25.285975 -16.612907 -0.659200 30.262250 -0.581281 1.592581 0.083459 -0.017167 635238.000000 0 0 1
25.985275 -15.252107 -0.291300 30.132145 -0.530770 1.580464 0.072269 -0.023798 212589.000000 0 0 1
25.283875 -14.630407 0.757300 29.221510 -0.524570 1.544878 0.057982 -0.017787 60600.000000 0 0 1
25.870475 -13.421407 1.158000 29.167733 -0.478568 1.531084 0.038265 -0.015402 -230153.000000 0 0 1
25.208075 -12.663407 2.333900 28.306466 -0.465530 1.488251 0.058579 -0.025393 -197585.000000 0 0 1
25.084375 -13.330707 3.602500 28.634099 -0.488478 1.444650 0.094001 -0.012826 1097100.000000 0 0 1
26.329475 -13.880107 4.107100 30.046080 -0.485147 1.433674 0.102652 -0.003247 1018110.000000 0 0 1
26.107075 -14.604807 5.423600 30.402224 -0.510046 1.391441 0.105529 0.001567 347899.000000 0 0 1
25.245075 -15.729907 5.419100 30.234260 -0.557223 1.390585 0.099859 -0.003418 -24787.300000 0 0 1
24.665275 -15.979807 6.655900 30.133553 -0.574874 1.348080 0.070057 0.001322 -117474.000000 0 0 1
23.874475 -17.287007 6.704100 30.228730 -0.626704 1.347158 0.065051 -0.006676 325289.000000 0 0 1
24.691475 -18.483607 6.811600 31.586557 -0.642593 1.353440 0.077067 -0.003074 297823.000000 0 0 1
23.911975 -19.657207 6.824700 31.698026 -0.688051 1.353794 0.057919 0.005033 70908.800000 0 0 1
1.641775 23.155274 -2.921300 23.396498 1.500012 1.695984 0.048992 -0.014566 509245.000000 0 1 0
2.615475 24.082574 -2.433600 24.346119 1.462616 1.670922 0.058233 -0.015747 -11885.300000 0 1 0
3.189175 24.714974 -3.517400 25.166901 1.442467 1.711018 0.069027 -0.018767 -593192.000000 0 0 1
4.129875 25.863074 -3.167900 26.381624 1.412451 1.691167 0.054388 -0.010500 -498445.000000 0 0 1
5.255475 25.290074 -2.549400 25.955872 1.365905 1.669175 0.052776 -0.017682 -493856.000000 0 0 1
5.870375 26.218174 -1.677100 26.919633 1.350525 1.633137 0.042512 -0.013854 603903.000000 0 0 1
7.196375 25.682674 -1.027600 26.691638 1.297599 1.609305 0.029789 -0.028816 964103.000000 0 0 1
8.296675 25.472574 -1.912500 26.857858 1.255922 1.642065 0.039679 -0.034440 150401.000000 0 0 1
9.162475 24.486374 -1.375400 26.180626 1.212739 1.623356 0.034047 -0.022064 -389976.000000 0 0 1
10.453275 24.314774 -2.140100 26.552952 1.164770 1.651481 0.053955 -0.021911 -1614970.000000 0 0 1
11.336975 25.423174 -2.145300 27.918938 1.151332 1.647712 0.066874 -0.021610 1011590.000000 0 0 1
12.373475 25.356674 -3.199200 28.395399 1.116813 1.683702 0.085984 -0.022961 1437930.000000 0 0 1
13.378875 24.148174 -3.115300 27.781895 1.064862 1.683167 0.076593 -0.021961 -946953.000000 0 0 1
12.901675 22.852974 -3.421400 26.465404 1.056850 1.700437 0.075443 -0.018206 -275499.000000 0 0 1
12.848075 22.476674 -4.822800 26.335021 1.051507 1.754968 0.096403 -0.030373 -661622.000000 0 0 1
11.911175 21.310774 -5.037400 24.927908 1.061125 1.774276 0.085694 -0.032391 -692843.000000 0 1 0
10.598475 21.564374 -4.642900 24.472565 1.113987 1.761672 0.085115 -0.031230 -599912.000000 0 1 0
9.831075 20.385574 -4.570800 23.089259 1.121444 1.770075 0.061796 -0.021469 916672.000000 0 1 0
8.271675 20.525474 -4.514800 22.585374 1.187710 1.772051 0.045973 -0.026360 849581.000000 0 1 0
7.675475 21.029174 -3.335900 22.633323 1.220829 1.718724 0.040387 -0.024127 52037.600000 0 1 0
6.347775 21.432374 -3.608100 22.641981 1.282851 1.730833 0.041481 -0.015546 172392.000000 0 1 0
5.745375 22.187074 -2.379100 23.042042 1.317411 1.674231 0.038927 -0.016121 -72423.500000 0 1 0
5.441975 21.337574 -1.285600 22.058104 1.321078 1.629112 0.032195 -0.014508 -71402.100000 0 1 0
4.823075 22.159474 -0.292900 22.680171 1.356486 1.583711 0.046061 -0.006207 150835.000000 0 1 0
4.237275 21.219874 0.768500 21.652440 1.373704 1.535296 0.019613 -0.002578 13329.800000 0 1 0
3.728575 21.873374 1.938700 22.273422 1.401957 1.483645 0.026082 -0.001053 190930.000000 0 1 0
3.379175 20.913674 2.913700 21.384346 1.410603 1.434117 0.024849 -0.010311 -103283.000000 0 1 0
2.347375 21.450074 3.921200 21.931522 1.461796 1.391037 0.024410 -0.010629 -107694.000000 0 1 0
1.051075 21.663974 3.413300 21.956392 1.522317 1.414705 0.023124 -0.010503 92540.400000 0 1 0
0.135875 21.866374 4.487600 22.322530 1.564583 1.368382 0.032798 -0.028420 124996.000000 0 1 0
-1.294925 22.219274 4.071500 22.626314 -1.512583 1.389865 0.037046 -0.019773 253374.000000 0 1 0
-2.232925 22.404174 5.153800 23.097503 -1.471459 1.345770 0.048511 -0.029642 385584.000000 0 1 0
-3.494525 22.629174 4.548500 23.344808 -1.417581 1.374702 0.055432 -0.028537 445882.000000 0 1 0
-4.705725 22.971574 5.448800 24.073356 -1.368742 1.342476 0.060136 -0.034869 395594.000000 0 1 0
-5.038825 24.317874 5.723900 25.485521 -1.366481 1.344270 0.080866 -0.023925 -96837.200000 0 0 1
-6.183425 24.407274 6.541000 26.014120 -1.322673 1.316628 0.088642 -0.023610 109067.000000 0 0 1
-6.640625 25.796074 7.021600 27.547018 -1.318839 1.313057 0.098389 -0.020838 123115.000000 0 0 1
-5.774925 26.458774 7.958000 28.226694 -1.355905 1.284989 0.085297 -0.025290 -48437.900000 0 0 1
-6.301025 27.613674 8.551300 29.586190 -1.346452 1.277583 0.105495 -0.025828 -40758.400000 0 0 1
-6.428925 28.915774 7.763900 30.622397 -1.352022 1.314462 0.112212 -0.026876 14277.700000 0 0 1
-7.518725 28.843774 6.897400 30.595239 -1.315800 1.343401 0.106986 -0.030981 -678022.000000 0 0 1
-7.478525 30.045874 6.073300 31.552620 -1.326850 1.377106 0.121985 -0.032685 -40964.300000 0 0 1
-8.782925 30.421274 5.267300 32.098881 -1.289729 1.405955 0.117468 -0.034510 774761.000000 0 0 1
-9.776325 31.156974 5.966600 33.195389 -1.266749 1.390072 0.118640 -0.028959 55025.600000 0 0 1
-10.584625 30.251374 6.702300 32.742949 -1.234220 1.364645 0.097865 -0.017724 -1196190.000000 0 0 1
-11.441825 30.802374 7.762500 33.763264 -1.215134 1.338811 0.074752 -0.026782 -502883.000000 0 0 1
-10.782725 30.942574 9.013800 33.984682 -1.235480 1.302353 0.079607 -0.017208 89244.600000 0 0 1
-11.712525 31.245774 10.053500 34.850459 -1.212156 1.278162 0.075557 -0.010218 169300.000000 0 0 1
-11.079125 31.537274 11.418900 35.323334 -1.232962 1.241616 0.071189 -0.016486 -290455.000000 0 0 1
-10.441025 32.754674 11.484700 36.246131 -1.262215 1.248387 0.065385 -0.015908 -28971.800000 0 0 1
-9.597725 32.938774 12.601900 36.549789 -1.287266 1.218784 0.055314 -0.019689 79905.200000 0 0 1
-9.127125 -33.870007 12.775200 37.332124 1.307574 1.221535 0.054219 -0.026667 -711392.000000 0 0 1
-10.100225 -33.085007 13.365600 37.084653 1.274502 1.202091 0.056707 -0.011567 -469806.000000 0 0 1
-9.737425 -31.713207 13.313700 35.746322 1.272888 1.189149 0.061155 -0.013334 302970.000000 0 0 1
-10.760525 -30.751307 14.006900 35.463009 1.234192 1.164759 0.060262 -0.020276 118959.000000 0 0 1
-10.802825 -30.675007 15.390700 35.979587 1.232189 1.128781 0.053734 -0.016432 -47681.400000 0 0 1
-9.650825 -30.239907 16.078200 35.582284 1.261872 1.101947 0.047504 -0.019608 29174.100000 0 0 1
-9.831825 -30.543607 17.579900 36.587287 1.259376 1.069581 0.041570 -0.030817 -47375.500000 0 0 1
-10.766525 -29.795007 18.309100 36.590759 1.224043 1.046765 0.070357 -0.032805 122834.000000 0 0 1
-11.221725 -30.527807 19.433300 37.888352 1.218538 1.032226 0.058070 -0.031984 137593.000000 0 0 1
-11.625125 -29.670407 20.629600 37.961256 1.197371 0.996269 0.056181 -0.043567 -915609.000000 0 0 1
-10.474925 -29.179307 21.165500 37.538439 1.226140 0.971774 0.049071 -0.041090 -637799.000000 0 0 1
-10.777125 -28.308007 22.250500 37.584231 1.207030 0.937237 0.034572 -0.039629 243562.000000 0 0 1
-9.607425 -28.243707 23.258800 37.828314 1.242913 0.908599 0.052384 -0.035893 69347.400000 0 0 1
-9.412325 -29.413307 24.024600 39.126920 1.261091 0.909656 0.044434 -0.014895 287014.000000 0 0 1
-8.171825 -29.500907 24.724100 39.349248 1.300569 0.891399 0.053112 -0.020060 279489.000000 0 0 1
-8.169825 -30.677807 25.734500 40.867326 1.310526 0.889618 0.055367 -0.021098 -169328.000000 0 0 1
-8.196625 -31.957407 25.101100 41.455105 1.319723 0.920401 0.070447 -0.012461 172913.000000 0 0 1
-8.471725 -32.937607 26.083100 42.860053 1.319048 0.916546 0.079571 -0.013490 -265708.000000 0 0 1
-8.282925 33.879174 25.463500 43.183274 -1.331016 0.940157 0.081096 -0.015387 1176500.000000 0 0 1
-6.877225 33.525274 25.307000 42.563887 -1.368468 0.934072 0.067999 -0.011819 1506940.000000 0 0 1
-6.588125 32.189374 24.875200 41.210857 -1.368917 0.922778 0.059775 -0.008831 -150904.000000 0 0 1
-7.151125 31.615074 23.541600 40.060684 -1.348346 0.942647 0.058521 -0.015505 552972.000000 0 0 1
-8.475425 31.105974 23.718600 40.024823 -1.304784 0.936517 0.054979 -0.010198 689145.000000 0 0 1
-9.266325 31.004874 22.550300 39.442148 -1.280380 0.962182 0.043200 -0.010229 199885.000000 0 0 1
-10.116425 29.695374 22.566700 38.644705 -1.242454 0.947206 0.046034 -0.018010 182908.000000 0 0 1
-9.462625 28.457374 22.248300 37.341000 -1.249779 0.932517 0.052304 -0.019849 53389.400000 0 0 1
-10.104425 27.374474 22.906600 37.096813 -1.217192 0.905259 0.037306 -0.016515 35554.600000 0 0 1
-9.434525 25.980174 22.571700 35.685590 -1.222461 0.885999 0.035243 -0.019698 -422199.000000 0 0 1
-8.180825 25.874274 23.151400 35.670594 -1.264566 0.864483 0.025816 -0.026782 -898645.000000 0 0 1
-7.795125 24.556174 23.278400 34.722522 -1.263417 0.836032 0.028830 -0.026547 -465373.000000 0 0 1
-6.426425 24.443574 23.927100 34.803640 -1.313706 0.812771 0.026259 -0.025412 -121413.000000 0 0 1
-5.353825 25.014374 23.190500 34.527984 -1.359948 0.834371 0.014881 -0.020088 209324.000000 0 0 1
-4.090325 24.863074 23.828900 34.680249 -1.407743 0.813302 0.020691 -0.019867 407390.000000 0 0 1
-2.989425 25.452874 22.920100 34.381920 -1.453883 0.841115 0.010883 -0.010803 -275043.000000 0 0 1
-2.655925 24.625474 21.802900 32.997490 -1.463359 0.848987 0.010514 -0.010115 -136897.000000 0 0 1
-1.918225 25.337474 20.838700 32.862115 -1.495233 0.883919 0.004141 -0.003251 -136734.000000 0 0 1
-1.345525 24.399574 19.767100 31.430684 -1.515707 0.890645 -0.001477 0.001532 -610380.000000 0 0 1
-0.339025 23.478874 20.124800 30.925395 -1.556358 0.862220 -0.000492 -0.004104 -189091.000000 0 0 1
-0.129325 22.479374 19.117600 29.509687 -1.565043 0.866049 -0.000025 -0.002921 -473190.000000 0 0 1
1.047275 21.563874 19.417400 29.036751 1.522268 0.838313 0.000401 0.002956 -443612.000000 0 0 1
2.295975 22.200474 19.305400 29.509846 1.467743 0.857669 -0.000709 -0.002641 -790113.000000 0 0 1
3.330875 21.376774 19.730300 29.280470 1.416222 0.831405 0.012573 0.004226 618354.000000 0 0 1
4.729375 21.839974 19.154400 29.431998 1.357542 0.862156 0.019782 -0.002854 917233.000000 0 0 1
5.682575 20.798274 19.079300 28.790269 1.304083 0.846378 0.030840 -0.003466 133352.000000 0 0 1
6.971575 21.316874 18.779000 29.251715 1.254716 0.873719 0.059859 -0.012421 -315280.000000 0 0 1
7.984375 20.241374 18.503100 28.562706 1.195076 0.866095 0.063444 -0.011206 -793740.000000 0 0 1
8.481775 19.587874 19.614000 28.988521 1.162159 0.827644 0.056029 -0.013365 246892.000000 0 0 1
9.466875 18.624574 19.181600 28.362480 1.100531 0.828066 0.055229 -0.019868 355863.000000 0 0 1
10.039975 17.868774 20.413500 28.927585 1.058884 0.787420 0.069893 -0.020934 -751047.000000 0 0 1
9.151975 16.948474 21.020500 28.510890 1.075672 0.741761 0.052045 -0.018087 -100017.000000 0 0 1
9.691675 16.133174 22.088100 29.018822 1.029841 0.705689 0.051900 -0.024329 -17706.300000 0 0 1
8.675375 15.108274 22.653100 28.577702 1.049553 0.655596 0.036941 -0.021986 211502.000000 0 0 1
7.639875 15.770374 23.401400 29.235217 1.119670 0.642747 0.023711 -0.009407 1144080.000000 0 0 1
6.441375 14.959974 23.587800 28.664899 1.164214 0.604334 0.026333 -0.011316 1234620.000000 0 0 1
6.577575 13.775774 24.572200 28.928005 1.125331 0.555900 0.028972 -0.010661 -639128.000000 0 0 1
6.801075 14.250874 25.884200 30.320519 1.125523 0.547774 0.039995 -0.016727 -2381.530000 0 0 1
7.111475 13.096074 26.609200 30.498029 1.073325 0.510523 0.044219 -0.025036 -356460.000000 0 0 1
8.209475 13.354374 27.722400 31.847547 1.019609 0.514636 0.036596 -0.011474 351519.000000 0 0 1
9.493475 13.624674 27.203300 31.871262 0.962231 0.548060 0.076936 -0.008002 -56910.700000 0 0 1
9.792875 14.927174 26.780200 32.185401 0.990184 0.587984 0.065399 -0.004208 -209925.000000 0 0 1
11.164775 14.955574 26.048300 32.044272 0.929520 0.621708 0.098350 -0.013712 364083.000000 0 0 1
11.089475 14.330274 24.794100 30.709618 0.912205 0.631111 0.082584 -0.020454 -136066.000000 0 0 1
12.364475 13.902474 24.376100 30.665181 0.843884 0.651935 0.112923 -0.026584 -461032.000000 0 0 1
12.392275 12.673774 23.398800 29.354674 0.796628 0.648308 0.089257 -0.030369 -52810.200000 0 0 1
12.016575 11.402174 23.883200 29.065700 0.759169 0.606414 0.089307 -0.023681 -484523.000000 0 0 1
10.657775 11.334174 24.175600 28.749110 0.816145 0.571822 0.080543 -0.021454 -942064.000000 0 0 1
10.265375 9.888374 24.599900 28.430845 0.766694 0.525140 0.081226 -0.020265 -31624.100000 0 0 1
10.494875 8.964674 23.561900 27.306976 0.706925 0.529910 0.077483 -0.019420 144685.000000 0 0 1
9.969875 7.734074 23.946900 27.067847 0.659775 0.484948 0.068525 -0.027495 -91095.300000 0 0 1
10.593275 6.542474 23.157700 26.292595 0.553265 0.493313 0.065388 -0.028376 -240888.000000 0 0 1
11.958675 6.308774 23.413800 27.037318 0.485442 0.523688 0.075814 -0.017724 57215.400000 0 0 1
12.461375 5.206974 22.629700 26.353402 0.395798 0.538066 0.084050 -0.026161 -120240.000000 0 0 1
12.109375 3.806674 22.987800 26.259602 0.304576 0.504522 0.067254 -0.025904 -459935.000000 0 0 1
12.787775 3.261174 24.107900 27.483692 0.249700 0.500858 0.079299 -0.019064 7834.380000 0 0 1
12.412475 1.960674 24.277700 27.337164 0.156666 0.477636 0.065641 -0.021937 -794228.000000 0 0 1
13.422175 1.164174 25.118600 28.503582 0.086519 0.492309 0.056296 -0.019426 -569169.000000 0 0 1
14.555875 0.744274 24.469100 28.480947 0.051088 0.537211 0.081634 -0.020285 -873358.000000 0 0 1
15.748975 1.442674 24.724200 29.349576 0.091349 0.569067 0.068796 -0.021911 -654707.000000 0 0 1
16.895675 0.896374 23.897500 29.280674 0.053004 0.616075 0.071876 -0.034638 -714957.000000 0 0 1
17.329075 -0.393126 24.286300 29.837489 -0.022682 0.619872 0.065604 -0.031888 137989.000000 0 0 1
18.272975 -0.950126 23.388800 29.695797 -0.051949 0.663871 0.065089 -0.020279 21870.200000 0 0 1
18.697375 -2.353126 23.826300 30.377979 -0.125195 0.669184 0.047895 -0.012793 -341737.000000 0 0 1
17.870975 -3.426426 23.421100 29.659064 -0.189432 0.660513 0.045821 -0.007052 330109.000000 0 0 1
18.373075 -4.757426 23.740400 30.394236 -0.253370 0.674399 0.031699 -0.001845 707639.000000 0 0 1
17.339275 -5.784226 23.120300 29.472971 -0.321982 0.668975 0.050151 -0.005846 654190.000000 0 0 1
17.328275 -5.809026 21.708200 28.377101 -0.323460 0.699770 0.061935 -0.009111 -137622.000000 0 0 1
16.507375 -6.742426 21.038100 27.578169 -0.387769 0.703081 0.073759 -0.014292 -487580.000000 0 0 1
16.926375 -8.165226 20.862500 28.078764 -0.449466 0.733256 0.076536 -0.016000 -295329.000000 0 0 1
16.902175 -8.967426 22.057200 29.199629 -0.487787 0.714542 0.066180 -0.014183 -68521.400000 0 0 1
17.345575 -10.253126 21.872200 29.738674 -0.533856 0.744421 0.058751 -0.015611 -187150.000000 0 0 1
17.230975 -11.070326 23.192300 30.940934 -0.571061 0.723389 0.063404 0.003292 422837.000000 0 0 1
15.913475 -11.558126 23.419800 30.582937 -0.628167 0.698543 0.083603 -0.008276 447829.000000 0 0 1
15.998975 -12.573326 24.405200 31.775298 -0.666074 0.694997 0.073393 0.004811 -624325.000000 0 0 1
14.830475 -13.513626 24.420200 31.605494 -0.738972 0.687781 0.083704 0.002828 -705421.000000 0 0 1
14.789175 -14.300526 23.224400 31.025756 -0.768602 0.724920 0.090303 -0.012877 514020.000000 0 0 1
13.697275 -15.219826 23.266000 30.992987 -0.838002 0.721697 0.076618 -0.016529 102423.000000 0 0 1
13.392675 -15.977726 21.940900 30.266394 -0.873187 0.759869 0.082729 -0.023991 -279084.000000 0 0 1
14.162375 -17.142226 21.889300 31.202087 -0.880301 0.793250 0.087232 -0.019646 269102.000000 0 0 1
13.958275 -17.812326 20.627500 30.620355 -0.906117 0.831656 0.074479 -0.010683 -257085.000000 0 0 1
-24.269625 -32.353407 26.516245 48.361853 0.927205 0.990480 0.056800 -0.016521 -83177.700000 0 0 1
-24.112525 -33.788607 26.613375 49.308777 0.950982 1.000681 0.067844 -0.011237 1199070.000000 0 0 1
-25.411465 33.808274 26.682145 50.006787 -0.926250 1.007980 0.075803 -0.023042 791857.000000 0 0 1
-25.945885 33.478374 28.088175 50.822594 -0.911484 0.985231 0.067874 -0.019150 -56377.300000 0 0 1
-26.677765 -33.638607 28.619225 51.597665 0.900295 0.982841 0.102678 -0.030289 158729.000000 0 0 1
-26.778395 -33.816607 30.030315 52.559158 0.901032 0.962632 0.061428 -0.027050 -461259.000000 0 0 1
-27.875085 -33.053807 30.752415 53.059264 0.870191 0.952576 0.055481 -0.031782 -624475.000000 0 0 1
-27.803575 -31.679407 30.527405 52.043693 0.850465 0.943976 0.056561 -0.025811 708251.000000 0 0 1
-28.741705 -31.018807 31.411795 52.677821 0.823484 0.931912 0.046377 -0.011412 398309.000000 0 0 1
-28.841895 -29.523707 31.106925 51.683120 0.797079 0.924946 0.041376 -0.017643 -227040.000000 0 0 1
-29.495045 -29.164607 29.903495 51.134636 0.779765 0.946164 0.048424 -0.010208 187906.000000 0 0 1
-29.793345 -27.818207 29.914625 50.560664 0.751128 0.937682 0.052750 -0.007127 -461163.000000 0 0 1
-30.632375 -27.373007 28.703125 50.114801 0.729266 0.960943 0.049017 -0.016664 -331450.000000 0 0 1
-30.081685 -27.318307 27.386775 49.002378 0.737293 0.977754 0.062753 -0.009869 76297.000000 0 0 1
-29.325975 -26.117107 27.188615 47.763342 0.727586 0.965220 0.049798 -0.011045 168263.000000 0 0 1
-28.395855 -26.026207 25.951215 46.445167 0.741884 0.977919 0.037525 -0.000560 -79224.700000 0 0 1
-29.044315 -26.013907 24.734125 46.174370 0.730414 1.005498 0.036858 -0.003392 -72052.300000 0 0 1
-28.068395 -26.144207 23.726675 45.103319 0.749920 1.016845 0.044190 0.003911 57662.600000 0 0 1
-28.713965 -26.372507 22.326165 44.927258 0.742919 1.050727 0.033168 0.007993 -80981.300000 0 0 1
-29.417985 -25.267107 21.817865 44.495660 0.709638 1.058320 0.039526 -0.000719 460222.000000 0 0 1
-29.975655 -25.656207 20.524365 44.475053 0.707910 1.091133 0.033110 0.012174 498831.000000 0 0 1
-30.828275 -24.562107 19.765965 44.095045 0.672750 1.105980 0.033918 0.008949 10375.500000 0 0 1
-31.954705 -24.067607 20.433065 44.920630 0.645532 1.098570 0.037234 0.004282 -70307.400000 0 0 1
-32.734615 -23.380107 19.483965 44.696860 0.620214 1.119743 0.039685 0.007551 317358.000000 0 0 1
-34.219996 -23.022007 19.793765 45.747284 0.592212 1.123337 0.053817 0.007594 964311.000000 0 0 1
-35.210744 -23.981707 19.366165 46.797084 0.597922 1.144136 0.046878 0.002374 -259922.000000 0 0 1
-36.479485 -23.407207 19.434065 47.500874 0.570486 1.149295 0.058662 -0.002870 -590283.000000 0 0 1
35.958092 -24.422407 18.782065 47.351920 -0.596623 1.162933 0.060753 -0.012829 -145934.000000 0 0 1
35.778592 -25.534507 19.622465 48.136886 -0.619849 1.150930 0.053151 -0.011240 34044.900000 0 0 1
35.226452 -26.658807 18.936465 48.064380 -0.647829 1.165837 0.044467 -0.005546 35944.900000 0 0 1
35.010812 -27.855107 19.926065 48.976648 -0.672061 1.151795 0.037098 -0.008390 648520.000000 0 0 1
33.835782 -27.811407 20.780365 48.478429 -0.687984 1.127796 0.039680 -0.007565 821868.000000 0 0 1
33.835952 -26.806107 21.826865 48.372007 -0.669990 1.102654 0.054709 -0.019067 1561170.000000 0 0 1
32.376802 -26.737307 22.505965 47.640942 -0.690286 1.078775 0.049424 -0.020756 1917710.000000 0 0 1
31.308572 -26.287207 21.691265 46.279098 -0.698435 1.082972 0.053487 -0.010633 -161393.000000 0 0 1
30.231582 -25.845907 22.473565 45.683920 -0.707350 1.056484 0.051552 -0.012510 -55763.300000 0 0 1
29.300882 -24.823907 21.722165 44.120522 -0.702870 1.056024 0.050933 -0.000470 -83341.100000 0 0 1
29.846232 -23.647507 21.118865 43.543181 -0.670035 1.064422 0.048551 0.001016 -159748.000000 0 0 1
30.632232 -22.856607 22.025565 44.112171 -0.641040 1.047996 0.065908 -0.006263 -325783.000000 0 0 1
31.505612 -21.944207 21.219565 43.868232 -0.608385 1.065906 0.060295 -0.005462 -375512.000000 0 0 1
30.775592 -20.808007 20.840565 42.596237 -0.594519 1.059557 0.054279 -0.012177 113489.000000 0 0 1
31.616112 -19.768707 20.333465 42.471521 -0.558796 1.071560 0.062651 -0.015048 -451935.000000 0 0 1
30.981662 -18.356007 20.334565 41.355784 -0.534872 1.056757 0.047014 -0.006820 -20988.300000 0 0 1
30.784922 -17.766707 21.643565 41.615036 -0.523429 1.023840 0.072186 -0.003646 -440809.000000 0 0 1
29.861782 -18.435307 22.411065 41.639433 -0.553083 1.002476 0.081287 -0.012021 -1033050.000000 0 0 1
29.901402 -18.002507 23.896055 42.299002 -0.541935 0.970446 0.077415 -0.005968 -16773.000000 0 0 1
29.310772 -16.763107 24.176695 41.528733 -0.519509 0.949404 0.067728 -0.003261 70221.500000 0 0 1
29.650832 -16.375707 25.493635 42.394116 -0.504596 0.925609 0.072014 -0.006510 -8870.520000 0 0 1
29.255352 -14.955407 25.906625 41.841284 -0.472569 0.903118 0.063940 -0.012147 84925.700000 0 0 1
27.896662 -14.731607 26.252995 41.042219 -0.485857 0.876743 0.067200 -0.006830 372814.000000 0 0 1
27.705462 -13.433207 26.835715 40.843595 -0.451461 0.853916 0.058630 -0.014942 -7355.970000 0 0 1
28.192562 -12.187107 26.028835 40.259736 -0.408021 0.867779 0.069922 -0.024144 -673501.000000 0 0 1
27.469962 -11.930807 24.853695 38.918493 -0.409740 0.878107 0.062519 -0.021613 19475.200000 0 0 1
28.110362 -11.151007 23.840795 38.508712 -0.377647 0.903198 0.074340 -0.017587 458408.000000 0 0 1
29.293282 -11.857707 23.103565 39.146856 -0.384631 0.939519 0.073100 -0.022374 567168.000000 0 0 1
28.704552 -12.738607 22.150265 38.429906 -0.417672 0.956503 0.073454 -0.021724 523697.000000 0 0 1
29.418242 -13.975807 22.075065 39.345453 -0.443508 0.975133 0.065069 -0.020646 -341958.000000 0 0 1
28.839662 -14.891607 20.958665 38.636145 -0.476649 0.997431 0.056290 -0.023459 -275173.000000 0 0 1
29.268112 -14.574107 19.698765 38.171564 -0.462008 1.028553 0.048802 -0.016378 -256782.000000 0 0 1
28.922592 -15.667207 18.864865 37.919135 -0.496444 1.050079 0.043885 -0.020786 -170624.000000 0 0 1
29.502582 -15.616207 17.424265 37.654658 -0.486825 1.089714 0.060689 -0.024088 -18203.700000 0 0 1
29.054402 -16.725407 16.598565 37.408687 -0.522329 1.111063 0.047705 -0.026244 1215700.000000 0 0 1
27.645862 -16.992807 16.412365 36.365023 -0.551129 1.102549 0.059824 -0.024872 828974.000000 0 0 1
26.821162 -15.995607 15.548265 34.885279 -0.537754 1.108844 0.061340 -0.016355 -521067.000000 0 0 1
27.034762 -16.219907 14.141965 34.553711 -0.540394 1.149137 0.067526 -0.022009 21588.600000 0 0 1
26.306262 -17.260607 13.567765 34.264154 -0.580680 1.163666 0.064252 -0.028820 -648822.000000 0 0 1
26.730262 -17.649507 12.170865 34.265755 -0.583569 1.207679 0.064515 -0.020444 -281181.000000 0 0 1
26.144262 -16.961607 11.081065 33.075800 -0.575510 1.229170 0.073039 -0.019839 -212459.000000 0 0 1
26.201962 -17.704407 9.851465 33.121597 -0.594224 1.268793 0.067982 -0.022646 598923.000000 0 0 1
27.585162 -17.843007 9.111765 34.093083 -0.574146 1.300246 0.070278 -0.008104 949525.000000 0 0 1
28.380432 -18.882707 9.672365 35.433885 -0.587085 1.294318 0.063081 -0.000781 -1061670.000000 0 0 1
29.721572 -18.716407 9.358865 36.349197 -0.561990 1.310392 0.065127 0.003228 -401989.000000 0 0 1
30.672512 -19.535007 10.276265 37.789167 -0.567104 1.295391 0.064773 -0.013800 -78301.400000 0 0 1
30.537652 -18.972007 11.560965 37.764284 -0.555910 1.259666 0.061127 -0.019561 201310.000000 0 0 1
30.469402 -19.902707 12.602165 38.513852 -0.578624 1.237445 0.049559 -0.016686 -35032.500000 0 0 1
30.049732 -19.278907 13.950665 38.331237 -0.570424 1.198291 0.066928 -0.015611 -1560.690000 0 0 1
29.831092 -20.317807 14.861465 39.032941 -0.597925 1.180198 0.059223 -0.020939 -115439.000000 0 0 1
29.773942 -19.807507 16.188265 39.254107 -0.587030 1.145713 0.066363 -0.021299 -135343.000000 0 0 1
29.618462 -20.885707 17.313865 40.165109 -0.614180 1.125121 0.054888 -0.015936 1000930.000000 0 0 1
28.378392 -21.637207 17.279365 39.649443 -0.651424 1.119866 0.022116 -0.009346 767053.000000 0 0 1
28.357672 -22.659707 18.226065 40.617845 -0.674172 1.105463 0.044197 -0.003072 -479959.000000 0 0 1
27.083662 -23.499707 18.158865 40.193350 -0.714664 1.102028 0.042637 0.000706 -417892.000000 0 0 1
25.998862 -22.691107 18.560465 39.183134 -0.717567 1.077326 0.041412 -0.000297 -49243.800000 0 0 1
24.820062 -23.486407 18.627265 38.918142 -0.757797 1.071706 0.034021 -0.003815 542251.000000 0 0 1
23.576562 -22.818107 19.280865 38.056169 -0.769052 1.039511 0.036530 0.002327 64864.300000 0 0 1
23.011662 -21.699607 18.566565 36.675971 -0.756062 1.039986 0.038238 -0.001213 1097410.000000 0 0 1
21.756062 -21.215507 19.113565 35.899197 -0.772819 1.009336 0.051874 -0.002839 1097270.000000 0 0 1
21.769162 -20.622407 20.564365 36.360324 -0.758353 0.969670 0.057024 -0.002178 -449302.000000 0 0 1
21.859762 -21.607307 21.561665 37.545044 -0.779590 0.959062 0.054374 -0.002264 -197451.000000 0 0 1
22.093462 -20.984107 22.803865 38.058771 -0.759651 0.928326 0.055324 -0.001470 199651.000000 0 0 1
22.648462 -21.915507 23.926185 39.568985 -0.768952 0.921445 0.048692 -0.003018 704293.000000 0 0 1
21.663162 -22.903107 24.283405 39.793576 -0.813213 0.914440 0.053311 -0.000697 457710.000000 0 0 1
22.150262 -23.697307 25.349505 41.167874 -0.819129 0.907447 0.055006 0.000634 -259461.000000 0 0 1
21.109562 -24.391307 26.244325 41.585022 -0.857398 0.887825 0.069207 -0.007654 -404720.000000 0 0 1
20.485162 -25.447607 25.580395 41.491917 -0.893018 0.906487 0.086686 -0.006336 -67680.300000 0 0 1
19.552362 -26.144507 26.355185 41.957429 -0.928668 0.891634 0.103206 -0.026074 99334.400000 0 0 1
18.629262 -27.164907 25.591985 41.712483 -0.969675 0.910269 0.105445 -0.021673 296671.000000 0 0 1
17.675862 -26.528607 24.755935 40.361608 -0.983051 0.910497 0.104677 -0.026703 370947.000000 0 0 1
17.253962 -27.408007 23.729275 40.149428 -1.008951 0.938469 0.097866 -0.028060 -458887.000000 0 0 1
16.301462 -26.922907 22.638465 38.769584 -1.026352 0.947243 0.086843 -0.027592 2116.810000 0 0 1
15.044962 -26.548007 23.187635 38.325109 -1.055216 0.921000 0.077229 -0.031838 35503.100000 0 0 1
14.389762 -25.675007 22.323465 36.940605 -1.059959 0.921901 0.056033 -0.022720 1527460.000000 0 0 1
12.877762 -25.274007 22.662565 36.307080 -1.099557 0.896700 0.048429 -0.022576 1536700.000000 0 0 1
11.885562 -26.252407 22.458565 36.535498 -1.145665 0.908784 0.053876 -0.030998 167811.000000 0 0 1
10.650562 -25.531207 22.330065 35.551495 -1.175586 0.891681 0.052269 -0.022327 926531.000000 0 0 1
9.373962 -26.418707 22.357365 35.856255 -1.229831 0.897550 0.062269 -0.028298 319212.000000 0 0 1
9.339462 -27.235607 21.185265 35.746598 -1.240448 0.936450 0.064305 -0.025295 430662.000000 0 0 1
8.060362 -27.863607 21.120565 35.880751 -1.289204 0.941431 0.061850 -0.023303 378857.000000 0 0 1
7.722862 -28.678007 19.911165 35.756470 -1.307741 0.980202 0.068034 -0.021833 -25619.500000 0 0 1
8.189462 -30.018707 19.965865 36.970607 -1.304465 1.000303 0.072822 -0.025233 127151.000000 0 0 1
7.789662 -30.727307 18.843465 36.877126 -1.322517 1.034472 0.061733 -0.023091 -85001.900000 0 0 1
8.390762 -32.136607 18.855965 38.193112 -1.315401 1.054456 0.069279 -0.027960 -88931.400000 0 0 1
7.935862 -32.980807 19.866665 39.311524 -1.334665 1.040992 0.081768 -0.033905 140663.000000 0 0 1
8.583762 33.989774 19.774765 40.249560 1.323429 1.057210 0.091926 -0.035219 -28666.500000 0 0 1
8.078462 32.944374 20.796665 39.788121 1.330326 1.020799 0.105735 -0.042075 331016.000000 0 0 1
6.961362 32.175974 20.324065 38.688777 1.357727 1.017703 0.095259 -0.044458 350249.000000 0 0 1
6.807262 31.042374 21.145765 38.172126 1.354924 0.983685 0.106682 -0.051118 92457.200000 0 0 1
5.743762 29.994074 20.728965 36.909691 1.381590 0.974462 0.073031 -0.042472 1693860.000000 0 0 1
4.371662 30.489674 20.845265 37.192159 1.428385 0.975837 0.075515 -0.037190 1163890.000000 0 0 1
3.433262 29.487074 20.534965 36.096532 1.454885 0.965640 0.075001 -0.030838 151730.000000 0 0 1
2.203662 29.395674 21.466765 36.466201 1.495971 0.941377 0.040854 -0.023873 -37856.900000 0 0 1
2.302462 28.862274 22.781365 36.841862 1.491191 0.904148 0.041468 -0.032000 -206724.000000 0 0 1
0.974262 28.875574 23.232345 37.074113 1.537069 0.893554 0.020642 -0.022415 -162062.000000 0 0 1
0.856162 28.294174 24.668025 37.547367 1.540546 0.853985 0.039197 -0.022231 -386282.000000 0 0 1
1.176662 29.231374 25.649525 38.907016 1.530565 0.850973 0.049630 -0.027177 235907.000000 0 0 1
1.223062 28.856574 27.011355 39.545051 1.528438 0.818862 0.043194 -0.020448 -203246.000000 0 0 1
2.451962 28.028074 27.434555 39.296817 1.483536 0.798004 0.038639 -0.023061 -378649.000000 0 0 1
2.438062 26.761474 26.874045 38.004407 1.479944 0.785366 0.040742 -0.023469 1460330.000000 0 0 1
3.499762 25.916874 27.473445 37.930501 1.436570 0.760763 0.028876 -0.012329 1164830.000000 0 0 1
3.823362 24.624874 26.724685 36.540543 1.416762 0.750467 0.020421 -0.006043 -471615.000000 0 0 1
2.817562 23.692674 26.844815 35.915534 1.452431 0.726592 0.035911 -0.005910 -362271.000000 0 0 1
3.306062 22.431674 26.275995 34.706454 1.424466 0.711945 0.020107 0.001692 41236.600000 0 0 1
2.363762 21.228974 26.380445 33.943845 1.459907 0.680626 0.035350 0.003362 -407198.000000 0 0 1
2.916762 19.933374 26.607275 33.373552 1.425502 0.648060 0.033699 0.005481 -52100.300000 0 0 1
3.548562 19.360974 25.468905 32.188581 1.389524 0.657962 0.032921 0.006487 -294086.000000 0 0 1
4.163462 17.982574 25.868675 31.778857 1.343278 0.619754 0.032614 0.003283 -463216.000000 0 0 1
5.386462 17.984474 26.532805 32.503000 1.279793 0.615788 0.018098 0.002007 -1025040.000000 0 0 1
6.488762 17.873774 25.704165 31.973113 1.222559 0.636921 0.016975 0.003304 -1130840.000000 0 0 1
7.794062 18.080274 26.487945 33.003863 1.163786 0.639204 0.019155 -0.008104 -343601.000000 0 0 1
8.031662 19.325274 27.140865 34.272443 1.176911 0.656857 0.020065 -0.005829 55140.600000 0 0 1
8.551962 20.370774 26.356025 34.391053 1.173325 0.697636 0.019870 -0.001493 -296724.000000 0 0 1
8.949162 21.575374 27.222705 35.870042 1.177609 0.709134 0.016737 0.000253 466350.000000 0 0 1
10.094462 21.334174 28.055405 36.662664 1.128851 0.699396 0.038843 -0.014826 488501.000000 0 0 1
10.377962 22.376474 28.967345 38.046232 1.136535 0.705369 0.063204 -0.026883 702849.000000 0 0 1
11.614562 22.052974 29.909345 38.933284 1.086044 0.694740 0.075716 -0.026858 612775.000000 0 0 1
12.809262 21.950574 29.170755 38.688989 1.042560 0.716695 0.086137 -0.032221 -57626.400000 0 0 1
13.883962 21.798674 30.112875 39.682891 1.003673 0.709270 0.084326 -0.025583 400669.000000 0 0 1
15.291462 21.661774 29.495985 39.662002 0.956109 0.732233 0.073639 -0.026424 140392.000000 0 0 1
15.758662 22.917474 28.955015 40.148959 0.968423 0.765278 0.065367 -0.029443 -13871.000000 0 0 1
17.082762 22.701474 28.508785 40.248335 0.925700 0.783678 0.100485 -0.026956 101934.000000 0 0 1
-8.674825 16.572674 4.412400 19.219141 -1.088572 1.339146 0.022761 -0.022891 -458540.000000 0 1 0
-8.558725 17.877974 5.015500 20.445757 -1.124309 1.322959 0.028593 -0.027333 -495556.000000 0 1 0
-7.272825 18.409774 5.059300 20.430621 -1.194562 1.320560 0.033082 -0.020165 -979254.000000 0 1 0
-7.220525 19.768074 5.745900 21.815776 -1.220590 1.304269 0.043016 -0.023352 47098.000000 0 1 0
-7.568025 20.963474 5.041600 22.850820 -1.224347 1.348335 0.055517 -0.027766 1052390.000000 0 1 0
-8.937125 20.957774 4.571000 23.237782 -1.167711 1.372800 0.052815 -0.038702 586490.000000 0 1 0
-9.199225 22.156674 3.646700 24.266074 -1.177264 1.419945 0.072961 -0.036259 303756.000000 0 1 0
-8.429425 22.170674 2.422600 23.842462 -1.207469 1.469012 0.056882 -0.030647 144114.000000 0 1 0
-8.576125 21.059074 1.596300 22.794357 -1.184063 1.500708 0.059534 -0.031066 -847290.000000 0 1 0
-7.836125 21.070074 0.204500 22.480985 -1.214739 1.561700 0.043460 -0.015396 1120670.000000 0 1 0
-6.537225 20.452474 0.299100 21.473902 -1.261429 1.556867 0.037664 -0.009467 105616.000000 0 1 0
-5.541325 21.330374 0.707900 22.049768 -1.316629 1.538686 0.042876 -0.020477 -1019000.000000 0 1 0
-4.230225 21.125574 -0.067300 21.545051 -1.373168 1.573920 0.034922 -0.013715 -92599.600000 0 1 0
-4.368925 21.466274 -1.445200 21.953975 -1.370014 1.636673 0.031675 -0.009423 604229.000000 0 1 0
-3.050825 21.499774 -2.001300 21.807178 -1.429837 1.662698 0.032487 -0.006245 700732.000000 0 1 0
-3.085125 21.611574 -3.564900 22.119825 -1.429001 1.732665 0.032588 -0.002226 455045.000000 0 1 0
-1.811725 21.885074 -4.140600 22.346888 -1.488201 1.757161 0.045342 -0.007161 365897.000000 0 1 0
-1.996025 22.090274 -5.576400 22.870517 -1.480683 1.817104 0.052524 -0.019207 -32587.200000 0 1 0
-0.853725 22.891474 -6.222800 23.737558 -1.533519 1.836046 0.066683 -0.024940 639843.000000 0 1 0
0.391575 22.185274 -6.126200 23.018906 1.553148 1.840180 0.065784 -0.013170 -115684.000000 0 1 0
1.428975 22.846974 -6.774900 23.873112 1.508332 1.858538 0.088163 -0.018495 -191036.000000 0 1 0
2.761775 22.067274 -6.713200 23.230563 1.446291 1.863959 0.061302 -0.009089 -30476.200000 0 1 0
2.723075 20.987074 -7.617600 22.492226 1.441767 1.916307 0.065603 -0.021246 -464965.000000 0 1 0
3.694275 20.025174 -7.377600 21.658353 1.388366 1.918389 0.050893 -0.019692 -261522.000000 0 1 0
3.685475 18.825074 -8.339300 20.916741 1.377467 1.980885 0.040907 -0.025520 115257.000000 0 1 0
4.138775 19.129874 -9.663800 21.828206 1.357729 2.029427 0.051186 -0.030440 -129200.000000 0 1 0
3.056875 19.320174 -10.530800 22.215116 1.413875 2.064667 0.049034 -0.023843 -787043.000000 0 1 0
3.488475 19.716774 -11.983000 23.334801 1.395679 2.110084 0.050565 -0.022353 55306.600000 0 1 0
3.638775 21.063174 -12.287100 24.655036 1.399729 2.092503 0.093386 -0.029191 -240732.000000 0 1 0
3.905875 21.095274 -13.719100 25.465274 1.387716 2.139734 0.095574 -0.027509 182374.000000 0 0 1
4.257875 22.435374 -14.394800 26.994180 1.383243 2.133241 0.097783 -0.029698 -654765.000000 0 0 1
3.221575 23.351374 -14.438300 27.642896 1.433701 2.120360 0.113391 -0.034119 -784915.000000 0 0 1
3.587575 24.649174 -14.870700 29.010174 1.426266 2.109010 0.105086 -0.037335 -113526.000000 0 0 1
2.401475 25.628974 -15.072500 29.829376 1.477368 2.100515 0.102263 -0.029144 239114.000000 0 0 1
1.788275 26.014974 -13.812600 29.508723 1.502164 2.057919 0.119505 -0.041577 49721.500000 0 0 1
1.355375 27.355674 -13.928400 30.727354 1.521290 2.041249 0.092802 -0.035396 -1310880.000000 0 0 1
0.393375 27.797674 -12.801700 30.606355 1.556646 2.002335 0.099331 -0.039529 387960.000000 0 0 1
-0.999725 27.550374 -12.990800 30.475949 -1.534525 2.011155 0.083972 -0.040504 331668.000000 0 0 1
-1.359325 26.197674 -13.235900 29.382902 -1.518956 2.038080 0.077495 -0.043070 -1340370.000000 0 0 1
-1.291625 25.240674 -11.975600 27.967390 -1.519669 2.013295 0.107033 -0.042669 -2389.800000 0 0 1
-2.253325 25.541174 -10.949100 27.880313 -1.482801 1.974381 0.097149 -0.038178 183965.000000 0 0 1
-2.907625 24.356674 -10.550600 26.702378 -1.451982 1.976993 0.127076 -0.033302 149186.000000 0 0 1
-3.926925 24.643374 -9.414400 26.671100 -1.412775 1.931552 0.092775 -0.022548 -126158.000000 0 0 1
-3.397525 24.757974 -8.130000 26.279219 -1.434419 1.885327 0.091980 -0.023915 -164317.000000 0 0 1
-2.811925 26.025074 -7.856600 27.330159 -1.463167 1.862381 0.094849 -0.028776 197301.000000 0 0 1
-2.574525 26.444574 -6.384900 27.326006 -1.473747 1.806633 0.079175 -0.021902 841267.000000 0 0 1
-1.421825 25.864474 -5.731600 26.530055 -1.515879 1.788555 0.080686 -0.023431 597233.000000 0 0 1
-1.308425 26.261074 -4.349900 26.651034 -1.521014 1.734747 0.081144 -0.021479 527792.000000 0 0 1
-2.382525 25.673274 -3.320800 25.996560 -1.478260 1.698886 0.069699 -0.016152 -114413.000000 0 0 1
-3.668725 26.179674 -3.390000 26.651960 -1.431567 1.698337 0.051778 -0.013175 -1007830.000000 0 0 1
-4.442325 25.469874 -2.449400 25.970142 -1.398118 1.665253 0.053821 -0.002461 407619.000000 0 0 1
-5.643925 24.647074 -3.069700 25.470673 -1.345688 1.691609 0.043023 -0.003441 -63699.100000 0 0 1
-6.690925 25.462074 -3.500400 26.558209 -1.313826 1.702982 0.032286 -0.004527 -536916.000000 0 0 1
-7.732625 24.579774 -3.911700 26.062620 -1.266006 1.721454 0.033162 -0.001406 18162.200000 0 0 1
-9.098325 25.253274 -4.071800 27.149345 -1.224990 1.721342 0.031114 -0.007431 -388332.000000 0 0 1
-9.751225 25.503874 -2.844800 27.452265 -1.205604 1.674610 0.037962 -0.013983 27684.600000 0 0 1
-11.048425 26.039974 -3.113300 28.457698 -1.169530 1.680417 0.043478 -0.017457 666142.000000 0 0 1
-11.856225 26.291974 -1.795100 28.897411 -1.147157 1.632956 0.056499 -0.020562 188395.000000 0 0 1
-12.323125 25.180474 -1.051900 28.053915 -1.115671 1.608301 0.062420 -0.019481 504264.000000 0 0 1
-11.267025 24.526074 -0.333000 26.992315 -1.140161 1.583133 0.059586 -0.024725 388606.000000 0 0 1
-11.629125 23.105974 0.103300 25.867610 -1.104516 1.566803 0.059146 -0.021461 -340633.000000 0 0 1
-12.608025 23.139374 1.090600 26.373895 -1.071898 1.529433 0.068625 -0.021053 -559123.000000 0 0 1
-12.921125 21.810674 1.392400 25.388969 -1.035967 1.515926 0.070511 -0.027411 -708817.000000 0 0 1
-13.938525 21.719474 2.514800 25.929563 -1.000241 1.473658 0.072705 -0.029717 -610243.000000 0 0 1
-13.596225 21.950074 3.904500 26.113372 -1.016223 1.420712 0.062674 -0.032724 -332957.000000 0 0 1
-13.123825 23.204674 4.187500 26.985678 -1.056079 1.414992 0.057052 -0.025528 -243240.000000 0 0 1
-12.665125 23.404574 5.638400 27.202408 -1.074782 1.362007 0.055738 -0.020881 -125800.000000 0 0 1
-11.543825 22.648774 6.047400 26.130402 -1.099428 1.337247 0.057601 -0.021085 123029.000000 0 0 1
-11.782925 22.376974 7.427100 26.357695 -1.086124 1.285146 0.050520 -0.020089 -328486.000000 0 0 1
-10.532725 21.951774 8.190400 25.688545 -1.123429 1.246297 0.045636 -0.020128 -748982.000000 0 0 1
-9.595525 22.982274 8.306100 26.253577 -1.175280 1.248886 0.058228 -0.019556 -337961.000000 0 0 1
-8.488725 22.732074 9.123500 25.923809 -1.213407 1.211159 0.066771 -0.021017 -196043.000000 0 0 1
-8.775625 22.704074 10.646900 26.567707 -1.201963 1.158465 0.052769 -0.020351 25579.600000 0 0 1
-9.589725 21.569074 11.030200 26.054809 -1.152438 1.133661 0.055671 -0.019618 317192.000000 0 0 1
-9.252525 21.185474 12.329200 26.200052 -1.159025 1.080849 0.051351 -0.014343 -251121.000000 0 0 1
-9.985625 19.983974 12.901800 25.797836 -1.107403 1.047069 0.048408 -0.006160 -421010.000000 0 0 1
-10.010925 18.779174 12.077000 24.468958 -1.081031 1.054613 0.057838 -0.017888 -13790.300000 0 1 0
-10.430325 17.650974 12.816000 24.178470 -1.037080 1.012127 0.045239 -0.012711 -5280.470000 0 1 0
-10.791325 16.443974 11.880300 22.978218 -0.990041 1.027425 0.038957 -0.012266 111226.000000 0 1 0
-11.212025 15.244474 12.620300 22.745889 -0.936652 0.982627 0.044569 -0.009688 254461.000000 0 1 0
-11.601425 14.266074 11.661900 21.774155 -0.888048 1.005597 0.033512 -0.002963 117065.000000 0 1 0
-11.778825 12.857874 12.265000 21.318909 -0.829169 0.957812 0.022031 -0.009583 772421.000000 0 1 0
-12.867925 12.797174 13.219400 22.452254 -0.782641 0.941250 0.032662 -0.003072 425498.000000 0 1 0
-13.361225 11.471274 13.274900 22.053014 -0.709437 0.924850 0.030845 -0.010460 -277252.000000 0 1 0
-14.262525 11.414474 14.481700 23.311574 -0.674931 0.900493 0.044581 -0.014004 -267677.000000 0 1 0
-15.424125 12.206574 14.400000 24.377532 -0.669472 0.938860 0.052306 -0.013491 -72173.500000 0 1 0
-16.237925 12.000074 15.556800 25.488939 -0.636434 0.914312 0.043023 -0.012242 884831.000000 0 0 1
-17.410925 13.013574 15.808400 26.877480 -0.641859 0.942008 0.044460 -0.013366 654763.000000 0 0 1
-18.584625 12.885374 15.025500 27.151184 -0.606239 0.984354 0.050926 -0.013002 315880.000000 0 0 1
-19.390825 14.073974 15.052500 28.295911 -0.627836 1.009874 0.061939 -0.013631 -527870.000000 0 0 1
-20.524425 14.022974 14.051700 28.554266 -0.599384 1.056290 0.072538 -0.020761 -764177.000000 0 0 1
-21.458425 13.070374 14.508400 29.013658 -0.547085 1.047135 0.074244 -0.018979 -715596.000000 0 0 1
-22.539225 13.025774 13.628600 29.384114 -0.524023 1.088507 0.061169 -0.021102 -590170.000000 0 0 1
-23.548525 11.969074 14.130300 29.957589 -0.470244 1.079605 0.057223 -0.018153 115745.000000 0 0 1
-24.316525 12.425874 15.278700 31.291123 -0.472413 1.060683 0.061682 -0.016193 908372.000000 0 0 1
-25.318395 11.463474 15.645300 31.893695 -0.425157 1.058081 0.050198 -0.019753 349536.000000 0 0 1
-26.145385 11.831374 16.900400 33.304445 -0.424950 1.038571 0.048852 -0.007922 385672.000000 0 0 1
-27.086005 12.894174 16.649000 34.308899 -0.444301 1.064127 0.066979 -0.008307 591702.000000 0 0 1
-27.649525 13.456774 17.801300 35.531215 -0.452944 1.046037 0.067799 0.002771 -350622.000000 0 0 1
-28.788875 14.404474 17.505300 36.643195 -0.463926 1.072735 0.073450 -0.007264 -267652.000000 0 0 1
-28.255795 15.653174 17.166000 36.579822 -0.505895 1.082327 0.079691 -0.010212 560292.000000 0 0 1
-29.320685 16.584174 16.986000 37.726139 -0.514751 1.103757 0.093707 -0.008627 433604.000000 0 0 1
-28.745895 18.044874 16.777000 37.860424 -0.560565 1.111712 0.091751 -0.010475 36266.300000 0 0 1
-28.120975 18.613374 17.945600 38.200674 -0.584698 1.081764 0.089506 -0.017118 66310.400000 0 0 1
-28.928905 19.101874 19.015300 39.539155 -0.583585 1.069089 0.101492 -0.023657 -648999.000000 0 0 1
-28.186455 19.213474 20.374400 39.733487 -0.598308 1.032381 0.102592 -0.036067 109359.000000 0 0 1
-27.822185 18.043874 21.063700 39.285300 -0.575350 1.004900 0.101789 -0.030584 42045.200000 0 0 1
-26.881295 17.197474 20.457100 37.905805 -0.569140 1.000736 0.093052 -0.013642 -610152.000000 0 0 1
-26.662655 15.865274 21.170600 37.560596 -0.536762 0.972012 0.087227 -0.011152 -1001710.000000 0 0 1
-27.694695 14.973774 21.194700 37.952936 -0.495654 0.978284 0.079488 -0.005750 -792331.000000 0 0 1
-27.269435 13.704474 21.694400 37.444381 -0.465692 0.952833 0.069541 0.003619 -525029.000000 0 0 1
-28.413915 12.781274 22.069400 38.180753 -0.422708 0.954491 0.068832 -0.006057 -406946.000000 0 0 1
-29.062975 12.344174 20.881500 37.855940 -0.401649 0.986510 0.062928 -0.006619 -404216.000000 0 0 1
-30.211045 11.586774 21.061200 38.607444 -0.366226 0.993785 0.076543 -0.009495 -725964.000000 0 0 1
-30.857075 11.402674 19.669100 38.328234 -0.353968 1.031916 0.090243 -0.016425 -299584.000000 0 0 1
-30.003005 10.813774 18.696400 36.968546 -0.345930 1.040559 0.117532 -0.023957 439319.000000 0 0 1
-29.631205 9.464974 18.854300 36.374148 -0.309182 1.025884 0.125900 -0.028685 -345279.000000 0 0 1
-28.955055 8.888774 17.598600 35.030219 -0.297853 1.044443 0.133838 -0.034751 151975.000000 0 0 1
-29.779305 8.392274 16.510300 35.068893 -0.274692 1.080603 0.140811 -0.029199 671973.000000 0 0 1
-30.565195 9.274374 15.711600 35.596341 -0.294600 1.113658 0.139059 -0.031846 -73157.500000 0 0 1
-29.816145 10.464774 14.981000 34.970621 -0.337545 1.128088 0.122109 -0.019493 86587.000000 0 0 1
-29.191575 10.084974 13.740400 33.803156 -0.332638 1.152195 0.111330 -0.031619 200904.000000 0 0 1
-28.360005 11.147074 13.351300 33.268669 -0.374506 1.157841 0.097911 -0.020172 -162989.000000 0 0 1
-27.841005 11.050774 11.876700 32.222619 -0.377852 1.193312 0.102715 -0.015714 -100789.000000 0 0 1
-27.037805 9.947474 11.460200 31.005343 -0.352540 1.192196 0.119106 -0.019913 725495.000000 0 0 1
-27.712645 8.674674 11.294700 31.157838 -0.303361 1.199848 0.127804 -0.019617 -91448.700000 0 0 1
-26.862255 7.641674 10.559200 29.857539 -0.277155 1.209323 0.138032 -0.019131 -238074.000000 0 0 1
-26.669455 8.022574 9.192200 29.327769 -0.292204 1.251994 0.142286 -0.016639 170722.000000 0 0 1
-26.168295 6.910574 8.481300 28.363147 -0.258188 1.267125 0.154422 -0.020144 -176362.000000 0 0 1
-25.590335 7.288774 7.091800 27.536977 -0.277478 1.310324 0.152855 -0.009315 217197.000000 0 0 1
-26.562105 7.865874 6.214000 28.390688 -0.287904 1.350135 0.170045 -0.012947 140378.000000 0 0 1
-25.965925 8.287074 5.015300 27.713861 -0.308933 1.388827 0.169582 -0.021959 -3994.910000 0 0 1
-26.900875 8.690574 3.837300 28.529073 -0.312475 1.435883 0.172511 -0.022990 -205347.000000 0 0 1
-27.515535 7.587074 3.114500 28.711817 -0.269052 1.462108 0.182411 -0.027861 367154.000000 0 0 1
-26.750905 6.608174 2.397500 27.659119 -0.242178 1.484007 0.181702 -0.025809 -268732.000000 0 0 1
-25.773355 7.066874 1.321600 26.757301 -0.267616 1.521384 0.180323 -0.023711 206462.000000 0 0 1
-24.517525 7.594974 1.708000 25.723723 -0.300403 1.504350 0.143782 -0.016951 373284.000000 0 0 1
-23.524425 7.482374 0.722100 24.696273 -0.307950 1.541553 0.137043 -0.009915 -95934.600000 0 1 0
-22.290625 8.351774 1.075200 23.828137 -0.358487 1.525658 0.099906 -0.006795 -86581.700000 0 1 0
-22.488425 9.803974 1.068700 24.555840 -0.411114 1.527261 0.090195 -0.013906 471714.000000 0 1 0
-21.394925 10.403474 1.709000 23.851536 -0.452594 1.499083 0.089344 -0.010983 -131730.000000 0 1 0
-21.882525 11.622774 2.478400 24.901330 -0.488251 1.471102 0.095138 -0.021906 -634938.000000 0 1 0
-20.818425 12.336674 2.976200 24.381511 -0.534949 1.448423 0.094559 -0.022805 -392188.000000 0 1 0
-21.250725 13.488174 3.676700 25.437025 -0.565556 1.425747 0.095254 -0.032073 -390256.000000 0 0 1
-20.189125 14.377474 4.382600 25.169817 -0.618827 1.395783 0.074037 -0.023220 9399.520000 0 0 1
-19.551325 13.581174 5.353200 24.399986 -0.607121 1.349603 0.062818 -0.025556 -25529.000000 0 1 0
-18.742525 14.268374 6.271800 24.376304 -0.650684 1.310579 0.066988 -0.024229 136426.000000 0 1 0
-18.061025 13.269874 7.269500 23.561320 -0.633653 1.257143 0.040238 -0.026690 387301.000000 0 1 0
-17.113925 12.322574 6.752800 22.143454 -0.624044 1.260903 0.049268 -0.020350 397385.000000 0 1 0
-16.516425 11.711374 7.822600 21.705797 -0.616790 1.202108 0.033400 -0.013584 -554165.000000 0 1 0
10.589275 -32.940107 -14.511200 37.520105 -1.259760 1.967910 0.036035 0.000533 -6267.960000 0 0 1
11.777275 -32.935007 -13.748600 37.582481 -1.227375 1.945315 0.027350 -0.002969 148977.000000 0 0 1
12.496275 -31.719307 -13.814300 36.784592 -1.195504 1.955782 0.029650 -0.014353 -390527.000000 0 0 1
13.798775 -31.747607 -13.007900 36.980024 -1.160789 1.930241 0.041296 -0.015203 -626028.000000 0 0 1
14.763175 -32.527807 -13.630200 38.233387 -1.144734 1.935315 0.041317 -0.016348 -782769.000000 0 0 1
16.047775 -32.025907 -13.368400 38.234852 -1.106279 1.927982 0.047355 -0.018965 278267.000000 0 0 1
17.217475 -32.930207 -13.867500 39.662924 -1.089038 1.927977 0.056230 -0.030473 442541.000000 0 0 1
17.241175 34.062574 -13.166500 40.384079 1.102231 1.902899 0.050607 -0.027680 88536.000000 0 0 1
18.252575 33.243074 -13.754000 40.341430 1.068672 1.918713 0.045479 -0.014336 212833.000000 0 0 1
18.314875 31.853674 -13.124500 39.017223 1.048985 1.913863 0.033681 -0.014967 -349663.000000 0 0 1
18.951075 31.834274 -11.882100 38.906922 1.033837 1.881153 0.025908 -0.017922 -157777.000000 0 0 1
18.823475 30.532174 -11.345000 37.619754 1.018323 1.877136 0.016276 -0.012016 362144.000000 0 0 1
19.677175 30.407374 -10.018800 37.578930 0.996449 1.840667 0.017495 -0.010920 130733.000000 0 0 1
20.977575 29.932674 -10.235200 37.957647 0.959517 1.843824 0.020949 -0.014236 -278867.000000 0 0 1
21.689275 29.831374 -8.990400 37.962651 0.942138 1.809890 0.014066 -0.015873 -393109.000000 0 0 1
23.009575 29.143074 -9.244000 38.265008 0.902467 1.814788 0.028979 -0.010111 -599508.000000 0 0 1
23.969175 29.750974 -10.101800 39.518201 0.892614 1.829289 0.045490 -0.020591 -225051.000000 0 0 1
25.110375 28.946874 -10.114900 39.632861 0.856250 1.828866 0.055238 -0.013826 -734139.000000 0 0 1
26.167375 29.448274 -11.090400 40.925901 0.844322 1.845215 0.055438 -0.017542 -465387.000000 0 0 1
26.813575 30.615774 -10.609400 42.057732 0.851508 1.825809 0.077927 -0.031984 -517863.000000 0 0 1
27.845475 30.972074 -11.448200 43.193763 0.838506 1.839045 0.090048 -0.025218 -514636.000000 0 0 1
28.602875 32.257574 -11.114400 44.521966 0.845377 1.823103 0.094444 -0.030254 -294720.000000 0 0 1
28.028275 33.394874 -11.667800 45.132465 0.872548 1.832290 0.094057 -0.027321 40571.300000 0 0 1
28.519975 -33.616307 -11.138900 45.469992 -0.867234 1.818288 0.106262 -0.031892 542611.000000 0 0 1
27.489075 -32.549507 -11.657900 44.170423 -0.869486 1.837891 0.084915 -0.029215 1304530.000000 0 0 1
26.169475 -32.690507 -11.103800 43.322108 -0.895737 1.829997 0.080275 -0.037199 825328.000000 0 0 1
25.170275 -31.716707 -11.418800 42.069957 -0.899972 1.845669 0.081310 -0.040179 524404.000000 0 0 1
25.426775 -30.218807 -11.039400 41.006896 -0.871303 1.843367 0.065058 -0.030095 -909297.000000 0 0 1
26.511975 -29.595307 -11.644500 41.404848 -0.840297 1.855877 0.060441 -0.022351 -473394.000000 0 0 1
26.615775 -28.172707 -11.403400 40.399733 -0.813808 1.856950 0.052744 -0.009699 -335855.000000 0 0 1
27.592975 -27.554007 -12.398200 40.918345 -0.784692 1.878634 0.067477 -0.017134 112856.000000 0 0 1
28.887175 -28.126307 -12.417700 42.187170 -0.772054 1.869569 0.052320 -0.010618 40832.200000 0 0 1
29.125375 -28.874307 -13.587800 43.204646 -0.781069 1.890725 0.071370 -0.017242 586377.000000 0 0 1
30.589375 -29.408507 -13.792300 44.618356 -0.765719 1.885061 0.083412 -0.008521 710330.000000 0 0 1
30.962275 -30.467807 -12.968900 45.333675 -0.777349 1.860926 0.082274 -0.017722 54574.600000 0 0 1
32.061275 -31.233207 -13.427800 46.730551 -0.772316 1.862250 0.077680 -0.017190 -65257.900000 0 0 1
32.504675 -32.251907 -12.380600 47.434362 -0.781495 1.834859 0.067537 -0.014307 128900.000000 0 0 1
33.509675 -33.101107 -12.925400 48.843091 -0.779265 1.838618 0.056688 -0.018157 569100.000000 0 0 1
34.228175 -33.957107 -11.966800 49.677534 -0.781423 1.814079 0.053674 -0.012324 686678.000000 0 0 1
33.386775 33.199374 -11.186600 48.394372 0.782584 1.804061 0.060954 -0.021480 241582.000000 0 0 1
32.841675 33.563474 -9.924700 47.995647 0.796267 1.779082 0.067150 -0.029659 -104892.000000 0 0 1
32.251375 32.459474 -9.271700 46.687612 0.788614 1.770716 0.083188 -0.026355 -168627.000000 0 0 1
31.347675 32.805074 -8.082200 46.088736 0.808112 1.747069 0.070895 -0.026432 -537043.000000 0 0 1
30.271875 33.594874 -8.476700 46.009308 0.837381 1.756094 0.066939 -0.027041 -807153.000000 0 0 1
29.379775 33.647974 -7.354000 45.270727 0.853014 1.733964 0.057385 -0.022685 582866.000000 0 0 1
28.395175 -33.401007 -7.468200 44.471196 -0.866227 1.739529 0.051622 -0.021387 227217.000000 0 0 1
29.154875 -32.197807 -7.495800 44.078255 -0.834955 1.741683 0.031020 -0.022255 439598.000000 0 0 1
28.449775 -31.169007 -8.201000 42.990151 -0.830977 1.762737 0.039635 -0.009928 279497.000000 0 0 1
27.515275 -30.378407 -7.263700 41.625705 -0.834813 1.746195 0.046666 -0.007355 -98231.300000 0 0 1
26.704875 -29.458407 -7.928100 40.543839 -0.834386 1.767608 0.030717 -0.011041 -87384.700000 0 0 1
25.634675 -29.076707 -7.078400 39.404254 -0.848228 1.751412 0.032661 -0.019691 -3410.980000 0 0 1
24.608075 -28.163107 -7.762000 38.196421 -0.852663 1.775434 0.065345 -0.024512 -821524.000000 0 0 1
23.762375 -28.817807 -8.634000 38.336177 -0.881251 1.797963 0.090213 -0.033434 -452064.000000 0 0 1
23.003075 -27.879707 -9.331100 37.329465 -0.880947 1.823442 0.110042 -0.040933 -640997.000000 0 0 1
21.686575 -28.453407 -9.876800 37.114082 -0.919546 1.840162 0.102562 -0.033468 -553546.000000 0 0 1
21.673275 -29.349507 -10.965600 38.096835 -0.934725 1.862762 0.107056 -0.035426 -251141.000000 0 0 1
20.414375 -29.896207 -11.280600 37.918094 -0.971679 1.872868 0.099132 -0.035119 22519.900000 0 0 1
20.062375 -31.226407 -10.541000 38.583676 -0.999725 1.847513 0.095947 -0.046012 -513967.000000 0 0 1
20.951475 -32.257507 -10.781300 39.946808 -0.994768 1.844077 0.085529 -0.041934 -625133.000000 0 0 1
20.539675 -33.556307 -10.375600 40.688537 -1.021530 1.828645 0.076599 -0.041569 -19985.100000 0 0 1
21.699575 33.672574 -10.544800 41.423503 0.998348 1.828190 0.059537 -0.035473 471940.000000 0 0 1
22.743775 33.836874 -9.599400 41.885103 0.979001 1.802036 0.051505 -0.029044 600138.000000 0 0 1
23.913375 33.026474 -9.857400 41.949563 0.944100 1.807997 0.057866 -0.030984 769476.000000 0 0 1
25.104775 33.576174 -9.007300 42.880540 0.928771 1.782428 0.063105 -0.031134 -16381.000000 0 0 1
25.141075 33.076474 -7.654900 42.245998 0.920869 1.753001 0.062665 -0.035866 233553.000000 0 0 1
25.651075 31.725974 -7.703400 41.519363 0.890882 1.757415 0.065731 -0.020165 -362230.000000 0 0 1
25.734575 31.091674 -6.288500 40.847348 0.879392 1.725362 0.055907 -0.023375 -66548.300000 0 0 1
26.748975 31.684074 -5.452500 41.822458 0.869656 1.701541 0.070294 -0.026168 187831.000000 0 0 1
27.724375 30.835974 -4.903400 41.755738 0.838483 1.688498 0.084876 -0.026424 -38693.300000 0 0 1
27.380275 29.727974 -3.894000 40.602896 0.826485 1.666848 0.077621 -0.017750 -684556.000000 0 0 1
27.008575 30.270874 -2.633400 40.653705 0.842291 1.635618 0.075973 -0.015753 -21058.000000 0 0 1
26.746375 29.276574 -1.626700 39.687940 0.830531 1.611795 0.064065 -0.007997 313572.000000 0 0 1
25.510475 28.349774 -1.806800 38.180605 0.838065 1.618136 0.037073 -0.000908 682262.000000 0 0 1
24.261575 28.947974 -1.473000 37.799193 0.873246 1.609775 0.017175 -0.006778 1412550.000000 0 0 1
23.055275 28.115374 -1.552600 36.392727 0.883964 1.613472 0.024730 -0.007630 1405530.000000 0 0 1
21.883675 28.816774 -0.850400 36.194266 0.921302 1.594294 0.032715 -0.014314 -98403.200000 0 0 1
22.185375 29.166274 0.549700 36.649210 0.920513 1.555797 0.050934 -0.019350 390684.000000 0 0 1
21.134075 29.991774 1.046800 36.704924 0.956948 1.542273 0.031603 -0.015655 -135872.000000 0 0 1
20.386275 29.320574 2.159600 35.776531 0.963239 1.510396 0.033423 -0.031977 -721366.000000 0 0 1
19.745575 28.146974 1.733100 34.425914 0.959053 1.520432 0.053752 -0.028971 191052.000000 0 0 1
19.233275 27.324774 2.778300 33.530301 0.957473 1.487842 0.072833 -0.027154 -51737.800000 0 0 1
18.650975 25.967074 2.279700 32.052221 0.947924 1.499612 0.092337 -0.018825 -42310.600000 0 0 1
19.581575 25.036174 1.814900 31.836174 0.907046 1.513758 0.090410 -0.025156 -18116.400000 0 0 1
20.535175 24.503374 2.719700 32.085909 0.873278 1.485931 0.073060 -0.016680 -652869.000000 0 0 1
21.594675 23.648074 2.001600 32.086879 0.830753 1.508375 0.061095 -0.015914 -852984.000000 0 0 1
21.177075 22.610074 1.116300 30.998873 0.818113 1.534778 0.076155 -0.011072 -28622.400000 0 0 1
22.228875 21.726174 0.865900 31.095005 0.773962 1.542946 0.059063 -0.016476 -456763.000000 0 0 1
21.802975 20.591374 -0.015300 29.989576 0.756827 1.571306 0.080886 -0.021757 -360083.000000 0 0 1
21.462175 21.105574 -1.312400 30.129597 0.777021 1.614369 0.064390 -0.011876 364734.000000 0 0 1
21.556075 20.086274 -2.315100 29.554737 0.750117 1.649209 0.106635 -0.023249 -85775.800000 0 0 1
21.470575 20.744574 -3.700000 30.083433 0.768202 1.694100 0.077678 -0.019630 -586626.000000 0 0 1
22.409275 21.737274 -3.901800 31.462815 0.770177 1.695129 0.064996 -0.017210 -256795.000000 0 0 1
22.154375 22.462874 -5.057900 31.952769 0.792312 1.729758 0.055214 -0.017138 -116990.000000 0 0 1
23.251775 23.525974 -5.420600 33.518643 0.791260 1.733229 0.044307 -0.002935 84851.900000 0 0 1
23.345875 24.758774 -4.713700 34.354705 0.814761 1.708437 0.024294 -0.004305 115851.000000 0 0 1
23.734175 24.704174 -3.349000 34.421259 0.805421 1.668245 0.029784 -0.006873 -450222.000000 0 0 1
22.617775 24.353374 -2.361100 33.320045 0.822332 1.641717 0.033374 -0.011872 -854914.000000 0 0 1
21.663575 25.388874 -2.181000 33.446408 0.864407 1.636051 0.048793 -0.015923 1212230.000000 0 0 1
20.544775 25.093474 -1.324400 32.458039 0.884739 1.611611 0.067052 -0.015477 933998.000000 0 0 1
19.548875 23.943874 -1.713000 30.958069 0.886108 1.626158 0.093783 -0.027946 -505438.000000 0 0 1
18.934375 24.194474 -2.965800 30.865501 0.906761 1.667033 0.085419 -0.021936 220701.000000 0 0 1
18.173475 23.093274 -3.436500 29.586890 0.904058 1.687208 0.092596 -0.027156 -64549.400000 0 0 1
17.585175 23.394374 -4.794900 29.656807 0.926218 1.733189 0.087325 -0.026923 -170077.000000 0 0 1
16.709475 22.421574 -5.327300 28.466009 0.930348 1.759052 0.093668 -0.032646 325859.000000 0 0 1
16.293375 22.798774 -6.649600 28.800614 0.950299 1.803782 0.088725 -0.032807 349987.000000 0 0 1
15.501275 21.670374 -7.380900 27.647284 0.949862 1.841040 0.095215 -0.036022 -272606.000000 0 0 1
16.371975 20.692574 -7.883900 27.538702 0.901444 1.861143 0.093973 -0.033641 -192649.000000 0 0 1
15.803275 19.676874 -8.610200 26.665679 0.894144 1.899582 0.125964 -0.042648 -454205.000000 0 0 1
16.749275 18.471274 -8.801900 26.442383 0.834251 1.910143 0.118545 -0.034753 -510037.000000 0 0 1
17.867475 18.746874 -9.585000 27.614565 0.809411 1.925273 0.099862 -0.033591 -461549.000000 0 0 1
18.581675 17.543074 -9.760100 27.355030 0.756656 1.935630 0.104185 -0.029973 -292098.000000 0 0 1
19.992675 17.810074 -10.317100 28.694048 0.727726 1.938588 0.087292 -0.030724 -422431.000000 0 0 1
20.086975 18.224774 -11.657200 29.521505 0.736830 1.976724 0.085808 -0.027699 798912.000000 0 0 1
21.452775 18.527474 -11.994500 30.779163 0.712360 1.971097 0.073157 -0.015504 819344.000000 0 0 1
21.667975 18.837174 -13.499800 31.726722 0.715624 2.010313 0.057775 -0.019263 -67106.300000 0 0 1
21.622975 17.714374 -14.349800 31.420835 0.686362 2.045075 0.054017 -0.009432 271301.000000 0 0 1
21.583275 18.123874 -15.699400 32.261180 0.698495 2.079029 0.051022 -0.010344 -513.430000 0 0 1
21.410775 16.921374 -16.632500 31.959259 0.668811 2.118149 0.056196 -0.000779 -121034.000000 0 0 1
22.537075 16.071474 -16.725400 32.341167 0.619472 2.114320 0.072481 -0.002055 74098.600000 0 0 1
22.661075 15.336274 -17.981500 32.742327 0.594963 2.152182 0.086971 -0.019837 -147642.000000 0 0 1
23.563475 15.985274 -19.068800 34.269308 0.596076 2.160891 0.098304 -0.012161 -903441.000000 0 0 1
24.918775 16.032474 -18.771100 35.076200 0.571714 2.135484 0.119412 -0.009501 -825462.000000 0 0 1
25.473175 16.845674 -19.736900 36.362132 0.584285 2.144549 0.144098 -0.018318 -2371010.000000 0 0 1
26.931275 17.003574 -19.685800 37.442567 0.563166 2.124405 0.119218 -0.010528 -1990000.000000 0 0 1
27.205075 17.973374 -18.682300 37.579072 0.583834 2.091103 0.095230 0.000457 268089.000000 0 0 1
28.563475 18.364674 -18.529300 38.684213 0.571398 2.070299 0.078250 -0.001333 227107.000000 0 0 1
28.586575 19.422374 -17.416000 38.700620 0.596782 2.037583 0.062143 0.002128 112718.000000 0 0 1
28.241875 19.006174 -16.101500 37.657622 0.592360 2.012606 0.069074 -0.002614 245442.000000 0 0 1
26.844675 19.010574 -15.873100 36.523880 0.616188 2.020385 0.062578 0.008542 96653.600000 0 0 1
26.279175 18.274674 -14.631200 35.194187 0.607636 1.999539 0.057021 0.001443 -39559.600000 0 0 1
26.508075 18.950174 -13.390700 35.229221 0.620645 1.960703 0.051302 -0.008551 260478.000000 0 0 1
25.635975 18.582274 -12.339900 33.982014 0.627211 1.942422 0.059838 -0.015580 6384.840000 0 0 1
26.023275 19.416274 -11.090000 34.310212 0.641008 1.899934 0.056964 -0.017076 99365.600000 0 0 1
25.640975 20.793874 -11.173000 34.852270 0.681390 1.897140 0.045052 -0.013882 123581.000000 0 0 1
26.278975 21.542374 -10.138500 35.460508 0.686672 1.860752 0.047584 -0.012344 182484.000000 0 0 1
25.730075 21.360174 -8.680600 34.549192 0.692865 1.824771 0.054531 -0.016492 -653837.000000 0 0 1
25.997475 20.102674 -8.114600 33.850155 0.658219 1.812875 0.068689 -0.026685 140250.000000 0 0 1
25.202975 19.649874 -7.020300 32.719904 0.662218 1.787035 0.077689 -0.029986 -515147.000000 0 0 1
23.752575 19.338374 -7.358700 31.500921 0.683315 1.806578 0.106457 -0.038141 -919875.000000 0 0 1
22.955875 20.434074 -7.720000 31.687884 0.727344 1.816899 0.072466 -0.024424 43400.400000 0 0 1
21.607875 20.021474 -7.933900 30.507482 0.747309 1.833885 0.052670 -0.033228 54085.300000 0 0 1
20.756475 21.280474 -8.046800 30.796767 0.797863 1.835152 0.075037 -0.030383 -996404.000000 0 0 1
21.167075 22.072474 -9.142100 31.918916 0.806334 1.861281 0.072227 -0.027740 203036.000000 0 0 1
20.521475 21.841474 -10.408800 31.725763 0.816547 1.905074 0.081728 -0.026328 -194813.000000 0 0 1
19.006775 22.088874 -10.414300 30.945654 0.860256 1.914031 0.077374 -0.030556 -678475.000000 0 0 1
18.554075 23.392174 -10.278500 31.576812 0.900231 1.902345 0.076257 -0.030938 640503.000000 0 0 1
17.153675 23.583274 -10.517700 31.000668 0.941939 1.916941 0.088291 -0.026336 795940.000000 0 0 1
16.637575 24.974374 -10.169400 31.685091 0.983127 1.897531 0.081479 -0.026763 17854.600000 0 0 1
17.225275 25.971674 -10.985700 33.044267 0.985175 1.909701 0.090513 -0.024808 110167.000000 0 0 1
17.280275 27.231774 -10.391500 33.884520 1.005350 1.882493 0.095819 -0.023633 -39809.900000 0 0 1
20.313875 28.855974 33.462974 48.632205 0.957408 0.811953 0.050021 -0.015590 685137.000000 0 0 1
18.947275 29.274474 33.441157 48.314646 0.996372 0.806328 0.064616 -0.032401 98105.500000 0 0 1
18.110975 28.172274 33.652596 47.478223 0.999453 0.783000 0.064105 -0.028508 503175.000000 0 0 1
16.596975 28.584674 33.616557 47.144629 1.044745 0.776955 0.094210 -0.041000 569587.000000 0 0 1
16.031775 28.955874 32.387115 46.307512 1.065146 0.796250 0.090884 -0.046641 -527962.000000 0 0 1
14.888775 29.733074 32.599814 46.566932 1.106551 0.795310 0.115534 -0.047638 -423531.000000 0 0 1
13.951475 29.754874 31.400395 45.453064 1.132353 0.808158 0.112201 -0.049740 -256042.000000 0 0 1
13.499475 28.465874 31.077375 44.253193 1.127973 0.792225 0.113682 -0.056212 144214.000000 0 0 1
12.100475 28.439974 30.825975 43.651969 1.168524 0.786714 0.111644 -0.035423 89926.400000 0 0 1
11.527875 27.024574 30.706005 42.497979 1.167597 0.763343 0.086755 -0.038290 -99156.700000 0 0 1
11.819675 26.338574 29.465475 41.250932 1.148975 0.775175 0.084253 -0.034658 864735.000000 0 0 1
13.203475 26.023374 29.253125 41.319403 1.101270 0.784169 0.078376 -0.038659 332860.000000 0 0 1
13.356475 25.213974 27.959745 39.948558 1.083652 0.795548 0.088257 -0.032508 -350119.000000 0 0 1
13.112575 25.852774 26.691905 39.405118 1.101404 0.826613 0.079526 -0.036557 -68722.100000 0 0 1
12.926575 24.920374 25.661645 38.034740 1.092289 0.830252 0.095333 -0.037281 -539379.000000 0 0 1
11.625175 24.145874 25.492805 36.987174 1.122094 0.810366 0.088101 -0.036426 -810153.000000 0 0 1
11.549775 23.361874 24.249515 35.597942 1.111650 0.821388 0.101491 -0.039171 178502.000000 0 0 1
10.365275 22.608174 24.060585 34.604627 1.140917 0.801960 0.089410 -0.034528 -74173.500000 0 0 1
10.286275 22.190174 22.606265 33.305473 1.136731 0.824730 0.089817 -0.035049 -547143.000000 0 0 1
10.028575 23.223374 21.672265 33.310426 1.163154 0.862402 0.100663 -0.037392 168074.000000 0 0 1
10.175375 22.857374 20.311065 32.226343 1.151968 0.888905 0.100825 -0.025143 -512837.000000 0 0 1
9.793075 24.015474 19.378765 32.375668 1.183599 0.929095 0.091713 -0.031361 -400527.000000 0 0 1
8.471475 24.388574 19.152565 32.146371 1.236480 0.932544 0.097574 -0.032506 -631347.000000 0 0 1
7.833475 25.168574 20.128965 33.166183 1.269059 0.918627 0.114171 -0.045352 -42326.200000 0 0 1
6.424575 25.622774 19.686465 32.944781 1.325124 0.930342 0.093528 -0.040763 38973.000000 0 0 1
6.481275 26.595174 18.670065 33.134296 1.331755 0.972221 0.089894 -0.041020 833134.000000 0 0 1
5.144175 26.942474 18.250165 32.945834 1.382135 0.983702 0.062662 -0.036740 524979.000000 0 0 1
5.128675 28.048274 17.201365 33.300089 1.389943 1.027972 0.065701 -0.034481 91872.400000 0 0 1
5.741175 27.832174 15.939765 32.583234 1.367371 1.059622 0.068304 -0.030356 -376353.000000 0 0 1
7.096475 28.208274 15.901065 33.149820 1.324337 1.070515 0.069988 -0.024820 -373638.000000 0 0 1
7.767375 27.701174 14.607365 32.265497 1.297418 1.100978 0.074545 -0.023223 -151620.000000 0 0 1
7.072175 27.921574 13.401665 31.768453 1.322726 1.135307 0.074097 -0.027067 -240026.000000 0 0 1
6.916975 26.800974 12.603365 30.413510 1.318221 1.143513 0.053750 -0.025963 -195929.000000 0 0 1
6.241775 27.125974 11.297165 30.040043 1.344630 1.185245 0.047261 -0.028050 -461151.000000 0 0 1
7.057775 27.650374 10.287565 30.334623 1.320882 1.224798 0.036426 -0.019441 -90019.900000 0 0 1
6.950975 29.123874 10.403765 31.697862 1.336510 1.236381 0.039017 -0.018240 199570.000000 0 0 1
7.321375 29.872674 9.082865 32.069887 1.330448 1.283645 0.029765 -0.009493 -515548.000000 0 0 1
6.351775 29.766674 8.100965 31.496437 1.360564 1.310670 0.043357 -0.017105 -313965.000000 0 0 1
6.556175 28.613374 7.292665 30.247175 1.345555 1.327295 0.051589 -0.014213 217010.000000 0 0 1
5.154575 28.127074 6.865065 29.408010 1.389547 1.335180 0.038853 -0.015000 312428.000000 0 0 1
4.421875 29.020274 6.031565 29.968468 1.419587 1.368148 0.025609 -0.014632 291518.000000 0 0 1
3.068375 28.587574 5.927365 29.356396 1.463873 1.367488 0.064954 -0.019571 536370.000000 0 0 1
2.112575 29.627374 5.282565 30.168688 1.499612 1.394788 0.076169 -0.022212 -135333.000000 0 0 1
2.091775 29.654474 3.847965 29.976160 1.500375 1.442074 0.062290 -0.027045 187106.000000 0 0 1
1.086175 30.545974 3.398265 30.753610 1.535253 1.460071 0.063807 -0.026496 -485159.000000 0 0 1
-0.164625 29.901174 2.887065 30.040680 -1.565291 1.474543 0.073925 -0.018711 -1128200.000000 0 0 1
0.072175 29.257074 1.648365 29.303561 1.568329 1.514515 0.070653 -0.013749 -46388.400000 0 0 1
-0.943025 28.299774 1.398465 28.349995 -1.537486 1.521448 0.074176 -0.014414 189435.000000 0 0 1
-1.216825 28.135774 -0.115835 28.162313 -1.527575 1.574909 0.061237 -0.015457 106455.000000 0 0 1
-1.973625 29.279174 -0.507635 29.350007 -1.503491 1.588093 0.072805 -0.020629 -306474.000000 0 0 1
-1.501025 29.899174 -1.691535 29.984579 -1.520636 1.627240 0.063778 -0.016579 -693485.000000 0 0 1
-2.408025 30.917674 -2.374335 31.102068 -1.493068 1.647211 0.075355 -0.018272 20688.600000 0 0 1
-3.611625 30.394074 -2.960935 30.750784 -1.452524 1.667234 0.068427 -0.022168 324731.000000 0 0 1
-3.506125 29.525174 -4.058135 30.008287 -1.452600 1.706446 0.057028 -0.016156 -362943.000000 0 0 1
-4.864325 29.056774 -4.651535 29.826072 -1.404927 1.727391 0.047523 -0.012335 141665.000000 0 0 1
-5.609025 30.077974 -5.267835 31.046671 -1.386431 1.741296 0.045782 -0.014566 -200094.000000 0 0 1
-6.692925 29.450074 -5.930135 30.777729 -1.347329 1.764685 0.034691 -0.020769 -322876.000000 0 0 1
-7.420625 30.439974 -6.809235 32.062804 -1.331681 1.784798 0.038713 -0.015418 -204345.000000 0 0 1
-8.149225 31.425674 -6.044435 33.022993 -1.317068 1.754871 0.036494 -0.011482 145790.000000 0 0 1
-8.487125 32.516174 -6.888635 34.304317 -1.315480 1.772981 0.033375 -0.011578 -395081.000000 0 0 1
-9.456525 33.482674 -6.215635 35.343308 -1.295535 1.747580 0.046398 -0.014050 559376.000000 0 0 1
-10.814325 33.053474 -6.357535 35.353925 -1.254597 1.751605 0.059121 -0.010628 444783.000000 0 0 1
-11.733825 33.961174 -5.706335 36.381400 -1.238130 1.728294 0.058144 -0.012498 734173.000000 0 0 1
-13.205625 33.525474 -5.878035 36.508865 -1.195561 1.732503 0.083828 -0.014771 98268.600000 0 0 1
-13.616025 33.602074 -7.219335 36.967747 -1.185803 1.767347 0.089321 -0.012289 313720.000000 0 0 1
-15.012025 33.358374 -7.403135 37.322224 -1.147924 1.770478 0.084511 -0.017108 485145.000000 0 0 1
-15.526625 33.818474 -8.782835 38.234846 -1.140387 1.802574 0.112248 -0.016912 601744.000000 0 0 1
-16.880625 33.455674 -9.011835 38.541546 -1.103502 1.806802 0.110343 -0.021713 694169.000000 0 0 1
-17.885725 -33.769907 -9.040235 39.268710 1.083723 1.803095 0.101441 -0.025647 560845.000000 0 0 1
-19.338125 33.914674 -9.287035 40.130004 -1.052577 1.804337 0.082836 -0.025092 777954.000000 0 0 1
-19.969725 33.090074 -8.318035 39.533943 -1.027810 1.782783 0.071996 -0.027018 317479.000000 0 0 1
-20.102525 33.647974 -7.020035 39.819324 -1.032264 1.748020 0.071790 -0.026818 -655074.000000 0 0 1
-20.235225 32.497274 -5.914135 38.736470 -1.013871 1.724072 0.058591 -0.034119 -269113.000000 0 0 1
-20.189425 32.976574 -4.582835 38.936740 -1.021429 1.688769 0.059608 -0.033473 82588.200000 0 0 1
-21.453625 33.133574 -3.978135 39.672627 -0.996188 1.671239 0.056881 -0.034496 -183727.000000 0 0 1
-22.133325 -33.735707 -4.108335 40.556878 0.990159 1.672268 0.084870 -0.039182 -546474.000000 0 0 1
-22.805825 -33.605707 -5.315935 40.959838 0.974557 1.700948 0.088636 -0.038224 -199553.000000 0 0 1
-23.681525 -32.504907 -5.324735 40.567677 0.941164 1.702432 0.090731 -0.041050 554684.000000 0 0 1
-24.473725 -32.440107 -6.707135 41.186277 0.924467 1.734374 0.092763 -0.033581 1035340.000000 0 0 1
-23.593425 -31.799507 -7.684235 40.334920 0.932472 1.762479 0.108836 -0.024679 731042.000000 0 0 1
-23.785425 -32.230107 -8.995235 41.054116 0.935027 1.791695 0.085952 -0.011468 1091200.000000 0 0 1
-25.067015 -31.725107 -9.802035 41.604297 0.902102 1.808634 0.070051 -0.011312 1622740.000000 0 0 1
-26.362785 -32.170907 -9.332535 42.626985 0.884301 1.791519 0.072709 -0.007409 201737.000000 0 0 1
-27.472815 -31.789007 -10.025335 43.194952 0.858102 1.805027 0.041815 -0.002063 -594685.000000 0 0 1
-27.884585 -30.302007 -9.858235 42.343199 0.826920 1.805770 0.029314 0.004454 -525368.000000 0 0 1
-27.057395 -29.286907 -10.465335 41.223158 0.824947 1.827476 0.026314 0.007281 125905.000000 0 0 1
-27.112135 -29.369107 -11.865335 41.694106 0.825337 1.859365 0.021090 0.011560 -103180.000000 0 0 1
-26.049675 -28.525107 -12.588335 40.629219 0.830726 1.885815 0.027215 0.011111 459266.000000 0 0 1
-24.702825 -28.992107 -12.492735 40.085412 0.865111 1.887728 0.040612 -0.003717 322096.000000 0 0 1
-23.838625 -28.351707 -13.406935 39.393467 0.871657 1.918068 0.044776 -0.005689 -540222.000000 0 0 1
-22.579225 -29.202407 -13.491935 39.301835 0.912613 1.921214 0.057578 -0.018424 -1105040.000000 0 0 1
-22.561125 -30.381007 -14.301435 40.454184 0.932044 1.932130 0.056670 -0.020996 -14772.400000 0 0 1
-23.405025 -31.454607 -13.880535 41.591546 0.931089 1.911059 0.041881 -0.022195 89179.300000 0 0 1
-23.315125 -32.686607 -14.746435 42.772265 0.951205 1.922786 0.035058 -0.014243 -173138.000000 0 0 1
-23.885125 -33.761207 -14.085535 43.688907 0.955073 1.899066 0.031508 -0.023977 -206107.000000 0 0 1
-23.867925 33.296574 -14.842835 43.573495 -0.948865 1.918393 0.031918 -0.021565 -438150.000000 0 0 1
-24.337425 32.114174 -13.967335 42.646417 -0.922296 1.904468 0.024861 -0.027905 -622958.000000 0 0 1
-23.563825 31.784874 -12.846135 41.599943 -0.932852 1.884729 0.015458 -0.025966 -282398.000000 0 0 1
-23.693925 32.669674 -11.765735 42.037390 -0.943319 1.854473 0.050217 -0.020257 -203748.000000 0 0 1
-22.962325 32.246074 -10.480835 40.950281 -0.951998 1.829617 0.049884 -0.018594 -219510.000000 0 0 1
-23.592425 31.269274 -9.720235 40.359051 -0.924426 1.814032 0.049880 -0.018473 92618.400000 0 0 1
-22.794425 30.864774 -8.603435 39.322248 -0.934679 1.791374 0.047348 -0.016452 -15705.700000 0 0 1
-23.485625 29.808474 -7.731435 38.728475 -0.903487 1.771778 0.042639 -0.011316 -95972.300000 0 0 1
-23.546825 28.576874 -8.456435 37.981600 -0.881602 1.795324 0.047600 -0.006480 13185.000000 0 0 1
-24.244325 27.500574 -7.786435 37.479293 -0.848244 1.780074 0.040565 -0.000228 142627.000000 0 0 1
-23.447325 26.682674 -6.738235 36.154473 -0.849848 1.758266 0.041053 -0.002158 -144829.000000 0 0 1
-23.548425 27.321174 -5.513635 36.488012 -0.859428 1.722486 0.047180 -0.000661 7383.400000 0 0 1
-22.556125 26.766374 -4.686635 35.315465 -0.870553 1.703897 0.042206 -0.004577 314745.000000 0 0 1
-21.330425 27.744674 -4.531935 35.288701 -0.915364 1.699577 0.037406 -0.004460 116678.000000 0 0 1
-20.518825 27.631974 -5.672435 34.881581 -0.932064 1.734142 0.033359 -0.010851 -326530.000000 0 0 1
-19.258325 28.240274 -5.527035 34.625775 -0.972291 1.731104 0.064619 -0.015422 457077.000000 0 0 1
-18.263225 27.948574 -6.707935 34.053848 -0.991994 1.769073 0.074791 -0.017884 197278.000000 0 0 1
-18.651325 28.463474 -7.962735 34.949198 -0.990724 1.800652 0.088893 -0.022473 -28264.100000 0 0 1
-18.693325 29.851474 -8.129435 36.147456 -1.011327 1.797633 0.101719 -0.026084 -145042.000000 0 0 1
-18.623725 30.221074 -9.670435 36.792306 -1.018514 1.836759 0.092314 -0.020784 -689613.000000 0 0 1
-17.369825 30.104474 -10.258335 36.238427 -1.047472 1.857799 0.097981 -0.030626 -275058.000000 0 0 1
-17.441325 30.800174 -11.459235 37.204363 -1.055545 1.883895 0.095367 -0.031739 79709.700000 0 0 1
-16.003325 31.196674 -11.872035 37.017349 -1.096817 1.897281 0.108528 -0.029600 169417.000000 0 0 1
-15.998525 31.905074 -13.126835 38.028941 -1.105996 1.923227 0.112421 -0.028746 -109822.000000 0 0 1
-16.181525 31.030374 -14.257335 37.788854 -1.090118 1.957664 0.099406 -0.035925 -128060.000000 0 0 1
-15.631125 31.625774 -15.585835 38.567342 -1.111757 1.986813 0.136256 -0.032830 1438300.000000 0 0 1
-14.200625 31.397874 -15.704235 37.869608 -1.146048 1.998401 0.122507 -0.041247 1167700.000000 0 0 1
-13.780725 31.829074 -17.027035 38.638300 -1.162203 2.027150 0.098215 -0.045160 245780.000000 0 0 1
-12.233625 31.901474 -17.147135 38.228129 -1.204611 2.035936 0.113171 -0.048079 57364.200000 0 0 1
-11.626625 30.621774 -17.122135 36.959964 -1.207925 2.052468 0.113635 -0.055351 -1051940.000000 0 0 1
-10.359425 30.551274 -17.652035 36.773528 -1.243880 2.071474 0.101188 -0.051662 -851415.000000 0 0 1
-10.189725 30.620974 -19.194535 37.548698 -1.249553 2.107366 0.097770 -0.055258 -344990.000000 0 0 1
-10.918325 29.565974 -19.845435 37.245106 -1.217044 2.132742 0.087309 -0.052249 287079.000000 0 0 1
-10.699325 29.588874 -21.226435 37.954427 -1.223825 2.164291 0.081320 -0.057139 -961642.000000 0 0 1
-11.792425 29.048274 -22.174535 38.400176 -1.185163 2.186409 0.082190 -0.041084 257890.000000 0 0 1
-12.897825 29.864274 -22.481435 39.542935 -1.163112 2.175517 0.083302 -0.044408 16507.600000 0 0 1
-13.812225 30.187774 -21.475535 39.538309 -1.141687 2.144990 0.085480 -0.041631 -273866.000000 0 0 1
-14.481925 31.629074 -21.702735 41.001624 -1.141419 2.128588 0.111312 -0.043183 464402.000000 0 0 1
-15.203425 31.798074 -22.910735 42.037643 -1.124802 2.147192 0.085642 -0.031357 93817.300000 0 0 1
-15.569625 33.153374 -23.067135 43.285704 -1.131743 2.132825 0.081463 -0.036412 70022.900000 0 0 1
-16.005925 33.380174 -24.539635 44.414179 -1.123680 2.156179 0.080590 -0.029084 108419.000000 0 0 1
-14.945725 33.605374 -25.462335 44.732833 -1.152323 2.176340 0.086839 -0.025661 75083.700000 0 0 1
-15.317125 33.750274 -26.813635 45.745670 -1.144756 2.197090 0.088312 -0.020253 45927.600000 0 0 1
-16.020925 -33.165707 -27.227635 45.803693 1.120795 2.207368 0.076356 -0.012715 680707.000000 0 0 1
-17.342525 -32.970507 -26.730435 45.851212 1.086565 2.193191 0.071265 -0.019458 322820.000000 0 0 1
-17.999425 -31.888807 -27.372935 45.718190 1.056932 2.212713 0.045885 -0.002540 349315.000000 0 0 1
-19.517825 -31.853007 -27.037435 46.114883 1.021057 2.197288 0.046120 -0.017507 379333.000000 0 0 1
-20.220425 -32.966407 -27.561835 47.490044 1.020608 2.189980 0.048081 -0.018456 -1084690.000000 0 0 1
-21.574425 -32.682307 -27.418835 47.805664 0.987336 2.181627 0.048067 -0.014576 -130585.000000 0 0 1
-22.623425 -33.834007 -27.503235 49.122167 0.981415 2.165055 0.030363 -0.011547 256341.000000 0 0 1
-22.766425 33.661274 -26.265535 48.386670 -0.976128 2.144595 0.058355 -0.019026 503676.000000 0 0 1
-23.837125 32.672774 -26.225335 48.202561 -0.940498 2.146071 0.033558 -0.010943 605269.000000 0 0 1
-23.751725 31.445174 -27.132335 47.844613 -0.923888 2.173768 0.048828 -0.012356 -220060.000000 0 0 1
-22.838625 30.464874 -26.676435 46.490252 -0.927506 2.181943 0.047566 -0.034661 -231629.000000 0 0 1
-23.227325 29.672474 -25.569835 45.538783 -0.906638 2.166989 0.044961 -0.022372 -306999.000000 0 0 1
31.846932 10.090674 -25.987420 42.324872 0.306842 2.231913 0.031312 -0.004255 -381909.000000 0 0 1
31.439592 8.756074 -26.145430 41.817464 0.271622 2.246219 0.021728 0.000620 -537461.000000 0 0 1
30.044562 8.737674 -26.164100 40.787042 0.283017 2.267223 0.033625 -0.001575 -406120.000000 0 0 1
29.513902 7.280974 -26.005020 40.004301 0.241867 2.278454 0.024099 0.007610 52289.500000 0 0 1
29.901472 6.807074 -24.717900 39.387928 0.223835 2.249199 0.019871 0.009572 75980.000000 0 0 1
29.377242 5.535474 -24.472800 38.633946 0.186244 2.256804 0.028372 0.012801 30636.900000 0 0 1
29.384232 5.293374 -22.933600 37.648412 0.178232 2.225787 0.037910 0.007081 -777927.000000 0 0 1
30.633272 5.159274 -22.374700 38.283713 0.166855 2.194991 0.045491 0.000684 -812037.000000 0 0 1
30.415902 4.890974 -20.997600 37.282005 0.159438 2.169062 0.053707 0.000577 300200.000000 0 0 1
31.688142 4.819474 -20.096400 37.831613 0.150934 2.130820 0.059740 -0.006561 250978.000000 0 0 1
32.454952 3.635874 -20.143900 38.370825 0.111563 2.123487 0.079690 -0.002817 427787.000000 0 0 1
33.137892 3.419074 -18.898200 38.300808 0.102813 2.086808 0.091191 -0.011939 -111063.000000 0 0 1
33.745612 2.007074 -18.781700 38.672302 0.059407 2.077918 0.095814 -0.022183 -746685.000000 0 0 1
32.891252 0.969974 -18.513000 37.755880 0.029482 2.083270 0.108304 -0.013569 -735361.000000 0 0 1
33.491732 -0.301926 -18.562300 38.292901 -0.009015 2.076868 0.122621 -0.018077 -199839.000000 0 0 1
32.638142 -1.533226 -18.113700 37.359138 -0.046942 2.076992 0.097254 -0.014842 267325.000000 0 0 1
32.235282 -1.542626 -16.697500 36.335927 -0.047819 2.048264 0.109411 -0.020953 769917.000000 0 0 1
30.906562 -1.093626 -16.414200 35.011963 -0.035370 2.058747 0.089764 -0.023238 271690.000000 0 0 1
30.460762 -1.562426 -14.985200 33.983164 -0.051248 2.027464 0.102851 -0.032156 -160610.000000 0 0 1
30.282722 -2.976526 -14.889100 33.876072 -0.097977 2.025857 0.086675 -0.024307 430161.000000 0 0 1
29.612902 -3.251226 -13.682400 32.782656 -0.109353 2.001342 0.090452 -0.025481 -305965.000000 0 0 1
29.596252 -4.719726 -13.261100 32.773018 -0.158139 1.987376 0.082838 -0.024324 346757.000000 0 0 1
28.703022 -5.528326 -14.081200 32.445432 -0.190274 2.019720 0.064865 -0.024140 1068790.000000 0 0 1
28.447522 -6.789526 -13.499800 32.211858 -0.234286 2.003244 0.059790 -0.018483 -353630.000000 0 0 1
27.757562 -7.834726 -14.361200 32.219703 -0.275099 2.032783 0.045671 -0.012960 -397517.000000 0 0 1
26.407662 -7.565826 -14.636200 31.125949 -0.279027 2.060342 0.046224 -0.008497 -188250.000000 0 0 1
25.805962 -8.577526 -15.386100 31.245059 -0.320897 2.085679 0.040973 -0.010231 -767.238000 0 0 1
24.387662 -8.254526 -15.890700 30.255737 -0.326368 2.123761 0.054935 -0.016953 -212962.000000 0 0 1
24.424762 -7.318526 -16.978400 30.633248 -0.291122 2.158255 0.050891 -0.017706 346091.000000 0 0 1
23.133062 -7.172426 -17.561400 29.916300 -0.300652 2.198167 0.073629 -0.016527 384282.000000 0 0 1
22.937762 -7.611026 -19.019800 30.754210 -0.320381 2.237559 0.060321 -0.008674 285250.000000 0 0 1
23.670062 -6.766426 -19.951900 31.688084 -0.278438 2.251879 0.051554 -0.015720 658231.000000 0 0 1
23.211062 -6.958226 -21.313100 32.271017 -0.291255 2.292202 0.066978 -0.019822 248614.000000 0 0 1
24.045062 -6.091826 -22.321900 33.369785 -0.248129 2.303559 0.062950 -0.018188 97550.000000 0 0 1
23.908962 -6.462726 -23.662700 34.253885 -0.263997 2.333396 0.071607 -0.021685 124793.000000 0 0 1
23.835162 -5.374826 -24.530200 34.622744 -0.221790 2.358166 0.060670 -0.026153 -145986.000000 0 0 1
23.582362 -5.666526 -26.049460 35.592298 -0.235816 2.391880 0.073038 -0.028839 765599.000000 0 0 1
22.321562 -6.319826 -26.290840 35.062809 -0.275906 2.418588 0.088869 -0.031933 390728.000000 0 0 1
22.085762 -6.553026 -27.659730 35.996996 -0.288434 2.447118 0.068903 -0.026725 323990.000000 0 0 1
20.758762 -7.273526 -28.015200 35.618560 -0.337016 2.475972 0.072785 -0.030862 216109.000000 0 0 1
20.771962 -8.687826 -27.758520 35.741966 -0.396138 2.460105 0.078308 -0.032153 148500.000000 0 0 1
19.928462 -9.425926 -28.621910 36.127627 -0.441806 2.485275 0.057099 -0.028948 -54580.300000 0 0 1
19.839062 -10.927826 -28.374070 36.305559 -0.503475 2.467919 0.077633 -0.028384 -70704.600000 0 0 1
19.045462 -11.242726 -27.219280 35.071608 -0.533264 2.459263 0.078276 -0.022039 421777.000000 0 0 1
19.077162 -12.528926 -26.707300 35.131068 -0.581106 2.434446 0.084992 -0.025065 -441032.000000 0 0 1
18.979562 -13.756626 -27.639190 36.240769 -0.627185 2.438204 0.077419 -0.025227 230348.000000 0 0 1
17.756262 -13.803126 -28.387530 36.216888 -0.660787 2.471590 0.077856 -0.026937 865302.000000 0 0 1
17.825162 -14.809426 -29.358390 37.402815 -0.693251 2.473371 0.065054 -0.024820 -204811.000000 0 0 1
16.668262 -14.824726 -30.401890 37.707802 -0.726927 2.508581 0.057589 -0.027687 371138.000000 0 0 1
15.561162 -15.536026 -29.832140 37.060416 -0.784590 2.506404 0.059820 -0.032613 533355.000000 0 0 1
14.648962 -15.975426 -30.819800 37.678461 -0.828685 2.528667 0.051643 -0.035488 433657.000000 0 0 1
13.359062 -16.687426 -30.267840 37.055052 -0.895722 2.526698 0.064130 -0.036828 636704.000000 0 0 1
13.563862 -18.021726 -29.852240 37.415467 -0.925608 2.494530 0.058067 -0.036407 445586.000000 0 0 1
12.602262 -18.244026 -28.830320 36.370989 -0.966298 2.485978 0.066857 -0.036598 34455.600000 0 0 1
12.911262 -19.577926 -28.037930 36.552994 -0.987785 2.445025 0.058127 -0.034397 -580204.000000 0 0 1
14.016662 -19.489426 -27.190490 36.271577 -0.947305 2.418309 0.066474 -0.032559 -381166.000000 0 0 1
14.077262 -20.506826 -26.224070 36.144170 -0.969211 2.382616 0.057478 -0.029465 331038.000000 0 0 1
15.026762 -20.235026 -24.986300 35.490492 -0.932041 2.351850 0.048329 -0.025138 1279790.000000 0 0 1
16.412962 -20.503926 -25.283550 36.456196 -0.895763 2.337177 0.053195 -0.025344 1050840.000000 0 0 1
17.263662 -20.369226 -24.155900 36.006206 -0.867734 2.306193 0.057007 -0.025551 -231000.000000 0 0 1
18.717062 -20.740226 -24.511000 37.165501 -0.836628 2.290962 0.037209 -0.027189 -180621.000000 0 0 1
18.982962 -22.113326 -24.827200 38.285009 -0.861423 2.276387 0.037676 -0.022789 145016.000000 0 0 1
18.805762 -23.014926 -23.773200 38.059277 -0.885708 2.245462 0.033663 -0.025663 -626902.000000 0 0 1
19.555362 -24.384426 -23.881200 39.336041 -0.894861 2.223212 0.024567 -0.020444 -724524.000000 0 0 1
20.895862 -24.346726 -23.506800 39.773983 -0.861525 2.203106 0.034743 -0.019188 -505482.000000 0 0 1
21.430962 -25.660576 -23.246900 40.720629 -0.874975 2.178383 0.042864 -0.024447 -153468.000000 0 0 1
21.383162 -26.030486 -21.765900 40.107109 -0.883103 2.144438 0.059110 -0.018146 19495.000000 0 0 1
20.077362 -26.247206 -21.241400 39.283754 -0.917806 2.142086 0.039874 -0.013553 365932.000000 0 0 1
20.034962 -26.444096 -19.851800 38.662435 -0.922427 2.110014 0.041616 -0.015682 -198531.000000 0 0 1
18.695462 -26.983826 -19.340600 38.101259 -0.964892 2.103205 0.038586 -0.011251 -661799.000000 0 0 1
18.667962 -28.388266 -19.435200 39.142221 -0.989101 2.090390 0.048258 -0.008683 723364.000000 0 0 1
17.577362 -29.141876 -18.855000 38.906601 -1.028053 2.076727 0.033890 0.002508 1511250.000000 0 0 1
16.094662 -28.883886 -19.308700 38.290246 -1.062427 2.099335 0.056362 -0.008207 580456.000000 0 0 1
15.459962 -27.742666 -18.766600 36.889717 -1.062394 2.104496 0.053274 -0.003832 353827.000000 0 0 1
14.303562 -27.305256 -19.482200 36.465395 -1.088260 2.134435 0.052358 0.007283 392934.000000 0 0 1
13.306762 -26.425476 -18.720600 35.011949 -1.104306 2.134939 0.050731 -0.002517 -427808.000000 0 0 1
12.616262 -27.086766 -17.700000 34.729713 -1.134904 2.105574 0.049005 0.005467 63269.900000 0 0 1
11.654962 -26.286026 -17.036100 33.421879 -1.153453 2.105666 0.061558 -0.008626 323375.000000 0 0 1
10.180762 -26.288936 -17.497500 33.180093 -1.201317 2.126274 0.076243 -0.005481 -531606.000000 0 0 1
9.502162 -27.428616 -17.062100 33.670986 -1.237303 2.102184 0.078285 0.010457 -648988.000000 0 0 1
8.118462 -27.209246 -17.079900 33.135713 -1.280834 2.112332 0.076973 0.013888 -26807.700000 0 0 1
7.417862 -27.832006 -18.339400 34.146432 -1.310328 2.137769 0.085815 0.006497 -196942.000000 0 0 1
7.515462 -27.184906 -19.577700 34.333477 -1.301076 2.177572 0.103124 -0.001648 -73573.300000 0 0 1
6.846362 -27.916416 -20.596100 35.360971 -1.330298 2.192539 0.099777 0.001530 192462.000000 0 0 1
6.740862 -27.029216 -21.843800 35.400132 -1.326390 2.235790 0.094919 -0.009474 241714.000000 0 0 1
5.723562 -26.048416 -21.657800 34.356068 -1.354506 2.252855 0.114068 -0.020995 251958.000000 0 0 1
5.558062 -25.320916 -22.867800 34.568441 -1.354718 2.293643 0.105873 -0.025450 -93655.200000 0 0 1
4.096962 -24.905026 -23.130200 34.235239 -1.407753 2.312609 0.068359 -0.017350 -87613.000000 0 0 1
3.165662 -25.960866 -23.175000 34.943792 -1.449456 2.295893 0.050147 -0.012677 444670.000000 0 0 1
1.871362 -25.456016 -23.569100 34.742096 -1.497415 2.316381 0.052092 -0.015357 824732.000000 0 0 1
1.156362 -26.693116 -24.172900 36.030386 -1.527503 2.306222 0.041506 -0.016509 -98390.200000 0 0 1
1.681262 -27.114306 -25.462100 37.233463 -1.508869 2.323823 0.028131 -0.013173 186096.000000 0 0 1
0.788562 -27.893636 -26.208390 38.282587 -1.542534 2.324856 0.044219 -0.017249 -180481.000000 0 0 1
1.555562 -28.697366 -27.271410 39.619293 -1.516644 2.329990 0.026522 -0.009664 -528394.000000 0 0 1
1.934362 -27.969026 -28.435720 39.932422 -1.501745 2.363276 0.024133 -0.014190 105189.000000 0 0 1
2.624462 -28.799816 -29.345400 41.200360 -1.479920 2.363510 0.036816 -0.018273 375095.000000 0 0 1
4.134762 -29.066006 -29.104670 41.340183 -1.429490 2.351851 0.039809 -0.021286 -253759.000000 0 0 1
4.296562 -30.068126 -28.131590 41.399746 -1.428863 2.317892 0.038630 -0.028227 -1130790.000000 0 0 1
5.509262 -30.700216 -28.302640 42.117629 -1.393233 2.307689 0.068592 -0.039654 -613709.000000 0 0 1
5.786762 -31.799466 -27.218420 42.255592 -1.390789 2.270692 0.087833 -0.049251 -180935.000000 0 0 1
5.010862 -32.954646 -27.429030 43.167918 -1.419899 2.259327 0.073176 -0.054980 -167402.000000 0 0 1
5.517462 -34.076188 -26.795800 43.699472 -1.410274 2.230881 0.093335 -0.064724 -761663.000000 0 0 1
4.416162 33.175525 -26.456180 42.662014 1.438459 2.239710 0.093634 -0.060774 -632126.000000 0 0 1
3.765862 32.727155 -27.621060 42.990363 1.456232 2.268545 0.077997 -0.060467 950766.000000 0 0 1
2.552962 31.994495 -27.327900 42.154234 1.491171 2.276124 0.073834 -0.059265 1259670.000000 0 0 1
1.369062 32.159865 -28.329540 42.879996 1.528251 2.292508 0.069870 -0.039451 234375.000000 0 0 1
1.309562 31.237585 -29.403180 42.919094 1.528898 2.325515 0.069742 -0.043992 443764.000000 0 0 1
0.139162 31.503885 -30.177840 43.625866 1.566379 2.334695 0.067435 -0.031378 340688.000000 0 0 1
-0.068038 30.516585 -31.313740 43.724328 -1.568567 2.369085 0.056222 -0.033023 181274.000000 0 0 1
1.071662 30.364045 -32.171070 44.250440 1.535517 2.384772 0.066675 -0.033808 400728.000000 0 0 1
0.823962 29.462425 -33.249820 44.432690 1.542837 2.416320 0.069965 -0.035626 334928.000000 0 0 1
2.096062 29.130855 34.047710 44.858073 1.498967 0.709006 0.060783 -0.028951 571226.000000 0 0 1
2.453062 30.256565 33.198900 44.984933 1.489898 0.740694 0.057366 -0.026679 29786.500000 0 0 1
3.356662 29.977435 32.125425 44.067638 1.459288 0.753933 0.037937 -0.024067 -173727.000000 0 0 1
2.808362 29.136575 30.940415 42.592678 1.474707 0.757690 0.040276 -0.022099 -103081.000000 0 0 1
2.536562 27.747075 31.070405 41.733732 1.479632 0.731024 0.051561 -0.030815 476244.000000 0 0 1
3.722262 26.956725 31.168755 41.376461 1.433581 0.717736 0.048188 -0.024900 226989.000000 0 0 1
3.358462 25.562735 31.690875 40.853938 1.440163 0.682954 0.051931 -0.022520 -101405.000000 0 0 1
2.617262 24.760385 30.805185 39.609167 1.465484 0.679752 0.045743 -0.003998 84553.400000 0 0 1
2.680862 23.388015 31.126415 39.026145 1.456669 0.647526 0.050283 -0.006854 -150815.000000 0 0 1
1.873562 22.502255 30.167925 37.682428 1.487727 0.642528 0.044480 0.005609 1181470.000000 0 0 1
0.446662 22.380255 30.332775 37.698177 1.550841 0.635758 0.046657 -0.003007 686535.000000 0 0 1
-0.150738 21.758755 29.232485 36.441794 -1.563869 0.639877 0.066372 -0.005380 -671961.000000 0 0 1
-1.551838 21.297755 29.582915 36.484948 -1.498061 0.625236 0.062292 -0.001039 -691769.000000 0 0 1
-2.447138 22.364455 29.882095 37.404504 -1.461809 0.645348 0.060289 -0.005742 1150290.000000 0 0 1
-3.728238 21.791055 30.259745 37.475352 -1.401347 0.630967 0.039999 -0.008123 1547490.000000 0 0 1
-4.825138 22.787755 30.811365 38.625172 -1.362136 0.647322 0.019716 -0.014485 522871.000000 0 0 1
-4.618338 23.203895 32.156355 39.922186 -1.374331 0.634318 0.029165 -0.009467 162877.000000 0 0 1
-5.516738 24.266865 32.435491 40.882468 -1.347259 0.654448 0.013387 -0.018545 178517.000000 0 0 1
-5.653938 24.802515 33.865620 42.355779 -1.346668 0.644248 0.045022 -0.015594 -10012.600000 0 0 1
-6.774638 25.635115 34.062650 43.166178 -1.312431 0.661446 0.039152 -0.009405 -75604.300000 0 0 1
-6.851438 26.038715 -32.742710 42.391531 -1.313503 2.453389 0.045160 -0.006893 -399834.000000 0 0 1
-8.187038 26.636925 -32.326180 42.679448 -1.272604 2.430146 0.068635 -0.004891 -612327.000000 0 0 1
-8.481038 27.910165 -32.921140 43.985302 -1.275794 2.416530 0.057586 -0.010905 -204604.000000 0 0 1
-9.787238 28.370615 -32.669050 44.361567 -1.238602 2.398570 0.058611 -0.012462 -90784.000000 0 0 1
-9.985838 28.971455 -31.263450 43.777454 -1.238870 2.366198 0.066446 -0.015803 -428955.000000 0 0 1
-9.336638 30.175475 -30.962860 44.231559 -1.270728 2.346218 0.072834 -0.016001 -29918.200000 0 0 1
-9.500338 30.392975 -29.569620 43.455170 -1.267836 2.319190 0.088497 -0.023448 223001.000000 0 0 1
-8.690738 31.642645 -29.007120 43.797248 -1.302753 2.294687 0.064648 -0.023970 77836.600000 0 0 1
-7.296238 31.522595 -29.066260 43.494328 -1.343341 2.302687 0.049948 -0.026692 -679893.000000 0 0 1
-6.715038 32.699399 -28.544770 43.922048 -1.368256 2.278244 0.048954 -0.019228 -714027.000000 0 0 1
-5.194538 32.530608 -28.545660 43.589889 -1.412452 2.284805 0.064244 -0.022059 -582275.000000 0 0 1
-4.412538 33.597042 -28.011620 43.964560 -1.440207 2.261579 0.066285 -0.026796 52660.100000 0 0 1
-4.218538 -33.517676 -28.822840 44.407057 1.445595 2.277144 0.063822 -0.027400 -205813.000000 0 0 1
-3.158538 -33.717046 -29.962730 45.217040 1.477391 2.295138 0.062074 -0.027522 8626.000000 0 0 1
-3.540338 33.568050 -30.995650 45.826611 -1.465717 2.313617 0.065140 -0.025104 1147030.000000 0 0 1
-4.654538 33.969147 -31.869600 46.810673 -1.434622 2.319677 0.078807 -0.021206 1093620.000000 0 0 1
-4.219538 -33.413906 -33.099990 47.221848 1.445180 2.347520 0.042133 -0.021968 -299203.000000 0 0 1
-4.005438 -32.098596 -32.688610 45.988135 1.446653 2.361439 0.039481 -0.024794 -195762.000000 0 0 1
-3.344938 -31.300066 -33.608780 46.048158 1.464334 2.388916 0.018318 -0.029331 -205185.000000 0 0 1
32.416202 17.313874 12.313165 38.758153 0.490563 1.247502 0.139320 -0.039704 863642.000000 0 0 1
33.761482 17.591174 12.744065 40.145962 0.480340 1.247764 0.132903 -0.052864 774209.000000 0 0 1
34.111412 17.013374 13.971865 40.598723 0.462654 1.219468 0.132788 -0.027324 -275236.000000 0 0 1
35.624422 17.133174 14.334565 42.049077 0.448283 1.222921 0.140285 -0.050934 260792.000000 0 0 1
36.532182 16.378574 13.555165 42.268198 0.421467 1.244334 0.137373 -0.018349 -306369.000000 0 0 1
36.270942 15.007674 13.347965 41.460580 0.392317 1.243015 0.168512 -0.031114 -1205860.000000 0 0 1
-36.063305 14.207074 12.593165 40.755254 -0.375278 1.256660 0.152010 -0.028681 132456.000000 0 0 1
-35.076980 13.512774 13.313565 39.877821 -0.367711 1.230402 0.145606 -0.031457 -44869.400000 0 0 1
-35.514534 12.292674 13.864965 40.057823 -0.333224 1.217360 0.139444 -0.034516 28135.000000 0 0 1
-34.614108 11.874374 15.059565 39.571804 -0.330470 1.180391 0.145997 -0.042831 133607.000000 0 0 1
-34.752597 12.615574 16.264965 40.391147 -0.348219 1.156347 0.152363 -0.040534 33747.900000 0 0 1
-33.962515 12.084574 17.298165 39.983945 -0.341851 1.123391 0.148105 -0.028964 -105996.000000 0 0 1
-34.202625 12.799374 18.639965 41.001119 -0.358088 1.098850 0.140159 -0.034681 674221.000000 0 0 1
-35.529751 12.572074 19.145165 42.272421 -0.340097 1.100781 0.162522 -0.042689 786280.000000 0 0 1
-35.758841 13.364274 20.254765 43.215206 -0.357660 1.082983 0.170508 -0.034668 -1008150.000000 0 0 1
36.340352 13.136474 20.934265 43.948056 0.346869 1.074308 0.178498 -0.047006 -1010690.000000 0 0 1
36.156872 11.836174 21.416565 43.658718 0.316361 1.058081 0.152905 -0.031874 482324.000000 0 0 1
35.153642 11.807574 22.451065 43.350290 0.324045 1.026403 0.153268 -0.041801 326061.000000 0 0 1
34.829432 10.381074 22.981865 43.000258 0.289671 1.006929 0.139466 -0.031690 980755.000000 0 0 1
35.995662 9.641374 23.465195 44.037020 0.261705 1.008830 0.129304 -0.020842 1084930.000000 0 0 1
36.322732 10.007974 24.835495 45.125406 0.268858 0.987994 0.122977 -0.012137 271313.000000 0 0 1
-35.583234 10.300274 25.095025 44.743965 -0.281768 0.975374 0.106382 -0.010826 177982.000000 0 0 1
-35.225054 11.530074 24.548685 44.456551 -0.316334 0.985802 0.084303 -0.012174 -211550.000000 0 0 1
-34.159244 11.391874 23.648795 43.080091 -0.321894 0.989689 0.096966 -0.024189 99051.500000 0 0 1
-33.320595 12.693574 23.383445 42.640056 -0.363979 0.990357 0.100331 -0.022698 841952.000000 0 0 1
-32.584175 13.362174 24.460985 42.879085 -0.389167 0.963725 0.084998 -0.028417 802587.000000 0 0 1
-33.453945 13.756574 25.485935 44.248645 -0.390132 0.957005 0.083700 -0.030495 63389.900000 0 0 1
-32.596175 14.440674 26.606655 44.485478 -0.417032 0.929671 0.088795 -0.027828 110340.000000 0 0 1
-32.055495 15.688574 26.183915 44.263794 -0.455147 0.937826 0.109314 -0.029459 -96751.900000 0 0 1
-31.697525 16.390874 27.350335 44.960367 -0.477236 0.916853 0.111062 -0.020592 -198268.000000 0 0 1
-30.911805 17.688174 27.055935 44.726220 -0.519738 0.921127 0.096092 -0.018802 -165348.000000 0 0 1
-31.709225 18.517474 26.275355 45.152697 -0.528555 0.949706 0.081515 -0.035836 354561.000000 0 0 1
-31.202505 19.863874 26.260115 45.362577 -0.566906 0.953425 0.087299 -0.042369 -63903.700000 0 0 1
-31.943355 20.678674 25.181595 45.630014 -0.574513 0.986198 0.096217 -0.026383 -293651.000000 0 0 1
-33.283965 20.869874 25.590945 46.885716 -0.560054 0.993434 0.074130 -0.029030 348170.000000 0 0 1
-33.979715 21.773574 24.745775 47.339866 -0.569867 1.020751 0.067798 -0.018404 -235149.000000 0 0 1
-33.705625 23.296274 25.048005 48.022787 -0.604774 1.022088 0.067076 -0.018003 -549671.000000 0 0 1
-34.500173 24.246274 24.364225 48.700710 -0.612594 1.046869 0.061818 -0.025627 116901.000000 0 0 1
-34.197101 25.602474 24.572335 49.282127 -0.642652 1.048807 0.063969 -0.017042 -130323.000000 0 0 1
-35.243706 26.413574 23.817655 50.070714 -0.643152 1.075059 0.072985 -0.018681 -10213.600000 0 0 1
-34.996392 26.411074 22.432365 49.249399 -0.646490 1.097879 0.080683 -0.029889 -782597.000000 0 0 1
-36.167145 26.598474 21.742765 49.882752 -0.634112 1.119783 0.078365 -0.032025 -1066270.000000 0 0 1
-35.991093 26.551674 20.219465 49.083367 -0.635601 1.146213 0.116938 -0.046847 -22745.700000 0 0 1
-35.994244 25.234174 19.739665 48.187171 -0.611438 1.148731 0.104605 -0.049718 278285.000000 0 0 1
-35.483866 25.145774 18.403965 47.224153 -0.616510 1.170474 0.105980 -0.051274 -168744.000000 0 0 1
-35.709581 23.791674 17.732665 46.429143 -0.587717 1.178913 0.112281 -0.041977 729746.000000 0 0 1
36.518452 23.743274 16.928965 46.732540 0.576496 1.200113 0.103781 -0.037435 391315.000000 0 0 1
36.648182 22.642074 16.007665 45.956481 0.553421 1.215016 0.105485 -0.034973 -29497.800000 0 0 1
35.435812 22.465774 15.078365 44.584357 0.565034 1.225794 0.087154 -0.015599 -37750.800000 0 0 1
34.319882 21.874474 15.686365 43.616614 0.567445 1.202912 0.101290 -0.029982 -171257.000000 0 0 1
33.262132 21.595674 14.766765 42.317844 0.575853 1.214347 0.100227 -0.024049 -394510.000000 0 0 1
32.245522 20.676874 15.500865 41.322919 0.570187 1.186275 0.101750 -0.026710 311143.000000 0 0 1
31.403722 21.193474 16.526965 41.333977 0.593661 1.159454 0.083541 -0.021072 498610.000000 0 0 1
30.596242 22.299674 16.136465 41.155692 0.629819 1.167901 0.066986 -0.003380 -551066.000000 0 0 1
29.658822 22.917174 17.165065 41.224775 0.657867 1.141339 0.050388 -0.005521 132822.000000 0 0 1
30.382332 23.678674 18.101165 42.560755 0.662026 1.131501 0.013714 -0.000298 -230835.000000 0 0 1
29.477392 24.272074 18.986065 42.644119 0.688855 1.109375 0.019326 0.008211 622380.000000 0 0 1
30.217862 24.953874 20.261465 44.117366 0.690275 1.093631 0.019169 -0.006921 1011310.000000 0 0 1
31.247812 25.864374 19.842365 45.156517 0.691415 1.115851 0.033030 -0.016119 705500.000000 0 0 1
31.933032 26.302074 21.032965 46.410163 0.689004 1.100447 0.045489 -0.019069 -474344.000000 0 0 1
33.240042 27.050274 20.744665 47.612591 0.683091 1.119984 0.050757 -0.025883 603157.000000 0 0 1
34.187332 27.406574 21.804265 48.942006 0.675752 1.109050 0.049418 -0.018161 885826.000000 0 0 1
33.699592 28.408774 22.628565 49.545665 0.700416 1.096490 0.028547 -0.010514 -242197.000000 0 0 1
34.665372 28.684574 23.835555 50.917841 0.691268 1.083637 0.022784 -0.012871 422768.000000 0 0 1
35.861092 29.331574 23.460265 51.930176 0.685574 1.102053 0.043898 -0.014999 112425.000000 0 0 1
36.515932 29.859874 24.639705 53.217858 0.685454 1.089423 0.056903 -0.006266 -182177.000000 0 0 1
-35.756778 30.818574 24.423335 53.149139 -0.711359 1.093337 0.080815 -0.017813 290176.000000 0 0 1
-34.518017 30.221774 24.028225 51.790006 -0.719134 1.088342 0.084634 -0.022377 246715.000000 0 0 1
-33.447685 31.108874 24.059145 51.627048 -0.749185 1.086011 0.091105 -0.020417 -695860.000000 0 0 1
-32.074885 30.587374 23.679305 50.250325 -0.761664 1.080115 0.117840 -0.024124 -664059.000000 0 0 1
-31.822205 30.297674 22.296965 49.272268 -0.760861 1.101201 0.095364 -0.013039 73475.400000 0 0 1
-32.323305 29.088074 21.756065 48.623435 -0.732766 1.106896 0.098063 -0.016248 -317395.000000 0 0 1
-31.858395 27.776174 22.440965 47.854676 -0.717051 1.082706 0.085433 -0.015779 -276335.000000 0 0 1
-30.449375 27.747774 22.359465 46.872690 -0.739010 1.073529 0.081217 -0.019973 97427.800000 0 0 1
-29.768305 26.693374 23.028865 46.141270 -0.730991 1.048243 0.080776 -0.027611 -89424.700000 0 0 1
-29.619105 26.765774 24.569745 46.876117 -0.734837 1.019089 0.097416 -0.014859 -402835.000000 0 0 1
-30.792455 26.882374 25.350205 48.098547 -0.717706 1.015674 0.087972 -0.012765 -170054.000000 0 0 1
-30.557845 27.302074 26.659505 48.886750 -0.729188 0.994011 0.096924 -0.019512 -365249.000000 0 0 1
-31.849765 27.386874 27.485205 50.198455 -0.710200 0.991386 0.093572 -0.027152 14492.500000 0 0 1
-32.365425 26.095374 27.834005 50.032200 -0.678554 0.980844 0.073977 -0.018043 -68846.600000 0 0 1
-33.475895 26.251074 28.687215 51.309947 -0.665019 0.977501 0.070877 -0.007883 -296688.000000 0 0 1
-34.000645 24.946574 29.266855 51.331513 -0.632993 0.964103 0.056556 -0.001289 -10392.900000 0 0 1
-33.218035 24.212274 30.233205 51.026647 -0.629853 0.936640 0.054305 -0.000266 -273170.000000 0 0 1
-33.872395 23.029274 30.533125 51.087751 -0.597097 0.930217 0.032193 -0.013771 -87448.700000 0 0 1
-33.193265 22.149074 31.612565 50.909022 -0.588424 0.900827 0.045814 -0.024657 -880578.000000 0 0 1
-32.048695 21.483774 31.163555 49.596759 -0.590547 0.891381 0.056512 -0.018261 -215724.000000 0 0 1
-31.425225 20.750074 32.241412 49.574378 -0.583582 0.862732 0.059231 -0.015881 351559.000000 0 0 1
-30.585385 21.495774 33.302801 50.066062 -0.612611 0.843065 0.061506 -0.020347 -499047.000000 0 0 1
-31.399495 22.269974 -33.995960 51.357622 -0.616905 2.294208 0.082025 -0.018192 38143.400000 0 0 1
-31.343465 21.906774 -32.613960 50.259227 -0.610005 2.276954 0.064652 -0.003126 -347051.000000 0 0 1
-30.100125 22.254674 -31.782470 49.106144 -0.636653 2.274728 0.084120 -0.008505 -307062.000000 0 0 1
-29.978735 23.622874 -31.391050 49.418243 -0.667373 2.259079 0.058738 -0.006155 244754.000000 0 0 1
-28.936515 23.882674 -30.448440 48.319887 -0.690007 2.252534 0.102433 -0.008780 181839.000000 0 0 1
-28.957885 25.294574 -29.823850 48.660421 -0.717977 2.230519 0.068132 0.001317 -64539.200000 0 0 1
-28.822165 26.384774 -30.742980 49.719255 -0.741277 2.237414 0.078734 -0.002888 141721.000000 0 0 1
-30.094915 26.785374 -31.224280 50.971716 -0.727279 2.230118 0.039381 0.001011 45588.900000 0 0 1
-30.046845 28.212174 -31.850780 52.088500 -0.753917 2.228719 0.065237 -0.004733 -135206.000000 0 0 1
-29.981235 29.302374 -30.970180 52.121546 -0.773948 2.207056 0.051443 -0.016950 -223883.000000 0 0 1
-29.243165 30.363874 -31.473740 52.609161 -0.804198 2.212119 0.069018 -0.033703 -341760.000000 0 0 1
-29.334615 31.695674 -30.704740 52.989777 -0.824066 2.188846 0.051312 -0.027054 -38629.700000 0 0 1
-28.831055 31.548974 -29.406050 51.877579 -0.830381 2.173456 0.045142 -0.021252 73776.100000 0 0 1
-29.268425 32.658474 -28.665390 52.391995 -0.840086 2.149732 0.041293 -0.025648 -228618.000000 0 0 1
-28.502955 32.870174 -27.327780 51.377761 -0.856437 2.131638 0.023149 -0.022558 -50096.900000 0 0 1
-27.138615 33.251374 -27.351020 50.894367 -0.886276 2.138156 0.029567 -0.014799 179793.000000 0 0 1
-26.768305 -33.603507 -27.567610 51.046165 0.898137 2.141296 0.024007 0.002512 -290504.000000 0 0 1
-27.097985 -32.556107 -26.478340 49.953011 0.876640 2.129473 0.024893 0.008301 -595289.000000 0 0 1
-28.423935 -32.142907 -26.389000 50.373265 0.846724 2.122183 0.021117 -0.006968 -729780.000000 0 0 1
-28.590185 -31.166507 -25.359600 49.313884 0.828485 2.110928 0.017714 0.000108 640545.000000 0 0 1
-30.086735 -30.763407 -25.167210 49.849646 0.796518 2.100019 0.009095 -0.002757 469617.000000 0 0 1
-30.565225 -29.744707 -25.991680 49.945450 0.771794 2.118117 0.015190 0.000398 316861.000000 0 0 1
-31.979595 -29.828307 -26.034170 50.894011 0.750606 2.107769 0.012908 -0.002175 158527.000000 0 0 1
-32.698065 -29.000007 -27.101020 51.425957 0.725532 2.125853 0.034468 -0.005795 -661689.000000 0 0 1
-34.080996 -29.161607 -27.092330 52.401411 0.707768 2.114157 0.044013 -0.013733 -540161.000000 0 0 1
-34.639037 -28.377107 -28.156530 52.895304 0.686353 2.132119 0.054232 -0.023524 1211840.000000 0 0 1
-36.205585 -28.539407 -28.287320 54.088026 0.667541 2.121148 0.055742 -0.024567 1100890.000000 0 0 1
36.464612 -27.857107 -27.304630 53.396902 -0.652369 2.107554 0.050270 -0.019240 -1344170.000000 0 0 1
35.131112 -28.094807 -27.530170 52.739202 -0.674566 2.119997 0.056338 -0.024834 -1484030.000000 0 0 1
34.263242 -27.417307 -26.488500 51.257381 -0.674860 2.113875 0.044835 -0.019077 -439740.000000 0 0 1
34.149782 -28.196007 -25.312180 51.009106 -0.690191 2.090046 0.035346 -0.019068 217991.000000 0 0 1
33.174112 -27.598707 -24.489300 49.617901 -0.693912 2.086972 0.044909 -0.008519 47331.800000 0 0 1
32.998382 -28.388907 -23.173100 49.313445 -0.710450 2.059990 0.035625 -0.004167 -23332.500000 0 0 1
32.293212 -29.606207 -23.283700 49.613604 -0.742016 2.059295 0.049088 -0.011271 -83304.200000 0 0 1
31.782422 -30.140607 -22.076200 49.050353 -0.758891 2.037643 0.047955 -0.018194 -565284.000000 0 0 1
32.677102 -30.296007 -20.854100 49.198928 -0.747605 2.008514 0.037839 -0.009165 -1190570.000000 0 0 1
33.638522 -31.299107 -21.134700 50.575288 -0.749388 2.001913 0.032016 -0.007823 239934.000000 0 0 1
34.783062 -31.204707 -20.306100 50.950298 -0.731224 1.980729 0.011863 0.000127 1348900.000000 0 0 1
35.822692 -29.970607 -20.453300 50.988626 -0.696685 1.983551 0.010718 -0.002766 329142.000000 0 0 1
35.282012 -28.703807 -19.967800 49.673352 -0.682951 1.984477 0.006872 0.004757 -71816.000000 0 0 1
35.855152 -27.511107 -20.483200 49.618690 -0.654472 1.996336 -0.006703 0.008591 -276030.000000 0 0 1
35.012262 -26.231007 -20.293700 48.226118 -0.642986 2.005127 -0.003782 0.009083 -489481.000000 0 0 1
33.847042 -26.176307 -21.039400 47.680999 -0.658291 2.027791 0.021052 0.000492 -445920.000000 0 0 1
32.834562 -25.450507 -20.353200 46.261102 -0.659381 2.026354 0.050361 -0.006254 -424665.000000 0 0 1
31.571802 -25.264007 -21.176700 45.645387 -0.674868 2.053233 0.063244 -0.012459 -623639.000000 0 0 1
30.772312 -26.399207 -21.274100 45.786905 -0.709056 2.054016 0.078489 -0.013308 -305748.000000 0 0 1
29.606112 -26.175007 -22.019200 45.238236 -0.723965 2.079149 0.077290 -0.015871 163981.000000 0 0 1
28.727022 -27.412507 -22.364800 45.572707 -0.761987 2.083747 0.082173 -0.015721 -2628.480000 0 0 1
28.079562 -27.982907 -21.284000 44.994595 -0.783674 2.063528 0.075690 -0.017958 -414709.000000 0 0 1
27.716662 -29.262007 -21.613300 45.734157 -0.812513 2.063019 0.061342 -0.019621 -302224.000000 0 0 1
27.013862 -30.001107 -20.463600 45.261176 -0.837744 2.039940 0.058915 -0.010276 -462354.000000 0 0 1
27.820262 -30.484807 -19.436300 45.618639 -0.831066 2.010930 0.080187 -0.018843 -415522.000000 0 0 1
28.541012 -31.623307 -19.778800 46.966199 -0.836585 2.005485 0.077142 -0.012963 37168.000000 0 0 1
29.394472 -32.237407 -18.645200 47.443955 -0.831493 1.974682 0.061311 -0.011608 -210432.000000 0 0 1
28.633152 -32.840207 -17.614600 46.995859 -0.853729 1.954990 0.068857 -0.014819 48683.400000 0 0 1
28.305462 -31.945307 -16.521400 45.767439 -0.845736 1.940121 0.058905 -0.023295 131893.000000 0 0 1
27.553162 -32.700207 -15.392400 45.446741 -0.870615 1.916322 0.069612 -0.019301 1258890.000000 0 0 1
26.200162 -33.173407 -15.638600 45.072045 -0.902310 1.925134 0.077953 -0.021916 1243270.000000 0 0 1
25.679962 -33.816307 -14.471600 44.860119 -0.921309 1.899265 0.081387 -0.025660 -25488.100000 0 0 1
24.148462 -33.953007 -14.361000 44.070321 -0.952572 1.902723 0.082493 -0.021486 78903.500000 0 0 1
23.540462 -32.718207 -14.051200 42.685719 -0.947108 1.906229 0.090183 -0.020103 554969.000000 0 0 1
22.166762 -32.871907 -13.680000 41.941268 -0.977502 1.903046 0.073445 -0.025399 508849.000000 0 0 1
-0.275225 -7.022926 -29.053890 29.891901 1.531627 2.904246 0.076750 -0.019483 177272.000000 0 0 1
-0.197925 -8.453626 -28.981920 30.190307 1.547388 2.857707 0.067067 -0.014787 -73635.400000 0 0 1
-0.068625 -9.045026 -30.260930 31.583874 1.563209 2.851136 0.068431 -0.016451 -12150.600000 0 0 1
0.053775 -10.587026 -30.240890 32.040590 -1.565717 2.804834 0.072860 -0.010437 285307.000000 0 0 1
1.325375 -10.972426 -29.751670 31.738189 -1.450587 2.785911 0.031710 -0.006126 27189.000000 0 0 1
1.561975 -12.364126 -29.688980 32.198554 -1.445131 2.744164 0.039881 -0.007487 100848.000000 0 0 1
2.937475 -12.769126 -29.092470 31.906914 -1.344685 2.718423 0.048330 -0.007030 -1078220.000000 0 0 1
3.952075 -12.629326 -30.043330 32.828653 -1.267521 2.726690 0.067159 -0.011087 -230256.000000 0 0 1
5.199575 -13.109226 -29.552110 32.744688 -1.193194 2.696338 0.069801 -0.012919 334030.000000 0 0 1
5.383275 -14.588526 -29.172410 33.058043 -1.217290 2.651863 0.071590 -0.014228 -1765850.000000 0 0 1
4.683175 -14.954626 -28.022260 32.106386 -1.267311 2.631694 0.075590 -0.019031 -540497.000000 0 0 1
5.418375 -15.713626 -27.126910 31.814243 -1.238743 2.591863 0.094228 -0.018493 -499946.000000 0 0 1
5.298075 -17.274126 -27.203250 32.657033 -1.273199 2.555301 0.089121 -0.025744 -47153.200000 0 0 1
5.660575 -17.749526 -28.523720 34.068906 -1.262079 2.563006 0.086146 -0.042302 208054.000000 0 0 1
5.517875 -19.136126 -28.767520 34.988690 -1.290063 2.536053 0.090026 -0.040344 -192925.000000 0 0 1
5.918175 -19.536526 -30.227880 36.474996 -1.276655 2.547629 0.075766 -0.044967 -442311.000000 0 0 1
7.292675 -19.604426 -30.499610 36.983007 -1.214666 2.540455 0.077126 -0.038670 -259888.000000 0 0 1
7.544575 -20.276226 -31.737670 38.409968 -1.214580 2.543280 0.078149 -0.041396 278403.000000 0 0 1
9.063375 -20.148226 -32.033830 38.913520 -1.148080 2.537831 0.070248 -0.036057 206878.000000 0 0 1
9.378175 -18.875826 -32.570010 38.795006 -1.109684 2.567235 0.069669 -0.038010 723212.000000 0 0 1
10.624775 -18.819026 -33.287430 39.687461 -1.056831 2.565760 0.059989 -0.031669 508770.000000 0 0 1
10.769875 -17.371326 -33.806170 39.504561 -1.015815 2.597802 0.053201 -0.021776 -206959.000000 0 0 1
9.842975 -17.140326 33.300520 38.724663 -1.049520 0.535663 0.065361 -0.022716 278080.000000 0 0 1
9.817775 -15.796426 32.917493 37.808427 -1.014704 0.514296 0.057533 -0.017767 175328.000000 0 0 1
8.749875 -15.463526 31.816745 36.441545 -1.055874 0.509292 0.068838 -0.023580 238161.000000 0 0 1
9.067375 -16.010326 30.543075 35.657079 -1.055490 0.542195 0.064039 -0.019287 175570.000000 0 0 1
8.107975 -15.597026 29.567795 34.398561 -1.091402 0.536379 0.063687 -0.016968 158729.000000 0 0 1
8.244375 -16.466826 28.269205 33.738317 -1.106616 0.577379 0.055196 -0.004360 -154672.000000 0 0 1
7.775775 -17.817326 28.438065 34.447690 -1.159296 0.599632 0.053103 -0.013785 387132.000000 0 0 1
7.931975 -18.504326 27.256185 33.885483 -1.165834 0.636196 0.041243 -0.011233 145470.000000 0 0 1
7.251775 -19.891926 27.509145 34.713542 -1.221211 0.655962 0.049593 -0.014549 72434.300000 0 0 1
7.889075 -20.636426 28.567425 36.113673 -1.205651 0.658286 0.056390 -0.010174 191412.000000 0 0 1
7.192775 -21.752526 29.064445 37.008788 -1.251450 0.667553 0.045700 -0.009695 -404192.000000 0 0 1
7.598275 -21.939726 30.497775 38.330140 -1.237399 0.650699 0.048473 -0.015399 -286177.000000 0 0 1
7.101875 -21.097326 31.502725 38.574026 -1.246087 0.615158 0.049918 -0.022095 8611.610000 0 0 1
7.445375 -19.722126 31.497335 37.900897 -1.209824 0.589813 0.054163 -0.027530 -78533.700000 0 0 1
6.766775 -18.998626 32.705998 38.424202 -1.228634 0.552563 0.060649 -0.032470 588691.000000 0 0 1
5.351475 -18.885226 32.666022 38.109829 -1.294667 0.541076 0.066981 -0.033005 40800.700000 0 0 1
4.893575 -18.237126 33.841214 38.752646 -1.308641 0.508939 0.074483 -0.036288 -79244.700000 0 0 1
3.361275 -18.132226 34.019071 38.695904 -1.387501 0.496744 0.083611 -0.033933 3138.410000 0 0 1
2.975175 -19.316526 -33.487950 38.773994 -1.417975 2.613303 0.065256 -0.038777 -99825.500000 0 0 1
2.716075 -19.056526 -32.091270 37.421623 -1.429223 2.601303 0.068150 -0.046598 -582678.000000 0 0 1
2.109475 -20.234526 -31.334030 37.359167 -1.466920 2.565732 0.083557 -0.042225 -327294.000000 0 0 1
0.814975 -20.571226 -31.819920 37.899166 -1.531200 2.567332 0.052923 -0.031738 322278.000000 0 0 1
0.115775 -21.407026 -30.904350 37.594587 -1.565388 2.535785 0.047904 -0.035269 -47952.500000 0 0 1
-0.787725 -20.669226 -29.917560 36.371662 1.532704 2.536679 0.053709 -0.031822 -298392.000000 0 0 1
-1.867625 -19.995226 -30.582280 36.586513 1.477663 2.560548 0.054946 -0.031876 16244.500000 0 0 1
-2.470125 -19.079126 -29.714430 35.398614 1.442045 2.567018 0.072336 -0.017413 -289820.000000 0 0 1
-2.004425 -17.609526 -29.826170 34.694575 1.457458 2.605436 0.051229 -0.014836 -55521.200000 0 0 1
-2.843725 -16.732326 -29.080490 33.670943 1.402451 2.613297 0.058307 -0.013175 -109921.000000 0 0 1
-2.695525 -15.412026 -29.597880 33.478812 1.397650 2.655314 0.066100 -0.016016 -52153.700000 0 0 1
-3.673425 -14.373826 -29.050050 32.619110 1.320588 2.669423 0.066938 -0.012192 -88706.300000 0 0 1
-3.499325 -14.220126 -27.663800 31.300848 1.329508 2.654727 0.057889 -0.016941 197386.000000 0 0 1
-4.453825 -13.219026 -27.331670 30.685491 1.245816 2.669686 0.065713 -0.020786 -323004.000000 0 0 1
-4.526725 -12.981126 -25.828900 29.259749 1.235266 2.652469 0.061077 -0.028462 -532692.000000 0 0 1
-5.048825 -14.076226 -25.063810 29.186047 1.226412 2.603641 0.061961 -0.021631 386743.000000 0 0 1
-5.050025 -13.888026 -23.664900 27.899955 1.222036 2.583385 0.063395 -0.026048 28187.300000 0 0 1
-6.164325 -12.899526 -23.159300 27.216720 1.125007 2.588534 0.063292 -0.027882 1622560.000000 0 0 1
-7.499825 -13.491526 -23.370900 28.008349 1.063441 2.557887 0.060902 -0.027560 1559250.000000 0 0 1
-8.421425 -12.425126 -23.100100 27.548480 0.975144 2.565367 0.073535 -0.027607 1193130.000000 0 0 1
-9.945125 -12.800926 -23.307000 28.389883 0.910296 2.533889 0.074971 -0.035587 885321.000000 0 0 1
-10.594525 -13.432926 -22.265700 28.079331 0.902985 2.486443 0.083769 -0.037277 -323007.000000 0 0 1
-11.409625 -14.443026 -22.814900 29.313822 0.902198 2.462747 0.056836 -0.034777 95977.100000 0 0 1
-12.270925 -15.371826 -21.922000 29.452380 0.897109 2.410313 0.063906 -0.031372 350825.000000 0 0 1
-11.502225 -16.452926 -21.451500 29.379700 0.960675 2.389333 0.088268 -0.033837 141276.000000 0 0 1
-12.330225 -17.602626 -21.255900 30.227473 0.959751 2.350682 0.064125 -0.028366 437314.000000 0 0 1
-12.773825 -18.350626 -22.542900 31.750565 0.962694 2.360294 0.045198 -0.024545 565700.000000 0 0 1
-13.915625 -17.753326 -23.164100 32.332657 0.905992 2.369469 0.042278 -0.026919 165932.000000 0 0 1
-14.382525 -18.450326 -24.280000 33.716315 0.908664 2.374780 0.007941 -0.020931 -604985.000000 0 0 1
-15.505325 -17.651326 -24.918600 34.247934 0.850031 2.385605 0.024477 -0.023289 4035.960000 0 0 1
-16.700925 -17.660526 -24.123900 34.245841 0.813318 2.352420 0.037751 -0.025435 -30798.800000 0 0 1
-17.813825 -17.252826 -24.841100 35.100892 0.769401 2.357042 0.047691 -0.026767 -594980.000000 0 0 1
-18.436525 -15.975726 -24.392400 34.498093 0.714010 2.356136 0.055831 -0.025396 -510974.000000 0 0 1
-19.088025 -16.039526 -23.147600 34.021030 0.698831 2.319092 0.055596 -0.019867 269470.000000 0 0 1
-19.743025 -14.811426 -22.846400 33.632177 0.643636 2.317607 0.060351 -0.021098 457434.000000 0 0 1
-20.454625 -14.717726 -21.432300 33.080910 0.623714 2.275588 0.048470 -0.013737 595539.000000 0 0 1
-19.489425 -14.437926 -20.407400 31.697844 0.637592 2.270264 0.055181 -0.008783 527394.000000 0 0 1
-19.997925 -14.202226 -19.102300 31.088874 0.617529 2.232474 0.049218 -0.005171 26940.700000 0 0 1
-20.810625 -12.933726 -18.702200 30.824270 0.556076 2.222745 0.038856 -0.012437 701580.000000 0 0 1
-22.127025 -12.746726 -19.211000 31.955387 0.522638 2.215776 0.043215 -0.012707 574646.000000 0 0 1
-22.842425 -11.764926 -18.497800 31.660045 0.475613 2.194768 0.050825 -0.012948 1173490.000000 0 0 1
-24.311425 -11.433126 -18.971600 32.888955 0.439588 2.185649 0.073679 -0.011624 1010600.000000 0 0 1
-24.397725 -10.547526 -20.111800 33.331423 0.408051 2.218540 0.068557 -0.013973 123361.000000 0 0 1
-25.764305 -10.455626 -20.467000 34.525608 0.385512 2.205335 0.065085 -0.020474 158180.000000 0 0 1
-26.020445 -9.774326 -21.850400 35.355918 0.359332 2.237008 0.072441 -0.026032 34679.800000 0 0 1
-25.752425 -10.513226 -23.032500 36.113866 0.387591 2.262402 0.058262 -0.020375 567602.000000 0 0 1
-26.711385 -9.984426 -23.935800 37.230489 0.357709 2.269086 0.051272 -0.005964 -93784.000000 0 0 1
-26.687815 -10.530026 -25.431270 38.338889 0.375811 2.296054 0.040718 -0.008994 473868.000000 0 0 1
-25.621715 -10.048326 -26.275270 38.050373 0.373747 2.333030 0.030071 -0.009646 -59063.800000 0 0 1
-24.449725 -10.806426 -26.162660 37.403912 0.416169 2.345442 0.025452 -0.008579 -610768.000000 0 0 1
-23.499925 -10.408626 -27.306430 37.499694 0.416952 2.386455 0.038655 -0.022345 -416378.000000 0 0 1
-23.920225 -10.787926 -28.567320 38.789796 0.423682 2.398626 0.042902 -0.012824 -680627.000000 0 0 1
-22.935925 -10.847826 -29.522660 38.927104 0.441784 2.431665 0.052135 -0.010530 -450603.000000 0 0 1
-23.606225 -11.327526 -30.826520 40.445531 0.447401 2.437461 0.035922 -0.009002 749345.000000 0 0 1
-24.596225 -10.565426 -31.545270 41.372775 0.405722 2.437910 0.032302 -0.015426 351287.000000 0 0 1
-24.144225 -9.363226 -32.107810 41.249546 0.369949 2.462877 0.030842 -0.018966 -579659.000000 0 0 1
-25.219015 -8.343126 -32.634330 42.078569 0.319493 2.458393 0.032850 -0.023007 -1111110.000000 0 0 1
-25.993395 -8.831826 -33.684710 43.454774 0.327534 2.457776 0.049476 -0.034289 1099480.000000 0 0 1
-27.206205 -9.546526 -33.336480 44.075329 0.337472 2.428515 0.055777 -0.027540 641486.000000 0 0 1
-28.268225 -8.709026 -32.566880 43.994787 0.298858 2.404230 0.053285 -0.013470 -1651780.000000 0 0 1
-29.479945 -9.345426 -32.342060 44.748329 0.306988 2.378576 0.061407 -0.012558 -484859.000000 0 0 1
-30.272995 -8.678226 -31.406170 44.475986 0.279179 2.354825 0.066905 -0.007841 801800.000000 0 0 1
-31.815195 -8.970326 -31.352990 45.559668 0.274817 2.329766 0.062372 -0.006630 878490.000000 0 0 1
-32.087315 -10.357526 -31.141000 45.898104 0.312233 2.316489 0.052563 -0.009338 1355710.000000 0 0 1
-33.499155 -10.712126 -31.082310 46.936691 0.309497 2.294571 0.041300 -0.006076 1341200.000000 0 0 1
-33.710355 -12.225626 -31.102390 47.468016 0.347914 2.285281 0.033451 -0.008338 164083.000000 0 0 1
-35.062115 -12.648226 -31.019710 48.492803 0.346208 2.264874 0.023029 -0.003637 149889.000000 0 0 1
-35.250916 -14.070426 -31.306260 49.200466 0.379774 2.260489 0.023321 -0.011827 696869.000000 0 0 1
-36.617425 -14.680326 -30.850240 50.080785 0.381291 2.234463 0.027913 -0.016918 587721.000000 0 0 1
-36.600645 -14.866426 -29.466340 49.283699 0.385822 2.211665 0.023754 -0.012270 -26275.100000 0 0 1
-36.695585 -16.201326 -29.172930 49.599483 0.415768 2.199591 0.013744 -0.016798 -78698.200000 0 0 1
-36.698685 -16.401726 -27.621530 48.772523 0.420298 2.172847 0.040107 -0.015903 -286578.000000 0 0 1
-35.466478 -16.130026 -27.030290 47.420305 0.426835 2.177321 0.033934 -0.026699 -393332.000000 0 0 1
-35.601697 -16.206826 -25.637880 46.770107 0.427192 2.150969 0.057153 -0.029031 276072.000000 0 0 1
-34.314852 -15.656526 -24.971400 45.235016 0.428048 2.155602 0.067423 -0.025953 512500.000000 0 0 1
-33.179085 -16.502126 -25.071360 44.740864 0.461538 2.165627 0.061012 -0.020453 972926.000000 0 0 1
-32.058045 -16.047126 -24.269200 43.292292 0.464099 2.165894 0.076667 -0.007095 439100.000000 0 0 1
-30.885275 -17.005926 -24.224300 42.777546 0.503316 2.172788 0.054814 -0.012016 -542727.000000 0 0 1
-31.057355 -18.229926 -23.526800 43.016273 0.530788 2.149487 0.064201 -0.019404 183704.000000 0 0 1
-31.636905 -19.280826 -24.337100 44.327626 0.547332 2.151997 0.045711 -0.024646 -205208.000000 0 0 1
-31.467395 -20.732526 -23.780700 44.559581 0.582577 2.133746 0.044497 -0.028132 -457703.000000 0 0 1
-30.137285 -21.155926 -23.848300 43.869927 0.612057 2.145533 0.044055 -0.014152 -389941.000000 0 0 1
-29.978805 -22.350426 -23.067200 43.935930 0.640641 2.123534 0.040228 -0.009382 -244957.000000 0 0 1
-28.575475 -23.038426 -23.191000 43.418306 0.678529 2.134274 0.048889 -0.011401 1475220.000000 0 0 1
-27.404865 -22.309326 -22.758700 42.032024 0.683258 2.142970 0.059244 -0.016491 750432.000000 0 0 1
-27.375525 -22.075726 -21.339900 41.135731 0.678633 2.116206 0.063445 -0.028569 -635467.000000 0 0 1
-27.390425 -23.240426 -20.318100 41.269576 0.703615 2.085557 0.065355 -0.023224 -184423.000000 0 0 1
-27.304905 -22.709226 -18.993800 40.274448 0.693768 2.061911 0.057891 -0.019584 145402.000000 0 0 1
-27.356895 -23.748026 -18.018400 40.460242 0.714898 2.032346 0.053870 0.005964 -18934.200000 0 0 1
-27.284425 -23.150626 -16.597100 39.444328 0.703618 2.005093 0.043816 0.007772 -2333.590000 0 0 1
-28.468925 -22.487526 -16.202200 39.732603 0.668550 1.990819 0.033148 0.001855 -75584.600000 0 0 1
-28.258075 -21.395226 -15.329800 38.617059 0.648053 1.979009 0.037001 0.000834 -276710.000000 0 0 1
-29.547405 -20.823526 -14.729700 39.033734 0.613907 1.957738 0.036685 0.005043 -453887.000000 0 0 1
-30.346155 -20.199226 -15.669300 39.679022 0.587283 1.976757 0.034429 0.007786 -929644.000000 0 0 1
-31.506685 -19.723126 -15.079600 40.113180 0.559317 1.956193 0.041768 0.009272 -935750.000000 0 0 1
-32.485385 -19.081526 -16.036400 40.945952 0.531094 1.973218 0.048848 -0.006925 -502628.000000 0 0 1
-33.190475 -20.024826 -16.818100 42.254582 0.542865 1.980152 0.028417 0.004687 -219757.000000 0 0 1
-33.882825 -19.385726 -17.872000 42.933210 0.519682 2.000140 0.029221 -0.000439 -285431.000000 0 0 1
-34.623271 -20.368526 -18.791900 44.348430 0.531765 2.008359 0.014671 0.005267 783406.000000 0 0 1
-35.754838 -21.035826 -18.201500 45.301313 0.531798 1.984264 0.006269 0.009304 663007.000000 0 0 1
-35.391120 -22.106026 -17.313900 45.177194 0.558327 1.964103 0.010238 0.007315 5714.930000 0 0 1
-36.395545 -23.290926 -17.401100 46.582198 0.569270 1.953637 0.014482 0.012553 332171.000000 0 0 1
35.666932 -23.037426 -17.075300 45.764822 -0.573491 1.953155 0.027407 -0.002632 86873.100000 0 0 1
35.033332 -24.237626 -16.728200 45.767123 -0.605232 1.944974 0.029380 -0.003139 345912.000000 0 0 1
33.578432 -24.174226 -16.168600 44.422156 -0.623979 1.943330 0.038720 -0.010599 1086780.000000 0 0 1
32.599422 -23.992926 -17.222800 43.988722 -0.634476 1.973087 0.036744 -0.012138 876223.000000 0 0 1
31.308942 -24.391726 -16.766300 43.084974 -0.661845 1.970500 0.055197 -0.020378 -8388.120000 0 0 1
30.137582 -24.307026 -17.711300 42.576936 -0.678713 1.999820 0.069400 -0.024734 -495153.000000 0 0 1
29.634582 -22.968026 -17.780200 41.495472 -0.659336 2.013612 0.048607 -0.022720 507907.000000 0 0 1
28.338462 -23.017626 -18.370800 40.870109 -0.682160 2.036993 0.058710 -0.028841 184249.000000 0 0 1
34.848952 29.138874 -18.216800 48.942571 0.696397 1.952183 0.049701 -0.017649 -410588.000000 0 0 1
34.007062 29.342074 -19.306400 48.889413 0.711892 1.976755 0.045232 -0.030439 -144606.000000 0 0 1
34.741792 29.376474 -20.483000 49.895116 0.701914 1.993822 0.042192 -0.017470 -719149.000000 0 0 1
33.814912 29.588474 -21.630600 49.867915 0.718837 2.019456 0.047766 -0.014013 -995073.000000 0 0 1
32.946042 28.470274 -21.866500 48.725168 0.712651 2.036187 0.042829 -0.015541 786439.000000 0 0 1
32.171232 28.668774 -23.088400 48.887227 0.727893 2.062671 0.058102 -0.007091 613517.000000 0 0 1
30.939062 29.592874 -22.971700 48.586652 0.763163 2.063260 0.061317 -0.002568 -361372.000000 0 0 1
31.377002 30.948674 -22.831500 49.634807 0.778526 2.048780 0.058692 -0.012263 -36483.500000 0 0 1
30.238142 31.765774 -22.907600 49.478963 0.810031 2.052147 0.059464 0.001083 -518811.000000 0 0 1
30.449582 33.304774 -22.715900 50.521254 0.830153 2.037148 0.057790 0.000493 -162143.000000 0 0 1
30.698002 33.623274 -21.367100 50.293587 0.830846 2.009590 0.059121 0.001264 -724537.000000 0 0 1
32.061932 33.592774 -21.119400 51.014420 0.808711 1.997628 0.045408 -0.006565 -1195480.000000 0 0 1
32.467732 33.476674 -19.681900 50.618362 0.800697 1.970157 0.049808 -0.016124 -337428.000000 0 0 1
32.195032 -33.613307 -18.916000 50.241313 -0.806946 1.956815 0.047366 -0.010703 8619.370000 0 0 1
32.606962 -33.887407 -17.602000 50.213551 -0.804652 1.928947 0.054007 -0.022539 -266007.000000 0 0 1
32.776132 -32.561007 -16.785900 49.155472 -0.782106 1.919294 0.055114 -0.010965 341744.000000 0 0 1
33.998952 -31.873807 -17.036300 49.619591 -0.753148 1.921265 0.053918 -0.011258 350021.000000 0 0 1
34.987532 -32.087407 -16.055000 50.114789 -0.742188 1.896911 0.056199 -0.012054 335530.000000 0 0 1
36.369932 -31.425007 -16.330300 50.763980 -0.712588 1.898311 0.041199 0.001253 102147.000000 0 0 1
-36.295625 -32.069307 -17.304400 51.432043 0.723657 1.913943 0.032989 -0.002845 -838582.000000 0 0 1
-35.200433 -31.242807 -17.605000 50.250567 0.725904 1.928735 0.017943 0.000349 -210170.000000 0 0 1
-34.272823 -31.922707 -18.649500 50.413187 0.749910 1.949733 0.036564 -0.012455 -482689.000000 0 0 1
-33.460025 -32.931207 -18.047100 50.296475 0.777433 1.937794 0.044136 -0.017917 160264.000000 0 0 1
-32.475755 -33.567707 -18.809900 50.351543 0.801931 1.953653 0.053754 -0.019807 913889.000000 0 0 1
-31.210205 -32.645107 -19.129500 49.048115 0.807866 1.971444 0.043835 -0.017954 -395745.000000 0 0 1
-31.351275 -31.633207 -20.192400 48.900871 0.789874 1.996460 0.030992 -0.013881 157338.000000 0 0 1
-30.121115 -31.131207 -20.694700 48.007335 0.801887 2.016479 0.049884 -0.013806 464892.000000 0 0 1
-29.158715 -32.156007 -21.403000 48.397601 0.834243 2.028883 0.049002 -0.011964 -224213.000000 0 0 1
-29.781765 -33.042707 -22.300900 49.760467 0.837257 2.035508 0.043773 -0.005455 190661.000000 0 0 1
-28.858155 -34.019607 -22.841400 50.118423 0.867302 2.044009 0.035631 -0.013982 539401.000000 0 0 1
-29.445445 33.358074 -24.017600 50.563232 -0.847617 2.065762 0.039567 -0.021476 65811.900000 0 0 1
-30.504015 32.432074 -23.700600 50.438604 -0.816024 2.059963 0.035365 -0.029985 790673.000000 0 0 1
-31.172275 31.870874 -24.848600 51.038380 -0.796479 2.079289 0.024891 -0.022154 574858.000000 0 0 1
-32.114655 32.867774 -25.608530 52.606448 -0.796987 2.079213 0.037550 -0.032618 -507190.000000 0 0 1
-31.520015 33.635474 -26.615130 53.228015 -0.817855 2.094419 0.035661 -0.032247 -530498.000000 0 0 1
-32.457795 -33.667007 -27.122760 54.061260 0.803683 2.096364 0.037360 -0.028968 107650.000000 0 0 1
-31.875435 -32.784807 -28.199160 53.722244 0.799461 2.123402 0.035135 -0.021373 81363.400000 0 0 1
-31.534435 -33.402307 -29.433500 54.556994 0.814155 2.140640 0.038869 -0.027344 453760.000000 0 0 1
-32.685475 -33.512307 -30.281690 55.752988 0.797888 2.144969 0.040008 -0.022173 475992.000000 0 0 1
-32.572105 33.663374 -31.389280 56.386626 -0.801872 2.161180 0.051826 -0.022942 -114564.000000 0 0 1
-31.727495 33.933974 -32.480150 56.684289 -0.818989 2.180959 0.054338 -0.030246 -230906.000000 0 0 1
-32.081865 33.109074 -33.549480 57.017755 -0.801154 2.199880 0.064427 -0.037544 -396979.000000 0 0 1
-31.363285 33.578274 33.324974 56.760109 -0.819492 0.943300 0.079463 -0.046135 388954.000000 0 0 1
-29.980325 33.342874 33.173134 55.776554 -0.838450 0.933841 0.069543 -0.045563 -87880.700000 0 0 1
-29.670375 32.010774 32.923011 54.671249 -0.823323 0.924543 0.076248 -0.049704 -1594450.000000 0 0 1
-28.202325 31.702174 32.943991 53.718763 -0.843756 0.910605 0.075718 -0.045469 -1419990.000000 0 0 1
-27.663295 31.738674 -33.885290 54.044557 -0.853898 2.248477 0.073140 -0.050052 390055.000000 0 0 1
-26.323525 31.251974 -33.841110 53.055014 -0.870790 2.262499 0.075979 -0.046117 -22607.900000 0 0 1
-26.142915 29.710274 34.070958 52.220518 -0.849182 0.859992 0.090117 -0.037049 -747479.000000 0 0 1
-26.232965 28.903274 -32.920980 51.062301 -0.833791 2.271456 0.092189 -0.029192 260254.000000 0 0 1
-26.051965 27.533074 -33.157000 50.360318 -0.813031 2.289481 0.098369 -0.018811 -317175.000000 0 0 1
-25.980695 26.737374 -31.834220 49.023476 -0.799751 2.277548 0.114744 -0.022859 -164418.000000 0 0 1
-24.732325 26.702374 -31.165740 47.916678 -0.823681 2.278927 0.091509 -0.022504 161929.000000 0 0 1
-24.442825 27.963574 -30.480640 48.046671 -0.852479 2.258024 0.063472 -0.023895 -91941.000000 0 0 1
-23.150925 27.902274 -29.632630 46.825153 -0.878197 2.256006 0.094222 -0.020223 621593.000000 0 0 1
-21.921525 28.035174 -30.378590 46.790843 -0.907172 2.277384 0.095840 -0.020721 641666.000000 0 0 1
-20.746125 28.124174 -29.613810 45.807735 -0.935239 2.273759 0.053220 -0.015715 -120148.000000 0 0 1
-20.486525 29.411874 -28.853610 46.013985 -0.962397 2.248572 0.035354 -0.007243 -948190.000000 0 0 1
-19.987325 30.512374 -29.600820 46.975596 -0.990875 2.252519 0.037773 -0.004277 70380.800000 0 0 1
-19.936025 31.673674 -28.808150 47.228976 -1.009025 2.226816 0.043131 -0.008122 -23077.400000 0 0 1
-19.398425 32.907174 -29.573550 48.309169 -1.038141 2.229602 0.042653 -0.005751 1244480.000000 0 0 1
-18.011725 32.818074 -29.986870 47.965202 -1.068848 2.246158 0.042359 -0.002738 800740.000000 0 0 1
-17.688025 33.923174 -30.797840 49.113694 -1.090164 2.248585 0.049073 0.002635 -289621.000000 0 0 1
-16.220625 34.004474 -31.232620 48.937608 -1.125706 2.262971 0.033763 0.006683 -756330.000000 0 0 1
-15.310125 -33.693907 -30.271230 47.812411 1.144299 2.256380 0.044364 -0.008874 595912.000000 0 0 1
-13.944625 -33.831007 -30.688420 47.757394 1.179830 2.268670 0.064488 -0.007668 965007.000000 0 0 1
-13.420225 32.912674 -30.503040 46.837826 -1.183625 2.280024 0.071813 -0.015811 -854976.000000 0 0 1
-13.230825 32.538974 -29.144370 45.642457 -1.184601 2.263391 0.078844 -0.025048 -62310.400000 0 0 1
-13.129725 31.114574 -29.054580 44.549691 -1.171487 2.281258 0.073087 -0.022445 -100745.000000 0 0 1
-13.114225 30.585674 -27.628130 43.252513 -1.165737 2.263687 0.062242 -0.028653 -20944.700000 0 0 1
-11.864625 30.994674 -27.129100 42.865221 -1.205209 2.256080 0.070880 -0.026546 -222936.000000 0 0 1
-11.786325 30.904874 -25.689750 41.880687 -1.206449 2.231159 0.047740 -0.021021 1067900.000000 0 0 1
-10.318825 31.247774 -25.207910 41.452868 -1.251845 2.224474 0.063496 -0.027327 1246750.000000 0 0 1
-9.344525 30.380174 -25.794130 40.934243 -1.272394 2.252524 0.082908 -0.026397 -264602.000000 0 0 1
-8.098925 30.791174 -25.251260 40.636377 -1.313595 2.241319 0.095064 -0.035545 382913.000000 0 0 1
-6.897525 29.983374 -25.828800 40.170953 -1.344685 2.269169 0.086665 -0.035811 41277.000000 0 0 1
-6.586725 28.723974 -25.315310 38.849923 -1.345382 2.280512 0.093191 -0.042717 -61485.600000 0 0 1
-5.463625 28.119574 -25.925190 38.635180 -1.378888 2.306387 0.095709 -0.050062 197552.000000 0 0 1
-4.906325 26.921974 -25.151380 37.167952 -1.390532 2.314061 0.105180 -0.034022 -243352.000000 0 0 1
-5.898925 25.946974 -25.113240 36.588490 -1.347251 2.327282 0.108859 -0.027405 -151088.000000 0 0 1
-5.437225 24.807874 -24.468500 35.266153 -1.355035 2.337582 0.102779 -0.040350 -397136.000000 0 0 1
-6.478725 23.683774 -24.386900 34.606588 -1.303778 2.352782 0.086944 -0.037078 -294137.000000 0 0 1
-6.572825 23.136674 -25.694120 35.195106 -1.294002 2.389189 0.087551 -0.025531 468835.000000 0 0 1
-7.293525 21.892374 -25.494230 34.386441 -1.249207 2.405956 0.088593 -0.035579 64107.800000 0 0 1
-7.124025 20.932474 -26.659040 34.635597 -1.242759 2.449168 0.071730 -0.028430 555312.000000 0 0 1
-5.897125 20.200374 -26.834000 34.101243 -1.286758 2.476553 0.079249 -0.038733 316774.000000 0 0 1
-5.766425 19.040874 -25.965290 32.710898 -1.276732 2.487797 0.084246 -0.041358 1029240.000000 0 0 1
-4.443425 18.147074 -26.034950 32.044952 -1.330665 2.519140 0.083102 -0.050687 1179990.000000 0 0 1
-4.440725 17.476474 -27.295500 32.713781 -1.321965 2.557791 0.069416 -0.049196 -137361.000000 0 0 1
-3.298625 16.641574 -27.332250 32.169470 -1.375117 2.586086 0.074355 -0.052664 -118999.000000 0 0 1
-2.984825 16.035374 -28.721880 33.030119 -1.386763 2.625120 0.065506 -0.045870 -170722.000000 0 0 1
-2.557725 17.104774 -29.499810 34.195819 -1.422363 2.611328 0.073469 -0.052280 -35858.900000 0 0 1
-2.292625 16.758574 -30.830370 35.165575 -1.434837 2.639797 0.071702 -0.059696 -20604.300000 0 0 1
-1.463425 17.862574 -31.566530 36.299573 -1.489052 2.625211 0.078843 -0.032449 142134.000000 0 0 1
-0.144925 17.917074 -31.022820 35.825381 -1.562708 2.617834 0.087791 -0.040292 453687.000000 0 0 1
0.645475 18.849674 -31.800670 36.973091 1.536566 2.606268 0.093990 -0.015316 241913.000000 0 0 1
0.568775 20.360974 -31.311800 37.354004 1.542869 2.564853 0.077528 -0.022303 -343003.000000 0 0 1
1.243375 20.674774 -30.143030 36.573139 1.510729 2.539558 0.089884 -0.035217 -465197.000000 0 0 1
0.956575 21.970374 -29.673770 36.934334 1.527284 2.503813 0.089215 -0.036066 -303681.000000 0 0 1
1.763575 22.354874 -28.468730 36.239746 1.492069 2.474407 0.093002 -0.039952 -1340680.000000 0 0 1
3.098775 22.543874 -28.725220 36.646513 1.434197 2.471632 0.074567 -0.032381 -1299530.000000 0 0 1
3.790075 22.927574 -27.542300 36.036323 1.406971 2.440740 0.090140 -0.037030 152599.000000 0 0 1
4.131675 24.451174 -27.508960 37.036111 1.403401 2.407980 0.079323 -0.032807 -256567.000000 0 0 1
5.153575 24.840874 -28.395290 38.077826 1.366235 2.412407 0.074331 -0.034055 185725.000000 0 0 1
5.587275 26.175974 -28.241730 38.910083 1.360502 2.383023 0.082422 -0.039457 366587.000000 0 0 1
6.706075 26.686074 -29.213210 40.131405 1.324599 2.386107 0.103233 -0.039299 786715.000000 0 0 1
8.045375 26.246474 -28.992760 39.927254 1.273358 2.383487 0.110786 -0.037388 945370.000000 0 0 1
8.877975 26.953674 -29.964470 41.269704 1.252609 2.383378 0.109732 -0.038304 -89847.000000 0 0 1
10.378975 26.855274 -29.729190 41.385428 1.202001 2.372223 0.101666 -0.040150 -234829.000000 0 0 1
11.139075 27.845674 -30.420540 42.718495 1.190265 2.363304 0.094542 -0.037047 1029210.000000 0 0 1
12.450075 28.064074 -29.849290 42.820284 1.153252 2.342117 0.091781 -0.037687 1477810.000000 0 0 1
13.397075 28.988974 -30.672450 44.279131 1.137890 2.336032 0.092073 -0.040403 117768.000000 0 0 1
12.961675 30.306774 -30.446570 44.872031 1.166656 2.316542 0.104605 -0.040483 106779.000000 0 0 1
13.796575 31.247974 -31.047520 46.159830 1.155018 2.308525 0.139354 -0.047710 -164669.000000 0 0 1
13.249975 32.680774 -30.884400 46.876871 1.185612 2.290073 0.154094 -0.053270 -551763.000000 0 0 1
12.305775 32.957874 -31.846490 47.453688 1.213448 2.306497 0.132276 -0.051204 -473924.000000 0 0 1
11.761075 -33.984107 -31.661800 47.913589 -1.237622 2.292694 0.124268 -0.046775 -147256.000000 0 0 1
10.405975 -33.766507 -32.371700 47.920645 -1.271857 2.312476 0.085511 -0.037056 -35972.400000 0 0 1
10.503075 -33.378507 -33.713640 48.590625 -1.265940 2.337590 0.086586 -0.020071 577813.000000 0 0 1
9.199075 -33.299307 33.860311 48.373417 -1.301264 0.795430 0.085217 -0.025393 563105.000000 0 0 1
9.120875 -32.646607 32.482794 46.948091 -1.298361 0.806696 0.085189 -0.020259 -70508.000000 0 0 1
8.986175 -31.238307 32.519521 45.979369 -1.290694 0.785177 0.068902 -0.027181 -190469.000000 0 0 1
9.486175 -30.621807 31.332355 44.826321 -1.270387 0.796837 0.093099 -0.027815 -525558.000000 0 0 1
8.963275 -29.199507 31.106035 43.595148 -1.272960 0.776286 0.077860 -0.037601 1071540.000000 0 0 1
7.535775 -29.103007 30.942345 43.141646 -1.317426 0.770982 0.057375 -0.030618 1214890.000000 0 0 1
6.706975 -29.185007 32.114165 43.909768 -1.344909 0.750472 0.056283 -0.014647 636332.000000 0 0 1
5.190075 -28.995207 31.765755 43.321151 -1.393674 0.747689 0.064331 -0.020862 912366.000000 0 0 1
4.376175 -30.054407 31.237975 43.568674 -1.426204 0.771332 0.069878 -0.028244 249356.000000 0 0 1
4.602875 -30.403607 29.886475 42.880848 -1.420545 0.799639 0.077294 -0.033506 -385945.000000 0 0 1
4.253675 -29.404407 28.727925 41.328036 -1.427132 0.802210 0.052174 -0.039710 -478172.000000 0 0 1
2.861375 -29.244707 28.696085 41.071957 -1.473264 0.797248 0.061366 -0.039909 -421982.000000 0 0 1
2.467475 -28.419007 27.624845 39.709702 -1.484189 0.801444 0.065945 -0.051376 569945.000000 0 0 1
0.929375 -28.639907 27.377405 39.631178 -1.538357 0.808195 0.061188 -0.048809 777902.000000 0 0 1
0.686675 -29.874307 26.738775 40.098726 -1.547815 0.840858 0.071890 -0.052959 40221.200000 0 0 1
0.486575 -30.959607 27.586555 41.469893 -1.555081 0.843009 0.089816 -0.055125 -1080910.000000 0 0 1
0.571875 -32.369907 26.959255 42.130029 -1.553131 0.876420 0.085169 -0.056000 1409720.000000 0 0 1
1.914175 -32.845707 26.632725 42.329736 -1.512584 0.890308 0.080117 -0.054270 1408060.000000 0 0 1
2.621275 -32.086107 25.690265 41.187122 -1.489282 0.897271 0.072080 -0.053553 54043.300000 0 0 1
4.165875 -32.379607 25.697915 41.547278 -1.442842 0.903936 0.091427 -0.047626 1040710.000000 0 0 1
4.927075 -31.560107 24.818565 40.450928 -1.415929 0.910251 0.101337 -0.053497 297557.000000 0 0 1
6.312275 -31.745607 25.030005 40.916128 -1.374517 0.912539 0.082529 -0.053075 181602.000000 0 0 1
7.266775 -31.465507 23.838265 40.139096 -1.343831 0.934909 0.085838 -0.050418 793970.000000 0 0 1
8.661375 -31.724807 24.096435 40.769118 -1.304276 0.938441 0.084332 -0.035600 673245.000000 0 0 1
9.395275 -31.594907 22.935865 40.156733 -1.281757 0.962880 0.077021 -0.032380 -346210.000000 0 0 1
10.321375 -30.354007 22.884865 39.390526 -1.243028 0.950872 0.068139 -0.031132 -301275.000000 0 0 1
11.520475 -30.603307 23.599135 40.326206 -1.210759 0.945662 0.066210 -0.029470 -175365.000000 0 0 1
12.350775 -29.461707 23.467245 39.638938 -1.173836 0.937227 0.061105 -0.022082 -173186.000000 0 0 1
13.747875 -29.572007 24.081195 40.539014 -1.135625 0.934743 0.098031 -0.027459 -400147.000000 0 0 1
13.684275 -29.788907 25.465535 41.510623 -1.140174 0.910349 0.082802 -0.028578 479460.000000 0 0 1
14.843875 -29.311807 26.161385 41.999294 -1.102032 0.898351 0.093466 -0.030254 141526.000000 0 0 1
-10.459525 -13.928026 26.176245 31.441809 0.926675 0.587137 0.082380 -0.027815 491389.000000 0 0 1
-9.043625 -13.876026 26.041465 30.862423 0.993196 0.566486 0.074502 -0.021354 370856.000000 0 0 1
-8.398825 -14.688826 27.040755 31.898343 1.051383 0.559131 0.083443 -0.028062 -430632.000000 0 0 1
-6.921625 -14.916526 26.752775 31.402589 1.136342 0.551138 0.078032 -0.014125 -718842.000000 0 0 1
-6.568125 -15.907326 25.772425 30.990340 1.179220 0.588764 0.084021 -0.010028 95369.900000 0 0 1
-6.676725 -15.408126 24.458255 29.668084 1.161896 0.601662 0.092460 -0.014324 -474668.000000 0 0 1
-6.146925 -16.374426 23.365435 29.186470 1.211677 0.642572 0.104952 -0.012142 369897.000000 0 0 1
-6.855625 -17.629426 23.098665 29.855394 1.199918 0.686160 0.105569 -0.015921 260227.000000 0 0 1
-7.086725 -18.499826 24.161005 31.244510 1.204970 0.686786 0.098738 -0.021745 -364472.000000 0 0 1
-7.798725 -19.858626 23.929095 32.059113 1.196588 0.728152 0.085323 -0.021912 -311115.000000 0 0 1
-9.160725 -19.662326 23.666195 32.103189 1.134797 0.741892 0.071179 -0.024891 -475151.000000 0 0 1
-9.878625 -20.856426 23.327005 32.813517 1.128451 0.780025 0.054667 -0.023972 -334892.000000 0 0 1
-11.373625 -20.646826 23.512855 33.294220 1.067289 0.786660 0.066407 -0.029459 -620469.000000 0 0 1
-11.807425 -20.566526 24.870805 34.365014 1.049632 0.761612 0.058501 -0.031536 -269241.000000 0 0 1
-13.193425 -20.397226 24.974745 34.840367 0.996657 0.771546 0.056836 -0.022339 -240627.000000 0 0 1
-13.733925 -20.391526 26.443855 36.106959 0.978070 0.748992 0.052851 -0.017226 -310834.000000 0 0 1
-13.537125 -21.616126 27.124165 37.232123 1.011298 0.754644 0.045948 -0.017840 270948.000000 0 0 1
-12.628025 -21.487926 28.220785 37.651171 1.039485 0.723440 0.044517 -0.024553 121075.000000 0 0 1
-12.267725 -22.843026 28.869255 38.803798 1.077954 0.731789 0.049590 -0.025880 -232897.000000 0 0 1
-13.282325 -23.519426 29.583335 40.059421 1.056708 0.739974 0.037060 -0.020662 -352556.000000 0 0 1
-12.932325 -24.803626 29.991365 41.011545 1.090185 0.750584 0.040351 -0.021855 -111276.000000 0 0 1
-13.927725 -25.340286 31.064735 42.439714 1.068239 0.749583 0.045707 -0.021985 248887.000000 0 0 1
-13.860325 -24.885726 32.387635 43.131970 1.062626 0.721378 0.069986 -0.024545 -470791.000000 0 0 1
-14.967925 -25.290626 33.143634 44.296219 1.036401 0.725410 0.061911 -0.024407 -354160.000000 0 0 1
-14.935825 -24.829026 -33.559400 44.337261 1.029240 2.429371 0.059111 -0.025546 72199.000000 0 0 1
-14.804825 -23.449926 -33.274580 43.316042 1.007652 2.446792 0.063311 -0.029140 -67816.000000 0 0 1
-15.861525 -22.651726 -33.770370 43.647755 0.959913 2.455461 0.055122 -0.027610 -264104.000000 0 0 1
-15.736825 -21.124826 -33.483920 42.603742 0.930539 2.475009 0.039994 -0.031262 -67882.000000 0 0 1
-16.056925 -20.887526 -32.121750 41.544198 0.915414 2.454660 0.055872 -0.032472 145498.000000 0 0 1
-16.289525 -19.530626 -31.874090 40.776851 0.875635 2.468137 0.058042 -0.033917 -359228.000000 0 0 1
-16.362125 -19.227126 -30.350280 39.478361 0.865727 2.447732 0.073713 -0.032483 440208.000000 0 0 1
-17.580425 -19.639126 -29.718330 39.723365 0.840654 2.416039 0.061691 -0.030622 504955.000000 0 0 1
-17.612525 -19.246526 -28.351200 38.528176 0.829700 2.397727 0.048178 -0.028908 -80852.800000 0 0 1
-16.823925 -20.129826 -27.383950 37.922751 0.874621 2.377627 0.044778 -0.021723 -698658.000000 0 0 1
-15.443725 -20.047826 -27.502560 37.373985 0.914402 2.397754 0.042034 -0.024946 -974123.000000 0 0 1
-14.781425 -21.181026 -27.024530 37.382504 0.961507 2.378814 0.028402 -0.018938 -334552.000000 0 0 1
-13.274725 -21.122726 -27.259410 36.952176 1.009715 2.400445 0.054998 -0.022070 -686493.000000 0 0 1
-12.579925 -20.130926 -26.519690 35.592171 1.012265 2.411480 0.050004 -0.025906 167354.000000 0 0 1
-11.168125 -20.172126 -26.592340 35.196508 1.065162 2.427273 0.049703 -0.028097 515486.000000 0 0 1
-10.468425 -21.273926 -25.731730 34.989852 1.113507 2.397061 0.067908 -0.034155 -555714.000000 0 0 1
-10.484125 -22.565226 -26.288370 36.196473 1.135856 2.383675 0.073807 -0.038722 14196.600000 0 0 1
-10.245625 -23.480426 -25.254170 35.973272 1.159354 2.349035 0.093737 -0.038138 34622.700000 0 0 1
-10.148825 -24.930126 -25.739740 37.243040 1.184192 2.333846 0.088285 -0.037402 545333.000000 0 0 1
-8.896725 -25.281486 -26.346960 37.582809 1.232424 2.347648 0.086616 -0.036573 505000.000000 0 0 1
-8.938525 -26.473146 -27.162260 38.968103 1.245170 2.342055 0.080254 -0.035761 -71069.800000 0 0 1
-9.046725 -27.837746 -26.474040 39.467178 1.256582 2.306065 0.090521 -0.033423 -1038640.000000 0 0 1
-10.231025 -28.010826 -25.812090 39.440388 1.220599 2.284262 0.083568 -0.036847 -748155.000000 0 0 1
-10.044525 -29.228406 -25.057450 39.787787 1.239784 2.252063 0.100866 -0.037300 136243.000000 0 0 1
-11.106225 -29.362506 -23.950400 39.485778 1.209184 2.222520 0.096036 -0.043104 -174726.000000 0 0 1
-10.819125 -28.476716 -22.903500 38.112296 1.207712 2.215483 0.091650 -0.039654 -5750.210000 0 0 1
-11.733625 -27.387606 -22.947000 37.607495 1.166025 2.227073 0.079532 -0.041467 35095.500000 0 0 1
-11.468925 -26.314716 -21.907500 36.110096 1.159783 2.222682 0.091113 -0.041489 -121014.000000 0 0 1
-11.969725 -26.574346 -20.613800 35.698724 1.147590 2.186383 0.070671 -0.035574 43785.100000 0 0 1
-11.906625 -25.489246 -19.746400 34.371350 1.133794 2.182792 0.066555 -0.028802 -343008.000000 0 0 1
-12.621325 -25.700006 -18.370200 34.018412 1.114292 2.141242 0.083429 -0.026485 -403130.000000 0 0 1
-14.008325 -25.744406 -18.508300 34.663594 1.072470 2.134051 0.099938 -0.032801 -564682.000000 0 0 1
-14.568725 -26.126006 -17.259600 34.535629 1.062112 2.094120 0.097220 -0.033389 661749.000000 0 0 1
-16.118625 -26.222026 -17.062600 35.192855 1.019640 2.076967 0.099196 -0.036588 -126798.000000 0 0 1
-16.780925 -24.972726 -17.119200 34.616520 0.979131 2.088100 0.082945 -0.032335 573465.000000 0 0 1
-18.148125 -25.039826 -16.708300 35.149887 0.943639 2.066152 0.093309 -0.032888 676877.000000 0 0 1
-19.211425 -25.792716 -17.547000 36.636597 0.930606 2.070251 0.091601 -0.029090 -1001060.000000 0 0 1
-19.108825 -27.203676 -17.841800 37.729524 0.958438 2.063361 0.082791 -0.029146 173282.000000 0 0 1
-19.556425 -28.039856 -16.737800 38.063647 0.961783 2.026096 0.078342 -0.034240 -452536.000000 0 0 1
-20.984525 -28.577656 -16.711300 39.195666 0.937420 2.011257 0.062131 -0.023090 -286806.000000 0 0 1
-21.341925 -29.468336 -17.776800 40.495372 0.943991 2.025263 0.053422 -0.027072 915147.000000 0 0 1
-22.645925 -30.032956 -17.496000 41.484049 0.924717 2.006174 0.048291 -0.020415 1147850.000000 0 0 1
-23.128825 -31.087866 -18.561600 42.964298 0.931158 2.017532 0.031399 -0.026821 -45540.900000 0 0 1
-22.322925 -32.253146 -18.587200 43.405787 0.965381 2.013318 0.020530 -0.029085 223003.000000 0 0 1
-22.706525 -33.095746 -19.709200 44.714284 0.969470 2.027265 0.026512 -0.012362 -92245.500000 0 0 1
-22.066725 33.742493 -19.822900 44.927091 -0.991632 2.027758 0.016213 -0.013690 -362416.000000 0 0 1
-22.802425 32.780353 -19.084800 44.257561 -0.963021 2.016642 0.026313 -0.013828 144436.000000 0 0 1
-22.031425 31.654175 -18.696400 42.859373 -0.962757 2.022197 0.019307 -0.018773 -5960.860000 0 0 1
-22.914025 30.436215 -18.258100 42.246585 -0.925471 2.017704 0.037152 -0.030652 288466.000000 0 0 1
-23.651025 30.633475 -17.071400 42.299095 -0.913323 1.986231 0.028120 -0.034187 -27472.600000 0 0 1
-24.314125 29.463145 -16.538900 41.626780 -0.880854 1.979384 0.031297 -0.025619 324348.000000 0 0 1
-23.438725 28.209155 -16.193900 40.092052 -0.877501 1.986592 0.037930 -0.031538 -28321.600000 0 0 1
-22.903025 27.585385 -17.358800 39.835034 -0.877875 2.021687 0.046821 -0.030186 -49849.200000 0 0 1
-22.581425 26.251385 -17.115200 38.626235 -0.860411 2.029848 0.047726 -0.030692 -346615.000000 0 0 1
-21.889425 25.671065 -18.351000 38.404553 -0.864743 2.068984 0.070861 -0.029339 -524885.000000 0 0 1
-21.416925 24.342415 -18.089400 37.127675 -0.849243 2.079702 0.079071 -0.033551 426632.000000 0 0 1
-20.668625 23.783445 -19.172800 36.884150 -0.855355 2.117426 0.077880 -0.029254 785130.000000 0 0 1
-19.160725 24.142075 -19.334100 36.383795 -0.899930 2.131041 0.068187 -0.025132 -334401.000000 0 0 1
-18.379825 23.823045 -18.231200 35.181417 -0.913668 2.115548 0.085420 -0.032585 371263.000000 0 0 1
-17.092425 24.439875 -18.333100 35.008014 -0.960496 2.121965 0.091136 -0.038231 382797.000000 0 0 1
-16.943425 25.729145 -17.477300 35.419268 -0.988448 2.086837 0.081360 -0.036430 -499966.000000 0 0 1
-17.721225 26.800825 -17.931600 36.794949 -0.986574 2.079836 0.068978 -0.033725 -262108.000000 0 0 1
-17.413225 28.073175 -17.330300 37.304998 -1.015598 2.053931 0.063267 -0.041621 -642044.000000 0 0 1
-18.472525 29.188025 -17.476400 38.711749 -1.006550 2.039185 0.059830 -0.032794 8459.290000 0 0 1
-18.795725 29.594295 -18.816900 39.789160 -1.004958 2.063393 0.037879 -0.028831 201695.000000 0 0 1
-19.518625 28.650295 -19.575400 39.812214 -0.972751 2.084830 0.037271 -0.019273 -622265.000000 0 0 1
-19.566725 29.144565 -20.994600 40.902758 -0.979546 2.109800 0.038665 -0.022296 -372939.000000 0 0 1
-20.436825 30.202035 -21.099900 42.131135 -0.975900 2.095336 0.034262 -0.020969 -442021.000000 0 0 1
-20.417025 30.597335 -22.422000 43.078973 -0.982368 2.118216 0.033246 -0.015523 -230677.000000 0 0 1
-21.183225 31.814615 -22.917900 44.566006 -0.983371 2.110925 0.032710 -0.020929 -340551.000000 0 0 1
-20.667425 33.151380 -22.683400 45.174031 -1.013330 2.096861 0.009248 -0.021516 -46663.000000 0 0 1
-20.867125 34.063864 -23.728500 46.463162 -1.021172 2.106789 0.027154 -0.017247 82137.400000 0 0 1
-19.721525 -33.105686 -23.689500 45.234029 1.033534 2.121996 0.045674 -0.017019 314159.000000 0 0 1
-19.853825 -32.162836 -22.664900 44.071760 1.017760 2.110956 0.045884 -0.020518 33859.100000 0 0 1
-19.310925 -32.589366 -21.437800 43.526519 1.035871 2.085782 0.042410 -0.028970 -500619.000000 0 0 1
-19.127625 -31.490986 -20.365000 42.098473 1.024953 2.075727 0.066466 -0.036027 -329011.000000 0 0 1
-18.003425 -30.691766 -20.609100 41.119859 1.040297 2.095776 0.079892 -0.036902 9756.860000 0 0 1
-17.744225 -29.780146 -19.500300 39.774066 1.033441 2.083204 0.081577 -0.036772 798610.000000 0 0 1
-16.387225 -28.996776 -19.729700 38.711952 1.056404 2.105579 0.089982 -0.038017 539417.000000 0 0 1
-15.266625 -29.814256 -19.815900 38.918242 1.097549 2.105013 0.097865 -0.041426 -994311.000000 0 0 1
-14.161925 -29.040716 -20.144800 38.075402 1.117071 2.128308 0.087760 -0.042540 -321479.000000 0 0 1
-12.800625 -29.801916 -20.379800 38.305958 1.165100 2.131789 0.116551 -0.047439 848533.000000 0 0 1
-12.154625 -30.287726 -19.213700 37.871460 1.189165 2.102891 0.112561 -0.039869 285080.000000 0 0 1
-11.664225 -29.307936 -18.281500 36.458503 1.192025 2.096051 0.080821 -0.030895 -524987.000000 0 0 1
-10.801325 -29.918186 -17.177600 36.150192 1.224330 2.065957 0.084514 -0.011451 124771.000000 0 0 1
-11.620925 -30.655106 -16.259000 36.594214 1.208448 2.031195 0.106309 -0.023180 441452.000000 0 0 1
-11.839025 -32.043326 -16.661000 38.006922 1.216883 2.024578 0.122342 -0.022997 664725.000000 0 0 1
-12.863025 -32.793356 -15.680600 38.558304 1.196993 1.989605 0.126476 -0.024100 876669.000000 0 0 1
-12.269125 -33.020366 -14.404500 38.057399 1.215043 1.958965 0.121984 -0.023656 402125.000000 0 0 1
-13.253325 -33.360556 -13.410300 38.319883 1.192641 1.928321 0.130974 -0.021171 338111.000000 0 0 1
-12.775125 -33.912236 -12.019900 38.180120 1.210526 1.891064 0.112238 -0.017269 -66746.400000 0 0 1
-12.065825 -32.921296 -11.296000 36.837419 1.219494 1.882462 0.101474 -0.004786 92214.400000 0 0 1
-11.759725 -33.469556 -10.039700 36.868657 1.232914 1.846589 0.102257 -0.004028 -21132.500000 0 0 1
-10.563625 -32.760086 -9.334900 35.664461 1.258869 1.835623 0.081782 -0.008956 74080.000000 0 0 1
-9.333825 -33.299706 -9.734800 35.927107 1.297512 1.845186 0.050073 -0.003767 -926370.000000 0 0 1
-8.272725 -32.455116 -9.363700 34.777168 1.321214 1.843409 0.036056 -0.008955 1433620.000000 0 0 1
-6.859725 -33.054276 -9.849600 35.166114 1.366172 1.854682 0.045843 -0.016917 1326380.000000 0 0 1
-6.439325 34.029357 -9.090500 35.806413 -1.383779 1.827485 0.033826 -0.006679 227347.000000 0 0 1
-5.415725 33.451531 -9.924300 35.310434 -1.410291 1.855693 0.038056 -0.009619 -207590.000000 0 0 1
-4.581725 32.452757 -9.219400 34.046600 -1.430542 1.845008 0.042569 -0.017641 -398144.000000 0 0 1
-3.910425 33.008490 -8.071200 34.205206 -1.452879 1.809007 0.062883 -0.020953 -88696.600000 0 0 1
-3.201025 32.027745 -7.358800 33.017797 -1.471182 1.795558 0.052019 -0.026093 219083.000000 0 0 1
-2.874325 32.550855 -5.933600 33.211858 -1.482722 1.750420 0.062837 -0.023491 -235538.000000 0 0 1
-2.065225 33.692340 -5.919500 34.270679 -1.509576 1.744395 0.060864 -0.018998 -220279.000000 0 0 1
-1.530025 -34.075046 -4.699500 34.431599 1.525925 1.707712 0.063769 -0.022693 537154.000000 0 0 1
-0.449825 33.267749 -3.988100 33.508960 -1.557276 1.690095 0.067172 -0.023005 -265409.000000 0 0 1
0.811375 33.293875 -4.613000 33.621722 1.546431 1.708433 0.067407 -0.019639 -405759.000000 0 0 1
1.744575 32.553520 -3.868900 32.829006 1.517257 1.688921 0.057276 -0.018237 250337.000000 0 0 1
3.196575 32.490222 -4.392700 32.941288 1.472726 1.704544 0.057107 -0.009715 452639.000000 0 0 1
3.937675 33.643854 -4.031700 34.112590 1.454286 1.689261 0.052766 -0.005152 711940.000000 0 0 1
5.358675 33.537483 -4.230700 34.225385 1.412354 1.694726 0.055867 -0.002671 1028370.000000 0 0 1
6.128475 -33.461606 -3.732200 34.222311 -1.389654 1.680071 0.061075 -0.007554 -145133.000000 0 0 1
5.926375 -32.236006 -4.429500 33.074196 -1.388983 1.705126 0.060539 -0.010527 98434.800000 0 0 1
6.600875 -31.119506 -3.822700 32.040728 -1.361781 1.690389 0.051847 -0.015137 97808.800000 0 0 1
6.438075 -29.766406 -4.629500 30.804545 -1.357791 1.721654 0.055673 -0.014479 699027.000000 0 0 1
7.214475 -29.794166 -5.903000 31.218366 -1.333225 1.761029 0.065878 -0.015052 626848.000000 0 0 1
7.138275 -28.567466 -6.649100 30.187176 -1.325936 1.792880 0.051775 -0.012746 106083.000000 0 0 1
7.555975 -27.180066 -6.064500 28.855275 -1.299646 1.782545 0.059319 -0.014315 95200.600000 0 0 1
6.635875 -26.570246 -5.190200 27.873840 -1.326055 1.758093 0.059348 -0.012879 -687570.000000 0 0 1
7.230475 -25.591716 -4.390800 26.953568 -1.295441 1.734428 0.056477 -0.017905 68972.300000 0 0 1
6.356175 -24.934026 -3.298000 25.941924 -1.321193 1.698271 0.049110 -0.021027 332038.000000 0 0 1
5.121275 -24.383126 -3.697600 25.188024 -1.363772 1.718129 0.058431 -0.027675 -142152.000000 0 0 1
4.432175 -23.628926 -2.719000 24.194282 -1.385377 1.683416 0.062982 -0.033503 383013.000000 0 1 0
3.183675 -22.932426 -3.346200 23.392926 -1.432849 1.714332 0.061300 -0.032103 990201.000000 0 1 0
2.188075 -23.900026 -3.763700 24.293298 -1.479500 1.726350 0.063638 -0.026723 -21176.000000 0 1 0
0.976275 -23.288126 -4.111800 23.668477 -1.528899 1.745407 0.065378 -0.024933 145518.000000 0 1 0
-15.311125 23.045974 18.021065 33.019786 -0.984383 0.993494 0.015871 -0.014317 -78119.300000 0 0 1
-15.509125 22.656274 19.380265 33.607058 -0.970522 0.956147 0.015985 -0.011611 245081.000000 0 0 1
-15.089525 23.578474 20.379765 34.626190 -1.001504 0.941514 0.024448 -0.020070 -841481.000000 0 0 1
-15.110325 22.976874 21.791865 35.087662 -0.989075 0.900690 0.031914 -0.023105 57133.600000 0 0 1
-14.067225 22.079374 22.161165 34.300187 -1.003528 0.868340 0.036365 -0.020775 322356.000000 0 0 1
-12.762325 22.583374 22.335365 34.230896 -1.056419 0.859929 0.028219 -0.025465 -210514.000000 0 0 1
-12.449925 23.613774 23.520105 35.578171 -1.085602 0.848536 0.029508 -0.022535 -475478.000000 0 0 1
-12.477525 23.000474 24.814065 36.061728 -1.073737 0.811929 0.022947 -0.018489 -63644.400000 0 0 1
-12.153925 23.919374 25.794725 37.218573 -1.100673 0.805070 0.036564 -0.019759 -204741.000000 0 0 1
-11.647725 23.143474 27.045505 37.453294 -1.104526 0.763945 0.039694 -0.016309 -100655.000000 0 0 1
-10.260225 22.905374 27.032695 36.887599 -1.149657 0.748310 0.020544 -0.016119 -584802.000000 0 0 1
-9.884325 22.112574 28.104475 37.101581 -1.150440 0.711320 0.014863 -0.015528 -143583.000000 0 0 1
-8.329125 21.977774 28.230465 36.733582 -1.208541 0.694273 0.009991 -0.016626 989101.000000 0 0 1
-7.617425 23.096974 28.761075 37.665565 -1.252227 0.701940 0.009706 -0.015894 57759.800000 0 0 1
-7.554225 24.106374 27.744465 37.522512 -1.267119 0.738605 0.011826 -0.013540 -609344.000000 0 0 1
-6.486525 25.255674 28.012495 38.270406 -1.319396 0.749599 0.015768 -0.015642 -95053.400000 0 0 1
-5.216525 24.685874 28.047325 37.726078 -1.362544 0.732587 0.024175 -0.017989 -964415.000000 0 0 1
-4.273925 25.721574 28.343155 38.512339 -1.406140 0.743728 0.030252 -0.015841 -286760.000000 0 0 1
-2.855325 25.177374 28.263875 37.959184 -1.457870 0.730882 0.026687 -0.017613 -647441.000000 0 0 1
-2.295325 25.071174 26.936385 36.870057 -1.479499 0.751631 0.021771 -0.023625 -581372.000000 0 0 1
-0.937525 24.759574 27.046615 36.680170 -1.532949 0.741638 0.043128 -0.012819 -22942.500000 0 0 1
-0.232625 24.629074 25.653135 35.563025 -1.561351 0.765057 0.036966 -0.019266 152531.000000 0 0 1
-0.595225 23.440974 25.020085 34.290497 -1.545409 0.752985 0.030864 -0.013370 131448.000000 0 0 1
0.122775 23.436274 23.798615 33.401319 1.565558 0.777734 0.022818 -0.005788 37591.200000 0 0 1
-0.140025 22.148374 22.982465 31.918079 -1.564474 0.766929 0.004641 -0.005776 -145092.000000 0 0 1
0.431575 20.970274 23.424755 31.442929 1.550219 0.730272 0.026909 -0.005609 -256821.000000 0 0 1
0.053775 19.850374 22.666865 30.130168 1.568087 0.719253 0.021400 -0.004105 -111980.000000 0 0 1
0.911575 18.583974 22.964165 29.555844 1.521784 0.680949 0.028752 0.000994 921627.000000 0 0 1
2.164875 18.617974 22.243165 29.087352 1.455037 0.700217 0.022511 -0.002210 41263.900000 0 0 1
2.899575 17.478074 22.441465 28.592131 1.406396 0.668290 0.017363 -0.003385 -1707580.000000 0 0 1
4.214375 17.605674 21.753865 28.301084 1.335841 0.694055 0.016510 -0.002082 -1403350.000000 0 0 1
5.099375 18.378274 22.519465 29.510861 1.300137 0.702714 0.010956 0.001809 -903047.000000 0 0 1
6.205175 18.765174 21.757265 29.394124 1.251440 0.737442 0.031773 -0.011265 -113758.000000 0 0 1
7.385975 19.377174 22.576965 30.655291 1.206628 0.742946 0.039581 -0.018522 -105171.000000 0 0 1
7.247575 20.591074 23.261865 31.900377 1.232362 0.753639 0.024358 -0.006404 -80149.700000 0 0 1
6.801575 21.672274 22.445965 31.933842 1.266693 0.791345 0.045644 -0.016542 -559983.000000 0 0 1
5.713675 22.518074 23.129465 32.782341 1.322303 0.787602 0.027821 -0.006851 -80021.700000 0 0 1
5.407075 23.741874 22.466765 33.131082 1.346871 0.825598 0.026049 -0.012591 302658.000000 0 0 1
4.232875 24.286874 23.050065 33.750185 1.398243 0.818987 0.006974 -0.006879 -287797.000000 0 0 1
3.916275 25.708474 22.501465 34.388643 1.419624 0.857502 0.015410 -0.006525 133242.000000 0 0 1
3.438575 25.858974 21.154565 33.586098 1.438598 0.889422 0.017228 -0.012610 -286876.000000 0 0 1
2.250375 25.179474 20.862865 32.776962 1.481660 0.880832 0.004229 -0.012826 -1001250.000000 0 0 1
1.913175 25.664074 19.437365 32.250831 1.496387 0.923924 0.007189 -0.014566 -995894.000000 0 0 1
1.297675 26.921874 19.362465 33.186990 1.522632 0.947844 0.010230 -0.020552 166691.000000 0 0 1
1.044675 27.310174 18.036765 32.745410 1.532563 0.987452 0.017505 -0.020310 -361167.000000 0 0 1
0.036975 28.427474 17.859265 33.571953 1.569496 1.009871 0.003263 -0.003490 -253094.000000 0 0 1
0.556175 29.617774 18.356065 34.849204 1.552020 1.016049 0.013147 -0.003485 289281.000000 0 0 1
-0.507025 30.544774 18.447065 35.686615 -1.554198 1.027549 -0.002335 0.000874 25132.500000 0 0 1
-0.158425 31.779374 19.137565 37.097171 -1.565811 1.028766 0.000190 0.003385 -324195.000000 0 0 1
0.131075 31.607874 20.518265 37.683870 1.566649 0.995023 0.003652 -0.004901 -104300.000000 0 0 1
0.783775 32.798674 20.929265 38.915311 1.546904 1.002952 0.018903 -0.012351 690.607000 0 0 1
1.288275 32.750374 22.374265 39.684435 1.531480 0.971811 0.032894 -0.031182 -232595.000000 0 0 1
0.224875 32.524474 23.241005 39.975446 1.563882 0.950370 0.026793 -0.021074 55985.300000 0 0 1
0.730175 32.705274 24.559685 40.906555 1.548474 0.926814 0.042718 -0.026708 -90569.900000 0 0 1
-0.241525 32.180374 25.651815 41.153984 -1.563291 0.897824 0.048927 -0.023667 -452104.000000 0 0 1
-1.467725 32.873974 25.610405 41.698264 -1.526179 0.909445 0.045120 -0.026651 -355771.000000 0 0 1
-2.366625 32.576874 26.621165 42.137158 -1.498276 0.886957 0.049192 -0.028154 -280738.000000 0 0 1
-1.952625 33.050074 28.083785 43.414504 -1.511784 0.867316 0.073990 -0.032936 -446669.000000 0 0 1
-0.803525 32.458074 28.649705 43.301014 -1.546046 0.847792 0.072970 -0.031871 223747.000000 0 0 1
-0.284525 33.037574 29.821185 44.506913 -1.562184 0.836541 0.059905 -0.032231 -835990.000000 0 0 1
1.006275 32.451874 30.364635 44.453884 1.539798 0.818853 0.049601 -0.019983 -12205.700000 0 0 1
2.251675 32.642174 29.712245 44.197274 1.501925 0.833533 0.046459 -0.028722 458476.000000 0 0 1
2.350675 32.051474 28.417635 42.899704 1.497587 0.846751 0.053572 -0.029454 -453800.000000 0 0 1
3.797375 31.674974 27.973775 42.429425 1.451480 0.850907 0.049270 -0.024936 551718.000000 0 0 1
4.442175 30.638974 28.742365 42.244564 1.426815 0.822515 0.051842 -0.027400 -725652.000000 0 0 1
5.804275 30.682374 28.463975 42.252758 1.383833 0.831647 0.060319 -0.036326 -979336.000000 0 0 1
6.402875 29.487074 29.135005 41.944402 1.356974 0.802919 0.059877 -0.021935 -375239.000000 0 0 1
6.611375 29.639974 30.510375 43.047896 1.351333 0.783066 0.062325 -0.031764 -7722.660000 0 0 1
7.276775 28.520574 31.042585 42.778694 1.320985 0.758810 0.053178 -0.028544 -72482.700000 0 0 1
7.133175 28.512274 32.561151 43.864114 1.325649 0.734272 0.075935 -0.037097 519888.000000 0 0 1
5.810675 28.366374 33.106553 43.982485 1.368748 0.718610 0.064564 -0.040664 230521.000000 0 0 1
5.759075 28.261274 -33.635920 44.308483 1.369769 2.432773 0.081704 -0.037947 -195058.000000 0 0 1
5.956275 26.797574 -33.095970 42.999191 1.352083 2.449149 0.075242 -0.036772 -395226.000000 0 0 1
7.289875 26.400774 -33.245760 43.074630 1.301386 2.452491 0.070224 -0.036488 -409895.000000 0 0 1
7.443975 25.052474 -32.782620 41.925403 1.281970 2.468548 0.077786 -0.036628 -379463.000000 0 0 1
8.854475 24.532174 -33.048010 42.099884 1.224415 2.473477 0.086102 -0.028972 -684277.000000 0 0 1
9.224775 24.465074 33.800662 42.733138 1.210222 0.658402 0.049559 -0.012512 766808.000000 0 0 1
10.461675 23.730074 33.603972 42.447497 1.155568 0.657276 0.063695 -0.029617 621102.000000 0 0 1
10.626675 22.230974 33.730782 41.772097 1.124893 0.630902 0.056968 -0.023435 -1082250.000000 0 0 1
9.960175 21.556574 32.707849 40.418985 1.137968 0.627973 0.033681 -0.013455 100276.000000 0 0 1
9.749175 20.202674 33.129104 40.009149 1.121191 0.595197 0.026828 -0.013544 173190.000000 0 0 1
8.413175 20.023874 33.906353 40.266336 1.173035 0.569720 0.054772 -0.026559 -352433.000000 0 0 1
8.407975 20.405374 -32.888310 39.606998 1.179948 2.550561 0.071271 -0.023949 -28716.200000 0 0 1
7.146475 20.841174 -32.428340 39.204896 1.240459 2.544814 0.078761 -0.031088 -107269.000000 0 0 1
7.095575 21.166874 -30.892540 38.114732 1.247348 2.515826 0.097909 -0.040777 -184044.000000 0 0 1
7.897475 22.253574 -30.535620 38.600722 1.229776 2.483342 0.107682 -0.034657 1786.760000 0 0 1
7.731375 22.603774 -29.165290 37.700383 1.241231 2.455311 0.092093 -0.026257 648774.000000 0 0 1
9.118875 22.884674 -28.493870 37.666468 1.191609 2.428708 0.100507 -0.037344 829247.000000 0 0 1
9.991275 21.781774 -28.445940 37.194660 1.140732 2.441505 0.099816 -0.034217 245320.000000 0 0 1
11.368375 22.123074 -28.567950 37.878729 1.096115 2.425224 0.107978 -0.037412 577037.000000 0 0 1
12.301775 20.923474 -28.797660 37.662059 1.039291 2.441268 0.098159 -0.049944 -149189.000000 0 0 1
12.187775 20.122074 -29.975090 38.104406 1.026202 2.476171 0.073581 -0.043961 -820744.000000 0 0 1
10.951175 19.518774 -30.100090 37.509015 1.059503 2.502230 0.087423 -0.036856 -893861.000000 0 0 1
10.715675 18.546874 -31.267280 37.900594 1.046889 2.540965 0.069360 -0.033149 -382049.000000 0 0 1
11.310675 17.279474 -30.976810 37.230020 0.991213 2.553569 0.080154 -0.037253 361494.000000 0 0 1
11.287075 16.383174 -32.069330 37.739215 0.967530 2.586329 0.059111 -0.026521 -433429.000000 0 0 1
12.455275 16.560974 -33.044550 39.004385 0.925962 2.581491 0.053813 -0.011300 -577546.000000 0 0 1
12.454775 17.809874 -33.719130 40.115991 0.960528 2.569077 0.056735 -0.008424 -45744.300000 0 0 1
13.109375 17.933974 33.180031 39.929908 0.939580 0.589971 0.063756 -0.013287 -459564.000000 0 0 1
12.261475 17.646574 31.958115 38.510602 0.963545 0.591953 0.082055 -0.024838 -999844.000000 0 0 1
12.641275 18.409474 30.822425 38.062218 0.969071 0.627001 0.072551 -0.013211 119416.000000 0 0 1
11.981275 18.029674 29.630345 36.695742 0.984274 0.630963 0.059714 -0.017675 885366.000000 0 0 1
10.416175 18.060974 29.504835 36.127978 1.047668 0.615170 0.027305 -0.011826 1002350.000000 0 0 1
9.691375 17.131874 30.352595 36.176013 1.055985 0.575307 0.038067 -0.014017 -868042.000000 0 0 1
8.338875 17.385874 30.393795 35.994281 1.123573 0.565341 0.031029 -0.011073 -761501.000000 0 0 1
7.581375 16.402674 31.309905 36.150175 1.137840 0.523436 0.031613 -0.010824 -43665.700000 0 0 1
7.992675 16.680674 32.641882 37.518265 1.123961 0.515540 0.047768 -0.012710 327128.000000 0 0 1
7.747975 15.516274 33.407568 37.641088 1.107673 0.478842 0.077908 -0.024330 -270102.000000 0 0 1
7.674175 15.707074 -33.198840 37.520236 1.116326 2.656914 0.088617 -0.035844 -589083.000000 0 0 1
6.656575 16.559574 -32.765550 37.311000 1.188586 2.642828 0.083229 -0.038008 -192606.000000 0 0 1
6.779375 16.832874 -31.406780 36.272461 1.187925 2.617658 0.094689 -0.047177 -409129.000000 0 0 1
5.509375 17.525274 -30.886070 35.936580 1.266211 2.605010 0.091259 -0.046156 -1048620.000000 0 0 1
5.491775 17.668174 -29.450360 34.779990 1.269435 2.580664 0.091742 -0.059578 -27956.000000 0 0 1
4.739375 18.763674 -28.963300 34.834033 1.323389 2.552537 0.091438 -0.057634 9124.160000 0 0 1
3.218175 18.523074 -29.035580 34.590834 1.398775 2.566976 0.096687 -0.058157 -1408410.000000 0 0 1
2.753575 17.720174 -27.973080 33.227698 1.416637 2.571517 0.109930 -0.054566 162464.000000 0 0 1
1.379675 17.366174 -28.038440 33.009720 1.491517 2.585643 0.105458 -0.053999 60733.700000 0 0 1
0.375175 18.435874 -27.686510 33.265072 1.550449 2.554040 0.098809 -0.053402 -1113800.000000 0 0 1
0.201675 18.667574 -26.322780 32.270850 1.559993 2.524705 0.112700 -0.056203 12187.200000 0 0 1
-0.604825 19.845674 -26.259010 32.920392 -1.540329 2.494188 0.117173 -0.049615 -88961.400000 0 0 1
-1.049725 20.173574 -24.831600 32.010676 -1.518809 2.458665 0.106868 -0.044657 5304.500000 0 0 1
-2.104925 19.422074 -24.262700 31.150061 -1.462840 2.463702 0.112539 -0.045938 -96930.300000 0 0 1
-2.442025 19.913474 -22.976700 30.503093 -1.448774 2.423798 0.123609 -0.041679 71455.500000 0 0 1
-3.549425 19.067474 -22.280900 29.539896 -1.386752 2.425330 0.107635 -0.039565 -187155.000000 0 0 1
-4.823725 19.459674 -22.722300 30.302643 -1.327811 2.418625 0.095830 -0.033018 -409761.000000 0 0 1
-5.722925 18.484574 -22.187200 29.439823 -1.270551 2.424388 0.089391 -0.040152 431027.000000 0 0 1
-7.253725 18.779274 -22.231600 29.992027 -1.202189 2.405728 0.095822 -0.030457 574607.000000 0 0 1
-7.655025 19.651574 -21.227500 29.923077 -1.199342 2.359446 0.062837 -0.016055 -116597.000000 0 0 1
-7.560525 20.981074 -21.622800 31.063040 -1.224931 2.340739 0.073013 -0.020891 -391707.000000 0 0 1
-8.058225 21.925674 -20.498000 31.077937 -1.218595 2.291040 0.068605 -0.028758 238060.000000 0 0 1
-7.279625 22.070474 -19.291500 30.203654 -1.252197 2.263622 0.081851 -0.031410 350765.000000 0 0 1
-7.727825 23.224574 -18.541500 30.706471 -1.249577 2.219094 0.087864 -0.035672 -246886.000000 0 0 1
-6.963425 23.367474 -17.240700 29.862516 -1.281179 2.186258 0.100202 -0.035461 224926.000000 0 0 1
-5.591425 23.621874 -17.533500 29.944625 -1.338369 2.196331 0.096373 -0.034799 -108412.000000 0 0 1
-4.852525 23.453974 -16.334100 28.990321 -1.366779 2.169331 0.100682 -0.039822 12371.700000 0 0 1
-3.357125 23.799174 -16.458500 29.129936 -1.430660 2.171233 0.103171 -0.038778 -80458.600000 0 0 1
-3.129225 25.163574 -16.461100 30.231859 -1.447076 2.146583 0.080139 -0.042504 1279680.000000 0 0 1
-1.781325 25.338874 -17.008000 30.569654 -1.500612 2.160806 0.083386 -0.048175 1664560.000000 0 0 1
-1.365325 26.831574 -17.017600 31.802456 -1.519955 2.135426 0.078876 -0.065482 53400.500000 0 0 1
-2.177825 27.507674 -17.938600 32.912132 -1.491790 2.147239 0.083015 -0.065929 36901.600000 0 0 1
-1.557125 28.710974 -18.375900 34.123575 -1.516615 2.139465 0.085196 -0.060872 -743199.000000 0 0 1
-2.378425 29.506974 -19.424800 35.406797 -1.490365 2.151506 0.115632 -0.057363 504166.000000 0 0 1
-3.466825 30.328874 -19.012100 35.962750 -1.456983 2.127819 0.089737 -0.045298 1011860.000000 0 0 1
-4.558825 29.567074 -18.439100 35.142498 -1.417815 2.123153 0.059462 -0.050142 395976.000000 0 0 1
-5.564125 30.346574 -17.487700 35.463977 -1.389458 2.086459 0.086025 -0.033914 1044970.000000 0 0 1
-6.305325 31.384474 -18.148100 36.798042 -1.372530 2.086539 0.109145 -0.035906 482095.000000 0 0 1
-6.095325 32.562774 -17.409900 37.424482 -1.385751 2.054658 0.099569 -0.052939 -223908.000000 0 0 1
-6.857925 33.724774 -18.018700 38.846687 -1.370182 2.053123 0.093763 -0.028525 527787.000000 0 0 1
-8.277925 33.773274 -17.848600 39.086194 -1.330432 2.045019 0.107752 -0.047855 812627.000000 0 0 1
-8.734025 -33.153507 -18.143700 38.789587 1.313207 2.057536 0.141244 -0.045932 -253513.000000 0 0 1
29.662475 -20.448826 -26.270070 44.588491 -0.603565 2.200824 0.068911 -0.010191 193032.000000 0 0 1
29.116975 -21.651426 -25.765320 44.502070 -0.639393 2.188260 0.075975 -0.018631 138398.000000 0 0 1
27.738275 -21.803726 -26.073610 43.870805 -0.666178 2.207225 0.058828 -0.019474 324803.000000 0 0 1
27.149175 -23.117126 -25.517300 43.847598 -0.705356 2.191926 0.063498 -0.015162 149633.000000 0 0 1
27.638575 -24.380726 -26.054840 45.134968 -0.722852 2.186172 0.071545 -0.002739 -646697.000000 0 0 1
28.900775 -24.752026 -25.618430 45.871795 -0.708226 2.163347 0.072985 -0.000815 -605364.000000 0 0 1
29.246875 -26.183826 -26.172390 47.180149 -0.730195 2.158838 0.074916 -0.010269 -119794.000000 0 0 1
28.490775 -27.220686 -25.589580 46.984217 -0.762604 2.146759 0.071545 -0.012413 -299212.000000 0 0 1
28.464375 -28.568766 -26.133250 48.055612 -0.787229 2.145770 0.053427 -0.006386 105224.000000 0 0 1
27.570575 -28.843986 -27.394640 48.400191 -0.807967 2.172445 0.073891 -0.009700 -519604.000000 0 0 1
27.868975 -28.051766 -28.572200 48.784751 -0.788667 2.196514 0.043629 -0.005523 257702.000000 0 0 1
29.019075 -28.316146 -29.360030 50.059187 -0.773139 2.197535 0.029641 -0.007465 -271287.000000 0 0 1
29.220675 -29.771966 -29.910970 51.331121 -0.794743 2.192851 0.033565 -0.004343 -830216.000000 0 0 1
29.730375 -30.748866 -28.935350 51.639543 -0.802237 2.165584 0.038589 -0.003463 742713.000000 0 0 1
31.057575 -30.572786 -28.439260 52.039021 -0.777532 2.148974 0.043694 -0.003949 1174230.000000 0 0 1
32.273275 -30.607336 -29.455550 53.347940 -0.758911 2.155726 0.039698 -0.007942 162813.000000 0 0 1
32.258375 -29.443946 -30.259550 53.133691 -0.739817 2.176692 0.049180 -0.016612 -535962.000000 0 0 1
33.506675 -29.195736 -30.840230 54.094437 -0.716754 2.177446 0.053180 -0.016166 -313534.000000 0 0 1
33.576675 -27.718586 -31.500170 53.739872 -0.690116 2.197108 0.052936 -0.006080 117567.000000 0 0 1
33.578475 -26.611876 -30.620890 52.662556 -0.670168 2.191312 0.052216 -0.004336 1316720.000000 0 0 1
32.241975 -26.344266 -30.111410 51.383483 -0.685069 2.196926 0.056858 -0.004240 1123310.000000 0 0 1
32.294275 -24.946126 -29.553980 50.385188 -0.657723 2.197602 0.060836 -0.007999 -132431.000000 0 0 1
33.250275 -24.735726 -28.544410 50.321171 -0.639602 2.173952 0.058366 -0.004301 70101.400000 0 0 1
32.957375 -23.587726 -27.800490 49.147092 -0.621188 2.172028 0.049262 -0.004024 -185227.000000 0 0 1
33.903475 -23.326826 -26.631690 49.018704 -0.602652 2.145155 0.051239 -0.003426 -383513.000000 0 0 1
33.563175 -24.117726 -25.493070 48.559737 -0.623085 2.123492 0.053648 -0.014103 223238.000000 0 0 1
32.661175 -23.611126 -24.526500 47.178245 -0.625938 2.117494 0.070511 -0.007525 -93070.800000 0 0 1
32.954775 -22.294526 -23.731000 46.327351 -0.594792 2.108594 0.054940 -0.005026 -291568.000000 0 0 1
33.134475 -21.160626 -24.520700 46.334979 -0.568340 2.128460 0.052511 -0.014523 138938.000000 0 0 1
33.247475 -20.047426 -23.616400 45.442582 -0.542605 2.117293 0.023328 -0.020474 -26260.300000 0 0 1
33.411075 -18.680126 -24.272300 45.325397 -0.509803 2.135910 0.013707 -0.020494 345425.000000 0 0 1
32.191075 -18.244926 -24.863600 44.579606 -0.515627 2.162451 0.026203 -0.021706 285856.000000 0 0 1
32.334275 -17.026226 -25.619230 44.628944 -0.484676 2.182239 0.025061 -0.025769 -341472.000000 0 0 1
31.508975 -17.041326 -26.924670 44.812500 -0.495784 2.215335 0.022829 -0.015173 1375180.000000 0 0 1
30.148275 -16.634926 -26.549980 43.480348 -0.504201 2.227640 0.035606 -0.009027 1043050.000000 0 0 1
29.359075 -16.595526 -27.687650 43.634536 -0.514484 2.258203 0.033416 -0.010030 956184.000000 0 0 1
27.826175 -16.225226 -27.420450 42.301715 -0.527895 2.276029 0.020988 -0.002708 2003480.000000 0 0 1
27.014875 -17.252826 -26.813530 41.790296 -0.568349 2.267406 0.034863 0.002863 491644.000000 0 0 1
27.087975 -17.086626 -25.374280 40.860314 -0.562747 2.240815 0.025167 0.000288 -311502.000000 0 0 1
26.418175 -18.210526 -24.569400 40.412853 -0.603521 2.224285 0.035090 -0.004327 -231057.000000 0 0 1
26.369975 -17.913526 -23.198000 39.426098 -0.596708 2.199865 0.031058 0.005436 -87435.700000 0 0 1
25.778175 -18.948626 -22.401000 39.055980 -0.633874 2.181643 0.038936 -0.004534 -147881.000000 0 0 1
25.709375 -18.594226 -20.865300 37.974702 -0.626158 2.152505 0.036848 -0.009632 314671.000000 0 0 1
24.638375 -17.698326 -20.583000 36.659790 -0.622918 2.166945 0.026590 -0.007917 262628.000000 0 0 1
24.708875 -16.413526 -21.211200 36.467072 -0.586346 2.191556 0.026701 -0.008827 488356.000000 0 0 1
25.907575 -15.483526 -20.698800 36.597573 -0.538686 2.171931 0.015567 -0.003826 993733.000000 0 0 1
25.667775 -14.741826 -19.552700 35.474839 -0.521332 2.154563 0.012962 -0.008190 -364577.000000 0 0 1
26.800775 -13.980026 -19.294600 35.860902 -0.480800 2.138906 0.001785 -0.000001 -557441.000000 0 0 1
26.719475 -12.908426 -18.143400 34.781328 -0.450044 2.119571 0.011332 -0.001588 -527841.000000 0 0 1
26.978775 -13.362026 -16.834700 34.493553 -0.459864 2.080655 0.014113 0.001279 184599.000000 0 0 1
26.824975 -12.325326 -15.852600 33.508176 -0.430703 2.063598 0.008596 -0.001639 -43156.900000 0 0 1
27.469475 -12.751826 -14.528200 33.589429 -0.434615 2.018085 0.023909 -0.012529 -304409.000000 0 0 1
26.862175 -13.770926 -13.797200 33.190022 -0.473717 1.999512 0.042338 -0.019814 -173543.000000 0 0 1
27.535175 -13.960226 -12.597200 33.343114 -0.469229 1.958221 0.053483 -0.024933 -428924.000000 0 0 1
27.236775 -15.250826 -11.863400 33.394159 -0.510439 1.933982 0.059525 -0.033032 -480172.000000 0 0 1
25.917775 -15.384826 -11.423100 32.232145 -0.535701 1.933070 0.057362 -0.045921 -287849.000000 0 0 1
25.667675 -16.615526 -10.748600 32.410456 -0.574498 1.908838 0.050234 -0.031677 -930728.000000 0 0 1
24.207875 -16.641626 -10.372600 31.153744 -0.602251 1.910225 0.049992 -0.029494 -1091800.000000 0 0 1
23.889675 -15.857326 -9.257100 30.130803 -0.585997 1.883078 0.049727 -0.028534 672529.000000 0 0 1
22.466075 -15.788126 -9.154500 28.944677 -0.612572 1.892597 0.052163 -0.023095 305743.000000 0 0 1
22.035875 -15.517026 -7.730400 28.037778 -0.613520 1.850128 0.043540 -0.016292 -506985.000000 0 0 1
22.096275 -14.178826 -7.323000 27.256390 -0.570507 1.842809 0.056093 -0.011174 332718.000000 0 0 1
21.751075 -13.861526 -5.981700 26.477007 -0.567381 1.798684 0.054417 -0.006611 -338653.000000 0 0 1
22.649075 -14.427826 -4.852200 27.288947 -0.567193 1.749555 0.046251 -0.012531 -708714.000000 0 0 1
23.995475 -14.139726 -5.064700 28.308406 -0.532490 1.750676 0.056929 -0.017262 -274035.000000 0 0 1
24.792875 -14.894226 -4.139500 29.217462 -0.540968 1.712954 0.051937 -0.027611 305964.000000 0 0 1
26.320675 -14.899026 -4.419400 30.566158 -0.515088 1.715890 0.066103 -0.033006 172396.000000 0 0 1
26.851675 -13.608026 -4.091800 30.379823 -0.469061 1.705895 0.065659 -0.024607 323226.000000 0 0 1
28.257275 -13.613326 -4.312100 31.660551 -0.448952 1.707419 0.078904 -0.040609 426477.000000 0 0 1
28.969775 -12.370226 -3.655900 31.711764 -0.403567 1.686339 0.090112 -0.037956 -903338.000000 0 0 1
29.229475 -12.495626 -2.234700 31.866860 -0.403987 1.640980 0.093336 -0.044127 430915.000000 0 0 1
29.905875 -11.447626 -1.598600 32.061894 -0.365581 1.620677 0.095686 -0.044422 -509165.000000 0 0 1
31.353075 -11.177426 -1.995400 33.345642 -0.342455 1.630672 0.090559 -0.028402 -1087810.000000 0 0 1
31.390575 -10.610426 -3.295900 33.298834 -0.325956 1.669938 0.086000 -0.021626 -278057.000000 0 0 1
32.566675 -10.930626 -4.002100 34.584444 -0.323824 1.686776 0.108287 -0.024070 -239528.000000 0 0 1
32.407575 -10.677326 -5.524900 34.565601 -0.318270 1.731323 0.103787 -0.022287 106382.000000 0 0 1
31.579075 -11.656526 -6.163200 34.221304 -0.353607 1.751883 0.084220 -0.029874 250731.000000 0 0 1
31.263175 -11.333726 -7.497700 34.088928 -0.347790 1.792555 0.085902 -0.021575 519154.000000 0 0 1
29.934275 -12.089526 -7.865900 33.227848 -0.383837 1.809791 0.072837 -0.025658 585847.000000 0 0 1
29.993575 -13.469326 -7.613800 33.749182 -0.422083 1.798355 0.074297 -0.032702 821839.000000 0 0 1
28.713575 -14.001726 -7.993100 32.930341 -0.453706 1.815973 0.066992 -0.034771 905141.000000 0 0 1
28.873375 -15.534726 -8.133800 33.781033 -0.493606 1.813966 0.074897 -0.049034 17602.100000 0 0 1
29.452875 -15.966026 -9.341600 34.780042 -0.496748 1.842726 0.077436 -0.050333 211547.000000 0 0 1
29.760675 -17.324626 -9.228200 35.651089 -0.527177 1.832625 0.079865 -0.052344 -169021.000000 0 0 1
30.070875 -18.022926 -10.529500 36.605379 -0.539940 1.862567 0.067916 -0.049254 74976.000000 0 0 1
31.324775 -17.538226 -11.003900 37.548858 -0.510400 1.868217 0.073474 -0.042623 559055.000000 0 0 1
31.558275 -17.877426 -12.375900 38.323492 -0.515415 1.899623 0.074210 -0.025149 -114000.000000 0 0 1
30.813075 -17.027226 -13.466300 37.692350 -0.504835 1.936138 0.060632 -0.022948 -86724.000000 0 0 1
31.381375 -15.798326 -13.880800 37.776374 -0.466388 1.947058 0.058993 -0.018149 -333191.000000 0 0 1
30.621575 -15.243126 -14.853800 37.291677 -0.461878 1.980474 0.053646 -0.014094 -842677.000000 0 0 1
31.377975 -14.147426 -15.702000 37.832259 -0.423578 1.998786 0.044488 0.001688 1224180.000000 0 0 1
32.481075 -14.517926 -16.559600 39.242971 -0.420328 2.006420 0.030860 0.000247 711286.000000 0 0 1
33.710075 -14.788326 -15.973600 40.127542 -0.413410 1.980209 0.044529 0.002480 -791498.000000 0 0 1
34.832675 -15.240226 -16.931700 41.620454 -0.412433 1.989758 0.042972 -0.002451 -800692.000000 0 0 1
36.095475 -15.105026 -16.346800 42.405931 -0.396330 1.966528 0.046996 0.002437 -914569.000000 0 0 1
-36.480911 -15.652426 -17.328200 43.314222 0.405303 1.982376 0.059578 -0.007843 -198561.000000 0 0 1
-35.001611 -15.686626 -16.829200 41.885618 0.421330 1.984266 0.078415 -0.008247 70072.800000 0 0 1
-34.731111 -16.677126 -15.885600 41.674079 0.447665 1.961876 0.055024 -0.004734 72862.800000 0 0 1
-35.156111 -16.384526 -14.541400 41.422906 0.436121 1.929486 0.051510 -0.007876 -575437.000000 0 0 1
-34.576611 -17.222026 -13.400500 40.886595 0.462113 1.904715 0.040297 -0.010315 382075.000000 0 0 1
-33.191011 -16.985926 -13.110000 39.522614 0.473014 1.908911 0.062635 -0.014747 807054.000000 0 0 1
-32.935011 -17.574526 -11.830700 39.160495 0.490174 1.877700 0.075278 -0.009753 -30796.000000 0 0 1
-31.449911 -17.377026 -11.452300 37.712241 0.504784 1.879345 0.081757 -0.015856 -28164.700000 0 0 1
-31.020011 -16.003326 -11.377500 36.712328 0.476289 1.885894 0.072538 -0.030160 -592872.000000 0 0 1
-29.739711 -15.836726 -10.887200 35.408804 0.489317 1.883331 0.096844 -0.029775 -737372.000000 0 0 1
-29.677411 -15.776026 -9.359000 34.888718 0.488594 1.842375 0.090327 -0.026194 -272553.000000 0 0 1
-29.438411 -16.978126 -8.767900 35.096337 0.523136 1.823295 0.081024 -0.023568 -168126.000000 0 0 1
-29.729911 -16.928626 -7.413800 35.005863 0.517626 1.784200 0.092622 -0.025995 -166114.000000 0 0 1
-29.850411 -18.356326 -6.815100 35.699402 0.551335 1.762878 0.070971 -0.027060 1262110.000000 0 0 1
-31.037111 -19.145926 -7.145800 37.160883 0.552733 1.764295 0.069276 -0.028471 1008000.000000 0 0 1
-31.036611 -19.518126 -8.507000 37.637714 0.561380 1.798790 0.058437 -0.020288 -445576.000000 0 0 1
-32.300211 -20.226926 -8.997700 39.158534 0.559474 1.802644 0.061637 -0.024321 -575628.000000 0 0 1
-33.463211 -19.447326 -9.112400 39.762053 0.526448 1.802025 0.060602 -0.029164 -477375.000000 0 0 1
-34.425511 -20.334926 -9.607300 41.120861 0.533548 1.806611 0.049823 -0.035473 -304146.000000 0 0 1
-35.840611 -19.743726 -9.802000 42.076636 0.503515 1.805912 0.056574 -0.039442 120379.000000 0 0 1
-36.105511 -19.062426 -11.072000 42.303347 0.485768 1.835609 0.048842 -0.038712 1428200.000000 0 0 1
35.870975 -18.963326 -11.221700 42.098232 -0.486307 1.840618 0.078869 -0.046042 1219550.000000 0 0 1
35.357475 -18.837426 -12.677500 42.020456 -0.489519 1.877270 0.054789 -0.032317 -109204.000000 0 0 1
35.626275 -20.015926 -13.373000 42.996580 -0.511881 1.887067 0.054570 -0.018962 327722.000000 0 0 1
34.973575 -19.924326 -14.636700 42.829461 -0.517839 1.919568 0.043538 -0.019202 990832.000000 0 0 1
33.700875 -20.822926 -14.876800 42.316219 -0.553459 1.930036 0.063781 -0.027361 269940.000000 0 0 1
32.553975 -20.466926 -14.128800 40.966808 -0.561261 1.922912 0.072077 -0.024534 -142306.000000 0 0 1
31.363775 -21.141326 -14.431600 40.483492 -0.593109 1.935295 0.078524 -0.021881 -165460.000000 0 0 1
30.685575 -20.782226 -15.706800 40.251820 -0.595303 1.971660 0.062374 -0.026390 -1199440.000000 0 0 1
30.141675 -19.450826 -15.712300 39.162885 -0.573074 1.983627 0.057946 -0.020014 560851.000000 0 0 1
29.296575 -19.267426 -16.846700 38.901598 -0.581747 2.018680 0.036882 -0.021970 169548.000000 0 0 1
28.449875 -17.982926 -16.898100 37.660680 -0.563683 2.036099 0.028936 -0.020710 189756.000000 0 0 1
27.454175 -17.830226 -15.893700 36.390361 -0.575991 2.022785 0.037735 -0.022791 292507.000000 0 0 1
26.952675 -16.503426 -15.892900 35.375048 -0.549423 2.036743 0.026472 -0.006902 951440.000000 0 0 1
25.498975 -16.472926 -15.187200 33.944161 -0.573574 2.034672 0.030229 -0.016604 2781940.000000 0 0 1
24.327375 -17.025526 -15.850500 33.658997 -0.610626 2.061123 0.035184 -0.020590 1354940.000000 0 0 1
24.013175 -16.331726 -17.020400 33.660836 -0.597255 2.100925 0.024198 -0.008510 -468244.000000 0 0 1
22.948775 -17.100626 -17.895900 33.754125 -0.640400 2.129614 0.020186 -0.007888 401767.000000 0 0 1
21.622975 -16.845426 -17.480800 32.509995 -0.661837 2.138510 0.038699 -0.004862 48913.100000 0 0 1
20.708875 -17.329726 -18.481000 32.721923 -0.696796 2.170975 0.038969 -0.016656 918550.000000 0 0 1
19.266975 -17.620126 -17.956200 31.687699 -0.740782 2.173245 0.050809 -0.013478 772118.000000 0 0 1
18.480775 -16.418026 -17.833200 30.481366 -0.726360 2.195741 0.062332 -0.013313 945681.000000 0 0 1
17.128275 -16.733426 -17.506700 29.662601 -0.773738 2.202096 0.071208 -0.013619 299497.000000 0 0 1
16.070275 -15.706226 -17.176400 28.283705 -0.773942 2.223441 0.080690 -0.008345 -502338.000000 0 0 1
15.425475 -15.182526 -18.279600 28.330163 -0.777461 2.272127 0.088197 -0.007775 -125373.000000 0 0 1
14.115175 -14.800326 -17.926100 27.196192 -0.809089 2.290471 0.086859 -0.004645 593295.000000 0 0 1
13.194075 -14.332826 -19.141200 27.311153 -0.826743 2.347394 0.066853 -0.001056 795795.000000 0 0 1
13.695875 -13.161026 -19.788700 27.429587 -0.765486 2.376671 0.075395 -0.013387 11135.100000 0 0 1
12.873875 -12.897926 -20.895500 27.725711 -0.786331 2.424395 0.070633 -0.003167 89427.800000 0 0 1
12.988875 -11.489826 -21.501500 27.623205 -0.724236 2.462886 0.069992 -0.000295 -850317.000000 0 0 1
14.256275 -11.225826 -21.993900 28.513018 -0.667029 2.451777 0.073804 -0.001440 -890550.000000 0 0 1
14.401475 -9.828826 -22.204100 28.231726 -0.598876 2.475909 0.063128 -0.001015 298831.000000 0 0 1
15.645975 -9.541026 -23.088300 29.477064 -0.547599 2.470694 0.053198 0.001486 246717.000000 0 0 1
15.728675 -10.135226 -24.382100 30.734359 -0.572413 2.487035 0.064069 0.005047 614438.000000 0 0 1
17.058175 -9.943626 -24.890400 31.770884 -0.527769 2.470969 0.061409 -0.005460 686455.000000 0 0 1
22.640275 4.954374 -6.959900 24.198514 0.215434 1.862534 0.154470 0.006474 -88859.700000 0 1 0
22.430775 6.340074 -7.084100 24.362280 0.275465 1.865840 0.124406 0.002098 260938.000000 0 1 0
21.601175 6.775374 -6.071600 23.438874 0.303939 1.832824 0.105877 0.000664 -598751.000000 0 1 0
21.535575 8.353574 -5.894400 23.839194 0.370029 1.820644 0.103403 -0.001271 -624307.000000 0 1 0
20.684775 8.899874 -6.839900 23.534059 0.406319 1.865690 0.104037 -0.007693 514.288000 0 1 0
20.399475 10.304774 -6.762100 23.833862 0.467758 1.858466 0.108036 -0.003184 670018.000000 0 1 0
19.683775 10.957474 -5.429800 23.173260 0.507954 1.807308 0.100286 -0.007765 -20983.600000 0 1 0
20.588775 11.118374 -4.386000 23.806573 0.495150 1.756090 0.110448 -0.006215 -88296.000000 0 1 0
20.327175 12.197674 -3.526900 23.966984 0.540469 1.718489 0.129549 -0.024976 134546.000000 0 1 0
21.468475 12.353774 -2.491000 24.894101 0.522163 1.671028 0.124123 -0.035006 -708970.000000 0 1 0
22.625175 12.978074 -2.958800 26.250399 0.520791 1.683751 0.117304 -0.038959 643208.000000 0 0 1
23.636075 13.218974 -1.954400 27.151888 0.509933 1.642839 0.123242 -0.041623 530862.000000 0 0 1
24.390075 12.001974 -1.325600 27.215444 0.457295 1.619523 0.110665 -0.041550 -1348270.000000 0 0 1
25.580375 11.741274 -2.017500 28.218495 0.430309 1.642353 0.092981 -0.029611 -437109.000000 0 0 1
26.123775 10.607874 -1.404300 28.230315 0.385721 1.620561 0.106606 -0.034845 -621578.000000 0 0 1
27.537575 10.277374 -1.889700 29.453581 0.357203 1.634999 0.102516 -0.032820 -138116.000000 0 0 1
28.407275 11.397574 -1.710700 30.656231 0.381558 1.626628 0.098023 -0.044345 465439.000000 0 0 1
29.760075 11.055174 -1.997200 31.809869 0.355678 1.633623 0.091411 -0.039828 184483.000000 0 0 1
30.713875 12.189274 -1.639100 33.084848 0.377801 1.620359 0.076009 -0.040116 -1122580.000000 0 0 1
30.757675 12.514774 -0.267900 33.207318 0.386426 1.578864 0.098790 -0.034696 170926.000000 0 0 1
31.711475 13.521074 0.034500 34.473734 0.403037 1.569796 0.100724 -0.034977 482318.000000 0 0 1
33.180875 12.965774 0.018700 35.624179 0.372516 1.570271 0.107129 -0.037069 -31654.900000 0 0 1
34.150975 13.941174 0.379100 36.888876 0.387574 1.560519 0.099878 -0.037678 717466.000000 0 0 1
35.089275 14.308074 -0.650300 37.899883 0.387180 1.587956 0.102281 -0.029854 391087.000000 0 0 1
34.446175 15.344774 -1.615600 37.744023 0.419081 1.613614 0.049673 -0.007558 -134935.000000 0 0 1
33.264975 14.953074 -2.262900 36.541398 0.422450 1.632763 0.070824 -0.014381 -330268.000000 0 0 1
32.859175 15.931874 -3.219100 36.659414 0.451457 1.658721 0.043542 -0.003764 -153707.000000 0 0 1
31.497575 15.598774 -3.832700 35.356875 0.459830 1.679410 0.069031 -0.018176 -723042.000000 0 0 1
31.568775 14.522874 -4.763200 35.074058 0.431171 1.707021 0.051095 -0.020070 674957.000000 0 0 1
30.402975 14.412974 -5.592700 34.107961 0.442685 1.735511 0.051372 -0.027252 995708.000000 0 0 1
29.104575 13.808174 -4.975100 32.595914 0.442986 1.724025 0.065953 -0.031764 24504.300000 0 0 1
27.986475 13.716274 -5.836600 31.708751 0.455699 1.755921 0.077402 -0.037966 547826.000000 0 0 1
26.931175 13.105274 -5.084900 30.379148 0.452887 1.738969 0.077752 -0.017900 552120.000000 0 0 1
25.642975 12.846374 -5.919900 29.285436 0.464424 1.774344 0.086482 -0.013956 39854.400000 0 0 1
25.900275 11.742574 -6.838000 29.248428 0.425658 1.806771 0.085828 -0.005003 238989.000000 0 0 1
24.964075 11.479674 -7.862400 28.579806 0.431013 1.849494 0.096939 -0.006688 -283357.000000 0 0 1
24.664675 12.520374 -8.981400 29.082151 0.469728 1.884758 0.107039 -0.002810 95265.600000 0 0 1
23.829975 13.527074 -8.399500 28.660095 0.516293 1.868236 0.105741 -0.014157 298262.000000 0 0 1
23.718175 14.622174 -9.204400 29.344178 0.552461 1.889852 0.102990 -0.019966 -875173.000000 0 0 1
22.825375 15.800374 -8.640700 29.074237 0.605491 1.872549 0.094212 -0.018907 1223030.000000 0 0 1
21.412075 15.551974 -8.643900 27.839861 0.628172 1.886501 0.114995 -0.024288 1056940.000000 0 0 1
20.910475 14.387974 -7.978800 26.606823 0.602678 1.875361 0.121330 -0.031382 -346389.000000 0 0 1
19.396775 14.106174 -8.316300 25.384639 0.628777 1.904571 0.117122 -0.026889 1293820.000000 0 0 1
18.463275 14.950274 -7.618300 24.948782 0.680646 1.881110 0.144548 -0.049649 646847.000000 0 1 0
17.137175 14.429074 -7.640300 23.669709 0.699817 1.899470 0.150652 -0.056750 254646.000000 0 1 0
16.361075 15.134974 -6.519000 23.221748 0.746489 1.855349 0.129367 -0.028998 -297958.000000 0 1 0
16.543775 14.275774 -5.371100 22.502065 0.711941 1.811817 0.103783 -0.034037 421436.000000 0 1 0
16.205475 14.876074 -4.137700 22.383824 0.742653 1.756718 0.092721 -0.020690 -88637.200000 0 1 0
15.644875 13.747574 -3.192300 21.070090 0.720937 1.722891 0.059233 -0.014629 -201822.000000 0 1 0
16.674475 12.879674 -2.737400 21.246588 0.657695 1.699995 0.051173 -0.019321 601845.000000 0 1 0
16.308775 12.157874 -1.594200 20.404204 0.640602 1.649007 0.035360 -0.016264 -97589.500000 0 1 0
16.503875 12.823874 -0.222900 20.901659 0.660572 1.581461 0.047596 -0.022467 -244020.000000 0 1 0
15.704875 13.975774 -0.032100 21.022997 0.727207 1.572323 0.050285 -0.022286 164131.000000 0 1 0
15.824475 14.677274 1.157700 21.614270 0.747805 1.517209 0.049678 -0.020643 -1101480.000000 0 1 0
14.667475 15.591274 1.499800 21.458613 0.815919 1.500847 0.044001 -0.011763 -640041.000000 0 1 0
14.621475 16.716974 0.643900 22.218447 0.852165 1.541812 0.048948 -0.013052 397821.000000 0 1 0
13.535775 17.531074 1.083400 22.174975 0.913299 1.521920 0.033762 -0.012942 206314.000000 0 1 0
13.498975 18.990274 0.446700 23.303485 0.952835 1.551626 0.036699 -0.011315 -331694.000000 0 1 0
13.108875 18.966574 -0.935400 23.074846 0.966030 1.611345 0.045803 -0.020213 365473.000000 0 1 0
12.707875 20.267174 -1.383400 23.961683 1.010747 1.628562 0.060377 -0.021165 870955.000000 0 1 0
11.172075 20.576374 -1.221800 23.445580 1.073377 1.622932 0.050165 -0.019816 544411.000000 0 1 0
10.708575 20.464474 0.053200 23.096994 1.088701 1.568493 0.039474 -0.020352 88238.500000 0 1 0
9.288975 20.336974 0.072400 22.358059 1.142341 1.567558 0.036662 -0.020557 631798.000000 0 1 0
8.714375 20.263574 1.493200 22.108424 1.164655 1.503205 0.030839 -0.017976 -37061.800000 0 1 0
8.380375 21.520174 2.041000 23.184354 1.199444 1.482649 0.031922 -0.014304 -4954.420000 0 1 0
7.596675 21.381774 3.186000 22.913759 1.229419 1.431301 0.027461 -0.016198 -129675.000000 0 1 0
6.987275 22.690674 3.635700 24.018889 1.272075 1.418844 0.020416 -0.011953 64924.500000 0 1 0
7.823375 23.336474 4.580100 25.035446 1.247329 1.386816 0.028920 -0.006725 525886.000000 0 0 1
7.102275 24.392674 5.251100 25.942608 1.287465 1.366976 0.023949 -0.008194 231253.000000 0 0 1
7.723575 24.963574 6.565500 26.943263 1.270744 1.324639 0.030458 -0.007641 -84970.800000 0 0 1
7.381075 24.119474 7.693200 26.370715 1.273825 1.274758 0.031640 -0.019457 128895.000000 0 0 1
7.843675 24.555374 8.961800 27.291088 1.261612 1.236210 0.031062 -0.018106 -161372.000000 0 0 1
7.453475 23.707774 10.190000 26.859802 1.266191 1.181673 0.036407 -0.020020 -692323.000000 0 0 1
6.190475 24.010574 10.683600 26.999425 1.318469 1.163969 0.042917 -0.021257 -674181.000000 0 0 1
5.709175 23.025474 11.529400 26.376016 1.327748 1.118406 0.041568 -0.020063 -238686.000000 0 0 1
4.333975 23.323674 12.126400 26.642573 1.387073 1.098254 0.044543 -0.026199 -7467.020000 0 0 1
3.287075 23.507674 11.201600 26.246742 1.431867 1.129866 0.034682 -0.022244 169405.000000 0 0 1
2.005475 23.612274 11.797100 26.471362 1.486066 1.108890 0.033378 -0.029497 597604.000000 0 0 1
0.823175 23.742174 10.794300 26.093780 1.536139 1.144311 0.050481 -0.027285 29750.200000 0 0 1
0.853775 24.976774 10.043300 26.933920 1.536627 1.188678 0.052489 -0.030478 342834.000000 0 0 1
-0.087825 24.971574 8.957300 26.529615 -1.567279 1.226394 0.058658 -0.027902 1145520.000000 0 0 1
-1.516125 25.516874 9.298100 27.200444 -1.511450 1.221926 0.067783 -0.034207 749684.000000 0 0 1
-2.328325 24.680774 10.136300 26.782574 -1.476737 1.182658 0.061811 -0.036016 703694.000000 0 0 1
-3.635325 25.280674 10.183600 27.496068 -1.427977 1.191394 0.072451 -0.036507 628658.000000 0 0 1
-4.713325 24.373974 10.883500 27.106394 -1.379779 1.157631 0.076691 -0.036342 332993.000000 0 0 1
-4.777125 24.473274 12.255400 27.784112 -1.378023 1.113979 0.060404 -0.028939 30775.500000 0 0 1
-5.593225 25.576574 12.611200 29.060070 -1.355500 1.121902 0.063535 -0.018662 -284164.000000 0 0 1
-6.091525 25.513174 14.068600 29.764983 -1.336424 1.078494 0.039991 -0.019124 -25403.700000 0 0 1
-7.105525 24.554974 14.267000 29.274264 -1.289118 1.061737 0.058560 -0.024303 -75561.100000 0 0 1
-7.589925 24.565474 15.627100 30.087800 -1.271133 1.024667 0.039658 -0.012124 883206.000000 0 0 1
-8.914225 23.736174 15.836100 29.894003 -1.211540 1.012500 0.039227 -0.015817 1170690.000000 0 0 1
-10.100925 24.334474 15.315800 30.475712 -1.177352 1.044242 0.035933 -0.006041 575244.000000 0 0 1
-11.215625 23.467974 15.557500 30.307950 -1.124975 1.031754 0.031211 -0.006413 367084.000000 0 0 1
-12.615325 24.012774 15.251600 31.118661 -1.087068 1.058579 0.028710 -0.004648 -92034.700000 0 0 1
-13.019425 25.031874 16.186700 32.528594 -1.091187 1.049950 0.034347 -0.011503 230431.000000 0 0 1
-14.049325 25.867674 15.657100 33.341639 -1.073248 1.081963 0.036745 -0.008698 -54532.400000 0 0 1
-14.611425 26.818274 16.684300 34.800566 -1.071930 1.070796 0.047919 -0.008741 -77086.800000 0 0 1
-15.687125 26.198874 17.384000 35.137876 -1.031281 1.053264 0.038506 -0.018911 -81019.400000 0 0 1
-16.289325 27.219974 18.140300 36.542298 -1.031530 1.051327 0.055829 -0.020536 553990.000000 0 0 1
-17.575725 26.705974 18.896900 37.137690 -0.988734 1.036967 0.043626 -0.032420 983780.000000 0 0 1
-18.770425 26.787074 18.127500 37.396289 -0.959583 1.064730 0.046374 -0.027101 497008.000000 0 0 1
-19.847525 26.162674 18.844400 37.861870 -0.921801 1.049835 0.047391 -0.026801 467625.000000 0 0 1
-21.214725 26.305274 18.139900 38.354765 -0.892116 1.078160 0.043875 -0.026810 -361897.000000 0 0 1
-21.817425 27.583474 18.264400 39.628732 -0.901592 1.091801 0.042994 -0.027170 187818.000000 0 0 1
-22.465425 28.025374 17.110200 39.785372 -0.895074 1.126234 0.040436 -0.026819 -260119.000000 0 0 1
-23.309225 29.321874 17.330100 41.272565 -0.899146 1.137468 0.044957 -0.026854 -96740.100000 0 0 1
-24.627025 29.027174 17.711200 41.985162 -0.867224 1.135318 0.047590 -0.021601 -91566.600000 0 0 1
-25.459915 30.169274 17.656600 43.245206 -0.869853 1.150216 0.039595 -0.016824 231808.000000 0 0 1
-26.873205 29.973174 18.251200 44.200301 -0.839877 1.145138 0.049500 -0.012093 149402.000000 0 0 1
-27.717525 29.070174 17.556000 43.835480 -0.809213 1.158737 0.073612 -0.009620 253592.000000 0 0 1
-29.003325 28.899274 18.125500 44.776050 -0.783601 1.154032 0.104262 -0.022738 197899.000000 0 0 1
-29.256775 27.660574 19.003100 44.521725 -0.757361 1.129814 0.098303 -0.024253 -411501.000000 0 0 1
-29.297005 26.472574 18.203500 43.479640 -0.734797 1.138819 0.101203 -0.023919 100394.000000 0 0 1
-29.751665 25.419974 18.993500 43.498157 -0.707046 1.118924 0.100882 -0.027059 -216003.000000 0 0 1
-29.827355 23.982274 18.391800 42.462676 -0.677197 1.122835 0.104986 -0.032978 134298.000000 0 0 1
-30.959885 23.925974 17.519600 42.870772 -0.657938 1.149810 0.115350 -0.025830 426479.000000 0 0 1
-30.899785 22.861974 16.537500 41.844420 -0.636989 1.164496 0.107117 -0.028646 -113975.000000 0 0 1
-31.023105 21.462074 17.106000 41.420634 -0.605208 1.145070 0.103668 -0.030822 -696090.000000 0 0 1
-32.340665 21.073774 17.329200 42.312217 -0.577512 1.148830 0.115680 -0.026610 -553107.000000 0 0 1
-32.510255 19.716674 16.960400 41.633149 -0.545167 1.151216 0.095751 -0.021221 308566.000000 0 0 1
-33.903945 19.426574 16.333400 42.351496 -0.520321 1.174870 0.112833 -0.035642 256811.000000 0 0 1
-34.087995 19.996574 15.053000 42.290036 -0.530520 1.206869 0.094079 -0.027845 255615.000000 0 0 1
-35.386811 19.691874 14.583400 43.042674 -0.507801 1.225142 0.124427 -0.031703 -200986.000000 0 0 1
-35.548980 20.111674 13.153200 42.909394 -0.514851 1.259246 0.118819 -0.026422 -117667.000000 0 0 1
-35.578319 21.508474 12.888400 43.526338 -0.543750 1.270183 0.104678 -0.032863 -10683.600000 0 0 1
-35.702113 21.917074 11.503800 43.443485 -0.550568 1.302801 0.075287 -0.029198 -58586.100000 0 0 1
-34.560356 21.599374 10.501500 42.086015 -0.558582 1.318607 0.083680 -0.029710 -55657.600000 0 0 1
-34.757328 20.298074 9.955600 41.463208 -0.528567 1.328320 0.106701 -0.028122 405774.000000 0 0 1
-33.635965 19.859874 9.198600 40.129876 -0.533357 1.339519 0.114227 -0.020364 250801.000000 0 0 1
-32.768075 18.791474 9.931100 39.057560 -0.520683 1.313705 0.092952 -0.023532 187100.000000 0 0 1
-32.170525 19.206174 11.161700 39.094799 -0.538219 1.281265 0.093984 -0.026763 138251.000000 0 0 1
-31.579305 18.162974 11.831100 38.303016 -0.521950 1.256779 0.085031 -0.027422 -103772.000000 0 0 1
-31.052145 18.473774 13.283200 38.496226 -0.536681 1.218502 0.080090 -0.017866 -653463.000000 0 0 1
-29.925455 19.251274 13.329200 37.997526 -0.571656 1.212380 0.080255 -0.016600 -1052030.000000 0 0 1
-30.168905 20.629574 13.342200 38.907023 -0.599772 1.220767 0.079742 -0.016947 -40015.200000 0 0 1
-28.919785 21.528474 13.536500 38.510596 -0.639921 1.211623 0.083967 -0.021043 133853.000000 0 0 1
-28.288445 21.190374 14.779800 38.310711 -0.642914 1.174735 0.095976 -0.020691 -104058.000000 0 0 1
-27.232605 22.031274 15.121000 38.152804 -0.680207 1.163283 0.090259 -0.021452 -487128.000000 0 0 1
-26.624135 21.906874 16.546000 38.242984 -0.688502 1.123361 0.088741 -0.028901 200755.000000 0 0 1
-25.720795 20.788474 16.615400 37.010694 -0.679743 1.105223 0.092474 -0.029681 325897.000000 0 0 1
-25.460205 20.483574 17.989600 37.301803 -0.677499 1.067550 0.095617 -0.025611 -121784.000000 0 0 1
-24.231025 19.566674 18.198700 36.072011 -0.679300 1.041982 0.103456 -0.024392 269645.000000 0 0 1
-23.634525 19.645374 19.492000 36.393262 -0.693487 1.005586 0.103722 -0.029230 94176.600000 0 0 1
-22.518725 18.794174 19.582700 35.267493 -0.695487 0.982118 0.089242 -0.019167 -91445.900000 0 0 1
-21.909425 18.545374 20.984300 35.556921 -0.702433 0.939538 0.091239 -0.032691 120010.000000 0 0 1
-22.699625 17.722374 21.883200 36.169462 -0.662883 0.921007 0.118608 -0.017589 381827.000000 0 0 1
-23.571725 18.450174 22.721300 37.580482 -0.664118 0.921528 0.100364 -0.030918 128434.000000 0 0 1
-24.502925 17.505674 23.525200 38.213571 -0.620346 0.907618 0.105233 -0.038174 -518592.000000 0 0 1
-23.805725 16.812574 24.502500 38.075552 -0.614902 0.871704 0.099857 -0.023687 -176801.000000 0 0 1
-24.612925 16.012674 25.337600 38.783963 -0.576783 0.858860 0.102447 -0.019012 -99578.000000 0 0 1
20.472975 24.815474 33.731815 46.613151 0.880991 0.761714 0.087633 -0.027180 -433316.000000 0 0 1
21.511175 24.324574 32.950259 46.261595 0.846701 0.778084 0.089548 -0.033239 -578846.000000 0 0 1
21.864675 23.012074 33.296390 46.002926 0.810960 0.761519 0.091256 -0.031767 255729.000000 0 0 1
20.847575 21.864474 32.951496 44.704337 0.809202 0.742030 0.068180 -0.027386 126735.000000 0 0 1
20.931175 21.438974 31.627055 43.566206 0.797382 0.758376 0.084302 -0.029098 -12372.700000 0 0 1
19.959475 20.486574 31.279135 42.384722 0.798430 0.740722 0.095128 -0.022914 -388148.000000 0 0 1
20.134475 19.774074 29.934085 41.139525 0.776368 0.755945 0.097427 -0.012729 -217532.000000 0 0 1
21.279775 18.951074 29.883025 41.291249 0.727579 0.761628 0.081520 -0.010144 -180111.000000 0 0 1
21.393275 18.347874 28.589055 40.145371 0.708917 0.778257 0.077934 -0.005936 237124.000000 0 0 1
22.610675 17.379774 28.473975 40.299708 0.655333 0.786178 0.067878 -0.003783 49488.600000 0 0 1
23.901075 17.943674 28.462735 41.271832 0.643979 0.809804 0.077619 -0.010397 -356183.000000 0 0 1
24.795575 16.831974 28.475525 41.339950 0.596376 0.810945 0.061643 -0.004441 504871.000000 0 0 1
26.181175 17.361374 28.991465 42.747822 0.585546 0.825489 0.052588 -0.013884 861636.000000 0 0 1
27.259575 17.201474 28.057515 42.734053 0.562920 0.854546 0.049514 -0.006442 -355458.000000 0 0 1
28.466675 17.676374 28.546885 44.019660 0.555681 0.865180 0.053110 -0.005889 -570229.000000 0 0 1
29.510775 17.447174 27.419115 43.898720 0.533934 0.896178 0.040750 0.010326 -256835.000000 0 0 1
29.426575 18.290774 26.297525 43.497535 0.556131 0.921564 0.047407 0.001373 76815.000000 0 0 1
30.395175 17.948674 25.334715 43.449619 0.533413 0.948278 0.042646 0.004485 -358523.000000 0 0 1
31.012475 19.181974 24.641735 44.010645 0.553929 0.976526 0.055764 -0.006386 -487436.000000 0 0 1
30.173175 19.793374 23.680765 43.162215 0.580576 0.990053 0.054993 -0.015322 -81286.300000 0 0 1
30.657575 20.942974 23.054365 43.703533 0.599311 1.015121 0.040213 -0.019287 -287747.000000 0 0 1
31.183675 20.592974 21.632165 43.179194 0.583635 1.046059 0.047071 -0.015234 446029.000000 0 0 1
30.152275 19.941074 20.870265 41.741755 0.584310 1.047214 0.063483 -0.015648 636000.000000 0 0 1
30.519975 19.727674 19.494665 41.239447 0.573830 1.078423 0.068600 -0.022644 -205334.000000 0 0 1
31.470975 18.582174 19.138665 41.255399 0.533371 1.088396 0.099458 -0.042336 -117726.000000 0 0 1
30.919975 17.322474 19.525165 40.464121 0.510668 1.067255 0.089957 -0.033422 70164.200000 0 0 1
31.906275 16.338874 19.616265 40.862783 0.473273 1.070082 0.105146 -0.026857 -1563680.000000 0 0 1
31.392675 14.871074 19.699365 39.933869 0.442397 1.054917 0.108164 -0.025536 -16376.500000 0 0 1
30.817975 14.564474 20.977765 40.024219 0.441486 1.019107 0.083730 -0.030585 -839728.000000 0 0 1
29.574375 15.083874 21.154665 39.366061 0.471641 1.003465 0.074243 -0.011901 -1692300.000000 0 0 1
28.703075 14.518474 22.349365 39.168185 0.468290 0.963560 0.043584 -0.012935 245774.000000 0 0 1
28.465275 13.107974 22.377265 38.507569 0.431543 0.950700 0.047208 -0.011540 291179.000000 0 0 1
27.832375 12.727474 23.637935 38.670165 0.428900 0.913131 0.036991 0.001022 185846.000000 0 0 1
27.334475 11.267974 23.648435 37.860128 0.391001 0.896143 0.051353 -0.008076 252978.000000 0 0 1
26.420075 11.032374 22.564365 36.453864 0.395565 0.903348 0.045218 -0.006464 341009.000000 0 0 1
26.238975 9.594774 22.510165 35.878281 0.350565 0.892582 0.032388 0.001796 -166810.000000 0 0 1
25.042075 9.202874 21.607365 34.331861 0.352176 0.890057 0.024707 -0.012096 160844.000000 0 0 1
23.793875 9.448674 22.256565 33.923158 0.378008 0.855173 0.035889 -0.010234 287184.000000 0 0 1
22.770175 8.849074 21.496165 32.540315 0.370663 0.849177 0.033479 0.000328 -459391.000000 0 0 1
21.357475 9.083374 22.033965 32.002266 0.402126 0.811360 0.037844 -0.004243 -293125.000000 0 0 1
21.011875 8.184074 23.089365 32.273778 0.371420 0.773569 0.045026 -0.006500 -13538.000000 0 0 1
19.631175 8.348074 23.334225 31.615810 0.402079 0.740612 0.073148 -0.010178 -45579.100000 0 0 1
19.180575 7.521474 24.570455 32.065157 0.373712 0.697786 0.080257 -0.012460 -521073.000000 0 0 1
19.139875 6.125674 24.428925 31.632753 0.309746 0.688395 0.075067 -0.022023 185285.000000 0 0 1
18.771975 5.428874 25.590615 32.198436 0.281520 0.652154 0.083797 -0.031461 -282573.000000 0 0 1
19.114175 3.898074 25.487515 32.096107 0.201178 0.653271 0.077907 -0.035322 -1387330.000000 0 0 1
20.452575 3.649974 25.522275 32.909219 0.176601 0.683233 0.086358 -0.033802 -1457990.000000 0 0 1
20.667075 2.252274 25.519505 32.915739 0.108550 0.683610 0.072958 -0.033412 -205688.000000 0 0 1
22.161975 1.906774 25.463845 33.811187 0.085827 0.718006 0.064191 -0.033606 -165610.000000 0 0 1
23.003075 2.705874 26.280625 35.030479 0.117093 0.722399 0.064957 -0.035388 30591.200000 0 0 1
24.330575 2.497074 25.829695 35.572256 0.102273 0.758136 0.059151 -0.031247 124436.000000 0 0 1
25.437275 2.947574 26.794755 37.063487 0.115362 0.762745 0.044341 -0.029069 -660050.000000 0 0 1
25.624475 2.014074 27.855105 37.902204 0.078438 0.745247 0.040004 -0.027237 8179.740000 0 0 1
26.277775 2.438474 29.050205 39.247701 0.092531 0.737464 0.040993 -0.018330 1832650.000000 0 0 1
27.850175 2.624674 28.788435 40.140941 0.093965 0.771044 0.052514 -0.020092 772851.000000 0 0 1
28.190975 3.897274 28.153685 40.031860 0.137375 0.790793 0.055210 -0.011687 1367280.000000 0 0 1
29.577275 4.153974 27.802105 40.804752 0.139532 0.821198 0.062277 -0.008920 1273630.000000 0 0 1
30.232875 3.182574 26.781405 40.514185 0.104882 0.848595 0.068164 -0.010288 -519493.000000 0 0 1
29.712275 3.342274 25.464435 39.273751 0.112017 0.865338 0.040812 -0.000114 90521.100000 0 0 1
29.926175 2.143174 24.667725 38.841548 0.071493 0.882676 0.054251 0.008879 60639.000000 0 0 1
29.361575 2.300474 23.208565 37.497090 0.078190 0.903400 0.050607 -0.000631 85454.200000 0 0 1
29.879775 3.341774 22.418765 37.504259 0.111378 0.930085 0.044042 0.002982 -1631150.000000 0 0 1
31.115175 3.033374 21.915365 38.179035 0.097181 0.959395 0.035095 0.002663 -1210010.000000 0 0 1
31.877775 4.311474 21.529865 38.708093 0.134434 0.980977 0.073221 -0.005832 -656600.000000 0 0 1
31.401475 5.027274 20.351165 37.755742 0.158750 1.001521 0.058612 0.001393 79209.700000 0 0 1
32.031675 6.290174 19.961665 38.263071 0.193906 1.021959 0.095967 -0.008281 606220.000000 0 0 1
33.542175 6.056174 19.555165 39.295792 0.178630 1.049920 0.086833 -0.015861 789798.000000 0 0 1
34.436975 5.723574 20.608365 40.538491 0.164699 1.037511 0.095972 -0.024010 144229.000000 0 0 1
34.829375 6.846874 21.372365 41.433598 0.194108 1.028829 0.113439 -0.025063 -762504.000000 0 0 1
35.704575 6.492674 22.579365 42.741072 0.179879 1.014220 0.114135 -0.028433 43375.100000 0 0 1
35.040375 5.600474 23.490435 42.555772 0.158489 0.986045 0.108479 -0.017965 748831.000000 0 0 1
35.798575 5.583474 24.708475 43.854554 0.154723 0.972278 0.111886 -0.012268 207365.000000 0 0 1
35.015075 4.862274 25.787915 43.757442 0.137980 0.940557 0.105986 -0.004109 -85213.900000 0 0 1
34.998775 3.499374 25.540255 43.467971 0.099654 0.942750 0.090322 -0.002092 153148.000000 0 0 1
34.026575 2.821274 26.319525 43.110147 0.082725 0.914082 0.082195 -0.000132 36989.100000 0 0 1
34.140475 1.337874 26.034435 42.955253 0.039167 0.919670 0.070687 0.000383 -127122.000000 0 0 1
33.650075 0.990274 24.774885 41.798363 0.029420 0.936360 0.062281 -0.004108 -76012.200000 0 0 1
33.797275 -0.382726 24.462945 41.723351 -0.011324 0.944296 0.072481 -0.010072 -816624.000000 0 0 1
32.740275 -0.849326 23.520045 40.321700 -0.025936 0.947999 0.081664 -0.002727 154341.000000 0 0 1
31.451575 -1.056726 24.139335 39.661389 -0.033586 0.916456 0.070646 -0.005096 366360.000000 0 0 1
30.678275 -1.848926 23.264445 38.546200 -0.060195 0.922854 0.073218 -0.006489 -140458.000000 0 0 1
29.245375 -2.073326 23.758925 37.736947 -0.070776 0.889767 0.075431 -0.002908 120799.000000 0 0 1
28.398775 -0.903726 23.825215 37.080292 -0.031812 0.873000 0.045823 0.002883 -395265.000000 0 0 1
27.116075 -1.394626 23.546255 35.939569 -0.051386 0.856399 0.042970 0.007276 -405582.000000 0 0 1
26.098975 -0.231826 23.391295 35.048009 -0.008882 0.840075 0.052391 -0.005500 -122393.000000 0 0 1
26.271375 0.554374 22.252465 34.433482 0.021099 0.868143 0.036785 -0.009219 1241960.000000 0 0 1
25.189375 1.555374 22.282765 33.666681 0.061669 0.847494 0.045687 -0.010378 1047520.000000 0 0 1
25.282175 2.650474 21.165965 33.078868 0.104454 0.876476 0.032460 -0.009614 -239405.000000 0 0 1
24.862275 2.355774 19.823465 31.884984 0.094471 0.899862 0.035121 -0.008786 313211.000000 0 0 1
24.362475 3.581274 19.267265 31.266327 0.145954 0.906849 0.039068 -0.009154 224869.000000 0 0 1
23.920275 3.421274 17.755765 29.985861 0.142065 0.937087 0.044648 -0.012479 -335448.000000 0 0 1
25.031475 3.466374 16.924765 30.414440 0.137605 0.980664 0.040380 -0.012227 -343635.000000 0 0 1
24.769775 3.654374 15.564065 29.481118 0.146477 1.014631 0.039960 -0.010832 -218368.000000 0 0 1
24.221475 2.497974 14.669365 28.427276 0.102767 1.028585 0.042193 -0.004311 530211.000000 0 0 1
22.847475 2.156074 14.822465 27.319613 0.094090 0.997317 0.066082 -0.005572 602905.000000 0 0 1
22.559675 1.027674 13.998965 26.570022 0.045522 1.015882 0.076111 -0.010451 269141.000000 0 0 1
21.059275 0.588374 14.109965 25.356072 0.027932 0.980662 0.114075 -0.023218 756836.000000 0 0 1
20.064375 1.312774 13.382965 24.153805 0.065335 0.983548 0.122747 -0.022666 845598.000000 0 1 0
19.969075 1.076374 11.961065 23.302138 0.053850 1.031767 0.124843 -0.013755 -678782.000000 0 1 0
19.728875 -0.357926 11.372565 22.774808 -0.018140 1.047950 0.124834 -0.010370 -355571.000000 0 1 0
20.776975 -1.279226 11.549565 23.805705 -0.061492 1.064251 0.123620 -0.022195 -315103.000000 0 1 0
21.660075 -1.235826 10.473465 24.091069 -0.056994 1.121042 0.112858 -0.025580 -917049.000000 0 1 0
22.868575 -2.144926 10.712765 25.344344 -0.093520 1.134386 0.122102 -0.034758 -379952.000000 0 0 1
23.574575 -1.725526 11.866765 26.449162 -0.073064 1.105527 0.123428 -0.034343 -192688.000000 0 0 1
24.456975 -2.737626 12.260665 27.494766 -0.111472 1.108586 0.070258 -0.023517 -202865.000000 0 0 1
24.765475 -2.748226 13.762165 28.465395 -0.110518 1.066182 0.078857 -0.012402 -13228.600000 0 0 1
25.659575 -1.689226 14.051765 29.303914 -0.065737 1.070691 0.052172 -0.011908 97723.300000 0 0 1
25.633575 -1.271526 15.396465 29.929051 -0.049563 1.030451 0.035596 -0.010421 432661.000000 0 0 1
26.781275 -0.215726 15.611665 31.000118 -0.008055 1.043035 0.056352 -0.007070 112796.000000 0 0 1
28.060375 -0.759426 15.410565 32.022600 -0.027057 1.068727 0.063722 -0.003877 153010.000000 0 0 1
29.059775 0.239574 15.694465 33.027930 0.008244 1.075619 0.050180 -0.006155 -201351.000000 0 0 1
30.472575 -0.303126 15.796765 34.325028 -0.009947 1.092563 0.057956 -0.007103 -613895.000000 0 0 1
31.034075 -0.736626 14.557265 34.286592 -0.023732 1.132303 0.081780 -0.008083 -491376.000000 0 0 1
32.388475 -0.972826 14.758465 35.605786 -0.030027 1.143407 0.082315 -0.010240 -934209.000000 0 0 1
33.039975 -1.797726 13.661265 35.798072 -0.054357 1.179248 0.083628 -0.014293 -250657.000000 0 0 1
33.143875 -1.234026 12.380865 35.402332 -0.037215 1.213525 0.094845 -0.014708 358850.000000 0 0 1
33.987375 -2.013926 11.526765 35.945290 -0.059186 1.244354 0.089319 -0.018774 221326.000000 0 0 1
33.854175 -1.665926 10.009065 35.342070 -0.049169 1.283662 0.133258 -0.025539 -144844.000000 0 0 1
34.403275 -0.394726 9.639665 35.730440 -0.011473 1.297623 0.106599 -0.023895 882784.000000 0 0 1
33.383775 0.592474 9.402665 34.687715 0.017746 1.296296 0.115781 -0.029073 118554.000000 0 0 1
33.958675 1.996174 9.216965 35.243848 0.058715 1.306200 0.109614 -0.029906 -143491.000000 0 0 1
34.666875 2.015974 8.004765 35.636115 0.058087 1.344238 0.104284 -0.024275 128555.000000 0 0 1
34.871775 3.324174 7.523165 35.828604 0.095038 1.359245 0.098046 -0.021652 161328.000000 0 0 1
35.466975 3.404574 6.051165 36.140200 0.095700 1.402568 0.096426 -0.017547 109191.000000 0 0 1
35.873775 4.703574 5.716865 36.629686 0.130371 1.414084 0.086117 -0.007008 -18339.100000 0 0 1
36.343875 4.790574 4.417865 36.923494 0.131057 1.450860 0.080642 -0.019072 -275130.000000 0 0 1
36.691375 6.227874 3.922165 37.422277 0.168134 1.465795 0.074246 -0.018021 -15676.900000 0 0 1
35.637375 7.137874 4.119865 36.577931 0.197676 1.457924 0.093549 -0.022178 -136263.000000 0 0 1
36.014375 8.353774 3.464965 37.132557 0.227926 1.477347 0.079842 -0.022039 -482275.000000 0 0 1
34.907975 9.435974 3.290665 36.310230 0.264001 1.480045 0.110921 -0.031182 1392840.000000 0 0 1
33.774075 9.156774 2.409365 35.076199 0.264754 1.502053 0.129569 -0.040961 1541610.000000 0 0 1
32.983875 7.983774 2.658565 34.040339 0.237483 1.492616 0.145197 -0.034766 -1207840.000000 0 0 1
31.716475 7.912374 1.856665 32.741223 0.244482 1.514059 0.169118 -0.049076 -492551.000000 0 0 1
32.058575 7.638974 0.485065 32.959695 0.233920 1.556079 0.168781 -0.055600 52978.500000 0 0 1
30.893475 7.652374 -0.277235 31.828329 0.242815 1.579507 0.183105 -0.049256 -338819.000000 0 0 1
31.226675 7.515274 -1.807435 32.169107 0.236177 1.627011 0.150183 -0.040645 597518.000000 0 0 1
30.081975 7.072574 -2.573035 31.009145 0.230916 1.653868 0.157244 -0.033268 1335310.000000 0 0 1
30.532775 6.540574 -3.809435 31.456975 0.211026 1.692194 0.135548 -0.033660 216391.000000 0 0 1
29.379575 6.003874 -4.733535 30.358068 0.201580 1.727359 0.136557 -0.023051 51551.300000 0 0 1
29.050475 4.694374 -4.427035 29.758460 0.160209 1.720116 0.136693 -0.028104 1016270.000000 0 0 1
27.964475 4.235174 -5.239835 28.764639 0.150306 1.753982 0.117617 -0.029198 36381.100000 0 0 1
27.909175 2.711574 -5.202435 28.519117 0.096853 1.754243 0.139799 -0.026371 -454420.000000 0 0 1
27.416675 2.205874 -3.990135 27.793185 0.080284 1.714859 0.141107 -0.029872 441092.000000 0 0 1
27.293475 0.803574 -3.991235 27.595461 0.029433 1.715939 0.128762 -0.028451 -234744.000000 0 0 1
27.455975 0.236474 -2.545135 27.574703 0.008613 1.663228 0.132466 -0.028822 -585008.000000 0 0 1
28.697075 0.371874 -1.937735 28.764827 0.012958 1.638212 0.139155 -0.030654 -432618.000000 0 0 1
28.585175 0.001974 -0.580335 28.591066 0.000069 1.591095 0.148440 -0.024562 603980.000000 0 0 1
29.854875 0.541574 0.207865 29.860511 0.018138 1.563835 0.163076 -0.022095 227496.000000 0 0 1
30.989475 -0.164926 -0.168835 30.990374 -0.005322 1.576244 0.136688 -0.023018 -902877.000000 0 0 1
32.084975 0.479474 0.419365 32.091298 0.014943 1.557728 0.113229 -0.022274 -447068.000000 0 0 1
-2.371525 -21.263926 -8.291200 22.946082 1.459727 1.940495 0.030057 0.005259 280076.000000 0 1 0
-3.196025 -21.632526 -7.196200 23.020991 1.424116 1.888718 0.037214 -0.002939 -64686.900000 0 1 0
-2.863225 -22.966426 -6.781900 24.117399 1.446766 1.855844 0.042609 -0.004151 -143751.000000 0 1 0
-3.480525 -23.531426 -5.502300 24.415515 1.423951 1.798110 0.046002 -0.004672 -655986.000000 0 1 0
-3.013125 -22.846926 -4.358500 23.453304 1.439670 1.757720 0.052611 -0.008688 -138888.000000 0 1 0
-3.437725 -23.483226 -3.181800 23.945849 1.425438 1.704065 0.057917 -0.019785 -200414.000000 0 1 0
-2.852225 -22.881226 -1.888800 23.135541 1.446783 1.652528 0.054987 -0.026083 1317030.000000 0 1 0
-1.410625 -22.970026 -1.745400 23.079393 1.509462 1.646495 0.067546 -0.022012 846632.000000 0 1 0
-1.047225 -22.808826 -0.387300 22.836138 1.524915 1.587757 0.058339 -0.027292 869490.000000 0 1 0
0.457175 -22.536926 -0.050300 22.541619 -1.550513 1.573028 0.053855 -0.032718 688927.000000 0 1 0
1.044875 -21.336626 -0.529400 21.368754 -1.521864 1.595573 0.032926 -0.029669 126906.000000 0 1 0
2.381075 -21.335426 -0.022800 21.467893 -1.459654 1.571858 0.030795 -0.023643 309812.000000 0 1 0
3.161575 -20.133226 -0.541000 20.387129 -1.415036 1.597336 0.036501 -0.020924 180567.000000 0 1 0
3.951875 -20.493826 -1.675200 20.938494 -1.380302 1.650888 0.032453 -0.020354 5877.090000 0 1 0
4.706575 -19.403526 -2.260200 20.093710 -1.332829 1.683518 0.037430 -0.019543 420549.000000 0 1 0
5.635975 -19.982926 -3.372400 21.034605 -1.295897 1.731818 0.042296 -0.012376 -889825.000000 0 1 0
6.699075 -20.742826 -2.926400 21.993323 -1.258412 1.704251 0.051233 -0.024514 -877743.000000 0 1 0
7.246375 -21.569826 -3.950200 23.094835 -1.246693 1.742684 0.046525 -0.018885 791795.000000 0 1 0
8.520975 -20.938626 -4.649200 23.079171 -1.184313 1.773630 0.056775 -0.011810 519943.000000 0 1 0
8.232175 -19.832226 -5.422500 22.146995 -1.177349 1.818152 0.043674 -0.008725 -184613.000000 0 1 0
9.422575 -19.451726 -6.076000 22.451555 -1.119700 1.844841 0.055106 -0.006710 -157885.000000 0 1 0
9.360775 -18.183226 -6.915400 21.588807 -1.095377 1.896867 0.053750 -0.002445 -422496.000000 0 1 0
10.467675 -18.111426 -7.758800 22.311319 -1.046741 1.925968 0.060296 0.007601 32472.300000 0 1 0
10.374675 -16.925826 -8.518200 21.602713 -1.020910 1.976115 0.060085 0.009215 -206223.000000 0 1 0
10.877475 -17.143726 -9.977300 22.622408 -1.005404 2.027549 0.057442 0.019027 -235206.000000 0 1 0
9.986775 -17.701726 -10.912200 23.068656 -1.057139 2.063525 0.054154 0.006665 -120016.000000 0 1 0
8.922275 -16.856326 -11.297800 22.167160 -1.083974 2.105590 0.032606 -0.010925 523131.000000 0 1 0
8.101475 -17.323626 -12.581000 22.891559 -1.133358 2.152671 0.045575 -0.017728 -8472.100000 0 1 0
7.137675 -18.315426 -12.414400 23.249055 -1.199193 2.134091 0.036496 -0.008190 -216889.000000 0 1 0
6.546975 -18.637226 -13.644700 24.008059 -1.232977 2.175281 0.042765 -0.011484 -200606.000000 0 1 0
5.468775 -19.712326 -13.443900 24.479006 -1.300173 2.152204 0.041097 -0.002629 -383904.000000 0 1 0
5.965275 -21.029326 -13.143900 25.506453 -1.294393 2.112173 0.056301 -0.009473 -478665.000000 0 0 1
4.924475 -21.906426 -12.889000 25.889540 -1.349676 2.091909 0.067831 -0.009046 -243446.000000 0 0 1
5.421175 -23.336126 -12.575900 27.057664 -1.342537 2.054184 0.050611 -0.018193 -149984.000000 0 0 1
5.848475 -24.086026 -13.696700 28.318561 -1.332590 2.075634 0.072796 -0.021213 -112233.000000 0 0 1
5.283475 -25.376086 -13.597800 29.270480 -1.365522 2.053930 0.062609 -0.008564 1351880.000000 0 0 1
3.762575 -25.541726 -14.026400 29.381570 -1.424537 2.068476 0.066883 -0.015048 734956.000000 0 0 1
2.892875 -25.085906 -13.010400 28.406723 -1.455985 2.046545 0.062231 -0.009885 591969.000000 0 0 1
1.498075 -25.120346 -13.395800 28.508305 -1.511231 2.059964 0.054171 -0.021056 1162810.000000 0 0 1
0.763475 -26.393516 -12.911700 29.392390 -1.541878 2.025601 0.049321 -0.014987 -764677.000000 0 0 1
1.098775 -27.512986 -13.663200 30.738489 -1.530881 2.031410 0.051054 -0.012881 31278.900000 0 0 1
0.598775 -28.687656 -13.094000 31.540339 -1.549927 1.998905 0.041788 -0.014903 526959.000000 0 0 1
-0.857625 -29.179836 -13.334100 32.093559 1.541414 1.999262 0.031146 -0.018027 1023780.000000 0 0 1
-1.956025 -28.424486 -12.845700 31.253631 1.502090 1.994363 0.033241 -0.016406 857651.000000 0 0 1
-3.243525 -28.957126 -13.189000 31.984141 1.459250 1.995840 0.037389 -0.017560 1358800.000000 0 0 1
-4.473825 -28.168986 -12.592600 31.178205 1.413291 1.986563 0.037988 -0.011145 715689.000000 0 0 1
-4.621425 -28.152146 -11.137700 30.625957 1.408089 1.943000 0.037809 -0.018378 -203263.000000 0 0 1
-5.042225 -29.375376 -10.619200 31.640230 1.400805 1.913063 0.037293 -0.014379 -575002.000000 0 0 1
-5.601825 -29.343016 -9.151200 31.243199 1.382158 1.868057 0.042569 -0.012066 -252655.000000 0 0 1
-6.956325 -29.007016 -9.017800 31.162768 1.335426 1.864373 0.044110 -0.008326 -513077.000000 0 0 1
-7.191625 -27.591196 -8.912400 29.873474 1.315820 1.873747 0.051076 -0.004562 156178.000000 0 0 1
-8.730225 -27.275356 -8.880500 29.983748 1.261023 1.871484 0.048576 -0.006338 1181130.000000 0 0 1
-9.522325 -27.432696 -10.087200 30.740512 1.236693 1.905130 0.059806 -0.011040 252793.000000 0 0 1
-9.586225 -28.761836 -10.564200 32.105159 1.249079 1.906094 0.052506 -0.013082 -1100260.000000 0 0 1
-10.921825 -29.155926 -11.189200 33.084021 1.212376 1.915806 0.078938 -0.013581 -311475.000000 0 0 1
-11.156225 -28.374246 -12.388400 32.909446 1.196182 1.956746 0.087763 -0.014840 53372.400000 0 0 1
-12.287025 -28.804366 -13.112800 33.950081 1.167598 1.967346 0.094349 -0.019174 -83466.700000 0 0 1
-12.551725 -27.924636 -14.353400 33.813476 1.148370 2.009192 0.093120 -0.021913 -109918.000000 0 0 1
-13.549025 -26.924856 -14.325600 33.372844 1.104579 2.014469 0.095283 -0.027973 -11397.100000 0 0 1
-13.286725 -25.799116 -13.524700 32.016385 1.095215 2.006922 0.091674 -0.022481 328300.000000 0 0 1
-14.163025 -24.575426 -14.003500 31.632907 1.047979 2.029390 0.111837 -0.021080 227902.000000 0 0 1
-13.652325 -23.851026 -15.099100 31.356661 1.050918 2.073193 0.105405 -0.024779 -68711.200000 0 0 1
-14.545925 -22.857226 -15.551000 31.238923 1.004054 2.091866 0.120093 -0.025599 -267811.000000 0 0 1
-14.256625 -22.347026 -16.924800 31.449797 1.002928 2.139040 0.112900 -0.023927 -413936.000000 0 0 1
-13.293825 -21.349126 -16.803400 30.246739 1.013862 2.159814 0.108612 -0.022623 -130987.000000 0 0 1
-13.100925 -20.637226 -17.987800 30.349469 1.005167 2.205190 0.080735 -0.025460 -284800.000000 0 0 1
-13.260525 -19.051426 -17.823100 29.265359 0.962734 2.225617 0.088658 -0.019087 53118.100000 0 0 1
-12.162125 -18.425226 -17.192300 27.981805 0.987368 2.232434 0.092467 -0.013401 175607.000000 0 0 1
-12.270525 -17.078926 -17.574300 27.406413 0.947788 2.266920 0.088244 -0.013175 823155.000000 0 0 1
-10.872625 -16.378426 -17.709400 26.459207 0.984754 2.304075 0.097875 -0.021903 537884.000000 0 0 1
-10.249225 -15.964726 -16.544600 25.172264 1.000071 2.287967 0.113596 -0.023074 129169.000000 0 0 1
-8.956525 -15.454326 -16.851400 24.556571 1.045551 2.327087 0.089839 -0.020021 -221623.000000 0 1 0
-8.218025 -14.819126 -15.643100 23.061851 1.064463 2.316257 0.073588 -0.018511 -176189.000000 0 1 0
-7.699125 -15.656426 -14.663400 22.790689 1.113767 2.269720 0.056281 -0.009600 809558.000000 0 1 0
-6.632725 -16.567926 -15.057100 23.349635 1.190001 2.271628 0.053231 0.000904 104858.000000 0 1 0
-6.137125 -17.326726 -13.834900 23.006177 1.230385 2.215993 0.041372 0.000369 -686961.000000 0 1 0
-5.514025 -16.506526 -12.866800 21.643114 1.248400 2.207438 0.030693 -0.006711 214306.000000 0 1 0
-5.324525 -17.114726 -11.596300 21.348034 1.269180 2.145043 0.022658 -0.014927 -59969.000000 0 1 0
-4.363125 -18.344526 -11.484900 22.078528 1.337291 2.117863 0.035904 -0.011659 1542700.000000 0 1 0
-2.961225 -17.904926 -11.494700 21.482163 1.406894 2.135400 0.031389 -0.005018 1229820.000000 0 1 0
-2.132825 -19.082826 -11.363900 22.312360 1.459492 2.105179 0.022339 0.007932 816563.000000 0 1 0
-0.699725 -18.761326 -11.883100 22.219024 1.533517 2.135087 0.016275 0.014798 -154916.000000 0 1 0
-0.441325 -18.687326 -13.284700 22.932382 1.547184 2.188664 0.024147 0.012937 -673320.000000 0 1 0
0.804375 -18.081926 -13.503100 22.581780 -1.526341 2.211755 0.029016 0.006340 152678.000000 0 1 0
1.937875 -19.102026 -13.843200 23.670170 -1.469694 2.195476 0.027123 0.004409 -414456.000000 0 1 0
1.771375 -19.970926 -14.980200 25.027626 -1.482330 2.212482 0.030791 0.004041 -232941.000000 0 0 1
1.012175 -21.101926 -14.711100 25.743586 -1.522867 2.179065 0.029788 0.000952 -640375.000000 0 0 1
0.907275 -22.109326 -15.927100 27.263858 -1.529783 2.194670 0.034177 -0.006399 430581.000000 0 0 1
2.101275 -22.843026 -16.242800 28.107788 -1.479067 2.186919 0.074114 -0.017170 -244098.000000 0 0 1
2.951175 -22.119226 -17.050100 28.083367 -1.438158 2.223233 0.079916 -0.016892 -132096.000000 0 0 1
4.397875 -22.715726 -17.029300 28.728776 -1.379557 2.205279 0.082887 -0.023844 373747.000000 0 0 1
4.472675 -23.824926 -17.881300 30.122629 -1.385225 2.206342 0.102962 -0.027232 185859.000000 0 0 1
5.835575 -24.167826 -18.048000 30.722436 -1.333871 2.198705 0.119661 -0.026134 384526.000000 0 0 1
6.491575 -23.857126 -19.433200 31.447611 -1.305126 2.236935 0.132166 -0.024300 90205.600000 0 0 1
6.681575 -22.459226 -19.610400 30.555328 -1.281636 2.267639 0.140016 -0.038642 -38577.500000 0 0 1
7.099775 -22.245226 -20.926400 31.355559 -1.261856 2.301495 0.148195 -0.035860 -87450.600000 0 0 1
7.056975 -20.695526 -21.233600 30.479033 -1.242170 2.341531 0.142321 -0.030524 246452.000000 0 0 1
5.834475 -20.043626 -21.552900 30.005258 -1.287535 2.372158 0.117216 -0.030445 1827.970000 0 0 1
5.959275 -18.661626 -21.665800 29.209179 -1.261698 2.406467 0.114459 -0.020880 -86437.900000 0 0 1
4.612875 -17.991026 -21.979000 28.775546 -1.319804 2.439989 0.104566 -0.016786 -717530.000000 0 0 1
3.998275 -18.500726 -23.198200 29.940266 -1.357955 2.457220 0.108002 -0.018256 283888.000000 0 0 1
3.134475 -17.632426 -23.923000 29.883730 -1.394866 2.498985 0.084940 -0.007373 642265.000000 0 0 1
1.829975 -17.241126 -23.172900 28.941122 -1.465052 2.499244 0.084435 0.004153 -444972.000000 0 0 1
2.066775 -16.281626 -22.143300 27.562450 -1.444532 2.503757 0.077538 -0.001909 -568797.000000 0 0 1
0.922075 -15.595726 -21.734700 26.767033 -1.511741 2.518359 0.061272 -0.011453 -374212.000000 0 0 1
1.160275 -14.922326 -20.366700 25.274978 -1.493198 2.507830 0.052185 -0.015292 983676.000000 0 0 1
2.332075 -14.050026 -20.492400 24.955566 -1.406312 2.534229 0.048354 -0.009355 1079080.000000 0 1 0
2.481175 -13.158926 -19.355700 23.536284 -1.384430 2.536373 0.041667 -0.017353 -363772.000000 0 1 0
3.755875 -12.340626 -19.477900 23.362068 -1.275353 2.556644 0.046721 -0.016302 -663503.000000 0 1 0
4.916575 -12.944126 -18.932700 23.455708 -1.207797 2.510135 0.043106 -0.024940 582873.000000 0 1 0
6.075475 -12.086926 -18.884400 23.229846 -1.105032 2.519974 0.048040 -0.020042 851956.000000 0 1 0
5.992375 -10.935526 -17.852000 21.775863 -1.069511 2.531870 0.038328 -0.024325 -224827.000000 0 1 0
5.127075 -9.798426 -18.109000 21.218669 -1.088718 2.593359 0.017622 -0.007063 548435.000000 0 1 0
5.630975 -8.907026 -19.159400 21.866083 -1.007040 2.638748 0.027824 -0.005297 -21773.300000 0 1 0
4.980875 -9.022426 -20.553400 22.992510 -1.066377 2.676806 0.046532 -0.017331 28117.800000 0 1 0
3.591075 -8.755926 -20.522000 22.598994 -1.181587 2.709505 0.042743 -0.025536 -155789.000000 0 1 0
2.969875 -9.238026 -21.711000 23.780849 -1.259748 2.721280 0.049408 -0.029110 739983.000000 0 1 0
1.424175 -9.023826 -21.686200 23.531871 -1.414264 2.742894 0.046756 -0.034938 446584.000000 0 1 0
0.958975 -7.717226 -21.875500 23.216647 -1.447166 2.800033 0.042803 -0.026680 -930930.000000 0 1 0
-0.436125 -7.794826 -21.893500 23.243813 1.514904 2.799059 0.040195 -0.026828 -482577.000000 0 1 0
-1.007625 -6.812526 -22.890900 23.904374 1.423953 2.849360 0.053276 -0.025305 -231486.000000 0 1 0
-0.623225 -7.210926 -24.181000 25.240971 1.484583 2.850762 0.066571 -0.025572 -300963.000000 0 0 1
-1.183225 -6.486626 -25.259930 26.106329 1.390370 2.886258 0.070307 -0.032595 -332184.000000 0 0 1
-0.631225 -5.080226 -25.609730 26.116382 1.447179 2.944297 0.075310 -0.031434 -55876.300000 0 0 1
-1.240325 -4.506826 -26.744100 27.149526 1.302235 2.968559 0.068581 -0.026550 -222532.000000 0 0 1
-0.786325 -3.220526 -27.028260 27.230808 1.331321 3.019548 0.055679 -0.022533 -716574.000000 0 0 1
-1.181825 -1.966026 -26.176970 26.277285 1.029551 3.054186 0.057923 -0.025693 -57751.100000 0 0 1
-2.532025 -1.619026 -25.989310 26.162504 0.568901 3.026464 0.047602 -0.025527 -30518.200000 0 0 1
-3.279325 -1.287926 -27.150690 27.378325 0.374233 3.012550 0.064356 -0.020024 292187.000000 0 0 1
-4.826925 -1.391126 -26.991140 27.454618 0.280597 2.957585 0.054256 -0.023065 673368.000000 0 0 1
-5.358325 -0.328326 -26.205730 26.749948 0.061197 2.939533 0.055248 -0.023767 193853.000000 0 0 1
-6.747425 -0.473326 -25.953310 26.820255 0.070034 2.886642 0.083662 -0.034543 -16767.300000 0 0 1
-7.446825 0.770774 -25.348840 26.431288 -0.103136 2.854414 0.074872 -0.034598 -797024.000000 0 0 1
-7.649825 1.854274 -26.281500 27.434930 -0.237808 2.850593 0.080643 -0.028471 -95950.300000 0 0 1
-8.479725 1.668374 -27.418020 28.747818 -0.194267 2.836246 0.108970 -0.037028 498113.000000 0 0 1
-9.971925 1.397174 -27.016460 28.831935 -0.139205 2.784830 0.116180 -0.036694 40812.200000 0 0 1
-10.982925 2.049374 -27.770540 29.933718 -0.184475 2.759093 0.112247 -0.047715 1265070.000000 0 0 1
-12.289325 1.573774 -27.386820 30.058978 -0.127367 2.716748 0.069431 -0.030647 494446.000000 0 0 1
-13.488725 1.968174 -28.212840 31.333428 -0.144890 2.691501 0.042057 -0.020708 -971503.000000 0 0 1
-14.677325 1.291574 -27.842590 31.500823 -0.087772 2.654866 0.023099 -0.013660 -35256.000000 0 0 1
-15.787925 1.777574 -28.548240 32.671399 -0.112119 2.633757 0.011711 -0.004177 -477166.000000 0 0 1
-16.509525 2.973474 -27.870370 32.529425 -0.178196 2.599778 0.015241 0.002361 -858060.000000 0 0 1
-15.945225 4.271274 -27.888480 32.407735 -0.261727 2.607145 0.036273 -0.008742 -118440.000000 0 0 1
-15.653925 4.932974 -29.090120 33.400818 -0.305276 2.627909 0.020320 -0.006351 -104883.000000 0 0 1
-16.813925 5.626174 -29.869640 34.735533 -0.322903 2.605901 0.002644 0.005652 410573.000000 0 0 1
-17.387625 6.786574 -29.167680 34.628610 -0.372126 2.572333 0.017439 0.008537 -35651.100000 0 0 1
-18.279425 7.488774 -29.942040 35.871226 -0.388826 2.558401 0.015782 0.005710 -710282.000000 0 0 1
-19.054325 8.514374 -29.105910 35.815023 -0.420229 2.519521 0.014913 -0.001145 -565337.000000 0 0 1
-18.215925 9.506474 -28.642940 35.250687 -0.480996 2.519310 0.026522 -0.001810 43211.700000 0 0 1
-18.927725 10.496774 -27.921120 35.327467 -0.506346 2.482179 0.050310 -0.002031 40600.900000 0 0 1
-9.130625 25.093074 30.744175 40.721431 -1.221819 0.715161 0.020985 -0.006818 -1113720.000000 0 0 1
-9.590325 26.411474 30.768645 41.668331 -1.222488 0.740075 0.022762 -0.001478 -106816.000000 0 0 1
-8.879725 27.199674 31.668925 42.680119 -1.255241 0.734738 0.034199 -0.011475 1477750.000000 0 0 1
-7.408525 27.670074 31.245605 42.388761 -1.309187 0.741998 0.030988 -0.009424 1425120.000000 0 0 1
-7.523125 28.689274 30.295725 42.396967 -1.314343 0.774783 0.040173 -0.005752 403736.000000 0 0 1
-6.230525 28.923374 29.760725 41.965245 -1.358624 0.782468 0.042650 -0.002401 191594.000000 0 0 1
-6.259725 30.168974 28.880395 42.230657 -1.366210 0.817739 0.058382 -0.003038 -167052.000000 0 0 1
-6.331325 31.392574 29.667845 43.655016 -1.371784 0.823582 0.064437 -0.011355 278794.000000 0 0 1
-6.193025 32.535474 28.855945 43.926941 -1.382700 0.854086 0.069613 -0.015268 -69867.300000 0 0 1
-6.484125 33.882374 29.629355 45.474804 -1.381711 0.861163 0.063472 -0.018498 358501.000000 0 0 1
-5.532925 34.109974 30.685215 46.213483 -1.409989 0.844656 0.079397 -0.020650 497830.000000 0 0 1
-6.178625 -33.548107 31.819075 46.648734 1.388665 0.820167 0.079404 -0.026119 92076.200000 0 0 1
-7.062525 33.740074 32.648813 47.478593 -1.364454 0.812544 0.064497 -0.030708 -335937.000000 0 0 1
-6.473225 32.831974 33.547175 47.384112 -1.376131 0.784157 0.080899 -0.024973 -165877.000000 0 0 1
-6.879525 31.467174 33.374483 46.382831 -1.355558 0.767651 0.066154 -0.015227 -100845.000000 0 0 1
-6.715825 30.744374 -33.416510 45.901873 -1.355734 2.386195 0.063526 -0.018015 565171.000000 0 0 1
-5.358725 30.548474 -33.010900 45.295085 -1.397146 2.387359 0.055474 -0.009749 289567.000000 0 0 1
-5.261225 30.204174 -31.644300 44.060576 -1.398338 2.372008 0.074369 -0.012936 476238.000000 0 0 1
-3.840625 29.782174 -31.143240 43.262336 -1.442547 2.374411 0.065214 -0.019162 629562.000000 0 0 1
-3.271025 28.501174 -31.569310 42.657213 -1.456528 2.403970 0.065036 -0.011482 462359.000000 0 0 1
-2.869325 28.348474 -32.933100 43.548342 -1.469924 2.428347 0.066578 -0.009147 -329254.000000 0 0 1
-2.278325 26.946974 -33.223300 42.838275 -1.486448 2.458385 0.059237 -0.018841 91093.100000 0 0 1
-0.955925 26.739374 -32.710630 42.259830 -1.535062 2.455987 0.069224 -0.020683 825103.000000 0 0 1
-0.390425 25.447274 -33.013020 41.684238 -1.555455 2.484839 0.066217 -0.017268 392526.000000 0 0 1
-0.020525 25.150974 33.662509 42.020667 -1.569980 0.641675 0.061696 -0.016073 -693489.000000 0 0 1
-1.202625 24.984274 32.942566 41.362699 -1.522698 0.649425 0.064579 -0.008597 -122559.000000 0 0 1
-0.949325 24.972074 31.525465 40.228853 -1.532799 0.670271 0.083450 -0.011124 73922.600000 0 0 1
-0.612525 26.366074 30.914865 40.635870 -1.547569 0.706286 0.052935 -0.013376 -381314.000000 0 0 1
-1.714225 27.210374 30.835985 41.160673 -1.507881 0.724001 0.043799 -0.013959 -182554.000000 0 0 1
-1.281625 28.444074 30.330525 41.601066 -1.525769 0.753819 0.039372 -0.010971 387234.000000 0 0 1
-2.459525 29.457574 30.357705 42.372021 -1.487496 0.772087 0.051661 -0.014837 141714.000000 0 0 1
-2.682125 29.904974 31.643335 43.621118 -1.481347 0.759162 0.052467 -0.016382 -355351.000000 0 0 1
-3.362025 31.101074 31.652055 44.502052 -1.463115 0.779522 0.072985 -0.014988 -325181.000000 0 0 1
-2.923825 31.956274 32.901083 45.959041 -1.479556 0.772915 0.074138 -0.009498 616421.000000 0 0 1
-1.551225 32.312274 32.836596 46.094809 -1.522826 0.777926 0.066430 -0.017281 196861.000000 0 0 1
-0.934325 32.808274 34.018639 47.270748 -1.542326 0.767491 0.057423 -0.015343 605257.000000 0 0 1
0.546575 33.257574 33.901083 47.493667 1.554363 0.775884 0.057955 -0.023130 306520.000000 0 0 1
0.657575 -33.693707 33.240198 47.335072 -1.551283 0.792269 0.075067 -0.019915 503315.000000 0 0 1
1.995775 -33.229707 33.066869 46.921364 -1.510808 0.788755 0.064675 -0.023751 417874.000000 0 0 1
2.131775 -31.732607 32.722166 45.631600 -1.503718 0.771172 0.069571 -0.026750 -365903.000000 0 0 1
1.712575 -30.893107 33.750960 45.786944 -1.515417 0.741982 0.066720 -0.023500 153909.000000 0 0 1
1.720375 -29.593807 33.204635 44.511806 -1.512729 0.728801 0.057881 -0.028462 -317699.000000 0 0 1
1.236075 -28.495107 -34.024724 44.397982 -1.527445 2.443948 0.056097 -0.025956 -368809.000000 0 0 1
-0.151425 -28.450907 -33.843960 44.214145 1.565474 2.442545 0.044676 -0.018364 -219246.000000 0 0 1
-0.560125 -27.411007 -32.958270 42.871023 1.550365 2.447723 0.053809 -0.013665 -961102.000000 0 0 1
-1.990725 -27.545607 -32.526160 42.669363 1.498652 2.437631 0.058992 -0.019045 -1081000.000000 0 0 1
-2.317525 -26.900507 -31.353240 41.376731 1.484857 2.430655 0.064034 -0.012464 632942.000000 0 0 1
-3.697325 -26.504007 -31.357760 41.224285 1.432190 2.435129 0.071389 -0.028863 641948.000000 0 0 1
-4.063125 -25.940107 -29.977350 39.850215 1.415424 2.422268 0.075340 -0.033239 -577989.000000 0 0 1
-4.020025 -26.995707 -29.008440 39.829868 1.422969 2.386647 0.080484 -0.026733 -4574.590000 0 0 1
-4.313825 -26.494907 -27.702050 38.574509 1.409395 2.371928 0.076632 -0.027621 -222790.000000 0 0 1
-3.147625 -25.947807 -26.867680 37.484243 1.450080 2.369959 0.074991 -0.029184 -31591.700000 0 0 1
-2.566825 -24.733807 -27.434340 37.026920 1.467389 2.405250 0.085116 -0.029253 -225197.000000 0 0 1
-1.640525 -24.166307 -26.599910 35.975782 1.503016 2.402951 0.080881 -0.029992 -1443710.000000 0 0 1
-0.809825 -23.109607 -27.344180 35.810807 1.535768 2.439625 0.070028 -0.020425 632327.000000 0 0 1
0.178375 -23.416507 -28.349700 36.770506 -1.563179 2.451191 0.051106 -0.033025 297243.000000 0 0 1
1.158575 -24.321707 -27.962810 37.078383 -1.523197 2.425161 0.063897 -0.031364 -1162260.000000 0 0 1
1.931175 -24.872207 -29.176900 38.388118 -1.493308 2.434187 0.041024 -0.032350 -135312.000000 0 0 1
2.869975 -23.906807 -29.582950 38.143454 -1.451320 2.458415 0.055718 -0.034266 78929.100000 0 0 1
3.692275 -24.366007 -30.672440 39.346331 -1.420407 2.464744 0.060400 -0.030819 373418.000000 0 0 1
4.690975 -23.169307 -31.083690 39.051476 -1.371032 2.491400 0.075307 -0.037049 196872.000000 0 0 1
5.873575 -23.002907 -30.330490 38.517155 -1.320798 2.477464 0.069901 -0.036164 279937.000000 0 0 1
6.882775 -23.976007 -30.342080 39.279299 -1.291244 2.453518 0.061485 -0.027470 -515506.000000 0 0 1
7.565375 -24.368507 -31.647600 40.652547 -1.269774 2.463053 0.068289 -0.021584 -1056350.000000 0 0 1
6.764575 -25.175507 -32.464160 41.635169 -1.308300 2.465030 0.048088 -0.025866 -228838.000000 0 0 1
6.984075 -24.985707 -33.852680 42.650519 -1.298230 2.487701 0.065282 -0.024321 63699.700000 0 0 1
6.392975 -23.672407 33.712197 41.686511 -1.307028 0.628845 0.053972 -0.019755 409099.000000 0 0 1
4.973175 -23.581907 33.776633 41.493370 -1.362952 0.619748 0.061827 -0.025466 439964.000000 0 0 1
4.473375 -22.352707 33.186988 40.262027 -1.373279 0.601876 0.064248 -0.026041 -21651.400000 0 0 1
2.970575 -22.103307 33.401214 40.162440 -1.437202 0.588718 0.046065 -0.028169 -24935.300000 0 0 1
2.091275 -23.058407 32.826240 40.169959 -1.480349 0.614288 0.043580 -0.030326 84055.000000 0 0 1
1.550175 -23.903107 33.838766 41.458698 -1.506035 0.615986 0.047524 -0.024291 456439.000000 0 0 1
0.098075 -24.399007 33.534830 41.471749 -1.566777 0.628996 0.044333 -0.023909 481699.000000 0 0 1
0.058075 -25.338607 32.482064 41.196272 -1.568504 0.662477 0.052457 -0.021067 -268530.000000 0 0 1
-1.268025 -25.534707 32.068695 41.012563 1.521178 0.673051 0.050052 -0.032221 -400269.000000 0 0 1
-1.393725 -26.429407 30.822125 40.625846 1.518111 0.709508 0.042257 -0.044518 -256357.000000 0 0 1
-2.711325 -26.712707 30.443985 40.592563 1.469643 0.722751 0.045210 -0.042813 -316068.000000 0 0 1
-2.690725 -27.726707 29.458755 40.544155 1.474055 0.757459 0.054919 -0.049637 598865.000000 0 0 1
-4.111125 -27.982107 28.882095 40.423694 1.424920 0.774910 0.057432 -0.036419 1125790.000000 0 0 1
-5.138925 -28.617107 29.687195 41.553302 1.393115 0.774978 0.055400 -0.031493 847598.000000 0 0 1
-6.187525 -29.056707 28.823985 41.393233 1.360984 0.800504 0.039934 -0.027476 84838.100000 0 0 1
-7.283725 -29.811207 29.605425 42.640848 1.331163 0.803353 0.041134 -0.025628 -577776.000000 0 0 1
-8.380925 -30.217107 28.838265 42.602335 1.300240 0.827230 0.063680 -0.023594 1341010.000000 0 0 1
-9.691925 -30.130807 29.487385 43.258581 1.259587 0.820775 0.056509 -0.019973 1385560.000000 0 0 1
-9.976625 -31.040007 30.725655 44.800457 1.259813 0.815048 0.045079 -0.008990 -956616.000000 0 0 1
-9.930325 -32.417207 30.496605 45.601859 1.273543 0.838259 0.055893 -0.013105 506823.000000 0 0 1
-10.876325 -32.939307 29.563855 45.577559 1.251875 0.864988 0.051360 -0.011461 -105513.000000 0 0 1
-10.582325 33.868374 29.141735 45.916153 -1.267953 0.883211 0.059449 -0.008672 -365991.000000 0 0 1
-10.632625 32.972874 30.219015 45.972296 -1.258858 0.853525 0.050875 -0.006933 322311.000000 0 0 1
-10.090925 31.681274 29.898365 44.715122 -1.262442 0.838417 0.052900 -0.008184 17568.600000 0 0 1
-10.577825 30.570274 30.823435 44.682392 -1.237675 0.809537 0.038524 0.000072 1321740.000000 0 0 1
-11.995825 30.268374 30.638215 44.707656 -1.193470 0.815779 0.043074 0.005868 1606820.000000 0 0 1
-12.535025 29.160974 31.394305 44.644055 -1.164820 0.790889 0.033788 -0.003300 244122.000000 0 0 1
-12.513225 29.339474 32.913932 45.833530 -1.167658 0.769701 0.047747 -0.014567 -552071.000000 0 0 1
-13.324225 30.391274 33.410325 47.089429 -1.157612 0.781997 0.041320 -0.005468 235661.000000 0 0 1
-13.583625 30.132874 -33.402840 46.992070 -1.147285 2.361458 0.046670 -0.012534 153295.000000 0 0 1
-15.031325 30.440774 -32.932290 47.298173 -1.112130 2.340984 0.032989 -0.005896 180680.000000 0 0 1
-15.294625 29.835574 -31.741780 46.169553 -1.097095 2.328843 0.019247 -0.007150 -27201.200000 0 0 1
-16.550125 30.163674 -31.157440 46.417022 -1.068969 2.306691 0.035198 -0.009089 327549.000000 0 0 1
-16.853525 29.453174 -29.801950 45.162894 -1.051058 2.291451 0.044125 -0.009139 -318956.000000 0 0 1
-17.060025 28.059674 -29.746660 44.308617 -1.024522 2.306827 0.035174 -0.012798 102529.000000 0 0 1
-17.053625 27.706974 -28.383730 43.175672 -1.019058 2.288161 0.032118 -0.008810 -408787.000000 0 0 1
-17.527125 26.272174 -28.056250 42.244294 -0.982469 2.297143 0.014086 -0.013715 -380701.000000 0 0 1
-18.904325 26.149574 -28.252790 42.888155 -0.944846 2.289959 0.020962 -0.014528 -713004.000000 0 0 1
-19.363225 24.865974 -27.827730 42.043236 -0.909177 2.294125 0.017141 -0.013393 1491360.000000 0 0 1
-20.927625 24.628874 -28.069390 42.806980 -0.866465 2.285932 0.043061 -0.011030 1070640.000000 0 0 1
-21.640825 25.053274 -26.935130 42.678953 -0.858349 2.253780 0.042856 -0.013949 -98254.200000 0 0 1
-22.872325 24.356674 -27.077230 43.006595 -0.816817 2.251843 0.073404 -0.020367 102029.000000 0 0 1
-23.862825 24.392574 -25.891650 42.834678 -0.796376 2.219878 0.100372 -0.029205 -373651.000000 0 0 1
-24.426125 25.668674 -25.723400 43.785953 -0.810197 2.198738 0.063751 -0.011891 -201442.000000 0 0 1
-25.732065 25.665674 -25.191310 44.220675 -0.784106 2.176904 0.072948 -0.009669 156878.000000 0 0 1
-25.903385 25.199574 -23.717900 43.226643 -0.771627 2.151589 0.063653 -0.010045 -865481.000000 0 0 1
-25.835925 23.826374 -23.440000 42.244819 -0.744956 2.158992 0.053066 -0.016642 -566960.000000 0 0 1
-27.034645 23.123374 -23.292500 42.521794 -0.707577 2.150502 0.045926 -0.010326 -413740.000000 0 0 1
-27.840005 23.300074 -21.939000 42.417909 -0.696856 2.114385 0.044973 -0.010484 328869.000000 0 0 1
-27.142775 22.922274 -20.709900 41.122510 -0.701297 2.098574 0.040015 -0.017261 619992.000000 0 0 1
-26.067965 23.798374 -20.405100 40.770939 -0.739916 2.094951 0.041879 -0.008340 2398.660000 0 0 1
-25.147285 23.506774 -19.232000 39.431259 -0.751693 2.080290 0.050767 -0.016309 182112.000000 0 0 1
-25.866025 23.614774 -18.015500 39.386127 -0.739932 2.045874 0.030716 -0.015374 375832.000000 0 0 1
-24.890325 23.590374 -16.993900 38.273054 -0.758591 2.030874 0.053681 -0.020347 -73410.400000 0 0 1
-25.408695 23.668174 -15.538500 38.042466 -0.749948 1.991553 0.047109 -0.017065 -582108.000000 0 0 1
-25.597375 25.016674 -15.231800 38.898166 -0.773926 1.973146 0.052810 -0.025693 36331.300000 0 0 1
-25.902745 25.152074 -13.823300 38.660867 -0.770696 1.936442 0.019594 -0.022701 15189.800000 0 0 1
-25.867865 26.657574 -13.205000 39.422642 -0.800432 1.912359 0.020334 -0.018426 512056.000000 0 0 1
-24.578725 27.281774 -13.281200 39.048677 -0.837473 1.917840 0.029045 -0.025305 497678.000000 0 0 1
-24.460525 28.380974 -12.423300 39.473223 -0.859455 1.890966 0.019107 -0.013437 14492.100000 0 0 1
-23.037625 28.602474 -11.865900 38.595767 -0.892746 1.883298 0.030516 -0.020592 -135374.000000 0 0 1
-22.542725 27.555574 -11.049700 37.277070 -0.885126 1.871739 0.036445 -0.019676 -380803.000000 0 0 1
-21.366725 27.909374 -10.403000 36.656411 -0.917401 1.858549 0.030771 -0.018040 -821199.000000 0 0 1
-20.500725 26.753574 -9.842500 35.112793 -0.916957 1.854914 0.067134 -0.016557 -79731.700000 0 0 1
-19.897425 25.970674 -10.820400 34.459606 -0.917039 1.890202 0.068702 -0.019834 265912.000000 0 0 1
-19.196425 24.836774 -10.280900 33.031273 -0.912798 1.887302 0.070992 -0.012911 -57099.800000 0 0 1
-18.640325 23.891974 -11.323200 32.349698 -0.908251 1.928394 0.075524 -0.017833 -55564.100000 0 0 1
-18.291225 22.613974 -10.767600 31.014544 -0.890685 1.925358 0.060658 -0.016632 420485.000000 0 0 1
-17.630225 21.628674 -11.586500 30.213761 -0.886896 1.964362 0.077697 -0.016978 374917.000000 0 0 1
-17.449025 20.263774 -10.929400 28.888420 -0.859896 1.958790 0.066497 -0.009857 -568089.000000 0 0 1
-18.628725 19.550674 -10.804000 29.085815 -0.809541 1.951369 0.047118 0.000415 -649773.000000 0 0 1
-18.379725 18.272974 -10.328000 27.899524 -0.782486 1.950005 0.076151 -0.011881 -972767.000000 0 0 1
-19.568125 17.353074 -10.397400 28.145099 -0.725476 1.949183 0.072147 0.000772 -601324.000000 0 0 1
-19.934725 16.868274 -11.664600 28.600608 -0.702270 1.990888 0.053802 0.003997 297267.000000 0 0 1
-20.663925 17.735274 -12.573200 29.993717 -0.709277 2.003354 0.049666 0.008079 149796.000000 0 0 1
-21.311025 17.019974 -13.793600 30.563094 -0.673915 2.039035 0.055362 0.002481 175120.000000 0 0 1
-20.385625 16.639974 -14.781500 30.182034 -0.684577 2.082594 0.071794 -0.000780 523086.000000 0 0 1
-21.138325 16.126274 -15.873300 30.965257 -0.651702 2.109026 0.067685 -0.003893 910877.000000 0 0 1
-20.133625 15.959874 -17.059800 30.840188 -0.670272 2.156958 0.099008 -0.019739 519940.000000 0 0 1
-19.545425 17.194774 -17.481200 31.357236 -0.721505 2.162150 0.077352 -0.022433 492152.000000 0 0 1
-18.609325 16.899974 -18.524200 31.225984 -0.737297 2.205862 0.076133 -0.022827 -715246.000000 0 0 1
-17.769025 18.028674 -19.020200 31.662901 -0.792651 2.215184 0.059975 -0.016509 -605443.000000 0 0 1
-16.653525 18.163374 -18.162000 30.612192 -0.828736 2.205940 0.074280 -0.017141 58707.900000 0 0 1
-15.961525 19.385774 -18.368900 31.112618 -0.881971 2.202351 0.071550 -0.008131 29875.000000 0 0 1
33.910502 29.841674 2.679500 45.250717 0.721662 1.511547 0.071873 -0.014371 137078.000000 0 0 1
35.142682 30.238874 2.080400 46.408250 0.710535 1.525953 0.089308 -0.018657 279037.000000 0 0 1
34.932962 30.775574 0.780700 46.562402 0.722212 1.554029 0.079546 -0.010036 99634.300000 0 0 1
36.217122 30.974774 -0.059800 47.656271 0.707535 1.572051 0.061590 -0.008422 -168154.000000 0 0 1
-36.231995 31.875574 0.360100 48.259085 -0.721521 1.563334 0.042856 -0.002830 154831.000000 0 0 1
-35.030071 31.643574 -0.397500 47.207835 -0.734650 1.579217 0.044439 0.000920 -140060.000000 0 0 1
-33.996145 32.638074 0.049500 47.127319 -0.765020 1.569746 0.022332 0.002906 -800534.000000 0 0 1
-33.370915 32.372074 1.287800 46.510510 -0.770206 1.543104 0.025394 -0.002594 -68861.900000 0 0 1
-32.957355 33.636574 1.769600 47.124705 -0.795597 1.533236 0.006593 -0.001031 -386417.000000 0 0 1
-32.155065 33.478374 3.060500 46.520064 -0.805558 1.504960 0.029264 -0.003297 -181054.000000 0 0 1
-31.845845 -33.505307 3.665200 46.370218 0.810786 1.491672 0.029106 0.003745 218352.000000 0 0 1
-31.139395 -33.659307 4.896900 46.114970 0.824267 1.464407 0.051721 -0.008446 -352063.000000 0 0 1
-30.928505 -32.354007 5.665600 45.115997 0.807920 1.444885 0.062689 -0.004516 14061.800000 0 0 1
-32.083405 -31.746807 6.225700 45.562747 0.780125 1.433727 0.070506 -0.004823 327714.000000 0 0 1
-32.745305 -32.434707 7.285800 46.662062 0.780633 1.414015 0.058688 -0.014420 -358393.000000 0 0 1
-33.896575 -31.563407 7.877800 46.981764 0.749771 1.402323 0.056118 -0.014797 2273840.000000 0 0 1
-35.274518 -31.411407 7.365700 47.803992 0.727533 1.416099 0.033172 -0.008597 2214710.000000 0 0 1
-35.926144 -32.648307 7.163400 49.070501 0.737635 1.424291 0.029066 -0.010432 -1054780.000000 0 0 1
35.981442 -32.649507 6.957500 49.082189 -0.736888 1.428565 0.022229 -0.005127 -656557.000000 0 0 1
35.218352 -32.772707 8.089200 48.783376 -0.749444 1.404208 0.012758 0.001128 -377639.000000 0 0 1
33.835652 -32.757507 7.833400 47.741677 -0.769210 1.405972 -0.000218 0.013176 9273.700000 0 0 1
32.974082 -32.658007 9.098900 47.292975 -0.780582 1.377195 -0.011633 0.001913 -527424.000000 0 0 1
31.592162 -32.469007 8.972700 46.182361 -0.799085 1.375264 0.004202 0.001507 9711.240000 0 0 1
30.904702 -32.363407 10.209800 45.899137 -0.808450 1.346480 0.008833 -0.006105 -225578.000000 0 0 1
31.064852 -31.122007 11.086000 45.348691 -0.786317 1.323832 -0.001504 0.001665 -912520.000000 0 0 1
30.550122 -29.915907 10.675300 44.070778 -0.774910 1.326132 0.005931 -0.008823 -69048.300000 0 0 1
31.070102 -29.272407 9.531400 43.738686 -0.755615 1.351117 0.015998 -0.006888 -345309.000000 0 0 1
30.462492 -27.897007 9.228300 42.324555 -0.741466 1.350994 0.023796 -0.010924 -268636.000000 0 0 1
30.806992 -27.350807 7.984000 41.962860 -0.726040 1.379366 0.029854 -0.017537 -23099.000000 0 0 1
30.085292 -26.183407 7.653900 40.611301 -0.716165 1.381195 0.026541 -0.011671 -344083.000000 0 0 1
30.352842 -25.651707 6.242200 40.227729 -0.701652 1.414995 0.015874 -0.000034 -452864.000000 0 0 1
31.619472 -25.178207 5.922000 40.850988 -0.672473 1.425318 0.026814 -0.003075 -690393.000000 0 0 1
31.648422 -24.837207 4.556000 40.487858 -0.665394 1.458030 0.032824 -0.002291 168423.000000 0 0 1
33.063532 -24.372807 4.124500 41.282471 -0.635227 1.470720 0.044983 -0.011233 574659.000000 0 0 1
33.926622 -25.477507 3.887900 42.605573 -0.644115 1.479416 0.045241 -0.003049 -866715.000000 0 0 1
35.268722 -25.191007 3.771100 43.505066 -0.620232 1.484006 0.072227 -0.019400 -722322.000000 0 0 1
36.226802 -26.374307 3.701100 44.963134 -0.629293 1.488389 0.076414 -0.017489 -192505.000000 0 0 1
36.063652 -27.315007 4.756300 45.489768 -0.648227 1.466047 0.052888 -0.013580 33273.200000 0 0 1
36.579082 -28.630707 4.486500 46.667712 -0.664107 1.474510 0.049708 -0.009908 -779425.000000 0 0 1
35.706782 -29.567707 5.363500 46.668948 -0.691624 1.455615 0.043569 -0.008268 689916.000000 0 0 1
34.464132 -29.930507 4.742800 45.892328 -0.715110 1.467265 0.035290 -0.004804 530735.000000 0 0 1
33.475682 -28.927007 4.938700 44.517230 -0.712635 1.459628 0.023259 -0.000901 -1831910.000000 0 0 1
32.296942 -29.338907 5.856800 44.024607 -0.737443 1.437366 0.017813 0.003164 399621.000000 0 0 1
31.260612 -30.170907 5.326300 43.770755 -0.767661 1.448808 -0.003901 -0.001827 499489.000000 0 0 1
30.510582 -29.510507 4.301700 42.664625 -0.768738 1.469799 0.019301 -0.001189 -792642.000000 0 0 1
29.121992 -30.104107 4.025500 42.077932 -0.801979 1.474982 0.027247 0.002335 141582.000000 0 0 1
29.344862 -31.301407 3.343400 43.035768 -0.817649 1.493029 0.033092 0.005020 276750.000000 0 0 1
28.213162 -32.171907 3.429700 42.927578 -0.850863 1.490816 0.047284 0.002945 -219648.000000 0 0 1
28.482902 -33.557307 2.832300 44.106581 -0.867009 1.506537 0.049656 -0.008317 -150765.000000 0 0 1
28.404762 -33.591207 1.427400 44.014056 -0.868862 1.538360 0.057972 -0.009564 113478.000000 0 0 1
28.634502 33.337174 0.941300 43.956660 0.861137 1.549380 0.061423 -0.006486 -54292.400000 0 0 1
28.369852 33.209474 -0.591400 43.681431 0.863829 1.584336 0.066868 -0.013259 439527.000000 0 0 1
29.334362 33.966174 -1.341700 44.899955 0.858440 1.600683 0.053275 -0.012874 449266.000000 0 0 1
28.893992 33.973174 -2.674800 44.678786 0.866015 1.630699 0.075440 -0.015372 434153.000000 0 0 1
29.917522 -33.677707 -3.719700 45.200467 -0.844456 1.653183 0.054724 -0.008546 381040.000000 0 0 1
30.004582 -32.315507 -3.560700 44.240768 -0.822463 1.651368 0.038194 -0.010038 -401524.000000 0 0 1
30.873672 -31.739007 -4.454700 44.501602 -0.799218 1.671066 0.048337 -0.010428 -585856.000000 0 0 1
30.953632 -30.197207 -4.223700 43.449261 -0.773029 1.668160 0.036775 -0.006778 -564056.000000 0 0 1
29.765492 -29.484507 -4.485100 42.135932 -0.780656 1.677442 0.028115 -0.016821 -306632.000000 0 0 1
29.878132 -28.104807 -4.716300 41.289544 -0.754824 1.685271 0.028610 -0.007834 12567.600000 0 0 1
30.830392 -27.492907 -5.801400 41.713658 -0.728237 1.710325 0.061277 -0.007602 -866275.000000 0 0 1
32.153322 -27.511807 -5.369200 42.656347 -0.707762 1.697002 0.068376 -0.010068 -679083.000000 0 0 1
33.045452 -26.912207 -6.328300 43.084988 -0.683460 1.718209 0.073932 -0.017278 317489.000000 0 0 1
33.382112 -27.819107 -7.618200 44.116948 -0.694750 1.744348 0.082398 -0.002512 -368461.000000 0 0 1
32.258742 -28.145707 -8.446800 43.636632 -0.717412 1.765597 0.082786 -0.007033 146690.000000 0 0 1
32.392542 -29.247507 -9.339700 44.630969 -0.734420 1.781620 0.068064 -0.002316 -43103.100000 0 0 1
32.549182 -30.680807 -8.822700 45.591679 -0.755858 1.765541 0.052195 0.002866 -251376.000000 0 0 1
33.682112 -31.053607 -8.101500 46.523601 -0.744817 1.745826 0.067215 -0.008871 -985433.000000 0 0 1
33.604852 -32.373207 -7.653600 47.285180 -0.766733 1.733372 0.064069 -0.017715 250801.000000 0 0 1
34.961212 -33.079307 -7.386500 48.693811 -0.757747 1.723077 0.057781 -0.015469 100059.000000 0 0 1
34.937462 33.850074 -6.760600 49.113740 0.769592 1.708887 0.052913 -0.014181 -186238.000000 0 0 1
34.449882 33.845474 -5.417100 48.596867 0.776548 1.682499 0.052952 -0.013973 -302432.000000 0 0 1
34.191232 32.460974 -4.863000 47.396244 0.759444 1.673580 0.044312 -0.012031 -92197.700000 0 0 1
33.039702 31.812174 -5.356000 46.177084 0.766472 1.687046 0.078296 -0.026415 -7848.240000 0 0 1
33.033772 30.486874 -4.953900 45.224117 0.745324 1.680558 0.082330 -0.016921 -600355.000000 0 0 1
31.836352 29.720974 -5.440800 43.891821 0.751047 1.695075 0.107452 -0.025619 -599155.000000 0 0 1
31.741812 29.704474 -6.835800 44.007120 0.752254 1.726762 0.091020 -0.023189 -1493670.000000 0 0 1
30.732112 28.916674 -7.210300 42.809172 0.754972 1.740032 0.089134 -0.021997 -1201530.000000 0 0 1
30.770042 28.536274 -8.689700 42.855867 0.747751 1.774978 0.085743 -0.014801 387086.000000 0 0 1
31.727602 27.490274 -8.961700 42.926309 0.713965 1.781113 0.069503 -0.011938 411927.000000 0 0 1
32.021342 27.273874 -10.360800 43.319473 0.705504 1.812309 0.068290 -0.008273 207481.000000 0 0 1
33.083082 28.196274 -11.019400 44.843588 0.705820 1.819069 0.056579 -0.010043 -256135.000000 0 0 1
34.419892 27.806674 -10.745600 45.534690 0.679519 1.809031 0.056289 -0.011722 1115230.000000 0 0 1
35.446832 28.766974 -11.113900 46.984417 0.681746 1.809604 0.048162 -0.009936 694539.000000 0 0 1
35.459522 30.068574 -10.272100 47.613159 0.703314 1.788247 0.043431 -0.018266 -689711.000000 0 0 1
36.129402 29.990574 -8.986800 47.807226 0.692820 1.759901 0.050495 -0.014913 324981.000000 0 0 1
36.043462 31.239974 -8.313500 48.416747 0.714127 1.743359 0.040557 -0.018984 -767116.000000 0 0 1
-36.351755 31.364974 -7.193400 48.548498 -0.711889 1.719513 0.019515 -0.006986 937279.000000 0 0 1
-34.953505 31.470874 -7.518400 47.630765 -0.733016 1.729307 0.039453 -0.007653 936801.000000 0 0 1
-34.293636 30.301774 -8.012100 46.459065 -0.723679 1.744118 0.046263 -0.007150 833395.000000 0 0 1
-32.838105 30.709474 -8.546700 45.765260 -0.751914 1.758650 0.065445 -0.011105 1448900.000000 0 0 1
-32.018745 31.286474 -7.537900 45.396733 -0.773831 1.737614 0.062520 -0.007087 -236190.000000 0 0 1
-30.753925 31.750074 -7.920000 44.906542 -0.801334 1.748090 0.066164 -0.013276 -52805.100000 0 0 1
-30.656075 33.123774 -8.771200 45.977313 -0.824070 1.762745 0.049160 -0.007009 -337947.000000 0 0 1
-30.932115 -33.925107 -7.960400 46.594812 0.831513 1.742482 0.035761 -0.005663 502525.000000 0 0 1
-29.936435 -33.596107 -6.961700 45.534095 0.842938 1.724288 0.061275 -0.021663 407322.000000 0 0 1
-30.086845 -32.182807 -6.331900 44.508923 0.819045 1.713542 0.041823 -0.013430 237280.000000 0 0 1
-31.082495 -32.052407 -5.318000 44.963979 0.800759 1.689346 0.039344 -0.023022 110808.000000 0 0 1
-30.907235 -32.857307 -4.166400 45.301420 0.815971 1.662897 0.052021 -0.025606 -324738.000000 0 0 1
-32.177855 -32.892107 -3.303400 46.132607 0.796374 1.642464 0.031534 -0.020159 -294897.000000 0 0 1
-32.579695 -31.621207 -2.830700 45.490110 0.770470 1.633063 0.012785 -0.012461 -17650.000000 0 0 1
-33.487945 -31.636707 -1.759000 46.102253 0.756980 1.608960 0.025170 -0.008979 -187228.000000 0 0 1
-34.080407 -30.268907 -1.438300 45.604271 0.726236 1.602340 0.049720 -0.006267 -159045.000000 0 0 1
-35.210423 -30.374107 -0.600500 46.505062 0.711790 1.583709 0.053729 -0.003582 -205038.000000 0 0 1
-35.843336 -29.130707 -0.377400 46.189666 0.682451 1.578967 0.077883 -0.012768 529755.000000 0 0 1
36.475952 -29.267707 0.750600 46.772397 -0.676193 1.554748 0.081692 -0.005839 295783.000000 0 0 1
35.279372 -29.879507 0.317700 46.233321 -0.702715 1.563925 0.045487 0.004343 -239417.000000 0 0 1
34.254822 -29.962507 1.255900 45.527156 -0.718657 1.543207 0.046222 -0.000163 132269.000000 0 0 1
33.313092 -28.707807 1.320500 43.995954 -0.711280 1.540778 0.033363 0.010384 -318001.000000 0 0 1
32.241042 -28.772107 0.404000 43.214374 -0.728604 1.561447 0.033093 0.003230 215060.000000 0 0 1
31.539912 -27.501007 0.326900 41.847082 -0.717096 1.562984 0.033849 -0.000990 -118877.000000 0 0 1
30.208822 -27.409507 -0.463400 40.792999 -0.736853 1.582156 0.024420 0.001506 -168828.000000 0 0 1
29.128332 -28.059207 0.135500 40.444990 -0.766705 1.567446 0.021728 0.012162 -369555.000000 0 0 1
29.194962 -29.463707 0.245900 41.479107 -0.789980 1.564868 0.027445 0.006559 -1326090.000000 0 0 1
28.722992 -30.245107 -1.012000 41.722906 -0.811205 1.595054 0.023408 0.010216 -178534.000000 0 0 1
27.368362 -30.079807 -1.365100 40.690116 -0.832561 1.604351 0.026247 0.009146 -269152.000000 0 0 1
27.170362 -30.453307 -2.682000 40.900191 -0.842309 1.636418 0.024038 0.003951 -644071.000000 0 0 1
25.730662 -30.619007 -3.147500 40.118541 -0.871932 1.649332 0.022627 0.001907 -180355.000000 0 0 1
24.989662 -29.397107 -3.045600 38.703343 -0.866260 1.649569 0.035638 0.006462 225065.000000 0 0 1
23.598262 -29.677107 -3.100700 38.042384 -0.899009 1.652393 0.036897 -0.003729 265412.000000 0 0 1
22.664462 -28.485507 -3.315000 36.552581 -0.898714 1.661612 0.030205 -0.002207 5038.290000 0 0 1
22.735062 -27.978507 -4.658600 36.350825 -0.888425 1.699306 0.032639 0.003197 349224.000000 0 0 1
22.071762 -26.684007 -4.643200 34.939350 -0.879716 1.704084 0.029313 -0.003262 118251.000000 0 0 1
21.599562 -26.209507 -6.060000 34.499318 -0.881525 1.747368 0.034919 -0.021401 1311360.000000 0 0 1
20.150662 -26.292107 -6.137300 33.689620 -0.916872 1.753991 0.035418 -0.020021 1031290.000000 0 0 1
19.723962 -25.929407 -7.482900 33.426974 -0.920495 1.796568 0.055440 -0.023219 750692.000000 0 0 1
18.178162 -26.089807 -7.649100 32.705234 -0.962253 1.806863 0.054382 -0.021996 829722.000000 0 0 1
17.455262 -25.087907 -6.941200 31.341179 -0.962919 1.794120 0.036527 -0.019176 649994.000000 0 0 1
16.085962 -25.401107 -6.682700 30.799885 -1.006266 1.789507 0.044393 -0.021186 597762.000000 0 0 1
15.370362 -24.512007 -5.678200 29.484377 -1.010721 1.764590 0.032156 -0.007486 -291202.000000 0 0 1
15.773462 -24.860607 -4.365600 29.764246 -1.005412 1.718000 0.028221 -0.002223 38723.600000 0 0 1
15.158062 -24.067607 -3.435400 28.649931 -1.008744 1.690995 0.039495 0.001594 -317159.000000 0 0 1
15.216362 -24.665007 -1.992300 29.049432 -1.018028 1.639433 0.029665 -0.002863 -71539.600000 0 0 1
14.582562 -25.914007 -1.959000 29.799741 -1.058233 1.636583 0.041386 -0.003163 94983.800000 0 0 1
14.985562 -26.704407 -0.914700 30.635422 -1.059422 1.600658 0.035504 -0.007043 -332662.000000 0 0 1
14.616962 -28.190507 -1.165500 31.776070 -1.092453 1.607483 0.040486 -0.007461 1173710.000000 0 0 1
13.238862 -28.518407 -0.856700 31.453155 -1.136179 1.598037 0.052758 -0.013714 1373610.000000 0 0 1
12.655462 -29.793907 -1.232900 32.393790 -1.169123 1.608865 0.055376 -0.012782 109884.000000 0 0 1
13.261062 -31.046607 -0.589600 33.765296 -1.167120 1.588259 0.048873 -0.008746 -48792.500000 0 0 1
14.357362 -31.535907 -1.332300 34.675961 -1.143568 1.609227 0.044667 -0.002154 -58351.700000 0 0 1
15.015162 -32.735607 -0.909300 36.026405 -1.140748 1.596039 0.046274 -0.005523 -521894.000000 0 0 1
16.309362 -32.878907 -1.702300 36.741198 -1.110319 1.617145 0.035795 -0.003354 -673463.000000 0 0 1
17.238562 -31.971407 -1.144900 36.340744 -1.076293 1.602306 0.031689 0.012271 -1303210.000000 0 0 1
18.370562 -31.870207 -1.903800 36.834930 -1.047897 1.622504 0.023225 0.007689 -1186500.000000 0 0 1
19.204262 -30.710107 -1.281600 36.243025 -1.011952 1.606165 0.019458 0.007967 -229718.000000 0 0 1
18.735062 -29.417107 -1.528400 34.909952 -1.003702 1.614592 0.023984 0.001018 278860.000000 0 0 1
19.288362 -28.620907 -0.483400 34.517110 -0.977785 1.584801 0.020248 0.003026 -150818.000000 0 0 1
18.908962 -27.078407 -0.539600 33.031502 -0.961209 1.587133 0.017129 0.003256 -253315.000000 0 0 1
19.397762 -26.314807 -1.655100 32.733493 -0.935575 1.621381 0.016428 -0.003677 185099.000000 0 0 1
18.687162 -26.496007 -2.870200 32.549754 -0.956534 1.659090 0.022023 -0.002005 -144512.000000 0 0 1
32.862432 -29.263507 13.975800 46.169419 -0.727533 1.263265 -0.013724 0.001133 244213.000000 0 0 1
33.634852 -29.787207 15.039900 47.379105 -0.724805 1.247770 0.002037 0.011633 332168.000000 0 0 1
32.776602 -30.171907 16.139800 47.382937 -0.744044 1.223215 -0.007681 0.016007 79604.000000 0 0 1
33.520802 -30.555107 17.436000 48.592930 -0.739147 1.203795 0.003134 0.008730 -556226.000000 0 0 1
32.759172 -31.037307 18.514100 48.777553 -0.758415 1.181474 0.005729 -0.004056 1033990.000000 0 0 1
33.658382 -31.384007 19.646500 50.038261 -0.750445 1.167307 -0.000593 -0.006515 1118790.000000 0 0 1
34.433842 -32.763807 19.556200 51.396512 -0.760551 1.180463 -0.008413 -0.008159 -676914.000000 0 0 1
35.451712 -32.740307 18.619900 51.724774 -0.745658 1.202550 -0.001757 0.006852 -523932.000000 0 0 1
36.033812 -34.021407 18.523000 52.905513 -0.756680 1.213103 0.010012 -0.005142 -599418.000000 0 0 1
-36.335815 -34.035007 17.403200 52.740350 0.752714 1.234515 0.013306 -0.002147 -1031650.000000 0 0 1
-35.191918 -33.361807 17.811000 51.659587 0.758708 1.218796 0.033341 -0.005336 -686330.000000 0 0 1
-34.294989 -33.327207 16.719100 50.659424 0.771088 1.234462 0.042160 0.003934 1156780.000000 0 0 1
-32.895955 -32.652507 17.184800 49.433262 0.781684 1.215747 0.042185 -0.001492 1781000.000000 0 0 1
-31.892715 -32.504907 16.181600 48.327615 0.794904 1.229370 0.064120 -0.009176 220292.000000 0 0 1
-32.174765 -31.550607 15.151300 47.541752 0.775604 1.246444 0.071312 -0.011830 -342824.000000 0 0 1
-31.020845 -31.411607 14.133200 46.354387 0.791657 1.260969 0.071024 -0.014228 -23436.800000 0 0 1
-29.777705 -31.235307 14.754100 45.607451 0.809284 1.241368 0.064371 -0.014613 -350396.000000 0 0 1
-28.735475 -30.943107 13.818400 44.431425 0.822373 1.254546 0.065961 -0.007054 354406.000000 0 0 1
-27.403575 -30.793007 14.579200 43.723200 0.843574 1.230843 0.067990 -0.021371 -14525.100000 0 0 1
-26.305105 -30.476907 13.742800 42.540157 0.858737 1.241841 0.071901 -0.020169 -1026100.000000 0 0 1
-25.263655 -30.063507 14.540500 41.874728 0.871935 1.216172 0.067002 -0.020397 -411611.000000 0 0 1
-23.935925 -29.861207 13.750700 40.665734 0.895097 1.225857 0.088683 -0.018316 257531.000000 0 0 1
-23.505825 -30.934907 12.989700 40.966139 0.921022 1.248143 0.096976 -0.032321 87875.900000 0 0 1
-22.185325 -30.769607 12.493300 39.937950 0.946106 1.252638 0.097696 -0.032169 177792.000000 0 0 1
-21.639825 -32.155907 12.124000 40.611276 0.978445 1.267636 0.094897 -0.033117 -491918.000000 0 0 1
-22.238825 -32.760307 11.048100 41.107950 0.974417 1.298693 0.073670 -0.028351 -222291.000000 0 0 1
-22.125325 34.051674 11.012500 42.075191 -0.994592 1.305978 0.083707 -0.025189 104709.000000 0 0 1
-23.128825 33.432074 10.005300 41.865883 -0.965585 1.329476 0.064725 -0.015571 115445.000000 0 0 1
-22.792725 33.666174 8.636700 41.563351 -0.975659 1.361475 0.060693 -0.013995 -472048.000000 0 0 1
-23.904525 33.338774 7.866600 41.770606 -0.948739 1.381336 0.053894 -0.006086 -798480.000000 0 0 1
-23.668025 33.499074 6.352800 41.505679 -0.955703 1.417134 0.053956 -0.009693 -35731.200000 0 0 1
-22.808225 32.615274 5.620500 40.194045 -0.960533 1.430502 0.045686 -0.012335 786998.000000 0 0 1
-21.431825 32.547374 5.997200 39.428683 -0.988482 1.418101 0.042621 -0.014876 449755.000000 0 0 1
-20.491325 33.748274 5.651500 39.884582 -1.025113 1.428621 0.058610 -0.021828 -342218.000000 0 0 1
-20.524325 -33.269507 6.415800 39.614019 1.018035 1.408122 0.064934 -0.023867 44188.600000 0 0 1
-20.035525 -33.448807 7.730800 39.749342 1.031119 1.375060 0.069106 -0.027690 -480135.000000 0 0 1
-19.959625 -32.091607 8.464400 38.728593 1.014388 1.350461 0.073134 -0.033398 -457160.000000 0 0 1
-18.893425 -31.251807 8.057800 37.397394 1.027035 1.353629 0.082652 -0.044015 -55369.500000 0 0 1
-18.868925 -29.982707 8.678900 36.473584 1.009092 1.330541 0.082524 -0.041726 166384.000000 0 0 1
-18.398625 -29.999307 10.187400 36.636743 1.020654 1.289017 0.088909 -0.035785 -327661.000000 0 0 1
-17.019625 -30.195907 10.164700 36.121760 1.057541 1.285543 0.086762 -0.044220 -596412.000000 0 0 1
-16.354725 -30.116107 11.436100 36.128123 1.073300 1.248714 0.107532 -0.036202 1397120.000000 0 0 1
-14.937425 -30.816107 11.502900 36.125833 1.119441 1.246742 0.106542 -0.034431 1061990.000000 0 0 1
-13.885725 -30.118907 10.885200 34.906296 1.138808 1.253667 0.087305 -0.029435 9283.510000 0 0 1
-12.907325 -31.025407 10.362700 35.164761 1.176553 1.271665 0.090082 -0.024318 84439.900000 0 0 1
-11.667925 -30.413807 9.713500 33.992531 1.204473 1.281003 0.084113 -0.018628 -161309.000000 0 0 1
-10.886225 -29.780307 10.713000 33.468566 1.220335 1.244970 0.077279 -0.019069 -517375.000000 0 0 1
-9.795525 -29.139407 10.087700 32.354583 1.246503 1.253724 0.080734 -0.019145 226874.000000 0 0 1
-8.910625 -28.362807 11.087600 31.729843 1.266395 1.213826 0.081542 -0.008108 -163049.000000 0 0 1
-9.651925 -27.492507 11.857800 31.457988 1.233164 1.184305 0.074265 -0.014595 -774562.000000 0 0 1
-8.945325 -26.958807 12.950000 31.216960 1.250413 1.143031 0.072445 -0.006475 -174341.000000 0 0 1
-9.590825 -25.728207 13.612300 30.646684 1.213978 1.110550 0.076447 -0.020382 132886.000000 0 0 1
-9.177325 -24.469907 13.057700 29.214776 1.211986 1.107437 0.072012 -0.019146 -72269.000000 0 0 1
-9.745225 -24.142807 11.806000 28.587168 1.187148 1.145070 0.068018 -0.014118 119389.000000 0 0 1
-8.996725 -22.924907 11.239100 27.070460 1.196821 1.142656 0.066626 -0.019761 -667894.000000 0 0 1
-7.807625 -23.165707 10.598700 26.644726 1.245719 1.161702 0.054420 -0.020243 -1232040.000000 0 0 1
-7.314225 -21.967407 10.083800 25.253670 1.249384 1.160043 0.056446 -0.011299 -517416.000000 0 0 1
-6.113525 -22.215107 9.207400 24.812545 1.302247 1.190626 0.054369 -0.006057 664189.000000 0 1 0
-4.852225 -22.538807 9.834900 25.065258 1.358750 1.167588 0.044365 -0.019572 365304.000000 0 0 1
-3.805025 -22.780207 8.946400 24.768006 1.405292 1.201233 0.047561 -0.012470 298315.000000 0 1 0
-2.673525 -23.541607 9.717900 25.608447 1.457715 1.181562 0.056932 -0.019064 294718.000000 0 0 1
-1.851225 -22.762407 10.559100 25.160461 1.489647 1.137714 0.050515 -0.017279 -1317610.000000 0 0 1
-0.779925 -23.520707 10.912300 25.940513 1.537649 1.136617 0.052558 -0.023153 -777138.000000 0 0 1
0.184575 -22.947407 11.966300 25.880686 -1.562753 1.090137 0.056657 -0.022356 -342832.000000 0 0 1
-0.365725 -22.952007 13.278000 26.518553 1.554863 1.046382 0.060326 -0.019139 141467.000000 0 0 1
0.469775 -22.552807 14.412300 26.768716 -1.549969 1.002258 0.071719 -0.022140 34769.100000 0 0 1
1.165775 -21.209007 14.335100 25.625692 -1.515886 0.977130 0.050005 -0.019683 202460.000000 0 0 1
2.279875 -21.199607 13.436300 25.202288 -1.463665 1.008491 0.052379 -0.017859 38330.100000 0 0 1
2.472675 -19.893907 13.018400 23.903146 -1.447137 0.994847 0.034666 -0.014726 -740207.000000 0 1 0
3.851675 -19.679707 12.440300 23.598460 -1.377521 1.015535 0.032538 -0.013682 -713096.000000 0 1 0
4.161175 -20.223407 11.191200 23.484985 -1.367868 1.074098 0.044576 -0.009666 -1954770.000000 0 1 0
5.512575 -20.136607 11.090800 23.640585 -1.303584 1.082477 0.063433 -0.017463 -1558750.000000 0 1 0
6.102075 -20.844607 9.885800 23.863403 -1.286012 1.143660 0.076840 -0.026372 -597546.000000 0 1 0
5.827375 -20.279107 8.608400 22.788265 -1.290977 1.183425 0.074807 -0.029267 -329129.000000 0 1 0
6.109775 -21.199307 7.531200 23.312206 -1.290194 1.241837 0.078449 -0.030978 70689.100000 0 1 0
7.567075 -21.659407 7.250600 24.061624 -1.234686 1.264704 0.078650 -0.020770 214192.000000 0 1 0
8.459975 -20.757107 6.553400 23.353281 -1.183781 1.286356 0.083530 -0.032244 462149.000000 0 1 0
8.990975 -19.641807 7.245700 22.784609 -1.141519 1.247168 0.087604 -0.026813 -51956.500000 0 1 0
9.899175 -19.972407 8.456300 23.841135 -1.110641 1.208210 0.076096 -0.020749 -225571.000000 0 1 0
9.187575 -20.213107 9.650700 24.209858 -1.144177 1.160777 0.082377 -0.018684 -866243.000000 0 1 0
10.050775 -20.074407 10.719300 24.877767 -1.106608 1.125330 0.072210 -0.006744 43979.400000 0 1 0
9.312775 -19.953707 12.100600 25.125738 -1.134126 1.068315 0.076097 -0.012045 105503.000000 0 0 1
9.072175 -21.226907 12.643600 26.320079 -1.166903 1.069710 0.056471 -0.016457 -211506.000000 0 0 1
8.453575 -21.196907 13.896800 26.718773 -1.191315 1.023812 0.063137 -0.020402 43764.300000 0 0 1
8.751475 -22.477007 14.663400 28.227991 -1.199503 1.024574 0.049882 -0.010273 362904.000000 0 0 1
8.265375 -23.638707 13.953300 28.667045 -1.234430 1.062446 0.058393 -0.014671 -113436.000000 0 0 1
8.622975 -24.782607 14.683400 30.068847 -1.235954 1.060626 0.062030 -0.020166 56950.700000 0 0 1
8.477875 -26.123107 13.944600 30.801671 -1.256985 1.100980 0.071202 -0.027981 310279.000000 0 0 1
9.567475 -26.564607 13.153100 31.148338 -1.225100 1.134845 0.052173 -0.017599 54765.900000 0 0 1
9.121475 -27.604907 12.330400 31.579597 -1.251661 1.169671 0.055487 -0.021260 239242.000000 0 0 1
10.358875 -28.110807 11.555300 32.109947 -1.217735 1.202671 0.033715 -0.019484 7956.090000 0 0 1
11.247775 -28.803007 12.357200 33.299040 -1.198500 1.190605 0.029132 -0.019146 -348079.000000 0 0 1
12.455075 -29.121907 11.704700 33.767060 -1.166652 1.216820 0.034878 -0.019959 494804.000000 0 0 1
13.508675 -29.857007 12.629200 35.120106 -1.145910 1.202957 0.044687 -0.025341 -456217.000000 0 0 1
14.135475 -29.118807 13.667900 35.135852 -1.118863 1.171249 0.039236 -0.018704 278557.000000 0 0 1
14.953375 -29.910807 14.535900 36.463025 -1.107203 1.160755 0.062375 -0.021616 -124730.000000 0 0 1
16.291375 -30.282807 13.892800 37.087292 -1.077233 1.186834 0.064116 -0.020176 -1415950.000000 0 0 1
17.143475 -29.178507 13.956600 36.606976 -1.039591 1.179643 0.053642 -0.022790 1928400.000000 0 0 1
18.495875 -29.386607 13.369200 37.207601 -1.009041 1.203264 0.060750 -0.024400 2117510.000000 0 0 1
19.233575 -28.038107 13.291500 36.506573 -0.969542 1.198146 0.045336 -0.025642 -379710.000000 0 0 1
20.468575 -28.069007 12.635100 36.965896 -0.940725 1.221960 0.036006 -0.024013 -24789.500000 0 0 1
21.073475 -26.781407 12.609800 36.336513 -0.904113 1.216396 0.034148 -0.028078 -536265.000000 0 0 1
22.449675 -26.659507 11.959400 36.847585 -0.870913 1.240246 0.040723 -0.015430 -170966.000000 0 0 1
23.439275 -27.394207 12.688900 38.221073 -0.863043 1.232387 0.056664 -0.023247 -339776.000000 0 0 1
24.530775 -27.601907 11.871600 38.788646 -0.844240 1.259746 0.038188 -0.030098 -1423280.000000 0 0 1
25.570375 -28.565507 12.400600 40.294009 -0.840668 1.257966 0.037508 -0.025974 -829728.000000 0 0 1
26.676975 -28.061607 13.072000 40.865535 -0.810688 1.245195 0.025195 -0.018511 -757489.000000 0 0 1
27.804475 -28.008207 12.223300 41.315343 -0.789048 1.270447 0.003547 -0.010024 -113607.000000 0 0 1
29.062975 -27.816507 13.141800 42.321643 -0.763487 1.255054 0.032197 -0.009969 -44867.000000 0 0 1
29.391975 -26.534507 13.651800 41.884841 -0.734349 1.238794 0.055916 -0.011016 -622245.000000 0 0 1
28.496175 -25.947107 14.471900 41.166980 -0.738612 1.211579 0.052695 -0.016987 -1121450.000000 0 0 1
29.130175 -25.561207 15.836900 41.865855 -0.720234 1.182862 0.033466 -0.006509 -92121.800000 0 0 1
29.635675 -26.636707 16.643000 43.183062 -0.732155 1.175149 0.036637 -0.007512 413480.000000 0 0 1
29.999375 -26.258007 17.962500 43.727530 -0.718991 1.147484 0.040566 -0.001408 -474546.000000 0 0 1
30.399875 -27.455007 18.851200 45.092101 -0.734541 1.139488 0.033827 0.001012 -400247.000000 0 0 1
29.454375 -28.468307 19.013900 45.161190 -0.768376 1.136223 0.021983 0.002537 -489761.000000 0 0 1
29.891875 -29.474207 19.919700 46.465552 -0.778363 1.127745 0.045321 -0.011470 -141395.000000 0 0 1
28.797575 -30.416707 20.422400 46.599902 -0.812735 1.117146 0.034085 -0.006937 -909532.000000 0 0 1
27.894275 -29.876907 21.384100 46.130249 -0.819703 1.088789 0.017061 0.005947 1074700.000000 0 0 1
26.677375 -30.598507 21.659300 46.011697 -0.853752 1.080673 0.015533 0.004155 1700610.000000 0 0 1
25.704875 -30.860007 20.424400 45.058149 -0.876284 1.100344 0.042430 -0.002513 -396656.000000 0 0 1
26.133575 -32.045807 19.797200 45.845683 -0.886671 1.124284 0.046194 -0.010018 12332.900000 0 0 1
25.616575 -32.308807 18.508400 45.195451 -0.900420 1.148869 0.058251 -0.004338 -366708.000000 0 0 1
25.957575 -31.329107 17.327900 44.221768 -0.878891 1.168165 0.051732 -0.008347 253015.000000 0 0 1
27.295975 -31.589907 16.905600 45.042111 -0.858189 1.186045 0.048079 -0.014446 328430.000000 0 0 1
27.572975 -30.618707 15.921900 44.173307 -0.837690 1.202055 0.043790 -0.028268 -166391.000000 0 0 1
29.068675 -30.442407 15.567000 44.878274 -0.808478 1.216563 0.038010 -0.013333 151775.000000 0 0 1
29.755075 -31.365407 14.715600 45.669488 -0.811739 1.242723 0.080461 -0.016366 442789.000000 0 0 1
30.027075 -32.629507 15.310100 46.911716 -0.826909 1.238346 0.100237 -0.023415 -134494.000000 0 0 1
29.094275 -33.789307 14.784400 46.976298 -0.859922 1.250634 0.086431 -0.027471 172756.000000 0 0 1
29.316175 -34.021507 13.409700 46.869192 -0.859552 1.280633 0.080439 -0.022301 358244.000000 0 0 1
28.389075 33.319374 12.791100 45.604085 0.865125 1.286501 0.059031 -0.033354 -102937.000000 0 0 1
28.690575 33.175774 11.294600 45.291822 0.857770 1.318763 0.067774 -0.038888 -525137.000000 0 0 1
29.898375 32.506574 11.048100 45.526374 0.827169 1.325674 0.049300 -0.025167 52036.000000 0 0 1
30.035475 32.034674 9.748800 44.982099 0.817596 1.352337 0.051128 -0.029471 -986253.000000 0 0 1
31.380775 31.397174 9.522100 45.400507 0.785659 1.359492 0.034647 -0.019978 -805008.000000 0 0 1
31.626875 30.385874 10.490100 45.095485 0.765389 1.336026 0.028038 -0.014462 -174611.000000 0 0 1
32.948675 29.917374 10.547200 45.737380 0.737217 1.338098 0.035244 -0.013736 -195345.000000 0 0 1
33.263375 28.945574 11.666600 45.611489 0.716101 1.312140 0.024117 -0.013862 -15220.200000 0 0 1
32.851875 27.597574 11.481900 44.415153 0.698695 1.309314 0.041220 -0.015649 287696.000000 0 0 1
33.209275 26.887574 12.655500 44.564103 0.680592 1.282850 0.053584 -0.020978 22061.900000 0 0 1
33.043575 25.411174 12.458800 43.506636 0.655563 1.280365 0.051001 -0.029252 485614.000000 0 0 1
34.002375 24.932674 11.491600 43.701907 0.632703 1.304713 0.060774 -0.025745 659109.000000 0 0 1
34.414675 23.555774 11.631500 43.295914 0.600226 1.298804 0.076023 -0.028741 412687.000000 0 0 1
33.358775 22.574074 10.957300 41.742774 0.594921 1.305189 0.061019 -0.026413 951548.000000 0 0 1
32.166575 22.512174 11.723900 40.974826 0.610634 1.280617 0.079427 -0.036474 332066.000000 0 0 1
31.012275 22.319074 10.912100 39.736334 0.623816 1.292609 0.076699 -0.026017 457933.000000 0 0 1
29.769075 21.796974 11.678100 38.699922 0.632013 1.264258 0.071068 -0.018145 195002.000000 0 0 1
29.253375 22.736074 12.596600 39.132638 0.660691 1.243066 0.065445 -0.007975 -323009.000000 0 0 1
27.879375 22.492074 12.772100 38.029982 0.678852 1.228296 0.094036 -0.001921 468.049000 0 0 1
23.926675 9.351674 25.739785 36.365865 0.372591 0.784416 0.017950 -0.011164 -307606.000000 0 0 1
23.693975 8.075674 26.168865 36.213678 0.328484 0.763206 0.026821 -0.014329 998453.000000 0 0 1
22.275775 7.926274 26.376805 35.422759 0.341855 0.730818 0.033767 -0.017723 457145.000000 0 0 1
21.974675 6.553874 27.040585 35.454659 0.289847 0.703349 0.041895 -0.022016 -331309.000000 0 0 1
22.508175 6.473374 28.324045 36.752878 0.280043 0.690917 0.050796 -0.022597 1048.110000 0 0 1
23.867075 6.213974 28.562395 37.736735 0.254703 0.712262 0.043912 -0.021070 -434873.000000 0 0 1
24.142575 5.952674 30.008525 38.971911 0.241742 0.691949 0.047007 -0.022783 -382088.000000 0 0 1
24.104475 7.152174 30.758015 39.727004 0.288441 0.685292 0.051639 -0.018820 313064.000000 0 0 1
24.239875 6.893274 32.158011 40.856168 0.277063 0.664698 0.046894 -0.009558 -65811.200000 0 0 1
24.230775 8.151174 33.074489 41.803038 0.324506 0.658031 0.065644 -0.005613 217404.000000 0 0 1
25.377475 8.961774 32.897963 42.504184 0.339468 0.685672 0.043409 -0.003972 111809.000000 0 0 1
25.492475 9.779174 -34.062805 43.655163 0.366298 2.465893 0.052901 -0.000316 302040.000000 0 0 1
26.598975 10.869874 33.987487 44.506280 0.387947 0.701839 0.040236 0.001704 71199.300000 0 0 1
26.131475 12.097574 33.470500 44.152912 0.433571 0.710465 0.038940 0.000744 336437.000000 0 0 1
26.135875 13.080474 -33.640100 44.562755 0.464031 2.426287 0.044714 -0.008016 -327512.000000 0 0 1
25.659275 14.464574 -34.063289 45.032543 0.513314 2.428611 0.045823 -0.012949 -191121.000000 0 0 1
26.636475 15.128174 33.279712 45.231656 0.516520 0.744006 0.046873 -0.018267 525857.000000 0 0 1
26.417475 16.483074 32.960626 45.342889 0.557841 0.756971 0.052075 -0.022215 -135402.000000 0 0 1
26.941675 17.459774 -34.059621 46.805506 0.575009 2.385736 0.042053 -0.032935 -192907.000000 0 0 1
26.409275 17.270174 -32.765050 45.489089 0.579142 2.375008 0.046316 -0.038609 490804.000000 0 0 1
27.385275 16.787074 -31.817820 45.212087 0.549921 2.351453 0.044528 -0.037733 12840.300000 0 0 1
26.727175 16.312474 -30.507690 43.716792 0.547983 2.343185 0.049971 -0.033839 -126099.000000 0 0 1
26.025175 15.119674 -30.749530 43.028454 0.526304 2.366895 0.052430 -0.029559 -206622.000000 0 0 1
25.023075 14.968074 -29.781060 41.678641 0.539073 2.366763 0.065485 -0.031766 -255387.000000 0 0 1
24.288075 13.631074 -29.888590 40.853942 0.511420 2.391457 0.058391 -0.022132 -340438.000000 0 0 1
23.344575 13.608174 -30.964080 41.096543 0.527771 2.424086 0.063481 -0.028113 458962.000000 0 0 1
22.861275 12.302574 -31.226220 40.608719 0.493692 2.447999 0.055186 -0.005665 -229426.000000 0 0 1
22.049775 11.444574 -30.219780 39.120404 0.478758 2.453536 0.057991 -0.005577 -1251010.000000 0 0 1
20.848975 12.098674 -30.083210 38.549413 0.525809 2.466070 0.060354 -0.007557 -630828.000000 0 0 1
19.954875 11.516174 -29.151430 37.156765 0.523419 2.472770 0.055927 0.003382 292346.000000 0 0 1
18.668275 12.290774 -28.764770 36.427732 0.582242 2.481017 0.057629 -0.010046 -130483.000000 0 0 1
17.701775 12.174374 -29.768690 36.711621 0.602456 2.516449 0.042328 -0.003593 508486.000000 0 0 1
16.429375 12.577274 -29.210480 35.796150 0.653370 2.525293 0.040539 -0.023233 -77435.300000 0 0 1
15.491375 13.206874 -30.248640 36.460725 0.705961 2.549228 0.039128 -0.017135 -106595.000000 0 0 1
14.794175 12.308274 -31.108820 36.580321 0.693932 2.587589 0.036143 -0.011811 444318.000000 0 0 1
13.622475 11.779874 -30.458080 35.384063 0.712988 2.607607 0.045728 -0.018288 -173130.000000 0 0 1
12.634875 11.232574 -31.512090 35.760629 0.726712 2.649180 0.050140 -0.012118 -265341.000000 0 0 1
12.155675 12.196474 -32.325560 36.625896 0.787074 2.652134 0.063988 -0.012914 -140169.000000 0 0 1
11.140975 11.652274 -33.168130 36.878472 0.807826 2.689169 0.070886 -0.010659 498988.000000 0 0 1
10.501175 12.756074 -34.078698 37.872810 0.882051 2.690152 0.079253 -0.009073 164806.000000 0 0 1
11.401575 13.162674 33.064421 37.369879 0.856969 0.484757 0.064724 0.000147 362248.000000 0 0 1
10.736075 13.743274 31.954945 36.404112 0.907632 0.499580 0.071312 -0.001389 -471125.000000 0 0 1
11.581275 13.778574 30.697115 35.584939 0.871827 0.530324 0.069069 -0.001773 -146678.000000 0 0 1
11.993275 12.446074 30.341035 34.918789 0.803923 0.517815 0.055449 -0.002963 226749.000000 0 0 1
11.579575 12.299674 28.978465 33.542808 0.815545 0.527785 0.087309 -0.003942 -286878.000000 0 0 1
12.222275 11.133574 28.213505 32.700800 0.738818 0.530059 0.093655 0.004710 12146.900000 0 0 1
11.725275 9.861174 28.577725 32.425471 0.699257 0.492115 0.075515 -0.010247 300239.000000 0 0 1
12.256875 8.865474 27.735185 31.592216 0.626197 0.499312 0.073999 -0.016790 -212281.000000 0 0 1
11.605675 7.508174 28.154555 31.364683 0.574221 0.456385 0.059523 -0.002312 1613310.000000 0 0 1
10.207275 7.464474 27.719195 30.467370 0.631419 0.427996 0.049738 -0.018370 905236.000000 0 0 1
9.556075 6.250874 27.842675 30.093297 0.579270 0.389203 0.040645 -0.026264 -303991.000000 0 0 1
10.182475 4.984674 27.216035 29.482916 0.455240 0.394700 0.029972 -0.017816 -499740.000000 0 0 1
10.901175 4.220174 28.132105 30.464091 0.369363 0.393817 0.040087 -0.014523 -111293.000000 0 0 1
11.178775 2.900474 27.609415 29.927539 0.253865 0.396179 0.022977 -0.010787 59847.700000 0 0 1
11.764475 1.883174 28.688935 31.064517 0.158726 0.393618 0.022698 -0.002882 -115003.000000 0 0 1
10.843275 1.672674 29.695335 31.657343 0.153053 0.353913 0.026677 -0.000506 -475440.000000 0 0 1
10.802875 0.328274 30.251895 32.124555 0.030378 0.343130 0.037273 0.003712 -316819.000000 0 0 1
9.766775 0.188174 31.333955 32.821366 0.019264 0.302208 0.058401 0.009330 -212248.000000 0 0 1
10.159875 0.996174 32.417699 33.987095 0.097737 0.305077 0.044533 -0.000725 186539.000000 0 0 1
9.021575 1.172174 33.226791 34.449709 0.129206 0.267248 0.056859 -0.003562 73916.700000 0 0 1
9.303075 2.352374 -33.979510 35.308469 0.247668 2.866358 0.056537 -0.008626 21213.400000 0 0 1
9.299275 3.675374 33.636087 35.090900 0.376390 0.288957 0.040175 -0.006834 928841.000000 0 0 1
10.449375 4.043874 32.824859 34.684488 0.369247 0.328943 0.035995 -0.005672 473335.000000 0 0 1
10.242175 5.376474 32.031495 34.056208 0.483396 0.346557 0.040459 -0.010386 128135.000000 0 0 1
10.096075 6.557774 32.808656 34.947719 0.576050 0.351688 0.045418 -0.013300 42041.700000 0 0 1
10.177275 7.644674 31.930105 34.373676 0.644238 0.379334 0.046705 -0.013555 -232297.000000 0 0 1
10.246375 9.011974 32.687748 35.421642 0.721389 0.395462 0.070664 -0.025747 175643.000000 0 0 1
9.079375 9.512874 33.320669 35.821737 0.808710 0.375893 0.074342 -0.023584 18485.500000 0 0 1
8.573775 8.741674 -33.756220 35.908340 0.795094 2.793621 0.072840 -0.020103 -1250300.000000 0 0 1
7.221675 9.056274 -33.211590 35.173547 0.897629 2.806016 0.071823 -0.017847 -1007680.000000 0 0 1
6.674375 8.087574 -32.342330 33.999742 0.880840 2.828067 0.070514 -0.019649 -539332.000000 0 0 1
5.320875 8.331474 -32.107410 33.594805 1.002443 2.842912 0.080926 -0.021356 -376884.000000 0 0 1
4.934275 7.698174 -30.769490 32.099384 1.000797 2.852733 0.069793 -0.016242 -342523.000000 0 0 1
5.513775 8.386474 -29.652130 31.304688 0.989194 2.815217 0.075067 -0.022682 118596.000000 0 0 1
5.219375 7.824874 -28.390880 29.908403 0.982547 2.821674 0.069183 -0.020896 498822.000000 0 0 1
3.719175 7.817274 -27.935560 29.246154 1.126725 2.841089 0.065417 -0.019351 207266.000000 0 0 1
2.892675 6.992574 -28.696380 29.677363 1.178554 2.883761 0.059669 -0.013130 -924916.000000 0 0 1
1.603875 7.019574 -28.114410 29.021835 1.346166 2.890869 0.068037 -0.006032 -95602.900000 0 0 1
0.663075 6.344574 -29.153020 29.842786 1.466664 2.926173 0.068973 -0.013996 -466075.000000 0 0 1
0.528575 7.095174 -30.341290 31.164319 1.496436 2.911261 0.062385 -0.011952 23614.000000 0 0 1
-0.020625 6.225574 -31.359460 31.971455 -1.567483 2.945617 0.078466 -0.014029 -265528.000000 0 0 1
-0.177625 7.055174 -32.694620 33.447649 -1.545625 2.928996 0.089936 -0.023714 325733.000000 0 0 1
0.978375 7.724674 -33.234480 34.134418 1.444811 2.911457 0.060492 -0.014791 477891.000000 0 0 1
1.846475 6.902174 -33.988560 34.731422 1.309397 2.934395 0.073903 -0.018467 136611.000000 0 0 1
1.300175 6.742374 32.717053 33.429861 1.380298 0.206875 0.084301 -0.031461 323597.000000 0 0 1
0.102475 5.993674 32.521483 33.069344 1.553701 0.182280 0.085748 -0.033520 -132568.000000 0 0 1
-0.168725 5.577274 31.205305 31.700245 -1.540553 0.176940 0.105313 -0.034235 84865.200000 0 0 1
0.839775 4.608974 30.553055 30.910144 1.390569 0.152150 0.110419 -0.027435 62382.800000 0 0 1
0.525975 4.456174 29.180025 29.523008 1.453307 0.152578 0.099923 -0.031811 139282.000000 0 0 1
1.391675 3.547674 28.504785 28.758399 1.196964 0.132904 0.099402 -0.028782 12799.500000 0 0 1
1.513775 3.761874 26.986385 27.289342 1.188223 0.149146 0.089763 -0.020379 115055.000000 0 0 1
2.236075 4.939374 26.691435 27.236559 1.145696 0.200407 0.084885 -0.019404 -18165.600000 0 0 1
2.325975 5.140874 25.325735 25.946707 1.145909 0.219220 0.070521 -0.015160 -479119.000000 0 0 1
2.761575 6.606574 24.947205 25.954502 1.174866 0.279513 0.057927 -0.009232 463747.000000 0 0 1
4.164475 6.839174 25.055055 26.303478 1.023847 0.309330 0.039598 -0.003894 163751.000000 0 0 1
4.759875 6.541374 23.813475 25.150101 0.941749 0.327486 0.046984 -0.019074 -501283.000000 0 0 1
6.294075 6.786274 23.777115 25.515095 0.823009 0.371223 0.039324 -0.017550 551598.000000 0 0 1
7.129775 5.977074 24.655455 26.352430 0.697677 0.360829 0.042669 -0.013224 583691.000000 0 0 1
7.144275 4.512174 24.592965 26.004121 0.563316 0.330952 0.056623 -0.013289 -914510.000000 0 0 1
7.477075 3.919074 23.180635 24.669974 0.482777 0.349250 0.048923 -0.015462 191938.000000 0 1 0
6.495475 4.064374 22.151665 23.439424 0.559120 0.333018 0.053972 -0.015974 168679.000000 0 1 0
5.297975 3.338874 22.372665 23.232580 0.562342 0.272925 0.045115 -0.014250 346457.000000 0 1 0
4.133275 3.594574 21.370365 22.061220 0.715802 0.250919 0.042776 -0.007426 259336.000000 0 1 0
3.712475 4.908474 21.309365 22.180276 0.923250 0.281158 0.035038 -0.016759 287002.000000 0 1 0
2.472075 5.069874 20.619065 21.376637 1.117117 0.267023 0.031393 -0.008944 365376.000000 0 1 0
1.913475 6.515774 20.687365 21.773465 1.285159 0.317182 0.023389 -0.006988 139233.000000 0 1 0
2.589875 7.436374 19.872865 21.376105 1.235662 0.377262 0.019389 -0.011085 -127944.000000 0 1 0
1.893475 8.636774 20.030465 21.895174 1.354977 0.415698 0.016852 -0.014003 314127.000000 0 1 0
2.794175 9.827974 19.691865 22.184815 1.293797 0.478627 0.018632 -0.014051 -490304.000000 0 1 0
2.781875 10.065074 18.298065 21.068074 1.301139 0.518586 0.003746 -0.014629 -189062.000000 0 1 0
3.521675 11.158674 17.756865 21.265570 1.265090 0.582654 0.007810 -0.021019 130922.000000 0 1 0
5.060175 11.057274 17.849565 21.598047 1.141613 0.598035 0.016789 -0.023447 -247848.000000 0 1 0
5.619675 10.026974 17.066065 20.575994 1.059961 0.592734 0.022865 -0.022045 309539.000000 0 1 0
6.933175 9.740374 17.571565 21.253322 0.952196 0.597459 0.017944 -0.009650 426513.000000 0 1 0
7.050075 8.241974 17.987065 21.004005 0.863183 0.542611 0.027126 -0.012275 -61958.300000 0 1 0
6.595375 7.952474 19.347765 21.933464 0.878414 0.490470 0.031252 -0.012605 137904.000000 0 1 0
6.666475 6.593174 19.694665 21.812649 0.779870 0.444325 0.024864 -0.020190 -275708.000000 0 1 0
8.045275 6.164874 20.219365 22.617578 0.653834 0.464676 0.038462 -0.014997 231592.000000 0 1 0
9.030575 6.292574 19.178965 22.112903 0.608580 0.521004 0.042465 -0.012816 495210.000000 0 1 0
10.316975 5.690774 19.378165 22.679025 0.504066 0.546299 0.047805 -0.011929 819445.000000 0 1 0
10.421175 4.163074 19.174665 22.217107 0.380060 0.529502 0.047291 -0.003828 -380284.000000 0 1 0
9.880575 3.467774 20.272765 22.817454 0.337538 0.476782 0.047489 -0.008424 99778.200000 0 1 0
10.138875 2.076074 20.116065 22.622178 0.201972 0.475162 0.055255 -0.021142 -234870.000000 0 1 0
9.345975 1.233974 21.090765 23.101738 0.131273 0.420337 0.060763 -0.020809 -204973.000000 0 1 0
9.735875 1.195974 22.450465 24.499816 0.122230 0.411924 0.048571 -0.016745 -277520.000000 0 1 0
8.977775 0.234174 23.102665 24.786860 0.026078 0.370758 0.062968 -0.027381 -617382.000000 0 1 0
9.204775 0.030274 24.621515 26.285886 0.003289 0.357765 0.059094 -0.014882 -121623.000000 0 0 1
10.453875 -0.525826 25.010085 27.112070 -0.050257 0.396365 0.054904 -0.017894 170047.000000 0 0 1
10.668175 -1.893126 24.645405 26.921922 -0.175627 0.414196 0.052171 -0.017517 -928491.000000 0 0 1
12.131075 -2.249026 24.815485 27.713343 -0.183312 0.461390 0.053178 -0.016236 -666393.000000 0 0 1
12.275275 -3.610126 24.847185 27.948130 -0.286033 0.475538 0.057816 -0.005180 498081.000000 0 0 1
13.651375 -3.963526 24.993415 28.753093 -0.282570 0.517128 0.056043 -0.000226 499287.000000 0 0 1
13.786075 -5.493626 25.103205 29.161733 -0.379205 0.533904 0.053283 -0.005119 -54137.700000 0 0 1
13.435475 -6.091526 23.891365 28.078746 -0.425670 0.553157 0.066490 -0.018428 216811.000000 0 0 1
13.265375 -7.493426 24.107335 28.518156 -0.514200 0.563608 0.080531 -0.020171 115308.000000 0 0 1
13.162275 -8.286326 22.826465 27.621662 -0.561865 0.598117 0.104008 -0.020949 105272.000000 0 0 1
12.615975 -9.545926 23.094665 27.993769 -0.647746 0.600606 0.100941 -0.014295 -299673.000000 0 0 1
12.925075 -10.527326 22.127965 27.704314 -0.683513 0.645633 0.097052 -0.019686 -287301.000000 0 0 1
12.167075 -11.804026 22.342265 28.045491 -0.770254 0.649074 0.107397 -0.015182 -764.434000 0 0 1
10.788975 -11.655226 22.033065 27.160674 -0.823975 0.624575 0.104396 -0.015461 -60834.100000 0 0 1
10.108275 -12.922826 22.050865 27.484856 -0.907002 0.639672 0.084746 -0.012453 -102886.000000 0 0 1
8.682875 -12.685326 22.562065 27.301220 -0.970561 0.598090 0.067612 -0.009728 -123067.000000 0 0 1
7.936675 -11.805926 21.700865 25.947991 -0.978930 0.580257 0.067052 -0.015212 1914770.000000 0 0 1
6.483975 -11.905626 21.973165 25.818711 -1.072097 0.552803 0.049318 -0.018035 2149230.000000 0 0 1
5.761475 -10.821326 21.220465 24.507220 -1.081551 0.523877 0.039770 -0.021062 -184522.000000 0 1 0
5.874775 -9.649726 21.962465 24.697774 -1.023930 0.475096 0.055623 -0.013389 -194201.000000 0 1 0
4.996175 -8.692926 21.401865 23.634055 -1.049157 0.438117 0.042021 -0.007876 152785.000000 0 1 0
5.209075 -7.256226 21.930465 23.679792 -0.948173 0.386787 0.049135 -0.015089 -44751.000000 0 1 0
4.441775 -6.313526 21.249465 22.608179 -0.957703 0.348454 0.024758 -0.023211 -273134.000000 0 1 0
4.895575 -5.042026 21.636565 22.749277 -0.800134 0.314057 0.049997 -0.038527 30176.600000 0 1 0
-8.258825 -15.600526 -20.806800 27.285665 1.083911 2.438049 0.083737 -0.015955 7437.750000 0 0 1
-7.574325 -15.226126 -19.655500 25.991229 1.109186 2.428337 0.079865 -0.015567 -153838.000000 0 0 1
-6.783125 -14.064826 -19.804800 25.220234 1.121428 2.473935 0.067873 -0.025056 167898.000000 0 0 1
-6.023325 -13.624926 -18.549500 23.790817 1.154547 2.464969 0.061417 -0.026051 -51930.600000 0 1 0
-4.923625 -14.393226 -18.125100 23.662761 1.241195 2.443354 0.051520 -0.015476 -166006.000000 0 1 0
-4.351625 -13.886226 -16.957100 22.345182 1.267113 2.432373 0.043322 -0.013797 369354.000000 0 1 0
-3.270325 -14.940126 -16.488400 22.489324 1.355300 2.393762 0.032278 0.000155 -521113.000000 0 1 0
-2.066725 -14.848626 -17.150100 22.778915 1.432499 2.423244 0.021166 -0.007343 -1502200.000000 0 1 0
-1.172125 -15.641826 -16.474500 22.747522 1.496001 2.380717 0.020738 -0.000794 -1992560.000000 0 1 0
0.183975 -15.703926 -17.086200 23.207442 -1.559082 2.398291 0.018108 -0.000211 -1167680.000000 0 1 0
0.449975 -16.705726 -18.071300 24.614135 -1.543867 2.395260 0.043159 -0.005925 -85156.800000 0 1 0
0.337675 -18.062926 -17.646000 25.254002 -1.552104 2.344432 0.034308 -0.003994 -375157.000000 0 0 1
-0.053225 -18.937726 -18.872700 26.736101 1.567986 2.354473 0.054287 -0.001815 -448553.000000 0 0 1
-1.322625 -18.593726 -19.334300 26.856864 1.499783 2.374457 0.056628 -0.006998 -481341.000000 0 0 1
-1.396025 -18.833126 -20.686800 28.010341 1.496806 2.401701 0.087084 -0.011263 -97606.300000 0 0 1
-2.547825 -18.091126 -21.394600 28.133772 1.430884 2.434817 0.078296 -0.009824 -98072.900000 0 0 1
-2.423825 -16.703026 -21.546100 27.369699 1.426689 2.477092 0.073672 -0.005618 -371688.000000 0 0 1
-3.088425 -15.883826 -20.628700 26.217886 1.378754 2.476432 0.060208 -0.008076 -95484.300000 0 0 1
-2.417325 -14.484626 -20.339400 25.086631 1.405431 2.516257 0.056734 -0.020189 -384751.000000 0 0 1
-2.579625 -13.620526 -21.435500 25.527511 1.383621 2.567530 0.058824 -0.028427 350846.000000 0 0 1
-1.892625 -12.369326 -21.303500 24.706707 1.418964 2.610503 0.047341 -0.017328 84291.700000 0 1 0
-1.817925 -11.397426 -22.508400 25.294945 1.412626 2.667786 0.058287 -0.015542 271239.000000 0 0 1
-2.953625 -10.539426 -22.589900 25.101932 1.297560 2.690398 0.057674 -0.025401 383357.000000 0 0 1
-3.037625 -9.902826 -23.860000 26.011396 1.273165 2.732018 0.060494 -0.027040 781232.000000 0 0 1
-4.280225 -8.922726 -23.949600 25.913678 1.123521 2.749750 0.064673 -0.023031 657327.000000 0 0 1
-5.566025 -9.471126 -23.797900 26.211122 1.039482 2.709118 0.059683 -0.027135 47907.000000 0 0 1
-6.505925 -8.438026 -23.707200 25.991511 0.913975 2.719206 0.079545 -0.029072 840633.000000 0 0 1
-8.024425 -8.917826 -23.606700 26.480092 0.838082 2.671417 0.059343 -0.028757 1811390.000000 0 0 1
-8.742425 -9.126726 -24.851100 27.880177 0.806901 2.671119 0.051552 -0.032218 420221.000000 0 0 1
-9.082425 -7.951726 -25.594920 28.298769 0.719117 2.700893 0.049488 -0.029630 -153660.000000 0 0 1
-9.942625 -8.242326 -26.848150 29.792866 0.692169 2.693235 0.046988 -0.026319 166410.000000 0 0 1
-10.457325 -7.052626 -27.414650 30.177114 0.593351 2.710377 0.068176 -0.033188 -267454.000000 0 0 1
-11.282725 -7.387026 -28.507030 31.535992 0.579686 2.699719 0.079534 -0.026448 40755.900000 0 0 1
-11.875225 -6.157926 -29.267100 32.179250 0.478379 2.712881 0.080492 -0.027987 240614.000000 0 0 1
-10.936025 -5.393926 -29.999230 32.382787 0.458213 2.755518 0.054727 -0.018691 -39655.800000 0 0 1
-11.604225 -4.650326 -30.993580 33.419838 0.381148 2.758199 0.072285 -0.030631 164002.000000 0 0 1
-10.688925 -3.630726 -31.681740 33.632840 0.327444 2.799302 0.050043 -0.024426 -428506.000000 0 0 1
-9.637125 -4.160026 -32.410510 34.067890 0.407504 2.828387 0.044752 -0.010126 -517273.000000 0 0 1
-9.115225 -3.197726 -33.291440 34.664575 0.337398 2.859187 0.050463 -0.008139 -153023.000000 0 0 1
-8.071825 -3.762526 33.884615 35.035383 0.436187 0.257011 0.047857 -0.010799 -664579.000000 0 0 1
-6.835025 -3.957126 -33.705290 34.618246 0.524796 2.911424 0.036750 -0.012530 -1156930.000000 0 0 1
-5.853925 -4.366926 33.532355 34.318469 0.640925 0.214450 0.028331 -0.008683 -248936.000000 0 0 1
-4.440125 -3.916426 33.893272 34.406496 0.722811 0.172938 0.041070 -0.014304 -436863.000000 0 0 1
-4.287725 -2.519126 34.036339 34.397717 0.531193 0.145082 0.072529 -0.024083 -546684.000000 0 0 1
-2.926425 -2.208326 -34.075336 34.271988 0.646449 3.034415 0.072623 -0.024696 -273105.000000 0 0 1
-2.597125 -0.802226 -33.550680 33.660611 0.299593 3.060751 0.090259 -0.025499 -39925.300000 0 0 1
-2.885225 -0.634026 -32.178540 32.313851 0.216311 3.050047 0.081324 -0.027446 15710.300000 0 0 1
-3.320225 0.639774 -31.805720 31.984950 -0.190357 3.035679 0.109416 -0.034321 -241639.000000 0 0 1
-3.946225 0.647474 -30.373070 30.635197 -0.162625 3.010683 0.131148 -0.042726 383616.000000 0 0 1
-5.157025 -0.040526 -30.193250 30.630522 0.007858 2.972419 0.108217 -0.039458 -103478.000000 0 0 1
-6.346225 0.707174 -30.337100 31.001843 -0.110974 2.934136 0.107280 -0.040915 308968.000000 0 0 1
-7.602925 -0.233326 -30.371840 31.309864 0.030679 2.896194 0.092315 -0.039182 363040.000000 0 0 1
-7.932125 -0.784626 -29.127370 30.198310 0.098597 2.874478 0.078208 -0.032439 -102528.000000 0 0 1
-8.932325 -1.776926 -29.201630 30.588872 0.196368 2.839274 0.065982 -0.029019 -48353.400000 0 0 1
-9.313325 -2.523126 -27.926130 29.546115 0.264565 2.808914 0.062735 -0.030198 37629.400000 0 0 1
-9.995525 -1.677726 -27.005870 28.845143 0.166298 2.782558 0.065393 -0.028253 140496.000000 0 0 1
-10.212325 -2.410026 -25.809030 27.860471 0.231752 2.755446 0.054200 -0.026622 -101649.000000 0 0 1
-11.139125 -1.587926 -24.903100 27.327019 0.141600 2.717226 0.060165 -0.026642 -62776.700000 0 0 1
-10.516125 -0.472226 -24.348400 26.526523 0.044875 2.733524 0.068480 -0.032658 68111.800000 0 0 1
-11.432425 0.210874 -23.501000 26.135068 -0.018443 2.688764 0.084364 -0.037610 397012.000000 0 0 1
-10.899225 1.590374 -22.954800 25.460660 -0.144894 2.694202 0.094567 -0.038100 290843.000000 0 0 1
-10.824225 2.612974 -23.942800 26.405476 -0.236869 2.706275 0.079086 -0.036029 -136867.000000 0 0 1
-10.116325 3.728374 -23.480300 25.837285 -0.353104 2.711137 0.076618 -0.025999 -389661.000000 0 0 1
-10.112425 4.948674 -24.488600 26.952589 -0.455104 2.710670 0.083935 -0.027073 376366.000000 0 0 1
-11.405825 5.542674 -24.547700 27.629760 -0.452346 2.664756 0.089944 -0.028599 349432.000000 0 0 1
-12.095425 4.972074 -25.694370 28.830912 -0.390013 2.670800 0.081193 -0.030124 -457811.000000 0 0 1
-13.511025 5.523174 -25.823340 29.663077 -0.388061 2.627125 0.067679 -0.021829 -450465.000000 0 0 1
-13.530125 6.894674 -26.171430 30.257967 -0.471282 2.615834 0.068664 -0.018660 -8811.640000 0 0 1
-14.844525 7.357374 -26.389120 31.158891 -0.460145 2.580964 0.064986 -0.016102 -173767.000000 0 0 1
-15.020425 8.862174 -26.702300 31.893010 -0.533040 2.563024 0.073623 -0.011264 -95819.300000 0 0 1
-14.652525 9.606774 -25.531830 30.965480 -0.580330 2.540160 0.102568 -0.024945 283890.000000 0 0 1
-14.791525 10.999274 -25.611790 31.555301 -0.639405 2.517764 0.090761 -0.024866 -318720.000000 0 0 1
-14.352125 11.621074 -24.275100 30.501038 -0.680634 2.491252 0.097536 -0.027729 -33586.100000 0 0 1
-15.170925 11.371174 -23.136400 29.912431 -0.643205 2.455096 0.115961 -0.030018 122287.000000 0 0 1
-14.672525 12.119474 -22.032400 29.113421 -0.690394 2.429166 0.113146 -0.028184 -28263.600000 0 0 1
-15.451125 11.998774 -20.706900 28.486550 -0.660286 2.384595 0.122696 -0.034363 -264781.000000 0 0 1
-16.807225 12.321474 -20.779500 29.429392 -0.632601 2.354743 0.098867 -0.030621 -261457.000000 0 0 1
-17.484625 12.632674 -19.559000 29.117882 -0.625669 2.307322 0.101158 -0.027727 40399.000000 0 0 1
-18.994325 12.863674 -19.716700 30.249078 -0.595285 2.280767 0.106477 -0.029807 -260952.000000 0 0 1
-19.318625 13.973574 -20.453100 31.413362 -0.626207 2.279823 0.095437 -0.027840 136632.000000 0 0 1
-20.722725 14.179374 -20.413400 32.360359 -0.600072 2.253399 0.071354 -0.028143 229256.000000 0 0 1
-21.061425 15.579474 -20.954300 33.546778 -0.636887 2.245453 0.069522 -0.026167 -181917.000000 0 0 1
-20.867125 15.761374 -22.299700 34.367636 -0.646898 2.276878 0.082719 -0.028250 271857.000000 0 0 1
-21.464125 16.971574 -22.769600 35.597720 -0.669041 2.264822 0.064595 -0.012736 127755.000000 0 0 1
-21.335925 17.092374 -24.323400 36.592331 -0.675416 2.297906 0.054567 -0.008406 -622678.000000 0 0 1
-20.069725 17.388374 -24.799900 36.334342 -0.713937 2.322038 0.070779 -0.016079 -541085.000000 0 0 1
-19.971525 16.766174 -26.021290 36.838484 -0.698369 2.355141 0.059065 -0.018952 -168485.000000 0 0 1
-19.182625 17.467174 -27.171650 37.568255 -0.738626 2.379309 0.037763 -0.010519 -227058.000000 0 0 1
-19.652125 18.613474 -27.796340 38.798246 -0.758262 2.369472 0.030252 -0.019884 234305.000000 0 0 1
-19.013225 19.765474 -27.226640 38.645396 -0.804794 2.352550 0.020572 -0.028532 -1306900.000000 0 0 1
-19.794825 21.065874 -27.400900 39.829831 -0.816495 2.329456 0.050611 -0.016692 367209.000000 0 0 1
-20.789525 21.354774 -26.407840 39.819652 -0.798810 2.295864 0.066047 -0.012747 1254350.000000 0 0 1
-21.930025 20.485374 -26.396460 39.966857 -0.751352 2.292226 0.105717 -0.025595 -531174.000000 0 0 1
-23.083125 20.761374 -25.434360 40.134424 -0.732493 2.257161 0.100873 -0.021663 21424.200000 0 0 1
-22.850825 20.399674 -24.069200 38.956813 -0.728785 2.236793 0.064936 -0.019734 210199.000000 0 0 1
-23.926225 20.940474 -23.318200 39.429762 -0.718949 2.203573 0.068140 -0.031361 -218195.000000 0 0 1
-23.823925 20.710374 -21.824700 38.377291 -0.715598 2.175706 0.068504 -0.026303 70259.400000 0 0 1
-22.746125 21.304974 -21.074500 37.622103 -0.752694 2.165379 0.070391 -0.025960 445943.000000 0 0 1
-21.613925 20.483374 -20.950500 36.409529 -0.758549 2.183905 0.059731 -0.022084 -574781.000000 0 0 1
-21.668525 19.492074 -19.795600 35.232537 -0.732570 2.167424 0.070567 -0.028605 -1402330.000000 0 0 1
-22.681625 18.519074 -19.880900 35.392971 -0.684709 2.167258 0.087564 -0.033772 222073.000000 0 0 1
-23.249725 18.293974 -18.567200 34.927927 -0.666669 2.131268 0.065210 -0.021654 187547.000000 0 0 1
-24.300725 19.370074 -18.145500 35.985888 -0.672969 2.099297 0.041855 -0.017474 -940702.000000 0 0 1
-25.561705 19.163674 -18.712200 37.024229 -0.643311 2.100647 0.038163 -0.019155 -551758.000000 0 0 1
-26.453165 20.188774 -18.377900 38.014520 -0.651889 2.075381 0.028377 -0.020511 -27663.800000 0 0 1
-27.910035 19.948974 -18.919400 39.177484 -0.620563 2.074777 0.017259 -0.008215 716932.000000 0 0 1
-28.664245 18.881874 -18.381200 38.936263 -0.582485 2.062450 0.017069 -0.014426 171157.000000 0 0 1
-28.953355 18.925774 -17.008900 38.545873 -0.578947 2.027803 0.010786 -0.008691 -759129.000000 0 0 1
-29.839275 17.759674 -16.494300 38.442818 -0.536866 2.014249 0.008884 -0.006249 -208327.000000 0 0 1
-29.230655 16.493674 -16.582100 37.435792 -0.513725 2.029680 0.021198 -0.011535 -249719.000000 0 0 1
-29.968945 15.427674 -16.067900 37.340704 -0.475408 2.015627 0.020612 -0.006890 181986.000000 0 0 1
-29.026405 14.452874 -15.269500 35.840973 -0.461984 2.010902 0.042252 -0.004427 629219.000000 0 0 1
-28.459325 14.934574 -14.017500 35.063727 -0.483266 1.982065 0.053687 -0.002898 891519.000000 0 0 1
-29.482335 15.147974 -13.014100 35.609493 -0.474625 1.944931 0.028135 0.004490 685038.000000 0 0 1
-28.952365 15.726374 -11.665900 34.952131 -0.497593 1.911094 0.046668 -0.005725 -17405.900000 0 0 1
-28.600855 17.122174 -11.721900 35.335261 -0.539433 1.908937 0.041378 0.002196 440144.000000 0 0 1
-29.685265 18.050874 -11.591600 36.625322 -0.546336 1.892825 0.014756 0.003769 501236.000000 0 0 1
-29.232735 19.467874 -12.140600 37.161069 -0.587514 1.903608 0.054414 -0.008220 165596.000000 0 0 1
-28.437975 20.209574 -11.261900 36.660274 -0.617841 1.883042 0.020868 -0.020608 -286584.000000 0 0 1
-27.744165 21.229474 -11.956400 36.924040 -0.653150 1.900551 0.010315 -0.021880 527786.000000 0 0 1
-26.670505 21.957274 -11.068000 36.275864 -0.688775 1.880847 0.028830 -0.014177 387721.000000 0 0 1
-27.238885 22.918974 -10.254400 37.045768 -0.699484 1.851262 0.044281 -0.017853 -683580.000000 0 0 1
-26.360605 23.941674 -9.964900 36.978162 -0.737347 1.843650 0.044238 -0.018747 -716983.000000 0 0 1
-26.932105 24.875774 -8.932800 37.735094 -0.745728 1.809789 0.068417 -0.002198 -55992.100000 0 0 1
-26.861245 24.320874 -7.651200 37.034744 -0.735805 1.778890 0.057380 -0.003017 -70165.200000 0 0 1
-27.711745 24.987974 -6.759900 37.921444 -0.733759 1.750015 0.064237 -0.008379 -3442.040000 0 0 1
-27.651965 24.467474 -5.358000 37.309471 -0.724374 1.714904 0.066105 -0.011116 -47720.400000 0 0 1
-28.215285 23.168574 -5.269900 36.887084 -0.687496 1.714153 0.074451 -0.018168 -247100.000000 0 0 1
-27.617335 22.443974 -4.207400 35.835058 -0.682423 1.688478 0.061765 -0.017447 71126.100000 0 0 1
-27.493485 20.921274 -4.490100 34.838949 -0.650475 1.700037 0.076502 -0.017604 133990.000000 0 0 1
-26.619885 20.608674 -5.569900 34.122712 -0.658800 1.734761 0.063169 -0.031503 -138541.000000 0 0 1
-27.111645 20.738774 -6.891900 34.822928 -0.652994 1.770024 0.052502 -0.022425 124595.000000 0 0 1
-28.256765 19.743174 -7.306500 35.236666 -0.609857 1.779667 0.043131 -0.020734 427911.000000 0 0 1
-27.804955 18.357574 -7.193900 34.086188 -0.583531 1.783446 0.043323 -0.010039 388245.000000 0 0 1
-27.835635 17.687474 -8.422100 34.038229 -0.566061 1.820824 0.035670 -0.004935 -94001.600000 0 0 1
-27.313445 16.225674 -8.452600 32.874659 -0.536036 1.830833 0.066729 0.002774 195061.000000 0 0 1
-28.145835 15.272174 -7.791700 32.956606 -0.497151 1.809479 0.050748 0.003575 130205.000000 0 0 1
-28.009805 13.965274 -8.380500 32.400784 -0.462515 1.832422 0.061012 -0.003611 -103768.000000 0 0 1
-28.778005 12.933174 -7.582000 32.448841 -0.422365 1.806637 0.056044 -0.012398 296497.000000 0 0 1
-30.199145 13.076874 -7.689000 33.795173 -0.408645 1.800324 0.069001 -0.002200 525819.000000 0 0 1
-30.890545 12.119174 -6.886900 33.889962 -0.373874 1.775435 0.086649 -0.012432 -124334.000000 0 0 1
-31.411345 10.865974 -7.594100 34.094168 -0.333040 1.795419 0.076399 -0.011275 -145423.000000 0 0 1
-30.383515 9.980374 -8.000000 32.966131 -0.317376 1.815917 0.095399 -0.007101 134284.000000 0 0 1
-30.915325 8.683574 -8.248000 33.154053 -0.273827 1.822215 0.087039 -0.004866 -116556.000000 0 0 1
-29.873225 7.550574 -8.477000 31.957476 -0.247569 1.839269 0.130965 -0.014495 -40699.300000 0 0 1
-29.447105 7.481974 -9.829400 31.933196 -0.248817 1.883688 0.120951 -0.014597 -83525.600000 0 0 1
-28.551775 6.406774 -9.965200 30.912065 -0.220735 1.899031 0.144715 -0.032654 -568024.000000 0 0 1
-27.725105 6.633874 -11.221300 30.636698 -0.234858 1.945793 0.115205 -0.029745 -1026600.000000 0 0 1
-26.729575 7.577174 -11.073500 29.908295 -0.276228 1.950073 0.134401 -0.031175 -2586.890000 0 0 1
-25.965825 7.699274 -12.281900 29.737988 -0.288257 1.996546 0.109380 -0.017352 122157.000000 0 0 1
-31.190065 25.399474 33.382502 52.271836 -0.683427 0.878076 0.008122 0.020079 -287289.000000 0 0 1
-31.180455 26.758574 33.085333 52.753021 -0.709226 0.892877 -0.002378 0.005800 104875.000000 0 0 1
-32.315605 27.271674 32.414784 53.280022 -0.700952 0.916772 0.028574 -0.012506 -90123.900000 0 0 1
-32.274235 28.808274 32.154345 53.902178 -0.728717 0.931624 0.047275 -0.020844 -570433.000000 0 0 1
-33.387085 29.249274 31.461785 54.406446 -0.719433 0.954186 0.084101 -0.023029 -621021.000000 0 0 1
-33.358485 30.621974 31.203315 54.992187 -0.742653 0.967435 0.103911 -0.027765 -6358.160000 0 0 1
-32.833595 31.111274 29.819865 54.177308 -0.758470 0.987938 0.118433 -0.035688 -314922.000000 0 0 1
-31.462145 30.907074 29.670035 53.154725 -0.776499 0.978603 0.098178 -0.035207 -571173.000000 0 0 1
-30.971015 31.670274 28.559595 52.705412 -0.796561 0.998133 0.100003 -0.024155 766763.000000 0 0 1
-29.449315 31.489574 28.240245 51.539954 -0.818866 0.990910 0.118005 -0.023823 366370.000000 0 0 1
-29.137395 30.204774 27.778195 50.328364 -0.803383 0.986108 0.142693 -0.023829 -126415.000000 0 0 1
-28.115725 30.063874 26.818995 49.128291 -0.818871 0.993337 0.106332 -0.011336 -380824.000000 0 0 1
-28.299665 30.791774 25.436615 48.949216 -0.827547 1.024351 0.107279 -0.005914 -191145.000000 0 0 1
-28.043495 32.203074 25.580465 49.777864 -0.854331 1.031080 0.094684 -0.011618 233585.000000 0 0 1
-29.001285 32.907774 24.813035 50.395266 -0.848415 1.055988 0.098161 -0.016257 105595.000000 0 0 1
-29.221725 -33.804207 25.257805 51.328260 0.857978 1.056315 0.103832 -0.006947 50077.800000 0 0 1
-29.826025 -33.804107 26.528215 52.307318 0.847836 1.038909 0.114353 -0.026890 -26032.300000 0 0 1
-30.026085 -32.516407 27.005895 51.847862 0.825195 1.022929 0.100638 -0.026263 -44439.500000 0 0 1
-30.541345 -32.543907 28.437015 52.920161 0.817131 1.003496 0.111212 -0.035094 -113097.000000 0 0 1
-31.876645 -33.003907 28.517225 54.024165 0.802771 1.014717 0.097096 -0.034325 -15719.100000 0 0 1
-32.288255 -33.043107 29.875775 55.017636 0.796952 0.996765 0.091055 -0.036024 -314670.000000 0 0 1
-33.732075 -33.463107 30.137775 56.266490 0.781395 1.005548 0.102781 -0.041589 -278169.000000 0 0 1
-34.015675 -33.756607 31.483535 57.339233 0.781576 0.989539 0.095578 -0.043343 -506870.000000 0 0 1
-35.402974 -33.805307 31.670625 58.302640 0.762317 0.996540 0.088554 -0.044718 -279100.000000 0 0 1
-35.868057 33.974474 33.056320 59.443273 -0.758293 0.981112 0.080999 -0.037435 -88648.500000 0 0 1
-35.537100 32.629674 33.179440 58.553021 -0.742772 0.968354 0.054263 -0.028478 173856.000000 0 0 1
-36.225275 31.990074 -33.884420 59.023633 -0.723392 2.182279 0.058610 -0.029659 203058.000000 0 0 1
-35.581399 30.689474 -33.415810 57.658443 -0.711715 2.188970 0.032621 -0.020368 640425.000000 0 0 1
-34.463874 30.924074 -32.540720 56.594659 -0.731316 2.183374 0.033174 -0.019300 190384.000000 0 0 1
-33.877235 29.715374 -32.117530 55.337205 -0.720046 2.190012 0.009847 -0.009486 138932.000000 0 0 1
-33.213635 29.924174 -30.694590 54.228771 -0.733346 2.172467 0.003145 -0.010661 120984.000000 0 0 1
-34.079319 30.002074 -29.563920 54.180714 -0.721858 2.147966 0.015980 -0.011010 -601590.000000 0 0 1
-34.815056 31.171574 -29.544060 55.286586 -0.730239 2.134571 0.017121 -0.003698 -642132.000000 0 0 1
-35.774474 31.186074 -28.375180 55.294982 -0.716981 2.109659 0.022267 -0.000063 -112784.000000 0 0 1
-35.155078 31.254174 -27.072870 54.273780 -0.726725 2.093034 0.010329 -0.014476 -86359.200000 0 0 1
-36.043506 30.856674 -26.065850 54.135914 -0.708022 2.073149 0.039800 -0.017941 -306531.000000 0 0 1
-35.336834 30.692574 -24.713600 52.929084 -0.715178 2.056600 0.052992 -0.014554 -96353.000000 0 0 1
-35.052993 31.965174 -24.088200 53.204568 -0.739356 2.040640 0.065180 -0.029318 14709.300000 0 0 1
-34.773460 31.791274 -22.696700 52.297407 -0.740627 2.019716 0.054264 -0.031559 -671244.000000 0 0 1
-35.926014 31.232474 -21.831100 52.371202 -0.715624 2.000777 0.049679 -0.029184 665106.000000 0 0 1
36.375732 32.200074 -21.765800 53.233342 0.724582 1.992018 0.050752 -0.037027 988804.000000 0 0 1
36.517152 33.371574 -20.982100 53.734652 0.740420 1.971945 0.058208 -0.039651 -511260.000000 0 0 1
36.645972 33.233074 -19.450900 53.157333 0.736597 1.945409 0.063270 -0.035489 -593809.000000 0 0 1
-35.592389 32.584174 -19.138700 51.911813 -0.741303 1.948382 0.057421 -0.039485 -622440.000000 0 0 1
-35.416075 32.398274 -17.711300 51.162844 -0.740927 1.924287 0.056431 -0.024612 306970.000000 0 0 1
-34.165569 31.501174 -17.465900 49.645420 -0.744846 1.930303 0.062003 -0.017828 313288.000000 0 0 1
-33.945445 31.144974 -16.103600 48.801932 -0.742400 1.907077 0.051613 -0.011147 -1095810.000000 0 0 1
-32.815155 30.373174 -16.033100 47.501835 -0.746771 1.915084 0.053037 -0.011143 -946582.000000 0 0 1
-32.357925 30.213574 -14.564700 46.604998 -0.751141 1.888634 0.052684 -0.008377 -115807.000000 0 0 1
-33.428395 29.714674 -13.805300 46.808180 -0.726651 1.870182 0.041733 0.000044 260812.000000 0 0 1
-32.886845 29.131474 -12.637800 45.715438 -0.724919 1.850889 0.051999 0.002887 131268.000000 0 0 1
-33.971665 28.385774 -11.848400 45.828056 -0.696058 1.832307 0.047710 0.000178 -149319.000000 0 0 1
-33.456005 27.871774 -10.647700 44.827598 -0.694593 1.810614 0.055969 0.006347 348807.000000 0 0 1
-34.363859 27.016774 -9.982800 44.837899 -0.666268 1.795320 0.055734 -0.002962 240738.000000 0 0 1
-33.649505 26.386874 -8.748200 43.647306 -0.665013 1.772592 0.056689 0.004461 174186.000000 0 0 1
-33.292355 27.391474 -7.889400 43.828260 -0.688463 1.751790 0.060760 -0.002088 470298.000000 0 0 1
-32.127585 26.914674 -7.196900 42.525013 -0.697335 1.740854 0.059251 -0.012753 251571.000000 0 0 1
-31.677895 27.741474 -5.985600 42.531233 -0.719247 1.711999 0.073572 -0.014926 79477.600000 0 0 1
-30.869555 26.904574 -5.141600 41.270105 -0.716877 1.695705 0.078052 -0.016119 462075.000000 0 0 1
-30.465735 27.467674 -3.904000 41.205283 -0.733694 1.665684 0.075409 -0.014755 -343285.000000 0 0 1
-29.867535 26.436874 -2.971100 39.997567 -0.724543 1.645147 0.076534 -0.020168 -894346.000000 0 0 1
-30.647025 25.372474 -2.651500 39.875218 -0.691519 1.637340 0.071983 -0.011937 -609422.000000 0 0 1
-29.844005 24.355574 -2.089900 38.577536 -0.684479 1.624997 0.065682 -0.020718 -10397.800000 0 0 1
-30.685705 23.242674 -1.425300 38.520979 -0.648248 1.607805 0.069817 -0.028261 -291903.000000 0 0 1
-31.058925 22.223374 -2.308300 38.260468 -0.621068 1.631164 0.061465 -0.023500 -234116.000000 0 0 1
-31.882945 21.311774 -1.650200 38.385375 -0.589228 1.613800 0.062511 -0.021288 3199.540000 0 0 1
-32.532695 20.382374 -2.758100 38.489278 -0.559691 1.642517 0.056139 -0.011836 779561.000000 0 0 1
-31.483485 19.573274 -3.328200 37.220959 -0.556223 1.660333 0.050362 -0.016810 790809.000000 0 0 1
-31.938045 18.995174 -4.504700 37.431907 -0.536551 1.691433 0.042804 -0.009231 -280462.000000 0 0 1
-30.871205 18.099574 -5.150600 36.154592 -0.530280 1.713743 0.034782 -0.009768 -134287.000000 0 0 1
-30.598915 16.888474 -4.405200 35.226693 -0.504324 1.696177 0.081040 -0.015724 -80754.300000 0 0 1
-29.987955 15.930974 -5.226100 34.356738 -0.488331 1.723502 0.076672 -0.020660 -652247.000000 0 0 1
-29.635005 14.621974 -4.498500 33.350744 -0.458355 1.706093 0.102550 -0.017033 104628.000000 0 0 1
-30.659645 13.988074 -3.731400 33.905801 -0.428029 1.681072 0.114830 -0.017648 467595.000000 0 0 1
-30.062435 12.836374 -3.161600 32.840801 -0.403555 1.667216 0.117588 -0.024364 54945.800000 0 0 1
-30.981175 11.877974 -2.381100 33.265434 -0.366109 1.642436 0.123598 -0.027986 39336.100000 0 0 1
-31.904705 11.218774 -3.226500 33.973245 -0.338130 1.665911 0.103124 -0.015031 653492.000000 0 0 1
-32.875665 10.362874 -2.631900 34.570585 -0.305356 1.647001 0.111091 -0.016669 421842.000000 0 0 1
-33.895745 9.807374 -3.695700 35.479068 -0.281648 1.675151 0.078062 -0.016908 72546.600000 0 0 1
-33.443395 8.913874 -4.696500 34.928139 -0.260481 1.705667 0.082128 -0.022876 -124292.000000 0 0 1
-34.498439 8.460474 -5.485200 35.941749 -0.240496 1.724009 0.081625 -0.018202 -437746.000000 0 0 1
-34.049075 7.596874 -6.670300 35.518233 -0.219520 1.759717 0.079295 -0.014887 -391963.000000 0 0 1
-33.410055 6.454874 -6.115800 34.573113 -0.190850 1.748627 0.088584 -0.021650 446690.000000 0 0 1
-33.187175 5.476774 -7.098600 34.376936 -0.163553 1.778786 0.094044 -0.019293 -81350.500000 0 0 1
-32.083655 4.443674 -6.755100 33.086833 -0.137627 1.776405 0.117020 -0.031911 1069540.000000 0 0 1
-30.752755 4.951074 -6.523900 31.824618 -0.159626 1.777255 0.130775 -0.029198 1149100.000000 0 0 1
-29.833505 3.923174 -6.224200 30.727349 -0.130752 1.774770 0.123459 -0.035541 123261.000000 0 0 1
-28.402135 4.470674 -5.964000 29.363880 -0.156125 1.775326 0.159091 -0.035979 46926.200000 0 0 1
-27.649585 4.567074 -7.151100 28.922239 -0.163699 1.820640 0.151558 -0.031638 -785733.000000 0 0 1
-26.301705 4.545274 -6.800100 27.544156 -0.171123 1.820256 0.182905 -0.043962 -549902.000000 0 0 1
-25.419255 5.043074 -7.973400 27.113580 -0.195853 1.869283 0.163120 -0.037126 -73272.800000 0 0 1
-25.534295 4.184174 -9.084300 27.423202 -0.162421 1.908438 0.167409 -0.049295 252434.000000 0 0 1
-24.614725 4.583974 -10.062600 26.984318 -0.184120 1.952935 0.160725 -0.054869 -235585.000000 0 0 1
-24.752625 3.763474 -11.377400 27.500934 -0.150888 1.997321 0.151904 -0.060003 -1420590.000000 0 0 1
-25.930535 4.015974 -11.989200 28.848944 -0.153654 1.999383 0.126583 -0.032149 -1037300.000000 0 0 1
-26.170215 3.383974 -13.222100 29.515341 -0.128593 2.035294 0.128387 -0.033462 -421026.000000 0 0 1
-27.152195 4.141474 -14.067300 30.859073 -0.151362 2.044130 0.100169 -0.023137 -400147.000000 0 0 1
-26.522625 5.320874 -14.704900 30.789534 -0.197988 2.068711 0.075517 -0.021098 585143.000000 0 0 1
-27.309685 6.256774 -15.441000 31.990476 -0.225218 2.074503 0.096319 -0.025305 -464840.000000 0 0 1
-27.935475 5.730274 -16.725300 33.059982 -0.202319 2.101230 0.047790 0.004251 -137930.000000 0 0 1
-29.206985 5.143174 -16.545900 33.959785 -0.174307 2.079700 0.063531 -0.006020 26836.300000 0 0 1
-29.606995 4.460674 -17.737800 34.800881 -0.149538 2.105625 0.071812 0.001428 446094.000000 0 0 1
-31.028245 3.812874 -17.676600 35.913119 -0.122271 2.085417 0.070170 -0.009217 364482.000000 0 0 1
-31.166235 2.746474 -16.788300 35.506680 -0.087896 2.063286 0.072178 -0.009845 194468.000000 0 0 1
-30.795345 1.548374 -17.353400 35.382074 -0.050237 2.083411 0.096190 -0.012300 -214485.000000 0 0 1
-31.133735 0.361174 -16.435800 35.207604 -0.011600 2.056494 0.087336 -0.012464 -412803.000000 0 0 1
-30.759265 -0.891926 -16.987100 35.149530 0.028989 2.075195 0.089071 -0.010442 390624.000000 0 0 1
-30.948935 -1.916126 -16.045800 34.913834 0.061834 2.048322 0.090071 -0.022196 -202605.000000 0 0 1
-30.814985 -3.253226 -16.734000 35.216097 0.105183 2.065965 0.085409 -0.017226 -29221.300000 0 0 1
-31.863665 -3.511826 -17.648400 36.593607 0.109771 2.074053 0.084762 -0.015713 94523.900000 0 0 1
-31.695595 -4.720226 -18.337100 36.920732 0.147837 2.090544 0.083174 -0.017886 -101070.000000 0 0 1
-32.903415 -5.098226 -19.206900 38.438673 0.153723 2.094022 0.089376 -0.018145 -134981.000000 0 0 1
-32.664835 -6.304126 -19.892100 38.761180 0.190650 2.109701 0.103382 -0.013344 -193743.000000 0 0 1
-33.621955 -6.420526 -20.891300 40.101189 0.188691 2.118777 0.111982 -0.016263 -341640.000000 0 0 1
-33.312215 -7.639026 -21.798400 40.536756 0.225419 2.138555 0.111959 -0.015006 38532.600000 0 0 1
-32.117915 -7.492126 -22.539100 39.946256 0.229171 2.170303 0.102025 -0.013115 -34217.500000 0 0 1
-31.812775 -8.426926 -23.518500 40.449790 0.258944 2.191275 0.100630 -0.007032 140898.000000 0 0 1
-30.483475 -8.000826 -24.215100 39.744515 0.256675 2.225935 0.092195 -0.005508 85962.200000 0 0 1
-30.517125 -6.780126 -24.939500 39.990545 0.218623 2.244180 0.096645 -0.012427 -137137.000000 0 0 1
-30.617575 -7.000026 -26.312870 40.973203 0.224765 2.268157 0.083122 -0.004878 1212820.000000 0 0 1
-32.063825 -7.123826 -26.987270 42.510592 0.218625 2.258593 0.094502 -0.005915 1087880.000000 0 0 1
-32.713105 -8.346226 -26.682210 43.031930 0.249805 2.239611 0.079816 -0.004530 -1173050.000000 0 0 1
-33.839925 -8.510526 -27.434140 44.386953 0.246384 2.237079 0.075648 -0.006752 -941314.000000 0 0 1
-34.760566 -9.634026 -26.957630 45.031380 0.270368 2.212600 0.073638 -0.004300 -768142.000000 0 0 1
-34.231915 -10.930426 -27.156350 45.041820 0.309072 2.217945 0.067321 0.003220 -302403.000000 0 0 1
-35.060736 -11.968626 -26.706160 45.669708 0.328965 2.195390 0.044816 0.000937 -432639.000000 0 0 1
-36.282145 -12.229826 -27.601320 47.199529 0.325115 2.195405 0.028034 0.014880 -759237.000000 0 0 1
36.175912 -11.232426 -27.455350 46.783119 -0.301057 2.197977 0.027046 0.002888 -993528.000000 0 0 1
35.330782 -11.216026 -28.580140 46.806920 -0.307395 2.227610 0.021612 -0.002311 -548248.000000 0 0 1
34.351302 -10.062126 -28.368080 45.672818 -0.284947 2.240961 0.026191 0.002641 -242640.000000 0 0 1
33.360362 -10.333026 -27.381510 44.378286 -0.300368 2.235724 0.007339 0.001873 -287705.000000 0 0 1
32.692032 -9.155726 -27.060960 43.415341 -0.273064 2.243757 -0.012174 0.004933 337288.000000 0 0 1
31.340782 -9.423926 -26.315310 41.994649 -0.292092 2.248024 -0.007258 0.009083 255534.000000 0 0 1
31.417912 -9.812426 -24.983500 41.322442 -0.302720 2.220058 -0.021733 0.019737 -329211.000000 0 0 1
30.202452 -10.127826 -24.352000 40.097143 -0.323548 2.223486 -0.024317 0.017697 -291928.000000 0 0 1
30.285212 -10.090426 -22.835900 39.249065 -0.321613 2.191761 -0.031436 0.014507 -79148.200000 0 0 1
30.978942 -11.182126 -22.293100 39.770807 -0.346404 2.165833 -0.043331 0.013964 17522.200000 0 0 1
31.237422 -10.960726 -20.918700 39.160006 -0.337463 2.134340 -0.020526 0.007506 446283.000000 0 0 1
32.258372 -11.967126 -20.263700 39.930342 -0.355239 2.103050 0.024065 0.000435 499564.000000 0 0 1
33.582222 -11.896926 -20.754500 41.231684 -0.340467 2.098283 0.034263 0.000881 -153683.000000 0 0 1
34.436482 -12.640926 -19.924800 41.745203 -0.351809 2.068371 0.062859 -0.001790 84778.400000 0 0 1
35.855692 -12.919626 -20.516500 43.283648 -0.345841 2.064626 0.081630 -0.012890 377536.000000 0 0 1
36.652262 -11.706826 -20.543900 43.617541 -0.309161 2.061221 0.100104 -0.008923 349331.000000 0 0 1
36.416862 -10.749726 -21.551600 43.660233 -0.287034 2.087045 0.094792 -0.005227 -549404.000000 0 0 1
-36.410865 -11.069226 -22.983800 44.458226 0.295131 2.114110 0.069212 -0.006493 262972.000000 0 0 1
36.550352 -12.292026 -23.610000 45.215642 -0.324422 2.120183 0.068185 -0.001970 165350.000000 0 0 1
35.216292 -12.350526 -24.068300 44.407272 -0.337303 2.143600 0.076199 0.002020 -208082.000000 0 0 1
34.812462 -13.697126 -24.654700 44.803716 -0.374851 2.153499 0.034894 -0.014427 -183770.000000 0 0 1
34.606902 -14.836526 -23.780100 44.533732 -0.405014 2.134097 0.042480 -0.026285 594225.000000 0 0 1
33.556292 -14.770026 -22.819600 43.184633 -0.414638 2.127534 0.011812 -0.014750 -127346.000000 0 0 1
-30.024985 8.533374 -19.219600 36.656666 -0.276908 2.122706 0.029805 -0.005439 -714161.000000 0 0 1
-28.988385 7.660674 -19.343500 35.681695 -0.258361 2.143746 0.032623 -0.004932 -873434.000000 0 0 1
-28.233145 7.962874 -20.510500 35.793832 -0.274899 2.180980 0.046556 -0.021730 216938.000000 0 0 1
-27.063315 6.965174 -20.761400 34.813394 -0.251899 2.209758 0.051838 -0.021291 175169.000000 0 0 1
-25.918275 7.265174 -19.999700 33.533978 -0.273297 2.209806 0.047644 -0.011321 -221625.000000 0 0 1
-24.920625 6.269774 -20.041500 32.588484 -0.246474 2.233166 0.071998 -0.025938 984087.000000 0 0 1
-23.602625 6.717874 -19.281500 31.208812 -0.277291 2.236767 0.065598 -0.035203 739295.000000 0 0 1
-23.039125 7.832574 -19.897900 31.433690 -0.327710 2.256234 0.078880 -0.027443 63519.700000 0 0 1
-21.736325 8.027774 -19.340500 30.182245 -0.353786 2.266324 0.080523 -0.023920 508405.000000 0 0 1
-21.025225 9.232874 -19.989700 30.444936 -0.413780 2.287079 0.089965 -0.019215 -169451.000000 0 0 1
-20.852925 9.087674 -21.340000 31.190157 -0.410981 2.324289 0.097950 -0.028659 -155769.000000 0 0 1
-20.413625 10.235874 -22.019900 31.723259 -0.464786 2.338000 0.065571 -0.024426 359328.000000 0 0 1
-19.187625 9.842874 -22.907600 31.461170 -0.473978 2.386376 0.102813 -0.014313 313183.000000 0 0 1
-19.460725 8.800274 -23.827200 31.998439 -0.424688 2.410786 0.092806 -0.015314 -770825.000000 0 0 1
-18.327725 8.364474 -24.489700 31.711438 -0.428150 2.453198 0.072809 -0.007038 -600825.000000 0 0 1
-18.665025 7.284574 -25.540810 32.461995 -0.372099 2.476389 0.054091 0.001899 -210427.000000 0 0 1
-19.156625 6.090074 -24.957400 32.045859 -0.307806 2.463551 0.070185 -0.000224 192319.000000 0 0 1
-19.552925 5.191874 -25.933880 32.891314 -0.259540 2.479117 0.063288 -0.001856 -466128.000000 0 0 1
-20.026525 3.830574 -25.317520 32.507104 -0.188992 2.463595 0.052717 0.011675 791611.000000 0 0 1
-19.067225 2.773374 -24.960100 31.531845 -0.144440 2.484193 0.039570 0.009107 1648230.000000 0 0 1
-17.920825 3.161974 -24.148600 30.237541 -0.174644 2.495811 0.044277 -0.004452 475340.000000 0 0 1
-17.227825 1.889474 -23.627100 29.302012 -0.109239 2.508718 0.051143 -0.008795 7050.250000 0 0 1
-17.868225 1.124574 -22.583800 28.819544 -0.062854 2.471281 0.055842 -0.010959 354827.000000 0 0 1
-19.107225 0.494974 -22.917100 29.841657 -0.025899 2.446441 0.046487 -0.001895 444203.000000 0 0 1
-19.659725 -0.300326 -21.713900 29.293146 0.015275 2.405745 0.054900 -0.007848 32801.300000 0 0 1
-18.941325 -1.520326 -21.538500 28.722676 0.080093 2.418674 0.070779 -0.018687 158024.000000 0 0 1
-19.451725 -2.223026 -20.442300 28.305460 0.113791 2.377779 0.066185 -0.018156 -350095.000000 0 0 1
-18.934225 -3.672526 -20.299300 28.000962 0.191583 2.381758 0.057822 -0.034105 -60470.900000 0 0 1
-19.272925 -4.466226 -21.402300 29.145347 0.227716 2.395475 0.060301 -0.037123 201688.000000 0 0 1
-19.424225 -5.811326 -21.019200 29.204088 0.290704 2.374217 0.061955 -0.035641 -288548.000000 0 0 1
-19.329025 -6.833726 -22.169900 30.196282 0.339832 2.395274 0.049273 -0.037844 -530731.000000 0 0 1
-18.039025 -6.987126 -22.693700 29.819966 0.369540 2.435686 0.050627 -0.030843 -308510.000000 0 0 1
-18.089125 -7.777526 -23.862000 30.937055 0.406061 2.451690 0.059571 -0.034828 88638.000000 0 0 1
-16.687125 -7.985026 -24.463700 30.670725 0.446312 2.494142 0.050991 -0.037252 -560487.000000 0 0 1
-16.672725 -8.730626 -25.686490 31.843356 0.482386 2.509261 0.064737 -0.053373 202887.000000 0 0 1
-15.411225 -8.985426 -26.283620 31.765900 0.527859 2.545287 0.078338 -0.049701 487726.000000 0 0 1
-14.303825 -9.803626 -25.566850 30.892949 0.600850 2.545606 0.075939 -0.048026 -238155.000000 0 0 1
-13.690925 -9.171026 -24.476600 29.506831 0.590211 2.549050 0.072780 -0.040886 -97695.200000 0 0 1
-12.769125 -9.975526 -23.805400 28.796853 0.663186 2.543954 0.052243 -0.032920 -435736.000000 0 0 1
-11.905125 -9.218126 -22.811500 27.332588 0.658872 2.558184 0.073050 -0.029059 -429717.000000 0 0 1
-12.557025 -8.738826 -21.672800 26.528404 0.607990 2.526926 0.069512 -0.022739 -316520.000000 0 0 1
-11.643325 -8.087926 -20.878700 25.236911 0.607120 2.545095 0.070757 -0.015390 -996980.000000 0 0 1
-12.185825 -7.729826 -19.497100 24.256575 0.565280 2.504429 0.063094 -0.015649 485269.000000 0 1 0
-13.192825 -6.697126 -19.407000 24.403560 0.469736 2.490221 0.059014 -0.014271 854075.000000 0 1 0
-14.503825 -7.223726 -19.566400 25.404471 0.462092 2.449943 0.068472 -0.030716 176654.000000 0 0 1
-15.700625 -6.262826 -19.309700 25.663147 0.379549 2.422539 0.066697 -0.026562 265465.000000 0 0 1
-15.906925 -5.643526 -18.035200 24.701175 0.340931 2.389316 0.057448 -0.021668 -15549.000000 0 1 0
-15.215025 -4.447326 -17.933400 23.934964 0.284376 2.417733 0.059855 -0.020171 -863418.000000 0 1 0
-14.833625 -4.000526 -16.483200 22.533009 0.263426 2.391335 0.072022 -0.019095 -208869.000000 0 1 0
-15.838025 -3.750126 -15.520500 22.489828 0.232498 2.332440 0.094998 -0.033313 -14973.700000 0 1 0
-16.664325 -2.629826 -15.850400 23.148453 0.156521 2.325027 0.060644 -0.030843 -720890.000000 0 1 0
-17.895225 -2.521326 -14.974700 23.469934 0.139972 2.262743 0.060129 -0.035095 -751565.000000 0 1 0
-17.655025 -2.474226 -13.594800 22.419640 0.139236 2.222295 0.090016 -0.038033 268727.000000 0 1 0
-18.663425 -1.791026 -12.887900 22.751465 0.095672 2.173006 0.083281 -0.035902 15065.400000 0 1 0
-18.066225 -0.608526 -12.074400 21.738213 0.033670 2.159695 0.072653 -0.030215 160832.000000 0 1 0
-17.811825 0.446374 -12.974300 22.040708 -0.025055 2.200186 0.096207 -0.037960 918633.000000 0 1 0
-16.804625 1.361474 -12.493500 20.984198 -0.080841 2.208531 0.083202 -0.027828 136879.000000 0 1 0
-16.222325 2.365874 -13.546000 21.266295 -0.144820 2.261358 0.081618 -0.025857 157796.000000 0 1 0
-15.541325 1.737474 -14.583800 21.383143 -0.111335 2.321322 0.080976 -0.034754 -122114.000000 0 1 0
-14.191725 1.394474 -14.377900 20.250274 -0.097945 2.360309 0.070720 -0.026458 -499775.000000 0 1 0
-13.716225 0.334974 -15.425000 20.644070 -0.024417 2.414617 0.071626 -0.025517 105619.000000 0 1 0
-13.111125 0.941574 -16.555300 21.139208 -0.071692 2.470522 0.070913 -0.034661 304295.000000 0 1 0
-12.706125 -0.014926 -17.542800 21.660925 0.001175 2.514748 0.044356 -0.023910 10447.900000 0 1 0
-12.162325 0.550874 -18.852200 22.441725 -0.045263 2.568174 0.065276 -0.029036 429393.000000 0 1 0
-10.855325 1.123274 -18.697800 21.649654 -0.103110 2.613269 0.027978 -0.011351 330682.000000 0 1 0
-10.551825 2.114374 -19.652200 22.405815 -0.197761 2.640593 0.039017 -0.012774 -369794.000000 0 1 0
-9.175625 2.757674 -19.524700 21.748810 -0.291955 2.685400 0.029633 -0.009818 36767.600000 0 1 0
-8.156325 1.749674 -19.846300 21.528182 -0.211315 2.743689 0.027525 -0.007947 607189.000000 0 1 0
-6.822025 2.088074 -19.517000 20.780119 -0.297024 2.791133 0.022305 -0.001701 622699.000000 0 1 0
-6.181925 3.193074 -20.427300 21.579770 -0.476774 2.813302 0.018430 -0.001629 -893545.000000 0 1 0
-6.017725 2.774374 -21.746200 22.733398 -0.431992 2.845812 0.010852 0.003160 114490.000000 0 1 0
-5.921825 3.848374 -22.639000 23.715023 -0.576279 2.839201 0.018773 0.002980 -255881.000000 0 1 0
-5.360625 3.310374 -23.978100 24.792018 -0.553213 2.884645 0.035988 -0.009616 -223751.000000 0 1 0
-3.971125 3.129074 -23.882500 24.411775 -0.667354 2.932979 0.046595 -0.009513 -421449.000000 0 1 0
-3.446725 2.322774 -24.906500 25.250919 -0.592999 2.976239 0.073344 -0.018073 227241.000000 0 0 1
-2.124525 1.578074 -24.625000 24.766803 -0.638870 3.034532 0.064617 -0.021280 -751040.000000 0 1 0
-1.038225 2.430174 -24.405200 24.547860 -1.167045 3.033730 0.069555 -0.021750 -223442.000000 0 1 0
0.239775 1.832074 -24.337400 24.407438 1.440659 3.065818 0.068312 -0.022502 306994.000000 0 1 0
0.487575 0.745474 -23.245200 23.262261 0.991581 3.103291 0.058515 -0.032494 -1306040.000000 0 1 0
-0.013725 -0.538626 -23.446900 23.453090 1.545321 3.118617 0.047886 -0.028978 -525730.000000 0 1 0
0.685575 -1.537226 -22.759100 22.821256 -1.151289 3.067771 0.046878 -0.019054 -1122090.000000 0 1 0
0.152775 -2.988826 -22.914700 23.109303 -1.519725 3.011725 0.050645 -0.023805 -44950.700000 0 1 0
-1.044125 -3.274626 -22.218900 22.483169 1.262134 2.988118 0.041465 -0.019978 -437434.000000 0 1 0
-2.258825 -3.010926 -22.849500 23.157453 0.927161 2.978327 0.055751 -0.026071 -462830.000000 0 1 0
-2.865125 -1.592426 -22.752200 22.987113 0.507283 2.998507 0.047778 -0.025767 -1993160.000000 0 1 0
-3.367425 -1.296126 -21.448900 21.750283 0.367423 2.974928 0.030175 -0.024911 481444.000000 0 1 0
-4.323625 -0.226926 -21.454600 21.887098 0.052437 2.942465 0.022254 -0.022839 -21502.400000 0 1 0
-5.616025 -0.439126 -22.204500 22.907911 0.078033 2.893140 0.030343 -0.019312 -1869910.000000 0 1 0
-6.417925 -1.451026 -21.679200 22.655748 0.222351 2.846916 0.043705 -0.009043 1008540.000000 0 1 0
-7.809325 -1.198126 -22.022400 23.396734 0.152235 2.797138 0.037657 0.000119 1656220.000000 0 1 0
-8.799125 -2.378726 -21.794800 23.624060 0.264026 2.745480 0.047812 -0.003028 143194.000000 0 1 0
-8.654525 -3.414826 -22.736100 24.566076 0.375818 2.753171 0.073349 -0.008764 -240800.000000 0 1 0
-9.228325 -4.620226 -22.332800 24.602081 0.464173 2.708711 0.062800 -0.005990 417226.000000 0 1 0
-10.415025 -5.191026 -23.206800 25.961029 0.462380 2.676788 0.066078 -0.016562 793156.000000 0 0 1
-11.730025 -4.768226 -22.903400 26.170502 0.386095 2.636565 0.060312 -0.023841 99653.900000 0 0 1
-12.594425 -5.383626 -23.849600 27.502843 0.403953 2.620285 0.057407 -0.034630 675892.000000 0 0 1
-14.128425 -5.188426 -23.584600 27.977947 0.351944 2.573579 0.053023 -0.039249 663707.000000 0 0 1
-14.655825 -3.922226 -23.917800 28.323810 0.261494 2.576318 0.062243 -0.040696 -1677490.000000 0 0 1
-16.009525 -3.989026 -23.889000 29.032766 0.244193 2.537168 0.077027 -0.041249 -1754860.000000 0 0 1
-16.717925 -2.704026 -24.211700 29.546695 0.160355 2.531227 0.068867 -0.034245 -377242.000000 0 0 1
-16.413925 -2.323126 -25.514080 30.426668 0.140600 2.565400 0.054633 -0.029857 97858.800000 0 0 1
-16.921825 -1.048426 -25.899710 30.955489 0.061878 2.561982 0.044546 -0.024720 662009.000000 0 0 1
-18.356325 -0.980426 -26.537170 32.282151 0.053360 2.535778 0.045431 -0.013742 310938.000000 0 0 1
-18.433625 -1.739926 -27.758310 33.366894 0.094110 2.553340 0.059836 -0.026821 -197337.000000 0 0 1
-17.859025 -1.036026 -28.800900 33.904424 0.057946 2.585782 0.047969 -0.020891 -522444.000000 0 0 1
-17.818425 -1.818526 -30.106390 35.031386 0.101707 2.604915 0.041377 -0.022500 385662.000000 0 0 1
-19.118325 -2.258826 -30.482530 36.052701 0.117605 2.578296 0.033966 -0.021540 175570.000000 0 0 1
-19.166825 -3.048826 -31.742820 37.205767 0.157746 2.592828 0.038245 -0.028380 -781836.000000 0 0 1
-20.520425 -3.576026 -32.265660 38.405059 0.172534 2.568339 0.009365 -0.015035 722155.000000 0 0 1
-21.549825 -2.580326 -32.531580 39.106991 0.119170 2.553249 0.014737 -0.018539 1190470.000000 0 0 1
-22.182525 -2.057426 -31.345640 38.455774 0.092485 2.523713 0.008698 -0.004233 -831649.000000 0 0 1
-23.228025 -0.985826 -31.661200 39.280333 0.042416 2.508213 0.014076 -0.006074 -531960.000000 0 0 1
-22.804125 0.233174 -32.229840 39.482212 -0.010225 2.525795 0.004746 -0.006638 77257.800000 0 0 1
-23.879025 1.069574 -32.621910 40.441820 -0.044761 2.509238 0.008470 -0.008810 -91850.600000 0 0 1
-23.446925 2.271274 -33.436980 40.901694 -0.096567 2.527846 0.014292 -0.004119 -282717.000000 0 0 1
-22.816925 3.437574 -32.823010 40.122051 -0.149534 2.528859 0.010181 0.005263 828880.000000 0 0 1
-23.596825 4.239974 -31.927810 39.927090 -0.177787 2.497513 0.018599 0.001639 -577598.000000 0 0 1
-24.804025 5.016074 -32.445460 41.147400 -0.199537 2.479192 0.023619 -0.009169 -501590.000000 0 0 1
-25.848055 4.171374 -32.871450 42.024451 -0.160001 2.468983 0.039989 -0.021124 -344126.000000 0 0 1
-26.547345 4.752074 -33.941660 43.351816 -0.177128 2.470166 0.053126 -0.028168 94164.300000 0 0 1
-27.926545 4.033974 33.977995 44.166378 -0.143457 0.693023 0.074383 -0.025281 240757.000000 0 0 1
-28.105175 2.643974 33.672545 43.940092 -0.093798 0.697690 0.085590 -0.026098 -179677.000000 0 0 1
-29.403125 2.358274 33.237414 44.439070 -0.080034 0.725855 0.084467 -0.024786 -376703.000000 0 0 1
-29.588095 0.884474 32.852980 44.221668 -0.029884 0.733380 0.095834 -0.009316 -163374.000000 0 0 1
-29.552805 0.010074 33.957310 45.016300 -0.000341 0.716158 0.096507 -0.008402 275811.000000 0 0 1
-29.510205 -1.343326 33.584425 44.727735 0.045489 0.721428 0.082868 -0.009340 -666243.000000 0 0 1
-29.070695 -2.297526 -33.384620 44.327381 0.078868 2.423615 0.040266 -0.007805 907121.000000 0 0 1
-27.648725 -2.325526 -33.144170 43.224947 0.083912 2.444611 0.054258 -0.011277 1440210.000000 0 0 1
-26.997525 -1.140626 -32.697420 42.418022 0.042224 2.450952 0.052336 -0.005628 -664203.000000 0 0 1
-27.369755 -0.728426 -31.191750 41.503727 0.026608 2.421191 0.087528 -0.006821 -451081.000000 0 0 1
-26.758665 -1.560226 -30.249230 40.416288 0.058241 2.416505 0.064233 -0.013563 331892.000000 0 0 1
-27.041775 -1.134226 -28.927190 39.614724 0.041919 2.389430 0.074643 -0.017329 -461429.000000 0 0 1
-26.025925 -1.548326 -27.861350 38.157580 0.059422 2.389361 0.069669 -0.013756 -310430.000000 0 0 1
-25.970045 -2.919126 -27.596420 38.006932 0.111934 2.383413 0.051611 -0.009468 408472.000000 0 0 1
-25.072515 -3.160926 -26.510730 36.625691 0.125410 2.380132 0.059781 -0.013755 146964.000000 0 0 1
-25.434295 -4.460926 -25.835400 36.527676 0.173624 2.356444 0.054408 -0.021547 65888.500000 0 0 1
-26.578035 -4.382426 -25.019280 36.763595 0.163419 2.319302 0.070439 -0.018626 -83933.100000 0 0 1
-26.527435 -5.367326 -23.963700 36.149300 0.199636 2.295494 0.058677 -0.022915 1722420.000000 0 0 1
-27.889985 -5.281626 -23.091800 36.592049 0.187157 2.253716 0.074623 -0.023274 1724260.000000 0 0 1
-27.950925 -6.272926 -22.031000 36.138189 0.220768 2.226393 0.066182 -0.027395 -282791.000000 0 0 1
-29.190375 -6.188526 -21.386100 36.711593 0.208912 2.192651 0.091474 -0.021863 -298386.000000 0 0 1
-29.517885 -7.371526 -20.478100 36.674207 0.244725 2.163227 0.095189 -0.029371 -401439.000000 0 0 1
-28.573945 -7.571126 -19.468500 35.395123 0.259014 2.153201 0.076895 -0.027056 -116587.000000 0 0 1
-28.988265 -8.519426 -18.541200 35.449629 0.285844 2.121198 0.092026 -0.013146 362937.000000 0 0 1
-29.782285 -7.993126 -17.296400 35.355904 0.262206 2.081978 0.082797 -0.020740 -227445.000000 0 0 1
-28.920645 -7.328426 -16.454100 34.071204 0.248174 2.074797 0.073292 -0.027106 -69110.000000 0 0 1
-29.556945 -6.536026 -15.486300 34.002325 0.217631 2.043672 0.074028 -0.023028 -89868.700000 0 0 1
-28.506375 -5.827626 -14.607800 32.557064 0.201654 2.036087 0.079547 -0.030981 -92795.600000 0 0 1
-27.719315 -4.875026 -15.262500 32.016717 0.174091 2.067698 0.076541 -0.023871 23429.700000 0 0 1
-26.762415 -4.443426 -14.316200 30.674492 0.164531 2.056367 0.078695 -0.033247 -188542.000000 0 0 1
-14.817525 20.891174 -5.006300 26.097188 -0.953875 1.763826 0.074367 -0.018721 167910.000000 0 0 1
-15.001425 20.518674 -6.329100 26.193820 -0.939494 1.814837 0.118326 -0.020129 -332473.000000 0 0 1
-15.763225 19.366474 -6.348100 25.765053 -0.887611 1.819744 0.103107 -0.033962 -433815.000000 0 0 1
-15.794025 18.750174 -7.728400 25.705027 -0.870766 1.876178 0.133014 -0.039748 -272110.000000 0 0 1
-14.561425 18.206574 -8.180900 24.707115 -0.896184 1.908281 0.114982 -0.032037 230116.000000 0 1 0
-14.633025 17.106774 -9.094200 24.279036 -0.863179 1.954729 0.095874 -0.034347 -127358.000000 0 1 0
-15.190725 15.757474 -8.465200 23.467333 -0.803709 1.939839 0.095525 -0.032241 -540048.000000 0 1 0
-16.569725 15.836474 -8.328300 24.386682 -0.762775 1.919320 0.095256 -0.025216 -775529.000000 0 1 0
-16.946525 14.959874 -7.235100 23.734557 -0.723213 1.880560 0.106127 -0.018384 -241999.000000 0 1 0
-18.382225 15.288074 -6.818700 24.862141 -0.693760 1.848617 0.116848 -0.015456 177751.000000 0 1 0
-19.373925 14.769974 -7.719800 25.555751 -0.651367 1.877667 0.116695 -0.021431 910040.000000 0 0 1
-20.694825 15.288774 -7.497400 26.799877 -0.636277 1.854335 0.084853 -0.017376 575045.000000 0 0 1
-21.725125 14.660574 -8.424300 27.529662 -0.593627 1.881793 0.094455 -0.008218 -355029.000000 0 0 1
-21.975325 13.304374 -8.018200 26.911202 -0.544398 1.873341 0.127842 -0.016619 120853.000000 0 0 1
-22.680625 12.546074 -8.980200 27.430981 -0.505268 1.904320 0.127442 -0.018271 235569.000000 0 0 1
-23.103925 11.109374 -8.503700 27.009673 -0.448205 1.891083 0.135101 -0.019474 -160887.000000 0 0 1
-22.020725 10.219474 -8.494900 25.719901 -0.434505 1.907402 0.137505 -0.022921 -88792.100000 0 0 1
-22.112125 9.222374 -7.480200 25.098837 -0.395137 1.873424 0.135515 -0.028785 -154166.000000 0 0 1
-20.804925 8.405074 -7.359400 23.614634 -0.383945 1.887721 0.087065 -0.014443 -351163.000000 0 1 0
-20.748225 7.290374 -8.244100 23.486242 -0.337898 1.929455 0.106198 -0.024040 865211.000000 0 1 0
-19.789625 6.361974 -7.673100 22.158078 -0.311045 1.924409 0.083742 -0.009197 481654.000000 0 1 0
-19.405825 5.226074 -8.622100 21.868664 -0.263063 1.976067 0.056169 -0.025039 55679.200000 0 1 0
-20.547425 4.380674 -8.740800 22.754967 -0.210053 1.965059 0.088232 -0.025205 855473.000000 0 1 0
-20.254825 3.294974 -9.584700 22.649089 -0.161263 2.007751 0.081044 -0.025039 565998.000000 0 1 0
-21.325925 2.108174 -9.543500 23.458854 -0.098535 1.989765 0.093158 -0.027190 806125.000000 0 1 0
-21.000525 1.235874 -8.455400 22.672521 -0.058782 1.952968 0.082565 -0.029545 347292.000000 0 1 0
-21.912025 0.177074 -8.197400 23.395844 -0.008081 1.928771 0.090100 -0.030168 -74254.700000 0 1 0
-21.763625 -1.051326 -9.128300 23.623854 0.048269 1.967524 0.075542 -0.040407 14353.700000 0 1 0
-20.540925 -1.714126 -8.844100 22.429577 0.083256 1.976108 0.052827 -0.023871 430310.000000 0 1 0
-20.326625 -3.076926 -9.278000 22.554831 0.150234 1.994734 0.027746 -0.020655 -594383.000000 0 1 0
-21.176825 -4.137326 -8.575500 23.218841 0.192940 1.949088 0.017384 -0.021715 -335753.000000 0 1 0
-21.012025 -4.174126 -7.105300 22.570197 0.196101 1.891052 0.027739 -0.023194 656994.000000 0 1 0
-22.100625 -4.750026 -6.362700 23.483703 0.211707 1.845167 0.058129 -0.029254 12274.900000 0 1 0
-22.365025 -6.216826 -6.606900 24.134920 0.271126 1.848085 0.069040 -0.034583 -484370.000000 0 1 0
-21.343925 -7.080326 -6.144000 23.311861 0.320303 1.837504 0.059090 -0.034817 376815.000000 0 1 0
-21.573725 -8.390826 -6.444400 24.028355 0.370933 1.842320 0.073875 -0.032713 -157644.000000 0 1 0
-20.618925 -9.456726 -5.834300 23.422399 0.430018 1.822537 0.077638 -0.031557 258013.000000 0 1 0
-19.348725 -9.594726 -6.422000 22.531622 0.460350 1.859825 0.077885 -0.027000 379527.000000 0 1 0
-18.512025 -10.570126 -5.815000 22.096082 0.518813 1.837102 0.092399 -0.018297 485010.000000 0 1 0
-17.425825 -11.183426 -6.735500 21.773730 0.570570 1.885296 0.065962 -0.021270 153485.000000 0 1 0
-16.446525 -10.281926 -7.228200 20.699107 0.558724 1.927517 0.076864 -0.048609 277029.000000 0 1 0
-16.567025 -9.939026 -8.591500 21.143898 0.540367 1.989235 0.057825 -0.048115 -603427.000000 0 1 0
-15.721825 -10.737826 -9.591000 21.318160 0.599217 2.037448 0.073606 -0.033210 134252.000000 0 1 0
-16.244625 -12.030326 -9.892700 22.505157 0.637440 2.025922 0.116682 -0.036777 631197.000000 0 1 0
-15.348525 -12.647726 -10.865500 22.662773 0.689226 2.070816 0.103064 -0.016303 546935.000000 0 1 0
-15.670825 -13.971026 -11.502200 23.938774 0.728116 2.072003 0.126457 -0.014919 568223.000000 0 1 0
-16.558425 -13.948426 -12.661500 25.080941 0.700051 2.099976 0.118179 -0.013929 848994.000000 0 0 1
-16.995025 -15.221526 -13.102100 26.309518 0.730404 2.092085 0.116336 -0.006454 41096.600000 0 0 1
-17.301225 -15.221326 -14.604200 27.281931 0.721533 2.135667 0.131051 -0.006665 78219.000000 0 0 1
-17.789825 -16.410226 -15.239800 28.601134 0.745081 2.132748 0.121477 0.001627 370047.000000 0 0 1
-17.754325 -16.313426 -16.665800 29.310285 0.743128 2.175598 0.091200 -0.003283 -395870.000000 0 0 1
-18.007625 -17.588926 -17.460500 30.635174 0.773636 2.177241 0.083759 -0.013535 195657.000000 0 0 1
-19.266225 -18.225826 -17.262800 31.644469 0.757655 2.147810 0.059618 -0.003839 -501041.000000 0 0 1
-20.096425 -18.123426 -18.341400 32.691464 0.733822 2.166445 0.060097 -0.007050 -1221800.000000 0 0 1
-21.527525 -17.756126 -18.016900 33.216306 0.689687 2.144101 0.065482 -0.004610 -1120410.000000 0 0 1
-21.612425 -16.519326 -17.299500 32.237520 0.652618 2.137230 0.032122 0.003336 232317.000000 0 0 1
-21.549225 -16.675226 -15.899100 31.547006 0.658573 2.098998 0.031930 0.002110 -388309.000000 0 0 1
-21.367525 -15.316326 -15.141600 30.338573 0.621915 2.093342 0.040741 -0.004671 1232590.000000 0 0 1
-22.645725 -14.626626 -15.028200 30.864443 0.573480 2.079345 0.054073 -0.004325 1591460.000000 0 0 1
-22.385125 -13.356426 -14.473500 29.815602 0.537964 2.077656 0.051293 -0.008356 876181.000000 0 0 1
-23.693325 -12.482426 -14.193500 30.309075 0.484883 2.058153 0.068600 -0.014835 779890.000000 0 0 1
-24.484225 -13.077226 -13.199500 30.736263 0.490560 2.014673 0.088455 -0.014831 -25874.200000 0 0 1
-25.501645 -12.228526 -12.768700 31.030798 0.447129 1.994879 0.111158 -0.021727 -346687.000000 0 0 1
-26.561155 -12.881126 -11.848000 31.808701 0.451544 1.952473 0.108449 -0.023149 661650.000000 0 0 1
-27.553425 -11.985026 -11.286300 32.096925 0.410288 1.930110 0.102729 -0.032610 977632.000000 0 0 1
-28.210535 -12.444626 -10.103000 32.446473 0.415457 1.887435 0.095693 -0.027704 588992.000000 0 0 1
-29.047875 -11.304726 -9.366500 32.546999 0.371140 1.862708 0.116327 -0.033908 630142.000000 0 0 1
-28.202255 -10.295526 -8.801600 31.286310 0.350028 1.855970 0.110483 -0.035016 394297.000000 0 0 1
-28.973515 -9.276926 -8.259000 31.523594 0.309872 1.835884 0.136102 -0.040245 247555.000000 0 0 1
-28.047245 -8.095926 -7.757800 30.205552 0.281015 1.830541 0.127628 -0.031681 503050.000000 0 0 1
-27.267215 -8.514426 -6.647000 29.328809 0.302665 1.799420 0.109791 -0.038575 117465.000000 0 0 1
-26.578765 -7.517026 -5.892200 28.242776 0.275622 1.780967 0.107859 -0.035443 183509.000000 0 0 1
-27.410835 -6.577226 -4.940900 28.618635 0.235498 1.744312 0.128446 -0.041512 -460687.000000 0 0 1
-27.812345 -7.130626 -3.738200 28.954213 0.250978 1.700265 0.128454 -0.039827 246399.000000 0 0 1
-26.840665 -7.225726 -2.713300 27.928380 0.262974 1.668102 0.149961 -0.033087 -24522.800000 0 0 1
-26.370765 -5.903026 -2.007900 27.097871 0.220217 1.644962 0.145981 -0.036100 -847604.000000 0 0 1
-27.389825 -5.240226 -1.392600 27.921350 0.189036 1.620693 0.151648 -0.043347 -455495.000000 0 0 1
-26.965245 -4.024626 -0.755500 27.274398 0.148159 1.598500 0.130962 -0.039888 -349966.000000 0 0 1
-28.161445 -3.160726 -0.343600 28.340346 0.111768 1.582921 0.141958 -0.047492 -75420.100000 0 0 1
-29.078375 -3.451626 0.700900 29.290900 0.118148 1.546865 0.146856 -0.041805 515670.000000 0 0 1
-28.499015 -3.535526 1.994500 28.786660 0.123427 1.501455 0.132840 -0.034345 -90156.500000 0 0 1
-29.587895 -3.773126 3.064400 29.984505 0.126838 1.468418 0.137200 -0.031127 74053.100000 0 0 1
-29.801725 -5.134326 3.191200 30.408680 0.170608 1.465659 0.140050 -0.025843 736877.000000 0 0 1
-30.978185 -5.309226 4.031100 31.687309 0.169737 1.443236 0.152194 -0.027818 806673.000000 0 0 1
-31.703445 -6.571826 3.601100 32.577066 0.204396 1.460029 0.134258 -0.020639 -63142.900000 0 0 1
-31.027935 -7.682526 4.194700 32.238943 0.242719 1.440314 0.132125 -0.016121 589024.000000 0 0 1
-31.722655 -8.883526 3.912200 33.174526 0.273043 1.452593 0.138912 -0.022187 -120533.000000 0 0 1
-31.039345 -10.054126 4.566900 32.945150 0.313251 1.431727 0.124364 -0.014954 -118087.000000 0 0 1
-31.046115 -10.129626 5.986000 33.200945 0.315386 1.389509 0.110551 -0.014174 256541.000000 0 0 1
-30.291765 -11.248726 6.431300 32.946721 0.355563 1.374332 0.121286 -0.016799 -50877.000000 0 0 1
-30.284505 -11.630326 7.947600 33.400300 0.366669 1.330542 0.113440 -0.019488 -14209.400000 0 0 1
-29.717555 -10.581726 8.714200 32.726797 0.342078 1.301274 0.114910 -0.010789 463467.000000 0 0 1
-29.721325 -10.915426 10.074600 33.226514 0.351967 1.262737 0.112833 -0.016673 -484152.000000 0 0 1
-29.587245 -9.674826 10.920000 32.988690 0.316034 1.233409 0.115256 -0.017615 -219024.000000 0 0 1
-28.348045 -9.029226 10.750000 31.633859 0.308354 1.224065 0.096071 -0.014003 117542.000000 0 0 1
-28.309345 -7.926826 11.648100 31.621698 0.273016 1.193554 0.118948 -0.015313 23115.600000 0 0 1
-27.265425 -6.829226 11.348000 30.312024 0.245423 1.187076 0.133330 -0.017481 -378841.000000 0 0 1
-27.699385 -5.909326 10.373400 30.162617 0.210187 1.219712 0.158272 -0.014257 -90033.400000 0 0 1
-27.168135 -4.672726 10.490600 29.495671 0.170326 1.207170 0.149334 -0.020029 -487039.000000 0 0 1
-27.429275 -3.731526 9.294900 29.200763 0.135212 1.246850 0.145121 -0.025789 -114427.000000 0 0 1
-26.641465 -4.030826 8.169700 28.155980 0.150160 1.276404 0.120102 -0.021646 284112.000000 0 0 1
-27.059055 -3.316226 6.997300 28.145195 0.121947 1.319547 0.116599 -0.037920 -346910.000000 0 0 1
-26.294725 -3.789826 5.791200 27.190317 0.143143 1.356165 0.114243 -0.021077 -753468.000000 0 0 1
-24.920725 -3.544126 5.854400 25.843323 0.141269 1.342278 0.125538 -0.040268 -457812.000000 0 0 1
-24.368125 -3.797526 4.638500 25.094668 0.154596 1.384887 0.131570 -0.029015 -129243.000000 0 0 1
-22.809625 -3.787426 4.618300 23.578640 0.164544 1.373654 0.130000 -0.030617 338003.000000 0 1 0
-22.344025 -2.484726 4.804200 22.989337 0.110748 1.360269 0.093935 -0.024497 -1176690.000000 0 1 0
-21.029325 -2.372226 4.440500 21.623552 0.112331 1.363970 0.074240 -0.016471 -1404560.000000 0 1 0
-20.446325 -0.958326 4.731800 21.008582 0.046836 1.343615 0.044538 -0.021084 -585143.000000 0 1 0
-20.719525 0.024274 3.770500 21.059819 -0.001172 1.390788 0.054463 -0.012532 -319327.000000 0 1 0
-21.915425 0.675274 3.945400 22.277971 -0.030803 1.392759 0.058386 -0.035007 -1216180.000000 0 1 0
-22.162125 1.736374 2.892200 22.417395 -0.078189 1.441420 0.085469 -0.026074 -422958.000000 0 1 0
-21.303325 2.843374 2.989900 21.699215 -0.132687 1.432568 0.050679 -0.021968 129701.000000 0 1 0
-21.598125 3.814474 1.992000 22.022653 -0.174809 1.480220 0.073157 -0.018134 -33949.600000 0 1 0
-20.409325 4.325874 1.140600 20.893891 -0.208865 1.516179 0.037549 -0.004927 -482800.000000 0 1 0
-20.665625 5.150374 0.039600 21.297792 -0.244248 1.568937 0.050273 -0.006178 318010.000000 0 1 0
-21.453725 4.599574 -1.029600 21.965392 -0.211198 1.617687 0.066018 -0.018193 -259096.000000 0 1 0
-21.022425 3.404974 -1.857900 21.377277 -0.160574 1.657816 0.059722 -0.014879 -771529.000000 0 1 0
-20.982925 2.202874 -1.089000 21.126327 -0.104601 1.622366 0.035793 -0.013976 470435.000000 0 1 0
-20.418225 1.170774 -1.826700 20.533179 -0.057277 1.659877 0.022922 -0.008421 -516557.000000 0 1 0
-19.655925 0.192274 -0.928700 19.678791 -0.009782 1.618007 0.027678 -0.012608 -61528.700000 0 1 0
-20.505925 -0.695626 -0.154300 20.518300 0.033910 1.578317 0.042082 -0.013280 1008870.000000 0 1 0
-19.822425 -1.498126 0.787500 19.894548 0.075434 1.531202 0.039723 -0.013208 -244687.000000 0 1 0
-19.065425 -2.761226 0.241200 19.265850 0.143829 1.558276 0.032190 -0.012730 73163.400000 0 1 0
-18.510725 -3.554826 1.284000 18.892654 0.189732 1.502781 0.049873 -0.011815 465305.000000 0 1 0
-17.918425 -4.716226 0.764200 18.544453 0.257368 1.529576 0.049655 -0.008164 -301684.000000 0 1 0
-18.901825 -5.881026 0.492400 19.801714 0.301641 1.545927 0.057948 -0.012280 -25346.400000 0 1 0
-19.649925 -6.182226 1.677500 20.667691 0.304814 1.489542 0.101547 -0.017710 204975.000000 0 1 0
-20.575025 -7.169426 1.390900 21.832703 0.335296 1.507046 0.078916 -0.024952 -712808.000000 0 1 0
-21.420425 -7.601426 2.558100 22.872694 0.341005 1.458721 0.100281 -0.021271 -345913.000000 0 1 0
-20.534925 -8.134026 3.531600 22.367783 0.377146 1.412245 0.095191 -0.021204 1147890.000000 0 1 0
-21.241725 -8.422426 4.712300 23.331393 0.377489 1.367425 0.099883 -0.024841 426456.000000 0 1 0
-20.229625 -9.148326 5.647000 22.908911 0.424702 1.321731 0.081722 -0.021547 293264.000000 0 1 0
-19.869725 -10.402826 5.120200 23.005243 0.482311 1.346350 0.088977 -0.013534 -48021.800000 0 1 0
-18.782725 -10.898326 5.840100 22.487130 0.525757 1.308076 0.094701 -0.019261 5375.010000 0 1 0
-18.086925 -12.109326 5.118100 22.359954 0.589967 1.339853 0.083682 -0.015759 245579.000000 0 1 0
-19.022525 -13.187926 4.992800 23.679229 0.606201 1.358350 0.093607 -0.017443 724537.000000 0 1 0
-18.340625 -14.391326 4.647800 23.771639 0.665323 1.374010 0.084644 -0.015982 -459801.000000 0 1 0
-19.095725 -15.648926 4.963300 25.182731 0.686518 1.372406 0.088954 -0.018178 -501976.000000 0 0 1
-18.560525 -16.913926 4.582700 25.525969 0.739015 1.390287 0.093228 -0.026390 -306780.000000 0 0 1
-19.387125 -17.937226 4.983500 26.878243 0.746572 1.384307 0.091216 -0.025628 -91080.700000 0 0 1
-18.572825 -19.279926 5.036200 27.240203 0.804076 1.384845 0.094757 -0.025053 143487.000000 0 0 1
-18.381725 -19.798226 3.751100 27.275049 0.822482 1.432830 0.095980 -0.027446 152304.000000 0 0 1
-17.563725 -20.944726 3.808700 27.598409 0.872973 1.432350 0.083598 -0.029073 -100824.000000 0 0 1
-16.078825 -20.742826 3.461700 26.472189 0.911392 1.439653 0.089899 -0.018675 -332510.000000 0 0 1
-15.417525 -21.970126 3.576200 27.077217 0.958897 1.438335 0.072525 -0.019732 -232206.000000 0 0 1
-14.031425 -21.812826 3.337200 26.149898 0.999170 1.442829 0.070657 -0.018119 358903.000000 0 0 1
-13.097425 -22.977226 3.777600 26.716394 1.052714 1.428925 0.087194 -0.016233 99466.800000 0 0 1
-13.236525 -24.047926 2.874700 27.600221 1.067629 1.466452 0.084061 -0.015972 321582.000000 0 0 1
-12.409825 -25.136606 3.274800 28.223696 1.112205 1.454504 0.071461 -0.019678 95961.700000 0 0 1
19.161775 19.001974 -24.249900 36.280936 0.781211 2.302842 0.081913 -0.014391 670674.000000 0 0 1
18.227775 19.215374 -25.367770 36.674325 0.811768 2.334642 0.063183 -0.019263 1216490.000000 0 0 1
18.949275 19.146174 -26.579280 37.843218 0.790567 2.349493 0.069015 -0.026906 -81616.500000 0 0 1
18.007675 19.239874 -27.774710 38.286860 0.818467 2.382466 0.060261 -0.023495 -31978.500000 0 0 1
17.484975 20.538774 -27.909290 38.813581 0.865539 2.373245 0.057029 -0.014289 367518.000000 0 0 1
16.440575 20.679674 -28.852140 39.120166 0.899105 2.400196 0.040593 -0.016661 -107846.000000 0 0 1
16.196375 22.072274 -29.213040 40.036353 0.937752 2.388625 0.054659 -0.008071 -632638.000000 0 0 1
15.566275 22.865674 -28.261860 39.545932 0.973093 2.366933 0.055722 -0.016636 283584.000000 0 0 1
15.384575 24.237174 -28.568150 40.500185 1.005216 2.353760 0.054553 -0.009749 3320.830000 0 0 1
14.519575 25.009674 -27.526280 39.924904 1.044795 2.331528 0.058499 -0.017623 268209.000000 0 0 1
13.122975 24.745474 -27.542520 39.282838 1.083189 2.347782 0.071354 -0.026850 257389.000000 0 0 1
12.549075 25.553074 -26.539580 38.920280 1.114295 2.321148 0.074639 -0.018773 -610552.000000 0 0 1
11.142175 25.132174 -26.056330 37.877521 1.153492 2.329402 0.094103 -0.018678 421525.000000 0 0 1
10.500075 26.123474 -25.230970 37.805943 1.188618 2.301483 0.083824 -0.023094 -88676.300000 0 0 1
9.856875 27.094674 -25.971540 38.804642 1.221886 2.304048 0.090693 -0.028287 -794400.000000 0 0 1
9.297175 28.203974 -25.025230 38.835084 1.252373 2.271031 0.100670 -0.029348 -197939.000000 0 0 1
10.298375 28.946774 -24.340500 39.197349 1.228991 2.240780 0.095053 -0.020637 73410.200000 0 0 1
9.921675 29.413274 -23.049600 38.663476 1.245462 2.209505 0.120664 -0.038218 -426505.000000 0 0 1
11.051775 29.655674 -22.034600 38.563251 1.214070 2.178993 0.083693 -0.029602 -336680.000000 0 0 1
11.991575 30.641374 -22.363200 39.784474 1.197767 2.167730 0.068931 -0.039465 -127607.000000 0 0 1
12.665575 31.076874 -21.201600 39.695047 1.183793 2.134253 0.057800 -0.029266 -405721.000000 0 0 1
13.853875 31.999374 -21.491700 40.960749 1.162218 2.123147 0.063739 -0.018642 57206.800000 0 0 1
14.931975 31.245874 -22.038700 41.048421 1.124996 2.137549 0.053864 -0.013370 88852.000000 0 0 1
15.988075 32.066474 -22.514200 42.317449 1.108276 2.131794 0.044851 -0.011731 527358.000000 0 0 1
17.216475 31.268874 -23.045100 42.487953 1.067497 2.144077 0.004287 0.007631 -78784.500000 0 0 1
17.934175 30.626874 -22.085200 41.801867 1.041055 2.127429 0.013541 0.015533 143947.000000 0 0 1
19.119775 30.072074 -22.692600 42.247480 1.004470 2.137833 0.010479 0.018189 710483.000000 0 0 1
20.154675 29.446174 -21.725800 41.776770 0.970577 2.117700 0.017845 0.019407 117701.000000 0 0 1
20.954475 30.307374 -20.930700 42.375950 0.965866 2.087399 0.020658 0.021148 414112.000000 0 0 1
21.814775 29.436774 -20.177300 41.827402 0.933034 2.074182 0.030573 0.028878 246060.000000 0 0 1
22.482975 30.075274 -18.950000 42.060775 0.928861 2.038165 0.036817 0.016688 -183206.000000 0 0 1
23.468475 31.046174 -19.198300 43.395956 0.923516 2.029068 0.035606 0.016341 -168573.000000 0 0 1
24.087775 31.371574 -17.983200 43.448729 0.915987 1.997525 0.048108 0.012080 -281552.000000 0 0 1
25.281875 32.318774 -18.163500 44.873033 0.906963 1.987530 0.046635 0.005589 162170.000000 0 0 1
26.303375 31.783474 -19.003400 45.422307 0.879463 2.002448 0.064500 0.011877 258073.000000 0 0 1
27.424075 32.685274 -18.964200 46.690983 0.872703 1.989049 0.068895 0.002604 1223990.000000 0 0 1
28.778075 31.965974 -19.316400 47.150021 0.837831 1.992899 0.065246 -0.000398 432240.000000 0 0 1
29.220675 30.972374 -18.473700 46.415659 0.814491 1.980138 0.065363 0.010122 272382.000000 0 0 1
30.428875 30.391974 -18.975300 47.006920 0.784791 1.986321 0.047270 0.001561 575689.000000 0 0 1
30.994675 29.212074 -18.131500 46.290026 0.755799 1.973268 0.048575 -0.007708 -114024.000000 0 0 1
31.474675 29.634474 -16.857000 46.400600 0.755294 1.942596 0.053586 0.002558 148545.000000 0 0 1
31.713175 28.529774 -16.008400 45.562511 0.732605 1.929809 0.054809 -0.004115 -323083.000000 0 0 1
32.242275 28.928474 -14.619200 45.718070 0.731278 1.896282 0.064622 -0.006141 904603.000000 0 0 1
33.582775 29.449474 -14.579200 46.985396 0.719918 1.886297 0.027900 -0.003700 684873.000000 0 0 1
33.576375 30.854474 -14.619800 47.886429 0.743178 1.881051 0.046523 -0.012566 -1462670.000000 0 0 1
34.952775 31.380174 -14.818300 49.254379 0.731592 1.876383 0.048822 -0.017242 -1287440.000000 0 0 1
35.632175 31.336474 -13.597400 49.361076 0.721341 1.849873 0.043863 -0.013629 -746946.000000 0 0 1
-36.411311 31.533674 -13.832800 50.114893 -0.713733 1.850449 0.043384 -0.018437 -162854.000000 0 0 1
-35.667711 31.865874 -12.504500 49.436647 -0.729162 1.826514 0.044162 -0.013177 -324347.000000 0 0 1
-36.034211 33.050074 -11.765200 50.291070 -0.742229 1.806927 0.048159 -0.015460 -110689.000000 0 0 1
-35.130511 33.357874 -10.765500 49.626571 -0.759522 1.789465 0.048327 -0.011267 -575132.000000 0 0 1
-35.639311 -33.626407 -10.021200 50.013200 0.756346 1.772533 0.054580 -0.005681 122491.000000 0 0 1
-34.761611 -32.911507 -9.149300 48.736502 0.758066 1.759647 0.057443 -0.000856 8334.680000 0 0 1
-34.310911 -33.610607 -7.980900 48.688872 0.775088 1.735456 0.049087 -0.011783 -34933.600000 0 0 1
-34.240211 -32.722807 -6.754900 47.841434 0.762742 1.712463 0.044479 -0.007725 39669.100000 0 0 1
-35.408511 -31.957107 -6.529300 48.141989 0.734209 1.706841 0.047657 -0.006886 -151671.000000 0 0 1
-35.210311 -30.956507 -5.549400 47.210880 0.721197 1.688614 0.064792 -0.010493 405046.000000 0 0 1
-36.620711 -30.342107 -5.292300 47.851106 0.691909 1.681622 0.071783 -0.009486 297336.000000 0 0 1
35.969175 -31.302307 -4.629000 47.906614 -0.716135 1.667573 0.058540 -0.012580 -299951.000000 0 0 1
34.696975 -30.786407 -4.335400 46.588396 -0.725751 1.663989 0.052420 -0.006048 -445658.000000 0 0 1
34.510875 -29.727907 -3.184100 45.660568 -0.711079 1.640587 0.053132 0.002683 -587508.000000 0 0 1
35.092475 -28.460407 -3.503500 45.318331 -0.681419 1.648182 0.078325 -0.010560 190388.000000 0 0 1
34.844775 -27.594407 -2.416700 44.513482 -0.669797 1.625114 0.059796 -0.008857 -32225.300000 0 0 1
35.285475 -26.108107 -2.573400 43.969540 -0.637013 1.629357 0.078198 -0.021159 -98555.100000 0 0 1
34.700375 -25.604807 -3.743200 43.286646 -0.635701 1.657379 0.091801 -0.020970 147106.000000 0 0 1
34.643075 -24.205007 -3.835000 42.435036 -0.609851 1.661293 0.096117 -0.026205 -79328.200000 0 0 1
34.171575 -23.776007 -5.251200 41.959149 -0.607890 1.696276 0.099668 -0.034236 273330.000000 0 0 1
35.256675 -23.929207 -6.165400 43.054062 -0.596297 1.714492 0.106295 -0.040557 802915.000000 0 0 1
34.748775 -23.649407 -7.458500 42.689590 -0.597575 1.746412 0.097683 -0.044637 688484.000000 0 0 1
35.899375 -23.156107 -8.425000 43.542520 -0.572872 1.765513 0.101863 -0.053077 592492.000000 0 0 1
36.641275 -24.218407 -8.930100 44.820319 -0.584041 1.771381 0.096248 -0.032121 -6334.020000 0 0 1
-35.559911 -23.837607 -9.551600 43.863104 0.590549 1.790314 0.098119 -0.031502 507497.000000 0 0 1
-34.851511 -24.928707 -10.391500 44.091400 0.620910 1.808715 0.099596 -0.036223 -349114.000000 0 0 1
-34.246011 -26.078507 -9.820300 44.151060 0.650824 1.795097 0.082610 -0.015168 98915.800000 0 0 1
-35.134311 -27.000707 -9.253000 45.266721 0.655236 1.776658 0.078185 -0.017408 -264596.000000 0 0 1
-34.363411 -28.112107 -8.541600 45.211652 0.685670 1.760863 0.066908 -0.011351 -110470.000000 0 0 1
-33.851111 -29.084007 -9.454700 45.619826 0.709796 1.779559 0.053430 -0.010125 -41844.000000 0 0 1
-32.975711 -29.992107 -8.865600 45.448024 0.738051 1.767126 0.050685 -0.011636 -126897.000000 0 0 1
-32.320011 -30.975407 -9.902400 45.848844 0.764158 1.788491 0.041587 -0.002155 351996.000000 0 0 1
-31.437711 -30.422207 -10.882900 45.080793 0.768983 1.814614 0.032003 0.010629 484835.000000 0 0 1
-30.986811 -31.305107 -11.901200 45.627083 0.790508 1.834685 0.027592 0.011947 -34139.100000 0 0 1
-30.969611 -30.772407 -13.334100 45.649272 0.782204 1.867217 0.008988 0.014544 -333585.000000 0 0 1
-30.105511 -29.697807 -13.537100 44.402192 0.778581 1.880603 0.005946 0.017295 -33394.900000 0 0 1
-30.552811 -28.906607 -14.660600 44.542108 0.757719 1.906189 -0.003866 0.020599 -29310.700000 0 0 1
-29.466911 -27.880407 -14.995100 43.248919 0.757740 1.924864 0.004806 0.013221 -654450.000000 0 0 1
-28.334211 -28.496007 -15.494500 43.068892 0.788245 1.938808 0.023335 0.004528 -630771.000000 0 0 1
-27.343511 -27.535407 -15.862600 41.922408 0.788895 1.958842 0.043716 0.004856 887714.000000 0 0 1
-26.058111 -28.211807 -16.470000 41.787463 0.825062 1.975925 0.063436 -0.003919 358757.000000 0 0 1
-26.378211 -28.991707 -17.623500 42.975770 0.832564 1.993338 0.048182 -0.004092 133073.000000 0 0 1
-26.716911 -28.286207 -18.855400 43.236893 0.813921 2.022051 0.050176 -0.001177 -83261.800000 0 0 1
-25.542711 -27.595507 -19.600700 42.404357 0.824010 2.051308 0.054821 -0.008822 122179.000000 0 0 1
-25.090611 -26.525907 -18.781100 41.059618 0.813198 2.045877 0.059385 -0.007450 -131627.000000 0 0 1
-23.706311 -26.310807 -18.952900 40.167900 0.837423 2.062175 0.070497 -0.020278 110943.000000 0 0 1
-23.217511 -25.188807 -18.006700 38.701034 0.826100 2.054744 0.075857 -0.017308 -106753.000000 0 0 1
-23.450511 -25.498707 -16.636000 38.430028 0.827217 2.018493 0.084718 -0.016642 437712.000000 0 0 1
-22.722411 -24.639307 -15.753700 37.034882 0.825850 2.010172 0.083335 -0.017746 171866.000000 0 0 1
-23.291611 -24.748107 -14.337300 36.885310 0.815707 1.970016 0.070974 -0.010051 567765.000000 0 0 1
-24.672211 -24.463107 -14.119500 37.503625 0.781143 1.956794 0.041634 0.005034 491540.000000 0 0 1
-24.908511 -24.234207 -12.765600 37.022848 0.771678 1.922826 0.029542 0.010744 782063.000000 0 0 1
-26.416411 -24.258307 -12.323000 37.922929 0.742836 1.901754 0.012903 0.019472 437192.000000 0 0 1
-27.066111 -25.547807 -12.518400 39.267991 0.756549 1.895253 0.021819 0.014295 1408440.000000 0 0 1
-28.441511 -25.653407 -12.101700 40.167997 0.733903 1.876828 0.008489 0.017281 1354910.000000 0 0 1
-29.531111 -24.697307 -12.737900 40.549939 0.696495 1.890335 0.013155 0.013936 -740813.000000 0 0 1
-29.668211 -23.359507 -12.259700 39.701002 0.666985 1.884728 0.020346 0.016162 -160628.000000 0 0 1
-30.058711 -23.121307 -10.901300 39.458323 0.655679 1.850711 0.029774 0.008983 -90785.900000 0 0 1
-31.572511 -23.439407 -10.652500 40.739477 0.638619 1.835350 0.022516 0.001164 -193793.000000 0 0 1
-32.517411 -22.609207 -11.248900 41.171544 0.607562 1.847535 0.053888 -0.014021 -186103.000000 0 0 1
-32.588211 -22.705907 -12.674800 41.691729 0.608543 1.879698 0.046656 -0.003261 -1273610.000000 0 0 1
-33.986211 -22.207907 -13.100300 42.659952 0.578789 1.882927 0.021057 -0.019769 -377804.000000 0 0 1
-34.998911 -23.059107 -12.731900 43.803510 0.582573 1.865712 0.050352 -0.017684 308690.000000 0 0 1
-36.280311 -22.738107 -13.318600 44.840468 0.559845 1.872369 0.077489 -0.027580 545989.000000 0 0 1
35.972875 -23.614607 -12.892300 44.921140 -0.580900 1.861888 0.078376 -0.014098 -591340.000000 0 0 1
36.048875 -24.860807 -13.523800 45.830932 -0.603740 1.870336 0.064829 -0.001740 195205.000000 0 0 1
35.191375 -25.825907 -12.943800 45.529686 -0.633098 1.859066 0.064019 -0.015439 43231.300000 0 0 1
35.055875 -27.087007 -13.798500 46.400635 -0.657860 1.872741 0.054259 -0.016117 -49478.400000 0 0 1
34.289075 -26.881007 -14.940300 46.060197 -0.664879 1.901136 0.057814 -0.025339 -297658.000000 0 0 1
34.261575 -28.058407 -15.764200 47.006805 -0.686188 1.912784 0.043212 0.001163 258669.000000 0 0 1
33.382775 -27.943107 -17.057000 46.756477 -0.696929 1.944220 0.032692 -0.010071 1196970.000000 0 0 1
31.964375 -28.012007 -16.864300 45.725249 -0.719595 1.948533 0.084929 -0.007389 699638.000000 0 0 1
31.155975 -27.835107 -17.983100 45.484941 -0.729163 1.977260 0.066926 -0.011730 645739.000000 0 0 1
29.626175 -28.005607 -17.726300 44.454988 -0.757286 1.980947 0.079328 -0.021893 549000.000000 0 0 1
29.070075 -27.128607 -16.768900 43.153524 -0.750865 1.969894 0.079788 -0.024171 -393601.000000 0 0 1
27.674875 -27.255907 -16.858700 42.343818 -0.777771 1.980283 0.098490 -0.025212 -276618.000000 0 0 1
26.859375 -26.322107 -15.940800 40.845911 -0.775296 1.971718 0.088836 -0.030955 -41229.500000 0 0 1
27.074675 -24.951007 -16.130800 40.196934 -0.744601 1.983726 0.078754 -0.038296 75225.300000 0 0 1
26.466875 -24.261507 -15.056800 38.933577 -0.741951 1.967880 0.077208 -0.034736 -332920.000000 0 0 1
26.282075 -22.780007 -15.392100 38.034102 -0.714139 1.987438 0.056339 -0.035617 -82194.000000 0 0 1
25.089575 -22.615807 -16.122800 37.428681 -0.733589 2.016132 0.068538 -0.038606 -56209.900000 0 0 1
24.841375 -21.277807 -16.459600 36.616355 -0.708283 2.037019 0.056262 -0.038950 260847.000000 0 0 1
23.348575 -20.852707 -16.547600 35.409242 -0.728992 2.057058 0.050338 -0.030781 216893.000000 0 0 1
22.861375 -20.528307 -15.248400 34.301131 -0.731680 2.031463 0.061157 -0.032353 366439.000000 0 0 1
21.541375 -19.996607 -15.279900 33.126583 -0.748226 2.050209 0.054067 -0.031064 413594.000000 0 0 1
21.234175 -18.794107 -14.324700 31.769572 -0.724515 2.038563 0.037429 -0.017479 -49850.100000 0 0 1
21.031575 -19.126907 -12.977100 31.250134 -0.738005 1.999031 0.039442 -0.018943 -71547.600000 0 0 1
20.830075 -17.917807 -12.279500 30.095281 -0.710380 1.991081 0.045983 -0.019376 139242.000000 0 0 1
19.774875 -18.105507 -11.140100 29.033720 -0.741357 1.964591 0.048603 -0.007130 -176145.000000 0 0 1
20.266575 -18.640607 -9.990200 29.291815 -0.743632 1.918838 0.048208 -0.021867 159568.000000 0 0 1
19.221575 -18.854207 -9.040600 28.402157 -0.775750 1.894739 0.040538 -0.021086 139920.000000 0 0 1
19.683075 -19.475707 -7.710900 28.743427 -0.780103 1.842389 0.033264 -0.018586 -153980.000000 0 0 1
20.569175 -18.743107 -6.912000 28.673520 -0.738981 1.814253 0.033222 -0.019981 18447.800000 0 0 1
21.178375 -19.434507 -5.841900 29.331748 -0.742486 1.771304 0.032598 -0.013757 -354540.000000 0 0 1
22.421475 -18.656907 -5.405600 29.665186 -0.694010 1.754040 0.031970 -0.019135 -291774.000000 0 0 1
23.505775 -18.768407 -6.309900 30.734173 -0.673801 1.777572 0.035412 -0.026713 185611.000000 0 0 1
24.470975 -17.775107 -6.054100 30.845343 -0.628209 1.768352 0.049167 -0.031700 -54191.300000 0 0 1
25.617775 -17.722907 -7.099500 31.949566 -0.605215 1.794876 0.063086 -0.048521 1079880.000000 0 0 1
26.691475 -18.705807 -7.119900 33.362180 -0.611273 1.785863 0.075312 -0.053125 1159690.000000 0 0 1
26.362075 -19.863307 -7.886600 33.936830 -0.645725 1.805331 0.074764 -0.055132 -175861.000000 0 0 1
27.376175 -20.998807 -7.658200 35.341942 -0.654322 1.789218 0.087329 -0.056764 -100076.000000 0 0 1
28.689475 -20.679107 -8.040100 36.267819 -0.624544 1.794340 0.090190 -0.052730 -410464.000000 0 0 1
29.416875 -21.862207 -8.128800 37.541791 -0.639126 1.789052 0.095942 -0.051421 -201096.000000 0 0 1
-30.134905 29.679774 4.476300 42.532796 -0.777789 1.465358 0.044712 -0.010803 145032.000000 0 0 1
-29.614245 30.592674 3.525800 42.724074 -0.801648 1.488177 0.038480 -0.008885 7763.400000 0 0 1
-28.577115 31.359574 4.127300 42.627561 -0.831788 1.473822 0.026551 0.000045 138261.000000 0 0 1
-28.080765 32.477074 3.188000 43.051748 -0.857868 1.496678 0.028566 0.000433 -375605.000000 0 0 1
-27.218055 31.984974 2.178200 42.054793 -0.865743 1.518979 0.027095 -0.006778 14639.600000 0 0 1
-26.993615 32.987274 1.218300 42.641526 -0.884994 1.542222 0.042238 -0.020287 -167454.000000 0 0 1
-25.939625 34.071274 1.536800 42.849476 -0.920081 1.534924 0.074502 -0.008989 -350566.000000 0 0 1
-24.607625 33.616574 1.541800 41.689164 -0.938909 1.533805 0.054297 -0.016450 -468864.000000 0 0 1
-23.778225 -33.778607 2.304300 41.372793 0.957429 1.515071 0.073916 -0.016154 254688.000000 0 0 1
-22.286125 34.036774 2.201100 40.743321 -0.991078 1.516746 0.068608 -0.029958 486541.000000 0 0 1
-21.627725 -33.932307 0.972700 40.250541 1.003345 1.546628 0.087041 -0.033114 764477.000000 0 0 1
-20.294325 33.763674 0.909500 39.403965 -1.029591 1.547713 0.079166 -0.033673 748880.000000 0 0 1
-19.398025 -33.960907 -0.284400 39.111474 1.051832 1.578068 0.084830 -0.033087 403554.000000 0 0 1
-19.113525 -32.552607 -0.438200 37.751703 1.039873 1.582404 0.086895 -0.022317 485985.000000 0 0 1
-18.396925 -31.958807 0.639800 36.881181 1.048478 1.553448 0.088054 -0.018559 -200749.000000 0 0 1
-18.146225 -30.415707 0.567900 35.422072 1.032875 1.554763 0.090304 -0.020943 -84151.200000 0 0 1
-17.244825 -30.030807 -0.443000 34.632782 1.049535 1.583588 0.084646 -0.016484 32809.500000 0 0 1
-17.208725 -28.623307 -0.560600 33.402817 1.029485 1.587580 0.066785 -0.014046 370623.000000 0 0 1
-16.185025 -28.108807 -1.631400 32.476476 1.048362 1.621051 0.058830 -0.009581 213213.000000 0 0 1
-16.586225 -28.347207 -2.931600 32.973645 1.041398 1.659821 0.052301 -0.010052 814262.000000 0 0 1
-15.590225 -27.810507 -3.853600 32.114321 1.059861 1.691082 0.053016 -0.006612 859991.000000 0 0 1
-16.163025 -27.792407 -5.294500 32.583630 1.044044 1.734010 0.067124 -0.007392 46134.000000 0 0 1
-17.115925 -26.772407 -5.478000 32.244769 1.001971 1.741512 0.066354 -0.010271 -365928.000000 0 0 1
-17.624525 -26.774007 -6.796400 32.766787 0.988629 1.779730 0.074094 -0.014920 578243.000000 0 0 1
-18.435725 -25.451707 -7.144000 32.228901 0.943920 1.794317 0.057457 -0.010106 700957.000000 0 0 1
-17.601025 -24.322607 -6.982500 30.824350 0.944374 1.799305 0.067475 -0.005323 282259.000000 0 0 1
-18.294925 -23.191307 -7.466200 30.467772 0.902879 1.818370 0.062010 -0.001886 91117.600000 0 0 1
-17.508825 -21.918807 -7.127100 28.944578 0.896785 1.819588 0.069990 -0.003994 508696.000000 0 0 1
-16.226525 -21.974807 -7.752200 28.395226 0.934751 1.847318 0.090987 -0.008730 -2979.550000 0 0 1
-15.384125 -20.948907 -7.243700 26.981460 0.937378 1.842600 0.136777 -0.028658 266375.000000 0 0 1
-14.146925 -20.832807 -8.157100 26.470353 0.974256 1.884054 0.116265 -0.023119 -81496.600000 0 0 1
-14.409825 -20.097807 -9.282700 26.414644 0.948762 1.929886 0.133159 -0.014668 113087.000000 0 0 1
-13.322425 -20.001107 -10.207100 26.109695 0.983197 1.972440 0.118231 -0.011072 557139.000000 0 0 1
-13.758625 -19.197107 -11.462900 26.253128 0.948948 2.022645 0.138744 -0.011220 1281200.000000 0 0 1
-14.885925 -19.757807 -12.220900 27.591884 0.925110 2.029645 0.124401 0.005469 840730.000000 0 0 1
-15.115425 -19.146407 -13.445100 27.853755 0.902512 2.074535 0.129677 -0.008226 -702684.000000 0 0 1
-16.332725 -19.616507 -14.167500 29.193891 0.876490 2.077491 0.124636 -0.008870 -275571.000000 0 0 1
-17.573825 -19.371107 -13.510600 29.438332 0.834007 2.047605 0.113905 -0.007013 743591.000000 0 0 1
-18.699625 -19.661207 -14.352700 30.695912 0.810460 2.057344 0.082815 -0.001513 307699.000000 0 0 1
-20.069425 -19.388007 -13.702900 31.087716 0.768130 2.027266 0.062621 0.006184 -274040.000000 0 0 1
-21.034625 -20.124707 -14.395700 32.476075 0.763295 2.030041 0.070423 -0.009930 -626370.000000 0 0 1
-22.347525 -19.874807 -13.950000 33.000338 0.726901 2.007244 0.045238 -0.001466 35678.600000 0 0 1
-23.335825 -20.707307 -14.825100 34.541813 0.725788 2.014395 0.051795 -0.010498 -195658.000000 0 0 1
-23.450725 -20.240307 -16.182900 34.949861 0.712050 2.052209 0.055714 -0.019737 422774.000000 0 0 1
-24.127025 -21.120407 -17.105700 36.342673 0.719047 2.060855 0.071607 -0.027815 -172282.000000 0 0 1
-24.558225 -20.563207 -18.451900 36.965179 0.697089 2.093437 0.071882 -0.024286 -363347.000000 0 0 1
-23.499725 -20.159107 -19.254200 36.460264 0.709031 2.127143 0.059277 -0.024155 -199266.000000 0 0 1
-24.023925 -19.793407 -20.507200 37.275638 0.689148 2.153340 0.066642 -0.024481 -290199.000000 0 0 1
-23.040925 -18.993307 -21.356700 36.711559 0.689401 2.191667 0.056957 -0.020689 -591569.000000 0 0 1
-22.017525 -19.793107 -21.879300 36.813615 0.732246 2.207224 0.053985 -0.018939 -569872.000000 0 0 1
-21.057125 -18.910707 -22.423300 36.108471 0.731746 2.240812 0.049458 -0.025241 336102.000000 0 0 1
-19.653525 -19.612907 -22.437700 35.698425 0.784364 2.250464 0.046336 -0.021933 300546.000000 0 0 1
-19.515025 -20.640007 -23.409000 36.807979 0.813407 2.260069 0.032606 -0.011651 -135615.000000 0 0 1
-18.188825 -21.112607 -23.255900 36.296176 0.859655 2.266240 0.030395 -0.011825 50765.000000 0 0 1
-18.071125 -22.496107 -23.931200 37.487901 0.894046 2.263177 0.040818 -0.014390 -259208.000000 0 0 1
-18.038825 -22.421407 -25.334760 38.340171 0.893296 2.292666 0.041300 -0.012487 152553.000000 0 0 1
-18.027125 -23.764507 -25.798380 39.437107 0.921831 2.283875 0.038507 -0.014971 -274527.000000 0 0 1
-17.971525 -23.810907 -27.324800 40.454662 0.924256 2.312361 0.048612 -0.005231 -305599.000000 0 0 1
-16.721325 -23.568107 -27.906400 40.172447 0.953730 2.338751 0.035730 -0.010038 -279577.000000 0 0 1
-16.820025 -23.805007 -29.300640 41.329397 0.955671 2.358810 0.047727 -0.009253 347222.000000 0 0 1
-15.403725 -23.693807 -29.933410 41.166494 0.994340 2.384929 0.031060 -0.016335 360589.000000 0 0 1
-14.561425 -24.743407 -29.507410 41.169874 1.038878 2.369889 0.046482 -0.019743 -776283.000000 0 0 1
-13.319725 -24.649707 -30.121190 41.137686 1.075384 2.392349 0.068529 -0.022379 -579892.000000 0 0 1
-12.371025 -25.793207 -29.689400 41.228537 1.123583 2.374768 0.073884 -0.018887 -792429.000000 0 0 1
-12.611925 -27.072807 -30.305930 42.549347 1.134838 2.363500 0.065858 -0.017791 182323.000000 0 0 1
-11.691325 -28.103007 -30.020960 42.751890 1.176559 2.349298 0.072090 -0.019319 296869.000000 0 0 1
-10.256325 -27.989607 -30.589460 42.712122 1.219557 2.369106 0.072656 -0.018979 -225388.000000 0 0 1
-9.421825 -27.019007 -30.057710 41.500162 1.235270 2.380785 0.089398 -0.029675 -251440.000000 0 0 1
-8.330225 -26.734807 -30.923110 41.717877 1.268743 2.405718 0.078942 -0.028204 126569.000000 0 0 1
-7.528925 -25.516507 -30.371320 40.375660 1.283877 2.422219 0.103831 -0.035026 -415065.000000 0 0 1
-8.127525 -24.222307 -30.556580 39.830659 1.247062 2.445202 0.113786 -0.028597 -38468.700000 0 0 1
-9.148325 -23.896507 -29.625400 39.145871 1.205178 2.429192 0.092045 -0.022419 -89883.800000 0 0 1
-9.554825 -22.437707 -29.649760 38.390801 1.168216 2.453272 0.094216 -0.032547 -11816.800000 0 0 1
-10.463225 -22.065907 -30.659380 39.196695 1.128017 2.468974 0.085203 -0.034117 54504.500000 0 0 1
-10.887725 -20.698407 -30.613070 38.524364 1.086552 2.489214 0.077025 -0.033022 35133.000000 0 0 1
-11.697425 -20.167007 -31.757680 39.396550 1.045192 2.508333 0.064528 -0.029181 -87087.200000 0 0 1
-12.230825 -18.836107 -31.584540 38.755324 0.994893 2.523479 0.063432 -0.026560 71018.500000 0 0 1
-12.836625 -18.475107 -32.804060 39.777064 0.963564 2.540464 0.060084 -0.022708 -248978.000000 0 0 1
-13.617025 -17.097607 -32.594250 39.244575 0.898237 2.550876 0.085436 -0.024018 407677.000000 0 0 1
-12.878725 -15.850107 -32.678450 38.535289 0.888460 2.583022 0.088943 -0.022558 363839.000000 0 0 1
-11.866525 -15.594707 -31.704020 37.271358 0.920335 2.587973 0.075260 -0.015745 428821.000000 0 0 1
-11.321925 -14.142807 -31.849820 36.641725 0.895724 2.624424 0.081307 -0.014949 487840.000000 0 0 1
-10.483525 -13.715707 -32.942300 37.191666 0.918178 2.658891 0.076640 -0.019972 373466.000000 0 0 1
-11.162725 -13.750507 33.969560 38.309449 0.888899 0.480606 0.083895 -0.019628 -187193.000000 0 0 1
-11.761925 -12.424107 33.458757 37.579113 0.812770 0.472672 0.077560 -0.009299 -422212.000000 0 0 1
-12.940025 -12.108507 -34.025970 38.364395 0.752214 2.661420 0.065302 -0.003799 -580168.000000 0 0 1
-13.667425 -11.135307 33.369496 37.740122 0.683660 0.486036 0.053795 -0.010231 363607.000000 0 0 1
-14.869325 -10.583107 -34.026448 38.612150 0.618562 2.649269 0.070540 -0.008432 126291.000000 0 0 1
-14.358625 -9.733707 -33.011000 37.291303 0.595739 2.657763 0.076206 -0.010398 421897.000000 0 0 1
-15.402025 -9.200807 -32.205210 36.865333 0.538488 2.633329 0.080493 -0.019821 587641.000000 0 0 1
-14.868625 -7.970807 -31.337540 35.590043 0.492095 2.647742 0.084228 -0.027786 141029.000000 0 0 1
-14.827825 -6.652507 -31.972340 35.865732 0.421731 2.671321 0.073885 -0.033526 382056.000000 0 0 1
-16.004925 -5.864807 -31.768610 36.052713 0.351243 2.649130 0.076963 -0.028623 315479.000000 0 0 1
-16.229225 -5.294607 -30.350800 34.822287 0.315352 2.629235 0.078029 -0.043063 -519426.000000 0 0 1
-16.447825 -6.229207 -29.304500 34.177297 0.362033 2.601043 0.069351 -0.044395 -70599.400000 0 0 1
-16.552925 -5.593507 -28.040080 33.038352 0.325870 2.584343 0.072404 -0.044776 273650.000000 0 0 1
-15.246425 -5.012007 -27.395820 31.750663 0.317605 2.611663 0.080431 -0.047648 430490.000000 0 0 1
-14.819225 -3.900107 -28.229200 32.120211 0.257343 2.644266 0.078558 -0.044396 172929.000000 0 0 1
-13.861425 -2.967907 -27.718220 31.132736 0.210928 2.668852 0.068390 -0.038024 423810.000000 0 0 1
-13.876225 -1.765907 -28.623700 31.858817 0.126581 2.687033 0.049079 -0.025297 -51338.000000 0 0 1
-13.550525 -2.068907 -29.947450 32.935495 0.151511 2.712337 0.050039 -0.027378 200292.000000 0 0 1
-13.451825 -0.863907 -30.668650 33.500209 0.064134 2.727487 0.047207 -0.028434 -143238.000000 0 0 1
-13.706525 -0.942907 -32.221210 35.028050 0.068684 2.738542 0.042922 -0.024802 -460656.000000 0 0 1
-14.988825 -1.479907 -32.485380 35.807190 0.098415 2.707449 0.022404 -0.022813 226717.000000 0 0 1
-15.110825 -1.540907 -33.885550 37.134107 0.101622 2.720195 0.011344 -0.013655 -684160.000000 0 0 1
-16.521425 -1.763907 33.765732 37.632346 0.106362 0.457289 -0.000403 -0.012335 -624625.000000 0 0 1
-16.486725 -1.862907 32.373114 36.377205 0.112517 0.473608 0.014222 -0.019339 800168.000000 0 0 1
-17.797025 -1.953907 31.788235 36.483472 0.109350 0.512941 0.012027 -0.012206 586971.000000 0 0 1
-17.671025 -2.049907 30.308025 35.143187 0.115488 0.530774 0.029493 -0.012781 -121398.000000 0 0 1
-17.143525 -0.855907 29.866295 34.447476 0.049885 0.521627 0.026986 0.000158 -254711.000000 0 0 1
-16.948725 -0.776907 28.487445 33.157162 0.045807 0.537162 0.028292 -0.013848 -292098.000000 0 0 1
-16.383025 0.533093 27.932575 32.386979 -0.032528 0.530680 0.033895 -0.014501 -64987.200000 0 0 1
-17.047725 1.786093 28.160865 32.967398 -0.104389 0.546779 0.032434 -0.009269 61167.800000 0 0 1
-18.298125 1.952093 27.508495 33.096062 -0.106281 0.589585 0.044902 -0.019074 186756.000000 0 0 1
-18.260825 2.701093 26.214935 32.062072 -0.146853 0.613513 0.056461 -0.029346 -430962.000000 0 0 1
-18.243325 4.108093 26.296785 32.267882 -0.221489 0.618149 0.045574 -0.019308 40327.300000 0 0 1
-18.546125 4.722093 25.057495 31.529906 -0.249316 0.652248 0.049442 -0.013358 -263672.000000 0 0 1
-18.658925 6.258093 25.230625 31.998494 -0.323604 0.662440 0.047498 -0.008956 60150.600000 0 0 1
-17.391625 6.856093 25.313925 31.468546 -0.375512 0.636098 0.041830 -0.007536 -240626.000000 0 0 1
-16.803325 7.149093 24.055385 30.201371 -0.402258 0.649312 0.044864 -0.003643 318531.000000 0 0 1
-15.575825 8.109093 24.187035 29.889402 -0.480008 0.627977 0.050530 -0.013873 320385.000000 0 0 1
-14.437125 7.554093 24.795315 29.669893 -0.482067 0.581379 0.035454 -0.013523 -482096.000000 0 0 1
-13.308825 8.176093 24.250345 28.845321 -0.550894 0.572216 0.052451 -0.009036 -49350.100000 0 0 1
-11.936425 7.968093 24.919705 28.756920 -0.588610 0.522521 0.046003 0.001122 164233.000000 0 0 1
-10.826225 8.353093 24.123135 27.729171 -0.657158 0.515685 0.043121 -0.009911 1071750.000000 0 0 1
-9.604325 8.547093 24.884225 28.009293 -0.727219 0.476889 0.040660 -0.014393 933125.000000 0 0 1
-9.467425 9.982093 25.445885 28.926932 -0.811854 0.495648 0.047910 -0.024694 -870451.000000 0 0 1
-10.344725 10.303093 26.485665 30.243305 -0.783382 0.503803 0.039985 -0.026847 14097.100000 0 0 1
-10.253225 11.680093 26.883515 31.052803 -0.850361 0.524178 0.046256 -0.030823 -731647.000000 0 0 1
-10.890225 12.798093 25.998415 30.956514 -0.865765 0.573814 0.043166 -0.033560 -265639.000000 0 0 1
-12.290825 12.812093 26.004555 31.487314 -0.806160 0.599046 0.047071 -0.027804 -87386.400000 0 0 1
-12.959825 11.785093 25.205315 30.694517 -0.737960 0.607344 0.050596 -0.021115 -391115.000000 0 0 1
-14.483825 11.942093 25.261205 31.472579 -0.689510 0.639085 0.026320 -0.005848 -317509.000000 0 0 1
-15.006825 13.040093 24.550685 31.590900 -0.715390 0.680681 0.044873 -0.024941 1034090.000000 0 0 1
-16.317225 12.722093 23.987775 31.678334 -0.662223 0.711735 0.045100 -0.008492 1278030.000000 0 0 1
-16.340525 12.127093 22.549365 30.373557 -0.638457 0.734149 0.036779 0.004806 -174405.000000 0 0 1
-16.162725 10.744093 22.563365 29.761966 -0.586671 0.710359 0.032334 0.000663 -56620.300000 0 0 1
-16.091825 10.282093 21.198965 28.531813 -0.568578 0.733264 0.033340 -0.002613 -25152.100000 0 0 1
-16.484725 8.790093 20.884965 28.021307 -0.489874 0.729775 0.037014 -0.003167 445793.000000 0 0 1
-17.880125 8.571093 20.790465 28.729879 -0.447003 0.761716 0.042181 0.000092 -84004.800000 0 0 1
-18.208925 7.190093 20.711265 28.499454 -0.376073 0.757254 0.042942 0.002807 626222.000000 0 0 1
-19.747625 6.970093 20.898865 29.585696 -0.339308 0.786420 0.053983 0.002419 738231.000000 0 0 1
-20.172125 7.491093 22.187465 30.908165 -0.355574 0.770085 0.049009 0.002734 -277235.000000 0 0 1
-21.569525 7.516093 22.283965 31.910988 -0.335301 0.797754 0.042982 -0.001359 -437514.000000 0 0 1
-22.064225 8.280093 23.528415 33.301295 -0.359009 0.786211 0.053592 -0.002968 -820743.000000 0 0 1
-21.882825 9.702093 23.530255 33.565779 -0.417323 0.793971 0.052423 0.004114 297025.000000 0 0 1
-20.588025 10.281093 23.471155 32.870393 -0.463145 0.775528 0.050958 0.005811 122199.000000 0 0 1
-19.594425 9.886093 24.589115 32.959079 -0.467270 0.728686 0.041835 -0.003332 -634586.000000 0 0 1
-19.973925 10.235093 25.921395 34.287512 -0.473536 0.713614 0.042864 0.002089 88890.400000 0 0 1
-19.245225 9.425093 26.783775 34.301336 -0.455403 0.674791 0.038182 -0.003668 -36910.900000 0 0 1
-31.816605 -13.908426 20.605365 40.377242 0.412111 1.035238 0.081241 -0.004152 242.293000 0 0 1
-30.816455 -14.909026 20.735265 40.023545 0.450604 1.026196 0.070871 -0.007082 308073.000000 0 0 1
-30.881545 -15.907026 19.762565 39.965763 0.475653 1.053551 0.062260 0.003047 103872.000000 0 0 1
-30.378895 -15.537126 18.297765 38.718054 0.472761 1.078569 0.057320 0.008452 -242666.000000 0 0 1
-31.242115 -14.664026 17.630465 38.754828 0.438843 1.098511 0.069294 -0.011882 -329769.000000 0 0 1
-30.838935 -14.437826 16.305865 37.754098 0.437860 1.124202 0.059232 -0.013458 -1375180.000000 0 0 1
-31.778805 -13.503926 15.539865 37.864704 0.401816 1.147898 0.062611 -0.018446 447217.000000 0 0 1
-33.075735 -14.056926 15.231365 39.033266 0.401864 1.169931 0.080349 -0.019763 728149.000000 0 0 1
-34.018995 -14.230026 16.246365 40.295533 0.396179 1.155807 0.082749 -0.019532 -763872.000000 0 0 1
-34.554126 -12.891526 16.884265 40.561773 0.357088 1.141468 0.075226 -0.018157 -747545.000000 0 0 1
-35.605857 -13.077326 17.801965 41.901115 0.351986 1.131993 0.056315 -0.015685 -129584.000000 0 0 1
-36.133415 -11.787526 18.075265 42.086632 0.315337 1.126882 0.050808 -0.008375 -433278.000000 0 0 1
36.186662 -11.842126 19.113065 42.603048 -0.316267 1.105563 0.047845 0.007280 -474296.000000 0 0 1
36.670262 -12.294326 20.372365 43.713749 -0.323490 1.085986 0.043786 0.003651 -118775.000000 0 0 1
35.726672 -12.097026 21.389065 43.361564 -0.326482 1.054949 0.043310 -0.001703 -1065280.000000 0 0 1
36.241222 -12.416826 22.829565 44.595883 -0.330082 1.033377 0.044876 -0.010738 -528827.000000 0 0 1
-36.072035 -11.699026 23.261495 44.487706 0.313620 1.020576 0.040626 -0.007860 -409060.000000 0 0 1
-34.862766 -12.293026 22.850065 43.458674 0.339000 1.017155 0.039541 -0.007688 -614528.000000 0 0 1
-33.587665 -11.436726 22.927465 42.244509 0.328190 0.997109 0.064620 -0.009916 -22093.900000 0 0 1
-33.561715 -10.432026 21.971165 41.448135 0.301364 1.012092 0.082896 -0.013992 -545069.000000 0 0 1
-32.245275 -10.079326 21.675565 40.139515 0.302961 1.000353 0.104679 -0.029637 -574151.000000 0 0 1
-31.960625 -8.748926 20.923265 39.189389 0.267195 1.007589 0.124217 -0.016420 62991.300000 0 0 1
-32.304795 -8.698326 19.522065 38.734631 0.263020 1.042578 0.124065 -0.010886 680870.000000 0 0 1
-33.697275 -8.785326 19.207465 39.769523 0.255036 1.066754 0.109150 -0.019761 170270.000000 0 0 1
-34.031415 -8.490526 17.759665 39.314525 0.244499 1.102090 0.104418 -0.013723 587353.000000 0 0 1
-35.430598 -8.658126 17.486565 40.448366 0.239672 1.123734 0.035271 -0.004442 766886.000000 0 0 1
-35.758457 -8.318526 16.123465 40.097771 0.228566 1.156983 0.044005 0.004807 568944.000000 0 0 1
36.125482 -8.463226 15.872965 40.356259 -0.230123 1.166555 0.048683 -0.001036 607944.000000 0 0 1
35.595052 -9.753326 16.116865 40.272676 -0.267444 1.159068 0.046436 0.009154 961493.000000 0 0 1
34.154372 -9.719826 16.023865 38.958445 -0.277255 1.146909 0.052245 0.008088 942537.000000 0 0 1
33.542732 -11.104226 16.174665 38.859214 -0.319692 1.141493 0.045198 0.004085 -130794.000000 0 0 1
33.280152 -11.490226 17.518765 39.325576 -0.332444 1.109086 0.029923 -0.002486 -15523.900000 0 0 1
32.044612 -12.162826 17.603265 38.531370 -0.362762 1.096339 0.050347 -0.010657 136615.000000 0 0 1
31.787372 -12.824926 19.009965 39.195593 -0.383485 1.064430 0.040828 -0.010289 -180713.000000 0 0 1
32.811132 -13.716326 19.330165 40.476700 -0.395960 1.072918 0.039247 -0.007151 -227151.000000 0 0 1
32.601812 -14.013826 20.705765 41.085206 -0.405970 1.042606 0.041557 -0.002650 -357465.000000 0 0 1
33.434522 -15.231926 21.169165 42.402976 -0.427480 1.048078 0.036602 0.004915 57899.400000 0 0 1
33.581052 -15.210326 22.582165 43.231878 -0.425299 1.021192 0.035503 -0.001998 -178671.000000 0 0 1
34.099612 -16.373726 23.142965 44.345003 -0.447661 1.021738 0.042163 0.001646 6127.820000 0 0 1
34.295842 -16.208126 24.642905 45.234731 -0.441486 0.994671 0.062048 -0.001087 568111.000000 0 0 1
35.357322 -15.281126 24.926465 45.880079 -0.407946 0.996438 0.054844 0.003644 622715.000000 0 0 1
35.827692 -15.311126 26.280695 46.997117 -0.403863 0.977378 0.050789 0.004616 -338535.000000 0 0 1
-36.496015 -14.274926 26.520505 47.318810 0.372842 0.975850 0.049065 -0.005187 -882305.000000 0 0 1
-35.233039 -14.703126 26.097265 46.245174 0.395340 0.971182 0.027996 0.000354 -349654.000000 0 0 1
-34.314791 -13.621926 26.159435 45.247958 0.377891 0.954355 0.036694 -0.006371 592307.000000 0 0 1
-32.840085 -14.077526 25.939855 44.153414 0.404974 0.942838 0.037950 0.000140 175121.000000 0 0 1
-32.457995 -14.227426 24.582345 43.130415 0.413110 0.964347 0.034560 0.001091 804440.000000 0 0 1
-31.140175 -14.740726 24.303775 42.162459 0.442115 0.956441 0.052437 -0.007195 818993.000000 0 0 1
-30.733715 -16.194026 24.608735 42.572262 0.484946 0.954464 0.056981 -0.007722 -641250.000000 0 0 1
-30.457845 -16.357326 25.967785 43.238504 0.492845 0.926581 0.052785 -0.009391 232905.000000 0 0 1
-30.150445 -17.710326 26.233605 43.713922 0.531102 0.927145 0.050902 -0.016373 -470596.000000 0 0 1
-29.885235 -17.943326 27.773765 44.569858 0.540719 0.898031 0.054257 -0.014738 570307.000000 0 0 1
-28.662025 -17.364826 28.264455 43.839802 0.544708 0.870138 0.054907 -0.014935 689582.000000 0 0 1
-28.426135 -17.839926 29.570645 44.729533 0.560459 0.848514 0.062290 -0.021187 666960.000000 0 0 1
-27.092045 -17.275326 30.170675 44.075905 0.567646 0.816856 0.059007 -0.026931 520830.000000 0 0 1
-27.225425 -15.895026 30.546735 43.897364 0.528445 0.801170 0.070702 -0.030431 -264105.000000 0 0 1
-26.040425 -15.202326 30.291695 42.741095 0.528420 0.783107 0.066716 -0.024989 -614403.000000 0 0 1
-26.025955 -13.847226 31.029665 42.801122 0.488961 0.759801 0.067449 -0.027223 -170010.000000 0 0 1
-25.458025 -13.825926 32.308005 43.394405 0.497520 0.730981 0.068438 -0.029981 108021.000000 0 0 1
-25.272045 -12.529726 32.867897 43.312457 0.460277 0.709242 0.065756 -0.021279 -389776.000000 0 0 1
-24.662425 -12.515526 -33.873950 43.730059 0.469608 2.456902 0.063627 -0.022671 44173.200000 0 0 1
-23.253525 -12.724226 -33.833910 42.980993 0.500688 2.477024 0.042682 -0.015119 477413.000000 0 0 1
-22.802725 -14.070526 -33.746000 43.089865 0.552865 2.470518 0.044529 -0.022639 -229526.000000 0 0 1
-23.063825 -14.734026 -32.384640 42.400429 0.568488 2.439947 0.052829 -0.025379 -1283030.000000 0 0 1
-22.113525 -14.427826 -31.409350 41.033125 0.578091 2.442557 0.044836 -0.017291 -188571.000000 0 0 1
-22.191325 -15.318526 -30.364350 40.609184 0.604182 2.415420 0.051771 -0.022031 -359725.000000 0 0 1
-20.806125 -15.535226 -29.750130 39.488078 0.641364 2.424007 0.044250 -0.017678 -81901.000000 0 0 1
-20.289525 -14.513226 -28.890470 38.170116 0.620925 2.429333 0.057603 -0.015958 125095.000000 0 0 1
-20.983825 -14.348326 -27.645150 37.555954 0.599757 2.398095 0.058323 -0.014624 141268.000000 0 0 1
-20.430025 -13.160626 -26.755020 36.144420 0.572273 2.404202 0.057557 -0.015152 -232097.000000 0 0 1
-19.172625 -13.275326 -26.164150 35.048346 0.605614 2.413607 0.057392 -0.022504 -452084.000000 0 0 1
-18.834325 -12.057626 -25.507810 33.922949 0.569451 2.421787 0.047465 -0.030008 -417540.000000 0 0 1
-17.456925 -11.981826 -24.875900 32.666784 0.601516 2.436427 0.057442 -0.029686 -1197920.000000 0 0 1
-17.449425 -12.721826 -23.702500 32.064556 0.629970 2.402696 0.061098 -0.024135 315797.000000 0 0 1
-16.175625 -12.844426 -23.082100 30.974400 0.671109 2.411630 0.071048 -0.028415 -111195.000000 0 0 1
-15.175325 -13.762826 -23.741200 31.358419 0.736626 2.429646 0.045334 -0.027360 -1371360.000000 0 0 1
-14.425625 -13.168126 -24.742300 31.522684 0.739858 2.473338 0.053490 -0.028466 -83196.900000 0 0 1
-13.756525 -14.115026 -25.570070 32.284739 0.798260 2.484903 0.057781 -0.032724 208048.000000 0 0 1
-12.729025 -13.456626 -26.563220 32.383846 0.813177 2.532664 0.073181 -0.029287 548266.000000 0 0 1
-13.334825 -12.492026 -27.444070 32.970369 0.752777 2.554195 0.098071 -0.032845 431289.000000 0 0 1
-12.314625 -11.831026 -28.194040 32.962510 0.765372 2.596996 0.099924 -0.033586 347094.000000 0 0 1
-12.851325 -10.745926 -29.202550 33.666309 0.696412 2.620773 0.084010 -0.028162 93776.000000 0 0 1
-11.891125 -9.956926 -29.881260 33.666436 0.697099 2.662836 0.082989 -0.021846 -47680.100000 0 0 1
-11.341825 -10.479226 -31.089140 34.712905 0.745888 2.680591 0.088817 -0.017467 79270.500000 0 0 1
-10.630825 -9.349326 -31.790870 34.800628 0.721347 2.722637 0.061827 -0.006998 564018.000000 0 0 1
-9.363025 -8.934926 -31.261640 33.834734 0.762006 2.749081 0.053811 -0.005342 259066.000000 0 0 1
-8.869025 -7.830526 -31.978740 34.097163 0.723291 2.787239 0.044045 -0.001599 214433.000000 0 0 1
-7.357825 -7.620826 -31.669420 33.394112 0.802955 2.818801 0.062612 -0.002487 -108201.000000 0 0 1
-6.965425 -7.357926 -30.311400 31.959931 0.812794 2.819007 0.042572 -0.000948 -285642.000000 0 0 1
-7.446925 -6.181726 -29.715010 31.251436 0.692830 2.826723 0.051871 -0.004376 -344734.000000 0 0 1
-6.865825 -4.822426 -30.226300 31.369165 0.612322 2.870830 0.054905 -0.013531 736355.000000 0 0 1
-5.459125 -4.663926 -30.022940 30.869583 0.707006 2.906847 0.067651 -0.016281 524957.000000 0 0 1
-4.876225 -3.589226 -30.769000 31.359073 0.634524 2.947294 0.066838 -0.020152 -377893.000000 0 0 1
-3.428125 -3.443326 -30.338590 30.725211 0.787610 2.982787 0.047764 -0.011455 -2478360.000000 0 0 1
-2.482325 -4.168426 -31.024450 31.401500 1.033687 2.986470 0.048921 -0.015274 -119186.000000 0 0 1
-1.156625 -3.861326 -30.596690 30.861060 1.279761 3.010606 0.066594 -0.013210 451570.000000 0 0 1
-0.639625 -2.409326 -30.767120 30.867939 1.311303 3.060748 0.070386 -0.013188 -758423.000000 0 0 1
0.765575 -2.332026 -30.414340 30.513219 -1.253594 3.061066 0.080783 -0.017521 1113810.000000 0 0 1
1.271475 -1.098426 -30.921310 30.966927 -0.712508 3.087307 0.054849 -0.006915 -52137.600000 0 0 1
1.344375 -0.055326 -29.806960 29.837313 -0.041130 3.096482 0.063488 -0.015735 -641628.000000 0 0 1
0.175175 0.564374 -29.376670 29.382613 1.269836 3.121480 0.072047 -0.019494 -752337.000000 0 0 1
0.511675 1.753874 -28.657060 28.715239 1.286935 3.077925 0.090874 -0.027420 825763.000000 0 0 1
-0.736325 2.535074 -28.075950 28.199783 -1.288119 3.047843 0.081874 -0.025125 307648.000000 0 0 1
-1.505525 3.103574 -29.083350 29.287199 -1.119145 3.023538 0.065816 -0.030804 -180727.000000 0 0 1
-2.214425 4.273274 -28.582160 28.984555 -1.092692 2.974767 0.105495 -0.034992 1034730.000000 0 0 1
-3.550725 4.492874 -29.411250 29.963564 -0.901997 2.949292 0.123836 -0.038146 656793.000000 0 0 1
-3.229825 4.947874 -30.740560 31.303279 -0.992476 2.951695 0.114708 -0.035369 322490.000000 0 0 1
-4.439425 5.073974 -31.466830 32.180974 -0.852000 2.930528 0.129913 -0.037878 -355942.000000 0 0 1
-4.280225 5.664774 -32.882410 33.640197 -0.923730 2.928936 0.138209 -0.035053 164198.000000 0 0 1
-3.770925 4.756074 -33.911720 34.450615 -0.900421 2.964485 0.154484 -0.033886 1236700.000000 0 0 1
-2.519625 4.078674 -33.633480 33.973446 -1.017423 3.000005 0.137386 -0.034187 325024.000000 0 0 1
-2.132225 3.161774 33.353318 33.570627 -0.977475 0.113844 0.109988 -0.030468 210315.000000 0 0 1
-3.115525 2.144774 33.055496 33.271194 -0.602908 0.113930 0.104519 -0.039939 568707.000000 0 0 1
-2.979525 1.534274 31.755915 31.932267 -0.475527 0.105146 0.094976 -0.028788 -153093.000000 0 0 1
-2.962825 2.390474 30.446565 30.683644 -0.678887 0.124391 0.095705 -0.026689 -454801.000000 0 0 1
-3.961925 3.358674 30.444795 30.884674 -0.703179 0.168977 0.080581 -0.028574 -269643.000000 0 0 1
-3.820725 4.244174 29.324515 29.875377 -0.837855 0.192331 0.074688 -0.034799 -86874.500000 0 0 1
-4.935925 5.286074 29.304465 30.183731 -0.819639 0.241963 0.071832 -0.025558 -83767.700000 0 0 1
-4.944225 6.055974 28.097775 29.165136 -0.886122 0.271376 0.069385 -0.013245 668044.000000 0 0 1
-6.130025 6.883674 28.013695 29.491173 -0.843246 0.317877 0.050408 -0.010402 790592.000000 0 0 1
-6.331125 7.585874 26.674505 28.445700 -0.875315 0.354748 0.054277 -0.013980 599713.000000 0 0 1
-5.250525 8.533874 26.514465 28.344521 -1.019234 0.361308 0.057001 -0.004098 606083.000000 0 0 1
-5.210325 9.086774 25.273475 27.358097 -1.050168 0.392901 0.053653 -0.006117 -7817.040000 0 0 1
-4.537925 10.441974 25.319535 27.761600 -1.160835 0.422579 0.052454 -0.014295 -398788.000000 0 0 1
-4.566325 11.095074 24.065755 26.890752 -1.180362 0.462488 0.054988 -0.010192 129669.000000 0 0 1
-4.085925 12.455174 24.181815 27.506114 -1.253808 0.496735 0.043369 -0.004175 -224711.000000 0 0 1
-2.557825 12.711974 24.087385 27.355783 -1.372234 0.493833 0.036157 -0.004402 265553.000000 0 0 1
-1.810125 12.295974 25.257205 28.149493 -1.424633 0.457289 0.051838 -0.004576 139247.000000 0 0 1
-2.074825 12.976074 26.495405 29.575156 -1.412242 0.460418 0.065655 -0.010884 -941821.000000 0 0 1
-1.193825 12.517174 27.629165 30.355817 -1.475709 0.427085 0.069491 -0.009711 -380356.000000 0 0 1
0.109175 13.031574 27.662285 30.578356 1.562419 0.440271 0.055435 -0.015506 -470837.000000 0 0 1
0.863775 12.564574 28.771605 31.407322 1.502157 0.412605 0.061556 -0.020033 -340097.000000 0 0 1
2.346075 12.809174 28.518905 31.351347 1.389648 0.428344 0.049469 -0.014728 -701685.000000 0 0 1
2.734375 14.133974 28.534215 31.960092 1.379696 0.467256 0.043747 -0.018237 595782.000000 0 0 1
4.132475 14.143674 28.181975 31.801644 1.286531 0.481762 0.042579 -0.017335 464407.000000 0 0 1
4.740975 15.530574 28.445115 32.753628 1.274514 0.518715 0.042491 -0.013358 -404120.000000 0 0 1
4.724275 15.894174 29.829305 34.128155 1.281880 0.507344 0.052822 -0.007598 336597.000000 0 0 1
3.705575 16.814774 30.210155 34.772423 1.353887 0.518030 0.037208 -0.007926 -64882.400000 0 0 1
3.721275 18.288374 29.685935 35.065186 1.370059 0.561246 0.051135 -0.007993 -77613.400000 0 0 1
4.734675 19.014874 30.354505 36.130023 1.326760 0.573243 0.075296 -0.004740 168757.000000 0 0 1
5.201775 20.005974 29.442355 35.974293 1.316418 0.612127 0.051698 0.002758 71787.700000 0 0 1
6.256675 20.956274 30.058045 37.172537 1.280662 0.629012 0.052001 0.010508 -154857.000000 0 0 1
5.769975 21.876674 30.982925 38.364347 1.312919 0.630731 0.053754 -0.009641 5477.800000 0 0 1
6.815975 22.676974 31.496455 39.404687 1.278818 0.644655 0.035639 -0.006565 66557.200000 0 0 1
6.851575 24.122174 30.909245 39.802070 1.294049 0.681587 0.039423 -0.004559 -94458.500000 0 0 1
7.230075 24.098574 29.539715 38.802191 1.279320 0.705496 0.019802 -0.005499 137353.000000 0 0 1
7.224475 25.351174 28.989885 39.182758 1.293179 0.737929 0.022419 -0.007725 77601.100000 0 0 1
7.882375 25.443274 27.585795 38.346683 1.270371 0.767889 0.043511 -0.013218 33432.700000 0 0 1
7.134775 24.699474 26.631395 37.016216 1.289588 0.767783 0.036652 -0.014616 427516.000000 0 0 1
7.629175 24.917374 25.343955 36.351010 1.273680 0.799311 0.048497 -0.019441 -360394.000000 0 0 1
29.379362 2.325174 6.549500 30.190219 0.078978 1.352116 0.138346 -0.023016 -113200.000000 0 0 1
29.463292 3.045474 7.805900 30.631562 0.102999 1.313122 0.128587 -0.024878 -110398.000000 0 0 1
28.256862 2.996674 8.521700 29.665631 0.105656 1.279433 0.110502 -0.019204 -275565.000000 0 0 1
28.243762 3.783074 9.894900 30.165059 0.133151 1.236584 0.092976 -0.021632 -20181.400000 0 0 1
28.064562 5.219874 9.805600 30.183050 0.183894 1.239921 0.103420 -0.021900 495556.000000 0 0 1
29.275392 5.873274 9.424500 31.310783 0.197993 1.265057 0.121807 -0.029571 319051.000000 0 0 1
29.131182 7.385074 9.324600 31.466065 0.248280 1.269940 0.127945 -0.035684 -143803.000000 0 0 1
28.304262 7.853774 8.300600 30.523974 0.270667 1.295391 0.126318 -0.032425 -194677.000000 0 0 1
28.707102 9.131774 7.881800 31.138558 0.307980 1.314892 0.127365 -0.048960 -3547.960000 0 0 1
27.939662 9.698074 6.654800 30.314415 0.334096 1.349468 0.137211 -0.040737 289705.000000 0 0 1
26.610462 10.109474 6.948400 29.301850 0.363065 1.331384 0.128313 -0.021548 296695.000000 0 0 1
25.966762 10.361574 5.704300 28.533734 0.379672 1.369526 0.140836 -0.031673 122991.000000 0 0 1
24.476562 10.769074 5.792600 27.361090 0.414486 1.357473 0.106073 -0.020605 220791.000000 0 0 1
24.291662 12.167174 6.063800 27.836930 0.464350 1.351203 0.091097 -0.026682 767110.000000 0 0 1
22.920262 12.547674 6.245400 26.866104 0.500883 1.336186 0.092850 -0.012632 708564.000000 0 0 1
22.630762 14.036574 6.401800 27.389046 0.555171 1.334878 0.087929 -0.000229 -80202.800000 0 0 1
22.503862 14.631874 5.119000 27.326173 0.576512 1.382353 0.084167 -0.014460 335156.000000 0 0 1
22.450162 16.060874 5.129400 28.076186 0.620988 1.387069 0.115948 -0.003632 -203680.000000 0 0 1
21.975062 16.725274 3.811300 27.877664 0.650569 1.433652 0.112004 -0.027353 -130879.000000 0 0 1
20.570862 16.682274 3.702800 26.742651 0.681392 1.431890 0.108420 -0.006284 172669.000000 0 0 1
20.021762 17.842974 3.053900 26.992017 0.727920 1.457413 0.103584 -0.017465 757087.000000 0 0 1
18.468862 17.781574 2.847900 25.795228 0.766441 1.460167 0.071264 -0.008719 373141.000000 0 0 1
17.832262 17.566774 4.068500 25.360083 0.777898 1.409671 0.075378 -0.019251 47911.600000 0 0 1
16.430862 17.670774 4.102100 24.475635 0.821741 1.402402 0.051287 -0.031471 -43215.600000 0 1 0
15.647362 18.990474 4.154200 24.954667 0.881616 1.403548 0.072674 -0.029741 -904349.000000 0 1 0
14.280262 18.773674 4.087500 23.939181 0.920512 1.399210 0.072002 -0.032600 -509077.000000 0 1 0
13.495562 19.924574 4.384500 24.461044 0.975446 1.390578 0.062942 -0.027822 163512.000000 0 1 0
11.981862 19.704674 4.248000 23.449621 1.024463 1.388636 0.050979 -0.026999 -103161.000000 0 1 0
11.412362 18.893774 5.246800 22.688006 1.027421 1.337425 0.041234 -0.033917 772585.000000 0 1 0
9.981262 18.974174 5.235800 22.069401 1.086531 1.331270 0.037982 -0.022335 532915.000000 0 1 0
9.214162 18.621674 6.491800 21.767200 1.111311 1.267951 0.024889 -0.014814 -859636.000000 0 1 0
9.284962 19.591674 7.505900 22.943033 1.128226 1.237506 0.038394 -0.012678 90971.600000 0 1 0
8.744862 19.047174 8.729400 22.703962 1.140387 1.176143 0.040402 -0.005175 548099.000000 0 1 0
7.450662 19.794474 9.222200 23.073416 1.210798 1.159618 0.037188 -0.012633 904741.000000 0 1 0
6.359662 19.878374 8.333200 22.473035 1.261158 1.190917 0.033276 -0.025385 -72876.400000 0 1 0
6.379162 21.108974 7.597400 23.323872 1.277321 1.239007 0.033328 -0.015614 -668548.000000 0 1 0
5.139862 21.289174 6.707100 22.904853 1.333899 1.273617 0.024847 -0.005590 1027380.000000 0 1 0
3.878162 21.609674 7.359900 23.155697 1.393222 1.247342 0.018105 -0.004586 1064030.000000 0 1 0
3.687962 22.807274 8.126700 24.491143 1.410483 1.232562 0.034549 -0.015174 -458865.000000 0 1 0
3.710462 24.135274 7.300200 25.486701 1.418255 1.280296 0.043840 -0.015821 -609151.000000 0 0 1
2.545062 24.163674 6.559400 25.167166 1.465857 1.307118 0.035134 -0.021349 -537454.000000 0 0 1
2.644462 25.177674 5.566600 25.920947 1.466148 1.354357 0.044571 -0.018436 -132313.000000 0 0 1
1.374962 25.288674 4.700100 25.758465 1.516479 1.387300 0.050639 -0.020584 -163487.000000 0 0 1
0.288962 25.809374 5.422200 26.374373 1.559601 1.363734 0.063245 -0.025784 -1253450.000000 0 0 1
-0.808538 25.967974 4.649900 26.393389 -1.539670 1.393695 0.072445 -0.024766 -1230190.000000 0 0 1
-2.083038 26.512974 5.286400 27.114993 -1.492391 1.374577 0.085598 -0.025648 -246830.000000 0 0 1
-3.076038 26.832074 4.341300 27.354508 -1.456654 1.411417 0.096101 -0.024311 -74891.100000 0 0 1
-4.040138 27.654474 5.016300 28.394646 -1.425729 1.393201 0.086609 -0.023813 389270.000000 0 0 1
-4.983038 28.383574 3.940300 29.085803 -1.397007 1.434907 0.085159 -0.028628 595155.000000 0 0 1
-4.370738 29.293074 3.045600 29.773532 -1.422682 1.468325 0.081372 -0.026297 -47969.000000 0 0 1
-5.304438 29.472574 2.026700 30.014616 -1.392724 1.503221 0.092129 -0.031443 -59323.200000 0 0 1
-4.671338 30.355574 0.901100 30.726117 -1.418107 1.541465 0.083654 -0.025864 185854.000000 0 0 1
-4.318738 31.688574 1.258000 32.006246 -1.435344 1.531481 0.085895 -0.022756 477808.000000 0 0 1
-3.037638 31.668174 1.909300 31.870769 -1.475168 1.510853 0.089500 -0.021634 -239151.000000 0 0 1
-2.329038 33.037374 1.939000 33.176079 -1.500416 1.512317 0.087607 -0.027543 -279417.000000 0 0 1
-1.684338 33.369674 0.716500 33.419837 -1.520364 1.549355 0.072074 -0.019631 -146394.000000 0 0 1
-0.926138 -33.693307 0.582600 33.711068 1.543316 1.553513 0.073817 -0.021445 609734.000000 0 0 1
0.480162 -33.703207 1.255700 33.730009 -1.556551 1.533560 0.067991 -0.011963 -80795.300000 0 0 1
0.372462 -33.716807 2.680500 33.825240 -1.559750 1.491468 0.057896 -0.013355 136277.000000 0 0 1
1.619562 -33.844507 3.353600 34.048792 -1.522980 1.472142 0.050199 -0.014100 375502.000000 0 0 1
1.387362 -33.744007 4.915900 34.128417 -1.529705 1.426252 0.050561 -0.017958 -6574.990000 0 0 1
0.613362 33.377874 5.268200 33.796636 1.552422 1.414279 0.067867 -0.029628 -234279.000000 0 0 1
0.100262 33.482174 6.590000 34.124685 1.567802 1.376460 0.076505 -0.023773 539458.000000 0 0 1
1.184162 33.285774 7.727100 34.191418 1.535236 1.342832 0.069822 -0.018355 762468.000000 0 0 1
1.740262 31.967774 7.963900 32.990768 1.516412 1.326990 0.072473 -0.018993 -130148.000000 0 0 1
2.500562 31.966174 9.117900 33.335045 1.492730 1.293743 0.083964 -0.013966 -359249.000000 0 0 1
3.182262 30.613174 9.385500 32.177334 1.467218 1.274813 0.069872 -0.019990 -93867.400000 0 0 1
2.200662 29.689474 9.784700 31.337647 1.496809 1.253252 0.088779 -0.033514 25440.800000 0 0 1
2.665562 28.393674 9.908600 30.190832 1.477192 1.236400 0.074684 -0.033569 -321908.000000 0 0 1
2.419962 27.725074 11.289500 30.033128 1.483733 1.185427 0.058939 -0.039200 -372730.000000 0 0 1
3.040262 28.219074 12.466500 30.999564 1.463472 1.156932 0.044959 -0.030296 21466.600000 0 0 1
2.779662 27.385374 13.707200 30.750164 1.469641 1.108773 0.042144 -0.025920 184694.000000 0 0 1
1.336662 26.987274 14.161600 30.506566 1.521307 1.088048 0.041044 -0.026823 778188.000000 0 0 1
0.537162 28.056174 14.711600 31.683886 1.551653 1.087925 0.039767 -0.023162 605961.000000 0 0 1
-0.089238 28.972874 13.789500 32.087158 -1.567716 1.126579 0.051093 -0.027105 -325770.000000 0 0 1
-0.914638 30.043174 14.493300 33.368917 -1.540362 1.121496 0.025327 -0.018710 -459340.000000 0 0 1
-2.140738 29.640174 15.025700 33.300065 -1.498697 1.102663 0.009191 -0.013221 -49318.800000 0 0 1
-2.823738 30.850174 15.501400 34.641018 -1.479520 1.106843 0.012520 -0.008582 -300443.000000 0 0 1
-4.055038 30.549174 16.340000 34.881098 -1.438830 1.083262 0.007152 -0.002715 -659596.000000 0 0 1
-4.981638 29.837374 15.580400 34.026967 -1.405363 1.095183 0.020409 -0.012314 353949.000000 0 0 1
-6.134438 29.456674 16.364200 34.250752 -1.365478 1.072675 0.026310 -0.011082 -180934.000000 0 0 1
-7.214138 28.757174 15.594500 33.499362 -1.325005 1.086578 0.032719 -0.014255 -1152930.000000 0 0 1
-8.367638 28.624174 16.363700 34.016634 -1.286393 1.068944 0.041184 -0.017445 -604297.000000 0 0 1
-9.302238 27.862674 15.588200 33.254356 -1.248572 1.082914 0.037640 -0.009149 456921.000000 0 0 1
-10.609938 27.537274 16.363000 33.743444 -1.203032 1.064520 0.048537 -0.007123 927370.000000 0 0 1
-11.550538 28.579174 16.751500 35.082715 -1.186710 1.073005 0.046404 -0.013709 967819.000000 0 0 1
-11.060238 29.372474 17.820300 36.092024 -1.210666 1.054404 0.044955 -0.021069 -679919.000000 0 0 1
-11.999238 30.497274 18.278700 37.525675 -1.195947 1.062032 0.048483 -0.014050 -188298.000000 0 0 1
-13.277538 29.969274 18.611000 37.693762 -1.153747 1.054409 0.056363 -0.007571 -145873.000000 0 0 1
-14.138938 31.051574 18.806500 38.958879 -1.143513 1.067031 0.073420 -0.006963 -348022.000000 0 0 1
-15.221738 30.743074 19.823600 39.620866 -1.111054 1.046814 0.074420 -0.014999 -186469.000000 0 0 1
-14.574938 30.669174 21.059700 39.956702 -1.127160 1.015655 0.057262 -0.015280 66766.200000 0 0 1
-15.482338 30.435774 22.091000 40.670031 -1.100222 0.996581 0.045502 -0.007432 -194566.000000 0 0 1
-14.757238 30.558274 23.446200 41.246921 -1.120905 0.966194 0.020886 -0.000548 -683091.000000 0 0 1
-13.759438 29.599674 23.590400 40.273686 -1.135661 0.944989 0.018165 -0.001814 -5584.820000 0 0 1
-13.374138 29.173874 24.924100 40.634877 -1.140955 0.910479 0.024563 -0.001197 -125236.000000 0 0 1
-12.751238 30.201974 25.862900 41.756950 -1.171301 0.902859 0.021508 0.000651 -633693.000000 0 0 1
-13.667338 31.213074 26.218700 42.993864 -1.158074 0.914958 0.017274 0.007752 248150.000000 0 0 1
-13.018838 32.274274 26.819800 43.936552 -1.187378 0.914204 0.017665 0.004567 -568694.000000 0 0 1
-14.056038 33.308274 27.243600 45.268389 -1.171471 0.925013 0.020951 -0.002338 -184442.000000 0 0 1
-14.887738 32.863274 28.298700 45.852546 -1.145433 0.905659 0.002660 -0.002161 188204.000000 0 0 1
-14.380938 33.096474 29.595300 46.669795 -1.160893 0.883897 0.032414 0.005604 -930463.000000 0 0 1
-15.039538 32.317774 30.673600 47.026545 -1.135239 0.860232 0.017613 0.006262 -361791.000000 0 0 1
-16.282638 32.892174 31.029800 48.061085 -1.111132 0.868945 0.015265 0.006836 -330918.000000 0 0 1
-16.797838 32.150374 32.087400 48.429486 -1.089329 0.846566 0.018240 0.003435 938995.000000 0 0 1
-18.330938 32.373174 32.374000 49.316545 -1.055571 0.854689 0.027551 0.001591 829465.000000 0 0 1
-18.555338 33.724174 32.865900 50.614107 -1.067793 0.864077 0.040555 0.004080 -656994.000000 0 0 1
-19.899238 33.956274 33.154700 51.461076 -1.040716 0.870731 0.043038 -0.008250 -524483.000000 0 0 1
-20.255938 -32.754907 33.352900 50.947060 1.016950 0.857066 0.042259 -0.005381 -119413.000000 0 0 1
-19.955838 -32.221107 -33.546665 50.614365 1.016277 2.295334 0.043872 -0.005455 211372.000000 0 0 1
-20.817338 -32.631207 -32.454265 50.511746 1.002933 2.268565 0.039185 -0.008660 455080.000000 0 0 1
-20.499338 -31.894107 -31.153065 49.071074 0.999548 2.258618 0.050158 -0.017015 40233.500000 0 0 1
-20.649238 -30.502007 -31.312165 48.344753 0.975688 2.275338 0.054043 -0.010839 -140315.000000 0 0 1
-20.074838 -29.904907 -30.193065 46.999188 0.979600 2.268444 0.047772 -0.004092 3176.180000 0 0 1
-20.348138 -28.360407 -30.200965 46.156881 0.948432 2.284068 0.057794 -0.010518 863541.000000 0 0 1
-21.656238 -28.031707 -29.698565 46.225252 0.913011 2.268520 0.041269 0.003544 559630.000000 0 0 1
-21.830338 -26.654407 -29.707065 45.492095 0.884568 2.282356 0.043043 -0.001791 243842.000000 0 0 1
-23.135838 -26.115707 -29.054165 45.403101 0.845828 2.265185 0.048553 -0.000419 309877.000000 0 0 1
-23.199138 -26.313707 -27.655865 44.670550 0.848220 2.238402 0.048637 -0.002094 344557.000000 0 0 1
-22.481238 -25.331907 -26.879465 43.239070 0.844949 2.241641 0.057078 -0.011580 189551.000000 0 0 1
-22.390338 -25.581807 -25.388065 42.430059 0.851828 2.212238 0.064337 -0.008484 -235804.000000 0 0 1
-23.574038 -25.272507 -24.711465 42.486367 0.820156 2.191531 0.057571 -0.008748 -229925.000000 0 0 1
-23.586138 -25.790607 -23.403965 42.061941 0.830014 2.160863 0.062737 -0.006601 584665.000000 0 0 1
-24.983138 -25.599207 -22.660265 42.343408 0.797577 2.135487 0.059683 -0.007627 1817050.000000 0 0 1
-26.149138 -26.299307 -23.098265 43.691656 0.788261 2.127824 0.048351 -0.002473 445756.000000 0 0 1
-26.028338 -27.730107 -23.057165 44.475454 0.817043 2.115804 0.050407 0.003351 102569.000000 0 0 1
-27.447738 -28.412607 -22.951265 45.688238 0.802669 2.097105 0.032507 0.004377 805943.000000 0 0 1
-28.135638 -28.210707 -21.775565 45.405212 0.786730 2.070976 0.038954 0.010862 166239.000000 0 0 1
-29.198938 -27.252807 -21.873865 45.538549 0.750938 2.071836 0.036954 0.013687 226646.000000 0 0 1
-29.820738 -26.837207 -20.550965 45.076094 0.732788 2.044199 0.036317 0.013518 -125835.000000 0 0 1
-30.628838 -27.817907 -19.935665 45.928122 0.737341 2.019793 0.019708 0.015694 157205.000000 0 0 1
-31.146238 -27.370007 -18.710665 45.489497 0.720954 1.994696 0.014594 0.019119 -1087670.000000 0 0 1
-31.929038 -28.450207 -17.980165 46.391422 0.727845 1.968796 0.004797 0.016015 1050210.000000 0 0 1
-33.329738 -28.644507 -18.328365 47.616259 0.709942 1.965916 0.006500 0.014386 2076870.000000 0 0 1
-34.283538 -27.580907 -18.346965 47.672618 0.677475 1.965845 -0.004217 0.020763 -377556.000000 0 0 1
-34.607038 -26.926207 -17.038365 47.042253 0.661216 1.941416 0.000927 0.016537 -541399.000000 0 0 1
-33.745038 -25.822407 -16.681965 45.648792 0.653172 1.944903 -0.006155 0.022311 733934.000000 0 0 1
-33.922238 -25.451007 -15.327465 45.093272 0.643677 1.917613 0.000503 0.017401 34886.900000 0 0 1
-33.469138 -26.364007 -14.128965 44.887322 0.667203 1.891006 0.001688 0.016661 -47396.300000 0 0 1
-34.359338 -27.448607 -13.966565 46.141684 0.674051 1.878309 0.024914 0.015113 594577.000000 0 0 1
-34.068038 -28.143107 -12.747865 45.991018 0.690446 1.851656 0.033349 0.007413 101673.000000 0 0 1
-34.855538 -29.513707 -12.776665 47.425843 0.702601 1.843569 0.046383 0.007573 131088.000000 0 0 1
-34.378538 -30.600307 -13.569465 47.983258 0.727318 1.857504 0.038153 0.007446 327122.000000 0 0 1
-34.910538 -31.881407 -13.173865 49.078717 0.740077 1.842552 0.033026 -0.004649 -114637.000000 0 0 1
-34.393938 -32.965607 -14.140565 49.695370 0.764197 1.859328 0.028692 0.010445 -686154.000000 0 0 1
-33.010438 -33.140507 -14.120965 48.860862 0.787364 1.863982 0.024843 0.005226 -513408.000000 0 0 1
-32.759238 -34.105307 -15.100365 49.642327 0.805527 1.879877 0.052547 -0.017046 -472187.000000 0 0 1
-31.253338 33.928474 -15.253065 48.585682 -0.826416 1.890138 0.048418 -0.013554 -283303.000000 0 0 1
-30.870938 32.976274 -16.258565 48.008232 -0.818361 1.916291 0.062360 -0.017249 -713180.000000 0 0 1
-29.480338 32.863674 -16.372965 47.086998 -0.839614 1.925932 0.057888 -0.016902 -398028.000000 0 0 1
9.680475 19.732274 -8.552800 23.584415 1.114704 1.941902 0.075493 -0.034729 -633763.000000 0 1 0
8.362475 20.201874 -8.733000 23.543831 1.178326 1.950801 0.064749 -0.025418 65155.700000 0 1 0
7.897475 20.137874 -10.078600 23.863828 1.197058 2.006819 0.069349 -0.028773 196936.000000 0 1 0
7.757375 18.758574 -10.821700 23.003699 1.178674 2.060578 0.059482 -0.025976 -842997.000000 0 1 0
9.002575 18.334174 -11.263300 23.324884 1.114353 2.074746 0.073003 -0.025178 -627533.000000 0 1 0
8.872575 17.284374 -12.160400 22.920461 1.096542 2.130043 0.060861 -0.029248 -414694.000000 0 1 0
10.041175 17.105274 -13.098300 23.769330 1.039974 2.154429 0.071976 -0.013700 -349555.000000 0 1 0
9.859975 15.897174 -13.783900 23.236505 1.015631 2.205825 0.073166 -0.025976 465980.000000 0 1 0
10.903875 15.705574 -14.755200 24.151097 0.963928 2.228061 0.085520 -0.022614 301153.000000 0 1 0
10.718775 14.505674 -15.661200 23.886815 0.934413 2.285829 0.085287 -0.023654 -310182.000000 0 1 0
10.692775 13.182174 -15.053300 22.687155 0.889291 2.296305 0.076247 -0.020098 1598400.000000 0 1 0
11.946875 12.725074 -14.416300 22.638133 0.816930 2.261156 0.087756 -0.022022 1318880.000000 0 1 0
12.838975 11.999974 -15.444600 23.396032 0.751633 2.291798 0.090923 -0.024322 -157903.000000 0 1 0
13.632775 12.770374 -16.358100 24.829870 0.752747 2.290029 0.087786 -0.023255 834006.000000 0 1 0
14.499375 11.907174 -17.119700 25.398756 0.687547 2.310457 0.082793 -0.026556 521073.000000 0 0 1
15.354375 12.583674 -18.220400 26.946033 0.686548 2.313363 0.063731 -0.026631 1136090.000000 0 0 1
16.449275 13.424374 -17.762700 27.682232 0.684486 2.267463 0.065963 -0.023583 753746.000000 0 0 1
17.072975 14.216074 -18.758000 29.076551 0.694344 2.271983 0.057295 -0.020156 170777.000000 0 0 1
18.333075 14.980874 -18.308100 29.928494 0.685111 2.229040 0.053018 -0.008420 -193577.000000 0 0 1
17.992575 16.177274 -17.593200 29.915843 0.732322 2.199491 0.059806 -0.012070 323566.000000 0 0 1
17.678075 17.273274 -18.444600 30.839644 0.773817 2.211901 0.058373 -0.007142 -85264.200000 0 0 1
17.535775 18.619874 -17.757300 31.137194 0.815373 2.177658 0.059279 0.001601 -674462.000000 0 0 1
18.752775 19.236374 -17.579700 32.105304 0.798127 2.150246 0.056436 0.000012 -654642.000000 0 0 1
18.495875 20.585674 -17.226100 32.597636 0.838820 2.127566 0.051568 0.002620 150315.000000 0 0 1
19.710175 21.532974 -17.363700 33.965542 0.829566 2.107394 0.061269 -0.000597 485251.000000 0 0 1
20.702975 21.513474 -16.337600 34.034687 0.804594 2.071483 0.048969 -0.000390 -152006.000000 0 0 1
20.405975 22.258874 -15.147500 33.783251 0.828800 2.035741 0.053178 -0.005166 -375715.000000 0 0 1
21.578075 22.931474 -14.359000 34.607033 0.815796 1.998646 0.038291 -0.010967 -226326.000000 0 0 1
22.256075 22.001774 -13.566200 34.109423 0.779652 1.979833 0.043131 -0.013458 90911.400000 0 0 1
23.296075 22.577674 -12.742000 34.854226 0.769739 1.945052 0.035066 -0.006861 609878.000000 0 0 1
24.669175 22.538174 -13.460700 36.023991 0.740287 1.953747 0.032456 -0.010515 -699841.000000 0 0 1
24.941375 23.240574 -14.604800 37.087689 0.750113 1.975549 0.030666 0.003024 142007.000000 0 0 1
26.137275 22.788774 -15.229300 37.873698 0.717065 1.984614 0.036896 0.013136 234502.000000 0 0 1
26.417675 23.519674 -16.575900 39.061863 0.727430 2.009040 0.038579 0.011143 -192891.000000 0 0 1
27.263275 22.848674 -17.487000 39.637650 0.697530 2.027700 0.050063 0.008041 199550.000000 0 0 1
27.272475 23.458674 -18.774700 40.578155 0.710363 2.051812 0.052159 0.017504 -709722.000000 0 0 1
27.857475 22.507174 -19.790800 40.918059 0.679564 2.075638 0.054870 0.008204 432313.000000 0 0 1
29.280275 22.506274 -19.849900 41.927144 0.655330 2.063986 0.043928 0.008659 236113.000000 0 0 1
29.809875 21.708674 -20.911300 42.393132 0.629427 2.086642 0.049668 0.006420 -550525.000000 0 0 1
31.303475 21.939274 -20.980700 43.605379 0.611301 2.072762 0.067387 0.002864 -803003.000000 0 0 1
31.628475 23.211074 -21.550500 44.760903 0.633095 2.073114 0.049122 0.002044 194198.000000 0 0 1
32.981975 23.616874 -21.409100 45.868475 0.621419 2.056408 0.045905 0.004913 307940.000000 0 0 1
33.370975 25.011674 -21.957300 47.130976 0.643183 2.055423 0.033599 0.000519 -492235.000000 0 0 1
33.433675 25.121674 -23.419100 47.930819 0.644389 2.081283 0.035706 0.003494 316431.000000 0 0 1
32.267275 24.931174 -24.229700 47.432256 0.657838 2.106943 0.034876 -0.001836 71969.300000 0 0 1
32.569175 25.286674 -25.728810 48.601839 0.660183 2.128665 0.049783 -0.010504 -303176.000000 0 0 1
32.392075 26.643874 -26.067750 49.382893 0.688336 2.126887 0.059607 -0.016985 -104574.000000 0 0 1
31.083675 27.017474 -26.477510 48.961182 0.715527 2.142167 0.067912 -0.010445 335687.000000 0 0 1
30.679775 26.657874 -27.914290 49.306171 0.715369 2.172614 0.061870 -0.011522 -196560.000000 0 0 1
30.357675 25.299474 -28.211940 48.554767 0.694766 2.190794 0.052269 -0.021070 82434.600000 0 0 1
30.039075 25.206974 -29.598450 49.130498 0.698155 2.217358 0.060986 -0.028777 -232871.000000 0 0 1
29.089375 24.065774 -30.031320 48.241408 0.691170 2.242757 0.057290 -0.031696 80486.100000 0 0 1
27.795275 24.123474 -29.471880 47.149879 0.714794 2.246015 0.073183 -0.034505 280312.000000 0 0 1
27.061575 22.893974 -29.666570 46.223028 0.702165 2.267657 0.078329 -0.044280 380788.000000 0 0 1
25.640975 22.702574 -29.107670 44.945778 0.724691 2.275250 0.071948 -0.029283 49803.500000 0 0 1
25.699675 22.640274 -27.697630 44.047861 0.722193 2.250815 0.076316 -0.014649 288882.000000 0 0 1
24.417875 22.672574 -27.108740 42.955349 0.748352 2.253755 0.069220 -0.014700 -184914.000000 0 0 1
24.477875 22.683074 -25.563200 42.037667 0.747360 2.224464 0.060445 -0.008978 -144636.000000 0 0 1
25.123075 21.582874 -24.933600 41.456891 0.709745 2.216092 0.057530 -0.011470 411871.000000 0 0 1
25.045275 21.756774 -23.509900 40.661265 0.715249 2.187304 0.063226 -0.002474 180196.000000 0 0 1
25.688975 20.517474 -22.758100 39.985264 0.673940 2.176283 0.073377 0.005099 1575250.000000 0 0 1
27.031075 20.137674 -23.175300 40.905983 0.640282 2.173110 0.058931 0.004787 1269340.000000 0 0 1
27.177875 18.751174 -22.854000 40.156553 0.603944 2.176235 0.104181 -0.002883 981116.000000 0 0 1
28.454575 18.015074 -23.465800 41.046919 0.564415 2.179351 0.115213 -0.006707 2489470.000000 0 0 1
29.660375 18.093274 -22.640600 41.469280 0.547751 2.148332 0.104031 -0.015210 1953280.000000 0 0 1
30.904175 17.775174 -23.301600 42.590955 0.521963 2.149695 0.075922 -0.009790 1124390.000000 0 0 1
32.062975 17.601574 -22.290400 42.833535 0.502051 2.118111 0.067299 -0.005077 273017.000000 0 0 1
32.647375 18.832174 -21.766900 43.523555 0.523213 2.094531 0.043070 0.001478 -50558.800000 0 0 1
33.876975 18.579774 -21.149800 44.047378 0.501651 2.071634 0.035430 0.002438 -259791.000000 0 0 1
34.360975 19.660474 -20.133800 44.413745 0.519708 2.041287 0.033695 -0.003768 -205018.000000 0 0 1
33.549575 19.597674 -19.002000 43.251807 0.528677 2.025654 0.048049 -0.004634 -78069.900000 0 0 1
33.796075 20.547674 -18.008000 43.458828 0.546274 1.998046 0.029320 -0.003076 143313.000000 0 0 1
33.106475 20.320274 -16.574400 42.233434 0.550494 1.974087 0.048776 -0.013249 178768.000000 0 0 1
33.757575 19.409574 -15.716900 41.991980 0.521811 1.954420 0.050978 -0.011717 97440.600000 0 0 1
33.353875 19.439774 -14.387100 41.199205 0.527702 1.927522 0.066041 -0.013677 -312808.000000 0 0 1
34.007675 18.253774 -13.660300 40.942961 0.492617 1.910961 0.052222 -0.008919 -905409.000000 0 0 1
35.404975 18.282774 -13.652800 42.120910 0.476673 1.900892 0.029468 -0.010027 -223693.000000 0 0 1
35.940275 17.225374 -12.818300 41.865567 0.446933 1.881972 0.006074 -0.009685 -78069.800000 0 0 1
35.863475 17.519074 -11.303400 41.483415 0.454400 1.846766 0.025285 -0.015946 -860598.000000 0 0 1
36.540675 18.687074 -10.921700 42.470122 0.472730 1.830881 0.015475 -0.011620 -223858.000000 0 0 1
36.202275 19.248174 -9.634700 42.117982 0.488672 1.801595 0.012040 -0.005746 320471.000000 0 0 1
34.919675 20.165174 -9.614500 41.454271 0.523691 1.804858 0.020918 -0.009408 198905.000000 0 0 1
33.733475 19.531374 -9.939900 40.227149 0.524828 1.820477 0.050044 -0.024669 -1055140.000000 0 0 1
32.641075 20.359774 -9.680700 39.669587 0.557698 1.817319 0.041756 -0.010007 -50459.200000 0 0 1
31.256575 19.778674 -10.080900 38.337893 0.564178 1.836874 0.046817 -0.008584 276652.000000 0 0 1
31.100275 19.619374 -11.451100 38.513305 0.562790 1.872690 0.065642 -0.015809 19079.200000 0 0 1
30.001775 18.720674 -11.538500 37.198214 0.557869 1.886189 0.065911 -0.017550 190704.000000 0 0 1
29.816475 18.002174 -12.914700 37.146870 0.543184 1.925877 0.089887 -0.016444 -165904.000000 0 0 1
30.821375 17.047174 -13.152900 37.597368 0.505217 1.928192 0.099582 -0.017197 19807.700000 0 0 1
30.519875 16.268174 -14.305200 37.426662 0.489725 1.962993 0.080425 -0.018276 -195057.000000 0 0 1
31.770275 15.705974 -14.984400 38.478049 0.459126 1.970806 0.091443 -0.023926 -292322.000000 0 0 1
32.585075 14.865574 -14.199600 38.527926 0.428005 1.948249 0.076876 -0.026063 -81819.400000 0 0 1
33.721075 14.485574 -14.932800 39.622359 0.405735 1.957220 0.076305 -0.022411 -285522.000000 0 0 1
34.566775 13.470674 -14.143200 39.703289 0.371596 1.935018 0.038892 -0.028403 -530618.000000 0 0 1
35.109775 14.006374 -12.922800 39.948387 0.379584 1.900209 0.035811 -0.013152 388651.000000 0 0 1
35.862975 13.037974 -12.190100 40.059210 0.348694 1.880002 0.021772 -0.009487 70577.800000 0 0 1
-36.638111 13.778874 -11.179500 40.708596 -0.359718 1.848994 0.045355 -0.007370 668606.000000 0 0 1
-35.406311 14.192274 -11.806600 39.930231 -0.381231 1.870964 0.024601 -0.014550 462870.000000 0 0 1
-34.490611 14.582274 -10.810000 38.975647 -0.399997 1.851834 0.007113 -0.010051 -43840.400000 0 0 1
-33.002711 14.602474 -11.266400 37.806652 -0.416568 1.873394 0.035594 -0.018479 378464.000000 0 0 1
-32.366511 13.462274 -11.840300 37.000224 -0.394165 1.896532 0.036412 -0.020964 290483.000000 0 0 1
-32.423311 12.234074 -11.110000 36.391974 -0.360806 1.881036 0.052220 -0.013753 -676815.000000 0 0 1
-31.196211 11.333374 -11.326400 35.070448 -0.348468 1.899653 0.079380 -0.015086 -225049.000000 0 0 1
-31.130811 10.719774 -12.604700 35.255062 -0.331629 1.936417 0.077695 0.002179 277930.000000 0 0 1
-30.323111 9.560374 -12.516800 34.169608 -0.305419 1.945841 0.098877 -0.013931 -296215.000000 0 0 1
-30.225411 8.920674 -13.908400 34.447025 -0.286991 1.986422 0.092035 -0.018557 -874148.000000 0 0 1
-31.434511 8.584474 -14.502900 35.667293 -0.266590 1.989544 0.064185 -0.008275 -470033.000000 0 0 1
-31.332311 7.648974 -15.562500 35.810780 -0.239441 2.020364 0.073528 -0.018914 -689105.000000 0 0 1
-32.632011 7.270074 -16.277700 37.184212 -0.219210 2.023900 0.066691 -0.024471 137033.000000 0 0 1
-33.480011 6.494174 -15.360600 37.403656 -0.191592 1.993986 0.081324 -0.019007 548677.000000 0 0 1
-34.492711 5.843974 -16.120200 38.519605 -0.167833 2.002582 0.075883 -0.023369 77329.000000 0 0 1
-35.487711 5.271674 -15.085800 38.919784 -0.147471 1.968837 0.073843 -0.015338 1100930.000000 0 0 1
-36.654011 4.495174 -15.492100 40.046577 -0.122029 1.968012 0.083403 -0.018555 1024870.000000 0 0 1
35.839875 4.265274 -14.477000 38.887951 0.118452 1.952255 0.088511 -0.016182 -211474.000000 0 0 1
34.793675 3.224874 -14.847400 37.966366 0.092422 1.972587 0.089983 -0.017896 -353117.000000 0 0 1
35.371775 1.949374 -15.013600 38.475586 0.055055 1.971657 0.106707 -0.025032 358119.000000 0 0 1
34.422575 0.887074 -15.116400 37.605932 0.025764 1.984462 0.109692 -0.022551 257865.000000 0 0 1
33.909975 0.281174 -13.755900 36.594949 0.008292 1.956160 0.108740 -0.032750 -433440.000000 0 0 1
34.927175 -0.192026 -12.918400 37.240160 -0.005498 1.925054 0.116979 -0.033868 -79735.300000 0 0 1
34.791975 0.089974 -11.593600 36.672895 0.002586 1.892450 0.109446 -0.032248 -479361.000000 0 0 1
34.885075 1.516774 -11.075800 36.632532 0.043452 1.877952 0.101644 -0.036359 -398495.000000 0 0 1
33.804175 2.337774 -11.433200 35.761789 0.069046 1.896214 0.101203 -0.030933 87835.500000 0 0 1
33.842175 3.557974 -10.748000 35.685733 0.104750 1.876731 0.101504 -0.026414 -283817.000000 0 0 1
32.720675 4.509574 -11.159100 34.864084 0.136958 1.896604 0.092778 -0.021716 -274379.000000 0 0 1
32.942075 5.051474 -12.480200 35.587261 0.152159 1.929107 0.080245 -0.017644 247493.000000 0 0 1
31.883875 5.886274 -12.856700 34.878711 0.182560 1.948311 0.091894 -0.022444 -303197.000000 0 0 1
32.116475 6.524574 -14.209300 35.720334 0.200426 1.979906 0.072491 -0.018950 -217684.000000 0 0 1
31.906075 5.669174 -15.332200 35.849875 0.175848 2.012719 0.075691 -0.009926 346067.000000 0 0 1
32.355075 6.320874 -16.517100 36.873011 0.192930 2.035262 0.073785 -0.013675 -191485.000000 0 0 1
31.330475 7.316874 -17.176400 36.471414 0.229427 2.061170 0.074395 -0.012846 1311330.000000 0 0 1
30.099275 6.898874 -17.803500 35.644431 0.225312 2.093789 0.059951 -0.008435 974568.000000 0 0 1
29.178275 6.199174 -17.016200 34.341703 0.209346 2.089203 0.059735 -0.005758 -940339.000000 0 0 1
27.812575 6.138574 -17.727400 33.548206 0.217230 2.127530 0.059457 -0.007727 -287378.000000 0 0 1
27.732475 5.293674 -18.871600 33.959542 0.188615 2.160011 0.055997 -0.004301 796255.000000 0 0 1
26.551275 5.524174 -19.671300 33.502937 0.205130 2.198332 0.041669 -0.001928 685734.000000 0 0 1
26.129975 4.283874 -20.461500 33.463415 0.162499 2.228699 0.035141 0.013775 -172451.000000 0 0 1
25.600175 3.278174 -19.614200 32.416543 0.127360 2.220647 0.038233 0.000498 365489.000000 0 0 1
25.040275 2.154174 -20.350800 32.339000 0.085817 2.251443 0.033067 -0.001887 163846.000000 0 0 1
24.116775 1.344374 -19.379000 30.967270 0.055687 2.246940 0.029728 -0.010278 750287.000000 0 0 1
22.762775 1.810574 -19.265200 29.875911 0.079374 2.271611 0.044468 -0.021766 580281.000000 0 0 1
21.932275 0.833874 -18.716500 28.844886 0.038002 2.276891 0.053223 -0.023798 -158835.000000 0 0 1
20.540075 1.457274 -18.458200 27.653634 0.070829 2.301613 0.062050 -0.029718 -518457.000000 0 0 1
19.776275 1.769274 -19.609700 27.906482 0.089227 2.349972 0.055517 -0.031358 204678.000000 0 0 1
18.699175 2.630074 -19.389400 27.065204 0.139735 2.369419 0.044038 -0.029868 -25073.000000 0 0 1
17.381775 2.166374 -18.726000 25.641419 0.123995 2.389561 0.079092 -0.033806 -659349.000000 0 0 1
17.403075 1.995374 -17.305000 24.623395 0.114158 2.350104 0.066829 -0.036709 217851.000000 0 1 0
16.149175 1.712774 -16.699700 23.293979 0.105665 2.370157 0.048327 -0.026775 366186.000000 0 1 0
15.353375 3.007274 -16.324700 22.611184 0.193422 2.377448 0.057315 -0.022275 -112879.000000 0 1 0
14.866075 3.752274 -17.396500 23.188747 0.247241 2.419181 0.057216 -0.014608 484768.000000 0 1 0
13.896375 4.732374 -17.011200 22.469658 0.328229 2.429620 0.071074 -0.023967 303321.000000 0 1 0
-20.383325 -21.729526 -17.302200 34.453132 0.817354 2.096932 0.090670 -0.027334 -107497.000000 0 0 1
-20.057925 -22.397526 -18.509400 35.306761 0.840450 2.122625 0.088506 -0.031384 226585.000000 0 0 1
-21.026225 -22.166226 -19.512600 36.251693 0.811786 2.139160 0.093012 -0.030102 -222271.000000 0 0 1
-20.733425 -22.885026 -20.807900 37.236649 0.834686 2.163736 0.069631 -0.023283 -22746.500000 0 0 1
-20.961225 -24.274226 -20.609300 38.122883 0.858507 2.141949 0.058977 -0.020916 84209.700000 0 0 1
-20.174025 -25.004926 -21.484000 38.649707 0.891922 2.160199 0.054887 -0.021924 -350004.000000 0 0 1
-20.309825 -26.469466 -21.209200 39.534185 0.916320 2.137054 0.057959 -0.005995 -696951.000000 0 0 1
-21.394725 -27.206966 -21.645000 40.822289 0.904422 2.129662 0.064816 0.002285 -625593.000000 0 0 1
-21.210625 -28.564136 -21.282300 41.457650 0.932073 2.109881 0.077000 -0.019408 245544.000000 0 0 1
-22.541825 -29.333666 -21.530600 42.803791 0.915583 2.097871 0.059990 -0.016741 387239.000000 0 0 1
-23.056425 -29.461416 -22.847900 43.836061 0.906757 2.119067 0.040784 -0.008794 465866.000000 0 0 1
-22.205025 -30.191046 -23.743500 44.365709 0.936651 2.135513 0.038737 -0.014801 -511950.000000 0 0 1
-22.630625 -29.952386 -25.186470 45.206735 0.923751 2.161734 0.039922 -0.006853 -1328430.000000 0 0 1
-23.876025 -30.460016 -25.455740 46.323556 0.905982 2.152586 0.036614 -0.005478 -750522.000000 0 0 1
-24.543725 -29.661046 -26.439940 46.703774 0.879526 2.172588 0.032382 0.004011 -191328.000000 0 0 1
-24.150625 -29.799886 -27.872700 47.414905 0.889730 2.199191 0.038553 -0.002811 -589874.000000 0 0 1
-24.584925 -30.985616 -28.479470 48.740200 0.900074 2.194828 0.028306 -0.003316 146118.000000 0 0 1
-24.152925 -30.941266 -29.832620 49.302240 0.907994 2.220684 0.060571 -0.009970 40678.900000 0 0 1
-24.633025 -32.143016 -30.655990 50.791230 0.916909 2.218766 0.045988 -0.016706 -63003.000000 0 0 1
-24.072725 -33.410896 -30.293210 51.122036 0.946441 2.205038 0.050968 -0.032465 440439.000000 0 0 1
-24.913925 33.756147 -30.789940 52.040383 -0.934983 2.203906 0.055915 -0.031082 85873.800000 0 0 1
-24.248625 32.364733 -30.798140 50.833032 -0.927788 2.221654 0.068097 -0.029753 83481.100000 0 0 1
-23.249425 32.420971 -31.809560 51.024535 -0.948679 2.243902 0.079124 -0.036175 253836.000000 0 0 1
-22.462425 31.219795 -31.799350 49.904256 -0.947107 2.261665 0.073873 -0.023642 152637.000000 0 0 1
-21.181925 31.226035 -32.652190 49.898945 -0.974754 2.284141 0.070853 -0.018240 -106007.000000 0 0 1
-21.387125 30.848215 -34.001770 50.647229 -0.964580 2.306819 0.070014 -0.013248 130782.000000 0 0 1
-20.741525 29.636025 33.762777 49.481612 -0.960154 0.819852 0.053114 -0.002902 12426.300000 0 0 1
-20.873125 29.193695 32.275476 48.266609 -0.950082 0.838349 0.047048 -0.001836 -184878.000000 0 0 1
-20.209525 30.094785 31.455455 47.995485 -0.979435 0.856106 0.041703 0.001147 40699.700000 0 0 1
-20.579725 29.904985 30.116665 47.168281 -0.968054 0.878256 0.054392 0.002589 -304856.000000 0 0 1
-20.267725 31.079715 29.175785 47.201226 -0.992932 0.904454 0.040393 -0.015833 -2204.360000 0 0 1
-21.220825 32.124195 29.211695 48.328154 -0.987015 0.921728 0.031200 -0.013923 140022.000000 0 0 1
-20.572225 33.317418 28.910375 48.673160 -1.017636 0.934812 0.029535 -0.017901 -65327.400000 0 0 1
-21.466825 -33.664976 29.019835 49.358950 1.003145 0.942293 0.044739 -0.027011 -48491.000000 0 0 1
-21.730525 -33.309426 30.358155 50.033500 0.992747 0.918822 0.033543 -0.016015 -157857.000000 0 0 1
-22.585225 -32.165446 30.449065 49.717742 0.958624 0.911655 0.049655 -0.021487 -162933.000000 0 0 1
-22.070025 -30.782646 30.115115 48.389848 0.948776 0.899063 0.043856 -0.015307 -583960.000000 0 0 1
-22.014825 -30.597456 28.696835 47.374731 0.947104 0.920099 0.043278 -0.013597 -153985.000000 0 0 1
-21.971125 -29.198546 28.403915 46.282478 0.925714 0.910048 0.042267 -0.015055 932056.000000 0 0 1
-23.352625 -28.464496 28.119765 46.328110 0.883732 0.918554 0.042434 -0.007184 412617.000000 0 0 1
-24.339425 -28.286496 29.127695 47.338737 0.860260 0.908025 0.042775 -0.006086 553531.000000 0 0 1
-25.307165 -29.334706 29.195075 48.511132 0.858973 0.925016 0.048150 -0.005128 57092.200000 0 0 1
-26.437465 -29.209766 28.135365 48.412279 0.835176 0.950641 0.037561 -0.005855 -954486.000000 0 0 1
-26.028815 -29.333496 26.791865 47.494812 0.845019 0.971452 0.061576 -0.003374 -268331.000000 0 0 1
-27.061025 -29.501696 25.839935 47.648204 0.828521 0.997616 0.060969 -0.001757 -41010.000000 0 0 1
-26.534645 -29.735276 24.373595 46.715588 0.842217 1.021902 0.059496 -0.007368 -616916.000000 0 0 1
-25.981805 -28.524716 23.886775 45.379418 0.832018 1.016460 0.036731 -0.002657 189319.000000 0 0 1
-25.545225 -28.656116 22.546465 44.520496 0.842730 1.039758 0.067361 -0.009481 592455.000000 0 0 1
-24.313125 -29.604406 22.227065 44.289855 0.883221 1.045055 0.073140 -0.019941 87666.200000 0 0 1
-24.674225 -30.980206 22.288965 45.446545 0.898223 1.058198 0.068587 -0.029545 174277.000000 0 0 1
-23.627825 -31.788876 21.835165 45.228101 0.931614 1.066971 0.081283 -0.017637 174815.000000 0 0 1
-22.666425 -32.429476 22.906965 45.718341 0.960779 1.045990 0.059388 -0.012278 333854.000000 0 0 1
-21.910925 -31.451316 23.606025 45.016867 0.962314 1.018807 0.076950 -0.023211 386192.000000 0 0 1
-21.083025 -32.149486 24.546055 45.613509 0.990368 1.002578 0.065249 -0.026324 434409.000000 0 0 1
-19.900025 -31.368416 25.183605 44.879867 1.005468 0.975042 0.053543 -0.018105 -651351.000000 0 0 1
-18.702325 -31.149396 24.465985 43.802354 1.030077 0.978155 0.055232 -0.019085 254022.000000 0 0 1
-17.787325 -30.391566 25.220465 43.314063 1.041277 0.949279 0.073405 -0.029167 -137611.000000 0 0 1
-17.062625 -31.115746 26.382045 44.219171 1.069213 0.931513 0.047907 -0.026080 -1167830.000000 0 0 1
-17.839825 -31.302866 27.540645 45.349927 1.052796 0.918149 0.044671 -0.020897 611009.000000 0 0 1
-17.120625 -32.169586 28.490485 46.256954 1.081722 0.907246 0.028297 -0.012788 667618.000000 0 0 1
-17.572525 -31.858076 29.954405 47.127455 1.066735 0.882006 0.047844 -0.010200 338404.000000 0 0 1
-17.088125 -30.579876 30.403155 46.384099 1.061220 0.855998 0.039391 -0.006973 318097.000000 0 0 1
-17.878325 -30.081276 31.452715 47.050940 1.034553 0.838630 0.048115 -0.004814 95496.500000 0 0 1
-17.635625 -28.499576 31.563025 46.037654 1.016666 0.815380 0.054378 -0.008621 340010.000000 0 0 1
-18.425425 -27.669376 30.672325 45.231429 0.983315 0.825595 0.054394 -0.008033 416976.000000 0 0 1
-18.260025 -27.785846 29.270985 44.297543 0.989397 0.848937 0.056699 -0.009464 780578.000000 0 0 1
-16.875625 -27.321446 28.638015 43.027712 1.017486 0.842537 0.049988 -0.016487 902200.000000 0 0 1
-16.736925 -25.968126 28.471465 42.013004 0.998285 0.826190 0.044824 -0.009704 247919.000000 0 0 1
-15.719225 -25.713476 27.504535 40.801670 1.022093 0.831046 0.038979 -0.005382 15945.000000 0 0 1
-15.621325 -24.293326 26.948595 39.502129 0.999337 0.820021 0.042544 -0.002382 -361904.000000 0 0 1
-16.740125 -23.903726 26.198125 39.216854 0.959859 0.839235 0.051127 -0.012440 -200158.000000 0 0 1
-16.428025 -22.781226 25.377275 37.853274 0.946035 0.836033 0.056060 -0.015484 -5384.250000 0 0 1
-17.204325 -21.418926 25.542735 37.512538 0.894089 0.821789 0.056049 -0.014150 -205268.000000 0 0 1
-16.841625 -20.511726 24.560975 36.160928 0.883337 0.824106 0.064321 -0.021538 337078.000000 0 0 1
-17.498925 -19.284726 24.912825 36.038339 0.833909 0.807528 0.063422 -0.012297 98586.600000 0 0 1
-16.942525 -18.088826 24.136905 34.595447 0.818109 0.798628 0.066307 -0.020155 -156335.000000 0 0 1
-15.593225 -17.788426 24.388445 33.976065 0.851064 0.770141 0.063930 -0.023264 -539839.000000 0 0 1
-15.170025 -16.816826 23.448435 32.600067 0.836836 0.768037 0.067949 -0.018015 432407.000000 0 0 1
-13.721925 -16.312126 23.708005 31.881753 0.871427 0.732323 0.081874 -0.018146 -325653.000000 0 0 1
-12.698725 -17.197326 23.421265 31.710586 0.934752 0.739813 0.082188 -0.020928 -270636.000000 0 0 1
-11.382025 -16.696826 23.374065 30.897919 0.972466 0.712862 0.081389 -0.016379 -33454.100000 0 0 1
-11.018625 -15.922326 22.047165 29.342938 0.965444 0.720673 0.085392 -0.017589 -518897.000000 0 0 1
-10.701825 -16.731826 20.948665 28.867449 1.001761 0.758767 0.111159 -0.013393 311513.000000 0 0 1
-9.399125 -17.298026 21.046865 28.819017 1.073062 0.752018 0.099513 -0.011590 57057.900000 0 0 1
-8.989625 -18.417026 19.995365 28.632408 1.116702 0.797710 0.111425 -0.018020 210916.000000 0 0 1
-8.910125 -18.025926 18.677065 27.443707 1.111723 0.822271 0.115627 -0.025253 -117165.000000 0 0 1
-8.513125 -19.147626 17.925765 27.576039 1.152438 0.863148 0.117793 -0.026558 191454.000000 0 0 1
-8.237925 -18.713626 16.456265 26.246368 1.156114 0.893110 0.109193 -0.029012 151624.000000 0 0 1
-6.984425 -18.072126 16.360365 25.358341 1.202004 0.869554 0.111612 -0.028052 -179090.000000 0 0 1
-6.838825 -17.629626 14.999165 24.136035 1.200750 0.900213 0.114190 -0.037592 161653.000000 0 1 0
-5.804925 -16.482526 15.007165 23.034448 1.232175 0.861224 0.087231 -0.032423 -39171.300000 0 1 0
-6.276925 -15.325826 15.597565 22.750049 1.182071 0.815361 0.091814 -0.036676 88872.600000 0 1 0
-5.259225 -14.324826 15.662365 21.867093 1.218934 0.772379 0.068584 -0.030943 30666.500000 0 1 0
-5.288125 -13.289626 16.845665 22.098752 1.192090 0.703952 0.044039 -0.012520 -358757.000000 0 1 0
-5.083525 -13.848826 18.159565 23.396624 1.218994 0.682241 0.055457 -0.005281 203108.000000 0 1 0
-6.077625 -14.738626 18.686065 24.562851 1.179680 0.706336 0.099159 -0.016031 1022200.000000 0 1 0
-7.368625 -14.035526 19.248465 24.935838 1.087351 0.688941 0.113494 -0.018745 455003.000000 0 1 0
-7.096525 -13.267526 20.426965 25.370234 1.079636 0.634860 0.093244 -0.016601 -347048.000000 0 0 1
-8.276925 -12.777126 20.996765 25.935045 0.995975 0.627342 0.101928 -0.015641 -19462.500000 0 0 1
-8.006825 -11.860126 22.226665 26.434759 0.976975 0.572015 0.086172 -0.007903 93358.800000 0 0 1
-7.349725 -10.605326 21.904965 25.422802 0.964769 0.532330 0.053496 -0.003083 542418.000000 0 0 1
-6.924925 -9.837026 23.005665 25.961169 0.957414 0.481812 0.042674 -0.000498 808803.000000 0 0 1
-5.521425 -10.181626 23.638065 26.323179 1.073889 0.455607 0.040009 0.006554 773557.000000 0 0 1
-5.512925 -11.362626 24.430715 27.502026 1.119074 0.477113 0.051753 0.013937 560097.000000 0 0 1
-4.145725 -11.687826 24.699985 27.638407 1.229937 0.465308 0.044111 0.008515 495191.000000 0 0 1
-4.052225 -12.954626 25.562635 28.942895 1.267637 0.488134 0.052048 0.001348 505223.000000 0 0 1
-2.714425 -13.303126 25.971645 29.306443 1.369515 0.481698 0.035922 0.000318 953397.000000 0 0 1
-2.719125 -14.485926 26.749845 30.541609 1.385247 0.503604 0.041599 -0.004527 -84825.400000 0 0 1
-2.650125 -15.837026 26.018055 30.574070 1.404995 0.552940 0.050683 -0.019105 868221.000000 0 0 1
-1.400525 -16.204226 25.364805 30.131574 1.484581 0.570184 0.046270 -0.019827 924896.000000 0 0 1
-1.418625 -17.463926 24.675505 30.263538 1.489743 0.617456 0.048545 -0.016758 -701952.000000 0 0 1
-0.088125 -18.251326 24.632075 30.657100 1.565968 0.637694 0.057164 -0.027403 152833.000000 0 0 1
0.440175 -18.615526 25.894225 31.894238 -1.547155 0.623435 0.063040 -0.032567 -92028.400000 0 0 1
1.076475 -17.590926 26.572615 31.885786 -1.509678 0.585622 0.064230 -0.032400 -1085140.000000 0 0 1
1.550075 -17.964526 27.992685 33.297407 -1.484724 0.572246 0.055587 -0.027497 45127.100000 0 0 1
2.631875 -18.917726 27.905275 33.815847 -1.432561 0.600217 0.056619 -0.032865 671940.000000 0 0 1
3.317875 -19.114826 29.156595 35.021306 -1.398933 0.587121 0.049617 -0.033044 479172.000000 0 0 1
4.242175 -18.024926 29.766335 35.056079 -1.339652 0.556505 0.067991 -0.029250 -618686.000000 0 0 1
3.639975 -16.764326 29.905505 34.476532 -1.356989 0.520810 0.059455 -0.036046 -616884.000000 0 0 1
4.441275 -15.751826 30.441935 34.562354 -1.295977 0.493283 0.071430 -0.040323 -390444.000000 0 0 1
3.621875 -14.637926 31.128785 34.588844 -1.328237 0.451105 0.083286 -0.039267 167809.000000 0 0 1
3.013775 -15.112426 32.319980 35.805717 -1.373955 0.444912 0.073424 -0.043864 232577.000000 0 0 1
1.883775 -14.317126 32.658208 35.708364 -1.439973 0.416325 0.077491 -0.032328 -21147.600000 0 0 1
1.039975 -14.829226 33.822805 36.945495 -1.500781 0.414101 0.063534 -0.025159 121143.000000 0 0 1
1.713475 -14.822626 -33.096430 36.304544 -1.455709 2.718037 0.094185 -0.021390 -120373.000000 0 0 1
0.941675 -15.586926 -32.207800 35.793594 -1.510455 2.690154 0.064987 -0.026651 109454.000000 0 0 1
1.577175 -15.618726 -30.816220 34.584266 -1.470158 2.670444 0.091965 -0.019736 -143156.000000 0 0 1
1.082875 -16.581226 -29.947480 34.248521 -1.505582 2.635029 0.084227 -0.023188 -236865.000000 0 0 1
1.604075 -16.433026 -28.618020 33.039498 -1.473492 2.618295 0.079689 -0.015545 92892.000000 0 0 1
1.338075 -17.577826 -27.620020 32.766384 -1.494820 2.573517 0.089403 -0.021293 347928.000000 0 0 1
2.013875 -18.817626 -27.938580 33.744970 -1.464181 2.546209 0.106785 -0.025920 348877.000000 0 0 1
1.572275 -19.735426 -27.007760 33.486985 -1.491297 2.509030 0.109159 -0.029579 -202537.000000 0 0 1
2.434475 -21.041226 -27.043590 34.351355 -1.455608 2.477156 0.110068 -0.034426 92104.500000 0 0 1
3.748475 -20.827326 -26.562730 33.961849 -1.392724 2.468880 0.100138 -0.034701 -118629.000000 0 0 1
3.968875 -21.115626 -25.165480 33.089621 -1.385005 2.434917 0.096457 -0.022802 -1082760.000000 0 0 1
5.468775 -21.132826 -24.870900 33.091774 -1.317570 2.421241 0.103389 -0.028500 -72950.600000 0 0 1
6.257375 -22.250626 -25.301560 34.269725 -1.296654 2.401352 0.098925 -0.031164 149532.000000 0 0 1
6.307075 -22.488326 -26.734150 35.499560 -1.297361 2.423533 0.087461 -0.030772 -564581.000000 0 0 1
5.350675 -23.669226 -27.141440 36.407688 -1.348473 2.412061 0.060524 -0.034656 131691.000000 0 0 1
5.722575 -24.854126 -26.485160 36.768725 -1.344494 2.375056 0.086996 -0.019412 35693.200000 0 0 1
5.044975 -25.996086 -26.978850 37.803526 -1.379112 2.365505 0.074638 -0.022980 7167.300000 0 0 1
5.153875 -27.248976 -26.039970 38.041414 -1.383864 2.324736 0.084430 -0.027968 525367.000000 0 0 1
6.503375 -27.672056 -25.871370 38.436498 -1.339969 2.309181 0.112403 -0.031886 299547.000000 0 0 1
6.466875 -28.883526 -25.157640 38.845661 -1.350534 2.275267 0.108575 -0.038066 388594.000000 0 0 1
7.847975 -29.591406 -25.009700 39.531343 -1.311553 2.255773 0.095053 -0.041981 422370.000000 0 0 1
8.499375 -29.837976 -26.263580 40.648737 -1.293295 2.273274 0.105492 -0.044129 357283.000000 0 0 1
9.823275 -30.348206 -26.159820 41.253442 -1.257754 2.257672 0.167899 -0.032911 455986.000000 0 0 1
10.578375 -30.311006 -27.494280 42.268127 -1.235018 2.279003 0.153597 -0.059833 -70651.900000 0 0 1
10.111675 -31.188796 -28.458600 43.415192 -1.257280 2.285639 0.153203 -0.058083 240263.000000 0 0 1
10.842575 -30.907066 -29.673290 44.196293 -1.233398 2.306890 0.145764 -0.036257 378050.000000 0 0 1
-34.960987 -4.637626 -5.506400 35.694518 0.131882 1.725679 0.159731 -0.032425 78088.100000 0 0 1
-34.762495 -3.862626 -4.350400 35.245948 0.110661 1.694542 0.152811 -0.041675 289296.000000 0 0 1
-34.065196 -2.622726 -4.620900 34.477079 0.076840 1.705229 0.163311 -0.046837 77059.500000 0 0 1
-34.890848 -1.391826 -5.096100 35.288506 0.039870 1.715716 0.150042 -0.040779 -128421.000000 0 0 1
-35.773966 -0.846726 -4.133800 36.021964 0.023664 1.685807 0.130994 -0.041548 413653.000000 0 0 1
-36.674645 0.080974 -4.714700 36.976540 -0.002208 1.698650 0.129354 -0.040457 -89684.200000 0 0 1
35.960862 0.931274 -3.758800 36.168764 0.025891 1.674908 0.129727 -0.041003 -476143.000000 0 0 1
-36.623335 1.766274 -3.011500 36.789367 -0.048191 1.652746 0.134954 -0.042151 -431768.000000 0 0 1
36.084062 2.632174 -2.209100 36.247317 0.072817 1.631779 0.119820 -0.041898 -845835.000000 0 0 1
-36.431105 3.627774 -1.415800 36.638649 -0.099252 1.609448 0.118878 -0.044260 535606.000000 0 0 1
-35.763057 4.691674 -2.157700 36.133969 -0.130443 1.630546 0.140762 -0.048617 -123832.000000 0 0 1
-34.793942 4.257774 -3.056400 35.186483 -0.121766 1.657769 0.109467 -0.038296 -927710.000000 0 0 1
-33.622815 5.305474 -3.043900 34.174655 -0.156503 1.659983 0.096566 -0.037232 304420.000000 0 0 1
-32.952245 5.368174 -1.774200 33.433748 -0.161489 1.623887 0.106078 -0.040917 486233.000000 0 0 1
-33.482365 6.428274 -1.017700 34.109048 -0.189682 1.600637 0.122244 -0.054503 -515299.000000 0 0 1
-32.786855 6.604574 0.349600 33.447279 -0.198780 1.560344 0.140050 -0.043670 735833.000000 0 0 1
-31.403665 6.949274 0.079100 32.163470 -0.217779 1.568337 0.155038 -0.033617 1258000.000000 0 0 1
-30.748935 7.457074 1.235300 31.664347 -0.237922 1.531774 0.163332 -0.039435 -6561.020000 0 0 1
-30.713525 9.012774 1.190100 32.030720 -0.285434 1.533633 0.168749 -0.031788 -1234720.000000 0 0 1
-31.966485 9.568274 1.295100 33.392893 -0.290835 1.532003 0.138311 -0.029938 -672123.000000 0 0 1
-31.943425 10.825074 1.927400 33.782828 -0.326737 1.513713 0.133866 -0.017839 1634800.000000 0 0 1
-33.435165 11.425474 1.916500 35.385374 -0.329280 1.516609 0.138341 -0.026055 825635.000000 0 0 1
-33.763395 12.009474 0.680100 35.842110 -0.341739 1.551820 0.118733 -0.026782 839358.000000 0 0 1
-35.075973 12.580574 0.619600 37.269003 -0.344375 1.554170 0.115397 -0.016896 946117.000000 0 0 1
-36.304005 11.627274 0.671200 38.126431 -0.309953 1.553191 0.106183 -0.035022 -513647.000000 0 0 1
-36.553275 11.007174 -0.569700 38.178847 -0.292490 1.585719 0.108116 -0.041564 294563.000000 0 0 1
35.868842 9.988574 -0.356400 37.235366 0.271594 1.580368 0.124185 -0.038875 574461.000000 0 0 1
35.667032 8.994074 -1.530500 36.815391 0.247018 1.612381 0.124760 -0.052928 145531.000000 0 0 1
35.019942 9.481774 -2.682600 36.379895 0.264414 1.644602 0.115282 -0.056845 93992.700000 0 0 1
34.695512 8.455974 -3.589800 35.891068 0.239059 1.670983 0.105196 -0.059796 -53967.700000 0 0 1
33.923732 8.963074 -4.823000 35.417759 0.258310 1.707395 0.093184 -0.051431 789991.000000 0 0 1
32.520822 9.187674 -4.606700 34.106288 0.275341 1.706279 0.116025 -0.048481 803943.000000 0 0 1
31.963392 9.733474 -5.800300 33.912276 0.295598 1.742680 0.103093 -0.035067 636997.000000 0 0 1
30.467702 10.158374 -5.612200 32.603224 0.321824 1.743794 0.110269 -0.029498 68249.700000 0 0 1
29.506632 9.178874 -5.557600 31.397133 0.301589 1.748744 0.109727 -0.022674 -438677.000000 0 0 1
28.249362 9.761474 -5.780400 30.442172 0.332702 1.761838 0.104378 -0.005903 208448.000000 0 0 1
27.065762 8.719674 -5.860900 29.033401 0.311667 1.774061 0.115572 0.001916 364941.000000 0 0 1
27.171462 8.035274 -7.116400 29.214673 0.287530 1.816862 0.121146 -0.007964 726872.000000 0 0 1
26.208162 6.965774 -7.292300 28.081442 0.259780 1.833491 0.129338 -0.013672 394115.000000 0 0 1
26.395562 6.037874 -8.555600 28.396829 0.224877 1.876839 0.133523 -0.029238 -328148.000000 0 0 1
27.398162 5.072074 -8.389200 29.099208 0.183052 1.863244 0.130338 -0.027605 365218.000000 0 0 1
27.326862 4.043074 -9.341400 29.161029 0.146887 1.896883 0.124424 -0.027165 -113989.000000 0 0 1
28.352962 2.899374 -8.974000 29.880253 0.101906 1.875837 0.112998 -0.026192 534235.000000 0 0 1
29.707752 3.353374 -9.263400 31.298662 0.112403 1.871265 0.132390 -0.022420 1588400.000000 0 0 1
30.661732 3.004374 -8.276400 31.900891 0.097673 1.833240 0.106018 -0.029815 71850.600000 0 0 1
30.921962 1.489774 -8.071500 31.992754 0.048141 1.825844 0.103996 -0.029759 -208041.000000 0 0 1
29.765322 0.894574 -7.417400 30.688638 0.030045 1.814912 0.117503 -0.035021 1265360.000000 0 0 1
29.991732 -0.498526 -7.047000 30.812542 -0.016621 1.801544 0.111026 -0.032193 -102166.000000 0 0 1
29.957702 -1.592526 -8.189800 31.097795 -0.053109 1.837296 0.102599 -0.022595 -575501.000000 0 0 1
31.148992 -1.711226 -8.907300 32.442688 -0.054882 1.848923 0.102179 -0.030355 -93132.000000 0 0 1
31.007652 -2.709026 -9.857300 32.649344 -0.087145 1.877496 0.094764 -0.032988 -639361.000000 0 0 1
31.961452 -2.713026 -11.035400 33.921601 -0.084681 1.902147 0.112715 -0.035178 -59233.100000 0 0 1
33.263082 -3.141426 -10.610100 35.055319 -0.094163 1.878286 0.118442 -0.033021 908238.000000 0 0 1
34.136712 -3.520626 -11.679000 36.250641 -0.102770 1.898821 0.118338 -0.045283 -872662.000000 0 0 1
35.527702 -3.822826 -11.221400 37.453323 -0.107189 1.875080 0.119490 -0.036064 -1376660.000000 0 0 1
35.583852 -4.891626 -10.323300 37.372571 -0.136611 1.850662 0.118431 -0.027889 -171819.000000 0 0 1
-36.504725 -5.142926 -9.975400 38.191009 0.139963 1.835059 0.132640 -0.030214 -458852.000000 0 0 1
-36.368745 -6.455726 -9.170000 38.058519 0.175678 1.814135 0.131487 -0.027967 -191063.000000 0 0 1
36.507742 -6.529726 -7.865600 37.912006 -0.176987 1.779784 0.125698 -0.025213 374856.000000 0 0 1
36.290152 -7.902126 -7.529000 37.895970 -0.214402 1.770803 0.112732 -0.015453 -99870.400000 0 0 1
35.754422 -8.136926 -6.063600 37.166591 -0.223767 1.734675 0.112604 -0.008552 -543582.000000 0 0 1
-36.701535 -7.908926 -5.086900 37.887073 0.212247 1.705468 0.113503 -0.011455 10698.200000 0 0 1
36.683932 -8.763826 -3.926100 37.920045 -0.234506 1.674518 0.121186 -0.018563 -460511.000000 0 0 1
-36.311385 -10.224226 -4.056000 37.940777 0.274465 1.677904 0.126275 -0.023974 -5024.170000 0 0 1
36.198232 -10.933826 -4.897400 38.129321 -0.293340 1.699594 0.099720 -0.023949 531926.000000 0 0 1
-36.555805 -11.944226 -5.616600 38.865635 0.315804 1.715817 0.094120 -0.025605 -204458.000000 0 0 1
36.187342 -12.310426 -6.928800 38.846861 -0.327905 1.750118 0.098573 -0.025171 -128121.000000 0 0 1
36.152682 -11.277926 -7.909100 38.688007 -0.302386 1.776681 0.126050 -0.021336 264286.000000 0 0 1
35.574262 -11.830026 -9.094900 38.577129 -0.321040 1.808796 0.112278 -0.012694 30511.400000 0 0 1
35.779232 -10.998526 -10.379000 38.843850 -0.298232 1.841280 0.092301 -0.016510 -55937.100000 0 0 1
35.018992 -9.831726 -10.484900 37.854006 -0.273708 1.851449 0.105352 -0.013440 252843.000000 0 0 1
35.530042 -9.163426 -11.596800 38.481658 -0.252406 1.876914 0.111094 -0.018664 -60592.800000 0 0 1
34.731042 -7.878126 -11.994000 37.578800 -0.223058 1.895649 0.108172 -0.021748 -46315.100000 0 0 1
35.093682 -7.245426 -13.196100 38.186382 -0.203599 1.923643 0.110779 -0.021492 738561.000000 0 0 1
33.968612 -6.513426 -13.644400 37.181460 -0.189449 1.946544 0.105616 -0.027739 173689.000000 0 0 1
34.282052 -5.775526 -14.983700 37.856665 -0.166904 1.977736 0.102829 -0.028381 141655.000000 0 0 1
35.331922 -4.820226 -14.976900 38.676696 -0.135590 1.968425 0.095163 -0.024089 498218.000000 0 0 1
35.040562 -3.761426 -15.899000 38.662223 -0.106935 1.994597 0.113484 -0.033611 188726.000000 0 0 1
36.078522 -2.578726 -15.907400 39.513984 -0.071354 1.985126 0.103160 -0.038494 1368810.000000 0 0 1
-36.144625 -2.804626 -16.735000 39.929438 0.077439 2.003266 0.114056 -0.031281 1546190.000000 0 0 1
-34.922975 -2.207426 -16.335000 38.617601 0.063124 2.007543 0.099451 -0.026000 254351.000000 0 0 1
-34.877695 -0.674726 -16.127700 38.431908 0.019343 2.003849 0.098482 -0.020866 -926630.000000 0 0 1
-35.201686 0.033774 -17.278200 39.213467 -0.000959 2.027084 0.093094 -0.014184 334798.000000 0 0 1
-35.134186 1.420674 -17.039500 39.073955 -0.040414 2.022038 0.089320 -0.021167 -82435.300000 0 0 1
-35.366138 2.261574 -18.279700 39.875128 -0.063860 2.047017 0.092197 -0.021361 680653.000000 0 0 1
-34.302154 2.275774 -19.267400 39.408750 -0.066248 2.081638 0.077647 -0.019252 954165.000000 0 0 1
-34.289466 3.567774 -19.847200 39.779490 -0.103676 2.093161 0.070187 -0.011723 -139483.000000 0 0 1
-33.299915 3.690674 -21.010800 39.546923 -0.110381 2.130916 0.061818 -0.008968 -778469.000000 0 0 1
-31.939225 3.763174 -20.727600 38.261063 -0.117282 2.143304 0.064062 -0.013627 -241891.000000 0 0 1
-31.247245 3.959274 -21.996700 38.417717 -0.126036 2.180429 0.073920 -0.010914 858405.000000 0 0 1
-29.717985 4.238774 -21.770300 37.081960 -0.141678 2.198251 0.066261 -0.011182 824199.000000 0 0 1
-29.002225 3.121074 -21.260600 36.095474 -0.107202 2.200630 0.085856 0.000320 -263483.000000 0 0 1
-27.617215 3.283674 -21.327600 35.047961 -0.118344 2.224998 0.066682 0.000942 -431025.000000 0 0 1
-26.812715 2.465674 -20.313800 33.729092 -0.091701 2.217130 0.062230 0.000788 -298565.000000 0 0 1
-26.743405 3.077674 -19.051700 32.979524 -0.114578 2.186683 0.050044 0.006531 33883.500000 0 0 1
-26.307725 2.104474 -18.117900 32.012240 -0.079825 2.172403 0.053118 0.010018 -296728.000000 0 0 1
-25.523495 2.840074 -17.043300 30.821889 -0.110817 2.156710 0.064760 0.000708 100997.000000 0 0 1
-24.207625 3.264874 -17.361800 29.968326 -0.134061 2.188713 0.048040 -0.008421 442761.000000 0 0 1
-23.368925 3.493874 -16.257900 28.681581 -0.148410 2.173463 0.073605 -0.022310 457807.000000 0 0 1
-22.151825 4.417074 -16.578900 28.019168 -0.196819 2.203960 0.076350 -0.032258 -569777.000000 0 0 1
-21.171125 3.931974 -17.370600 27.666129 -0.183631 2.249604 0.103631 -0.041578 -566261.000000 0 0 1
-20.006325 4.743374 -17.377900 26.921070 -0.232795 2.272491 0.103433 -0.039884 50519.100000 0 0 1
-18.726025 3.954474 -17.688500 26.061176 -0.208118 2.316828 0.131233 -0.052089 -530139.000000 0 0 1
-18.450825 3.059674 -16.681000 25.060932 -0.164333 2.299118 0.151724 -0.051109 162899.000000 0 0 1
-17.448425 2.176774 -17.160900 24.569948 -0.124114 2.344027 0.125802 -0.052904 -152319.000000 0 1 0
-17.874925 0.667974 -16.905200 24.611885 -0.037352 2.327972 0.148863 -0.048366 165391.000000 0 1 0
-18.800425 0.015574 -17.733400 25.844335 -0.000828 2.326996 0.099570 -0.041490 1176630.000000 0 0 1
-20.181125 0.247774 -17.352300 26.616564 -0.012277 2.280931 0.106910 -0.050725 795382.000000 0 0 1
-21.134225 -0.900826 -17.684000 27.571558 0.042598 2.267099 0.084456 -0.044507 -541732.000000 0 0 1
-20.946725 -2.089326 -16.944800 27.023264 0.099416 2.248550 0.080855 -0.040846 34845.600000 0 0 1
-21.926725 -3.027126 -17.250100 28.062621 0.137189 2.232802 0.081574 -0.026600 -363414.000000 0 0 1
-22.064825 -4.152526 -16.210800 27.692779 0.186021 2.196145 0.092518 -0.031512 -92389.600000 0 0 1
-22.615225 -3.677726 -15.010400 27.391352 0.161210 2.150765 0.082134 -0.033244 262574.000000 0 0 1
-22.749925 -4.766626 -14.086800 27.179362 0.206535 2.115647 0.082442 -0.040444 -93323.800000 0 0 1
-23.009825 -4.295226 -12.623000 26.594005 0.184545 2.065369 0.088999 -0.047324 -441664.000000 0 0 1
-24.115025 -3.446026 -12.555600 27.405339 0.141939 2.046703 0.071783 -0.036650 121499.000000 0 0 1
-24.254825 -2.897526 -11.222000 26.881694 0.118898 2.001443 0.089163 -0.044937 -718088.000000 0 0 1
-25.163245 -1.682626 -11.179100 27.586090 0.066769 1.988042 0.121115 -0.041959 -523850.000000 0 0 1
-25.209055 -1.118026 -9.864800 27.093554 0.044321 1.943464 0.131298 -0.050301 535211.000000 0 0 1
-25.885385 0.125274 -9.790800 27.675415 -0.004840 1.932398 0.147488 -0.050039 -291244.000000 0 0 1
-26.264905 0.509174 -8.311800 27.553412 -0.019384 1.877231 0.166165 -0.051011 -210391.000000 0 0 1
-25.169005 0.903674 -7.519500 26.283803 -0.035889 1.860939 0.145121 -0.044690 274065.000000 0 0 1
-25.526395 1.053874 -6.169600 26.282531 -0.041262 1.807749 0.149779 -0.053353 -545724.000000 0 0 1
-24.283325 1.272974 -5.331100 24.894195 -0.052374 1.786618 0.100561 -0.041360 -541279.000000 0 1 0
-23.791725 2.589374 -5.453700 24.545750 -0.108408 1.794851 0.125081 -0.046228 -110966.000000 0 1 0
-22.419425 2.642274 -5.155900 23.155896 -0.117315 1.795339 0.090103 -0.030470 -419289.000000 0 1 0
-21.938025 4.148574 -5.296700 22.946516 -0.186897 1.803725 0.084976 -0.028180 -309939.000000 0 1 0
-22.348825 5.020374 -4.233800 23.293758 -0.220969 1.753569 0.081489 -0.030454 696808.000000 0 1 0
-22.416825 6.333074 -4.751700 23.773946 -0.275339 1.772022 0.101207 -0.029268 -445979.000000 0 1 0
-22.995825 7.336574 -3.675800 24.416076 -0.308831 1.721919 0.105504 -0.025235 -67183.300000 0 1 0
-22.228525 7.450074 -2.491300 23.575782 -0.323392 1.676666 0.083119 -0.018014 620488.000000 0 1 0
-20.870525 7.834374 -2.513500 22.433767 -0.359104 1.683073 0.079113 -0.017654 -230451.000000 0 1 0
-20.553525 9.324274 -2.764800 22.738372 -0.425892 1.692690 0.075919 -0.015708 -653209.000000 0 1 0
-20.527225 9.907774 -4.050100 23.150254 -0.449684 1.746650 0.073331 -0.007685 1031320.000000 0 1 0
-19.690725 11.085874 -4.006700 22.949398 -0.512769 1.746284 0.058545 -0.006332 128281.000000 0 1 0
-19.483325 11.696974 -5.375900 23.352076 -0.540683 1.803091 0.058926 -0.013415 406144.000000 0 1 0
-18.491125 10.933874 -6.088100 22.327925 -0.534001 1.846961 0.050502 -0.014028 421094.000000 0 1 0
-18.582625 11.333574 -7.420600 22.996285 -0.547668 1.899363 0.073984 -0.012769 621033.000000 0 1 0
-17.292625 10.937074 -8.229200 22.053893 -0.563953 1.953188 0.061697 -0.010130 570867.000000 0 1 0
-17.152525 9.542374 -8.581900 21.422302 -0.507686 1.982974 0.059115 -0.012535 236516.000000 0 1 0
-18.088125 9.076274 -9.547000 22.376421 -0.465071 2.011587 0.075439 -0.010862 -159036.000000 0 1 0
-18.015525 9.743974 -10.946900 23.223668 -0.495803 2.061638 0.077202 -0.014373 173218.000000 0 1 0
-16.788925 9.480774 -11.602800 22.502845 -0.514062 2.112521 0.070675 -0.020912 105016.000000 0 1 0
-16.816125 10.193074 -12.811100 23.469237 -0.544928 2.148221 0.080227 -0.027126 358619.000000 0 1 0
-15.584125 9.824874 -13.687300 22.950714 -0.562503 2.209778 0.052225 -0.022450 -371399.000000 0 1 0
-15.636425 8.634674 -14.493000 23.002226 -0.504542 2.252439 0.061216 -0.033592 -17230.800000 0 1 0
-15.515325 7.441474 -13.729400 22.013570 -0.447212 2.244237 0.058953 -0.027694 -324068.000000 0 1 0
-15.620825 6.122774 -14.533400 22.197257 -0.373558 2.284633 0.074636 -0.030749 -507494.000000 0 1 0
-14.508325 5.945274 -15.345800 21.939265 -0.388912 2.345448 0.073043 -0.035372 -102957.000000 0 1 0
-14.690025 4.864474 -16.246500 22.436771 -0.319776 2.380527 0.083108 -0.033235 89594.600000 0 1 0
32.331862 -16.181826 28.449825 46.006449 -0.464041 0.904107 0.046797 -0.006543 298147.000000 0 0 1
31.564212 -14.952926 28.618685 45.154386 -0.442412 0.884345 0.061773 -0.005988 247255.000000 0 0 1
30.509482 -15.017026 29.543945 45.046468 -0.457395 0.855482 0.067169 -0.011700 15669.900000 0 0 1
30.965252 -14.881026 30.971415 46.254949 -0.447985 0.837152 0.050431 -0.016150 42004.800000 0 0 1
31.653582 -13.674426 31.310385 46.575523 -0.407787 0.833553 0.032519 -0.021906 121448.000000 0 0 1
31.958562 -13.619126 32.670302 47.688352 -0.402844 0.816084 0.024356 -0.023768 -272578.000000 0 0 1
32.378382 -12.171326 32.980155 47.793215 -0.359567 0.809225 0.032055 -0.021731 5448.380000 0 0 1
32.429602 -12.114726 -33.767820 48.360225 -0.357516 2.343755 0.003953 -0.031612 67798.900000 0 0 1
32.595562 -10.762226 -33.330120 47.845513 -0.318905 2.341471 0.034794 -0.023997 -165199.000000 0 0 1
32.225722 -10.558526 -31.850230 46.523293 -0.316620 2.324862 0.036453 -0.022027 -19930.900000 0 0 1
30.845032 -10.515026 -31.581000 45.379966 -0.328544 2.340502 0.092738 -0.029321 -24136.600000 0 0 1
30.600132 -10.137326 -30.225560 44.189568 -0.319905 2.324025 0.074024 -0.021150 -350505.000000 0 0 1
29.113982 -10.127726 -29.845280 42.906124 -0.334771 2.340044 0.092674 -0.014972 -235646.000000 0 0 1
28.778422 -10.025526 -28.450890 41.691269 -0.335222 2.321862 0.076040 -0.019489 850313.000000 0 0 1
27.556362 -10.762026 -28.242900 40.900314 -0.372330 2.333018 0.088103 -0.023602 159431.000000 0 0 1
27.108862 -10.804326 -26.779670 39.607759 -0.379259 2.313283 0.078713 -0.016278 -293010.000000 0 0 1
26.344062 -9.692026 -26.251080 38.432593 -0.352533 2.322716 0.064261 -0.021026 433003.000000 0 0 1
25.087962 -9.364426 -26.797330 37.883970 -0.357248 2.356542 0.071235 -0.020103 81001.000000 0 0 1
23.902162 -10.367826 -26.771910 37.356931 -0.409268 2.369786 0.080463 -0.008089 -280275.000000 0 0 1
24.211662 -11.655526 -27.369010 38.355164 -0.448658 2.365374 0.082306 -0.019822 -434864.000000 0 0 1
23.181762 -12.586326 -27.305860 37.966033 -0.497407 2.373473 0.070433 -0.031836 -344967.000000 0 0 1
23.739162 -13.840026 -27.944770 39.191891 -0.527829 2.364599 0.086109 -0.014199 241522.000000 0 0 1
24.099462 -13.767826 -29.304920 40.362302 -0.519043 2.383352 0.084670 -0.020104 70003.800000 0 0 1
25.140462 -14.667326 -29.576510 41.496304 -0.528135 2.364208 0.074621 -0.015049 -288557.000000 0 0 1
25.378162 -14.718726 -31.091220 42.747584 -0.525566 2.385207 0.090769 -0.022198 -518775.000000 0 0 1
24.319262 -15.347226 -31.764740 42.848134 -0.562954 2.405851 0.097836 -0.018295 -152075.000000 0 0 1
24.439562 -15.720526 -33.161650 44.092201 -0.571609 2.422036 0.098156 -0.017264 -115798.000000 0 0 1
24.594862 -14.531726 34.018160 44.421993 -0.533660 0.698519 0.068156 -0.025537 -475180.000000 0 0 1
23.430462 -13.829426 33.798590 43.388757 -0.533207 0.677773 0.089375 -0.025074 -685763.000000 0 0 1
23.605262 -13.075426 32.657250 42.363559 -0.505848 0.690574 0.070260 -0.025638 -465768.000000 0 0 1
22.775662 -11.745126 32.665888 41.517936 -0.476119 0.665206 0.082242 -0.026517 -299431.000000 0 0 1
21.405862 -11.932526 32.804089 40.947581 -0.508539 0.641625 0.073458 -0.022031 -443903.000000 0 0 1
20.713162 -12.261426 31.601755 39.724659 -0.534489 0.650931 0.057868 -0.011301 195158.000000 0 0 1
19.177862 -12.560726 31.762555 39.171701 -0.579854 0.625185 0.063880 -0.005577 656815.000000 0 0 1
18.474862 -11.357626 31.868635 38.547712 -0.551203 0.597522 0.067556 -0.010992 -1264350.000000 0 0 1
17.247462 -11.606126 32.438617 38.528444 -0.592318 0.569929 0.062289 -0.006452 -597399.000000 0 0 1
16.312162 -10.376626 32.715580 38.000923 -0.566562 0.533730 0.058543 -0.006007 4259.620000 0 0 1
15.566962 -9.975526 31.565735 36.581922 -0.569890 0.529860 0.058807 -0.005365 195216.000000 0 0 1
14.722562 -8.842126 31.632575 35.993844 -0.540848 0.497386 0.066407 0.002952 638172.000000 0 0 1
13.510262 -8.905726 32.618796 36.411880 -0.582803 0.460505 0.069685 -0.001969 -1047940.000000 0 0 1
12.622262 -9.952726 32.422319 36.188189 -0.667693 0.460261 0.070673 -0.001677 145792.000000 0 0 1
11.417762 -9.864126 33.170878 36.441370 -0.712525 0.426901 0.060461 0.001404 1290110.000000 0 0 1
10.317762 -8.818926 32.662681 35.370615 -0.707235 0.393843 0.045885 0.007631 -55470.700000 0 0 1
10.662562 -7.451426 32.923791 35.400424 -0.609947 0.376276 0.068236 0.004554 601583.000000 0 0 1
9.720362 -6.519126 32.353666 34.405583 -0.590767 0.347107 0.068168 0.010408 338905.000000 0 0 1
10.295462 -5.101526 32.291816 34.275115 -0.460051 0.341851 0.088510 0.009802 17695.900000 0 0 1
10.606762 -4.625426 33.609258 35.545466 -0.411220 0.331582 0.098840 -0.000259 289245.000000 0 0 1
11.091362 -3.281426 33.486241 35.427594 -0.287649 0.332583 0.073039 0.000908 -81156.000000 0 0 1
10.977662 -2.533826 -33.347310 35.199040 -0.226844 2.815785 0.070524 -0.006268 289195.000000 0 0 1
9.613262 -2.159826 -33.163500 34.596205 -0.221002 2.852798 0.080887 0.006697 379182.000000 0 0 1
9.428562 -1.437626 -32.021090 33.411297 -0.151310 2.852108 0.086792 0.001986 -60897.900000 0 0 1
7.952462 -1.206726 -31.662770 32.668469 -0.150594 2.892819 0.080277 0.004186 47919.600000 0 0 1
7.206462 -0.400726 -32.593930 33.383498 -0.055549 2.923669 0.080333 0.005315 -97449.400000 0 0 1
5.930762 -0.112626 -32.094020 32.637597 -0.018988 2.958828 0.091686 0.006952 -21331.200000 0 0 1
5.085362 0.797674 -33.031780 33.430460 0.155589 2.987000 0.096982 0.003512 272444.000000 0 0 1
5.746862 2.061174 -33.181970 33.738968 0.344370 2.959633 0.083799 -0.000665 196395.000000 0 0 1
5.096362 2.873274 34.029191 34.528458 0.513368 0.170262 0.078258 -0.003893 -220787.000000 0 0 1
5.684862 4.276574 33.948999 34.686327 0.644955 0.206556 0.063998 -0.009944 -21517.300000 0 0 1
5.296762 5.027174 32.846946 33.648923 0.759291 0.218764 0.081801 -0.021877 -178707.000000 0 0 1
6.077362 6.205974 32.742853 33.875402 0.795868 0.259310 0.072703 -0.023209 -111550.000000 0 0 1
5.622662 7.353074 31.808875 33.128335 0.917973 0.283182 0.090241 -0.025890 704715.000000 0 0 1
4.512062 8.135074 32.381765 33.691495 1.064395 0.279745 0.090038 -0.027324 1135400.000000 0 0 1
4.266762 9.326474 31.705005 33.322601 1.141732 0.312862 0.089279 -0.033368 7958.330000 0 0 1
3.784962 9.293974 30.199805 31.823452 1.184056 0.320812 0.083540 -0.033408 98940.800000 0 0 1
2.461262 8.799374 30.070635 31.428170 1.298058 0.294990 0.088639 -0.028216 -93545.400000 0 0 1
2.227862 8.637874 28.725575 30.078811 1.318380 0.301102 0.068246 -0.017811 -320026.000000 0 0 1
0.884162 8.147374 28.197305 29.364084 1.462698 0.282846 0.074854 -0.015926 -438228.000000 0 0 1
-0.261138 8.818074 28.625145 29.953723 -1.541191 0.298952 0.080165 -0.018441 -129859.000000 0 0 1
-1.432838 8.351674 27.955765 29.211783 -1.400888 0.294308 0.082132 -0.011800 415897.000000 0 0 1
-2.747638 8.732674 28.629275 30.057353 -1.265964 0.309493 0.068501 -0.012966 -342153.000000 0 0 1
-2.980838 10.134074 28.576225 30.466137 -1.284724 0.354077 0.077398 -0.012944 112587.000000 0 0 1
-4.266338 10.378374 29.140315 31.226115 -1.180775 0.367570 0.059950 -0.016087 182208.000000 0 0 1
-4.668338 11.806274 29.669905 32.272043 -1.194252 0.404324 0.055503 -0.024846 22027.700000 0 0 1
-4.862638 12.870974 28.762515 31.884000 -1.209574 0.446188 0.053335 -0.018507 -216603.000000 0 0 1
-6.029938 12.771274 27.993265 31.354242 -1.129677 0.467259 0.048528 -0.019641 -218562.000000 0 0 1
-6.362438 14.134774 27.330685 31.420356 -1.147837 0.515918 0.043355 -0.017679 239334.000000 0 0 1
-5.419238 14.422674 26.309135 30.488559 -1.211373 0.529780 0.042786 -0.013380 8299.040000 0 0 1
-5.468038 15.784074 26.006935 30.909498 -1.237308 0.570947 0.031885 -0.011140 -364041.000000 0 0 1
-4.168538 16.281574 25.389145 30.447907 -1.320152 0.584741 0.042088 -0.013699 -383689.000000 0 0 1
-3.938738 15.834774 24.058515 29.070017 -1.327004 0.595968 0.029805 -0.012698 -516934.000000 0 0 1
-2.999038 16.687874 23.483935 28.965058 -1.392981 0.625334 0.036084 -0.005846 -304808.000000 0 0 1
-2.890138 16.506274 22.039865 27.686922 -1.397460 0.650074 0.030427 -0.001371 100557.000000 0 0 1
-2.142838 15.353674 21.651065 26.628850 -1.432127 0.621394 0.017167 0.001104 154170.000000 0 0 1
-2.150538 15.371574 20.223265 25.492951 -1.431795 0.654605 0.004991 0.007742 169673.000000 0 0 1
-1.402238 14.170474 19.563765 24.197304 -1.472163 0.629180 0.002682 -0.001523 -11347.700000 0 1 0
-2.012238 12.930374 19.728065 23.673619 -1.416414 0.585682 0.007076 0.003636 321246.000000 0 1 0
-1.097938 11.926974 19.264865 22.684647 -1.479000 0.556239 0.012972 0.002530 309751.000000 0 1 0
-1.795438 10.577974 19.258465 22.045535 -1.402665 0.508293 0.007511 -0.000059 -341633.000000 0 1 0
-2.007538 9.876974 20.458265 22.806259 -1.370274 0.457757 0.018388 -0.000495 27991.900000 0 1 0
-2.995238 10.313574 21.358365 23.906506 -1.288154 0.465912 0.038238 -0.000468 60270.100000 0 1 0
-4.513238 10.243174 21.041365 23.833400 -1.155779 0.488896 0.038095 0.000176 -30846.100000 0 1 0
-4.978938 8.926074 21.244465 23.575239 -1.061987 0.448417 0.037733 0.002367 -151193.000000 0 1 0
-6.386838 8.959474 21.103865 23.799937 -0.951492 0.480596 0.041778 -0.000053 -94196.400000 0 1 0
-7.060238 7.631474 21.236465 23.644741 -0.824260 0.455258 0.036025 -0.005784 -387945.000000 0 1 0
-7.060838 7.101774 22.551265 24.674890 -0.788289 0.417918 0.047474 -0.009696 29006.900000 0 1 0
-7.600438 5.792674 22.487565 24.433835 -0.651232 0.401834 0.044835 -0.011113 102645.000000 0 1 0
-7.565838 4.960674 23.774255 25.437480 -0.580349 0.363621 0.032010 -0.011395 -495764.000000 0 0 1
-8.422138 5.506774 24.736075 26.704501 -0.579074 0.386355 0.035942 -0.010702 -164262.000000 0 0 1
-8.538138 4.724074 25.882605 27.660909 -0.505366 0.360528 0.039045 -0.004096 -750654.000000 0 0 1
-9.724438 5.082774 26.740585 28.904293 -0.481627 0.389386 0.032129 -0.003862 -1040050.000000 0 0 1
-9.577138 6.354974 27.355905 29.672425 -0.585846 0.397762 0.037762 -0.011827 134452.000000 0 0 1
-10.530038 6.562474 28.378645 30.972492 -0.557314 0.412171 0.044725 -0.015273 135422.000000 0 0 1
-10.114538 7.841274 29.141635 31.828043 -0.659465 0.413808 0.050830 -0.015660 -33402.900000 0 0 1
-9.101738 7.618374 30.075605 32.333006 -0.696912 0.375886 0.050227 -0.011221 -49649.400000 0 0 1
-8.359838 8.818574 30.282495 32.629490 -0.812096 0.381596 0.056268 -0.013139 468607.000000 0 0 1
-7.303938 8.793974 31.435815 33.449842 -0.877696 0.348782 0.077326 -0.019255 847376.000000 0 0 1
-6.101438 8.082974 31.130865 32.736719 -0.924198 0.314515 0.068557 -0.022628 191377.000000 0 0 1
-5.373938 7.683274 32.296761 33.630235 -0.960451 0.282545 0.096780 -0.026731 540801.000000 0 0 1
-3.836638 7.652574 32.122565 33.243659 -1.106067 0.260441 0.077247 -0.023296 163653.000000 0 0 1
-3.298038 8.953574 32.004675 33.396748 -1.217870 0.289744 0.060016 -0.021242 -144980.000000 0 0 1
-1.882738 8.813974 32.098155 33.339502 -1.360351 0.273740 0.063104 -0.023876 741126.000000 0 0 1
-1.096038 10.128074 31.663985 33.262398 -1.462998 0.311270 0.070770 -0.026184 294738.000000 0 0 1
-1.252638 11.040874 32.670343 34.508279 -1.457825 0.327842 0.073103 -0.038812 46833.800000 0 0 1
-1.602838 12.340574 32.128255 34.454080 -1.441636 0.369536 0.076397 -0.037095 -35090.100000 0 0 1
-1.740338 13.398774 33.211391 35.854601 -1.441632 0.386379 0.073447 -0.037879 -662800.000000 0 0 1
-0.489938 13.938174 33.506628 36.293344 -1.535660 0.394427 0.097403 -0.044768 -584709.000000 0 0 1
-0.478238 14.883874 -33.579440 36.733326 -1.538676 2.724180 0.088377 -0.046059 -534364.000000 0 0 1
0.920062 15.193674 -33.069220 36.404224 1.510315 2.710213 0.081109 -0.046333 -746582.000000 0 0 1
1.779662 15.878274 -33.947000 37.519136 1.459181 2.701686 0.082729 -0.040706 731328.000000 0 0 1
2.935862 16.287474 -33.178820 37.077422 1.392459 2.678897 0.081358 -0.039859 380381.000000 0 0 1
3.874762 17.262774 -33.932140 38.267575 1.349998 2.660970 0.086157 -0.026847 -305854.000000 0 0 1
3.365962 18.590474 34.020709 38.914574 1.391678 0.506926 0.077191 -0.020427 629748.000000 0 0 1
4.328362 19.434674 33.371535 38.860013 1.351659 0.537946 0.056644 -0.002495 576809.000000 0 0 1
3.775462 20.900174 33.435000 39.610234 1.392081 0.565912 0.061895 -0.010345 154203.000000 0 0 1
3.873462 21.410374 -33.410580 39.870725 1.391817 2.564354 0.061046 -0.022393 191976.000000 0 0 1
3.739862 22.823874 -33.375680 40.606056 1.408382 2.535602 0.047233 -0.020841 21415.700000 0 0 1
3.818262 23.530974 -32.019610 39.919184 1.409933 2.501618 0.072200 -0.020623 -66052.700000 0 0 1
3.346162 24.853974 -32.180420 40.798238 1.436968 2.479601 0.062698 -0.021965 114073.000000 0 0 1
3.025262 25.216574 -30.891120 39.991113 1.451396 2.453486 0.067025 -0.023362 -190812.000000 0 0 1
2.623862 26.673874 -30.779400 40.813621 1.472744 2.425148 0.056045 -0.027439 317424.000000 0 0 1
3.777762 27.515174 -30.732690 41.422874 1.434352 2.406734 0.071739 -0.039094 182404.000000 0 0 1
3.455462 28.875974 -30.483310 42.130681 1.451697 2.379716 0.066559 -0.037137 -518835.000000 0 0 1
4.582162 29.901474 -30.241760 42.774506 1.418737 2.356050 0.098948 -0.051174 -124185.000000 0 0 1
5.379162 29.557074 -29.131510 41.847352 1.390774 2.340799 0.091125 -0.061241 -51540.100000 0 0 1
6.262162 30.620974 -28.817210 42.512237 1.369072 2.315640 0.115580 -0.072999 -827131.000000 0 0 1
7.393362 30.404674 -27.838410 41.881775 1.332261 2.297876 0.123888 -0.068052 -256651.000000 0 0 1
8.555662 29.802074 -28.457330 42.085420 1.291232 2.313362 0.123715 -0.061283 1108850.000000 0 0 1
9.697762 30.675274 -28.442500 42.941761 1.264596 2.294748 0.134760 -0.057705 255542.000000 0 0 1
9.597962 32.105374 -29.139260 44.406896 1.280301 2.286552 0.146860 -0.060080 -1705830.000000 0 0 1
8.927762 33.064174 -28.396070 44.489115 1.307072 2.263045 0.146775 -0.061719 58186.200000 0 0 1
8.599462 -33.976807 -29.164720 45.595559 -1.322904 2.264825 0.128736 -0.057438 498463.000000 0 0 1
7.240962 -34.033007 -29.950920 45.910072 -1.361159 2.281520 0.082967 -0.036560 358968.000000 0 0 1
7.306362 33.187274 -30.982060 45.985499 1.354098 2.310048 0.069684 -0.031140 650920.000000 0 0 1
5.993762 33.015774 -31.526410 46.042166 1.391210 2.325028 0.066137 -0.028022 510829.000000 0 0 1
6.007062 32.204074 -32.830750 46.379363 1.386385 2.357280 0.070056 -0.050278 105301.000000 0 0 1
6.442562 32.912974 -34.002095 47.758904 1.377495 2.363072 0.078858 -0.038365 195608.000000 0 0 1
6.362462 32.120174 33.016400 46.500206 1.375245 0.781260 0.080391 -0.034660 -387093.000000 0 0 1
5.713162 32.840874 31.864455 46.114062 1.398555 0.807936 0.064241 -0.024807 -174789.000000 0 0 1
6.445862 33.961374 31.399555 46.699637 1.383228 0.833387 0.069602 -0.023268 -43783.800000 0 0 1
5.781762 -33.572307 30.388865 45.650977 -1.400251 0.842394 0.041356 -0.031684 -159850.000000 0 0 1
18.070375 -21.960326 29.216385 40.772436 -0.882268 0.771921 0.096386 -0.013403 -417845.000000 0 0 1
16.866075 -21.455226 28.681275 39.590488 -0.904585 0.760562 0.092016 -0.008064 1517500.000000 0 0 1
15.611075 -22.083726 29.084955 39.715629 -0.955452 0.749059 0.104162 -0.008236 1610120.000000 0 0 1
15.199775 -22.112326 30.596165 40.695374 -0.968584 0.719957 0.103211 -0.011911 -853389.000000 0 0 1
15.999275 -22.986426 31.329515 42.022507 -0.962739 0.729450 0.112053 -0.022111 241463.000000 0 0 1
15.468075 -23.112126 32.664790 42.900119 -0.980999 0.705303 0.105193 -0.017203 342193.000000 0 0 1
16.334675 -23.997026 33.608338 44.409450 -0.973144 0.712418 0.114962 -0.021315 122194.000000 0 0 1
16.178775 -25.398756 33.218210 44.836358 -1.003621 0.736422 0.125937 -0.031527 58669.500000 0 0 1
16.957975 -26.270146 34.016920 46.204376 -0.997575 0.743318 0.109853 -0.033176 -102031.000000 0 0 1
16.703475 -27.778956 33.803155 46.832999 -1.029422 0.764425 0.102959 -0.026404 3264.280000 0 0 1
17.223675 -28.306616 32.601103 46.483883 -1.024173 0.793518 0.091535 -0.030825 199475.000000 0 0 1
16.729075 -29.605186 32.325977 46.917990 -1.056455 0.810703 0.098996 -0.028805 -165877.000000 0 0 1
17.455575 -30.383026 31.198935 46.916936 -1.049325 0.843326 0.108478 -0.034622 288277.000000 0 0 1
18.684275 -30.981626 31.622455 48.051461 -1.028118 0.852510 0.094053 -0.038456 176486.000000 0 0 1
19.222675 -31.409786 30.408245 47.757170 -1.021603 0.880551 0.069054 -0.028987 -1356550.000000 0 0 1
20.538075 -32.157396 30.540865 48.873869 -1.002425 0.895804 0.047422 -0.024076 -483318.000000 0 0 1
21.591675 -31.212666 30.811275 48.885229 -0.965622 0.888885 0.039454 -0.024550 -320528.000000 0 0 1
22.717875 -31.958196 31.148845 50.076728 -0.952817 0.899473 0.039235 -0.019627 -1277670.000000 0 0 1
23.935775 -31.076196 31.375035 50.229913 -0.914474 0.896141 0.035837 -0.025154 -763181.000000 0 0 1
24.500175 -30.771966 30.158895 49.565426 -0.898386 0.916670 0.021416 -0.021923 -410829.000000 0 0 1
25.261475 -29.589176 30.125345 49.205669 -0.864135 0.911914 0.014602 -0.018469 544258.000000 0 0 1
26.538375 -29.661766 29.216295 49.373045 -0.840917 0.937573 0.030728 -0.013045 1180340.000000 0 0 1
27.641875 -30.405486 29.783675 50.750706 -0.832972 0.943618 0.040228 -0.013043 342330.000000 0 0 1
28.759875 -30.328836 28.935455 50.835315 -0.811945 0.965264 0.031831 -0.029163 -378915.000000 0 0 1
29.859775 -31.302676 29.336035 52.269175 -0.808985 0.974902 0.038790 -0.021467 -228997.000000 0 0 1
29.483875 -32.687936 29.206255 52.828074 -0.836888 0.985010 0.035540 -0.021749 -167675.000000 0 0 1
30.533375 -33.503996 29.633525 54.156722 -0.831754 0.991804 0.048442 -0.019125 -622246.000000 0 0 1
29.983575 33.337075 30.222115 54.071726 0.838309 0.977706 0.036693 -0.013109 -1344770.000000 0 0 1
29.360975 33.415448 31.456125 54.480702 0.849894 0.955279 0.035343 -0.010432 1002210.000000 0 0 1
28.027575 33.987357 31.450865 54.128018 0.881206 0.950783 0.012962 -0.006861 778439.000000 0 0 1
26.981175 33.351140 30.502165 52.637101 0.890590 0.952705 0.023671 -0.020510 -1389610.000000 0 0 1
26.708775 31.980995 30.781805 51.804076 0.874990 0.934530 0.010637 -0.010529 -471200.000000 0 0 1
25.346375 31.924385 31.127695 51.288776 0.899755 0.918629 0.012196 -0.011967 -263072.000000 0 0 1
24.723975 30.563905 30.914125 50.011103 0.890636 0.904415 0.027662 -0.012124 -249447.000000 0 0 1
24.602175 30.245315 29.554985 48.923852 0.887925 0.922158 0.026610 -0.026981 56968.700000 0 0 1
24.053875 28.947925 29.429535 47.777283 0.877474 0.907175 0.064977 -0.051793 -344850.000000 0 0 1
23.554675 28.737625 28.011905 46.533221 0.884190 0.924822 0.059990 -0.044034 -598850.000000 0 0 1
22.403475 29.487495 27.790335 46.300441 0.921077 0.927023 0.088132 -0.048869 -535948.000000 0 0 1
21.700775 29.056925 26.637915 44.997856 0.929323 0.937281 0.090955 -0.036065 -164690.000000 0 0 1
20.360075 29.773775 26.458915 44.733483 0.971008 0.937904 0.104332 -0.033404 -400662.000000 0 0 1
20.362175 31.092915 25.952775 45.331381 0.990997 0.961230 0.105475 -0.037657 -200836.000000 0 0 1
19.056275 31.567295 25.735765 44.966269 1.027682 0.961446 0.102283 -0.035666 -253239.000000 0 0 1
19.127175 32.961507 25.022705 45.589972 1.044997 0.989791 0.110870 -0.030199 94081.300000 0 0 1
19.737675 33.069834 23.742695 45.242738 1.032697 1.018334 0.110796 -0.031333 1392470.000000 0 0 1
21.149075 33.405572 23.742005 46.118309 1.006393 1.030014 0.112681 -0.031171 1263590.000000 0 0 1
21.754275 33.474555 22.287265 45.722167 0.994509 1.061630 0.111216 -0.035114 112841.000000 0 0 1
21.423775 -33.553866 21.615565 45.299809 -1.002556 1.073368 0.117127 -0.024934 228888.000000 0 0 1
22.031675 -33.583106 20.356465 45.028939 -0.990191 1.101706 0.120742 -0.030447 -26644.700000 0 0 1
21.738575 -32.415496 19.407165 43.588623 -0.980060 1.109360 0.096963 -0.020089 -176560.000000 0 0 1
21.868775 -31.126156 20.033765 42.993402 -0.958337 1.086062 0.092169 -0.004724 143682.000000 0 0 1
21.508075 -30.002496 19.226065 41.621973 -0.948834 1.090636 0.087342 -0.019356 -48900.400000 0 0 1
22.514675 -29.513916 18.137265 41.315157 -0.919122 1.116313 0.069724 -0.016772 -161128.000000 0 0 1
22.556975 -30.290176 16.940765 41.392045 -0.930698 1.149136 0.058611 -0.020672 308711.000000 0 0 1
22.968275 -29.539066 15.818565 40.624193 -0.909891 1.170829 0.053627 -0.014263 -147105.000000 0 0 1
22.553175 -30.206466 14.381565 40.347314 -0.929453 1.206337 0.052521 -0.032141 -47713.400000 0 0 1
23.322775 -31.338796 14.029165 41.507703 -0.931008 1.226017 0.093527 -0.032585 59340.500000 0 0 1
23.322375 -31.651026 12.645365 41.299224 -0.935758 1.259609 0.089308 -0.036007 -76402.300000 0 0 1
21.965275 -31.802096 11.894265 40.439092 -0.966348 1.272253 0.086998 -0.030460 213753.000000 0 0 1
21.215975 -32.908686 12.410865 41.074673 -0.998161 1.263845 0.093878 -0.041009 -537845.000000 0 0 1
19.975175 -32.906246 11.783665 40.257712 -1.025222 1.273741 0.087611 -0.039514 -595688.000000 0 0 1
18.821675 -33.636546 12.469265 40.511174 -1.060643 1.257918 0.092770 -0.033362 -225881.000000 0 0 1
18.459375 -33.035486 13.733365 40.257883 -1.061242 1.222672 0.082767 -0.024275 387485.000000 0 0 1
19.104275 -33.560476 14.907065 41.394438 -1.053295 1.202397 0.076018 -0.029283 -812426.000000 0 0 1
19.121975 -32.650246 16.120865 41.128710 -1.040987 1.168034 0.076264 -0.030704 985789.000000 0 0 1
17.824975 -32.256036 16.606265 40.422143 -1.065952 1.147442 0.079538 -0.035594 1310670.000000 0 0 1
16.772675 -33.166746 16.916065 40.835143 -1.102593 1.143675 0.081005 -0.032379 -44508.000000 0 0 1
16.894075 -33.858856 18.339965 42.049806 -1.107984 1.119482 0.083636 -0.031833 -20176.500000 0 0 1
17.708075 33.194969 18.350165 41.859413 1.080743 1.117005 0.077121 -0.026930 268836.000000 0 0 1
18.038775 32.703720 19.663365 42.208751 1.066740 1.086190 0.075473 -0.024611 515438.000000 0 0 1
18.891775 31.373705 19.548865 41.513452 1.028795 1.080481 0.080448 -0.020507 85749.100000 0 0 1
18.141775 30.286445 19.123465 40.150961 1.031108 1.074367 0.060697 -0.020082 -301627.000000 0 0 1
18.934675 29.177715 18.745765 39.512842 0.995164 1.076489 0.062934 -0.025244 38897.200000 0 0 1
18.169175 27.831885 18.632965 38.104070 0.992442 1.059851 0.071896 -0.020414 -13208.700000 0 0 1
17.759575 27.253865 19.870865 38.118591 0.993273 1.022434 0.078505 -0.028285 16934.100000 0 0 1
17.423975 25.913015 19.719765 36.931672 0.978833 1.007528 0.084608 -0.032862 -570126.000000 0 0 1
17.250175 25.237805 21.126665 37.159808 0.971227 0.966072 0.097012 -0.033073 379384.000000 0 0 1
16.022375 25.368475 21.841665 37.112456 1.007475 0.941561 0.107368 -0.031340 396168.000000 0 0 1
14.996675 24.520475 21.386065 35.826216 1.021892 0.931116 0.105848 -0.032289 130214.000000 0 0 1
13.578075 24.771925 21.978065 35.791727 1.069395 0.909609 0.100767 -0.049596 268759.000000 0 0 1
13.058075 26.002015 21.571265 36.220679 1.105394 0.932845 0.107481 -0.049936 -21394.500000 0 0 1
11.745775 26.151635 22.080065 36.185640 1.148657 0.914498 0.100738 -0.050982 19519.800000 0 0 1
10.841975 27.099925 21.295165 36.130851 1.190226 0.940493 0.094218 -0.051801 -375156.000000 0 0 1
11.275775 28.386435 21.511965 37.359034 1.192685 0.957193 0.094438 -0.050365 -33191.200000 0 0 1
10.627275 29.271475 20.630965 37.354986 1.222535 0.985682 0.092472 -0.050323 63126.900000 0 0 1
11.264775 30.697075 20.648465 38.672531 1.219088 1.007553 0.085342 -0.046876 -8279.400000 0 0 1
10.751375 31.597605 21.606765 39.759942 1.242826 0.996278 0.093771 -0.043261 -3561.680000 0 0 1
11.570075 31.607305 22.778765 40.641857 1.219889 0.975836 0.074626 -0.043737 197020.000000 0 0 1
11.016575 32.586070 23.864705 41.865750 1.244783 0.964255 0.061341 -0.040036 -8532.610000 0 0 1
9.649975 32.380946 24.107255 41.506716 1.281163 0.951081 0.074196 -0.044194 -355180.000000 0 0 1
9.150175 33.108178 25.187125 42.594230 1.301155 0.938093 0.065885 -0.029810 -306552.000000 0 0 1
7.800875 32.604511 25.761025 42.279288 1.335953 0.915611 0.115548 -0.048251 -336909.000000 0 0 1
6.657675 33.344360 25.405875 42.445606 1.373724 0.929105 0.101446 -0.049556 138631.000000 0 0 1
5.961575 32.902575 24.235255 41.297305 1.391552 0.943635 0.096757 -0.049857 -219861.000000 0 0 1
5.045475 31.709245 24.364525 40.305870 1.413002 0.921670 0.082289 -0.053308 -1034560.000000 0 0 1
5.793675 30.604395 24.730415 39.771712 1.383702 0.899746 0.071465 -0.037539 -684109.000000 0 0 1
5.127975 29.364595 24.608035 38.653990 1.397908 0.880685 0.052598 -0.032497 -493238.000000 0 0 1
6.056675 28.160115 25.006835 38.144688 1.358944 0.855848 0.053654 -0.030442 530994.000000 0 0 1
7.170475 27.884785 24.195675 37.608611 1.319103 0.871924 0.062959 -0.036907 -224302.000000 0 0 1
8.213475 28.797555 24.233965 38.523310 1.292959 0.890437 0.085266 -0.041467 -1334410.000000 0 0 1
9.561475 28.481435 24.854115 38.991550 1.246909 0.879647 0.089529 -0.046073 -1063010.000000 0 0 1
9.377375 28.233805 26.231535 39.663287 1.250127 0.848172 0.083741 -0.041405 925020.000000 0 0 1
10.589275 27.946705 26.960875 40.249719 1.208602 0.836803 0.082895 -0.028898 408720.000000 0 0 1
11.660675 29.022665 27.022795 41.334222 1.188758 0.858249 0.078938 -0.034330 -1175300.000000 0 0 1
11.140275 30.145785 27.687115 42.419930 1.216815 0.859665 0.078980 -0.038345 272782.000000 0 0 1
12.102775 31.169955 27.853535 43.518533 1.200431 0.876248 0.073361 -0.027368 62996.800000 0 0 1
11.587775 32.298507 28.793255 44.794214 1.226329 0.872662 0.060046 -0.030255 33075.900000 0 0 1
11.454975 31.787705 30.069435 45.231024 1.224923 0.843575 0.069951 -0.044092 51465.000000 0 0 1
10.130975 31.833665 30.564945 45.279518 1.262684 0.829794 0.091206 -0.041940 -57272.100000 0 0 1
10.073175 31.769495 32.125585 46.290635 1.263753 0.803770 0.123479 -0.044384 -241557.000000 0 0 1
10.281175 30.492145 32.620613 45.821151 1.245593 0.778580 0.100782 -0.045915 168963.000000 0 0 1
10.706575 30.634085 33.947854 46.963121 1.234568 0.762861 0.127180 -0.048037 -103891.000000 0 0 1
10.914675 29.304755 -33.484940 45.816373 1.214260 2.390364 0.103502 -0.040195 51938.200000 0 0 1
12.061275 28.564375 -33.882080 45.928131 1.171258 2.400483 0.117141 -0.036165 131252.000000 0 0 1
12.027075 27.174965 -33.523310 44.798902 1.154131 2.416302 0.117534 -0.032599 -106112.000000 0 0 1
13.319175 26.409145 -33.880790 44.975008 1.103683 2.423900 0.125885 -0.028369 38844.800000 0 0 1
13.190275 25.050325 -33.541090 43.891991 1.086134 2.440555 0.089951 -0.024741 -125381.000000 0 0 1
13.472575 24.752845 -32.185000 42.779526 1.072352 2.422412 0.084350 -0.020643 -376280.000000 0 0 1
13.483475 23.229255 -31.934700 41.728018 1.044874 2.442313 0.072271 -0.034976 202032.000000 0 0 1
14.611175 22.616555 -32.550440 42.243652 0.997211 2.450485 0.052620 -0.020983 141758.000000 0 0 1
14.503675 21.216355 -32.537770 41.463198 0.971156 2.473071 0.051785 -0.020442 -179981.000000 0 0 1
15.631275 20.447155 -33.231750 42.032989 0.918097 2.482603 0.056964 -0.024011 -466045.000000 0 0 1
16.856575 20.490255 -32.566520 42.006820 0.882388 2.457935 0.073617 -0.033400 -635668.000000 0 0 1
17.861575 19.793055 -33.286210 42.647071 0.836648 2.466268 0.082315 -0.030387 586707.000000 0 0 1
19.158675 19.886455 -32.376690 42.553214 0.804035 2.435421 0.069646 -0.028775 248934.000000 0 0 1
19.699175 21.188555 -32.444740 43.470375 0.821808 2.413379 0.066197 -0.019323 -699172.000000 0 0 1
20.719875 21.374555 -31.523170 43.357757 0.800950 2.384809 0.054802 -0.014978 -438690.000000 0 0 1
20.352175 21.725555 -30.084870 42.323873 0.818026 2.361467 0.054057 -0.017918 -66342.100000 0 0 1
19.776975 23.032855 -29.916880 42.622305 0.861307 2.348867 0.050264 -0.010790 244578.000000 0 0 1
19.469575 23.458545 -28.599650 41.800810 0.878054 2.324287 0.053019 -0.000322 -152162.000000 0 0 1
20.731675 23.892815 -27.803760 42.115532 0.856119 2.291852 0.040856 0.001523 240185.000000 0 0 1
21.387475 25.068605 -28.261530 43.411671 0.864472 2.279714 0.047457 0.000124 -372656.000000 0 0 1
20.685875 26.265315 -28.166520 43.716416 0.903678 2.270905 0.038311 0.000982 -830203.000000 0 0 1
21.470175 27.429355 -28.803500 45.199331 0.906666 2.261727 0.037568 -0.004212 -368527.000000 0 0 1
21.636575 27.510425 -30.219240 46.240322 0.904350 2.283030 0.045452 -0.007342 117952.000000 0 0 1
22.213075 26.403295 -30.904340 46.320977 0.871375 2.301210 0.053907 -0.014365 -386256.000000 0 0 1
23.593075 25.853055 -30.529850 46.444433 0.831072 2.288082 0.086141 -0.027928 -99241.600000 0 0 1
24.629075 26.818585 -30.809190 47.697317 0.827931 2.273039 0.083351 -0.029510 1094280.000000 0 0 1
25.919675 26.298085 -30.427180 47.845921 0.792645 2.260023 0.096043 -0.036083 330580.000000 0 0 1
27.134875 27.123795 -30.827950 49.217519 0.785194 2.247673 0.068769 -0.023154 -610366.000000 0 0 1
27.238675 28.369405 -30.104410 49.528215 0.805729 2.224113 0.056227 -0.018640 121570.000000 0 0 1
28.215775 29.271005 -30.597750 50.883632 0.803752 2.215958 0.049881 -0.019877 151294.000000 0 0 1
28.302875 30.524935 -29.749550 51.165028 0.823152 2.191298 0.043761 -0.006411 -53532.100000 0 0 1
28.879675 30.324535 -28.462510 50.633265 0.809798 2.167756 0.061713 -0.012719 10630.000000 0 0 1
28.301075 31.045875 -27.447330 50.181203 0.831615 2.149530 0.041785 -0.000826 -546416.000000 0 0 1
28.931875 30.727615 -26.047950 49.595720 0.815489 2.123753 0.060648 -0.005455 -313084.000000 0 0 1
28.767675 29.418455 -25.411070 48.360595 0.796582 2.124040 0.054807 0.004984 -106978.000000 0 0 1
27.460775 28.911165 -25.306080 47.226553 0.811121 2.136304 0.057315 0.001495 347719.000000 0 0 1
26.585475 29.490385 -24.073900 46.432994 0.837155 2.115852 0.056320 0.013767 401784.000000 0 0 1
26.343275 30.851525 -24.152800 47.213796 0.864058 2.107798 0.067452 0.015088 79617.400000 0 0 1
26.110575 31.428915 -22.880900 46.830273 0.877566 2.081272 0.053761 0.036022 8186.270000 0 0 1
2.943775 -26.440646 -19.510300 32.991292 -1.459918 2.203562 0.083530 -0.011652 -341878.000000 0 0 1
2.841175 -27.531236 -18.633700 33.365491 -1.467962 2.163339 0.066967 -0.011174 112063.000000 0 0 1
3.019175 -27.098406 -17.292000 32.287030 -1.459839 2.135980 0.079787 -0.014530 -26190.600000 0 0 1
2.949575 -28.219296 -16.178100 32.661285 -1.466651 2.089010 0.060513 -0.008262 -89450.000000 0 0 1
4.186375 -28.833766 -15.914900 33.199335 -1.426614 2.070738 0.065639 -0.003054 -163253.000000 0 0 1
4.054075 -29.682226 -14.779100 33.404967 -1.435054 2.029094 0.063480 -0.004769 775667.000000 0 0 1
5.436975 -30.351286 -14.437000 34.046853 -1.393541 2.008691 0.086210 -0.001189 1214450.000000 0 0 1
6.349675 -29.390176 -13.837600 33.099547 -1.358019 2.002105 0.066818 0.006264 -60978.500000 0 0 1
7.631475 -29.936546 -13.644900 33.773059 -1.321191 1.986701 0.067029 0.004883 -51477.500000 0 0 1
7.901475 -30.622896 -12.240900 33.912161 -1.318279 1.940092 0.051358 -0.001394 -679672.000000 0 0 1
8.367875 -29.720286 -11.272500 32.869225 -1.296347 1.920852 0.049670 -0.009674 -199314.000000 0 0 1
8.581075 -30.254386 -9.966200 32.989208 -1.294424 1.877696 0.050549 -0.004991 508421.000000 0 0 1
9.717375 -31.308186 -9.740800 34.198144 -1.269846 1.859630 0.050156 -0.007806 956701.000000 0 0 1
11.072075 -30.860256 -9.798300 34.219189 -1.226320 1.861200 0.047324 -0.011705 913695.000000 0 0 1
11.982775 -31.900726 -9.413100 35.353213 -1.211476 1.840306 0.045877 -0.017504 818682.000000 0 0 1
13.238875 -31.402106 -8.632500 35.155087 -1.171816 1.818888 0.048432 -0.020937 131789.000000 0 0 1
14.219675 -30.688326 -9.347600 35.090599 -1.136890 1.840437 0.053406 -0.031621 -414687.000000 0 0 1
15.279575 -30.473896 -8.499300 35.133486 -1.106030 1.815135 0.052709 -0.026852 -1072890.000000 0 0 1
16.545875 -29.839076 -9.110700 35.314888 -1.064502 1.831732 0.066596 -0.037319 -120819.000000 0 0 1
16.502675 -28.470776 -9.452900 34.238585 -1.045485 1.850519 0.057381 -0.033550 -106476.000000 0 0 1
15.732075 -28.156166 -10.567400 33.940209 -1.061265 1.887413 0.047489 -0.029015 -341399.000000 0 0 1
15.408275 -26.623086 -10.686500 32.563859 -1.046144 1.905163 0.046346 -0.022764 -358767.000000 0 0 1
14.381675 -26.152586 -9.798300 31.413325 -1.068019 1.888005 0.031330 -0.026347 487175.000000 0 0 1
14.006975 -24.810826 -9.929500 30.172295 -1.056850 1.906140 0.018256 -0.017581 39666.900000 0 0 1
13.419075 -24.385926 -11.301800 30.041232 -1.067739 1.956498 0.015120 -0.012292 -258530.000000 0 0 1
14.366775 -23.964026 -12.256700 30.510743 -1.030734 1.984188 0.017170 -0.004603 -195527.000000 0 0 1
13.715375 -24.101426 -13.470500 30.829282 -1.053431 2.022989 0.034997 -0.009424 45126.400000 0 0 1
14.381475 -23.435326 -14.699500 31.178785 -1.020388 2.061740 0.034342 -0.009413 123974.000000 0 0 1
15.562475 -24.067826 -15.168600 32.427416 -0.996809 2.057563 0.030560 -0.005398 285626.000000 0 0 1
15.964175 -23.480526 -16.412700 32.795834 -0.973695 2.094916 0.035370 -0.016750 -408853.000000 0 0 1
16.977075 -24.305026 -17.248400 34.299602 -0.961077 2.097718 0.039615 -0.013322 435223.000000 0 0 1
18.325875 -24.331526 -16.837500 34.804630 -0.925267 2.075756 0.056631 -0.014306 474375.000000 0 0 1
19.142375 -23.179426 -17.193800 34.631533 -0.880500 2.090333 0.065757 -0.018043 -387736.000000 0 0 1
20.594975 -23.444926 -16.803400 35.442514 -0.850021 2.064741 0.053918 -0.014932 -377248.000000 0 0 1
21.271375 -24.409926 -17.627700 36.865318 -0.853996 2.069360 0.079386 -0.016805 591905.000000 0 0 1
22.492575 -24.782426 -16.980900 37.529129 -0.833797 2.040332 0.093212 -0.006909 420898.000000 0 0 1
23.318775 -25.897486 -17.626400 39.052977 -0.837746 2.039069 0.098348 -0.013756 -334813.000000 0 0 1
23.883975 -25.464076 -18.837300 39.669980 -0.817407 2.065590 0.098584 -0.016364 -292233.000000 0 0 1
24.600475 -26.542236 -19.377000 41.050479 -0.823347 2.062387 0.088044 -0.026554 845266.000000 0 0 1
25.837675 -26.050986 -20.260600 41.913378 -0.789509 2.075322 0.065760 -0.027503 923458.000000 0 0 1
25.355275 -25.184426 -21.294800 41.600647 -0.782018 2.108175 0.068741 -0.030650 246857.000000 0 0 1
25.769375 -23.882726 -20.878600 40.870053 -0.747419 2.106973 0.081198 -0.032042 -10579.400000 0 0 1
24.689575 -22.745626 -20.997900 39.596091 -0.744440 2.129753 0.093334 -0.030861 -72166.800000 0 0 1
24.361275 -22.178126 -22.261400 39.760671 -0.738523 2.165043 0.080669 -0.027576 107027.000000 0 0 1
23.841275 -23.049226 -23.245400 40.497183 -0.768508 2.182179 0.047305 -0.029121 -742963.000000 0 0 1
23.094975 -22.307926 -24.351300 40.298973 -0.768065 2.219641 0.027989 -0.023354 -613177.000000 0 0 1
23.914475 -21.533126 -25.167810 40.853351 -0.733048 2.234518 0.030235 -0.012561 -444733.000000 0 0 1
23.189975 -20.753926 -26.053170 40.586550 -0.730019 2.267791 0.032749 -0.007624 -791813.000000 0 0 1
23.977275 -20.228926 -27.220920 41.534295 -0.700808 2.285487 0.037196 -0.008004 -190671.000000 0 0 1
23.325575 -19.070226 -27.783910 40.984163 -0.685361 2.315723 0.046256 -0.007389 181340.000000 0 0 1
23.937575 -18.706526 -28.985990 41.989632 -0.663340 2.332718 0.069321 -0.007276 -396774.000000 0 0 1
23.136075 -17.744426 -29.877980 41.747291 -0.654267 2.368403 0.095956 -0.015440 -1046910.000000 0 0 1
21.914075 -18.290126 -30.234330 41.579684 -0.695503 2.384946 0.081607 -0.016676 -715494.000000 0 0 1
21.093675 -17.298626 -30.771680 41.122766 -0.686869 2.416274 0.088444 -0.020140 -155745.000000 0 0 1
19.742075 -17.826226 -31.299710 41.075488 -0.734446 2.437199 0.070184 -0.015188 -208020.000000 0 0 1
19.849975 -18.430526 -32.565260 42.358021 -0.748335 2.447774 0.073536 -0.010960 22822.800000 0 0 1
18.694175 -19.085826 -33.020480 42.474616 -0.795764 2.461345 0.077648 -0.019407 -383016.000000 0 0 1
18.890275 -19.935626 33.842875 43.584537 -0.812316 0.681723 0.100789 -0.012478 -25244.300000 0 0 1
19.696275 -21.075826 34.074648 44.645440 -0.819221 0.702502 0.092295 -0.011651 223839.000000 0 0 1
19.896475 -21.854026 32.916010 44.237223 -0.832251 0.731640 0.087792 -0.017600 101583.000000 0 0 1
20.576575 -23.214926 33.270128 45.488786 -0.845573 0.750436 0.075522 -0.010777 -165867.000000 0 0 1
19.855275 -23.972626 -33.975390 46.078692 -0.879067 2.399912 0.082882 -0.015443 -67428.800000 0 0 1
19.800875 -23.566326 -32.620080 44.849927 -0.872008 2.385200 0.088973 -0.011625 -47504.200000 0 0 1
18.897975 -24.500226 -31.710000 44.304838 -0.913778 2.368455 0.091131 -0.016593 -296898.000000 0 0 1
19.277275 -25.833996 -31.498560 45.068481 -0.929733 2.344661 0.082409 -0.027096 386432.000000 0 0 1
20.611875 -26.002016 -31.015290 45.419186 -0.900521 2.322477 0.074541 -0.030835 489442.000000 0 0 1
21.027775 -27.486066 -31.059210 46.500814 -0.917743 2.302218 0.059604 -0.029871 126588.000000 0 0 1
20.047475 -28.261986 -30.383330 46.084573 -0.953827 2.290677 0.055884 -0.029019 368808.000000 0 0 1
20.363875 -29.642246 -30.510730 47.162006 -0.968857 2.274354 0.055318 -0.028202 71198.100000 0 0 1
19.221475 -30.573106 -29.990840 46.942842 -1.009537 2.263838 0.081363 -0.032611 922186.000000 0 0 1
17.998275 -30.455286 -30.740260 46.866042 -1.037040 2.286194 0.094352 -0.036721 591886.000000 0 0 1
17.955475 -31.316536 -31.938240 48.199333 -1.050200 2.295119 0.105316 -0.039655 377540.000000 0 0 1
16.467075 -31.790526 -32.091340 48.079686 -1.092863 2.301591 0.131977 -0.042015 1231660.000000 0 0 1
15.490075 -30.849576 -32.531650 47.433606 -1.105457 2.326547 0.137721 -0.037191 782931.000000 0 0 1
14.259175 -31.468616 -32.916260 47.718739 -1.145348 2.332005 0.105103 -0.027804 581638.000000 0 0 1
13.223075 -30.605346 -33.636530 47.359825 -1.162968 2.360626 0.106723 -0.022206 172179.000000 0 0 1
12.493975 -29.617616 -32.897680 45.995216 -1.171603 2.367766 0.119618 -0.027335 417985.000000 0 0 1
11.658875 -28.946796 -33.852910 46.042001 -1.187905 2.396849 0.106553 -0.020140 -264723.000000 0 0 1
10.542775 -28.074056 -33.337360 44.840632 -1.211557 2.409030 0.105929 -0.026926 146352.000000 0 0 1
9.552075 -28.790206 -32.577810 44.513277 -1.250443 2.391854 0.099628 -0.022536 274140.000000 0 0 1
8.503875 -27.933716 -32.190570 43.460800 -1.275280 2.404879 0.070607 -0.025113 185576.000000 0 0 1
7.533375 -28.521516 -31.088080 42.856707 -1.312564 2.382406 0.055217 -0.025369 525872.000000 0 0 1
6.344075 -29.128746 -31.532720 43.394050 -1.356351 2.384244 0.048052 -0.025133 -18333.300000 0 0 1
6.604075 -30.396596 -32.054370 44.665977 -1.356858 2.371213 0.057550 -0.025850 -1225870.000000 0 0 1
5.325575 -31.019206 -32.522670 45.257894 -1.400768 2.372594 0.072802 -0.029753 -715087.000000 0 0 1
4.590175 -31.416376 -31.363050 44.628458 -1.425715 2.350065 0.077443 -0.038280 223043.000000 0 0 1
3.561375 -32.344886 -31.769360 45.477107 -1.461132 2.344206 0.089707 -0.054623 -174040.000000 0 0 1
2.701475 -32.656326 -30.498250 44.764683 -1.488260 2.320336 0.075447 -0.055506 661398.000000 0 0 1
1.634175 -31.809926 -30.033030 43.778131 -1.519468 2.326812 0.068849 -0.048073 816661.000000 0 0 1
0.495975 -31.873126 -30.900590 44.395817 -1.555237 2.340643 0.062707 -0.015314 -165933.000000 0 0 1
-0.532225 -30.780246 -30.542530 43.365342 1.553507 2.352243 0.040481 -0.003674 -234267.000000 0 0 1
-1.209425 -30.987516 -29.337340 42.689207 1.531787 2.328467 0.035875 -0.009708 -408146.000000 0 0 1
-1.844425 -29.829916 -28.938630 41.601323 1.509044 2.340076 0.053848 -0.003118 144967.000000 0 0 1
-2.642125 -29.974306 -27.580530 40.818200 1.482877 2.312699 0.057029 -0.006476 55042.400000 0 0 1
-1.787825 -30.265946 -26.503910 40.270101 1.511794 2.289160 0.046640 -0.009052 -143611.000000 0 0 1
-2.445525 -30.568436 -25.247190 39.721914 1.490965 2.259580 0.063874 -0.024325 89474.000000 0 0 1
-1.458825 -30.985396 -24.162300 39.319711 1.523750 2.232559 0.046719 -0.012327 -29404.400000 0 0 1
-1.862625 -30.637756 -22.838200 38.258657 1.510076 2.210480 0.068568 -0.027729 -659081.000000 0 0 1
-1.009625 -31.182686 -21.931500 38.136202 1.538430 2.183503 0.066840 -0.022382 -404391.000000 0 0 1
-1.556725 -30.884036 -20.522500 37.113610 1.520433 2.156714 0.033994 -0.009641 79081.900000 0 0 1
-1.641625 -29.555406 -20.083800 35.771161 1.515309 2.166936 0.021740 -0.008468 -372110.000000 0 0 1
-0.400825 -28.969366 -19.808100 35.096234 1.556961 2.170495 0.051351 -0.018696 -462359.000000 0 0 1
-0.419225 -27.524796 -19.367800 33.658607 1.555567 2.183913 0.050846 -0.027963 -441197.000000 0 0 1
-1.121825 -27.477186 -18.137700 32.942835 1.529991 2.153856 0.047974 -0.028836 9354.540000 0 0 1
-1.176525 -26.223836 -17.452300 31.522318 1.525962 2.157536 0.047156 -0.022358 23493.300000 0 0 1
-1.946725 -26.357056 -16.128600 30.961522 1.497070 2.118729 0.040276 -0.016205 -137377.000000 0 0 1
-2.053725 -25.106216 -15.503200 29.578524 1.489177 2.122498 0.041594 -0.012306 88096.900000 0 0 1
-2.711925 -25.247916 -14.254400 29.120435 1.463795 2.082311 0.035159 -0.004479 -18478.100000 0 0 1
-2.697125 -23.964326 -13.353500 27.565909 1.458720 2.076497 0.042776 0.000344 -239780.000000 0 0 1
-1.394825 -23.795326 -12.866900 27.087270 1.512246 2.065779 0.040411 0.001223 -427374.000000 0 0 1
-1.281825 -22.680226 -11.975800 25.679866 1.514339 2.055956 0.038005 0.002901 485553.000000 0 0 1
-0.040525 -22.830626 -11.044100 25.361610 1.569021 2.021351 0.039515 0.000625 492619.000000 0 0 1
0.286975 -21.640726 -10.326900 23.980163 -1.557536 2.016002 0.028153 0.005212 85821.600000 0 1 0
1.657575 -21.516526 -9.980400 23.776392 -1.493911 2.003978 0.028795 0.002284 500621.000000 0 1 0
2.011475 -20.017726 -9.653500 22.314691 -1.470648 2.018179 0.027652 -0.000825 -983091.000000 0 1 0
2.432075 -19.202426 -10.758200 22.144684 -1.444813 2.078091 0.026330 0.002729 279247.000000 0 1 0
3.251975 -18.094626 -10.332900 21.089325 -1.392974 2.082839 0.023371 0.000868 1117020.000000 0 1 0
4.637875 -18.391626 -9.641200 21.277089 -1.323773 2.041065 0.043579 -0.019321 -10320.400000 0 1 0
4.602075 -19.017826 -8.382200 21.286570 -1.333373 1.975535 0.039411 -0.016349 -451049.000000 0 1 0
5.756975 -19.794026 -8.175200 22.176116 -1.287760 1.948351 0.055443 -0.016232 -137171.000000 0 1 0
5.537975 -20.849926 -7.083900 22.706171 -1.311180 1.888074 0.052341 -0.021374 -464917.000000 0 1 0
4.840375 -21.916126 -7.613100 23.700318 -1.353427 1.897818 0.057841 -0.020996 -362391.000000 0 1 0
4.726775 -22.988826 -6.664600 24.397652 -1.368011 1.847479 0.071000 -0.021973 303475.000000 0 1 0
3.671975 -24.087126 -7.029900 25.359269 -1.419515 1.851688 0.069844 -0.016265 288177.000000 0 0 1
3.960775 -24.631826 -8.271800 26.283783 -1.411362 1.890949 0.069077 -0.017869 734861.000000 0 0 1
2.824875 -25.245086 -8.944900 26.931497 -1.459362 1.909363 0.051815 -0.012521 869001.000000 0 0 1
3.228675 -26.011386 -10.171700 28.115476 -1.447303 1.940976 0.046330 -0.011289 -115021.000000 0 0 1
3.746675 -27.287246 -9.938800 29.281583 -1.434345 1.917098 0.046804 -0.016742 -13223.700000 0 0 1
4.318075 -27.899266 -11.099300 30.334951 -1.417241 1.945387 0.056360 -0.013827 173954.000000 0 0 1
4.542275 -29.430566 -11.010700 31.749425 -1.417666 1.924954 0.059702 -0.009664 288137.000000 0 0 1
3.376075 -30.224076 -11.204800 32.410495 -1.459556 1.923797 0.072135 -0.009686 514895.000000 0 0 1
3.756075 -31.588436 -11.317600 33.764263 -1.452445 1.912608 0.067376 -0.009794 416714.000000 0 0 1
2.551875 -32.469996 -11.789000 34.638031 -1.492366 1.918084 0.066912 -0.023045 214966.000000 0 0 1
2.019275 -32.023276 -13.018300 34.627212 -1.507823 1.956224 0.063130 -0.021317 494241.000000 0 0 1
1.158875 -33.061646 -13.505700 35.732609 -1.535759 1.958394 0.062990 -0.016569 -87997.000000 0 0 1
0.639875 -32.760826 -14.916200 36.002419 -1.551267 1.997982 0.066290 -0.020122 -234037.000000 0 0 1
-0.384725 -31.812876 -15.054800 35.197359 1.558704 2.012771 0.059048 -0.020076 -53352.800000 0 0 1
-0.863425 -31.762506 -16.365500 35.741179 1.543619 2.046416 0.037727 -0.014144 -577566.000000 0 0 1
-1.868825 -30.614536 -16.547300 34.850473 1.509828 2.065543 0.042802 -0.006893 -58108.400000 0 0 1
-3.081525 -30.889586 -15.859400 34.859473 1.471366 2.043115 0.047892 -0.014191 -533006.000000 0 0 1
-4.095325 -30.993226 -16.817000 35.498778 1.439421 2.064323 0.048226 -0.008808 -614289.000000 0 0 1
-5.512225 -30.924826 -16.222400 35.353864 1.394403 2.047506 0.049802 -0.008488 -438137.000000 0 0 1
-5.941725 -29.712696 -15.628700 34.094056 1.373427 2.046990 0.041987 0.001374 28372.800000 0 0 1
-7.310925 -29.728956 -15.263600 34.208740 1.329662 2.033300 0.058965 -0.005943 297626.000000 0 0 1
-7.728825 -30.588316 -14.030100 34.528590 1.323304 1.989233 0.053777 -0.010688 -453806.000000 0 0 1
-8.176925 -31.828536 -14.498500 35.918300 1.319329 1.986302 0.058452 -0.010606 -208045.000000 0 0 1
-8.537925 -32.648106 -13.396900 36.308014 1.315011 1.948707 0.080823 -0.006445 168627.000000 0 0 1
-9.119725 -33.988476 -13.864600 37.823445 1.308653 1.946106 0.101509 -0.018814 410033.000000 0 0 1
-8.134625 33.244250 -14.178100 37.045523 -1.330819 1.963536 0.086261 -0.017012 585416.000000 0 0 1
-8.771725 32.227021 -14.929700 36.584423 -1.305049 1.991156 0.105545 -0.024287 -25543.200000 0 0 1
-7.810025 -22.038826 -3.386200 23.625678 1.230229 1.714619 0.087582 -0.020366 139831.000000 0 1 0
-7.494825 -20.898626 -4.133500 22.583418 1.226456 1.754867 0.059383 -0.022769 -84926.200000 0 1 0
-6.290525 -21.109426 -4.839500 22.552147 1.281179 1.787070 0.048659 -0.012932 176102.000000 0 1 0
-6.133025 -20.010426 -5.892400 21.742850 1.273395 1.845232 0.044942 -0.015214 -9080.450000 0 1 0
-6.963225 -20.296826 -6.984800 22.566237 1.240309 1.885489 0.048468 -0.016664 -521658.000000 0 1 0
-6.904625 -19.319826 -8.015400 22.026714 1.227557 1.943242 0.031712 -0.011818 -359245.000000 0 1 0
-7.822125 -19.311726 -9.260000 22.800789 1.185948 1.989007 0.038968 -0.018236 331337.000000 0 1 0
-7.261825 -19.970226 -10.429700 23.671136 1.222029 2.027073 0.044205 -0.008517 -75216.400000 0 1 0
-8.237225 -20.153426 -11.431400 24.590432 1.182790 2.054286 0.069375 -0.013511 97517.700000 0 1 0
-7.756325 -21.109826 -12.536800 25.747945 1.218681 2.079339 0.056259 0.000103 127308.000000 0 0 1
-6.693525 -20.635026 -13.346400 25.470256 1.257128 2.122336 0.049581 0.004908 -54350.900000 0 0 1
-6.448725 -21.480926 -14.459700 26.685186 1.279150 2.143448 0.038952 0.008345 -365555.000000 0 0 1
-5.237925 -21.017126 -15.236000 26.481902 1.326550 2.183812 0.045462 0.005434 178611.000000 0 0 1
-3.954225 -21.018326 -14.576400 25.881989 1.384838 2.169034 0.042434 0.000672 1113050.000000 0 0 1
-2.933825 -20.269226 -15.246700 25.532542 1.427052 2.210737 0.044537 0.003116 223498.000000 0 0 1
-3.021125 -18.697226 -15.184500 24.275141 1.410599 2.246590 0.045238 0.001522 -310766.000000 0 1 0
-4.082525 -18.156326 -15.987500 24.534044 1.349621 2.280548 0.047912 -0.000715 -25824.800000 0 1 0
-3.958625 -18.379126 -17.377500 25.601572 1.358650 2.316879 0.078312 -0.011641 -672319.000000 0 0 1
-5.191225 -18.010026 -18.231200 26.147399 1.290162 2.342346 0.074957 -0.010153 -509465.000000 0 0 1
-6.179225 -18.940326 -17.943700 26.812220 1.255437 2.303976 0.058576 -0.002301 -509963.000000 0 0 1
-7.282225 -18.820126 -18.840500 27.607832 1.201601 2.321883 0.065068 -0.012246 678361.000000 0 0 1
-8.559825 -19.552226 -18.313400 28.123669 1.158140 2.279927 0.086324 -0.019697 202548.000000 0 0 1
-8.323225 -20.945826 -18.204100 28.972279 1.192560 2.250199 0.074634 -0.018016 119586.000000 0 0 1
-9.444025 -21.730026 -17.877600 29.681513 1.160817 2.217193 0.081537 -0.021925 -126526.000000 0 0 1
-9.085825 -23.208026 -18.149000 30.831005 1.197643 2.200197 0.077722 -0.028384 -600643.000000 0 0 1
-9.189425 -23.530126 -19.534700 31.933006 1.198473 2.229055 0.055657 -0.031923 16214.500000 0 0 1
-8.412825 -24.646826 -19.863900 32.753872 1.241862 2.222397 0.073657 -0.042963 134705.000000 0 0 1
-6.867725 -24.439926 -19.895700 32.253907 1.296857 2.235526 0.093270 -0.038334 -552244.000000 0 0 1
-6.344025 -23.497726 -20.816100 32.026548 1.307099 2.278333 0.087110 -0.037165 48702.300000 0 0 1
-6.064825 -22.158726 -20.331600 30.678416 1.303640 2.295259 0.071945 -0.031931 -604694.000000 0 0 1
-5.121525 -22.082726 -19.156100 29.678830 1.342901 2.272404 0.084607 -0.016621 -481285.000000 0 0 1
-3.816525 -22.560126 -19.416600 30.008824 1.403212 2.274479 0.067614 -0.027657 346563.000000 0 0 1
-2.853025 -22.222526 -18.441100 29.018177 1.443110 2.259454 0.028244 -0.014824 486974.000000 0 0 1
-1.446525 -22.869326 -18.519700 29.463160 1.507629 2.250511 0.046761 -0.019174 198878.000000 0 0 1
-0.640825 -22.309626 -19.509300 29.643597 1.542080 2.289127 0.061986 -0.015510 1043640.000000 0 0 1
0.625575 -23.025526 -19.721400 30.323255 -1.543634 2.278871 0.056123 -0.022047 1757310.000000 0 0 1
1.578075 -22.373026 -20.763200 30.563918 -1.500378 2.317655 0.074294 -0.028918 292465.000000 0 0 1
1.113875 -22.491226 -22.082400 31.539314 -1.521312 2.346411 0.064895 -0.034293 -237755.000000 0 0 1
0.341875 -21.434126 -22.575000 31.131483 -1.554848 2.382049 0.085601 -0.024541 -383132.000000 0 0 1
-0.145425 -21.606326 -24.002900 32.295412 1.564066 2.408681 0.094198 -0.025239 -83702.000000 0 0 1
-0.492325 -20.378426 -24.635300 31.975313 1.546642 2.450339 0.106942 -0.027646 -523337.000000 0 0 1
-1.874925 -20.170726 -24.660200 31.913931 1.478110 2.453895 0.091021 -0.024081 -300016.000000 0 0 1
-2.319525 -18.922026 -25.509120 31.845541 1.448822 2.499804 0.076375 -0.015095 291272.000000 0 0 1
-1.688225 -17.781626 -24.888700 30.634681 1.476138 2.519113 0.092937 -0.012019 514674.000000 0 0 1
-2.159725 -16.538726 -25.438670 30.419069 1.440945 2.561248 0.067946 -0.006085 222355.000000 0 0 1
-1.401525 -15.241826 -24.930300 29.254015 1.479102 2.590974 0.074911 -0.003721 751313.000000 0 0 1
-0.091825 -15.054926 -25.483650 29.598575 1.564697 2.607981 0.080161 -0.008183 142351.000000 0 0 1
0.576175 -13.942226 -25.006500 28.636387 -1.529494 2.632613 0.068741 -0.009731 -136810.000000 0 0 1
0.118375 -12.568726 -25.536540 28.462286 -1.561378 2.684198 0.070325 -0.008538 -787495.000000 0 0 1
0.875875 -11.485126 -25.191910 27.700318 -1.494682 2.712743 0.061212 -0.009427 -517816.000000 0 0 1
0.637575 -10.412326 -26.001130 28.015742 -1.509640 2.760046 0.053409 -0.013236 -89033.800000 0 0 1
1.644075 -9.192426 -25.791050 27.429581 -1.393816 2.794201 0.057436 -0.021279 1016710.000000 0 0 1
2.977575 -9.375926 -26.244700 28.027811 -1.263293 2.782969 0.061354 -0.012040 -631.777000 0 0 1
3.173075 -9.490226 -27.586180 29.345019 -1.248129 2.793613 0.065352 -0.012376 293861.000000 0 0 1
4.614975 -9.174026 -28.152540 29.967086 -1.104713 2.791814 0.072166 -0.002938 284395.000000 0 0 1
4.828775 -7.767026 -28.195210 29.641417 -1.014572 2.827930 0.080907 -0.008839 338376.000000 0 0 1
6.126675 -7.372926 -28.629210 30.191519 -0.877455 2.818485 0.100198 -0.009763 -267845.000000 0 0 1
7.259175 -7.469126 -27.598690 29.498664 -0.799652 2.780726 0.107898 -0.013144 -442892.000000 0 0 1
7.733475 -8.750526 -27.219560 29.618960 -0.847019 2.736310 0.073030 -0.010436 142958.000000 0 0 1
8.347175 -9.584826 -28.166970 30.901819 -0.854308 2.717710 0.069021 -0.015545 -715659.000000 0 0 1
8.853875 -10.861926 -27.611650 30.964104 -0.886898 2.671952 0.077459 -0.012960 -254944.000000 0 0 1
7.789475 -11.707926 -27.173230 30.596338 -0.983729 2.664036 0.081692 -0.015056 144614.000000 0 0 1
8.009475 -12.941526 -26.480650 30.542750 -1.016598 2.619952 0.083427 -0.009022 -633337.000000 0 0 1
8.870075 -14.001426 -27.171820 31.828069 -1.006099 2.593858 0.084092 -0.024497 -170176.000000 0 0 1
8.310175 -14.464326 -28.384810 32.923748 -1.049316 2.610270 0.093271 -0.037235 -15952.200000 0 0 1
9.222975 -15.442326 -28.876240 34.020081 -1.032399 2.584508 0.092217 -0.039491 264654.000000 0 0 1
8.739875 -16.237226 -30.104960 35.303563 -1.077010 2.592016 0.080261 -0.040050 -205245.000000 0 0 1
8.695975 -15.554426 -31.281410 36.001205 -1.061018 2.623770 0.078275 -0.035368 414008.000000 0 0 1
7.856475 -16.246926 -32.194570 36.907684 -1.120381 2.630683 0.082038 -0.034106 -850042.000000 0 0 1
6.731575 -15.398826 -32.750490 36.810767 -1.158681 2.667481 0.080874 -0.022576 -419202.000000 0 0 1
7.201175 -14.313726 -33.544910 37.175269 -1.104675 2.695975 0.082158 -0.017554 165258.000000 0 0 1
6.102575 -13.660626 34.011682 37.157081 -1.150667 0.414423 0.061011 -0.021571 289057.000000 0 0 1
6.559275 -12.426026 33.166918 36.020476 -1.085105 0.400722 0.087142 -0.014513 177716.000000 0 0 1
7.233375 -12.716726 31.965955 35.154788 -1.053628 0.429218 0.074293 -0.014868 -46686.500000 0 0 1
7.427175 -11.540426 31.254355 34.134719 -0.998948 0.413755 0.072489 -0.013974 95674.800000 0 0 1
7.934975 -11.707426 29.815145 32.999553 -0.975144 0.442926 0.060195 -0.004468 492281.000000 0 0 1
6.934075 -12.405726 29.068165 32.356478 -1.061114 0.454747 0.075444 -0.005378 410823.000000 0 0 1
7.220375 -12.289926 27.727225 31.176515 -1.039616 0.474847 0.066514 -0.007794 -476955.000000 0 0 1
6.224675 -12.866326 26.755955 30.334305 -1.120196 0.490630 0.076567 -0.021063 -755056.000000 0 0 1
6.229575 -14.270626 26.862055 31.048806 -1.159199 0.525335 0.071841 -0.014151 22879.200000 0 0 1
5.422875 -15.088126 26.028195 30.570019 -1.225760 0.552093 0.047228 -0.011288 553334.000000 0 0 1
3.899075 -15.100226 26.363235 30.630700 -1.318103 0.534192 0.054726 -0.025559 176482.000000 0 0 1
3.070975 -14.056026 25.945025 29.667273 -1.355695 0.506323 0.056826 -0.024956 195231.000000 0 0 1
2.032075 -14.538726 25.093085 29.071752 -1.431926 0.529335 0.052830 -0.017985 260151.000000 0 0 1
0.932175 -13.536626 24.722805 28.201530 -1.502042 0.501947 0.043833 -0.013571 -511532.000000 0 0 1
1.302675 -12.562426 23.712435 26.866170 -1.467469 0.489404 0.023564 -0.008612 434204.000000 0 0 1
0.319375 -11.548026 23.372095 26.071320 -1.543147 0.459064 0.029596 0.005762 330975.000000 0 0 1
-0.959125 -12.046726 22.699565 25.716022 1.491347 0.489217 0.024576 0.005034 -660417.000000 0 0 1
-0.852525 -12.441326 21.359365 24.733294 1.502380 0.528454 0.023079 -0.005154 353873.000000 0 1 0
-2.087525 -13.042526 20.947365 24.764033 1.412087 0.562586 0.042089 -0.012482 696378.000000 0 1 0
-1.959925 -13.794326 19.605365 24.051924 1.429659 0.617849 0.061227 -0.013154 370176.000000 0 1 0
-0.925525 -14.773426 19.553365 24.524371 1.508230 0.647982 0.076440 -0.018565 -152531.000000 0 1 0
-1.093825 -15.669026 18.417665 24.205892 1.501101 0.706135 0.086076 -0.015162 702895.000000 0 1 0
-2.176125 -16.827126 18.482265 25.089476 1.442188 0.742687 0.076088 -0.024536 734425.000000 0 0 1
-2.197325 -17.664626 17.314765 24.832807 1.447041 0.799237 0.058031 -0.029274 -652309.000000 0 1 0
-3.131625 -18.679126 17.327265 25.670039 1.404687 0.829832 0.074316 -0.024116 -345848.000000 0 0 1
-2.545925 -19.943026 16.660565 26.110926 1.443823 0.878809 0.059250 -0.024114 1009600.000000 0 0 1
-1.406625 -20.490126 17.372165 26.900111 1.502255 0.868722 0.063874 -0.024210 547904.000000 0 0 1
-1.610725 -21.856326 17.493465 28.041304 1.497233 0.897142 0.062629 -0.030582 -174419.000000 0 0 1
-0.544425 -22.645326 18.256665 29.093178 1.546760 0.892427 0.061727 -0.015590 503124.000000 0 0 1
0.683775 -22.843726 17.571565 28.828168 -1.540873 0.915332 0.084647 -0.026296 110508.000000 0 0 1
1.642575 -23.620126 18.300765 29.925347 -1.501367 0.912782 0.081800 -0.027633 107099.000000 0 0 1
2.996975 -23.686826 17.579965 29.649667 -1.444940 0.936113 0.084133 -0.024704 -96137.500000 0 0 1
3.588575 -22.369326 17.611565 28.695502 -1.411728 0.910008 0.064282 -0.014360 -976252.000000 0 0 1
4.543275 -22.188226 16.642465 28.105700 -1.368827 0.937086 0.047468 -0.008929 -486494.000000 0 0 1
5.281375 -20.849926 16.878065 27.340106 -1.322710 0.905443 0.036236 -0.005174 -763250.000000 0 0 1
6.188275 -20.892626 17.937065 28.222949 -1.282835 0.882077 0.038657 0.000817 -375416.000000 0 0 1
6.626275 -19.609926 18.328665 27.647725 -1.244938 0.846063 0.041876 0.006955 12067.600000 0 0 1
7.663375 -18.869426 17.479165 26.838475 -1.185020 0.861536 0.036919 0.000243 -960658.000000 0 0 1
7.139675 -18.337026 16.247965 25.518970 -1.199497 0.880583 0.031423 -0.000235 -191845.000000 0 0 1
7.950575 -17.489226 15.468865 24.665167 -1.144125 0.892902 0.046893 -0.005103 -150683.000000 0 1 0
7.190975 -16.613126 14.398565 23.130602 -1.162296 0.898876 0.033391 -0.012418 203850.000000 0 1 0
6.516675 -17.319326 13.375165 22.832458 -1.210916 0.944934 0.038644 -0.016205 316115.000000 0 1 0
5.740175 -16.428426 12.582765 21.474840 -1.234652 0.944768 0.025891 -0.015276 158776.000000 0 1 0
6.168975 -16.415426 11.059365 20.732391 -1.211321 1.008141 0.029123 -0.018160 852687.000000 0 1 0
7.534975 -16.008026 10.889565 20.775355 -1.130862 1.019070 0.045045 -0.018488 647071.000000 0 1 0
8.190775 -16.675726 9.817665 21.013214 -1.114230 1.084659 0.054260 -0.009095 22261.400000 0 1 0
9.617375 -16.090326 9.790865 21.148369 -1.032061 1.089464 0.054468 -0.007611 -11440.900000 0 1 0
10.478475 -16.720326 8.876965 21.637196 -1.010982 1.148053 0.067724 -0.002453 -972683.000000 0 1 0
11.757375 -16.165626 8.925965 21.891464 -0.941978 1.150822 0.064542 0.000443 -325520.000000 0 1 0
12.720575 -16.996126 8.052465 22.705143 -0.928295 1.208253 0.068503 -0.008247 -149662.000000 0 1 0
13.027375 -18.320826 8.568565 24.057961 -0.952680 1.206638 0.073700 -0.016901 38427.800000 0 1 0
14.010875 -18.984826 7.814065 24.855339 -0.935017 1.250991 0.086515 -0.022064 52933.300000 0 1 0
14.602675 -20.207126 8.534165 26.351433 -0.945030 1.240990 0.075463 -0.027321 -628224.000000 0 0 1
13.610475 -21.099726 8.881465 26.633135 -0.997906 1.230810 0.075420 -0.025817 -387157.000000 0 0 1
14.139875 -22.316926 9.328365 28.017845 -1.006041 1.231373 0.069979 -0.022266 -777483.000000 0 0 1
13.090475 -23.128226 9.976765 28.386814 -1.055755 1.211669 0.075034 -0.023837 -789376.000000 0 0 1
12.657575 -22.642826 11.228865 28.266574 -1.061062 1.162279 0.075221 -0.021084 -546155.000000 0 0 1
11.645075 -23.307226 11.904365 28.645217 -1.107442 1.142216 0.076915 -0.015566 -728631.000000 0 0 1
11.997775 -24.681926 12.419265 30.122786 -1.118334 1.145832 0.045710 -0.012483 -507473.000000 0 0 1
13.111175 -24.683826 13.272465 30.941114 -1.082529 1.127456 0.029323 -0.011689 -112587.000000 0 0 1
13.249075 -25.987776 13.838765 32.286435 -1.099324 1.127826 0.022884 -0.021912 249051.000000 0 0 1
14.423275 -26.125746 14.853965 33.335053 -1.066364 1.108956 0.028728 -0.014682 148697.000000 0 0 1
14.215475 -25.522136 16.105365 33.359286 -1.062605 1.066964 0.033643 -0.015719 402472.000000 0 0 1
15.055775 -26.098506 17.117465 34.652792 -1.047548 1.054146 0.038520 -0.015164 -160674.000000 0 0 1
14.755175 -25.585516 18.572265 34.889294 -1.047685 1.009458 0.039533 -0.017516 -190503.000000 0 0 1
15.271075 -24.300726 18.890865 34.359799 -1.009741 0.988677 0.022323 -0.009415 330089.000000 0 0 1
16.679975 -24.267226 19.084565 35.090461 -0.968614 0.995757 0.041287 -0.013310 -188143.000000 0 0 1
17.176375 -22.861526 19.533265 34.629838 -0.926449 0.971503 0.036378 -0.011865 -464598.000000 0 0 1
17.248375 -21.879126 18.534665 33.462463 -0.903200 0.983762 0.037183 -0.014402 -184337.000000 0 0 1
16.027675 -21.285526 18.198565 32.266821 -0.925388 0.971572 0.036826 -0.006857 -862459.000000 0 0 1
16.142175 -20.247226 17.048965 31.003019 -0.897732 0.988536 0.036753 -0.008853 -38351.100000 0 0 1
16.892275 -19.061526 17.258865 30.766202 -0.845659 0.975241 0.044634 -0.010552 864071.000000 0 0 1
18.306775 -19.256426 17.089065 31.590886 -0.810674 0.999231 0.051327 -0.015830 275620.000000 0 0 1
19.089175 -17.972926 17.246965 31.382806 -0.755289 0.988950 0.069641 -0.013392 -416017.000000 0 0 1
19.309475 -17.675026 18.637465 32.134366 -0.741234 0.952085 0.060135 -0.012875 318669.000000 0 0 1
19.928175 -16.407726 18.810565 31.940304 -0.688813 0.941064 0.067476 -0.012148 -204433.000000 0 0 1
20.615675 -16.141826 20.183365 33.059535 -0.664281 0.914085 0.060684 -0.008862 357123.000000 0 0 1
21.804775 -16.939626 20.288965 34.264285 -0.660482 0.937095 0.070335 -0.010166 402039.000000 0 0 1
22.361675 -16.793726 21.588065 35.328718 -0.644144 0.913394 0.065601 0.004096 -195761.000000 0 0 1
34.469442 -0.852926 -7.654400 35.319396 -0.024739 1.789249 0.124113 -0.033083 -258081.000000 0 0 1
35.737162 -0.640926 -8.207000 36.673020 -0.017933 1.796496 0.129275 -0.038006 -66515.800000 0 0 1
36.508762 -1.847426 -8.165400 37.456327 -0.050559 1.790559 0.142337 -0.045461 -219591.000000 0 0 1
-35.503485 -1.727426 -8.729800 36.601787 0.048617 1.811625 0.123583 -0.042183 -620853.000000 0 0 1
-34.608806 -2.732126 -8.389700 35.715837 0.078780 1.807913 0.133579 -0.036889 -383506.000000 0 0 1
-33.328715 -2.567126 -8.937100 34.601519 0.076873 1.832044 0.165834 -0.039803 -315898.000000 0 0 1
-32.388365 -3.727926 -8.568500 33.709387 0.114596 1.827804 0.175351 -0.035540 -234652.000000 0 0 1
-31.959705 -3.620826 -7.208500 32.962032 0.112812 1.791269 0.181070 -0.039156 339106.000000 0 0 1
-30.836535 -4.448126 -6.997700 31.931888 0.143260 1.791734 0.176999 -0.045099 3837.690000 0 0 1
-30.430165 -4.490926 -5.493800 31.246522 0.146524 1.747536 0.176477 -0.053099 -104305.000000 0 0 1
-30.200645 -3.177526 -4.984700 30.773736 0.104828 1.733492 0.175559 -0.052787 384078.000000 0 0 1
-29.734675 -3.156026 -3.675600 30.126756 0.105744 1.693106 0.175846 -0.053664 -317618.000000 0 0 1
-29.532395 -1.683026 -3.214300 29.754439 0.056928 1.679035 0.194553 -0.057961 329995.000000 0 0 1
-28.227625 -1.204026 -3.577500 28.478886 0.042628 1.696748 0.181660 -0.053777 859271.000000 0 0 1
-27.955695 0.042074 -2.983800 28.114510 -0.001505 1.677127 0.180785 -0.060397 55651.900000 0 0 1
-26.460555 0.272774 -2.643500 26.593673 -0.010308 1.670364 0.166061 -0.043693 -232296.000000 0 0 1
-25.987145 -0.475326 -1.597500 26.040538 0.018289 1.632182 0.145499 -0.044402 236467.000000 0 0 1
-24.646425 -0.109026 -1.330400 24.682546 0.004424 1.624723 0.107467 -0.036544 -1568.970000 0 1 0
-24.218925 -0.701226 0.028500 24.229091 0.028946 1.569620 0.096562 -0.033954 -185436.000000 0 1 0
-24.261325 -2.087826 0.028400 24.351010 0.085844 1.569630 0.102401 -0.035555 346055.000000 0 1 0
-23.375425 -2.714926 0.924600 23.550715 0.115626 1.531526 0.087105 -0.030505 -332470.000000 0 1 0
-23.420125 -4.236326 0.893500 23.816948 0.178949 1.533272 0.082824 -0.022773 -115817.000000 0 1 0
-24.621025 -4.729026 1.449500 25.112937 0.189762 1.513045 0.088997 -0.029002 368169.000000 0 0 1
-24.538725 -6.105526 1.450000 25.328422 0.243860 1.513517 0.062814 -0.016375 -70264.300000 0 0 1
-25.857355 -6.750026 1.949200 26.794869 0.255350 1.497987 0.088425 -0.015021 229871.000000 0 0 1
-26.212135 -6.609026 3.315500 27.235047 0.246988 1.448757 0.089169 -0.010156 430619.000000 0 0 1
-27.466515 -7.209126 3.613800 28.625871 0.256680 1.444216 0.110527 -0.001809 205601.000000 0 0 1
-27.634365 -7.645226 5.134500 29.128520 0.269906 1.393600 0.110470 -0.011927 593463.000000 0 0 1
-26.611555 -8.595726 5.552300 28.511215 0.312428 1.374803 0.101877 0.006358 853465.000000 0 0 1
-26.669915 -8.891826 6.907200 28.949237 0.321813 1.329875 0.094697 -0.007175 74557.300000 0 0 1
-25.983925 -7.830326 7.859300 28.253264 0.292697 1.288905 0.085529 -0.006732 933375.000000 0 0 1
-24.554925 -7.770826 7.681000 26.876157 0.306495 1.280963 0.099806 -0.022085 899621.000000 0 0 1
-24.162525 -6.475526 7.972400 26.254889 0.261846 1.262271 0.108499 -0.027493 -524772.000000 0 0 1
-22.774925 -6.131726 7.433100 24.729461 0.262995 1.265499 0.097936 -0.028472 -524041.000000 0 1 0
-21.727525 -6.544726 8.254600 24.146577 0.292574 1.221907 0.097899 -0.039168 250017.000000 0 1 0
-20.453925 -6.149126 7.749600 22.720719 0.292037 1.222730 0.088336 -0.033619 262330.000000 0 1 0
-19.242625 -6.670526 8.525300 22.078389 0.333691 1.174355 0.092425 -0.032147 -230928.000000 0 1 0
-19.022025 -5.917226 9.725200 22.168232 0.301584 1.116645 0.074264 -0.023682 105544.000000 0 1 0
-18.019325 -6.504226 10.526000 21.858584 0.346404 1.068374 0.065048 -0.025932 -176609.000000 0 1 0
-17.543025 -5.531526 11.615700 21.754999 0.305445 1.007552 0.034191 -0.008408 -161989.000000 0 1 0
-18.485125 -5.425326 12.653000 23.048479 0.285480 0.989661 0.047134 -0.016200 1973.780000 0 1 0
-18.850225 -4.062926 12.785300 23.136599 0.212290 0.985315 0.063140 -0.011238 166935.000000 0 1 0
-20.054225 -3.839026 13.745600 24.614052 0.189144 0.978286 0.068967 -0.022964 24227.300000 0 1 0
-19.859925 -4.386026 15.044700 25.298159 0.217359 0.933910 0.065744 -0.017822 -138013.000000 0 0 1
-20.998725 -4.167826 15.826600 26.623269 0.195934 0.934196 0.065611 -0.003951 -207176.000000 0 0 1
-20.952225 -5.041526 17.115700 27.520172 0.236131 0.899588 0.067227 -0.000863 -173577.000000 0 0 1
-21.803925 -4.546326 18.119400 28.712242 0.205564 0.887866 0.054327 -0.003051 205106.000000 0 0 1
-21.573225 -5.149426 19.351200 29.434496 0.234311 0.853390 0.060056 0.007813 -599027.000000 0 0 1
-22.589225 -4.767426 20.402800 30.810318 0.207996 0.847036 0.068561 0.002250 -543985.000000 0 0 1
-22.174425 -3.483726 20.866200 30.647019 0.155832 0.821866 0.069063 -0.008512 554614.000000 0 0 1
-22.877825 -3.188226 22.076200 31.951811 0.138467 0.808033 0.070731 -0.006654 149344.000000 0 0 1
-23.148325 -1.689826 22.418400 32.268950 0.072871 0.802744 0.064304 -0.002314 -174786.000000 0 0 1
-24.110825 -1.150626 21.557000 32.362943 0.047686 0.841827 0.078376 -0.020036 -319062.000000 0 0 1
-24.147325 0.276574 21.650400 32.433156 -0.011453 0.839898 0.069870 -0.018918 -674507.000000 0 0 1
-25.539635 0.795074 21.346000 33.294997 -0.031121 0.874843 0.085041 -0.026881 -27073.400000 0 0 1
-26.518445 0.478074 22.368000 34.695589 -0.018026 0.870175 0.090101 -0.025776 632717.000000 0 0 1
-27.757695 1.086374 22.049100 35.465936 -0.039118 0.899888 0.100000 -0.025221 465308.000000 0 0 1
-28.899395 1.155674 23.074000 36.998920 -0.039968 0.897406 0.089902 -0.019771 247743.000000 0 0 1
-28.450535 1.950274 24.162700 37.377434 -0.068443 0.867872 0.073763 -0.014740 -170648.000000 0 0 1
-29.369755 1.864574 25.190300 38.737712 -0.063401 0.862845 0.070788 -0.008698 -603827.000000 0 0 1
-29.158585 2.879074 26.312300 39.380823 -0.098419 0.839077 0.096991 -0.016658 295561.000000 0 0 1
-28.025755 2.499674 27.090700 39.058896 -0.088957 0.804341 0.079839 -0.022739 172162.000000 0 0 1
-27.759555 3.536474 28.032200 39.609390 -0.126714 0.784536 0.068271 -0.022877 423404.000000 0 0 1
-26.503665 3.206774 28.929300 39.365366 -0.120408 0.745289 0.086421 -0.023853 593845.000000 0 0 1
-26.680855 2.096074 29.785800 40.043169 -0.078400 0.731995 0.081709 -0.022960 -347488.000000 0 0 1
-25.565755 1.890074 30.588400 39.910279 -0.073796 0.697533 0.064344 -0.021892 -295875.000000 0 0 1
-25.737375 0.698574 31.554400 40.725675 -0.027136 0.684392 0.042490 -0.020589 45894.200000 0 0 1
-25.830185 -0.519126 30.813000 40.210806 0.020095 0.697755 0.039666 -0.027766 -135727.000000 0 0 1
-25.964905 -1.693626 31.632300 40.959090 0.065135 0.688358 0.061382 -0.028150 -437895.000000 0 0 1
-26.635875 -2.849926 30.850200 40.857395 0.106590 0.715035 0.053232 -0.022932 2121740.000000 0 0 1
-28.073455 -2.778226 30.531300 41.569191 0.098642 0.745912 0.068150 -0.023468 2039170.000000 0 0 1
-28.287575 -1.783726 29.484400 40.898636 0.062973 0.765676 0.070143 -0.013953 -561713.000000 0 0 1
-29.752895 -1.483226 29.106400 41.648736 0.049810 0.797002 0.082502 -0.022995 298241.000000 0 0 1
-30.541975 -0.912926 30.137100 42.917251 0.029882 0.792294 0.090502 -0.011489 178923.000000 0 0 1
-31.910615 -0.913026 29.737200 43.628225 0.028604 0.820843 0.066490 -0.013677 612448.000000 0 0 1
-32.907265 -0.771626 30.916600 45.158827 0.023444 0.816715 0.073929 -0.014035 -78308.200000 0 0 1
-32.886175 -1.821026 31.858400 45.823294 0.055317 0.802036 0.098547 -0.018032 -83216.900000 0 0 1
-33.885755 -1.560726 32.808900 47.192204 0.046026 0.802072 0.122449 -0.027719 -30732.300000 0 0 1
-34.205654 -2.721826 33.797200 48.163117 0.079405 0.792982 0.118064 -0.019030 -559283.000000 0 0 1
-34.956466 -3.669326 33.168800 48.327919 0.104585 0.814368 0.113029 -0.034053 -645424.000000 0 0 1
-35.366212 -4.555326 -33.978765 49.255217 0.128099 2.332080 0.082808 -0.021277 -433114.000000 0 0 1
-36.639995 -5.293226 33.775600 50.112859 0.143473 0.831199 0.084513 -0.024654 -411983.000000 0 0 1
35.588172 -4.631026 -33.992265 49.431149 -0.129401 2.329070 0.095472 -0.032722 -773119.000000 0 0 1
34.532612 -5.245626 33.501700 48.398159 -0.150751 0.806249 0.092997 -0.033361 -1311370.000000 0 0 1
33.219912 -4.908726 -33.943365 47.747358 -0.146703 2.361566 0.109065 -0.036060 -904892.000000 0 0 1
32.913002 -5.597426 -32.751365 46.768032 -0.168456 2.346605 0.090305 -0.028088 28063.700000 0 0 1
32.623382 -6.972426 -32.841265 46.812909 -0.210557 2.348357 0.079935 -0.020963 -543546.000000 0 0 1
31.212512 -7.272126 -33.388865 46.280893 -0.228904 2.376675 0.068684 -0.018451 -484592.000000 0 0 1
30.225992 -6.960126 -32.420765 44.868251 -0.226324 2.378319 0.065674 -0.022432 -217178.000000 0 0 1
28.975682 -7.324626 -32.996965 44.520108 -0.247598 2.405608 0.069046 -0.025207 55471.500000 0 0 1
27.838262 -6.976326 -32.001065 42.984952 -0.245545 2.410539 0.071763 -0.027788 689212.000000 0 0 1
26.563862 -7.537526 -32.349765 42.531874 -0.276484 2.435034 0.067355 -0.030988 646773.000000 0 0 1
25.513362 -7.222726 -31.457565 41.142166 -0.275877 2.441227 0.069353 -0.031446 341066.000000 0 0 1
24.105062 -7.608626 -32.027265 40.800624 -0.305747 2.473444 0.074183 -0.041395 518276.000000 0 0 1
23.840162 -9.003026 -32.047365 40.944369 -0.361084 2.469797 0.090579 -0.045949 114123.000000 0 0 1
23.567962 -9.561626 -30.793365 39.938764 -0.385414 2.451229 0.096635 -0.039369 -526505.000000 0 0 1
23.316662 -11.056726 -30.878465 40.241738 -0.442794 2.445454 0.102347 -0.035238 584169.000000 0 0 1
22.066662 -11.336126 -31.530465 40.120014 -0.474565 2.474952 0.110895 -0.039480 568275.000000 0 0 1
21.952762 -12.756226 -31.527865 40.480258 -0.526389 2.463619 0.097048 -0.032733 -717662.000000 0 0 1
20.859362 -13.382126 -32.436765 40.820803 -0.570405 2.489167 0.079128 -0.027093 693226.000000 0 0 1
19.497062 -13.175526 -32.080865 39.785824 -0.594278 2.508732 0.057077 -0.021938 560898.000000 0 0 1
19.067862 -11.803526 -32.339265 39.353966 -0.554293 2.535278 0.051976 -0.025735 -465899.000000 0 0 1
17.697962 -11.393726 -31.727665 38.074658 -0.571995 2.555849 0.044170 -0.021286 891178.000000 0 0 1
16.580862 -11.848626 -32.506265 38.366289 -0.620455 2.581604 0.037702 -0.005540 261046.000000 0 0 1
15.361562 -11.762426 -31.795765 37.219657 -0.653477 2.594948 0.065110 -0.014222 -573744.000000 0 0 1
14.178962 -12.013526 -32.686865 37.600517 -0.702912 2.624620 0.057054 -0.011689 -2156440.000000 0 0 1
13.990362 -13.310026 -33.121065 38.339170 -0.760483 2.613751 0.069015 -0.015236 -371366.000000 0 0 1
12.733262 -13.530526 -33.685965 38.470187 -0.815745 2.637552 0.055275 -0.013037 200575.000000 0 0 1
11.560562 -13.576426 -32.636865 37.190467 -0.865422 2.641545 0.047268 -0.013475 -612354.000000 0 0 1
11.162762 -12.328126 -32.147665 36.194783 -0.834967 2.664176 0.087364 -0.009066 -120420.000000 0 0 1
10.175562 -12.477126 -31.121665 35.039674 -0.886653 2.664173 0.090128 -0.020966 328594.000000 0 0 1
8.875362 -11.735326 -31.460965 34.731574 -0.923279 2.704135 0.084760 -0.008490 -389854.000000 0 0 1
9.188362 -10.388026 -31.717565 34.617062 -0.846603 2.729390 0.082818 0.001674 1556460.000000 0 0 1
8.007862 -9.534126 -31.998665 34.335695 -0.872186 2.770511 0.088430 -0.000315 1316830.000000 0 0 1
8.343862 -8.088026 -32.408565 34.428931 -0.769830 2.797310 0.102853 -0.001491 -143943.000000 0 0 1
8.764962 -7.384626 -31.282665 33.316098 -0.700133 2.790407 0.094410 -0.004123 258566.000000 0 0 1
9.243862 -6.072426 -31.651065 33.527798 -0.581221 2.805421 0.101638 0.001991 527.702000 0 0 1
9.566662 -5.205826 -30.430265 32.320623 -0.498351 2.797887 0.102292 -0.002006 -11787.700000 0 0 1
8.396862 -4.732526 -29.806265 31.325988 -0.513230 2.828829 0.128678 -0.008055 -67689.000000 0 0 1
8.679562 -3.764426 -28.828965 30.341636 -0.409226 2.824498 0.120009 -0.007147 -52464.600000 0 0 1
7.383762 -3.157626 -28.300665 29.417990 -0.404108 2.865101 0.110166 -0.015088 -606978.000000 0 0 1
6.610662 -2.511026 -29.270065 30.112170 -0.363011 2.904540 0.100446 -0.003584 -266183.000000 0 0 1
5.359162 -2.012426 -28.871365 29.433419 -0.359219 2.945854 0.110350 -0.014302 4490.030000 0 0 1
4.223762 -3.041726 -28.933865 29.398313 -0.624119 2.963603 0.082324 -0.018118 -694297.000000 0 0 1
4.115862 -3.789426 -27.772565 28.330468 -0.744128 2.942808 0.090850 -0.025223 -339.357000 0 0 1
2.993762 -4.648526 -27.776865 28.321822 -0.998634 2.945105 0.084043 -0.026696 193244.000000 0 0 1
3.123862 -5.634426 -26.620565 27.389044 -1.064563 2.904147 0.064874 -0.031968 -14024.000000 0 0 1
2.800162 -5.113726 -25.328165 25.990518 -1.069815 2.915348 0.060119 -0.038140 79824.000000 0 0 1
3.040962 -6.106226 -24.329865 25.268078 -1.108742 2.868234 0.056688 -0.039772 -91932.900000 0 0 1
3.045562 -5.467126 -22.912865 23.752143 -1.062543 2.874966 0.063728 -0.043829 123787.000000 0 1 0
3.946762 -4.377926 -22.778965 23.529224 -0.837145 2.888384 0.059248 -0.037031 106494.000000 0 1 0
3.667462 -3.673426 -21.609565 22.224257 -0.786211 2.905851 0.041141 -0.028975 -340419.000000 0 1 0
4.575962 -2.429626 -21.460065 22.076614 -0.488103 2.904702 0.041855 -0.022545 141559.000000 0 1 0
5.810162 -2.823426 -20.886665 21.862810 -0.452341 2.841643 0.038814 -0.029960 -313755.000000 0 1 0
6.610762 -1.754126 -20.474765 21.586920 -0.259367 2.819200 0.046061 -0.023836 -684485.000000 0 1 0
8.026362 -2.182426 -20.134065 21.784537 -0.265489 2.749828 0.065580 -0.024379 -1337730.000000 0 1 0
8.725662 -2.417626 -21.319965 23.162966 -0.270290 2.739984 0.079507 -0.035547 157304.000000 0 1 0
10.002562 -3.035626 -21.193265 23.630928 -0.294651 2.683380 0.066396 -0.030960 1547880.000000 0 1 0
11.222162 -2.244226 -20.551465 23.523099 -0.197378 2.633495 0.065224 -0.030166 145210.000000 0 1 0
11.229462 -2.309126 -19.125165 22.298090 -0.202804 2.601584 0.062670 -0.019432 646156.000000 0 1 0
12.335562 -1.701926 -18.429965 22.242442 -0.137103 2.547389 0.061698 -0.028192 155870.000000 0 1 0
12.525462 -0.134526 -18.502765 22.344073 -0.010740 2.546477 0.057039 -0.024555 -21002.800000 0 1 0
13.054762 0.402974 -19.730865 23.662126 0.030858 2.556858 0.061749 -0.033385 355730.000000 0 1 0
13.174262 1.838774 -19.599465 23.687154 0.138677 2.545312 0.076567 -0.037054 9405.310000 0 1 0
13.695162 2.639974 -20.822165 25.061713 0.190431 2.551404 0.063421 -0.037003 321114.000000 0 0 1
15.097462 2.564674 -21.076865 26.052738 0.168268 2.513258 0.064925 -0.036846 501233.000000 0 0 1
15.445362 3.564174 -21.967765 27.089578 0.226790 2.516537 0.059086 -0.035380 -65319.800000 0 0 1
16.916262 3.613774 -22.451665 28.342486 0.210464 2.485130 0.036415 -0.025504 283427.000000 0 0 1
17.177062 2.793374 -23.572765 29.300676 0.161211 2.505651 0.024940 -0.023464 -411444.000000 0 0 1
17.933362 1.706074 -23.202365 29.374579 0.094849 2.481408 0.029846 -0.028109 -810325.000000 0 0 1
9.540275 26.479874 3.376800 28.347899 1.224989 1.451393 0.024853 -0.004121 -60113.500000 0 0 1
9.445875 26.979874 4.696200 28.968819 1.234025 1.407965 0.023627 -0.004028 162789.000000 0 0 1
10.676975 27.486474 5.166900 29.936615 1.200291 1.397333 0.035799 -0.004886 -147372.000000 0 0 1
10.593475 28.072974 6.591000 30.720594 1.209963 1.354569 0.026729 -0.006642 -88166.900000 0 0 1
10.634875 27.167174 7.692700 30.171734 1.197673 1.312986 0.020684 -0.005194 164733.000000 0 0 1
10.638275 27.913074 8.883100 31.164436 1.206670 1.281749 0.024321 0.002488 -675405.000000 0 0 1
10.541075 27.073974 10.137300 30.771402 1.199510 1.235087 0.041638 -0.004337 -628328.000000 0 0 1
11.605375 26.331274 10.581600 30.659273 1.155666 1.218413 0.047159 -0.000180 -211013.000000 0 0 1
12.407575 25.550074 9.650600 29.998138 1.118720 1.243265 0.047385 -0.004453 -328121.000000 0 0 1
13.639075 24.904074 10.260500 30.191309 1.069748 1.224040 0.054177 -0.009214 -1250040.000000 0 0 1
14.684775 25.754074 10.494900 31.449291 1.052583 1.230561 0.051441 -0.006548 -434838.000000 0 0 1
15.863575 24.969274 10.697500 31.457180 1.004808 1.223810 0.058760 -0.004507 838274.000000 0 0 1
17.184075 25.763374 10.938500 32.843488 0.982566 1.231261 0.052743 -0.007629 -447657.000000 0 0 1
17.577975 26.582974 9.848000 33.356002 0.986554 1.271090 0.048473 -0.013461 166874.000000 0 0 1
18.977775 26.740474 9.796500 34.222512 0.953588 1.280476 0.040983 -0.021021 291567.000000 0 0 1
19.671075 27.534874 10.995000 35.581042 0.950467 1.256641 0.052196 -0.024164 -716674.000000 0 0 1
19.647975 28.935274 11.044600 36.678007 0.974282 1.264926 0.058750 -0.046380 196979.000000 0 0 1
18.342975 29.454474 11.238300 36.473692 1.013812 1.257579 0.054707 -0.027954 18825.300000 0 0 1
18.365075 30.954274 11.626200 37.823427 1.035320 1.258357 0.068650 -0.030070 -692699.000000 0 0 1
18.828675 31.892674 10.704500 38.551887 1.037483 1.289434 0.082027 -0.052755 -438278.000000 0 0 1
18.221675 32.006274 9.464600 38.026434 1.053244 1.319257 0.082461 -0.050268 33506.500000 0 0 1
16.764375 32.542974 9.455100 37.808575 1.095106 1.318035 0.076164 -0.037880 -19561.700000 0 0 1
16.655875 33.823374 9.931700 38.988171 1.113218 1.313221 0.078893 -0.041369 -539552.000000 0 0 1
15.330975 -33.986007 10.029100 38.609200 -1.147031 1.308023 0.077160 -0.025899 -311855.000000 0 0 1
15.384375 -32.493807 10.258900 37.386783 -1.128609 1.292832 0.066488 -0.023389 -15442.700000 0 0 1
15.788775 -31.766107 9.145800 36.633545 -1.109526 1.318471 0.082917 -0.025288 -185385.000000 0 0 1
15.992275 -30.398007 9.415000 35.615080 -1.086490 1.303262 0.100875 -0.023568 90750.200000 0 0 1
16.828775 -29.682307 8.305000 35.117233 -1.055023 1.332041 0.074774 -0.018668 88392.300000 0 0 1
16.262275 -29.824007 7.026000 34.688581 -1.071588 1.366840 0.075433 -0.020065 118727.000000 0 0 1
17.016275 -29.068007 6.077600 34.226304 -1.041185 1.392279 0.067107 -0.015584 102463.000000 0 0 1
16.678675 -29.310907 4.611800 34.037864 -1.053463 1.434888 0.066054 -0.016619 -61950.600000 0 0 1
17.009275 -30.660707 4.171100 35.309949 -1.064307 1.452392 0.057265 -0.015426 91423.600000 0 0 1
16.907775 -30.719007 2.775700 35.174348 -1.067645 1.491802 0.045964 -0.003046 -87649.400000 0 0 1
17.134775 -32.164407 2.221800 36.511450 -1.081313 1.509907 0.050035 -0.008911 76978.600000 0 0 1
18.464375 -32.653507 2.257700 37.580339 -1.056158 1.510683 0.051217 -0.005016 175841.000000 0 0 1
18.615575 -33.932507 1.702000 38.740824 -1.069024 1.526849 0.061976 -0.010440 548941.000000 0 0 1
20.094675 33.829674 1.905900 39.393848 1.034804 1.522397 0.064714 -0.007678 620791.000000 0 0 1
20.236175 33.282274 3.189700 39.081796 1.024503 1.489089 0.054220 -0.029978 637672.000000 0 0 1
21.571875 32.846074 3.479700 39.450205 0.989686 1.482477 0.041626 -0.018638 660473.000000 0 0 1
22.014175 32.846874 4.986700 39.854840 0.980347 1.445346 0.046518 -0.014453 -142763.000000 0 0 1
21.553175 31.797374 5.794600 38.848292 0.975106 1.421078 0.058572 -0.028085 317770.000000 0 0 1
22.470675 30.688174 5.836400 38.480630 0.938768 1.418538 0.049007 -0.035868 237316.000000 0 0 1
21.789375 29.493874 6.515700 37.244058 0.934517 1.394945 0.049583 -0.042951 19856.900000 0 0 1
20.624575 29.033474 5.887900 36.096857 0.953143 1.406950 0.050778 -0.035344 -743913.000000 0 0 1
19.725775 28.535074 6.814200 35.352369 0.965946 1.376832 0.046099 -0.040148 1492740.000000 0 0 1
18.171475 28.810174 6.482400 34.673479 1.008086 1.382734 0.070868 -0.035933 1589510.000000 0 0 1
17.828975 30.154374 6.541900 35.636429 1.036831 1.386176 0.067242 -0.040355 -99178.000000 0 0 1
18.146575 30.940174 5.403400 36.273810 1.040359 1.421278 0.069822 -0.035021 -373223.000000 0 0 1
17.989575 32.440074 5.601700 37.514827 1.064468 1.420916 0.078402 -0.032184 -72432.800000 0 0 1
16.666775 32.901174 5.702300 37.320033 1.101906 1.417401 0.084605 -0.033213 -365711.000000 0 0 1
16.679275 -33.895407 5.715400 38.206840 -1.113504 1.420642 0.077218 -0.028941 1163350.000000 0 0 1
15.176575 -33.393307 5.832100 37.141012 -1.144223 1.413118 0.070560 -0.025671 1273450.000000 0 0 1
14.487475 -33.582107 4.586900 36.860338 -1.163513 1.446033 0.059136 -0.017008 130869.000000 0 0 1
13.364475 -32.697307 4.656300 35.628699 -1.182784 1.439732 0.052005 -0.015564 558237.000000 0 0 1
12.427375 -32.758207 3.406300 35.201458 -1.208203 1.473879 0.047091 -0.011644 728905.000000 0 0 1
11.294375 -31.882207 3.432500 33.997354 -1.230337 1.469660 0.046653 -0.021012 341958.000000 0 0 1
10.802275 -31.621307 2.167300 33.485719 -1.241612 1.506028 0.053540 -0.014998 -661068.000000 0 0 1
9.840575 -30.370607 2.160800 31.998121 -1.257454 1.503216 0.057637 -0.017813 234555.000000 0 0 1
9.314375 -30.026107 0.906800 31.450707 -1.270000 1.541960 0.060268 -0.009581 -105570.000000 0 0 1
8.412475 -30.968107 0.378900 32.092631 -1.305548 1.558990 0.053556 -0.012116 -991302.000000 0 0 1
8.814675 -31.399207 -1.061500 32.630285 -1.297112 1.603333 0.063685 -0.012807 -247573.000000 0 0 1
9.905075 -32.271907 -0.934400 33.770691 -1.272998 1.598469 0.061696 -0.013663 -371589.000000 0 0 1
9.899375 -33.183607 -2.036800 34.688585 -1.280880 1.629547 0.057341 -0.008555 407391.000000 0 0 1
11.188675 -34.066207 -1.981700 35.911280 -1.253457 1.626008 0.053784 -0.010845 434875.000000 0 0 1
11.216375 33.321974 -0.860100 35.169601 1.246103 1.595255 0.054972 -0.006547 -448276.000000 0 0 1
12.371575 32.536074 -0.853300 34.819249 1.207438 1.595305 0.068285 -0.011581 -456084.000000 0 0 1
12.584675 31.724374 0.441500 34.132168 1.193148 1.557861 0.063810 -0.019147 -171391.000000 0 0 1
13.047175 32.371374 1.620900 34.939404 1.187666 1.524388 0.056904 -0.015384 -417134.000000 0 0 1
14.338075 32.897574 1.687500 35.926014 1.159780 1.523807 0.069697 -0.013011 919244.000000 0 0 1
15.526375 31.798274 1.913400 35.438110 1.116571 1.516777 0.070034 -0.016880 961990.000000 0 0 1
15.908675 31.119374 0.764400 34.958342 1.098217 1.548929 0.070910 -0.016338 -304608.000000 0 0 1
16.910275 30.174574 0.997800 34.604305 1.059992 1.541958 0.077514 -0.020771 -241463.000000 0 0 1
17.530375 29.556074 -0.298300 34.365165 1.035449 1.579477 0.071049 -0.013918 881896.000000 0 0 1
18.535775 30.364174 -0.970100 35.587907 1.022729 1.598059 0.054383 -0.004507 895838.000000 0 0 1
17.898375 31.341974 -1.784500 36.136624 1.051923 1.620198 0.052613 -0.011954 371021.000000 0 0 1
18.931575 32.277274 -2.480700 37.501745 1.040340 1.636994 0.037589 -0.005073 815304.000000 0 0 1
19.902475 32.796774 -1.547000 38.394402 1.025361 1.611100 0.035191 0.000293 74086.100000 0 0 1
20.848375 33.540774 -2.237600 39.555596 1.014658 1.627395 0.037169 -0.000552 -1326610.000000 0 0 1
21.905375 -33.907307 -1.407200 40.392216 -0.997212 1.605642 0.038080 0.003678 144200.000000 0 0 1
22.925475 33.558674 -0.720100 40.648254 0.971472 1.588513 0.031988 0.000010 1222080.000000 0 0 1
23.702075 32.588474 -1.474900 40.323348 0.941973 1.607381 0.041913 -0.001286 91472.000000 0 0 1
24.528075 33.144274 -2.694500 41.321057 0.933700 1.636052 0.048059 -0.006370 -264191.000000 0 0 1
23.669675 33.692074 -3.682600 41.339702 0.958375 1.659996 0.036478 -0.012087 -297043.000000 0 0 1
24.465175 -33.781307 -4.531100 41.955362 -0.943998 1.679005 0.049701 -0.011159 -230298.000000 0 0 1
23.709275 -33.138807 -5.707900 41.144749 -0.949774 1.709972 0.048165 -0.018147 -813008.000000 0 0 1
22.685575 -32.271407 -5.397500 39.814721 -0.958085 1.706780 0.053132 -0.013921 -369819.000000 0 0 1
22.358975 -31.523807 -6.588600 39.205661 -0.953874 1.739650 0.054218 -0.018872 -324778.000000 0 0 1
21.366075 -30.387807 -6.415100 37.697235 -0.957984 1.741803 0.056427 -0.015283 758702.000000 0 0 1
20.067475 -30.776707 -5.916600 37.214452 -0.992992 1.730460 0.049580 -0.009150 838866.000000 0 0 1
19.185175 -29.675707 -5.960400 35.836363 -0.996890 1.737896 0.051989 -0.014235 747092.000000 0 0 1
17.950575 -29.605607 -5.002500 34.981997 -1.025740 1.714290 0.040174 -0.005736 304884.000000 0 0 1
16.849675 -30.399007 -5.327500 35.162387 -1.064670 1.722893 0.045076 -0.011616 -630524.000000 0 0 1
15.914375 -30.276907 -4.281300 34.471553 -1.086858 1.695316 0.029762 -0.008412 -1228370.000000 0 0 1
14.673975 -31.056807 -4.553200 34.649422 -1.129399 1.702585 0.030751 -0.013160 -1280240.000000 0 0 1
14.853075 -32.475707 -4.626800 36.009619 -1.141839 1.699640 0.041835 -0.002019 -647324.000000 0 0 1
13.663575 -33.150207 -4.865100 36.184233 -1.179841 1.705658 0.046497 -0.003167 -620920.000000 0 0 1
13.907075 33.573874 -5.047700 36.689113 1.178089 1.708814 0.055183 -0.009621 -113449.000000 0 0 1
14.120875 32.859374 -3.816000 35.968034 1.164921 1.677091 0.064771 -0.013846 -79260.300000 0 0 1
14.316475 31.484674 -4.098100 34.828732 1.144030 1.688734 0.073657 -0.015481 847523.000000 0 0 1
13.048475 30.630274 -4.601900 33.610324 1.168080 1.708147 0.079192 -0.019035 1155960.000000 0 0 1
12.149375 30.069074 -3.643400 32.634811 1.186804 1.682671 0.079132 -0.022075 -39638.100000 0 0 1
12.718975 29.321074 -2.599300 32.066401 1.161510 1.651945 0.083753 -0.026147 169611.000000 0 0 1
11.648575 28.524174 -1.753700 30.860870 1.183091 1.627653 0.080504 -0.023163 973163.000000 0 0 1
10.715275 29.272874 -0.997500 31.188352 1.219897 1.602785 0.051338 -0.019267 -200950.000000 0 0 1
9.708575 28.474174 -0.432900 30.086915 1.242197 1.585185 0.044056 -0.009134 6406.160000 0 0 1
8.641675 29.275374 0.343900 30.526126 1.283762 1.559530 0.032394 0.003330 217091.000000 0 0 1
7.680275 28.433174 0.954800 29.467672 1.306976 1.538389 0.025591 -0.002919 -768308.000000 0 0 1
6.655075 29.170874 1.501600 29.958050 1.346494 1.520652 0.039551 0.001368 -662629.000000 0 0 1
5.614975 28.242274 2.171300 28.876782 1.374541 1.495533 0.043409 -0.005084 48526.700000 0 0 1
4.836375 27.571774 1.201000 28.018488 1.397152 1.527919 0.044942 -0.009987 -188199.000000 0 0 1
3.668675 27.063974 1.817200 27.371885 1.436062 1.504358 0.045206 -0.011578 96881.100000 0 0 1
3.007975 26.036474 0.898800 26.225059 1.455777 1.536517 0.054531 -0.014080 -278858.000000 0 0 1
1.750975 25.593274 1.343800 25.688273 1.502487 1.518461 0.050453 -0.012778 -352978.000000 0 0 1
1.296275 24.654074 0.424000 24.691769 1.518266 1.553624 0.043944 -0.008169 688341.000000 0 1 0
-0.120925 24.054374 0.776800 24.067217 -1.565769 1.538514 0.040803 -0.008023 1053050.000000 0 1 0
-1.179325 25.008274 0.792700 25.048612 -1.523674 1.539145 0.051862 -0.010648 -136811.000000 0 0 1
-2.362625 24.253174 1.001600 24.388556 -1.473688 1.529716 0.050040 -0.006118 -656361.000000 0 1 0
-3.566425 25.111674 1.300800 25.397001 -1.429717 1.519555 0.077290 -0.020741 -547254.000000 0 0 1
-4.729825 24.334374 1.543700 24.837794 -1.378822 1.508605 0.072122 -0.024728 77671.600000 0 1 0
-5.781325 24.946874 2.254100 25.707026 -1.343071 1.482999 0.070316 -0.022889 -183023.000000 0 0 1
-6.943225 25.245774 1.330600 26.216941 -1.302407 1.520021 0.069590 -0.020860 -777185.000000 0 0 1
-6.705525 26.400174 0.599800 27.245055 -1.322061 1.548780 0.073728 -0.024598 504372.000000 0 0 1
-7.738125 26.555274 -0.391500 27.662509 -1.287251 1.584950 0.066038 -0.019995 415768.000000 0 0 1
-7.440225 27.696074 -1.386000 28.711504 -1.308354 1.619088 0.062007 -0.016488 31548.400000 0 0 1
-7.684825 29.019374 -0.888100 30.032804 -1.311922 1.600372 0.079997 -0.033922 -77563.100000 0 0 1
-7.612225 30.011274 -1.892500 31.019415 -1.322390 1.631844 0.078629 -0.026780 -186128.000000 0 0 1
-7.612225 31.476674 -1.301400 32.410193 -1.333515 1.610961 0.071326 -0.031031 -254531.000000 0 0 1
-7.603325 32.539474 -2.291400 33.494454 -1.341250 1.639261 0.070545 -0.019693 286198.000000 0 0 1
-6.479325 32.607974 -3.183000 33.397502 -1.374648 1.666248 0.062821 -0.016986 878511.000000 0 0 1
-5.175225 33.225174 -2.577800 33.724475 -1.416276 1.647308 0.067118 -0.023732 -98399.000000 0 0 1
-5.182625 -33.636807 -2.434600 34.120692 1.417922 1.642210 0.076217 -0.019100 -9282.900000 0 0 1
-4.095225 -33.143407 -1.676800 33.437523 1.447859 1.620965 0.080393 -0.016881 38393.900000 0 0 1
-4.074025 -31.603407 -1.639100 31.907047 1.442592 1.622190 0.100380 -0.022641 534609.000000 0 0 1
-5.226325 -30.982507 -1.066600 31.438318 1.403683 1.604730 0.090057 -0.019118 303037.000000 0 0 1
-5.837325 -29.959707 -1.844600 30.578766 1.378368 1.631156 0.109309 -0.015027 340836.000000 0 0 1
-7.301825 -29.652107 -1.443600 30.572014 1.329350 1.618034 0.132918 -0.019497 231544.000000 0 0 1
-7.395025 -29.296007 -0.058100 30.214993 1.323537 1.572719 0.102917 -0.018209 -496206.000000 0 0 1
-8.644825 -28.719507 0.209300 29.993114 1.278414 1.563818 0.070635 -0.020439 -166406.000000 0 0 1
-8.719725 -28.080007 1.579400 29.445116 1.269706 1.517132 0.079089 -0.018404 16874.700000 0 0 1
-8.178625 -26.773407 1.480900 28.033877 1.274324 1.517946 0.085169 -0.024887 -36435.800000 0 0 1
-7.675825 -26.294907 2.722000 27.527254 1.286775 1.471751 0.085260 -0.014826 -76099.100000 0 0 1
-8.598425 -25.294907 3.358200 26.926617 1.243123 1.445754 0.080749 -0.012783 -359408.000000 0 0 1
-8.190225 -24.024107 3.040700 25.563320 1.242236 1.451566 0.079348 -0.019767 -662843.000000 0 0 1
-8.944625 -23.043107 3.676100 24.990094 1.200530 1.423158 0.083516 -0.017688 -536134.000000 0 1 0
-8.243825 -21.695107 3.928500 23.538722 1.207662 1.403116 0.048302 -0.005011 113117.000000 0 1 0
-7.424625 -21.858007 5.077900 23.636467 1.243349 1.354275 0.047473 -0.003620 -61370.100000 0 1 0
-6.790925 -20.606707 5.478500 22.377824 1.252455 1.323464 0.025836 -0.002428 161248.000000 0 1 0
-7.723125 -19.624207 6.231800 21.990713 1.195862 1.283476 0.035732 -0.001702 175407.000000 0 1 0
-8.122625 -20.122307 7.492300 22.956891 1.187136 1.238342 0.046108 -0.003606 -51374.200000 0 1 0
-8.931325 -19.220207 8.221000 22.732570 1.135798 1.200770 0.038157 0.001078 -176403.000000 0 1 0
-27.532145 29.199374 -5.416700 40.496458 -0.814778 1.704956 0.077230 0.006252 47295.400000 0 0 1
-26.826165 30.204174 -4.666900 40.665897 -0.844561 1.685812 0.069820 -0.005551 -499319.000000 0 0 1
-25.642465 29.591274 -4.220900 39.382680 -0.856769 1.678179 0.052108 -0.001041 -81369.400000 0 0 1
-24.781925 30.627374 -3.451100 39.548577 -0.890505 1.658170 0.035687 -0.007242 -328695.000000 0 0 1
-25.369515 30.885874 -2.203300 40.030039 -0.883145 1.625865 0.020006 -0.013530 107215.000000 0 0 1
-24.654225 31.761574 -1.368800 40.230610 -0.910719 1.604827 0.021709 -0.017836 1544420.000000 0 0 1
-23.307125 31.213074 -0.633600 38.959973 -0.929404 1.587060 0.018635 -0.016915 2109770.000000 0 0 1
-22.273325 30.957574 -1.597800 38.171001 -0.947116 1.612668 0.033236 -0.020582 -366330.000000 0 0 1
-21.105725 30.601074 -0.919700 37.184986 -0.967013 1.595532 0.041017 -0.018957 -273606.000000 0 0 1
-19.995925 30.115474 -1.916000 36.200136 -0.984659 1.623749 0.057244 -0.022948 -14971.100000 0 0 1
-18.858125 29.808174 -1.156800 35.291561 -1.006715 1.603581 0.066476 -0.024476 -439181.000000 0 0 1
-17.887425 29.011374 -1.808300 34.130481 -1.018285 1.623803 0.066252 -0.021450 1875180.000000 0 0 1
-16.416725 29.391174 -1.258700 33.688786 -1.061405 1.608168 0.070154 -0.030379 1540410.000000 0 0 1
-16.176125 28.878974 0.031700 33.100803 -1.060205 1.569839 0.052473 -0.034669 -367142.000000 0 0 1
-15.009625 29.489374 0.514300 33.093451 -1.099987 1.555255 0.059156 -0.039279 -139962.000000 0 0 1
-14.443025 28.878774 1.780800 32.338148 -1.107048 1.515700 0.058907 -0.040701 -421217.000000 0 0 1
-15.237425 29.126774 2.907500 33.000025 -1.088807 1.482576 0.052359 -0.034176 -518491.000000 0 0 1
-14.890225 28.522974 4.126700 32.439305 -1.089670 1.443238 0.049549 -0.040619 267352.000000 0 0 1
-13.757125 29.213374 4.949400 32.667664 -1.130683 1.418703 0.069756 -0.029080 362169.000000 0 0 1
-14.132725 30.398274 5.648000 33.995424 -1.135606 1.403882 0.064076 -0.036310 -271786.000000 0 0 1
-14.236825 31.530174 4.843400 34.932758 -1.146671 1.431699 0.073417 -0.045307 -350146.000000 0 0 1
-13.974925 32.816974 5.674900 36.117265 -1.168211 1.413018 0.080917 -0.031967 -522795.000000 0 0 1
-14.998125 33.222874 6.542700 37.033904 -1.146746 1.393196 0.084936 -0.032741 -557679.000000 0 0 1
-14.657625 -33.956107 7.411700 37.719974 1.163295 1.373017 0.109990 -0.045917 16006.600000 0 0 1
-15.819225 -33.416407 8.287400 37.889116 1.128657 1.350286 0.097581 -0.038747 192949.000000 0 0 1
-15.984325 33.957174 9.409100 38.692628 -1.130846 1.325158 0.077152 -0.040654 -638759.000000 0 0 1
-17.019225 -33.880107 10.236000 39.272017 1.105281 1.307108 0.095849 -0.042063 -1183850.000000 0 0 1
-16.900425 33.677274 11.602700 39.425953 -1.105682 1.272083 0.092401 -0.033357 14799.200000 0 0 1
-15.872225 -34.092207 12.422300 39.604540 1.135072 1.251753 0.101034 -0.031634 -640545.000000 0 0 1
-14.580425 33.664774 12.128900 38.639565 -1.162080 1.251500 0.099539 -0.021248 -845445.000000 0 0 1
-13.659725 33.785474 13.338100 38.806588 -1.186582 1.219935 0.108610 -0.018297 -613235.000000 0 0 1
-13.876225 33.079574 14.536100 38.705375 -1.173610 1.185798 0.096145 -0.018258 -201356.000000 0 0 1
-13.402825 31.759374 14.657400 37.458416 -1.171460 1.168755 0.061878 -0.012629 -75509.700000 0 0 1
-14.253525 30.624474 13.972900 36.554936 -1.135186 1.178573 0.058895 -0.017823 190147.000000 0 0 1
-14.202125 30.502874 12.554200 35.912861 -1.135046 1.213680 0.057734 -0.009354 -439439.000000 0 0 1
-15.379625 29.957174 12.062500 35.769667 -1.096497 1.226826 0.044298 -0.003729 -590860.000000 0 0 1
-15.477025 29.922474 10.525300 35.294117 -1.093454 1.267972 0.043587 0.002879 118454.000000 0 0 1
-14.575125 28.941674 10.033400 33.922321 -1.104270 1.270529 0.027943 0.012661 299334.000000 0 0 1
-14.755525 28.687374 8.670100 33.404514 -1.095730 1.308241 0.031770 0.002750 -542774.000000 0 0 1
-14.087925 27.359674 8.310900 31.876205 -1.095288 1.307024 0.031167 0.001457 -230622.000000 0 0 1
-12.714825 27.449274 8.059900 31.306412 -1.137010 1.310412 0.045561 0.000153 -538717.000000 0 0 1
-12.051025 26.239474 8.105400 29.990577 -1.140260 1.297128 0.051025 -0.006136 262632.000000 0 0 1
-10.835925 26.202674 7.093400 29.228646 -1.178670 1.325662 0.073526 -0.014093 451246.000000 0 0 1
-11.227425 26.311074 5.750100 29.178611 -1.167471 1.372432 0.075131 -0.025683 831448.000000 0 0 1
-10.084025 26.112774 4.891800 28.416443 -1.202267 1.397788 0.098540 -0.020723 666564.000000 0 0 1
-10.417325 26.260974 3.389700 28.454340 -1.193151 1.451385 0.082852 -0.033002 45551.200000 0 0 1
-10.339025 27.637074 3.100000 29.670074 -1.212815 1.466123 0.099015 -0.033364 -56909.300000 0 0 1
-10.635325 28.011774 1.759900 30.014444 -1.207935 1.512128 0.083313 -0.038663 73991.800000 0 0 1
-10.184125 29.405674 1.343800 31.148288 -1.237393 1.527641 0.114379 -0.036399 126004.000000 0 0 1
-10.954925 30.360574 2.031700 32.340418 -1.224509 1.507933 0.099149 -0.044897 -116725.000000 0 0 1
-10.300225 31.630774 2.146200 33.334767 -1.255986 1.506369 0.097404 -0.041667 104957.000000 0 0 1
-11.006625 32.691174 3.078100 34.631393 -1.246032 1.481797 0.088362 -0.037978 334848.000000 0 0 1
-12.287325 33.146974 2.681800 35.452677 -1.215808 1.495079 0.103553 -0.042242 -283307.000000 0 0 1
-12.349025 34.015774 1.515000 36.219698 -1.222554 1.528956 0.088298 -0.029083 288282.000000 0 0 1
-13.765525 -33.826507 0.977600 36.533244 1.184317 1.544034 0.090862 -0.029091 1064640.000000 0 0 1
-14.579125 33.309374 0.485600 36.363458 -1.158228 1.557442 0.081451 -0.026197 60269.500000 0 0 1
-14.920125 33.298674 -0.876800 36.499049 -1.149549 1.594821 0.072134 -0.022071 -142689.000000 0 0 1
-13.795925 33.025074 -1.887700 35.840570 -1.175090 1.623490 0.079026 -0.020807 -122379.000000 0 0 1
-13.387225 31.662574 -1.842900 34.425756 -1.170783 1.624355 0.073392 -0.021049 143316.000000 0 0 1
-12.035525 31.557774 -2.270000 33.851143 -1.206443 1.637905 0.074596 -0.016549 533556.000000 0 0 1
-11.428025 30.100374 -2.247700 32.275136 -1.207943 1.640495 0.046046 -0.022286 168786.000000 0 0 1
-11.647825 29.369374 -3.440900 31.781626 -1.193226 1.679276 0.040293 -0.019507 -185188.000000 0 0 1
-10.539225 29.438974 -4.327800 31.566728 -1.227010 1.708330 0.039593 -0.011705 43375.300000 0 0 1
-10.769125 29.001774 -5.778900 31.471775 -1.215250 1.755466 0.051056 -0.021590 -295290.000000 0 0 1
-11.003525 27.586674 -5.997900 30.299785 -1.191264 1.770064 0.050774 -0.014133 -18791.100000 0 0 1
-10.940825 27.027874 -7.305500 30.059573 -1.186161 1.816289 0.046769 -0.012433 -398185.000000 0 0 1
-11.394925 25.562274 -7.426900 28.955708 -1.151465 1.830187 0.066443 -0.018846 59892.700000 0 0 1
-10.794825 24.596974 -6.560600 27.651055 -1.157238 1.810345 0.035236 -0.009177 -219253.000000 0 0 1
-11.245525 23.337274 -6.856000 26.797293 -1.121758 1.829520 0.076749 -0.020662 -251668.000000 0 0 1
-10.627525 22.302674 -5.902200 25.400581 -1.126114 1.805305 0.056066 -0.015627 -150196.000000 0 0 1
-9.270625 22.032574 -6.210000 24.697022 -1.172515 1.824972 0.058866 -0.015495 120577.000000 0 1 0
-8.774625 20.878474 -5.504700 23.306790 -1.172938 1.809234 0.063300 -0.005557 -64641.800000 0 1 0
-8.422725 21.081974 -3.978200 23.048167 -1.190702 1.744269 0.050460 -0.009497 -231505.000000 0 1 0
-9.474725 20.935674 -3.042500 23.180372 -1.145813 1.702429 0.053179 -0.015688 -132882.000000 0 1 0
-10.088825 19.659574 -2.959700 22.294463 -1.096663 1.703944 0.051682 -0.014884 99998.000000 0 1 0
-11.385025 19.761774 -2.099500 22.903153 -1.048126 1.662594 0.060542 -0.011950 141234.000000 0 1 0
-11.324725 19.647274 -0.678300 22.687549 -1.047909 1.600698 0.053290 -0.017889 207.535000 0 1 0
-11.378725 18.323874 -0.177200 21.570145 -1.015094 1.579011 0.062983 -0.016216 -133994.000000 0 1 0
-10.939225 18.234674 1.274700 21.302461 -1.030441 1.510922 0.049225 -0.025234 62107.000000 0 1 0
-11.999225 18.444874 2.199800 22.114111 -0.994038 1.471157 0.060719 -0.023363 468720.000000 0 1 0
-11.532125 18.589274 3.545800 22.161311 -1.015537 1.410106 0.048259 -0.017817 -154730.000000 0 1 0
-12.758825 18.570674 4.479500 22.972232 -0.968820 1.374543 0.065150 -0.016130 257440.000000 0 1 0
-13.439025 17.334874 4.402200 22.371513 -0.911324 1.372727 0.034896 -0.016913 70354.900000 0 1 0
-14.698625 17.353474 5.031600 23.291836 -0.868039 1.353056 0.055595 -0.019975 -30670.200000 0 1 0
-15.296925 16.003774 5.380300 22.782983 -0.807977 1.332390 0.042145 -0.016953 -400992.000000 0 1 0
-14.742725 15.360874 6.485500 22.256821 -0.805929 1.275113 0.046129 -0.016956 -221325.000000 0 1 0
-15.082925 15.919674 7.732500 23.253434 -0.812381 1.231810 0.038540 -0.014866 -806567.000000 0 1 0
-14.049025 15.708774 8.851100 22.857879 -0.841116 1.173178 0.026849 -0.004200 750097.000000 0 1 0
-12.823725 16.419574 8.722100 22.585955 -0.907747 1.174317 0.024476 -0.017992 585312.000000 0 1 0
-11.867525 15.984274 7.744200 21.361362 -0.932145 1.199812 0.024106 -0.014881 174227.000000 0 1 0
-10.826525 17.138774 7.482100 21.608633 -1.007395 1.217220 0.036142 -0.025757 776397.000000 0 1 0
-9.942025 17.290874 8.602300 21.721366 -1.048972 1.163608 0.039036 -0.014695 226373.000000 0 1 0
-9.290925 18.543674 8.763000 22.516201 -1.106326 1.171048 0.043571 -0.013801 617299.000000 0 1 0
-7.831625 18.493074 9.289800 22.127551 -1.170206 1.137539 0.035046 -0.019924 -309135.000000 0 1 0
-6.875825 17.754974 8.558800 20.875084 -1.201319 1.148341 0.034502 -0.019086 -137836.000000 0 1 0
-5.675325 17.659474 9.308500 20.753663 -1.259846 1.105684 0.033925 -0.024925 204332.000000 0 1 0
-4.676925 18.786174 8.974100 21.338426 -1.326801 1.136733 0.030656 -0.025357 -1442090.000000 0 1 0
-5.064325 20.063574 9.372600 22.716514 -1.323547 1.145501 0.040612 -0.028861 -351165.000000 0 1 0
-4.547625 21.045574 8.522300 23.156569 -1.357984 1.193907 0.049895 -0.031615 -131039.000000 0 1 0
-3.079825 21.464974 8.656000 23.348593 -1.428288 1.191003 0.052736 -0.030341 -161750.000000 0 1 0
-2.073625 20.545874 8.224100 22.227656 -1.470210 1.191794 0.041251 -0.021665 -518154.000000 0 1 0
-0.901825 21.300174 8.187100 22.837235 -1.528483 1.204138 0.031917 -0.021685 -327694.000000 0 1 0
0.424375 20.527074 8.001000 22.035355 1.550125 1.199205 0.022891 -0.010840 266525.000000 0 1 0
0.840275 20.007774 9.238000 22.053520 1.528824 1.138574 0.019719 -0.014559 -500875.000000 0 1 0
2.146575 19.487474 9.091600 21.610799 1.461087 1.136583 0.013738 -0.018627 -132425.000000 0 1 0
2.736575 19.209274 10.429900 22.028796 1.429287 1.077574 0.006924 -0.026605 -862847.000000 0 1 0
4.041175 18.725274 10.498700 21.844672 1.358242 1.069450 0.023111 -0.014115 -670792.000000 0 1 0
4.309775 17.947474 11.677300 21.841367 1.335126 1.006713 0.013436 -0.023487 -260088.000000 0 1 0
5.758475 17.930474 12.149400 22.411378 1.260045 0.997852 0.032169 -0.021184 -48281.200000 0 1 0
6.709375 17.200774 11.371400 21.683890 1.198886 1.018766 0.025868 -0.019755 -60253.500000 0 1 0
7.705475 16.697974 12.201300 22.069627 1.138452 0.985010 0.032252 -0.013526 -57557.200000 0 1 0
8.980975 16.025374 11.596000 21.724128 1.059987 1.007727 0.031507 -0.019875 666043.000000 0 1 0
9.770675 17.039474 10.975300 22.500378 1.050155 1.061248 0.038886 -0.026139 217590.000000 0 1 0
10.949875 16.488274 10.395300 22.356771 0.984572 1.087192 0.038380 -0.025771 291705.000000 0 1 0
11.892875 17.595674 9.840900 23.407083 0.976430 1.136884 0.044384 -0.014849 -809464.000000 0 1 0
13.065775 17.034874 9.393900 23.433881 0.916503 1.158332 0.044889 -0.015591 -1138180.000000 0 1 0
13.846475 17.939274 8.669500 24.263196 0.913456 1.205409 0.055448 -0.009395 518966.000000 0 1 0
14.925975 17.269774 7.748100 24.105246 0.858068 1.243559 0.054545 -0.015254 1649780.000000 0 1 0
16.178575 16.776974 8.304900 24.742363 0.803554 1.228496 0.074586 -0.013206 1475660.000000 0 1 0
16.985075 16.181874 7.276300 24.561970 0.761186 1.270040 0.096245 -0.014254 292948.000000 0 1 0
18.487075 16.064774 7.669400 25.664540 0.715406 1.267327 0.094665 -0.013143 343705.000000 0 0 1
18.599775 15.065674 8.666600 25.456554 0.680804 1.223404 0.096130 -0.011258 141643.000000 0 0 1
19.820075 15.259974 9.344400 26.702435 0.656132 1.213283 0.103480 -0.016682 -288975.000000 0 0 1
20.007675 14.147974 10.423300 26.629259 0.615493 1.168619 0.089793 -0.012915 -49940.000000 0 0 1
20.528375 12.915574 9.932000 26.208222 0.561583 1.182119 0.102053 -0.020913 234772.000000 0 0 1
20.928375 12.134874 11.035300 26.590034 0.525456 1.142836 0.106982 -0.022398 -548362.000000 0 0 1
21.689075 10.955474 10.455400 26.452860 0.467731 1.164460 0.108109 -0.019033 -82152.800000 0 0 1
23.091275 11.262374 10.443200 27.732806 0.453786 1.184711 0.097584 -0.032065 1293960.000000 0 0 1
23.940475 10.395774 9.660100 27.830487 0.409666 1.216314 0.108999 -0.026244 342261.000000 0 0 1
24.177375 8.944374 9.978600 27.642716 0.354334 1.201473 0.116967 -0.035709 -653204.000000 0 0 1
23.054975 8.096074 9.843100 26.343214 0.337711 1.187857 0.109232 -0.023673 325496.000000 0 0 1
23.238175 6.757374 10.288100 26.296766 0.282984 1.168828 0.105205 -0.027693 -753758.000000 0 0 1
24.068875 5.917274 9.349800 26.490445 0.241067 1.210074 0.113886 -0.031595 -218505.000000 0 0 1
23.653875 5.894574 7.973000 25.648013 0.244227 1.254696 0.104181 -0.020485 13179.600000 0 0 1
24.670375 5.431674 7.146400 26.252648 0.216712 1.295101 0.105387 -0.025958 -464657.000000 0 0 1
24.150375 5.103174 5.751700 25.344922 0.208245 1.341865 0.105320 -0.027501 -465709.000000 0 0 1
23.314175 3.983174 5.758100 24.342805 0.169214 1.331991 0.097455 -0.023654 135421.000000 0 1 0
22.946875 3.688374 4.468000 23.666986 0.159372 1.380870 0.100063 -0.022616 -319805.000000 0 1 0
22.103575 2.393474 4.300600 22.644910 0.107864 1.379721 0.087195 -0.021553 -467464.000000 0 1 0
22.708875 1.221074 4.739800 23.230363 0.053719 1.365319 0.103514 -0.025449 441734.000000 0 1 0
22.071375 0.093074 4.153700 22.459018 0.004217 1.384780 0.096534 -0.026551 -281918.000000 0 1 0
22.893275 -1.163426 4.409100 23.343003 -0.050776 1.380772 0.121759 -0.025742 -396133.000000 0 1 0
22.945575 -1.580126 5.797200 23.719270 -0.068756 1.323886 0.118753 -0.028988 628387.000000 0 1 0
22.953875 -3.013126 5.828500 23.873222 -0.130522 1.324160 0.108866 -0.028967 -326727.000000 0 1 0
22.960875 -3.606626 7.261000 24.350188 -0.155804 1.268000 0.136728 -0.032378 -381593.000000 0 1 0
22.702775 -4.977126 7.333800 24.371549 -0.215816 1.265143 0.111745 -0.031834 505515.000000 0 1 0
22.867975 -5.379426 8.715000 25.056611 -0.231038 1.215560 0.150044 -0.035412 -102931.000000 0 0 1
22.458075 -6.865626 8.915300 25.119406 -0.296686 1.207971 0.148130 -0.034523 -417592.000000 0 0 1
21.137175 -7.159626 8.598700 23.916063 -0.326592 1.203025 0.149487 -0.038422 -324672.000000 0 1 0
20.708875 -8.419126 9.062900 24.122093 -0.386137 1.185634 0.131572 -0.032215 -95946.400000 0 1 0
-27.183355 -32.730707 5.256600 42.870337 0.877723 1.447871 0.037911 -0.014242 -309521.000000 0 0 1
-27.814615 -33.871607 5.689300 44.196229 0.883275 1.441710 0.043687 -0.014412 -221762.000000 0 0 1
-27.800545 -34.039007 7.108000 44.520197 0.885939 1.410452 0.046356 -0.007623 -335884.000000 0 0 1
-28.548315 32.966074 7.640000 44.273445 -0.857092 1.397364 0.060292 -0.016465 -124226.000000 0 0 1
-29.940355 33.063474 7.489400 45.229518 -0.834928 1.404444 0.055715 -0.013502 -546202.000000 0 0 1
-30.621235 31.905974 7.928100 44.927786 -0.805942 1.393404 0.065456 -0.020017 519821.000000 0 0 1
-32.159785 32.118674 7.976400 46.146332 -0.784759 1.397074 0.066530 -0.015661 257944.000000 0 0 1
-32.769845 32.069074 6.708100 46.338826 -0.774591 1.425524 0.060073 -0.013085 -284777.000000 0 0 1
-34.167006 32.161374 6.786900 47.410972 -0.755169 1.427152 0.058202 -0.013842 -403212.000000 0 0 1
-34.871111 32.151674 5.443500 47.742604 -0.744846 1.456530 0.041966 -0.008683 -425706.000000 0 0 1
-34.900088 30.863674 4.843600 46.840612 -0.724098 1.467205 0.051867 -0.013283 -22113.400000 0 0 1
-35.464490 30.784874 3.582500 47.098544 -0.714879 1.494659 0.054594 -0.002244 -333878.000000 0 0 1
-35.117233 29.521574 2.812600 45.963617 -0.699045 1.509566 0.071089 -0.013298 -139052.000000 0 0 1
-35.307636 28.305574 3.579600 45.394363 -0.675767 1.491859 0.096818 -0.021528 131296.000000 0 0 1
-34.721643 27.135674 3.051000 44.172909 -0.663371 1.501672 0.085136 -0.024989 -452044.000000 0 0 1
-35.169892 25.804874 3.667900 43.775179 -0.633001 1.486908 0.098002 -0.027183 -599366.000000 0 0 1
-36.514105 25.492574 3.475600 44.668008 -0.609488 1.492908 0.103251 -0.024620 -583289.000000 0 0 1
36.370842 24.573774 4.441100 44.118385 0.594193 1.469962 0.110843 -0.026646 553761.000000 0 0 1
34.891812 24.225174 4.096500 42.674101 0.606886 1.474653 0.117670 -0.025668 12912.500000 0 0 1
34.611922 23.358674 2.953800 41.860933 0.593663 1.500175 0.100759 -0.026162 364885.000000 0 0 1
35.107582 22.003574 3.135200 41.551523 0.559855 1.495271 0.089342 -0.021607 -136531.000000 0 0 1
34.479192 20.965174 2.105000 40.407725 0.546320 1.518679 0.097226 -0.015021 1249540.000000 0 0 1
33.051792 20.743974 2.135600 39.080612 0.560481 1.516123 0.086585 -0.013393 1528420.000000 0 0 1
32.528642 19.941574 3.255200 38.293280 0.549957 1.485687 0.067305 -0.015760 -247198.000000 0 0 1
32.927452 18.445474 3.409300 37.895593 0.510629 1.480709 0.081741 -0.016311 -590461.000000 0 0 1
32.433952 17.693074 2.332000 37.019513 0.499390 1.507761 0.073622 -0.026441 292375.000000 0 0 1
32.661842 16.273974 2.473600 36.575359 0.462252 1.503114 0.068473 -0.026860 -539205.000000 0 0 1
31.689602 15.525674 3.348200 35.446973 0.455559 1.476199 0.088611 -0.028238 -126862.000000 0 0 1
30.342492 15.378074 2.903500 34.140625 0.469086 1.485648 0.081869 -0.020816 406193.000000 0 0 1
29.648182 14.706974 3.941500 33.329345 0.460482 1.452260 0.081067 -0.036578 -2411.060000 0 0 1
28.117162 14.917274 3.922300 32.069991 0.487780 1.448185 0.084756 -0.035623 -37581.200000 0 0 1
27.454362 14.415574 2.795500 31.134637 0.483505 1.480888 0.089583 -0.043868 -332762.000000 0 0 1
26.142162 14.927774 2.746700 30.229050 0.518840 1.479808 0.075733 -0.030622 -74510.500000 0 0 1
25.324262 14.344374 1.566200 29.146737 0.515368 1.517035 0.091755 -0.038054 -150041.000000 0 0 1
25.658162 14.797574 0.271200 29.620652 0.523126 1.561640 0.089571 -0.036894 -490045.000000 0 0 1
26.849462 14.288174 -0.227800 30.415414 0.489042 1.578286 0.090882 -0.037685 -1490110.000000 0 0 1
27.333362 15.132174 -1.370800 31.272583 0.505615 1.614644 0.103348 -0.034480 -79034.600000 0 0 1
27.897062 16.404774 -1.091000 32.381368 0.531584 1.604495 0.077385 -0.033498 184596.000000 0 0 1
29.164112 16.431174 -0.476400 33.477692 0.513076 1.585027 0.090826 -0.038325 -249070.000000 0 0 1
29.743702 17.867574 -0.184800 34.698302 0.540947 1.576122 0.087817 -0.025652 185857.000000 0 0 1
30.097892 18.425774 -1.416000 35.318512 0.549338 1.610899 0.088778 -0.021776 -50857.200000 0 0 1
30.843502 19.605174 -1.223500 36.567491 0.566210 1.604261 0.075793 -0.009952 -28448.900000 0 0 1
30.690852 20.698974 -2.273700 37.088349 0.593361 1.632140 0.079777 -0.006979 185107.000000 0 0 1
31.633122 21.754174 -2.024500 38.444728 0.602425 1.623481 0.068401 0.005319 537449.000000 0 0 1
31.408142 22.792374 -3.003000 38.922766 0.627756 1.648026 0.063151 0.000405 -27711.400000 0 0 1
32.582442 23.805574 -3.096600 40.471099 0.630986 1.647385 0.064230 -0.008166 -91760.700000 0 0 1
32.795362 24.635474 -1.957500 41.064269 0.644261 1.618484 0.071435 -0.011654 413876.000000 0 0 1
33.418042 24.037074 -0.820800 41.173052 0.623552 1.590733 0.073070 0.006261 -588392.000000 0 0 1
33.472032 24.898574 0.410300 41.719112 0.639561 1.560961 0.080372 -0.017115 -304987.000000 0 0 1
34.129442 26.111574 0.232700 42.973099 0.653079 1.565381 0.100827 -0.015869 499458.000000 0 0 1
35.490292 26.041274 0.689900 44.024820 0.633025 1.555125 0.100463 -0.015812 651479.000000 0 0 1
36.327892 27.268374 0.194900 45.423760 0.643897 1.566506 0.089559 -0.020153 -101795.000000 0 0 1
-36.656145 27.138574 -1.178100 45.624150 -0.637300 1.596621 0.081037 -0.025325 162961.000000 0 0 1
35.829122 27.596674 -2.123500 45.274846 0.656323 1.617716 0.071562 -0.021222 -49024.800000 0 0 1
36.326592 27.179874 -3.496100 45.503731 0.642354 1.647703 0.064208 -0.014262 167429.000000 0 0 1
-36.193275 28.093574 -4.103500 46.000443 -0.660065 1.660121 0.061264 -0.007998 109380.000000 0 0 1
-35.691087 27.744074 -5.376700 45.524677 -0.660770 1.689178 0.059529 -0.004850 -534709.000000 0 0 1
-36.655335 27.752174 -6.566200 46.442563 -0.648037 1.712655 0.043400 0.000235 -184805.000000 0 0 1
35.794492 26.740074 -6.355300 45.129448 0.641607 1.712090 0.048565 0.004160 -283561.000000 0 0 1
34.727762 26.697974 -7.274000 44.403945 0.655412 1.735352 0.041472 -0.004298 556428.000000 0 0 1
33.527972 25.885074 -6.656900 42.877457 0.657461 1.726681 0.051610 -0.010282 220682.000000 0 0 1
33.510152 24.484774 -6.848000 42.063399 0.631013 1.734326 0.040875 0.001443 494684.000000 0 0 1
34.574782 23.766174 -6.177400 42.407627 0.602209 1.716984 0.042906 0.004021 537914.000000 0 0 1
34.582202 22.225974 -6.404900 41.604632 0.571226 1.725358 0.037992 0.006430 44087.000000 0 0 1
33.559912 21.537474 -5.716600 40.284116 0.570562 1.713184 0.049099 0.001678 197695.000000 0 0 1
33.831712 20.165174 -5.820300 39.813250 0.537505 1.717512 0.044806 -0.001446 -367526.000000 0 0 1
32.693772 19.337274 -5.259100 38.346721 0.534121 1.708376 0.071806 -0.006553 -202665.000000 0 0 1
31.537582 19.357974 -6.063500 37.498217 0.550510 1.733210 0.048871 -0.012575 -373093.000000 0 0 1
30.499702 18.551374 -5.632900 36.140211 0.546462 1.727297 0.098549 -0.023643 232561.000000 0 0 1
29.239542 18.359174 -6.538600 35.139200 0.560674 1.757964 0.073773 -0.026217 536841.000000 0 0 1
29.241152 17.308774 -7.420400 34.780756 0.534466 1.785797 0.052646 -0.025061 380121.000000 0 0 1
28.114262 17.400474 -8.293300 34.087638 0.554215 1.816556 0.069352 -0.030559 265607.000000 0 0 1
28.135262 16.207074 -9.280500 33.769660 0.522617 1.849196 0.077405 -0.035570 96626.700000 0 0 1
27.091162 16.178374 -10.246700 33.176282 0.538345 1.884787 0.085323 -0.030302 510735.000000 0 0 1
27.327462 15.080974 -11.097700 33.126801 0.504271 1.912409 0.090819 -0.017990 82943.700000 0 0 1
26.443162 15.176074 -12.359000 32.898312 0.521017 1.955919 0.097150 -0.016515 683443.000000 0 0 1
25.022162 15.144874 -12.109500 31.656213 0.544277 1.963331 0.082045 -0.015084 1378630.000000 0 0 1
24.212862 15.156574 -13.292900 31.506914 0.559298 2.006341 0.081663 -0.012157 54660.300000 0 0 1
24.153762 13.774074 -14.046800 31.151917 0.518269 2.038584 0.089759 -0.017112 -488096.000000 0 0 1
25.262662 13.360974 -14.843500 32.203218 0.486486 2.049842 0.107803 -0.025142 338775.000000 0 0 1
25.570962 14.117474 -16.024400 33.316041 0.504446 2.072570 0.122783 -0.031023 -308769.000000 0 0 1
27.020662 13.883174 -16.492400 34.566718 0.474625 2.068169 0.135620 -0.030916 12266.600000 0 0 1
27.157462 12.546274 -16.922300 34.370059 0.432774 2.085591 0.140851 -0.034907 444968.000000 0 0 1
28.507752 12.278374 -17.297400 35.533793 0.406691 2.079204 0.117385 -0.016894 632008.000000 0 0 1
28.562342 10.831874 -17.885900 35.398338 0.362479 2.100497 0.094031 -0.014841 72004.300000 0 0 1
27.948162 10.706974 -19.159800 35.536418 0.365854 2.140235 0.101439 -0.018663 64044.700000 0 0 1
28.090362 9.409174 -19.769500 35.615083 0.323215 2.159265 0.082821 -0.011207 1065120.000000 0 0 1
29.515852 9.055074 -20.387600 36.997758 0.297672 2.154418 0.068337 -0.009732 695244.000000 0 0 1
29.806542 9.881774 -21.578000 38.101043 0.320127 2.172850 0.075025 -0.014856 172162.000000 0 0 1
30.493192 9.275574 -22.618000 39.082540 0.295292 2.187959 0.051521 -0.011827 -512584.000000 0 0 1
31.889792 8.651174 -22.514800 39.983970 0.264908 2.168923 0.038355 -0.010672 -187477.000000 0 0 1
32.941142 9.594174 -22.340100 40.941997 0.283412 2.147964 0.032870 -0.015025 -430121.000000 0 0 1
34.182802 8.982474 -22.430300 41.860090 0.256968 2.136298 0.009659 -0.009988 -512905.000000 0 0 1
35.372172 9.945974 -22.247300 42.954107 0.274103 2.115228 0.022331 -0.013565 -242690.000000 0 0 1
35.371602 10.555774 -20.978000 42.457639 0.290011 2.087587 0.015684 -0.013474 -95252.500000 0 0 1
36.107902 11.715574 -20.917200 43.342410 0.313744 2.074421 -0.013989 -0.005122 -483127.000000 0 0 1
35.926622 12.391574 -19.583300 42.752531 0.332136 2.046610 -0.027577 -0.001689 -130949.000000 0 0 1
-36.673955 11.738074 -18.636800 42.779570 -0.309763 2.021553 -0.002191 -0.007331 220564.000000 0 0 1
36.620812 12.402474 -17.357900 42.381623 0.326548 1.992770 0.004008 -0.001149 -139018.000000 0 0 1
-36.358655 11.563074 -16.178200 41.441412 -0.307913 1.971849 -0.000278 -0.004791 44108.000000 0 0 1
36.104932 10.548874 -15.811600 40.802593 0.284260 1.968730 -0.001484 -0.008028 360696.000000 0 0 1
36.673512 9.560274 -14.972200 40.749382 0.255011 1.947031 -0.001018 -0.010544 -265080.000000 0 0 1
35.772252 8.374474 -14.598300 39.533482 0.229964 1.949013 0.049231 -0.007086 -420216.000000 0 0 1
34.827272 8.700574 -13.609800 38.390956 0.244810 1.933181 0.077878 -0.018650 465017.000000 0 0 1
35.317172 8.501974 -12.270200 38.342457 0.236237 1.896543 0.070335 -0.017230 -180062.000000 0 0 1
34.192952 8.905274 -11.288800 37.093111 0.254782 1.880038 0.087173 -0.017183 -49462.500000 0 0 1
34.128532 10.322774 -11.180300 37.367305 0.293719 1.874651 0.075694 -0.024509 170129.000000 0 0 1
33.053722 10.856274 -10.425900 36.319508 0.317343 1.861953 0.064029 -0.019887 -160745.000000 0 0 1
33.093582 10.601074 -8.913800 35.875114 0.310008 1.821894 0.082893 -0.020453 -307537.000000 0 0 1
34.206872 11.170074 -8.267700 36.922019 0.315628 1.796634 0.078508 -0.026079 74482.500000 0 0 1
34.023932 12.531174 -8.051600 37.141440 0.352888 1.789313 0.074849 -0.027997 -567022.000000 0 0 1
33.845152 12.841674 -6.565700 36.790098 0.362644 1.750221 0.073544 -0.032925 -507519.000000 0 0 1
35.012442 12.603274 -5.827200 37.665234 0.345525 1.726131 0.081631 -0.031581 -197899.000000 0 0 1
34.843292 12.898074 -4.451000 37.419603 0.354533 1.690027 0.075347 -0.030449 -165724.000000 0 0 1
36.091322 12.589174 -3.607100 38.393776 0.335618 1.664885 0.079058 -0.018760 -159705.000000 0 0 1
-36.346195 13.601774 -3.655400 38.979688 -0.358094 1.664711 0.073352 -0.014470 -1143340.000000 0 0 1
-35.245461 13.202774 -2.936900 37.751571 -0.358416 1.648670 0.073916 -0.020927 -505470.000000 0 0 1
-34.275696 14.435174 -2.734700 37.291770 -0.398604 1.644195 0.061143 -0.025274 461906.000000 0 0 1
-34.798963 15.469474 -1.901300 38.129875 -0.418303 1.620681 0.081687 -0.025188 765499.000000 0 0 1
-33.862315 16.575074 -1.901200 37.749225 -0.455200 1.621182 0.084695 -0.019462 611947.000000 0 0 1
-34.236209 17.710074 -0.930700 38.556853 -0.477384 1.594937 0.091837 -0.014522 -43215.700000 0 0 1
-35.386342 18.384274 -1.401800 39.901626 -0.479149 1.605935 0.070591 -0.009116 6356.910000 0 0 1
-35.836086 19.224274 -0.372200 40.668615 -0.492381 1.579948 0.059197 -0.006844 120634.000000 0 0 1
36.467282 20.115374 -0.971500 41.658550 0.504071 1.594119 0.053591 -0.005146 151891.000000 0 0 1
-36.361455 21.333674 -1.396200 42.180925 -0.530591 1.603903 0.057882 -0.003512 386257.000000 0 0 1
36.403342 21.937274 -2.525100 42.577264 0.542342 1.630137 0.050107 0.003839 404338.000000 0 0 1
-36.276785 23.273274 -2.979300 43.203317 -0.570410 1.639811 0.069664 -0.012941 587129.000000 0 0 1
-35.012200 23.066674 -3.579800 42.080168 -0.582549 1.655970 0.060513 -0.001304 34460.400000 0 0 1
-34.338915 24.279874 -3.875800 42.233815 -0.615452 1.662696 0.060343 -0.009039 570688.000000 0 0 1
-32.881295 24.135574 -4.395500 41.024699 -0.633196 1.678145 0.060515 -0.024163 23327.200000 0 0 1
-32.712265 23.354774 -5.557800 40.576186 -0.620024 1.708200 0.040120 -0.006619 -441548.000000 0 0 1
-31.371945 23.438174 -5.965300 39.612267 -0.641647 1.721964 0.059222 -0.002851 -308785.000000 0 0 1
-30.940385 22.545574 -7.153200 38.945842 -0.629715 1.755515 0.059962 -0.019972 -196931.000000 0 0 1
-31.692435 22.745474 -8.331200 39.889546 -0.622503 1.781202 0.058133 -0.022512 -285970.000000 0 0 1
-31.177435 22.156574 -9.489100 39.407984 -0.617845 1.813977 0.036373 -0.017642 309316.000000 0 0 1
-32.239495 22.040174 -10.643900 40.477733 -0.599661 1.836882 0.024686 -0.002276 310193.000000 0 0 1
-32.785525 23.282074 -11.038000 41.698717 -0.617494 1.838698 0.035928 -0.004165 -33380.000000 0 0 1
-33.296285 23.195774 -12.346500 42.416065 -0.608472 1.866153 0.021605 -0.002163 -167826.000000 0 0 1
-33.860465 24.579674 -12.874300 43.777152 -0.627905 1.869297 0.040542 -0.003380 268766.000000 0 0 1
-32.865615 25.555774 -13.072200 43.636322 -0.660922 1.875040 0.037186 -0.010537 407708.000000 0 0 1
-31.940925 25.319074 -14.151500 43.145604 -0.670264 1.904976 0.029328 -0.015036 1273710.000000 0 0 1
-30.511075 26.013974 -14.062000 42.489909 -0.706006 1.908106 0.040114 -0.010158 1445110.000000 0 0 1
-29.553365 25.471674 -13.143300 41.169817 -0.711355 1.895730 0.047492 -0.020271 593847.000000 0 0 1
-29.932325 25.477374 -11.745300 41.024294 -0.705171 1.861160 0.055404 -0.014375 -471632.000000 0 0 1
-29.893395 26.892974 -11.129800 41.721931 -0.732610 1.840827 0.063592 -0.001487 592095.000000 0 0 1
-28.570545 27.407074 -10.963700 41.080731 -0.764617 1.840952 0.060468 -0.005027 327729.000000 0 0 1
-28.515195 28.249474 -9.870900 41.335019 -0.780717 1.811929 0.058211 -0.008865 592036.000000 0 0 1
-27.358805 29.296574 -9.767900 41.257791 -0.819588 1.809819 0.068733 -0.007405 529470.000000 0 0 1
-27.791935 30.401874 -8.989500 42.160131 -0.830217 1.785669 0.063582 -0.008645 281091.000000 0 0 1
-26.786905 31.416474 -8.867600 42.227567 -0.864772 1.782367 0.063978 -0.005333 207542.000000 0 0 1
35.283942 -24.923226 -34.009492 54.979717 -0.614983 2.237734 0.053629 -0.018872 -169391.000000 0 0 1
35.069912 -23.563426 -33.777590 54.093062 -0.591616 2.245204 0.045826 -0.019239 -382189.000000 0 0 1
34.005082 -23.474426 -32.898290 52.817533 -0.604200 2.243198 0.045228 -0.009473 -550660.000000 0 0 1
33.532692 -22.057226 -32.523260 51.659705 -0.581827 2.251792 0.029668 -0.001184 410876.000000 0 0 1
32.686662 -21.593226 -33.605680 51.614213 -0.583800 2.279821 0.026291 -0.004342 350404.000000 0 0 1
32.219882 -20.299926 -33.461020 50.693665 -0.562218 2.291699 0.016600 -0.000347 -37527.500000 0 0 1
31.918182 -19.686626 33.358395 50.190797 -0.552669 0.843796 0.018948 -0.000950 232365.000000 0 0 1
33.074252 -19.318926 32.607501 50.302845 -0.528652 0.865547 0.034467 -0.010692 395031.000000 0 0 1
32.728992 -18.667326 31.455725 49.082773 -0.518341 0.875164 0.044804 -0.002682 73162.200000 0 0 1
33.941462 -18.506026 30.486885 49.233586 -0.499176 0.903035 0.033107 -0.004540 538490.000000 0 0 1
34.968232 -17.633526 30.979915 49.934694 -0.467060 0.901533 0.015044 -0.007741 599372.000000 0 0 1
36.043962 -17.588126 30.057155 50.119277 -0.453972 0.927655 0.033909 -0.004043 -30363.500000 0 0 1
-36.361275 -16.474726 30.439695 50.200935 0.425416 0.919325 0.028539 -0.013069 -699385.000000 0 0 1
-35.432125 -16.292126 29.400465 48.839084 0.430984 0.924810 0.050705 -0.006276 242041.000000 0 0 1
-34.359233 -15.404526 29.587205 47.887984 0.421470 0.904801 0.054072 -0.009770 -358096.000000 0 0 1
-33.219395 -15.884626 30.448635 47.780424 0.446034 0.879857 0.074362 -0.016468 -680960.000000 0 0 1
-32.229205 -14.882826 30.778535 46.984448 0.432607 0.856509 0.066348 -0.012150 -110907.000000 0 0 1
-31.164095 -15.501326 31.385205 46.867078 0.461573 0.837040 0.071611 -0.019243 -400104.000000 0 0 1
-30.035795 -14.580626 31.953915 46.214676 0.451933 0.807339 0.073302 -0.026268 201191.000000 0 0 1
-30.327175 -13.813726 33.118467 46.982863 0.427410 0.788507 0.079638 -0.025657 -296954.000000 0 0 1
-29.209315 -13.232726 33.699049 46.517900 0.425372 0.760586 0.071609 -0.031160 -448228.000000 0 0 1
-29.604705 -12.685426 -33.044780 46.144513 0.404826 2.369017 0.063632 -0.018554 -7065.160000 0 0 1
-29.533655 -13.616026 -31.971310 45.604798 0.431992 2.347667 0.069674 -0.014260 144010.000000 0 0 1
-29.871955 -12.975626 -30.742530 44.786200 0.409784 2.327363 0.073819 -0.008469 -297696.000000 0 0 1
-29.956845 -13.939126 -29.572310 44.342229 0.435510 2.300852 0.073002 -0.008103 -11535.100000 0 0 1
-31.031075 -14.860526 -29.690620 45.445525 0.446619 2.282762 0.064972 -0.009056 -30534.800000 0 0 1
-31.220115 -15.530826 -28.469760 45.015879 0.461615 2.255493 0.068566 -0.008089 315891.000000 0 0 1
-32.540305 -16.335326 -28.431140 46.195714 0.465249 2.233753 0.052467 -0.011465 -21673.500000 0 0 1
-32.429265 -17.517926 -29.235400 47.045122 0.495279 2.241367 0.051907 -0.004173 641599.000000 0 0 1
-33.581685 -18.373526 -29.254270 48.178089 0.500637 2.223342 0.039919 -0.002974 96547.400000 0 0 1
-33.355575 -19.788926 -29.918420 48.982729 0.535458 2.227861 0.041842 -0.001554 164308.000000 0 0 1
-34.554590 -20.515826 -30.157900 50.243584 0.535791 2.214590 0.026957 -0.010016 311833.000000 0 0 1
-34.241873 -21.659326 -30.926550 50.971401 0.564002 2.222753 0.026524 -0.011568 -295009.000000 0 0 1
-35.404334 -22.633826 -31.158350 52.312519 0.568813 2.208833 0.031685 -0.013185 -152532.000000 0 0 1
-35.756408 -23.238926 -29.926720 52.097763 0.576321 2.182709 0.028247 -0.008993 38215.500000 0 0 1
36.630962 -24.227226 -30.047050 53.212884 -0.584338 2.170814 0.048283 -0.013068 185361.000000 0 0 1
-36.443485 -25.677496 -30.457090 53.991626 0.613796 2.170148 0.042257 -0.009499 -34937.500000 0 0 1
-36.049423 -25.880516 -31.784540 54.585886 0.622650 2.192333 0.054175 -0.008740 -447420.000000 0 0 1
-35.318959 -27.056306 -31.928800 54.762403 0.653698 2.193265 0.052436 -0.005138 -92271.700000 0 0 1
-35.616495 -27.727286 -33.247220 56.059921 0.661490 2.205658 0.068567 -0.013464 1150100.000000 0 0 1
36.431682 -28.187036 -33.356490 56.872066 -0.658495 2.197549 0.062139 -0.010635 758390.000000 0 0 1
36.175052 -29.399776 -34.038928 57.720272 -0.682442 2.201511 0.061899 -0.005996 147299.000000 0 0 1
-36.585715 -30.687376 -33.439140 58.295846 0.697944 2.181704 0.063891 -0.011349 224836.000000 0 0 1
36.481712 -30.836486 -32.046650 57.522100 -0.701735 2.161709 0.071044 -0.022819 347482.000000 0 0 1
-36.127835 -31.826616 -31.384400 57.472902 0.722187 2.148466 0.073718 -0.028665 174867.000000 0 0 1
-36.678845 -32.260536 -30.013320 57.331311 0.721396 2.121758 0.061272 -0.032479 -2571.290000 0 0 1
35.657522 -33.150836 -30.120330 57.250948 -0.748984 2.124817 0.069896 -0.024469 23202.200000 0 0 1
34.968512 -33.380706 -28.899490 56.322721 -0.762172 2.109595 0.065180 -0.029962 410199.000000 0 0 1
33.712992 33.934752 -28.921410 55.897953 0.788676 2.114602 0.068435 -0.030516 421075.000000 0 0 1
32.684162 -33.870186 -29.799310 55.708552 -0.803217 2.135203 0.069369 -0.028735 -45228.300000 0 0 1
31.472042 33.715009 -29.458930 54.726774 0.819793 2.139204 0.055869 -0.019053 -353102.000000 0 0 1
30.316312 -34.069826 -30.317230 54.762818 -0.843629 2.157489 0.023029 -0.009294 -540893.000000 0 0 1
30.212172 33.311098 -31.432560 54.867207 0.834144 2.180817 0.034654 -0.010792 267991.000000 0 0 1
28.917782 33.459058 -31.996040 54.584735 0.858074 2.197122 0.032872 -0.000708 317721.000000 0 0 1
28.769372 32.641278 -33.290060 54.784650 0.848364 2.223898 0.034690 -0.012476 -56371.500000 0 0 1
28.602442 31.248435 -33.132440 53.780321 0.829579 2.234540 0.030657 -0.016374 58343.800000 0 0 1
28.292662 30.673355 33.796517 53.698547 0.825750 0.890048 0.035354 -0.012165 -183591.000000 0 0 1
28.384152 29.095525 33.890154 52.922133 0.797774 0.875806 0.033068 -0.035923 1019960.000000 0 0 1
29.719262 28.537605 33.892620 53.351093 0.765117 0.882432 0.046206 -0.031744 640521.000000 0 0 1
29.719712 27.248255 -33.804100 52.616023 0.742042 2.268511 0.045142 -0.038823 19137.500000 0 0 1
31.119222 26.646605 -33.618490 52.996702 0.708126 2.257965 0.077713 -0.041582 -10739.200000 0 0 1
31.840432 27.145105 -32.514410 52.989213 0.705964 2.231414 0.083931 -0.031546 335022.000000 0 0 1
33.161362 26.597675 -32.498910 53.509732 0.676001 2.223512 0.088779 -0.028246 387979.000000 0 0 1
33.960062 26.924125 -31.256540 53.433750 0.670346 2.195626 0.084790 -0.022637 -1010160.000000 0 0 1
34.676942 28.136655 -31.202950 54.477388 0.681650 2.180676 0.075762 -0.017621 22600.100000 0 0 1
34.072912 29.442525 -31.290510 54.835405 0.712625 2.178064 0.072294 -0.009657 15615.900000 0 0 1
32.993962 29.822045 -30.227350 53.774051 0.734946 2.167741 0.062437 -0.012584 133741.000000 0 0 1
33.542292 30.099985 -28.971510 53.576514 0.731362 2.142125 0.058745 -0.011324 217472.000000 0 0 1
32.540392 30.299685 -27.950210 52.518209 0.749756 2.131994 0.063666 -0.016235 441170.000000 0 0 1
33.099622 30.582905 -26.519120 52.289223 0.745899 2.102685 0.061709 -0.018326 226073.000000 0 0 1
33.741912 31.885815 -26.455770 53.433413 0.757123 2.088765 0.061562 -0.022603 350764.000000 0 0 1
34.027512 32.200874 -25.071090 53.134992 0.757824 2.062170 0.047976 -0.025322 -88127.900000 0 0 1
34.163782 33.675636 -24.796900 54.000914 0.778203 2.047884 0.051677 -0.026399 -575603.000000 0 0 1
32.968652 -33.843796 -24.835400 53.377258 -0.798496 2.054748 0.057267 -0.015426 -426867.000000 0 0 1
33.106552 -32.467696 -24.510300 52.449498 -0.775656 2.057045 0.051956 -0.022161 -856290.000000 0 0 1
33.523222 -31.568736 -25.741880 52.754487 -0.755381 2.080543 0.055806 -0.023020 -25681.300000 0 0 1
34.843972 -31.715496 -26.219280 53.920550 -0.738430 2.078598 0.069614 -0.030859 -51902.800000 0 0 1
35.782882 -31.051786 -25.364830 53.740140 -0.714728 2.062343 0.075880 -0.034563 -1175770.000000 0 0 1
-36.263365 -31.182146 -26.037070 54.454447 0.710202 2.069337 0.061314 -0.027309 -513287.000000 0 0 1
-35.579013 -32.464076 -26.064220 54.764276 0.739651 2.066823 0.052597 -0.034586 427475.000000 0 0 1
-35.495952 -33.255756 -24.859500 54.625110 0.752826 2.043273 0.057059 -0.022928 -735841.000000 0 0 1
-34.463861 -32.733706 -23.838500 53.174498 0.759657 2.035667 0.029508 -0.022032 -296068.000000 0 0 1
-34.611453 -31.390246 -23.452500 52.281162 0.736632 2.035977 -0.018986 -0.016267 -123318.000000 0 0 1
-34.011485 -31.202216 -22.172400 51.205221 0.742347 2.018626 0.014198 -0.013649 26479.600000 0 0 1
-33.541755 -29.729866 -21.936800 49.901277 0.725224 2.025954 0.014916 -0.002176 -50812.800000 0 0 1
-34.582025 -28.765226 -22.028800 50.086152 0.693831 2.026193 0.005037 0.001433 -24896.500000 0 0 1
-34.678340 -28.339266 -23.430900 50.544122 0.685143 2.052820 0.010892 -0.000260 -911203.000000 0 0 1
-35.871877 -27.496326 -23.733500 51.050157 0.653987 2.054324 0.012008 0.002034 -987704.000000 0 0 1
-35.818973 -26.253566 -23.122400 50.068891 0.632500 2.050833 -0.002834 0.002469 287286.000000 0 0 1
-36.684595 -25.195546 -23.621100 50.383840 0.601822 2.058754 0.020423 0.003318 195022.000000 0 0 1
-36.511745 -24.642026 -25.070230 50.683857 0.593686 2.088216 0.026811 0.006944 -482835.000000 0 0 1
-35.497540 -23.671626 -25.125660 49.514846 0.588131 2.103004 0.007041 0.005532 -199305.000000 0 0 1
-35.204943 -23.342726 -26.466260 49.847104 0.585496 2.130516 0.017872 0.001863 192128.000000 0 0 1
-34.002665 -22.352726 -26.575590 48.601312 0.581547 2.149343 0.019062 -0.008080 -134095.000000 0 0 1
-34.081096 -21.096226 -25.911640 47.728240 0.554274 2.144682 0.023680 -0.004833 -168003.000000 0 0 1
-35.073933 -20.167826 -26.289240 48.249830 0.521841 2.147014 0.030700 -0.005353 441881.000000 0 0 1
-36.319105 -20.124626 -25.327400 48.636973 0.505990 2.118518 0.038282 -0.016902 437094.000000 0 0 1
-36.122735 -19.417526 -24.079600 47.557538 0.493229 2.101715 0.032123 -0.023060 75211.100000 0 0 1
-35.324200 -20.091526 -23.099200 46.744428 0.517144 2.087664 0.013006 -0.013316 34772.300000 0 0 1
-35.941796 -21.403626 -22.477900 47.488776 0.537110 2.063864 0.014335 -0.003122 493816.000000 0 0 1
36.296092 -21.033926 -21.774300 47.264706 -0.525217 2.049567 0.015266 -0.001414 156212.000000 0 0 1
35.690332 -22.116926 -21.150600 47.013893 -0.554771 2.037427 0.016074 0.010828 786507.000000 0 0 1
34.560262 -21.880626 -20.030700 45.545608 -0.564414 2.026166 0.023530 0.001356 -81517.600000 0 0 1
33.483522 -21.243626 -20.555900 44.665232 -0.565366 2.049041 0.039953 0.004261 -1586720.000000 0 0 1
32.497442 -21.151526 -19.563200 43.430284 -0.576985 2.038066 0.038142 0.006384 259781.000000 0 0 1
31.078662 -20.811126 -20.122000 42.472121 -0.590050 2.064363 0.042749 0.000153 -3692.450000 0 0 1
30.588592 -21.769026 -21.052100 43.043506 -0.618516 2.081841 0.043699 -0.005149 -27354.700000 0 0 1
29.380842 -21.464026 -21.696700 42.363724 -0.630933 2.108486 0.060740 -0.010545 -196375.000000 0 0 1
29.408162 -20.304426 -22.694000 42.333525 -0.604278 2.136579 0.051227 -0.012105 -595384.000000 0 0 1
29.414262 -19.071026 -22.036200 41.406484 -0.575221 2.131984 0.042084 -0.006042 -128359.000000 0 0 1
29.694032 -17.987926 -22.901700 41.590731 -0.544656 2.153932 0.030536 -0.007173 -571296.000000 0 0 1
30.444982 -16.882226 -22.142800 41.257849 -0.506304 2.137309 0.011626 -0.007228 -305605.000000 0 0 1
29.703792 -16.399626 -20.986700 39.896172 -0.504458 2.124726 -0.002325 -0.010741 380008.000000 0 0 1
30.397662 -15.561826 -20.070300 39.610671 -0.473155 2.102137 -0.007366 -0.009410 537388.000000 0 0 1
31.515572 -16.337526 -19.254900 40.384368 -0.478255 2.067797 0.007717 -0.011723 549151.000000 0 0 1
32.637162 -16.771426 -19.979400 41.780875 -0.474686 2.069395 0.012032 -0.010152 -573503.000000 0 0 1
33.460342 -17.635826 -19.263100 42.446247 -0.485066 2.041848 0.012422 -0.001159 -326727.000000 0 0 1
34.638202 -18.053526 -20.174900 43.963183 -0.480466 2.047558 0.017518 -0.011792 140366.000000 0 0 1
35.470962 -16.912526 -20.457800 44.302870 -0.444915 2.050788 0.026999 -0.014768 303035.000000 0 0 1
36.471552 -17.282126 -21.386200 45.675109 -0.442511 2.058077 0.045008 -0.016329 47344.900000 0 0 1
-36.037792 -16.131426 -21.853200 45.127682 0.420877 2.076305 0.068186 -0.025182 450915.000000 0 0 1
-35.162437 -15.552226 -20.843900 43.734847 0.416429 2.067576 0.074501 -0.021658 612062.000000 0 0 1
-34.288486 -14.604826 -21.462300 43.007342 0.402666 2.093285 0.081849 -0.027211 435265.000000 0 0 1
-33.036285 -14.330726 -20.556400 41.464821 0.409290 2.089501 0.087991 -0.026546 1012650.000000 0 0 1
-31.945405 -15.259526 -20.500500 40.910054 0.445629 2.095679 0.093706 -0.029855 740394.000000 0 0 1
-32.258185 -16.493426 -19.888300 41.329990 0.472642 2.072828 0.075645 -0.033140 -190820.000000 0 0 1
-31.080865 -17.484026 -20.106400 40.938718 0.512415 2.084188 0.057578 -0.041609 136476.000000 0 0 1
-31.180675 -18.709526 -19.388200 41.209017 0.540446 2.060636 0.061048 -0.039892 607890.000000 0 0 1
-30.084635 -19.605226 -19.660900 40.938992 0.577548 2.071735 0.062628 -0.042692 303423.000000 0 0 1
-30.345225 -20.980426 -19.125900 41.554915 0.604925 2.049080 0.045529 -0.010916 -498451.000000 0 0 1
-31.317545 -21.632226 -19.895900 42.948674 0.604483 2.052453 0.036102 -0.013485 80635.800000 0 0 1
-31.480555 -22.934726 -19.380800 43.504510 0.629622 2.032517 0.019271 0.006405 -13830.200000 0 0 1
-32.585255 -23.680026 -20.147300 45.038385 0.628428 2.034581 0.004115 0.007251 -25547.400000 0 0 1
-32.111505 -23.901426 -21.478700 45.428641 0.639860 2.063263 0.006229 0.005681 12733.500000 0 0 1
-32.896595 -24.814526 -22.177100 46.794982 0.646260 2.064534 0.003873 0.008772 -493295.000000 0 0 1
-32.514575 -25.033626 -23.649400 47.362159 0.656129 2.093623 0.006645 0.011862 -359909.000000 0 0 1
-31.231365 -25.552456 -23.873000 46.885459 0.685720 2.105025 0.022881 0.011931 -274255.000000 0 0 1
-31.114585 -25.903586 -25.271990 47.726163 0.694259 2.128832 0.027676 0.016644 -495939.000000 0 0 1
-29.705535 -26.332886 -25.663170 47.269842 0.725286 2.144692 0.036426 0.006811 -351452.000000 0 0 1
-28.833385 -25.232676 -25.761340 46.170322 0.718898 2.162726 0.040129 0.005394 -153925.000000 0 0 1
-27.511795 -25.532696 -26.141340 45.740431 0.748105 2.179147 0.036920 0.005672 66522.300000 0 0 1
-26.614805 -24.330426 -26.406250 44.694602 0.740588 2.202865 0.039278 0.006306 -50111.600000 0 0 1
-26.741705 -23.774726 -27.680540 45.239017 0.726733 2.229223 0.028607 0.004766 88409.400000 0 0 1
-25.802775 -22.722426 -27.733560 44.172867 0.722004 2.249573 0.050378 -0.010238 82105.200000 0 0 1
-25.687715 -22.211526 -29.190450 44.780497 0.712952 2.280826 0.024177 -0.008975 -325710.000000 0 0 1
-24.989025 -23.128626 -29.961060 45.354711 0.746754 2.292406 0.030926 -0.001996 -48395.300000 0 0 1
-24.761925 -22.616426 -31.295550 45.870111 0.740145 2.321652 0.024490 -0.005764 -516535.000000 0 0 1
-24.165425 -23.651226 -32.259890 46.733807 0.774645 2.332686 0.034160 -0.011222 -551628.000000 0 0 1
-25.059625 -24.691326 -32.529040 47.914348 0.777995 2.317059 0.007443 -0.012422 -575979.000000 0 0 1
-24.578725 -25.785146 -33.299610 48.763218 0.809348 2.322499 0.023152 -0.001827 -42615.800000 0 0 1
-20.432525 -14.048726 -11.437300 27.306896 0.602333 2.002967 0.048256 0.017140 -30853.300000 0 0 1
-20.638525 -13.725026 -10.095200 26.762625 0.586862 1.957581 0.057300 0.012470 -263076.000000 0 0 1
-19.792125 -14.421826 -9.255200 26.179686 0.629706 1.932134 0.059709 -0.004322 -290039.000000 0 0 1
-20.057825 -14.061726 -7.725800 25.685335 0.611437 1.876313 0.083198 -0.025380 -496922.000000 0 0 1
-21.230825 -14.642126 -7.247300 26.789235 0.603755 1.844740 0.103361 -0.020647 -172084.000000 0 0 1
-21.622125 -14.084026 -6.001500 26.493283 0.577338 1.799309 0.109411 -0.033626 353813.000000 0 0 1
-22.911025 -14.685426 -5.364400 27.737223 0.570006 1.765423 0.097727 -0.030132 88428.600000 0 0 1
-22.648425 -15.959926 -4.796000 28.118890 0.613861 1.742196 0.082667 -0.035961 346882.000000 0 0 1
-21.893125 -15.993226 -3.610100 27.351874 0.630913 1.703170 0.093312 -0.036272 -251300.000000 0 0 1
-21.727525 -17.464526 -3.182000 28.057443 0.677052 1.684451 0.070998 -0.025544 515841.000000 0 0 1
-22.998925 -18.098826 -2.982800 29.417939 0.666728 1.672365 0.056915 -0.025395 761234.000000 0 0 1
-22.992325 -19.088926 -2.014100 29.951472 0.692904 1.638093 0.045493 -0.019174 794580.000000 0 0 1
-24.227125 -20.072726 -2.176800 31.537380 0.691893 1.639874 0.019616 -0.025857 983555.000000 0 0 1
-24.003925 -21.117226 -3.137400 32.124273 0.721509 1.668617 0.026726 -0.032241 273888.000000 0 0 1
-25.211215 -21.863926 -3.135300 33.518155 0.714412 1.664474 0.028920 -0.025902 310145.000000 0 0 1
-25.137335 -23.022326 -4.152000 34.338785 0.741510 1.692006 0.027986 -0.022684 -683586.000000 0 0 1
-24.175025 -24.060826 -3.853800 34.325019 0.783031 1.683307 0.036069 -0.017427 193453.000000 0 0 1
-23.918825 -24.915526 -4.957100 34.892212 0.805805 1.713348 0.044533 -0.021936 194664.000000 0 0 1
-22.486225 -24.644126 -5.471000 33.806731 0.831152 1.733343 0.042076 -0.011593 -72942.500000 0 0 1
-22.348325 -23.328726 -6.061500 32.869725 0.806859 1.756268 0.029896 -0.003915 120086.000000 0 0 1
-21.941025 -22.302526 -5.170700 31.710367 0.793569 1.734588 0.023411 -0.010756 -1111480.000000 0 0 1
-21.819425 -20.914326 -5.833600 30.781930 0.764221 1.761463 0.032474 -0.000617 -821481.000000 0 0 1
-20.683525 -20.702726 -6.595900 29.998616 0.785862 1.792481 0.029772 0.004498 -610924.000000 0 0 1
-20.643225 -19.368326 -7.097300 29.182982 0.753546 1.816460 0.026088 0.005314 76156.500000 0 0 1
-19.398625 -18.842926 -7.842000 28.157760 0.770868 1.853031 0.052081 0.007097 -260626.000000 0 0 1
-19.436425 -19.297526 -9.132300 28.871578 0.781812 1.892631 0.033411 0.005755 174660.000000 0 0 1
-18.205625 -19.392026 -9.844500 28.362116 0.816943 1.925274 0.085485 0.004797 164370.000000 0 0 1
-17.767825 -18.014226 -10.426300 27.366323 0.792284 1.961663 0.089078 0.009922 -156886.000000 0 0 1
-17.409225 -16.939126 -9.626300 26.128160 0.771713 1.948112 0.097136 -0.008972 -693544.000000 0 0 1
-16.075025 -17.019926 -9.244200 25.170211 0.813942 1.946866 0.118393 -0.013691 -792537.000000 0 0 1
-15.803525 -15.897926 -8.226500 23.878248 0.788376 1.922522 0.110655 -0.017303 31863.300000 0 1 0
-16.665025 -16.018026 -7.115000 24.185190 0.765605 1.869402 0.096343 -0.014277 16856.800000 0 1 0
-16.616725 -14.930426 -6.252800 23.197643 0.731996 1.843716 0.099339 -0.026414 494612.000000 0 1 0
-17.703525 -14.982126 -5.089400 23.744070 0.702330 1.786817 0.126309 -0.029373 535827.000000 0 1 0
-17.712925 -13.749326 -4.384400 22.847639 0.660079 1.763891 0.102543 -0.031075 261221.000000 0 1 0
-18.122925 -14.042226 -3.034100 23.126398 0.659205 1.702372 0.092610 -0.029750 4814.950000 0 1 0
-19.120825 -13.043226 -2.440200 23.274154 0.598644 1.675835 0.109993 -0.031818 -9497.140000 0 1 0
-20.462925 -13.121626 -2.880700 24.478700 0.570192 1.688752 0.127769 -0.038585 383717.000000 0 1 0
-21.230325 -12.176826 -2.174600 24.570931 0.520750 1.659415 0.127378 -0.031523 -535539.000000 0 1 0
-22.734125 -12.188926 -2.461400 25.912715 0.492149 1.665928 0.103580 -0.026222 -334081.000000 0 0 1
-22.962725 -11.523126 -3.680000 25.954028 0.465102 1.713065 0.107779 -0.036150 -574901.000000 0 0 1
-24.332425 -11.357626 -3.809500 27.121483 0.436711 1.711723 0.091347 -0.028451 -821873.000000 0 0 1
-24.711725 -10.653326 -5.132300 27.395313 0.407029 1.759252 0.102686 -0.035859 26397.700000 0 0 1
-24.363425 -11.439326 -6.261700 27.634101 0.438975 1.799375 0.100420 -0.040318 506423.000000 0 0 1
-25.090705 -10.881526 -7.349700 28.319060 0.409206 1.833334 0.109440 -0.038950 107568.000000 0 0 1
-24.486125 -11.373026 -8.665700 28.355077 0.434820 1.881379 0.125961 -0.040403 -414425.000000 0 0 1
-23.282925 -10.728226 -8.883500 27.131273 0.431779 1.904375 0.118337 -0.039368 -441223.000000 0 0 1
-22.494225 -11.091226 -9.992200 26.997213 0.458088 1.949934 0.079662 -0.028376 290952.000000 0 0 1
-21.050325 -10.523626 -10.040500 25.586608 0.463589 1.974049 0.081344 -0.035562 154123.000000 0 0 1
-20.990525 -9.108626 -10.160200 25.035951 0.409418 1.988677 0.078158 -0.045587 903689.000000 0 0 1
-19.734625 -8.595326 -9.679100 23.601271 0.410769 1.993370 0.081474 -0.038129 357362.000000 0 1 0
-19.562225 -7.123226 -10.283100 23.219886 0.349208 2.029580 0.068385 -0.042175 -140518.000000 0 1 0
-19.299725 -7.305726 -11.643600 23.694438 0.361871 2.084500 0.085221 -0.033628 287575.000000 0 1 0
-19.205125 -6.047926 -12.313500 23.601621 0.305081 2.119665 0.089831 -0.050757 -131050.000000 0 1 0
-18.524925 -6.084526 -13.708500 23.835210 0.317350 2.183567 0.110508 -0.040759 -60109.000000 0 1 0
-19.373825 -6.560326 -14.704600 25.191431 0.326499 2.194092 0.109051 -0.047083 203310.000000 0 0 1
-18.738725 -6.410526 -15.968800 25.440857 0.329620 2.249370 0.115669 -0.049310 341210.000000 0 0 1
-19.410925 -7.263426 -17.124400 26.884687 0.358063 2.261341 0.099388 -0.040372 -102199.000000 0 0 1
-20.639425 -6.820126 -17.630100 27.987861 0.319146 2.252246 0.096795 -0.049990 -50392.000000 0 0 1
-21.148825 -7.727826 -18.560000 29.179885 0.350330 2.260171 0.099015 -0.045187 -1328150.000000 0 0 1
-22.570925 -7.540226 -18.999500 30.451316 0.322412 2.244558 0.085014 -0.038434 -1804680.000000 0 0 1
-22.731425 -6.418826 -19.823000 30.836185 0.275211 2.269008 0.087277 -0.041034 736320.000000 0 0 1
-23.959625 -6.344826 -20.556300 32.200650 0.258871 2.263190 0.064712 -0.038371 2217090.000000 0 0 1
-25.344585 -6.191526 -19.759500 32.727982 0.239601 2.218992 0.079123 -0.036938 935950.000000 0 0 1
-25.317135 -4.851326 -19.285900 32.193766 0.189327 2.213119 0.078507 -0.031177 -106671.000000 0 0 1
-26.460465 -4.534426 -18.532700 32.621744 0.169718 2.175002 0.095195 -0.024643 -537443.000000 0 0 1
-26.586765 -3.093126 -18.005300 32.258554 0.115820 2.162958 0.075137 -0.020397 -29997.500000 0 0 1
-26.842815 -2.039526 -18.937600 32.913964 0.075835 2.183849 0.078623 -0.018598 128506.000000 0 0 1
-28.172355 -2.077326 -19.406300 34.272457 0.073603 2.172728 0.083235 -0.013698 -249415.000000 0 0 1
-28.462495 -0.859626 -20.287800 34.963515 0.030193 2.189840 0.083574 -0.009626 -29914.100000 0 0 1
-27.801205 -0.910626 -21.525000 35.171890 0.032743 2.229376 0.088672 -0.010522 -256272.000000 0 0 1
-28.646125 -1.420726 -22.488200 36.446372 0.049555 2.235749 0.094503 -0.009954 -465095.000000 0 0 1
-27.977795 -1.706526 -23.900900 36.836425 0.060920 2.276854 0.093026 -0.010285 -381989.000000 0 0 1
-27.909985 -0.629226 -24.841200 37.369083 0.022541 2.297959 0.098829 -0.008134 420459.000000 0 0 1
-27.309425 0.610174 -24.373500 36.609350 -0.022339 2.299325 0.088818 0.003626 365158.000000 0 0 1
-25.827305 0.604974 -23.877200 35.178635 -0.023420 2.316844 0.088191 -0.002738 -1287.120000 0 0 1
-24.946525 0.400974 -24.985500 35.309561 -0.016072 2.356910 0.077961 0.000530 5511.500000 0 0 1
-23.632125 0.407174 -24.436000 33.996488 -0.017228 2.372842 0.058885 -0.002441 169362.000000 0 0 1
-22.613125 -0.183126 -25.437760 34.036254 0.008098 2.414895 0.051250 0.001156 -196623.000000 0 0 1
-22.551125 0.621874 -26.626840 34.898833 -0.027569 2.438695 0.026641 0.008913 -492204.000000 0 0 1
-21.607125 0.213974 -27.533000 34.999710 -0.009903 2.476183 0.019921 0.001365 -878427.000000 0 0 1
-21.465825 1.163374 -28.746420 35.895567 -0.054144 2.499484 0.011036 0.016324 -330937.000000 0 0 1
-20.646825 2.317674 -28.506630 35.274508 -0.111785 2.511778 0.013726 0.018778 520077.000000 0 0 1
-20.381625 3.144774 -29.668880 36.132294 -0.153087 2.534164 -0.001436 0.019176 269921.000000 0 0 1
-19.646425 2.473674 -30.885290 36.687903 -0.125251 2.571477 -0.013421 0.020547 635629.000000 0 0 1
-18.230325 2.280974 -30.718480 35.793471 -0.124473 2.602577 -0.024507 0.025313 715836.000000 0 0 1
-17.815725 1.651174 -31.932530 36.603454 -0.092417 2.630869 -0.031116 0.019075 -301143.000000 0 0 1
-16.285425 1.649274 -32.044320 35.982963 -0.100929 2.669330 -0.009152 0.002120 -180803.000000 0 0 1
-15.678325 2.952974 -32.133420 35.875989 -0.186167 2.680755 0.000659 0.003535 -684177.000000 0 0 1
-14.356425 2.910774 -32.526730 35.673067 -0.200039 2.718445 0.016875 -0.002219 -829002.000000 0 0 1
-13.781625 4.299574 -32.903150 35.931000 -0.302410 2.728121 0.030054 -0.001432 -121341.000000 0 0 1
-13.728725 5.161174 -31.829680 35.046314 -0.359594 2.709802 0.052396 -0.019439 215148.000000 0 0 1
-13.038525 6.310674 -32.296800 35.396483 -0.450768 2.719979 0.066582 -0.007207 -93708.200000 0 0 1
-12.736125 7.234974 -31.121420 34.396170 -0.516608 2.701690 0.069291 -0.012569 31814.100000 0 0 1
-11.522725 6.851974 -30.485790 33.303245 -0.536475 2.727297 0.098953 -0.031438 277923.000000 0 0 1
-11.687325 5.851474 -29.433580 32.205107 -0.464182 2.723688 0.098429 -0.034392 -439687.000000 0 0 1
-10.378425 5.088374 -29.219050 31.422223 -0.455845 2.764896 0.128599 -0.048628 -422566.000000 0 0 1
-9.874125 4.315674 -30.287490 32.147401 -0.412049 2.799767 0.112256 -0.045020 -48875.200000 0 0 1
-10.714325 3.261974 -30.706580 32.685337 -0.295534 2.791848 0.114098 -0.042011 -673679.000000 0 0 1
-10.155925 2.282374 -31.711920 33.376607 -0.221061 2.824430 0.105660 -0.037216 169355.000000 0 0 1
-11.144425 1.331874 -32.181360 34.082430 -0.118946 2.806019 0.104720 -0.032207 712047.000000 0 0 1
-10.711325 0.575774 -33.304040 34.988899 -0.053702 2.829998 0.092396 -0.021922 -349166.000000 0 0 1
-11.071225 1.175574 33.454847 35.258769 -0.105786 0.321262 0.093027 -0.019253 60793.900000 0 0 1
-12.436225 1.061574 33.124871 35.398357 -0.085155 0.360348 0.040335 -0.016609 -247178.000000 0 0 1
-12.706125 1.507374 31.782565 34.261483 -0.118082 0.382734 0.026301 -0.005883 1214250.000000 0 0 1
-14.205725 1.451774 31.296725 34.400512 -0.101843 0.428055 0.020242 -0.004298 1399350.000000 0 0 1
-15.146925 2.440974 31.710605 35.227122 -0.159779 0.450623 0.013215 0.006085 456970.000000 0 0 1
-16.440525 2.088874 31.252105 35.374402 -0.126379 0.487585 0.006783 0.005282 131172.000000 0 0 1
-17.439225 3.245974 31.152335 35.848722 -0.184025 0.517630 0.012668 0.007472 -522669.000000 0 0 1
-17.878225 3.844474 32.336305 37.148991 -0.211811 0.514682 -0.001268 0.012439 261054.000000 0 0 1
-16.991225 4.838874 32.831533 37.283052 -0.277442 0.493665 0.002651 0.016885 -337853.000000 0 0 1
-17.446125 5.515474 -34.046430 38.651612 -0.306201 2.648460 0.000470 0.015018 -604975.000000 0 0 1
-18.630425 6.226974 34.010375 39.275610 -0.322563 0.523767 -0.006157 0.013236 -208624.000000 0 0 1
-19.691925 5.616874 -33.376910 39.157876 -0.277859 2.591293 -0.014416 0.015456 722913.000000 0 0 1
-21.073725 6.297174 -33.553880 40.120059 -0.290371 2.561363 -0.009624 0.013906 -328140.000000 0 0 1
-21.162525 7.669174 -33.182710 40.096894 -0.347673 2.545549 -0.000014 0.012953 106584.000000 0 0 1
-20.593925 8.649374 -34.047754 40.720645 -0.397625 2.560986 -0.010438 0.008896 -329251.000000 0 0 1
-20.432825 10.066874 -33.393330 40.422231 -0.457776 2.542971 0.014851 -0.001334 -760583.000000 0 0 1
-19.398925 10.164174 -32.437570 39.138532 -0.482628 2.547736 0.017660 -0.006047 235046.000000 0 0 1
-18.973925 11.511874 -32.263990 39.159904 -0.545347 2.539061 0.046564 -0.006374 249697.000000 0 0 1
-18.121125 12.199474 -33.364460 39.879688 -0.592525 2.561894 0.032943 -0.016573 -449116.000000 0 0 1
-18.972625 12.534774 33.719780 40.670685 -0.583844 0.593313 0.033108 -0.015007 368384.000000 0 0 1
-18.373925 12.469574 32.427377 39.301732 -0.596257 0.600439 0.040231 -0.017875 -391183.000000 0 0 1
-19.328825 11.854974 31.437575 38.761643 -0.550164 0.624854 0.032584 -0.021765 -842173.000000 0 0 1
-19.537925 10.447274 31.337295 38.378406 -0.491035 0.615414 0.009061 -0.006195 170641.000000 0 0 1
-18.383525 9.647374 31.089525 37.384280 -0.483277 0.588777 0.009599 -0.004730 97618.300000 0 0 1
-18.495225 8.099174 31.108125 37.086189 -0.412751 0.575710 0.012037 -0.003301 -73161.300000 0 0 1
-19.007425 7.648574 29.845345 36.201208 -0.382573 0.601603 0.014724 -0.002084 259583.000000 0 0 1
-19.236625 6.224874 29.959195 36.143466 -0.312961 0.593664 0.012392 0.004868 28633.800000 0 0 1
-19.818225 5.428174 28.703125 35.300092 -0.267341 0.621308 0.030226 -0.008000 -709593.000000 0 0 1
-21.120825 5.801974 28.461085 35.913584 -0.268091 0.655919 0.055893 -0.017366 -1019780.000000 0 0 1
-21.812125 4.825974 27.706345 35.590734 -0.217744 0.678571 0.059318 -0.019939 -187303.000000 0 0 1
-23.305025 5.111774 27.516175 36.419696 -0.215923 0.714333 0.057854 -0.018349 -378710.000000 0 0 1
-23.529325 6.030674 26.446775 35.908635 -0.250904 0.742912 0.072952 -0.020793 673812.000000 0 0 1
-24.872925 6.511074 26.519335 36.936859 -0.256029 0.769923 0.074940 -0.015873 416291.000000 0 0 1
-25.508245 7.052274 25.206415 36.548166 -0.269733 0.809754 0.072544 -0.015077 -88206.300000 0 0 1
-25.648375 6.250174 24.064605 35.721268 -0.239028 0.831623 0.057863 -0.012958 1001470.000000 0 0 1
-26.663305 5.208374 24.049035 36.282434 -0.192910 0.846206 0.046865 -0.003069 342980.000000 0 0 1
-26.546345 4.414874 22.738665 35.231327 -0.164800 0.869236 0.051437 -0.017742 -148825.000000 0 0 1
-27.014415 5.082874 21.614465 34.968547 -0.185980 0.904458 0.053732 -0.016707 4909.610000 0 0 1
-27.011115 4.193774 20.491265 34.162552 -0.154031 0.927524 0.064182 -0.019846 -144291.000000 0 0 1
-27.543555 4.824274 19.217165 33.929640 -0.173392 0.968686 0.110937 -0.031680 402568.000000 0 0 1
-28.967845 4.788774 19.188365 35.075087 -0.163832 0.991942 0.125592 -0.032031 375092.000000 0 0 1
-29.501155 5.235274 17.963165 34.934245 -0.175632 1.030723 0.129134 -0.033260 -555375.000000 0 0 1
-31.015655 5.390774 17.963265 36.245140 -0.172089 1.052265 0.138785 -0.034103 -623408.000000 0 0 1
-31.451395 6.378574 18.846065 37.216268 -0.200093 1.039799 0.139624 -0.021483 -1181370.000000 0 0 1
-32.815085 6.291874 18.999265 38.436825 -0.189438 1.053769 0.157536 -0.028069 -933921.000000 0 0 1
-33.442665 7.368174 19.916465 39.615242 -0.216858 1.044022 0.170232 -0.018937 124790.000000 0 0 1
-33.129815 7.192074 21.289965 40.032151 -0.213771 1.010046 0.118145 -0.025509 -345222.000000 0 0 1
-34.096013 7.743874 22.121565 41.374742 -0.223331 1.006687 0.135271 -0.038466 -177784.000000 0 0 1
-0.105525 32.347074 11.680800 34.391648 -1.567534 1.224262 0.069195 -0.011994 92315.400000 0 0 1
-0.518125 32.644374 13.006200 35.143774 -1.554926 1.191695 0.052951 -0.010541 -4713.040000 0 0 1
-0.343025 33.992574 13.310100 36.507144 -1.560706 1.197605 0.057072 -0.014413 -161973.000000 0 0 1
-0.308825 -33.958607 14.852400 37.065835 1.561702 1.158512 0.049371 -0.006284 -211936.000000 0 0 1
-1.468125 33.962174 15.567100 37.388759 -1.527595 1.141361 0.022669 0.007375 -601564.000000 0 0 1
-1.337425 -33.862007 16.917400 37.876413 1.531321 1.107782 0.017751 -0.012063 -512800.000000 0 0 1
-2.612025 -33.587807 17.689400 38.050996 1.493185 1.087290 0.014321 -0.001129 -828522.000000 0 0 1
-3.297925 33.485874 18.143700 38.227921 -1.472626 1.076265 0.001666 0.001282 279011.000000 0 0 1
-4.191125 33.900874 19.197900 39.184106 -1.447792 1.058774 0.006684 -0.001851 -262630.000000 0 0 1
-5.186425 32.848974 19.607800 38.605957 -1.414202 1.038056 0.006623 -0.008464 -12302.800000 0 0 1
-6.171725 32.639674 18.577200 38.059833 -1.383916 1.060879 0.010403 -0.009882 -270051.000000 0 0 1
-7.239125 31.909474 19.077600 37.875774 -1.347708 1.042933 0.019090 -0.021363 -341210.000000 0 0 1
-8.386925 31.795274 18.031900 37.502392 -1.312892 1.069207 0.007769 -0.022711 -374934.000000 0 0 1
-9.070125 32.992174 17.789800 38.564591 -1.302507 1.091338 0.024704 -0.018380 -441223.000000 0 0 1
-9.783325 32.929074 16.579100 38.143203 -1.282000 1.121142 0.033232 -0.010522 749.708000 0 0 1
-10.720025 -34.045607 16.490600 39.318725 1.265752 1.138003 0.081204 -0.018553 51855.700000 0 0 1
-11.824425 34.061874 17.364200 40.019292 -1.236667 1.121984 0.082174 -0.019424 77889.500000 0 0 1
-12.792525 -33.179007 17.027500 39.426272 1.202799 1.124218 0.065764 -0.024056 354965.000000 0 0 1
-14.106425 -33.248707 17.857200 40.290785 1.169544 1.111622 0.095747 -0.023905 339060.000000 0 0 1
-13.956525 -32.906107 19.226800 40.586528 1.169661 1.077282 0.072958 -0.016381 -340446.000000 0 0 1
-15.154325 -33.233907 19.856500 41.574352 1.142972 1.072859 0.062879 -0.021752 -302215.000000 0 0 1
-15.381025 -32.619207 21.245700 41.856521 1.130181 1.038418 0.059950 -0.023456 -126482.000000 0 0 1
-15.463225 -31.215907 21.219400 40.789792 1.110865 1.023695 0.082125 -0.025240 80056.400000 0 0 1
-15.187525 -30.679707 22.470900 40.949318 1.111129 0.989929 0.051965 -0.021326 -30721.500000 0 0 1
-15.213925 -29.149107 22.693200 39.951411 1.089755 0.966698 0.065340 -0.029208 -274633.000000 0 0 1
-15.190725 -28.849207 24.078700 40.531699 1.086130 0.934686 0.052263 -0.022871 -174843.000000 0 0 1
-15.105225 -27.447107 24.315900 39.658221 1.067693 0.910772 0.044402 -0.024732 -377689.000000 0 0 1
-16.375725 -26.616507 24.046000 39.431116 1.019241 0.914959 0.064207 -0.023921 -303883.000000 0 0 1
-17.398925 -26.917507 24.965600 40.627035 0.996970 0.909035 0.072632 -0.018248 -672554.000000 0 0 1
-18.547525 -26.165907 24.698900 40.480872 0.954160 0.914562 0.068579 -0.016723 -1181160.000000 0 0 1
-19.564625 -26.353007 25.826300 41.764258 0.932173 0.904113 0.056589 -0.012204 -877284.000000 0 0 1
-20.201725 -27.583607 25.965600 42.932242 0.938667 0.921276 0.073097 -0.010567 147593.000000 0 0 1
-21.132925 -27.943107 24.971300 43.023058 0.923286 0.951556 0.070621 -0.014372 -243816.000000 0 0 1
-22.485225 -27.201507 24.812400 43.141193 0.880035 0.958016 0.057640 -0.008555 -362360.000000 0 0 1
-22.460825 -25.851207 24.395800 42.046743 0.855460 0.951814 0.063315 -0.012744 -232838.000000 0 0 1
-23.690325 -25.552607 23.792100 42.192786 0.823198 0.971707 0.056571 -0.004075 -265481.000000 0 0 1
-23.989825 -24.099407 23.414700 41.286091 0.787677 0.967776 0.048027 0.003613 -159452.000000 0 0 1
-24.339925 -23.300707 24.497200 41.658945 0.763588 0.942161 0.045932 0.002137 219853.000000 0 0 1
-24.936325 -22.066107 24.047900 41.073530 0.724409 0.945319 0.040499 0.002783 271065.000000 0 0 1
-25.488855 -21.234007 25.274900 41.705939 0.694583 0.919741 0.036506 0.007393 223573.000000 0 0 1
-26.737815 -21.730407 25.723000 42.997605 0.682450 0.929490 0.028020 0.010609 239587.000000 0 0 1
-27.165175 -21.070307 26.864800 43.630517 0.659708 0.907479 0.021006 0.004444 -623204.000000 0 0 1
-28.182955 -21.867607 27.713300 45.171874 0.659882 0.910301 0.030764 -0.003896 526904.000000 0 0 1
-29.570655 -21.846107 27.395300 45.849520 0.636279 0.930411 0.033699 -0.002308 683788.000000 0 0 1
-30.034745 -22.321507 26.170400 45.664268 0.639128 0.960507 0.024831 0.000336 -501262.000000 0 0 1
-31.579335 -22.493207 26.216600 46.802872 0.618918 0.976230 0.053450 -0.006385 376803.000000 0 0 1
-32.229515 -23.107207 25.105700 46.935922 0.622017 1.006415 0.045388 -0.008111 288016.000000 0 0 1
-31.963555 -24.481607 24.893800 47.336235 0.653614 1.017032 0.048017 -0.009076 -383777.000000 0 0 1
-32.526705 -24.977707 23.496500 47.264763 0.654868 1.050514 0.045395 -0.005245 -464925.000000 0 0 1
-33.785745 -25.550107 23.468600 48.425816 0.647482 1.064856 0.060898 -0.012286 -719884.000000 0 0 1
-34.186471 -25.907207 22.158300 48.279275 0.648487 1.093971 0.059270 -0.006947 759520.000000 0 0 1
-35.548714 -26.677607 21.961900 49.575506 0.643790 1.111855 0.057536 -0.008442 353398.000000 0 0 1
-35.634680 -27.986507 22.547900 50.611093 0.665758 1.109049 0.049298 -0.009277 -775583.000000 0 0 1
-34.681204 -28.895707 22.214800 50.311481 0.694648 1.113476 0.045361 -0.007585 -1148450.000000 0 0 1
-35.109800 -29.923607 21.145600 50.746987 0.705820 1.140999 0.041516 -0.002134 -177177.000000 0 0 1
-35.246943 -29.476407 19.829500 50.044126 0.696476 1.163378 0.022923 0.006774 522081.000000 0 0 1
-35.787663 -30.466207 18.956100 50.678203 0.705251 1.187426 0.020696 0.011213 -322969.000000 0 0 1
-36.352105 -29.889607 17.602000 50.246338 0.688147 1.212890 0.021704 0.018828 -573358.000000 0 0 1
-35.370735 -29.416607 16.705300 48.943771 0.693753 1.222480 0.047823 0.008600 38183.500000 0 0 1
-35.863883 -28.870107 15.486600 48.575055 0.677777 1.246314 0.040201 0.012005 -35667.000000 0 0 1
-36.500275 -29.863307 14.452700 49.325122 0.685720 1.273424 0.035538 0.012007 203647.000000 0 0 1
-35.590098 -30.843307 13.964100 49.121896 0.714068 1.282547 0.029508 -0.000771 124244.000000 0 0 1
-36.058992 -31.646507 12.864400 49.671371 0.720318 1.308820 0.020615 0.000090 58157.200000 0 0 1
-36.000091 -30.995007 11.443800 48.863663 0.710828 1.334402 0.027714 -0.000402 -392486.000000 0 0 1
36.300632 -30.199407 11.211400 48.532830 -0.693907 1.337684 0.019383 0.000827 -430191.000000 0 0 1
36.386302 -29.281907 10.159200 47.797515 -0.677631 1.356616 0.014573 -0.002363 -734090.000000 0 0 1
35.208062 -28.363607 10.012500 46.307148 -0.678146 1.352856 0.037161 0.003686 -600555.000000 0 0 1
35.490492 -27.411107 8.948800 45.727725 -0.657653 1.373828 0.030394 -0.033899 -604831.000000 0 0 1
34.379502 -26.733007 8.492700 44.370371 -0.660923 1.378203 0.028562 -0.029045 -684275.000000 0 0 1
34.659862 -25.627207 7.497300 43.752363 -0.636677 1.398589 0.024726 -0.020568 389878.000000 0 0 1
35.347882 -24.467507 8.057700 43.738521 -0.605466 1.385514 0.033516 -0.023461 232200.000000 0 0 1
35.754092 -23.660907 6.975200 43.437853 -0.584603 1.409519 0.041903 -0.033359 -364577.000000 0 0 1
36.119212 -22.251307 7.446100 43.071598 -0.552139 1.397046 0.056933 -0.041658 -93784.200000 0 0 1
35.176892 -21.404007 8.123400 41.970643 -0.546623 1.376017 0.035243 -0.026455 -139480.000000 0 0 1
35.605722 -20.017307 8.015500 41.625813 -0.512157 1.377025 0.055579 -0.033526 714600.000000 0 0 1
34.759762 -19.099807 9.002500 40.670489 -0.502444 1.347596 0.053519 -0.018396 565827.000000 0 0 1
35.095002 -19.310607 10.355200 41.373770 -0.503026 1.317823 0.046568 -0.024052 -121840.000000 0 0 1
34.317792 -18.464907 11.148700 40.533408 -0.493627 1.292155 0.059581 -0.011499 -121503.000000 0 0 1
34.720202 -18.653607 12.630700 41.388212 -0.493006 1.260673 0.061995 -0.026087 507729.000000 0 0 1
35.897392 -17.933707 12.989700 42.177872 -0.463314 1.257733 0.033004 -0.015129 551593.000000 0 0 1
36.388692 -18.210207 14.280700 43.124088 -0.463996 1.233270 0.023188 -0.005139 137909.000000 0 0 1
-35.745792 -17.490807 14.738800 42.437273 0.455060 1.216098 0.055849 -0.007094 829475.000000 0 0 1
-34.478510 -17.840707 14.183000 41.330569 0.477505 1.220517 0.050694 -0.006203 950624.000000 0 0 1
-33.356195 -17.196507 14.806600 40.343413 0.476003 1.194999 0.043821 -0.010025 569324.000000 0 0 1
-32.174705 -17.272207 13.809200 39.041449 0.492672 1.209266 0.057220 -0.013909 -200443.000000 0 0 1
-31.632415 -18.560607 13.610500 39.119707 0.530627 1.215446 0.044738 -0.014120 586268.000000 0 0 1
-30.497095 -18.496707 12.724300 37.869628 0.545190 1.228127 0.025128 -0.009616 575381.000000 0 0 1
-29.918855 -19.898407 12.300200 37.978670 0.586903 1.240978 0.019015 -0.010162 706639.000000 0 0 1
-30.780475 -20.810307 11.579500 38.917751 0.594497 1.268684 0.024879 -0.009545 -57351.900000 0 0 1
-29.893835 -21.735007 10.979000 38.556326 0.628666 1.282048 0.032074 -0.011678 40991.600000 0 0 1
-30.346355 -22.582407 9.729400 39.058003 0.639750 1.319044 0.041849 -0.014480 630460.000000 0 0 1
-31.214575 -23.742707 9.848700 40.435908 0.650269 1.324758 0.043449 -0.011389 1854850.000000 0 0 1
-32.550125 -23.524507 10.379000 41.480558 0.625810 1.317895 0.050613 -0.017080 1006830.000000 0 0 1
-33.524175 -24.709307 10.427800 42.932029 0.635168 1.325451 0.064403 -0.021613 -274143.000000 0 0 1
-33.895085 -25.191107 9.147500 43.210478 0.639140 1.357486 0.068256 -0.022103 -135316.000000 0 0 1
-34.536490 -26.453507 9.145400 44.454420 0.653636 1.363591 0.078948 -0.017022 84958.300000 0 0 1
-34.511945 -27.152807 7.815900 44.603111 0.666619 1.394655 0.071269 -0.020582 614856.000000 0 0 1
-33.187165 -27.522607 7.433400 43.750854 0.692362 1.400065 0.067318 -0.021029 289774.000000 0 0 1
-33.202305 -28.284907 6.224900 44.058806 0.705594 1.429036 0.062920 -0.022060 194509.000000 0 0 1
-31.763755 -28.560607 5.733200 43.098886 0.732349 1.437377 0.082316 -0.018806 415813.000000 0 0 1
-31.066615 -27.441907 5.199900 41.775971 0.723525 1.446002 0.088859 -0.019121 99683.600000 0 0 1
-29.840115 -27.811307 4.592700 41.048680 0.750222 1.458677 0.074600 -0.019760 179989.000000 0 0 1
-29.057095 -26.739107 3.877300 39.677803 0.743878 1.472921 0.070433 -0.017724 97344.900000 0 0 1
-29.688475 -26.329107 2.706700 39.773780 0.725500 1.502691 0.071535 -0.013494 -114409.000000 0 0 1
-28.829525 -25.381407 2.121800 38.468940 0.721878 1.515612 0.053278 -0.021339 135438.000000 0 0 1
-29.175985 -24.927307 0.684100 38.380681 0.707030 1.552971 0.062801 -0.021604 -391514.000000 0 0 1
-29.119665 -25.840307 -0.394400 38.933686 0.725801 1.580927 0.057691 -0.024845 -302287.000000 0 0 1
-29.249985 -25.311207 -1.690900 38.717928 0.713333 1.614482 0.064940 -0.030405 73442.000000 0 0 1
-30.704695 -24.924907 -2.063900 39.601628 0.681872 1.622936 0.084961 -0.025365 -2295.940000 0 0 1
-31.162645 -23.760707 -1.466000 39.215185 0.651437 1.608189 0.084462 -0.017650 135207.000000 0 0 1
-32.489915 -23.540807 -1.959800 40.169702 0.627018 1.619604 0.101606 -0.024243 431537.000000 0 0 1
-33.057205 -22.172707 -1.579200 39.835933 0.590816 1.610449 0.102881 -0.024556 -177513.000000 0 0 1
-33.332665 -22.008707 -0.193200 39.943548 0.583564 1.575633 0.107678 -0.031808 187280.000000 0 0 1
-33.862805 -20.721207 0.063500 39.699647 0.549136 1.569197 0.109469 -0.027402 -368079.000000 0 0 1
-34.055195 -20.340107 1.552400 39.697433 0.538409 1.531681 0.085574 -0.027350 -324270.000000 0 0 1
-35.008344 -21.203707 2.103800 40.983012 0.544582 1.519440 0.104386 -0.030525 -66633.400000 0 0 1
-35.325397 -20.980907 3.447100 41.230627 0.535946 1.487093 0.103401 -0.034243 -1022920.000000 0 0 1
-36.567415 -21.794207 3.868200 42.744897 0.537474 1.480177 0.117796 -0.028587 522806.000000 0 0 1
35.629022 -21.492307 3.216200 41.733565 -0.542787 1.493655 0.092162 -0.022907 34645.400000 0 0 1
35.090962 -20.200707 3.348600 40.628282 -0.522335 1.488282 0.084838 -0.037619 -1176640.000000 0 0 1
33.801972 -19.990907 2.573100 39.355184 -0.534081 1.505368 0.067436 -0.022406 -77315.700000 0 0 1
32.691122 -20.774007 2.926900 38.843733 -0.566088 1.495374 0.061572 -0.007877 -6810.550000 0 0 1
31.474062 -20.409207 2.292000 37.581985 -0.575281 1.509772 0.080277 -0.017843 756515.000000 0 0 1
30.276892 -21.312307 2.708400 37.124656 -0.613348 1.497777 0.057237 0.006177 82810.000000 0 0 1
30.057362 -22.543307 2.051100 37.627818 -0.643507 1.516259 0.050921 -0.001088 -224520.000000 0 0 1
28.913922 -23.075607 2.684100 37.090469 -0.673569 1.498367 0.040778 0.014986 35921.600000 0 0 1
28.301362 -24.274907 1.898400 37.334195 -0.708964 1.519926 0.039104 0.007948 47021.200000 0 0 1
27.862362 -23.985807 0.569900 36.768940 -0.710770 1.555296 0.033917 0.000632 68873.700000 0 0 1
27.318162 -25.148307 -0.036600 37.131128 -0.744065 1.571782 0.024977 0.002284 -595521.000000 0 0 1
26.361762 -24.800907 -1.172500 36.213288 -0.754900 1.603180 0.018184 -0.006385 -406789.000000 0 0 1
26.821762 -24.201107 -2.442500 36.208650 -0.734081 1.638304 0.029180 -0.013382 -329899.000000 0 0 1
27.437062 -24.977507 -3.392800 37.258279 -0.738508 1.661984 0.027682 -0.011836 -783906.000000 0 0 1
26.520862 -25.607007 -4.494700 37.138622 -0.767869 1.692119 0.021142 -0.015284 66574.800000 0 0 1
25.918362 -24.709507 -5.376100 36.210823 -0.761525 1.719814 0.020148 -0.024142 339019.000000 0 0 1
24.750162 -24.107507 -4.831200 34.886715 -0.772245 1.709725 0.031402 -0.021869 -563297.000000 0 0 1
24.157362 -23.065507 -5.871500 33.912686 -0.762281 1.744809 0.036611 -0.028147 23459.500000 0 0 1
23.615062 -23.649307 -7.039100 34.154206 -0.786123 1.778382 0.038684 -0.025856 -11533.900000 0 0 1
22.526062 -22.992907 -7.635400 33.081665 -0.795654 1.803701 0.030438 -0.029856 -136715.000000 0 0 1
22.795262 -21.656507 -8.393400 32.543470 -0.759786 1.831658 0.034372 -0.029149 -275005.000000 0 0 1
23.498862 -21.737307 -9.628400 33.427730 -0.746477 1.862972 0.040599 -0.034040 275881.000000 0 0 1
23.225962 -20.550207 -10.340300 32.690643 -0.724351 1.892631 0.037168 -0.032891 43857.900000 0 0 1
23.885862 -20.352607 -11.770900 33.515923 -0.705699 1.929652 0.044357 -0.031125 157846.000000 0 0 1
25.252662 -20.003007 -11.643700 34.254824 -0.669914 1.917622 0.059647 -0.033275 -206527.000000 0 0 1
25.737262 -19.584007 -12.870800 34.808009 -0.650454 1.949553 0.049261 -0.030612 613403.000000 0 0 1
27.302762 -19.441007 -12.929400 35.924406 -0.618769 1.938963 0.051779 -0.037817 869108.000000 0 0 1
28.091362 -20.592207 -13.030800 37.188242 -0.632561 1.928796 0.052047 -0.044011 137330.000000 0 0 1
28.204262 -21.390707 -11.806000 37.315203 -0.648869 1.892713 0.067728 -0.048988 -455249.000000 0 0 1
28.408192 -22.889707 -12.144600 38.450687 -0.678233 1.892147 0.074005 -0.030481 -180778.000000 0 0 1
29.582822 -23.186807 -12.877700 39.731682 -0.664780 1.900874 0.075762 -0.045393 315275.000000 0 0 1
29.605852 -24.506107 -13.345000 40.683471 -0.691431 1.905003 0.061436 -0.032701 -486908.000000 0 0 1
-3.083225 -8.957926 -27.410890 29.001855 1.239307 2.808827 0.032627 -0.018922 73713.500000 0 0 1
-3.337225 -7.604526 -26.984190 28.233179 1.157256 2.843035 0.051168 -0.015314 -378869.000000 0 0 1
-4.516925 -7.105626 -27.572040 28.828977 1.004552 2.845213 0.044165 -0.014042 -109949.000000 0 0 1
-4.886525 -5.758526 -26.955610 27.993636 0.867132 2.868418 0.042453 -0.020846 -217048.000000 0 0 1
-5.263525 -5.867926 -25.622070 26.807232 0.839642 2.843129 0.040592 -0.020729 99051.400000 0 0 1
-5.297225 -4.602326 -25.030290 25.995334 0.715318 2.868259 0.050853 -0.017271 -182215.000000 0 0 1
-5.790525 -4.579226 -23.609000 24.736296 0.669114 2.838532 0.046853 -0.020611 -606851.000000 0 1 0
-4.920825 -5.146726 -22.647600 23.740621 0.807833 2.836969 0.043770 -0.035381 330067.000000 0 1 0
-5.486425 -5.284826 -21.349600 22.667943 0.766684 2.798864 0.042723 -0.026971 -196019.000000 0 1 0
-4.615525 -6.248626 -20.564500 21.982881 0.934601 2.780405 0.038350 -0.029074 -487118.000000 0 1 0
-5.026025 -7.608026 -20.805000 22.715435 0.986991 2.728533 0.032203 -0.019920 808044.000000 0 1 0
-4.222325 -8.527526 -20.036200 22.180983 1.111044 2.698209 0.038829 -0.023921 -588261.000000 0 1 0
-4.727825 -9.960226 -20.103900 22.928698 1.127617 2.639964 0.041912 -0.017986 1190610.000000 0 1 0
-5.963925 -10.215126 -19.338900 22.669588 1.042349 2.592650 0.033941 -0.014380 1322540.000000 0 1 0
-7.155125 -9.851026 -19.999700 23.414237 0.942615 2.594746 0.038359 -0.010743 21574.500000 0 1 0
-8.314225 -9.743226 -18.934900 22.860167 0.864370 2.546849 0.033540 -0.000818 220398.000000 0 1 0
-9.041225 -10.907126 -18.639500 23.412392 0.878663 2.491683 0.049312 -0.010164 -96749.000000 0 1 0
-9.779225 -10.704126 -17.444500 22.683080 0.830521 2.448155 0.066342 -0.014406 -574793.000000 0 1 0
-10.888825 -11.720326 -17.296200 23.560371 0.822159 2.395170 0.088669 -0.013279 -431099.000000 0 1 0
-12.064825 -11.667126 -18.068600 24.660822 0.768642 2.393054 0.100067 -0.021741 449082.000000 0 1 0
-11.818525 -12.141526 -19.392500 25.751956 0.798878 2.423481 0.095733 -0.030494 -375111.000000 0 0 1
-13.095025 -12.012326 -20.292700 26.973493 0.742302 2.422373 0.081612 -0.028441 993430.000000 0 0 1
-14.069825 -13.052326 -20.288000 27.927157 0.747900 2.383955 0.075838 -0.026922 95948.000000 0 0 1
-14.845025 -13.207326 -19.116400 27.572540 0.727084 2.336873 0.078623 -0.018662 -327394.000000 0 0 1
-16.083525 -14.086626 -19.374800 28.853001 0.719307 2.307028 0.069117 -0.014153 -18189.100000 0 0 1
-15.637925 -15.344726 -19.844900 29.560537 0.775935 2.306799 0.079607 -0.013384 -529362.000000 0 0 1
-16.640725 -16.074826 -20.468000 30.890982 0.768102 2.295065 0.060326 -0.016329 -684127.000000 0 0 1
-16.333725 -17.444226 -20.996400 31.811010 0.818263 2.291662 0.045615 -0.020174 -420652.000000 0 0 1
-16.108825 -18.400226 -19.999900 31.592064 0.851701 2.256305 0.053530 -0.015703 301193.000000 0 0 1
-15.908725 -19.643826 -20.687500 32.664048 0.890073 2.256660 0.050739 -0.017914 -265387.000000 0 0 1
-16.423825 -20.879926 -19.891200 33.186942 0.904289 2.213508 0.055840 -0.020928 -122577.000000 0 0 1
-16.120325 -22.098226 -20.536000 34.204148 0.940555 2.214791 0.053408 -0.023439 248472.000000 0 0 1
-16.750325 -23.170426 -19.884300 34.825671 0.944854 2.178479 0.064215 -0.016753 21140.000000 0 0 1
-16.198125 -24.551426 -20.378500 35.783167 0.987588 2.176693 0.068111 -0.018026 -148867.000000 0 0 1
-16.607525 -24.951826 -21.681600 36.993179 0.983544 2.197030 0.045916 -0.020134 -11763.300000 0 0 1
-16.151225 -26.221516 -21.886400 37.781536 1.018729 2.188652 0.043707 -0.011553 -252604.000000 0 0 1
-16.546025 -26.783216 -23.285800 39.157886 1.017409 2.207644 0.050356 -0.014759 64172.300000 0 0 1
-17.864325 -27.273936 -23.444300 40.157650 0.990917 2.194206 0.057630 -0.015070 -34288.100000 0 0 1
-17.943225 -28.661976 -23.383400 41.112669 1.011457 2.175798 0.068061 -0.012913 -237644.000000 0 0 1
-18.786525 -29.166006 -24.567000 42.510315 0.998563 2.186958 0.064919 -0.017949 -291948.000000 0 0 1
-18.189525 -29.065666 -25.881440 42.959524 1.011616 2.217377 0.055015 -0.015955 182447.000000 0 0 1
-18.548225 -27.877506 -26.592080 42.758984 0.983708 2.241971 0.064735 -0.013087 -134946.000000 0 0 1
-17.395125 -27.436316 -27.490010 42.556344 1.005738 2.273086 0.069450 -0.019130 -485376.000000 0 0 1
-17.373225 -28.031466 -28.777110 43.768871 1.015963 2.288264 0.071324 -0.017248 237603.000000 0 0 1
-16.216225 -27.765236 -29.571190 43.684431 1.042189 2.314377 0.062483 -0.014689 202824.000000 0 0 1
-16.338225 -28.041876 -31.038010 44.907042 1.043242 2.333891 0.070479 -0.011091 -79167.000000 0 0 1
-16.514125 -29.434306 -31.281050 46.017374 1.059509 2.318240 0.058117 -0.009889 201105.000000 0 0 1
-16.935025 -29.627626 -32.624080 47.211459 1.051524 2.333696 0.058583 -0.008773 -8726.860000 0 0 1
-16.823125 -31.091506 -33.163970 48.472138 1.074824 2.324284 0.044087 -0.008117 -143322.000000 0 0 1
-15.644425 -31.367996 -33.869120 48.742348 1.108158 2.339022 0.049205 -0.011592 -339010.000000 0 0 1
-15.676025 -32.615536 33.661356 49.422645 1.122764 0.821544 0.035591 -0.006318 57571.800000 0 0 1
-14.387725 -32.879776 32.840901 48.647827 1.158314 0.829731 0.036253 -0.004410 177105.000000 0 0 1
-13.392025 -33.496786 33.627557 49.317275 1.190462 0.820492 0.039800 -0.008263 -63785.400000 0 0 1
-12.427325 -34.082603 32.756541 48.877942 1.221154 0.836358 0.045233 -0.008970 -307938.000000 0 0 1
-11.403125 33.268202 33.440131 48.528825 -1.240583 0.810581 0.048541 -0.012900 -344299.000000 0 0 1
-10.642225 33.893900 -33.705630 48.970633 -1.266558 2.329915 0.054277 -0.019866 192915.000000 0 0 1
-10.068025 32.946764 -32.774920 47.550497 -1.274224 2.331271 0.054976 -0.025738 85510.400000 0 0 1
-9.237125 33.684522 -31.692410 47.163337 -1.303151 2.307664 0.044979 -0.033814 120260.000000 0 0 1
-9.969425 -33.990006 -30.605410 46.812403 1.285493 2.283377 0.057237 -0.030318 -172185.000000 0 0 1
-9.287225 -32.876696 -30.096200 45.529231 1.295483 2.292987 0.058834 -0.028031 -213520.000000 0 0 1
-10.142725 -31.989656 -29.146680 44.449318 1.263760 2.285943 0.065454 -0.025260 106547.000000 0 0 1
-10.236625 -32.194416 -27.716550 43.697552 1.262942 2.257875 0.076409 -0.023750 -287461.000000 0 0 1
-10.805325 -33.423596 -27.305010 44.491071 1.258117 2.231559 0.069674 -0.024161 -5251.930000 0 0 1
-11.155525 -33.467976 -25.784870 43.696804 1.249058 2.201962 0.073903 -0.037342 155138.000000 0 0 1
-10.022625 -33.441176 -24.946800 42.908135 1.279606 2.191245 0.075724 -0.041745 -345148.000000 0 0 1
-10.390825 -33.270846 -23.575300 42.079843 1.268084 2.165486 0.078833 -0.045291 611467.000000 0 0 1
-9.274825 -33.521306 -22.480100 41.413225 1.300865 2.144593 0.086153 -0.048902 445411.000000 0 0 1
-8.849625 33.368655 -22.499000 41.206650 -1.311557 2.148383 0.081944 -0.046202 -426212.000000 0 0 1
-7.965625 33.122669 -21.462900 40.264357 -1.334789 2.132997 0.098644 -0.048212 -559493.000000 0 0 1
-7.368225 31.693395 -21.373600 38.930615 -1.342370 2.151985 0.108318 -0.054055 -88481.400000 0 0 1
-6.336625 31.421335 -22.308600 39.052871 -1.371799 2.178813 0.091709 -0.064764 53613.600000 0 0 1
-5.760325 30.181805 -22.042100 37.815035 -1.382210 2.193080 0.076201 -0.052527 604611.000000 0 0 1
-4.244125 30.123835 -22.453100 37.810048 -1.430828 2.206619 0.081876 -0.060541 594310.000000 0 0 1
-4.036825 30.269265 -23.861000 38.753989 -1.438215 2.234076 0.100261 -0.060398 576566.000000 0 0 1
-2.716325 30.816025 -24.035100 39.175143 -1.482877 2.231319 0.087927 -0.066112 736109.000000 0 0 1
-2.223925 30.800945 -25.508350 40.053963 -1.498718 2.261201 0.087273 -0.029640 -319982.000000 0 0 1
-1.430825 31.890005 -25.941630 41.133780 -1.525959 2.253206 0.096299 -0.052278 12102.800000 0 0 1
-1.981625 33.203975 -25.807000 42.100261 -1.511187 2.230635 0.089155 -0.042328 -122510.000000 0 0 1
-1.201225 -33.994326 -26.672160 43.225701 1.535475 2.235777 0.052215 -0.018017 -191259.000000 0 0 1
0.040175 -33.726366 -26.076010 42.631299 -1.569605 2.228958 0.055726 -0.024423 -573472.000000 0 0 1
0.709375 -32.674246 -26.693930 42.198050 -1.549089 2.255685 0.021332 -0.002761 315206.000000 0 0 1
2.062575 -32.267906 -26.042560 41.517308 -1.506963 2.248839 0.023496 0.001707 137720.000000 0 0 1
1.887775 -31.407116 -24.880400 40.112404 -1.510762 2.239879 0.025103 -0.000188 589768.000000 0 0 1
3.128175 -30.800646 -24.527600 39.497701 -1.469581 2.240799 0.016294 0.000496 131574.000000 0 0 1
3.073675 -30.057966 -23.171000 38.076555 -1.468892 2.225012 0.039334 -0.003988 -71957.000000 0 0 1
2.820475 -30.916756 -22.040700 38.073525 -1.479820 2.188173 0.045452 -0.007236 480018.000000 0 0 1
3.003775 -30.229056 -20.802300 36.817851 -1.471754 2.171237 0.048474 -0.001159 -208384.000000 0 0 1
3.128875 -31.165546 -19.566000 36.931145 -1.470736 2.129157 0.048985 -0.002552 -632708.000000 0 0 1
1.906975 -31.683226 -19.141000 37.065364 -1.510680 2.113452 0.060170 -0.011401 -331650.000000 0 0 1
1.676675 -33.065576 -19.088900 38.216876 -1.520132 2.093805 0.068075 -0.005448 -558707.000000 0 0 1
2.534075 -33.963266 -18.170800 38.601851 -1.496322 2.060907 0.040991 -0.023653 549516.000000 0 0 1
3.793875 33.946830 -18.782800 38.981718 1.459499 2.073545 0.046125 -0.005489 551123.000000 0 0 1
4.598975 33.220505 -17.839500 37.986843 1.433233 2.059660 0.050087 -0.028076 103744.000000 0 0 1
5.648675 32.302438 -18.481500 37.642010 1.397678 2.084011 0.073972 -0.028852 -261039.000000 0 0 1
6.782575 33.036472 -18.849400 38.635627 1.368304 2.080451 0.107277 -0.027167 -457201.000000 0 0 1
7.775075 32.205329 -19.412400 38.398910 1.333907 2.100811 0.090957 -0.045131 -674418.000000 0 0 1
9.132675 32.810479 -19.691600 39.340722 1.299322 2.095019 0.083955 -0.042551 -966298.000000 0 0 1
9.808975 32.855145 -18.483900 38.952935 1.280668 2.065214 0.073120 -0.028398 -236142.000000 0 0 1
10.999075 33.621924 -18.596700 39.965619 1.254630 2.054790 0.072745 -0.015855 143094.000000 0 0 1
11.923875 33.631437 -17.370800 39.686233 1.230078 2.023839 0.049361 -0.014307 -387415.000000 0 0 1
12.619675 32.443461 -17.136400 38.800652 1.199831 2.028236 0.046332 -0.023264 -145420.000000 0 0 1
13.206875 32.533154 -15.862000 38.528311 1.185170 1.995112 0.038294 -0.024655 280108.000000 0 0 1
14.451675 31.622915 -15.573100 38.096996 1.142136 1.991908 0.036909 -0.027443 501484.000000 0 0 1
14.229475 30.242415 -15.202100 36.717645 1.131015 1.997670 0.050926 -0.027297 -620191.000000 0 0 1
15.428275 29.530625 -15.080400 36.571956 1.089350 1.995827 0.043209 -0.017061 -391259.000000 0 0 1
15.510875 28.391045 -14.079500 35.282730 1.070775 1.981275 0.065568 -0.020813 -492945.000000 0 0 1
15.523575 28.782345 -12.724000 35.089955 1.076171 1.941864 0.065751 -0.024549 416934.000000 0 0 1
14.247275 29.056945 -12.126900 34.559407 1.114921 1.929328 0.063581 -0.029430 631194.000000 0 0 1
13.457475 27.771185 -11.725200 33.012463 1.119557 1.933898 0.074227 -0.026898 -551415.000000 0 0 1
12.795775 27.087935 -12.776400 32.568766 1.129489 1.973916 0.067970 -0.029536 -44149.500000 0 0 1
12.343075 25.767305 -12.491400 31.182376 1.124072 1.982959 0.082929 -0.033213 683228.000000 0 0 1
11.389075 25.552475 -11.230600 30.145753 1.151513 1.952544 0.072271 -0.032198 -143885.000000 0 0 1
10.094575 26.074115 -11.370400 30.183537 1.201417 1.957037 0.065906 -0.030353 -248131.000000 0 0 1
9.548175 26.261275 -10.067600 29.701495 1.222072 1.916607 0.051181 -0.020620 458596.000000 0 0 1
8.225275 27.084825 -10.076200 30.046176 1.275962 1.912781 0.056700 -0.018762 148542.000000 0 0 1
8.517075 28.380375 -10.536000 31.448268 1.279244 1.912430 0.057699 -0.024466 -763818.000000 0 0 1
7.499075 29.298685 -10.446000 31.996375 1.320223 1.903368 0.047137 -0.023184 -955731.000000 0 0 1
7.941275 30.731105 -10.881300 33.553947 1.317917 1.901060 0.065782 -0.021778 -211530.000000 0 0 1
8.843575 31.337355 -10.007100 34.064361 1.295744 1.868965 0.059872 -0.016805 -527836.000000 0 0 1
9.207575 32.657675 -10.364600 35.478559 1.295988 1.867257 0.057431 -0.019819 217976.000000 0 0 1
10.390975 32.794524 -11.360500 36.228637 1.263953 1.889755 0.049823 -0.017371 -708770.000000 0 0 1
11.670775 32.647639 -10.854000 36.330217 1.227476 1.874189 0.052992 -0.010302 -392941.000000 0 0 1
12.652875 32.942488 -11.871400 37.232149 1.204080 1.895310 0.047342 -0.012137 -1027910.000000 0 0 1
14.019175 32.695264 -11.376700 37.348988 1.165726 1.880320 0.049897 -0.016331 -1446370.000000 0 0 1
14.482775 33.563549 -10.331800 37.986954 1.163430 1.846249 0.043791 -0.012788 -593918.000000 0 0 1
15.874575 33.551474 -10.335000 38.529415 1.128866 1.842358 0.046526 -0.023019 -438865.000000 0 0 1
16.561975 -33.748826 -9.305800 38.728287 -1.114582 1.813455 0.055777 -0.025434 75053.000000 0 0 1
16.462575 33.998090 -7.950800 38.601836 1.119852 1.778251 0.046115 -0.023431 306147.000000 0 0 1
17.167675 -33.216506 -7.205800 38.078720 -1.093766 1.761179 0.046656 -0.018898 -222994.000000 0 0 1
17.579775 -33.709276 -5.788800 38.456131 -1.090088 1.721901 0.041853 -0.010141 896426.000000 0 0 1
18.572475 33.431918 -5.772300 38.677506 1.063716 1.720598 0.035070 -0.015811 1709220.000000 0 0 1
19.937175 33.921947 -5.867900 39.782178 1.039443 1.718837 0.042207 -0.016175 1028270.000000 0 0 1
20.841275 33.011641 -6.819900 39.631279 1.007657 1.743741 0.029974 -0.009652 421495.000000 0 0 1
21.030875 31.741785 -6.224900 38.582224 0.985641 1.732846 0.025571 -0.005622 -359596.000000 0 0 1
22.144575 31.692295 -5.369600 39.033529 0.960919 1.708798 0.031275 -0.003940 -824198.000000 0 0 1
22.513875 30.322055 -4.758700 38.065034 0.932118 1.696139 0.018379 -0.008950 -168692.000000 0 0 1
23.143675 29.478405 -5.713500 37.911082 0.905203 1.722081 0.026304 -0.012818 -32222.600000 0 0 1
23.620175 28.273925 -5.122300 37.196310 0.874837 1.708945 0.029717 -0.008902 -191415.000000 0 0 1
24.443275 27.447875 -6.114500 37.259182 0.843236 1.735649 0.031760 -0.003091 4674.230000 0 0 1
25.699575 28.019685 -6.470800 38.567372 0.828561 1.739373 0.063305 -0.010103 202811.000000 0 0 1
26.611275 27.218095 -7.156600 38.732436 0.796671 1.756634 0.053380 -0.006154 152807.000000 0 0 1
27.388975 26.194945 -6.258600 38.412253 0.763118 1.734458 0.053268 -0.003075 -934442.000000 0 0 1
28.399575 26.860385 -5.565900 39.484116 0.757552 1.712233 0.073166 -0.011563 -442834.000000 0 0 1
28.932975 25.973015 -4.596100 39.151484 0.731541 1.688460 0.073817 -0.000784 394647.000000 0 0 1
30.254775 26.506485 -3.966600 40.418796 0.719458 1.669092 0.079689 -0.010019 447770.000000 0 0 1
29.929075 27.483455 -2.985400 40.743128 0.742827 1.644136 0.080602 -0.024188 6821.110000 0 0 1
30.874575 27.366415 -1.966100 41.304063 0.725236 1.618415 0.069736 -0.030836 -104227.000000 0 0 1
30.908075 28.655865 -1.050800 42.161261 0.747605 1.595722 0.098313 -0.017389 4938.280000 0 0 1
31.596275 29.690665 -1.680000 43.389891 0.754315 1.609525 0.096971 -0.016752 -78253.400000 0 0 1
31.363375 30.922135 -1.001800 44.055004 0.778314 1.593538 0.115158 -0.024025 -5067.180000 0 0 1
33.394062 22.501474 18.825565 44.450890 0.592936 1.133476 0.093204 -0.018420 -65066.600000 0 0 1
33.807602 22.485174 20.188465 45.344362 0.586912 1.109370 0.076191 -0.029149 67376.600000 0 0 1
34.534902 23.649874 20.515865 46.614126 0.600459 1.115063 0.075213 -0.032484 -173364.000000 0 0 1
34.570492 23.830274 22.044465 47.423194 0.603525 1.087336 0.043263 -0.009679 -962406.000000 0 0 1
33.353602 23.929274 22.683165 46.899882 0.622336 1.065975 0.039418 -0.005748 -580996.000000 0 0 1
33.534772 24.319374 24.051885 47.901003 0.627438 1.044752 0.031234 -0.009489 652200.000000 0 0 1
32.172402 24.853674 24.636785 47.536720 0.657756 1.025971 0.047142 -0.006471 818509.000000 0 0 1
32.072062 26.219974 24.448585 48.102365 0.685341 1.037631 0.035485 -0.000756 103000.000000 0 0 1
30.994842 26.659274 25.240935 48.046872 0.710340 1.017682 0.033605 -0.007494 -92898.400000 0 0 1
30.761972 28.207974 25.476605 48.898324 0.742115 1.022760 0.026888 -0.006171 -50955.500000 0 0 1
30.539642 28.955774 24.294785 48.593654 0.758783 1.047246 0.030394 -0.021653 300270.000000 0 0 1
30.062672 30.277774 24.485255 49.193857 0.788963 1.049817 0.033062 -0.015130 81280.900000 0 0 1
30.524892 31.197274 23.264185 49.459693 0.796291 1.081090 0.033060 -0.017469 -597753.000000 0 0 1
31.881512 31.456874 23.350335 50.509444 0.778694 1.090213 0.009713 -0.019468 -943488.000000 0 0 1
32.448022 31.944874 22.132865 50.628182 0.777585 1.118352 0.004081 -0.015812 230756.000000 0 0 1
33.967792 32.186774 22.105665 51.753838 0.758483 1.129479 -0.023340 -0.030562 -21503.700000 0 0 1
34.298552 33.310674 22.914165 53.019342 0.770788 1.123882 0.003187 -0.012154 -280055.000000 0 0 1
35.587972 33.804474 22.676465 54.069107 0.759702 1.138014 0.009109 -0.012048 -218794.000000 0 0 1
35.883472 -33.101607 23.476235 54.170781 -0.745094 1.122563 0.022007 -0.005612 -637605.000000 0 0 1
35.203262 -32.044907 22.924365 52.836278 -0.738467 1.122007 0.009655 -0.007738 3745.790000 0 0 1
35.298912 -30.918307 23.757005 52.596104 -0.719339 1.102140 0.031551 -0.006754 -277029.000000 0 0 1
34.239912 -29.837507 23.382305 51.082096 -0.716801 1.095345 0.028549 -0.012870 842091.000000 0 0 1
32.949182 -30.187207 23.920015 50.686124 -0.741680 1.079324 0.031847 -0.014034 927582.000000 0 0 1
31.939922 -30.327607 22.909965 49.646640 -0.759511 1.091156 0.030489 -0.003807 51621.400000 0 0 1
31.370862 -31.758807 23.054865 50.242209 -0.791543 1.094068 0.026526 -0.003938 -143746.000000 0 0 1
30.524592 -31.836007 24.197075 50.306863 -0.806425 1.069013 0.026689 -0.016508 17355.400000 0 0 1
29.939902 -33.108207 24.272455 50.810463 -0.835608 1.072755 0.031527 -0.019240 -204520.000000 0 0 1
29.082402 -33.339007 25.513755 51.070806 -0.853484 1.047687 0.025217 -0.016368 -201934.000000 0 0 1
28.811102 33.501474 25.681115 51.107221 0.860528 1.044314 0.027392 -0.024791 50474.600000 0 0 1
28.072862 33.281674 26.862395 51.159981 0.870092 1.018003 0.026927 -0.016456 -561268.000000 0 0 1
27.679762 31.757174 27.092495 50.086831 0.853891 0.999277 0.027484 -0.018125 725295.000000 0 0 1
26.810562 31.105874 26.141895 48.680389 0.859427 1.003907 0.025734 -0.010888 1248630.000000 0 0 1
25.464562 31.639874 26.156465 48.308242 0.893120 0.998636 0.024296 -0.018238 430773.000000 0 0 1
24.712862 31.464874 24.829335 47.087788 0.905015 1.015378 0.065698 -0.030031 329831.000000 0 0 1
25.291462 32.260774 23.748865 47.375354 0.905907 1.045706 0.076612 -0.039140 1321770.000000 0 0 1
26.623762 31.933974 23.282585 47.651675 0.875834 1.060312 0.051994 -0.034959 768117.000000 0 0 1
26.906662 32.916374 22.123765 47.926163 0.885520 1.090974 0.076375 -0.033951 -341116.000000 0 0 1
28.216462 32.940974 21.632365 48.468915 0.862497 1.108154 0.060542 -0.028496 -125415.000000 0 0 1
28.147262 33.788674 20.478465 48.510931 0.876232 1.134990 0.051025 -0.034914 61201.600000 0 0 1
29.598772 -34.106607 20.072965 49.419347 -0.856041 1.152531 0.050360 -0.039301 194263.000000 0 0 1
30.426262 33.143774 19.532965 49.048995 0.828120 1.161206 0.045696 -0.043329 241650.000000 0 0 1
31.521112 33.680774 18.792165 49.810847 0.818509 1.183949 0.033726 -0.034739 493802.000000 0 0 1
32.512562 32.713674 18.048465 49.527752 0.788481 1.197796 0.014121 -0.020013 79186.300000 0 0 1
33.303182 31.916674 18.863765 49.835907 0.764142 1.182602 -0.003434 -0.028589 -126742.000000 0 0 1
34.136392 31.046474 18.108065 49.568930 0.738030 1.196830 0.009234 -0.024873 14147.200000 0 0 1
34.982412 30.163174 19.033965 49.958764 0.711556 1.179926 0.039376 -0.040605 133122.000000 0 0 1
35.900042 30.961874 19.780065 51.368294 0.711676 1.175519 0.043435 -0.039502 -484536.000000 0 0 1
-36.449205 30.262974 20.328065 51.552132 -0.692932 1.165468 0.062740 -0.031808 -579910.000000 0 0 1
-35.503060 31.304674 20.920765 51.750635 -0.722638 1.154626 0.077123 -0.025355 -468637.000000 0 0 1
-34.931126 32.161774 19.970065 51.510841 -0.744145 1.172676 0.081572 -0.024426 240345.000000 0 0 1
-33.805335 32.950874 20.353465 51.408407 -0.772599 1.163730 0.064500 -0.007939 427536.000000 0 0 1
-34.060495 -33.963407 21.138765 52.540248 0.783971 1.156731 0.052292 -0.001148 -242855.000000 0 0 1
-34.038605 34.085674 22.531965 53.180346 -0.786089 1.133281 0.065783 0.001686 171048.000000 0 0 1
-33.851625 -32.942807 23.340195 52.687054 0.771793 1.111858 0.061849 0.000635 -207276.000000 0 0 1
-33.747245 -33.265807 24.855795 53.509821 0.778214 1.087716 0.080740 -0.005060 955303.000000 0 0 1
-35.020412 -33.609307 25.460835 54.811211 0.764840 1.087705 0.062858 0.004372 548847.000000 0 0 1
-34.969502 33.739674 26.520415 55.358505 -0.767501 1.071205 0.081012 -0.010689 -90444.100000 0 0 1
-36.282495 33.526574 27.293955 56.439442 -0.745941 1.066037 0.064228 -0.014904 135062.000000 0 0 1
-36.203945 32.592974 28.408685 56.392206 -0.732959 1.042839 0.089114 -0.027743 -293179.000000 0 0 1
35.925382 32.524674 28.972855 56.461614 0.735757 1.031954 0.093526 -0.031065 -117281.000000 0 0 1
35.852852 31.585674 30.203085 56.527057 0.722207 1.007103 0.092825 -0.025231 -253579.000000 0 0 1
35.762242 30.168674 29.907905 55.529899 0.700761 1.002032 0.074238 -0.020418 169516.000000 0 0 1
-36.523295 29.616774 29.259715 55.382626 -0.681353 1.014176 0.077062 -0.017354 -363025.000000 0 0 1
36.700612 28.217874 28.646635 54.440913 0.655467 1.016674 0.075559 -0.011067 -96963.600000 0 0 1
35.570812 28.153674 27.765535 53.186812 0.669526 1.021558 0.054172 0.000202 866970.000000 0 0 1
35.232872 26.870974 27.144995 51.963981 0.651559 1.021156 0.058206 -0.005326 177915.000000 0 0 1
34.859982 25.738474 28.140765 51.668076 0.635996 0.994830 0.045778 -0.006959 45303.200000 0 0 1
36.049832 25.140874 28.671235 52.475648 0.608974 0.992770 0.044698 -0.003089 569588.000000 0 0 1
35.910532 23.738674 28.973895 51.890053 0.584104 0.978376 0.038460 -0.000082 -145726.000000 0 0 1
36.296722 22.661674 27.898945 51.081843 0.558128 0.993021 0.025796 0.008387 -366081.000000 0 0 1
35.462612 22.736574 26.781155 49.917722 0.570123 1.004505 0.028659 0.001865 -75832.300000 0 0 1
35.736512 21.788774 25.752495 49.143056 0.547526 1.019219 0.026357 -0.013942 -329435.000000 0 0 1
35.516572 20.307474 26.110015 48.534043 0.519407 1.002765 0.026160 -0.011595 -817894.000000 0 0 1
34.192282 19.866074 26.002475 47.327600 0.526340 0.989133 0.043676 -0.003513 -266457.000000 0 0 1
33.981362 18.573574 26.545835 46.950953 0.500215 0.969884 0.050394 -0.001004 -671417.000000 0 0 1
33.765932 18.495074 28.073305 47.647837 0.501109 0.940749 0.036329 -0.000965 648120.000000 0 0 1
32.704032 19.302874 28.678045 47.587655 0.533204 0.923996 0.047349 -0.008961 1122030.000000 0 0 1
32.682792 20.705674 28.393065 47.990165 0.564713 0.937701 0.035071 -0.015432 -989730.000000 0 0 1
31.771442 21.506174 29.411915 48.342536 0.595056 0.916745 0.054336 -0.022844 1742460.000000 0 0 1
30.331822 21.242174 29.347945 47.249881 0.610945 0.900623 0.063742 -0.030226 1919050.000000 0 0 1
29.704052 21.738674 28.158965 46.344665 0.631778 0.917762 0.061337 -0.019026 -698194.000000 0 0 1
29.598422 23.308974 28.052495 46.971452 0.667077 0.930760 0.058916 -0.015738 -315966.000000 0 0 1
30.805492 24.065274 27.932305 48.045077 0.663172 0.950376 0.054298 -0.015952 247282.000000 0 0 1
30.771442 25.282574 28.651825 49.061362 0.687788 0.947149 0.044849 -0.011330 -101188.000000 0 0 1
31.113472 25.346874 30.144475 50.191648 0.683616 0.926561 0.047863 -0.021617 62610.100000 0 0 1
32.497172 25.134074 30.368025 51.088206 0.658324 0.934248 0.036107 -0.011740 171992.000000 0 0 1
32.980102 24.899774 31.704455 52.085107 0.646690 0.916369 0.043988 -0.024007 166575.000000 0 0 1
32.640342 23.549874 32.438863 51.693987 0.625008 0.892436 0.049738 -0.019133 -308894.000000 0 0 1
33.017062 23.581874 33.770078 52.788724 0.620215 0.876661 0.041490 -0.021404 211743.000000 0 0 1
32.652632 22.350974 -33.765600 52.018037 0.600253 2.277215 0.032667 -0.021858 -323966.000000 0 0 1
33.161882 22.253374 -32.324190 51.378754 0.591033 2.251237 0.011761 -0.018308 -97786.700000 0 0 1
32.534602 23.229474 -31.443000 50.860309 0.620056 2.237276 0.005836 -0.019933 595714.000000 0 0 1
32.935972 23.032574 -30.063680 50.190662 0.610265 2.213035 0.014579 -0.020811 154832.000000 0 0 1
34.415692 23.463374 -29.821760 51.227992 0.598382 2.192152 0.025588 0.006094 96824.000000 0 0 1
34.823832 23.086874 -28.573030 50.617399 0.585433 2.170612 0.007802 0.002770 -34523.000000 0 0 1
35.853362 23.960374 -28.111730 51.476523 0.589124 2.148507 0.014611 0.014387 603792.000000 0 0 1
-36.685425 23.595474 -26.858390 51.224407 -0.571569 2.122722 0.004629 0.016045 82873.800000 0 0 1
-35.995351 22.348074 -27.007620 50.244534 -0.555617 2.138294 -0.004810 0.012739 385715.000000 0 0 1
-36.394825 21.348974 -26.099080 49.613747 -0.530504 2.124740 -0.009809 0.003232 -298275.000000 0 0 1
-35.542466 20.099974 -26.345050 48.593595 -0.514681 2.143791 0.009300 0.006133 209109.000000 0 0 1
-34.193815 20.180574 -25.910050 47.411003 -0.533169 2.148974 0.008738 0.000368 344045.000000 0 0 1
-33.511365 18.944174 -25.956080 46.428562 -0.514518 2.164041 -0.003589 -0.002696 -573075.000000 0 0 1
-32.093705 18.981074 -25.433640 45.134877 -0.534092 2.169416 0.005306 -0.008371 -727019.000000 0 0 1
-32.012805 19.402274 -24.071500 44.505112 -0.544877 2.142268 0.009660 -0.010805 777098.000000 0 0 1
-30.655385 19.389074 -23.608700 43.278858 -0.563964 2.147784 0.029539 -0.014075 556278.000000 0 0 1
-30.611745 19.677074 -22.027200 42.537791 -0.571293 2.115105 0.013172 -0.016554 -21133.600000 0 0 1
-31.472425 18.793474 -21.357300 42.424550 -0.538315 2.098347 0.005868 -0.013528 45645.600000 0 0 1
-31.705265 19.139274 -20.025400 42.101689 -0.543108 2.066492 0.013869 -0.014643 -952503.000000 0 0 1
-32.887365 18.346174 -19.449800 42.384615 -0.508849 2.047540 0.010569 -0.005314 65928.600000 0 0 1
-33.555325 18.915974 -18.321500 42.655026 -0.513320 2.014766 0.001210 -0.007330 348616.000000 0 0 1
-34.235116 20.140874 -18.594200 43.857066 -0.531780 2.008624 -0.015075 -0.003595 -1104250.000000 0 0 1
-35.473557 20.365474 -17.733400 44.582499 -0.521160 1.979877 0.002170 -0.006142 -411062.000000 0 0 1
-35.170575 20.585374 -16.385800 43.922903 -0.529541 1.953099 0.011945 -0.010150 36869.100000 0 0 1
-36.285795 20.203474 -15.632000 44.375654 -0.508039 1.930787 0.016464 0.000854 -512995.000000 0 0 1
-36.282375 21.061074 -14.321800 44.329375 -0.525940 1.899775 0.025978 -0.001006 -147988.000000 0 0 1
-36.526435 22.466574 -14.387900 45.232058 -0.551432 1.894511 0.032805 -0.005276 1218250.000000 0 0 1
35.481432 22.752374 -14.494800 44.572433 0.570198 1.902016 0.037405 0.000355 856835.000000 0 0 1
35.066762 24.255074 -14.706500 45.102855 0.605122 1.902935 0.041809 -0.010083 -99416.800000 0 0 1
35.444212 25.133174 -13.696800 45.558434 0.616801 1.876163 0.034433 -0.006761 -13584.900000 0 0 1
35.260332 26.490474 -14.042900 46.284331 0.644321 1.879060 0.021601 0.005424 484713.000000 0 0 1
36.559702 27.163674 -14.613600 47.833402 0.639003 1.881271 0.041842 -0.000786 643469.000000 0 0 1
-36.693465 26.975574 -16.021800 48.278256 -0.633936 1.909075 0.043349 -0.005614 406037.000000 0 0 1
-35.508945 27.652074 -16.458100 47.920678 -0.661640 1.921379 0.049877 -0.009898 40987.400000 0 0 1
-35.147822 27.345774 -17.895400 47.993813 -0.661195 1.952895 0.041758 -0.012162 -80550.100000 0 0 1
-34.679731 26.021574 -18.238100 47.036521 -0.643718 1.968979 0.037972 -0.012906 -53329.000000 0 0 1
-33.352335 25.700774 -17.914000 45.758271 -0.656545 1.973049 0.036593 -0.005959 -330140.000000 0 0 1
-32.885945 24.372474 -18.476300 44.909648 -0.637794 1.994797 0.030078 -0.005467 -412292.000000 0 0 1
-32.719125 24.428774 -19.901100 45.424221 -0.641335 2.024299 0.011600 -0.004954 238206.000000 0 0 1
-32.325545 23.120174 -20.346700 44.648309 -0.620874 2.043966 0.018163 -0.004434 -183877.000000 0 0 1
-32.089395 23.136674 -21.866800 45.201680 -0.624686 2.075743 0.012985 0.001150 841858.000000 0 0 1
-33.277815 23.262074 -22.686700 46.510465 -0.610072 2.080337 0.015688 0.004355 1039130.000000 0 0 1
-32.886175 23.014674 -24.016000 46.775463 -0.610611 2.109975 0.013503 -0.000521 60653.400000 0 0 1
-33.667425 23.893074 -25.002570 48.264925 -0.617193 2.115340 0.000678 0.017210 -22541.900000 0 0 1
-33.190415 25.254074 -24.886700 48.566652 -0.650431 2.108801 -0.005748 0.019855 648103.000000 0 0 1
-33.985935 25.995874 -25.845230 49.988050 -0.652970 2.114172 -0.003106 0.016578 600655.000000 0 0 1
-33.340365 27.392274 -26.173090 50.467289 -0.687771 2.116027 0.002943 0.013143 406375.000000 0 0 1
-32.110115 27.253574 -26.860870 49.953209 -0.703770 2.138528 -0.013782 0.012015 -317580.000000 0 0 1
-31.610585 28.570874 -26.998340 50.442386 -0.734932 2.135578 0.003910 0.001391 -131561.000000 0 0 1
-30.316105 28.754274 -27.812360 50.193643 -0.758964 2.158079 0.023694 -0.000642 36465.800000 0 0 1
-29.228795 28.211374 -27.074180 48.818186 -0.767687 2.158669 0.019097 0.003663 356548.000000 0 0 1
-27.947225 28.135474 -27.693680 48.369331 -0.788755 2.180405 0.034748 0.006350 909287.000000 0 0 1
-27.093155 29.417474 -27.494090 48.531967 -0.826506 2.173067 0.036537 -0.016876 -544636.000000 0 0 1
-26.490185 29.624374 -26.233710 47.618704 -0.841194 2.154253 0.026480 -0.015002 880151.000000 0 0 1
-27.389535 30.195474 -25.193980 47.923792 -0.834087 2.124345 0.016047 -0.004387 722237.000000 0 0 1
-26.598775 30.678274 -23.970500 47.151205 -0.856502 2.104093 -0.009824 -0.007215 63808.300000 0 0 1
-25.916755 31.935474 -24.045000 47.641523 -0.889061 2.099839 -0.000917 -0.013036 279850.000000 0 0 1
-25.423835 32.229174 -22.709900 46.913011 -0.902894 2.076114 0.015923 -0.004431 147057.000000 0 0 1
-24.744025 33.616074 -22.555500 47.445313 -0.936266 2.066215 0.011360 0.006885 -353615.000000 0 0 1
-25.648745 -33.554807 -22.720300 47.958265 0.918153 2.064342 -0.005391 -0.007028 -149823.000000 0 0 1
-25.052025 -32.290407 -22.977000 46.885145 0.910965 2.082966 0.011992 -0.008035 -237906.000000 0 0 1
16.752075 8.797774 -25.031980 31.378860 0.483584 2.494324 0.026294 -0.019522 -499216.000000 0 0 1
15.542375 8.156674 -24.789000 30.374188 0.483292 2.525462 0.030384 -0.021190 -295081.000000 0 0 1
15.661475 6.845174 -25.204400 30.453243 0.412050 2.545691 0.027388 -0.020595 826822.000000 0 0 1
14.286675 6.112674 -24.987300 29.425143 0.404289 2.585231 0.033937 -0.021175 732787.000000 0 0 1
13.762875 5.916374 -23.677300 28.018472 0.405996 2.577474 0.063086 -0.044988 -275592.000000 0 0 1
12.452575 5.461874 -23.897100 27.494910 0.413345 2.624270 0.058057 -0.040766 -733876.000000 0 0 1
11.555875 5.772874 -22.690600 26.109915 0.463297 2.624058 0.076142 -0.047599 -427097.000000 0 0 1
11.772275 4.975374 -21.505700 25.016713 0.399866 2.605387 0.063249 -0.039819 114314.000000 0 0 1
11.070875 5.383374 -20.320100 23.758187 0.452599 2.596903 0.076536 -0.033320 -222528.000000 0 1 0
11.673175 6.627974 -19.630600 23.781369 0.516403 2.541815 0.075337 -0.045411 -207919.000000 0 1 0
11.330775 6.806074 -18.260900 22.542617 0.540913 2.515053 0.067065 -0.033864 -381298.000000 0 1 0
11.575975 8.123774 -17.858600 22.780002 0.611919 2.471815 0.069353 -0.031039 36068.300000 0 1 0
13.023675 8.446974 -17.452800 23.357391 0.575381 2.414645 0.068350 -0.031731 -208857.000000 0 1 0
13.448675 7.808374 -16.254800 22.495691 0.526037 2.378315 0.072760 -0.028531 -349119.000000 0 1 0
14.765575 8.178374 -15.945900 23.220244 0.505818 2.327769 0.056345 -0.028530 -402776.000000 0 1 0
15.147875 7.712474 -14.518700 22.354709 0.470937 2.277683 0.048139 -0.034642 -871044.000000 0 1 0
16.535875 7.556274 -14.417200 23.203192 0.428629 2.241255 0.046383 -0.042438 -119381.000000 0 1 0
17.012275 7.703374 -13.096500 22.809599 0.425190 2.182382 0.043183 -0.038852 -230095.000000 0 1 0
17.361275 9.141674 -12.735000 23.391544 0.484666 2.146503 0.067584 -0.036202 -1082810.000000 0 1 0
16.276275 10.003674 -12.858500 23.028931 0.551098 2.163207 0.058424 -0.029969 -316533.000000 0 1 0
16.710075 11.324674 -12.890500 23.950780 0.595613 2.139106 0.094659 -0.034230 283286.000000 0 1 0
15.525275 12.345674 -12.902200 23.662557 0.671806 2.147493 0.103302 -0.026364 189508.000000 0 1 0
14.870875 12.464474 -11.666700 22.641068 0.697592 2.112142 0.096467 -0.017510 248302.000000 0 1 0
15.522575 13.315074 -10.665700 23.065097 0.708998 2.051516 0.109956 -0.015972 258298.000000 0 1 0
15.035775 14.805074 -10.777300 23.694197 0.777667 2.043000 0.109507 -0.019774 579790.000000 0 1 0
13.737875 15.169474 -10.318200 22.919586 0.834881 2.037776 0.102425 -0.022997 532762.000000 0 1 0
13.407575 16.564874 -10.501200 23.757806 0.890351 2.028635 0.107781 -0.027991 127177.000000 0 1 0
12.348875 17.021174 -9.488100 23.070308 0.943160 1.994642 0.098888 -0.026965 -89985.400000 0 1 0
12.755475 16.834074 -8.151200 22.639131 0.922374 1.939117 0.095335 -0.027987 45755.200000 0 1 0
11.751275 17.141874 -7.233800 22.006003 0.969848 1.905744 0.082492 -0.027640 -205886.000000 0 1 0
12.352075 17.096274 -5.825300 21.881281 0.945128 1.840269 0.070318 -0.019335 481588.000000 0 1 0
13.290775 18.125074 -5.514500 23.142444 0.938081 1.811396 0.083085 -0.017917 253141.000000 0 1 0
13.802475 17.939774 -4.230600 23.026980 0.915008 1.755570 0.083979 -0.007388 -309791.000000 0 1 0
15.047075 18.819374 -4.020800 24.428470 0.896328 1.736144 0.086442 -0.015809 -144402.000000 0 1 0
16.223475 18.404774 -4.682700 24.977281 0.848307 1.759391 0.105546 -0.037344 -274615.000000 0 1 0
17.036575 19.487474 -4.986100 26.360344 0.852401 1.761094 0.082883 -0.032947 -1131440.000000 0 0 1
18.325875 19.057474 -5.638000 27.033536 0.804966 1.780894 0.089122 -0.020791 -738915.000000 0 0 1
19.305075 18.425574 -4.833300 27.120998 0.762092 1.749966 0.082595 -0.033965 252002.000000 0 0 1
19.380575 17.058974 -5.073300 26.312614 0.721773 1.764820 0.099219 -0.051063 -154403.000000 0 0 1
20.628775 16.438474 -4.411400 26.743789 0.672830 1.736504 0.109944 -0.051409 -123589.000000 0 0 1
21.893575 16.859774 -4.856500 28.056483 0.656228 1.744770 0.092319 -0.047565 -378491.000000 0 0 1
22.841575 15.973574 -4.356800 28.211245 0.610270 1.725852 0.103312 -0.050966 105192.000000 0 0 1
24.309575 16.423374 -4.656300 29.704609 0.594157 1.728199 0.100711 -0.043480 574486.000000 0 0 1
24.817575 17.527074 -3.924900 30.635196 0.614899 1.699267 0.100656 -0.042684 -14771.900000 0 0 1
26.223975 17.555274 -3.954600 31.804456 0.589917 1.695460 0.090805 -0.034908 -20673.400000 0 0 1
26.845075 18.873074 -3.371400 32.988139 0.612761 1.673175 0.096493 -0.030823 -32428.800000 0 0 1
26.914675 19.984274 -4.228600 33.788342 0.638687 1.696275 0.088001 -0.033345 209467.000000 0 0 1
27.213075 21.140174 -3.467400 34.633529 0.660458 1.671081 0.096238 -0.015172 -465979.000000 0 0 1
27.041775 22.472974 -4.321000 35.425460 0.693387 1.693075 0.074079 -0.021150 -379409.000000 0 0 1
28.143175 22.904974 -5.056000 36.636584 0.683143 1.709242 0.074271 -0.009339 -210769.000000 0 0 1
28.610275 22.060374 -6.090500 36.637442 0.656847 1.737809 0.066691 -0.008691 -256232.000000 0 0 1
29.632175 22.712574 -7.000600 37.985987 0.653967 1.756150 0.068253 -0.003573 15889.500000 0 0 1
29.015175 23.617774 -7.910200 38.239390 0.683207 1.779161 0.057905 0.000172 684060.000000 0 0 1
30.047175 24.413474 -8.490200 39.635009 0.682319 1.786679 0.054822 -0.000339 581736.000000 0 0 1
30.901375 23.750974 -9.587500 40.136317 0.655303 1.812002 0.050091 -0.003030 305834.000000 0 0 1
30.173175 23.534274 -10.786700 39.757207 0.662410 1.845555 0.047922 0.005141 338984.000000 0 0 1
31.153275 23.155874 -11.745400 40.554599 0.639192 1.864626 0.034385 0.004713 303714.000000 0 0 1
30.777275 22.834174 -13.202500 40.533273 0.638308 1.902570 0.038140 0.011805 -101200.000000 0 0 1
30.476475 24.015674 -14.004400 41.251562 0.667385 1.917169 0.046626 0.000531 160522.000000 0 0 1
30.277375 23.623974 -15.349300 41.357135 0.662583 1.951033 0.047371 -0.005770 -122322.000000 0 0 1
30.162475 24.788074 -16.379700 42.338140 0.687904 1.968040 0.050915 0.001042 -258846.000000 0 0 1
31.402875 25.319074 -16.757900 43.680926 0.678550 1.964535 0.041295 -0.002687 -334114.000000 0 0 1
31.681075 25.358874 -18.134100 44.447819 0.675011 1.991044 0.048775 -0.008559 -286283.000000 0 0 1
33.150675 25.678374 -18.404300 45.793716 0.659057 1.984383 0.036261 -0.011693 -78600.000000 0 0 1
34.039175 24.567374 -18.338900 45.809787 0.625167 1.982670 0.031729 -0.003686 712419.000000 0 0 1
35.411375 24.999374 -18.285300 47.045578 0.614722 1.969986 0.031596 -0.005077 892434.000000 0 0 1
36.417075 23.801374 -18.262400 47.182879 0.578886 1.968233 0.021330 -0.012232 83373.100000 0 0 1
36.306475 23.002074 -19.451500 47.176439 0.564726 1.995789 0.017752 -0.006512 -211678.000000 0 0 1
-36.175111 23.404874 -20.386000 47.665667 -0.574255 2.012729 0.012215 -0.006591 -669197.000000 0 0 1
-36.195211 22.411674 -21.571700 47.725409 -0.554410 2.039798 0.007684 -0.009383 -42689.100000 0 0 1
-35.817411 21.084174 -21.265300 46.686640 -0.532037 2.043719 -0.009082 -0.008429 203380.000000 0 0 1
-35.647911 20.336574 -22.454700 46.782084 -0.518434 2.071434 -0.000222 -0.009713 52167.100000 0 0 1
-35.383611 18.834174 -22.336400 45.887262 -0.489141 2.079181 -0.004288 -0.007270 678826.000000 0 0 1
-36.539811 18.073274 -21.975900 46.311351 -0.459333 2.065221 -0.024295 -0.006232 466233.000000 0 0 1
-36.105711 16.768674 -22.078600 45.522252 -0.434791 2.077167 -0.021137 -0.008905 -159395.000000 0 0 1
36.192875 15.726074 -21.936200 45.148981 0.409896 2.078146 -0.023507 -0.003813 -135098.000000 0 0 1
35.386975 15.710574 -23.118200 45.094471 0.417824 2.109078 0.018529 -0.004076 303023.000000 0 0 1
34.328275 14.777074 -23.000600 43.884166 0.406489 2.122479 0.048365 -0.004401 -333354.000000 0 0 1
34.660575 13.367474 -23.646200 44.036208 0.368090 2.137640 0.007815 -0.011277 -504255.000000 0 0 1
34.587875 13.392374 -25.046840 44.755123 0.369422 2.164750 0.004154 0.000285 211178.000000 0 0 1
35.170775 12.240674 -25.623720 45.203900 0.334924 2.173471 0.002515 0.004446 -478574.000000 0 0 1
34.900875 12.146574 -27.154260 45.858088 0.334919 2.204504 0.033240 0.001665 -87784.000000 0 0 1
33.499775 12.109974 -27.370930 44.922758 0.346878 2.225960 0.038094 -0.001153 201106.000000 0 0 1
32.981675 13.141174 -28.191390 45.334709 0.379160 2.241899 0.044398 -0.006403 -374370.000000 0 0 1
33.259775 13.043274 -29.691490 46.453463 0.373733 2.264210 0.051692 -0.012037 -440291.000000 0 0 1
34.601975 13.392074 -29.961970 47.690292 0.369277 2.250113 0.047216 -0.003126 -122108.000000 0 0 1
34.856075 13.311774 -31.339950 48.727218 0.364812 2.269429 0.053828 -0.008016 -2010180.000000 0 0 1
36.281575 13.489774 -31.764730 50.073194 0.355969 2.257984 0.064949 -0.002502 -1059630.000000 0 0 1
-36.173311 12.521774 -31.457620 49.546797 -0.333250 2.258685 0.069715 -0.002390 -11961.200000 0 0 1
-35.940811 12.404674 -30.026160 48.447788 -0.332340 2.239237 0.041442 0.002536 -1393220.000000 0 0 1
-34.811811 11.412074 -29.685170 47.151956 -0.316782 2.251788 0.053302 -0.001854 -160825.000000 0 0 1
-35.010311 10.082074 -30.093280 47.254371 -0.280388 2.261184 0.066104 -0.001567 -144459.000000 0 0 1
-33.952711 9.235274 -29.729230 46.064129 -0.265579 2.272327 0.069750 -0.003714 -120309.000000 0 0 1
-34.169211 7.752674 -30.195600 46.253791 -0.223113 2.282103 0.084415 -0.009039 -597671.000000 0 0 1
-34.062011 7.694574 -31.641510 47.123372 -0.222170 2.306975 0.091773 -0.016525 66443.500000 0 0 1
-34.519611 6.561774 -32.347230 47.759855 -0.187847 2.314868 0.091478 -0.020457 114891.000000 0 0 1
-35.956011 6.061674 -32.069880 48.559817 -0.167015 2.292174 0.105698 -0.012009 -322361.000000 0 0 1
-36.070711 5.435674 -30.778120 47.727722 -0.149570 2.271648 0.099727 -0.009287 -102683.000000 0 0 1
36.030275 4.989074 -30.579980 47.520593 0.137594 2.269871 0.083997 0.004083 -283069.000000 0 0 1
35.806275 4.434374 -29.157970 46.389010 0.123216 2.250488 0.089004 -0.013416 -69374.300000 0 0 1
36.590775 3.285974 -28.922230 46.756581 0.089563 2.237718 0.104945 -0.007974 272115.000000 0 0 1
36.380375 2.779074 -27.627580 45.766124 0.076241 2.218891 0.106675 -0.010932 -357353.000000 0 0 1
-36.366211 1.467274 -27.301480 45.497528 -0.040325 2.214379 0.147701 -0.014166 -685611.000000 0 0 1
-35.047111 1.555574 -26.857210 44.181778 -0.044356 2.224184 0.138001 -0.012807 -393408.000000 0 0 1
-34.444711 0.245274 -26.879750 43.692325 -0.007121 2.233443 0.150998 -0.014783 910797.000000 0 0 1
-33.085711 0.265974 -26.079490 42.129263 -0.008039 2.238310 0.138117 -0.019435 784378.000000 0 0 1
-33.368111 0.443874 -24.709400 41.523274 -0.013302 2.208153 0.131592 -0.019716 994449.000000 0 0 1
-32.128711 0.544374 -23.990800 40.101233 -0.016942 2.212119 0.133268 -0.006261 761547.000000 0 0 1
-32.402611 0.305374 -22.442900 39.417080 -0.009424 2.176536 0.115819 -0.004797 -181788.000000 0 0 1
-32.513911 -1.105726 -22.155400 39.360371 0.033995 2.168670 0.114048 -0.023094 225902.000000 0 0 1
-32.680611 -1.378526 -20.764200 38.743705 0.042157 2.136414 0.105201 -0.011184 -482347.000000 0 0 1
-34.020211 -1.077026 -20.071500 39.514553 0.031648 2.103602 0.098171 -0.008528 -465542.000000 0 0 1
-34.948311 -2.089126 -20.433000 40.537099 0.059707 2.099086 0.095494 -0.014991 143558.000000 0 0 1
-36.261711 -1.730526 -20.043600 41.468691 0.047687 2.075266 0.096554 -0.013037 39800.500000 0 0 1
36.238575 -2.920326 -19.710300 41.355273 -0.080412 2.067590 0.098799 -0.019851 -195031.000000 0 0 1
35.614575 -3.628926 -20.802300 41.404139 -0.101544 2.097193 0.082634 -0.017116 175079.000000 0 0 1
36.439275 -4.121926 -21.848000 42.686604 -0.112639 2.108102 0.062370 -0.012558 -101559.000000 0 0 1
35.689775 -5.092026 -22.843600 42.679256 -0.141718 2.135587 0.066096 -0.005526 -245456.000000 0 0 1
35.247275 -6.326026 -22.276700 42.173930 -0.177585 2.127288 0.073077 -0.004081 43395.000000 0 0 1
34.846475 -7.302026 -23.189700 42.489512 -0.206560 2.148110 0.071333 0.001479 -521373.000000 0 0 1
33.439975 -7.187626 -23.754400 41.643312 -0.211720 2.177820 0.041268 0.007766 -844343.000000 0 0 1
33.288175 -6.161526 -24.698100 41.905407 -0.183025 2.201084 0.049224 0.003309 -204634.000000 0 0 1
31.914775 -5.934726 -24.907700 40.916590 -0.183855 2.225272 0.018455 0.003130 -79543.400000 0 0 1
31.664275 -4.739426 -25.888450 41.174025 -0.148574 2.250750 0.044453 -0.022020 32332.600000 0 0 1
31.877975 -5.115526 -27.249850 42.248411 -0.159116 2.271808 0.048913 -0.024437 443984.000000 0 0 1
31.457275 -3.994126 -28.062870 42.344278 -0.126294 2.295256 0.059413 -0.028486 80163.600000 0 0 1
31.428175 -4.245826 -29.575020 43.364029 -0.134283 2.321314 0.071125 -0.022117 195719.000000 0 0 1
30.790075 -3.165926 -30.247950 43.278058 -0.102463 2.344684 0.063466 -0.034577 189401.000000 0 0 1
30.346575 -3.572526 -31.546700 43.918924 -0.117185 2.372143 0.072519 -0.039783 -257461.000000 0 0 1
29.754375 -2.435226 -32.416620 44.069155 -0.081662 2.397327 0.078396 -0.037385 589786.000000 0 0 1
28.721975 -1.607926 -31.768130 42.857337 -0.055924 2.405731 0.049147 -0.033230 1449630.000000 0 0 1
27.407575 -2.135626 -31.619110 41.898737 -0.077764 2.425925 0.053452 -0.036071 698549.000000 0 0 1
26.624775 -2.469326 -32.970420 42.450263 -0.092481 2.460180 0.056907 -0.030020 -766215.000000 0 0 1
26.908075 -3.763526 -33.495100 43.129229 -0.138965 2.460082 0.067510 -0.030558 114943.000000 0 0 1
26.323575 -3.966026 33.410827 42.719356 -0.149540 0.672767 0.041371 -0.025874 -937719.000000 0 0 1
26.640075 -5.342926 32.808183 42.598326 -0.197934 0.691680 0.055224 -0.030666 -1143900.000000 0 0 1
27.985375 -5.535826 32.442937 43.201513 -0.195290 0.721270 0.057444 -0.023104 -187545.000000 0 0 1
28.299475 -5.139826 31.119985 42.376073 -0.179664 0.746049 0.054545 -0.024752 -177537.000000 0 0 1
28.803375 -3.680826 30.867435 42.379021 -0.127103 0.754862 0.057760 -0.018195 9395.600000 0 0 1
30.034975 -3.280026 31.465665 43.622774 -0.108776 0.765100 0.076230 -0.029317 408981.000000 0 0 1
30.353775 -1.934426 31.299155 43.643222 -0.063643 0.771078 0.074077 -0.026671 435870.000000 0 0 1
31.686175 -1.543526 32.012125 45.068529 -0.048674 0.780874 0.089075 -0.039876 539871.000000 0 0 1
32.887275 -1.996226 31.425825 45.531750 -0.060625 0.809037 0.097428 -0.035069 500240.000000 0 0 1
34.025375 -1.509126 32.165832 46.847032 -0.044324 0.813975 0.102340 -0.026464 115847.000000 0 0 1
35.338375 -2.158026 31.766335 47.566352 -0.060992 0.839504 0.115857 -0.020381 -654982.000000 0 0 1
35.814975 -1.724626 30.501015 47.074395 -0.048117 0.865930 0.101093 -0.023240 614621.000000 0 0 1
-36.453911 -2.458026 30.057055 47.311268 0.067326 0.882394 0.101462 -0.025983 178402.000000 0 0 1
-35.848711 -2.069626 28.748505 45.998804 0.057668 0.895686 0.096489 -0.031092 -79584.100000 0 0 1
-36.643411 -2.301326 27.592765 45.928165 0.062721 0.926319 0.106628 -0.041092 -52249.400000 0 0 1
-35.907211 -1.956126 26.428835 44.627767 0.054423 0.937002 0.085602 -0.029074 139454.000000 0 0 1
-26.323725 14.822874 12.737400 32.785628 -0.512845 1.171787 0.073541 -0.012898 234385.000000 0 0 1
-27.616985 14.295774 12.983300 33.699155 -0.477663 1.175295 0.076431 -0.016661 656954.000000 0 0 1
-28.551305 15.234774 13.501100 35.065012 -0.490159 1.175555 0.076621 -0.017621 412775.000000 0 0 1
-29.875655 14.526474 13.903300 36.012150 -0.452572 1.174426 0.078157 -0.017116 506012.000000 0 0 1
-30.877185 15.427374 14.353500 37.382180 -0.463357 1.176708 0.094002 -0.017318 108198.000000 0 0 1
-32.097785 14.804374 14.731500 38.294312 -0.432151 1.175923 0.119109 -0.026600 322101.000000 0 0 1
-33.013765 15.799574 15.510200 39.750491 -0.446361 1.169960 0.105584 -0.023681 73018.100000 0 0 1
-32.536345 16.214374 16.756300 40.028655 -0.462324 1.138885 0.098092 -0.021017 -698290.000000 0 0 1
-33.478185 15.994274 17.722700 41.118119 -0.445691 1.125174 0.112082 -0.035859 -448937.000000 0 0 1
-32.938815 16.490174 19.098200 41.492561 -0.464152 1.092486 0.123275 -0.021428 -24482.800000 0 0 1
-32.130225 15.511474 19.674000 40.743385 -0.449768 1.066860 0.125531 -0.022131 -713073.000000 0 0 1
-31.232965 16.021374 20.616500 40.708999 -0.473965 1.039750 0.103716 -0.020343 -94302.300000 0 0 1
-31.760055 16.531474 21.982900 42.014743 -0.479922 1.020173 0.103317 -0.030086 -424478.000000 0 0 1
-32.643525 17.682574 21.936600 43.121776 -0.496439 1.037107 0.107394 -0.034813 822678.000000 0 0 1
-33.340755 17.915874 23.164600 44.375479 -0.493084 1.021586 0.110014 -0.040037 -392633.000000 0 0 1
-34.345707 16.837074 23.653100 44.973145 -0.455796 1.016978 0.102067 -0.037300 -786195.000000 0 0 1
-35.595119 16.719774 23.050400 45.583816 -0.439132 1.040637 0.094467 -0.028329 608283.000000 0 0 1
-36.523135 17.850374 23.320000 46.865740 -0.454600 1.049976 0.073193 -0.029275 759007.000000 0 0 1
35.400382 17.469274 23.077000 45.726475 0.458416 1.041791 0.075152 -0.031551 458753.000000 0 0 1
34.959772 16.624774 24.128900 45.615486 0.443889 1.013418 0.069979 -0.023988 988906.000000 0 0 1
33.751822 15.869174 23.825600 44.256925 0.439502 1.002321 0.077779 -0.021221 1097810.000000 0 0 1
33.358622 14.848374 24.913000 44.203274 0.418783 0.972058 0.051737 -0.004009 -438404.000000 0 0 1
32.966492 15.441974 26.128700 44.810190 0.438061 0.948260 0.072046 -0.009702 190033.000000 0 0 1
32.951312 14.583674 27.208500 45.152796 0.416668 0.924057 0.068481 -0.002140 76476.400000 0 0 1
31.827302 13.528374 27.211700 44.005348 0.401918 0.904126 0.067490 0.002954 -333307.000000 0 0 1
32.368512 12.334974 26.787100 43.788365 0.364090 0.912538 0.070031 0.002969 145940.000000 0 0 1
31.417162 11.308874 26.829200 42.833803 0.345519 0.893927 0.069759 0.000963 177543.000000 0 0 1
32.163502 9.955274 26.619800 42.920999 0.300168 0.901793 0.084032 -0.007225 177448.000000 0 0 1
33.186262 9.695074 27.543500 44.203697 0.284231 0.898091 0.082424 -0.002084 -128603.000000 0 0 1
33.650082 8.365174 27.328600 44.149253 0.243654 0.903321 0.089573 -0.007793 421798.000000 0 0 1
34.761972 7.923074 28.376900 45.567733 0.224095 0.898555 0.089528 -0.017082 -340281.000000 0 0 1
36.010712 8.385274 28.018100 46.390712 0.228778 0.922337 0.099934 -0.013222 -1133620.000000 0 0 1
-36.429055 7.453674 28.400800 46.789301 -0.201822 0.918524 0.093198 -0.016686 -571862.000000 0 0 1
-35.082837 8.067574 28.763800 46.078708 -0.226028 0.896648 0.083105 -0.015993 -639502.000000 0 0 1
-34.388883 8.556374 27.660300 44.954410 -0.243860 0.908034 0.066881 -0.017294 -515933.000000 0 0 1
-33.178105 9.130574 28.084300 44.417135 -0.268551 0.886297 0.075505 -0.013509 -224873.000000 0 0 1
-32.457635 9.807474 26.897300 43.279895 -0.293439 0.900174 0.076595 -0.022630 -151112.000000 0 0 1
-31.758095 8.885574 26.045400 42.022528 -0.272813 0.902313 0.068218 -0.022801 456273.000000 0 0 1
-30.919015 9.531674 25.111200 40.956204 -0.299035 0.910788 0.065094 -0.012262 -56808.300000 0 0 1
-30.154635 8.482174 24.275300 39.630032 -0.274204 0.911516 0.059095 -0.016149 130009.000000 0 0 1
-29.075835 9.066074 23.560800 38.505963 -0.302254 0.912369 0.054028 -0.012804 224056.000000 0 0 1
-28.468635 8.159974 22.673600 37.297996 -0.279146 0.917378 0.043635 -0.005102 12594.600000 0 0 1
-27.417045 8.809674 21.742700 36.083926 -0.310901 0.924092 0.033335 0.000795 -4765.300000 0 0 1
-26.288255 9.312574 22.486400 35.825055 -0.340455 0.892237 0.038325 0.004468 1933500.000000 0 0 1
-25.275515 10.000674 21.642300 34.745565 -0.376765 0.898378 0.041034 0.014144 1772970.000000 0 0 1
-24.513725 9.338674 20.444400 33.258187 -0.363983 0.908768 0.027729 0.010169 323481.000000 0 0 1
-25.420715 9.213574 19.319700 33.231814 -0.347717 0.950395 0.019590 0.005017 1015110.000000 0 0 1
-24.808025 8.526274 18.232600 31.946254 -0.331043 0.963405 0.022952 -0.005864 10938.900000 0 0 1
-24.444825 7.011774 18.403600 31.391192 -0.279341 0.944354 0.021694 -0.000497 -153885.000000 0 0 1
-23.202425 6.722874 19.034100 30.754618 -0.282026 0.903452 0.024430 0.001525 520837.000000 0 0 1
-23.052925 5.359574 19.410000 30.608993 -0.228432 0.883917 0.041025 -0.004955 -210652.000000 0 0 1
-23.094425 4.264474 18.306000 29.776632 -0.182597 0.908693 0.038904 -0.008180 -181196.000000 0 0 1
-24.422025 4.025274 17.829200 30.504401 -0.163353 0.946558 0.066590 -0.011533 878329.000000 0 0 1
-24.496325 2.997774 16.869600 29.893812 -0.121771 0.971190 0.065151 -0.014885 -156062.000000 0 0 1
-24.429525 1.512474 17.346000 29.999549 -0.061833 0.954265 0.087689 -0.018913 684949.000000 0 0 1
-23.095925 1.083474 17.723100 29.132523 -0.046878 0.916802 0.052502 -0.008706 1402760.000000 0 0 1
-23.183525 -0.154426 18.459900 29.635579 0.006661 0.898356 0.084922 -0.016963 -1024270.000000 0 0 1
-21.877025 -0.880726 18.563600 28.705176 0.040236 0.867548 0.063330 -0.001257 -942869.000000 0 0 1
-20.883525 -0.324526 19.402200 28.507408 0.015539 0.822212 0.044972 -0.007463 -200014.000000 0 0 1
-19.964925 -1.332726 19.717700 28.092029 0.066654 0.792740 0.047200 -0.002857 -528268.000000 0 0 1
-18.882125 -0.914226 20.709200 28.039997 0.048380 0.739865 0.056816 -0.006509 -201497.000000 0 0 1
-19.287225 -0.667026 22.042100 29.296691 0.034570 0.719136 0.064292 -0.016480 -516453.000000 0 0 1
-18.222625 -0.350926 22.900000 29.267682 0.019255 0.672233 0.061326 -0.021602 -682317.000000 0 0 1
-18.552725 -0.608126 24.409900 30.666213 0.032767 0.650160 0.068143 -0.017841 652889.000000 0 0 1
-19.490025 0.281374 25.041200 31.733294 -0.014436 0.661430 0.069557 -0.029518 -327615.000000 0 0 1
-20.819625 -0.002926 24.736000 32.331509 0.000141 0.699640 0.108515 -0.029678 -183866.000000 0 0 1
-21.892425 0.947974 25.435300 33.572778 -0.043274 0.711142 0.082506 -0.037824 411097.000000 0 0 1
-21.763125 2.312274 25.074800 33.282515 -0.105850 0.717590 0.079303 -0.033157 654624.000000 0 0 1
-22.933825 2.893074 24.450100 33.647252 -0.125486 0.757349 0.076632 -0.029521 8756.530000 0 0 1
-22.657525 4.025374 23.403800 32.822323 -0.175827 0.776964 0.076131 -0.025029 -185690.000000 0 0 1
-22.046625 3.740874 22.177100 31.493992 -0.168079 0.789544 0.069874 -0.022228 1512490.000000 0 0 1
-20.669625 3.290974 22.355600 30.624120 -0.157893 0.752475 0.059640 -0.015985 757093.000000 0 0 1
-20.124825 2.611674 21.018800 29.216765 -0.129053 0.767845 0.057229 -0.013921 -141728.000000 0 0 1
-19.805025 3.495074 20.011500 28.371018 -0.174676 0.787879 0.053303 -0.009996 120719.000000 0 0 1
-19.463525 2.731774 18.936900 27.292812 -0.139443 0.803986 0.068994 -0.010844 -189176.000000 0 0 1
-19.047225 3.572274 17.707300 26.250836 -0.185395 0.830452 0.050182 -0.005496 341280.000000 0 0 1
-17.664025 3.915674 17.766000 25.357071 -0.218147 0.794512 0.053108 -0.017678 562775.000000 0 0 1
-17.195025 4.434274 16.482100 24.227903 -0.252382 0.822632 0.052207 -0.015225 -72395.000000 0 1 0
-15.692325 4.761574 16.441400 23.221569 -0.294604 0.784102 0.056151 -0.012186 -270921.000000 0 1 0
-15.153525 5.602174 17.413500 23.753813 -0.354111 0.747954 0.051708 -0.015318 -227081.000000 0 1 0
-15.591725 6.953674 17.476200 24.430985 -0.419510 0.773701 0.046659 -0.026463 -690567.000000 0 1 0
-15.064225 7.889074 16.357600 23.595327 -0.482424 0.804799 0.031525 -0.015862 -51886.300000 0 1 0
-15.551825 7.691474 14.963100 22.910967 -0.459295 0.859128 0.033702 -0.018061 12325.400000 0 1 0
-16.913525 7.948874 14.772400 23.821749 -0.439338 0.901898 0.028033 -0.011742 -234623.000000 0 1 0
-17.480425 7.433974 13.427200 23.261963 -0.402103 0.955480 0.036956 -0.014673 -232.270000 0 1 0
-17.277325 6.020574 13.409000 22.683795 -0.335308 0.938341 0.031433 -0.015654 408947.000000 0 1 0
-17.762525 5.377374 12.199100 22.209040 -0.293966 0.989288 0.031303 -0.020318 130487.000000 0 1 0
-17.397625 3.898974 12.201300 21.604422 -0.220467 0.970655 0.033357 -0.011999 257411.000000 0 1 0
-18.124025 3.128574 13.199900 22.638587 -0.170936 0.948293 0.042647 -0.013522 815103.000000 0 1 0
-17.516725 1.862374 13.456900 22.167369 -0.105922 0.918442 0.027030 -0.008447 -281944.000000 0 1 0
-18.398925 1.083074 14.430800 23.408150 -0.058798 0.906524 0.036019 -0.009062 147418.000000 0 1 0
-19.629225 0.587574 13.952800 24.090088 -0.029925 0.953058 0.046596 -0.007387 171296.000000 0 1 0
-20.413825 0.035774 14.995200 25.329460 -0.001752 0.937250 0.053747 -0.011181 1270710.000000 0 0 1
-21.927725 -0.181826 14.560500 26.322354 0.008292 0.984642 0.067995 -0.011069 1094160.000000 0 0 1
-22.003725 -1.244126 13.636800 25.916675 0.056481 1.016696 0.083384 -0.020111 415794.000000 0 0 1
-23.308525 -1.350726 13.095600 26.769507 0.057885 1.059626 0.141157 -0.026916 44755.400000 0 0 1
-23.404025 -2.500026 12.042100 26.438810 0.106417 1.097896 0.132477 -0.036337 -210415.000000 0 0 1
-23.224425 -3.797426 12.592700 26.690269 0.162076 1.079455 0.103491 -0.033012 309489.000000 0 0 1
-23.221725 -4.740926 11.514100 26.349561 0.201391 1.118563 0.104468 -0.035367 -112097.000000 0 0 1
-23.177825 -6.152626 12.108400 26.864097 0.259469 1.103216 0.100114 -0.032328 343975.000000 0 0 1
-24.412525 -6.559226 12.694700 28.286926 0.262484 1.105393 0.104392 -0.028052 326189.000000 0 0 1
-24.369425 -7.801226 13.399400 28.883765 0.309815 1.088395 0.098076 -0.030669 -93703.200000 0 0 1
-25.270425 -7.950826 14.669900 30.282271 0.304824 1.065075 0.104005 -0.019423 473655.000000 0 0 1
-26.659815 -7.755826 14.442700 31.296807 0.283104 1.091139 0.127355 -0.022495 50331.300000 0 0 1
-27.311635 -8.129326 15.610500 32.491523 0.289300 1.069630 0.123493 -0.019462 -1419110.000000 0 0 1
-28.721115 -7.549026 15.791800 33.634375 0.257025 1.082056 0.140145 -0.023970 -504119.000000 0 0 1
-29.687715 -7.889526 14.813400 34.103399 0.259747 1.121461 0.111682 -0.023270 501407.000000 0 0 1
-30.070945 -9.246426 14.714900 34.731634 0.298311 1.133299 0.106819 -0.035716 -678287.000000 0 0 1
-30.602795 -9.976726 16.015100 35.952045 0.315142 1.109111 0.107728 -0.033489 -336185.000000 0 0 1
-29.535335 -10.308426 16.885600 35.548884 0.335802 1.075836 0.107035 -0.020092 488135.000000 0 0 1
-29.976295 -11.101526 17.988000 36.679562 0.354682 1.058237 0.096494 -0.016435 209264.000000 0 0 1
-28.785535 -11.284626 18.962700 36.270288 0.373612 1.020645 0.098915 -0.010632 1064700.000000 0 0 1
-27.717335 -12.062626 18.347700 35.360934 0.410480 1.025269 0.082910 -0.016614 364964.000000 0 0 1
-26.585475 -12.012326 19.176100 34.911406 0.424381 0.989295 0.082958 -0.014549 -570105.000000 0 0 1
-25.461045 -12.915026 18.684700 34.120092 0.469428 0.991284 0.054151 -0.004056 -423750.000000 0 0 1
-25.084885 -12.476626 17.340700 32.948710 0.461546 1.016560 0.048314 -0.008768 178982.000000 0 0 1
-23.777025 -12.913826 17.034700 31.973345 0.497547 1.008916 0.038599 -0.012494 11940.400000 0 0 1
-23.438025 -12.855126 15.545900 30.923620 0.501670 1.044055 0.046099 -0.011649 -145825.000000 0 0 1
-23.184325 -11.509926 15.107000 29.970198 0.460806 1.042495 0.028226 -0.006299 -194304.000000 0 0 1
-22.952925 -11.416226 13.750800 29.090402 0.461546 1.078453 0.025505 -0.009650 -1220140.000000 0 0 1
-21.578325 -10.965426 13.379800 27.656531 0.470161 1.065823 0.037116 -0.023906 -1599160.000000 0 0 1
-21.440425 -9.560126 13.493200 27.076821 0.419433 1.049125 0.050382 -0.026282 547451.000000 0 0 1
-20.164925 -9.002126 13.123100 25.688095 0.419877 1.034608 0.059295 -0.027089 705907.000000 0 0 1
-19.664125 -9.227526 11.675300 24.660447 0.438752 1.077602 0.079731 -0.027367 -876338.000000 0 1 0
-19.189125 -10.489926 11.431800 24.676854 0.500275 1.089126 0.084509 -0.024091 -122282.000000 0 1 0
-18.775625 -10.570926 10.095700 23.794783 0.512779 1.132627 0.092339 -0.021227 -452184.000000 0 1 0
-18.045325 -11.938326 9.637800 23.686379 0.584469 1.151747 0.074955 -0.008927 467581.000000 0 1 0
-16.640825 -11.981026 9.578100 22.631881 0.624008 1.133808 0.085587 -0.025432 101945.000000 0 1 0
-16.051725 -11.848926 10.901500 22.735382 0.635888 1.070717 0.081881 -0.021004 -558977.000000 0 1 0
-14.544425 -12.177326 10.858200 21.856991 0.697046 1.050907 0.080450 -0.018706 52415.100000 0 1 0
-14.246325 -13.583726 10.623700 22.368245 0.761594 1.075894 0.076797 -0.019363 -187347.000000 0 1 0
-12.874425 -13.835126 10.725900 21.730312 0.821351 1.054582 0.082879 -0.020643 -292596.000000 0 1 0
-12.532625 -15.322726 10.669400 22.487523 0.885229 1.076447 0.088422 -0.024439 -61207.400000 0 1 0
-12.738725 -15.939326 9.373600 22.454434 0.896543 1.140159 0.073997 -0.023318 180780.000000 0 1 0
-12.683125 -17.352426 9.443300 23.476462 0.939623 1.156828 0.071431 -0.018356 -92389.400000 0 1 0
-12.946925 -18.086326 8.136000 23.684014 0.949518 1.220131 0.061994 -0.020711 176675.000000 0 1 0
-11.948725 -17.943326 7.110600 22.700123 0.983314 1.252193 0.061249 -0.018617 202142.000000 0 1 0
-12.314525 -18.586526 5.881000 23.058461 0.985648 1.312900 0.042924 -0.013702 -371473.000000 0 1 0
-11.443325 -18.216926 4.730100 22.026800 1.009921 1.354368 0.051316 -0.019326 -511237.000000 0 1 0
-11.930725 -18.784526 3.516400 22.529218 1.004942 1.414074 0.072235 -0.022986 790696.000000 0 1 0
-11.005225 -18.760426 2.378500 21.879804 1.040274 1.461874 0.084959 -0.032207 662760.000000 0 1 0
-11.262125 -19.837926 1.264800 22.846848 1.054460 1.515408 0.083893 -0.028259 -42342.300000 0 1 0
-10.843325 -21.112626 1.736000 23.797780 1.096333 1.497783 0.068439 -0.032451 -220968.000000 0 1 0
-11.133225 -22.245026 0.855800 24.890204 1.106764 1.536407 0.063942 -0.030550 -568022.000000 0 1 0
-10.383025 -22.378026 -0.430000 24.673227 1.136375 1.588225 0.083799 -0.027892 -356316.000000 0 1 0
-10.633225 -21.369526 -1.438800 23.912178 1.109080 1.631003 0.091107 -0.039865 811652.000000 0 1 0
-11.745125 -21.819326 -2.265100 24.882958 1.076988 1.661953 0.101857 -0.030229 1250870.000000 0 1 0
-13.070625 -21.016026 -2.233500 24.849609 1.014403 1.660798 0.121927 -0.019313 329959.000000 0 1 0
-13.756525 -21.063326 -0.965300 25.176129 0.992243 1.609148 0.115034 -0.021582 755365.000000 0 0 1
-14.934425 -20.256226 -0.974900 25.185356 0.935489 1.609515 0.132804 -0.001912 307137.000000 0 0 1
26.160275 -20.135926 -3.964500 33.249553 -0.655999 1.690315 0.070104 -0.027636 270219.000000 0 0 1
24.905475 -20.165226 -3.304500 32.215505 -0.680610 1.673552 0.050148 -0.023757 235565.000000 0 0 1
24.980875 -21.084926 -2.210500 32.764379 -0.701025 1.638314 0.044454 -0.029501 -12502.600000 0 0 1
23.624875 -21.539626 -1.608100 32.010564 -0.739261 1.621054 0.031647 -0.017738 144111.000000 0 0 1
22.959375 -22.381726 -2.520700 32.162533 -0.772659 1.649251 0.039915 -0.016184 -611087.000000 0 0 1
21.734575 -22.803826 -1.991700 31.565378 -0.809401 1.633936 0.011848 -0.013452 -47236.100000 0 0 1
20.747375 -23.407426 -3.025100 31.424710 -0.845569 1.667211 0.020852 -0.012230 231076.000000 0 0 1
20.099075 -22.542726 -3.915800 30.454570 -0.842642 1.699732 0.022325 -0.014898 -172503.000000 0 0 1
19.108575 -23.154526 -4.721800 30.390214 -0.880840 1.726801 0.029552 -0.009131 -187505.000000 0 0 1
18.207775 -22.134726 -5.394400 29.164511 -0.882433 1.756832 0.020452 0.002768 -244736.000000 0 0 1
17.197075 -21.588726 -4.522700 27.969042 -0.898146 1.733213 0.021057 0.000904 437728.000000 0 0 1
17.609075 -20.567926 -3.643400 27.320203 -0.862747 1.704554 0.017216 -0.009174 -751501.000000 0 0 1
16.495875 -20.074426 -2.733700 26.126033 -0.882942 1.675623 0.032504 0.003915 -415881.000000 0 0 1
16.245575 -20.933226 -1.683500 26.550948 -0.910820 1.634245 0.038101 -0.003027 -28946.500000 0 0 1
15.401075 -20.335526 -0.738700 25.520039 -0.922609 1.599746 0.053335 0.001047 -250337.000000 0 0 1
15.069475 -21.132626 0.504300 25.960187 -0.951339 1.551369 0.054647 -0.007456 42956.500000 0 0 1
14.286575 -22.332326 0.332600 26.513197 -1.001677 1.558251 0.067637 -0.012644 236141.000000 0 0 1
13.484475 -22.458526 1.506000 26.238988 -1.030070 1.513369 0.065610 -0.012245 -158045.000000 0 0 1
12.478875 -23.591426 1.376300 26.723995 -1.084252 1.519273 0.068848 -0.022596 -270259.000000 0 0 1
13.033775 -24.873226 1.563900 28.124766 -1.088127 1.515162 0.061385 -0.018191 -147690.000000 0 0 1
12.024275 -25.829486 1.581300 28.534997 -1.135107 1.515352 0.061730 -0.012769 -312434.000000 0 0 1
12.434575 -27.181396 2.193900 29.970988 -1.141751 1.497530 0.062928 -0.020708 -51256.700000 0 0 1
12.669375 -27.103376 3.602100 30.134385 -1.133529 1.450975 0.071109 -0.027202 217832.000000 0 0 1
12.626875 -28.434916 4.167400 31.390280 -1.152891 1.437642 0.061574 -0.024000 -10816.200000 0 0 1
12.375175 -28.458416 5.691000 31.550180 -1.160611 1.389424 0.066606 -0.026900 -41363.700000 0 0 1
12.489475 -29.846056 6.140000 32.931348 -1.174475 1.383250 0.053966 -0.021667 -149989.000000 0 0 1
12.413575 -29.921526 7.556700 33.264069 -1.177536 1.341622 0.049392 -0.019813 96061.400000 0 0 1
12.256775 -31.349356 8.096400 34.620259 -1.198095 1.334747 0.044932 -0.017993 185895.000000 0 0 1
12.164875 -31.440376 9.495300 35.023451 -1.201617 1.296248 0.033683 -0.016461 -19473.400000 0 0 1
11.216975 -32.434376 9.853700 35.705807 -1.237836 1.291198 0.029029 -0.015272 152731.000000 0 0 1
11.091875 -32.569146 11.343500 36.227806 -1.242552 1.252324 0.024779 -0.014140 -34044.300000 0 0 1
12.227775 -33.277976 11.836100 37.376937 -1.218667 1.248581 0.028907 -0.019435 351633.000000 0 0 1
12.223175 -33.654506 13.206900 38.163517 -1.222414 1.217427 0.029741 -0.017597 -423702.000000 0 0 1
11.159775 33.571031 13.630300 37.912265 1.249865 1.203041 0.031438 -0.013864 -412219.000000 0 0 1
11.373175 32.292965 13.109700 36.661273 1.232174 1.205110 0.043646 -0.014998 -363610.000000 0 0 1
10.338475 31.373505 13.287600 35.605354 1.252474 1.188350 0.055139 -0.009648 -468906.000000 0 0 1
10.460975 30.231545 12.313200 34.278174 1.237664 1.203371 0.046690 -0.003617 -61010.500000 0 0 1
10.220475 30.560075 10.907200 34.019749 1.248051 1.244419 0.035026 -0.004280 -284318.000000 0 0 1
11.150175 31.374045 10.262900 34.842277 1.229323 1.271809 0.015281 -0.004732 -393502.000000 0 0 1
10.819075 31.680115 8.738600 34.598341 1.241705 1.315458 0.013605 -0.004434 86047.300000 0 0 1
9.743575 32.587492 8.660700 35.098285 1.280260 1.321465 0.023166 -0.008961 -86388.900000 0 0 1
9.119875 32.626745 7.385400 34.673055 1.298231 1.356151 0.023531 -0.011593 63848.400000 0 0 1
9.430975 33.891047 6.606600 35.793764 1.299389 1.385158 0.021532 -0.006994 100044.000000 0 0 1
8.824375 -33.166286 7.169000 35.060900 -1.310756 1.364871 0.026977 -0.010458 53429.300000 0 0 1
8.930975 -32.066996 6.296200 33.877672 -1.299170 1.383858 0.049162 -0.018302 256229.000000 0 0 1
8.049675 -30.838656 6.726900 32.574087 -1.315468 1.362789 0.043449 -0.014294 102336.000000 0 0 1
8.588575 -30.176146 7.815200 32.333276 -1.293514 1.326671 0.041799 -0.012709 -218875.000000 0 0 1
7.959775 -28.953606 8.093600 31.099448 -1.302509 1.307516 0.059952 -0.011742 -281951.000000 0 0 1
8.770675 -27.752796 7.632700 30.089874 -1.264700 1.314331 0.066708 -0.019463 -410422.000000 0 0 1
9.695275 -27.285276 8.597400 30.205959 -1.229381 1.282180 0.054746 -0.020002 334998.000000 0 0 1
10.523675 -26.185606 8.140500 29.371780 -1.188664 1.289966 0.064742 -0.030599 378445.000000 0 0 1
9.883775 -24.993926 7.377900 27.871469 -1.194221 1.302892 0.069254 -0.027807 -374215.000000 0 0 1
9.737075 -25.423026 6.058400 27.889874 -1.205029 1.351825 0.078764 -0.023535 -501303.000000 0 0 1
9.055575 -24.506126 5.279900 26.653911 -1.216836 1.371386 0.081453 -0.024066 -96198.600000 0 0 1
8.696675 -25.059026 3.873400 26.806532 -1.236754 1.425794 0.072687 -0.023981 247089.000000 0 0 1
7.737275 -26.110176 3.841900 27.502126 -1.282708 1.430643 0.062884 -0.021223 202602.000000 0 0 1
8.241875 -27.452686 4.124600 28.958432 -1.279137 1.427879 0.064725 -0.017719 255768.000000 0 0 1
7.216175 -28.553236 3.727600 29.685947 -1.323253 1.444896 0.058438 -0.014446 474993.000000 0 0 1
6.068375 -28.590986 4.591800 29.586387 -1.361652 1.414967 0.051054 -0.015026 1327160.000000 0 0 1
4.921175 -29.359256 4.125200 30.053305 -1.404721 1.433099 0.049095 -0.011406 1272070.000000 0 0 1
5.149875 -30.894836 4.224000 31.604656 -1.405624 1.436744 0.047148 -0.010885 -325185.000000 0 0 1
6.165175 -31.491996 3.446800 32.274380 -1.377472 1.463795 0.053174 -0.010760 -173856.000000 0 0 1
6.286275 -32.871036 3.789200 33.680563 -1.381837 1.458054 0.049304 -0.012321 -244859.000000 0 0 1
7.505475 -33.518006 3.127600 34.490155 -1.350507 1.479991 0.049230 -0.010717 -325454.000000 0 0 1
7.332375 -33.781556 1.731900 34.611511 -1.357059 1.520737 0.063196 -0.012172 132783.000000 0 0 1
8.284075 33.516660 1.185200 34.545580 1.328490 1.536481 0.050463 -0.009166 44331.400000 0 0 1
7.792775 32.872128 -0.125900 33.783428 1.338030 1.574523 0.054870 -0.008596 770603.000000 0 0 1
6.584375 32.114575 -0.057300 32.782666 1.368571 1.572544 0.051079 -0.008004 105098.000000 0 0 1
5.375175 32.819836 -0.217600 33.257804 1.408459 1.577339 0.055322 -0.013889 276099.000000 0 0 1
4.131175 31.883695 -0.070900 32.150298 1.441944 1.573002 0.057391 -0.015565 390235.000000 0 0 1
3.861375 31.028045 -1.126100 31.287664 1.446985 1.606796 0.063704 -0.016104 -250516.000000 0 0 1
2.783175 30.222965 -0.706000 30.359053 1.478967 1.594053 0.054326 -0.016039 251609.000000 0 0 1
2.354775 29.022825 -1.596900 29.161952 1.489838 1.625583 0.053482 -0.016515 58885.900000 0 0 1
1.904575 29.413825 -2.858400 29.613696 1.506136 1.667470 0.054998 -0.019782 -52204.900000 0 0 1
1.629775 28.361265 -3.797600 28.660762 1.513395 1.703689 0.075250 -0.021188 -256111.000000 0 0 1
1.416275 28.858365 -5.241500 29.364679 1.521759 1.750255 0.076902 -0.026895 555585.000000 0 0 1
0.186875 29.546195 -5.499700 30.054272 1.564472 1.754826 0.081542 -0.026565 488578.000000 0 0 1
0.289875 30.155495 -6.730400 30.898806 1.561184 1.790377 0.079106 -0.025156 81447.700000 0 0 1
0.086975 29.335605 -8.040600 30.417701 1.567831 1.838315 0.088618 -0.030049 423380.000000 0 0 1
-1.276525 29.067905 -8.406400 30.285973 -1.526909 1.852057 0.082352 -0.023394 624895.000000 0 0 1
-1.545325 28.899395 -9.807900 30.557454 -1.517375 1.897545 0.089729 -0.027710 35151.500000 0 0 1
-1.543525 30.188525 -10.674800 32.057462 -1.519711 1.910269 0.076706 -0.027894 322257.000000 0 0 1
-0.220825 30.644185 -11.014100 32.564171 -1.563590 1.915829 0.072480 -0.027157 557649.000000 0 0 1
-0.106725 31.961755 -11.479000 33.960751 -1.567457 1.915596 0.062970 -0.030109 -41136.300000 0 0 1
-0.314925 33.065284 -10.418400 34.669226 -1.561272 1.876022 0.058986 -0.026536 153408.000000 0 0 1
0.774175 33.351435 -9.541300 34.698040 1.547588 1.849366 0.062963 -0.030025 -105876.000000 0 0 1
0.462175 -33.899376 -8.628600 34.983339 -1.557163 1.820017 0.063039 -0.024455 -379934.000000 0 0 1
1.472775 -33.559726 -7.508800 34.421016 -1.526939 1.790710 0.058083 -0.016119 -388289.000000 0 0 1
2.593475 -32.945536 -8.087500 34.022670 -1.492238 1.810803 0.050595 -0.017081 -871821.000000 0 0 1
3.462675 -32.561036 -7.024200 33.489559 -1.464850 1.782108 0.053454 -0.015773 -600989.000000 0 0 1
4.749275 -32.085036 -7.767400 33.351726 -1.423842 1.805848 0.041345 -0.011834 97752.800000 0 0 1
5.443575 -33.105116 -8.494900 34.608446 -1.407822 1.818788 0.044655 -0.010263 240696.000000 0 0 1
6.316075 -33.776566 -7.579100 35.187952 -1.385936 1.787887 0.061255 -0.000581 -1016460.000000 0 0 1
6.509375 32.976394 -8.070900 34.568106 1.375907 1.806450 0.052281 -0.005580 613993.000000 0 0 1
5.285475 32.218316 -8.117400 33.642954 1.408193 1.814482 0.050051 -0.008815 658756.000000 0 0 1
4.387875 32.468134 -9.190000 34.027772 1.436466 1.844266 0.056205 -0.017349 276868.000000 0 0 1
3.474275 31.266665 -9.489000 32.859033 1.460133 1.863748 0.053054 -0.026460 -251774.000000 0 0 1
4.131575 30.383535 -10.333000 32.357380 1.435645 1.895829 0.050034 -0.027181 -197523.000000 0 0 1
3.393275 29.278695 -10.788700 31.387137 1.455415 1.921682 0.057542 -0.031278 -357799.000000 0 0 1
4.249275 28.397935 -11.681100 30.999148 1.422265 1.957157 0.063155 -0.034044 -409627.000000 0 0 1
4.531375 29.143185 -12.856600 32.173759 1.416545 1.981876 0.070195 -0.032252 126053.000000 0 0 1
5.413375 28.486725 -13.753000 32.092727 1.383004 2.013672 0.064481 -0.039577 -185085.000000 0 0 1
5.212675 28.955185 -15.165400 33.099306 1.392679 2.046742 0.067619 -0.035476 480276.000000 0 0 1
4.035475 28.423555 -15.789400 32.764137 1.429762 2.073631 0.070802 -0.033406 665872.000000 0 0 1
4.015775 29.071165 -17.017200 33.924094 1.433529 2.096273 0.100759 -0.033565 -388285.000000 0 0 1
2.882275 28.481195 -17.812100 33.715826 1.469940 2.127394 0.093914 -0.038794 -729841.000000 0 0 1
3.273375 27.269915 -18.381100 33.048874 1.451332 2.160578 0.108501 -0.022490 -255068.000000 0 0 1
2.340675 26.704775 -19.248600 33.002006 1.483370 2.193527 0.095398 -0.024380 -267777.000000 0 0 1
2.971875 25.513525 -19.955300 32.526697 1.454837 2.231288 0.103574 -0.021259 160475.000000 0 0 1
3.042475 24.384325 -19.109700 31.129288 1.446666 2.231765 0.101443 -0.027396 -270774.000000 0 0 1
4.051975 23.514315 -19.506000 30.819240 1.400153 2.256111 0.098243 -0.020268 -73909.700000 0 0 1
4.498375 22.367255 -18.502200 29.374494 1.372330 2.252186 0.098182 -0.014495 273177.000000 0 0 1
3.526975 21.335755 -18.343600 28.357392 1.406970 2.274272 0.108925 -0.014616 -118758.000000 0 0 1
4.049275 20.211155 -17.656500 27.141102 1.373066 2.279098 0.081948 -0.012112 35001.600000 0 0 1
3.060575 19.059155 -17.347200 25.952724 1.411573 2.302873 0.077501 -0.019071 42276.600000 0 0 1
2.261575 19.325155 -16.201500 25.319260 1.454299 2.265149 0.088297 -0.030028 -512166.000000 0 0 1
1.615775 18.177155 -15.719600 24.085795 1.482139 2.281873 0.067324 -0.021027 -137769.000000 0 1 0
2.417475 17.182455 -14.842800 22.833958 1.431019 2.278423 0.041356 -0.010503 354170.000000 0 1 0
3.446475 16.358255 -15.400300 22.729715 1.363146 2.315210 0.045394 -0.021745 -262866.000000 0 1 0
3.007675 15.393155 -16.327000 22.639926 1.377837 2.376271 0.044106 -0.028573 -352803.000000 0 1 0
3.088675 15.547855 -17.872100 23.889070 1.374693 2.416034 0.058611 -0.028293 501893.000000 0 1 0
4.421075 15.642555 -18.390100 24.544474 1.295349 2.417735 0.054926 -0.026944 246894.000000 0 1 0
4.389575 16.294155 -19.674800 25.920371 1.307648 2.432646 0.066933 -0.020205 -423460.000000 0 0 1
4.604875 15.283455 -20.868800 26.273479 1.278149 2.488637 0.051796 -0.022818 893345.000000 0 0 1
3.582275 14.257655 -21.086200 25.704888 1.324639 2.532764 0.049430 -0.021491 1058740.000000 0 0 1
2.348475 14.798755 -21.564700 26.259375 1.413415 2.534341 0.065761 -0.028630 222119.000000 0 0 1
1.467275 13.813155 -22.411300 26.367073 1.464970 2.586730 0.072854 -0.019050 367461.000000 0 0 1
0.795975 12.863955 -21.583300 25.138690 1.508999 2.603268 0.067001 -0.012591 175168.000000 0 0 1
-0.213425 12.138755 -22.249100 25.345954 -1.553216 2.642081 0.046144 -0.010072 108757.000000 0 0 1
-0.941825 11.023855 -21.470900 24.153922 -1.485568 2.665778 0.036021 -0.005316 -840026.000000 0 1 0
-1.675725 11.552955 -20.399500 23.503583 -1.426754 2.621819 0.039446 -0.008122 -229074.000000 0 1 0
-2.046925 10.637755 -19.372500 22.195619 -1.380699 2.631721 0.025892 -0.005829 76764.200000 0 1 0
-3.075025 9.548255 -19.749600 22.151109 -1.259234 2.671630 0.020265 -0.012594 -560341.000000 0 1 0
-2.553325 8.518455 -20.544400 22.386512 -1.279578 2.733082 0.020213 -0.011798 17128.000000 0 1 0
-3.583225 7.543155 -20.762500 22.379010 -1.127324 2.759179 0.021232 -0.007227 159305.000000 0 1 0
-3.181725 6.236355 -21.485500 22.597394 -1.099030 2.826590 0.022217 -0.015986 86378.400000 0 1 0
-2.336725 5.360055 -20.742800 21.551200 -1.159686 2.866829 0.022024 -0.019535 73706.500000 0 1 0
-2.039325 4.263655 -21.601300 22.112299 -1.124655 2.926192 0.029532 -0.010410 -298490.000000 0 1 0
-1.252625 3.079655 -21.044400 21.305401 -1.184492 2.984905 0.026157 -0.008075 -167998.000000 0 1 0
0.126175 3.327255 -20.908700 21.172158 1.532893 2.983672 0.032076 -0.008384 -156874.000000 0 1 0
0.800875 2.427855 -20.032600 20.195072 1.252166 3.014660 0.023370 -0.009449 -533332.000000 0 1 0
2.307975 2.516655 -20.099400 20.387402 0.828624 2.973308 0.021264 -0.011925 -678553.000000 0 1 0
2.904675 1.885255 -21.244800 21.525168 0.575701 2.980016 0.038406 -0.015089 -1760160.000000 0 1 0
4.247375 2.103955 -21.218900 21.741861 0.459924 2.921819 0.055611 -0.012241 -1120810.000000 0 1 0
5.030275 1.568355 -22.476000 23.085363 0.302232 2.911319 0.059269 -0.000800 -361784.000000 0 1 0
6.406775 1.746355 -22.457200 23.418419 0.266114 2.854088 0.074497 -0.015477 -642266.000000 0 1 0
7.075775 0.967955 -23.415800 24.480670 0.135955 2.845561 0.078862 -0.016700 871194.000000 0 1 0
8.638775 0.881555 -23.269400 24.836879 0.101694 2.784420 0.076954 -0.027540 1000730.000000 0 1 0
9.314375 2.112955 -23.455600 25.325626 0.223073 2.754898 0.070369 -0.026978 -1159760.000000 0 0 1
10.653575 1.929455 -23.212700 25.613491 0.179167 2.705167 0.060403 -0.030363 -1143500.000000 0 0 1
14.142275 -21.559326 21.737365 33.724198 -0.990236 0.870345 0.057857 0.007088 -1218100.000000 0 0 1
13.055975 -22.065626 22.459065 34.084600 -1.036511 0.851413 0.044331 0.010850 260296.000000 0 0 1
11.853775 -21.310826 22.280665 33.031671 -1.063181 0.830476 0.036463 0.004792 909740.000000 0 0 1
11.162475 -21.199426 20.901065 31.794198 -1.086138 0.853452 0.039095 -0.009060 -724025.000000 0 0 1
11.813575 -20.200426 20.195965 30.911078 -1.041615 0.858786 0.031537 -0.005468 -67092.200000 0 0 1
11.219275 -20.142526 18.911065 29.819823 -1.062599 0.883852 0.060026 -0.009504 312230.000000 0 0 1
11.523875 -18.735226 18.224865 28.564910 -1.019354 0.878878 0.074588 -0.012945 -64838.500000 0 0 1
10.866775 -17.706326 18.925965 28.103255 -1.020348 0.831939 0.078883 -0.017521 -223881.000000 0 0 1
10.792675 -16.514126 18.115865 26.784002 -0.991935 0.827975 0.092721 -0.020678 -457438.000000 0 0 1
9.883575 -15.474226 18.742965 26.238054 -1.002397 0.775112 0.092756 -0.013213 741295.000000 0 0 1
8.480075 -15.626726 18.505465 25.662394 -1.073602 0.765390 0.067069 -0.005750 463054.000000 0 0 1
7.695875 -14.588526 19.062265 25.207569 -1.085369 0.713292 0.047007 -0.006015 4103.170000 0 0 1
6.218575 -14.706026 18.656265 24.555938 -1.170741 0.707875 0.020291 0.007504 -197302.000000 0 1 0
5.925975 -14.602626 17.236965 23.355231 -1.185286 0.740644 0.010890 -0.001136 557435.000000 0 1 0
4.536875 -14.903526 17.022365 23.075078 -1.275293 0.741147 -0.008548 0.005584 745610.000000 0 1 0
4.120775 -16.404326 16.892565 23.904841 -1.324688 0.786032 -0.021191 0.012759 -694162.000000 0 1 0
2.746875 -16.537526 16.678565 23.647613 -1.406199 0.787956 -0.010903 0.017869 -543501.000000 0 1 0
2.460575 -17.839526 16.262565 24.264668 -1.433733 0.836297 -0.001333 -0.000375 -161102.000000 0 1 0
0.993375 -18.001226 15.872065 24.019854 -1.515668 0.848926 0.000597 0.007577 -272073.000000 0 1 0
0.588675 -17.452826 14.610265 22.768564 -1.537080 0.874102 0.009581 -0.005092 -370496.000000 0 1 0
-0.773425 -17.758526 14.445265 22.904783 1.527272 0.888385 0.027624 0.000282 -521956.000000 0 1 0
-1.289325 -17.579026 12.988265 21.894738 1.497583 0.935751 0.028688 -0.026477 460099.000000 0 1 0
-2.587025 -18.144126 12.778265 22.342472 1.429169 0.961943 0.029371 -0.025325 519698.000000 0 1 0
-2.519425 -19.525726 12.418665 23.277128 1.442474 1.008047 0.038045 -0.027980 542287.000000 0 1 0
-3.920725 -20.224526 12.499865 24.096683 1.379312 1.025422 0.038174 -0.020521 707211.000000 0 1 0
-4.394325 -20.524126 13.763965 25.099732 1.359875 0.990381 0.056640 -0.032971 -1269600.000000 0 0 1
-5.701425 -20.921726 13.650865 25.623641 1.304745 1.008956 0.051610 -0.033372 -1057440.000000 0 0 1
-6.397325 -21.459426 14.929365 26.913169 1.281072 0.982766 0.064088 -0.036115 577741.000000 0 0 1
-7.773625 -21.734026 14.645365 27.336493 1.227304 1.005408 0.080020 -0.031230 276231.000000 0 0 1
-8.312025 -22.448626 15.742065 28.650361 1.216180 0.989085 0.070665 -0.030163 1392210.000000 0 0 1
-9.901025 -22.539026 15.679165 29.186884 1.156890 1.003684 0.094251 -0.027330 1728090.000000 0 0 1
-10.499925 -21.232226 15.804165 28.475032 1.111536 0.982411 0.097135 -0.028047 -757806.000000 0 0 1
-11.891025 -21.297826 15.822265 29.074695 1.061587 0.995369 0.096424 -0.018169 -535690.000000 0 0 1
-12.479025 -19.919826 16.230565 28.564957 1.011146 0.966481 0.103312 -0.016007 -116241.000000 0 0 1
-12.572625 -19.765026 17.653065 29.331857 1.004251 0.924994 0.102157 -0.033579 105292.000000 0 0 1
-13.093125 -18.496926 18.054165 28.974455 0.954819 0.898088 0.099644 -0.034547 -83253.600000 0 0 1
-13.638525 -18.433226 19.494465 30.096965 0.933798 0.866206 0.092048 -0.019232 604004.000000 0 0 1
-14.846325 -19.166526 19.752365 31.271792 0.911738 0.887136 0.073412 -0.020277 680296.000000 0 0 1
-14.844425 -19.808226 21.022465 32.475634 0.927675 0.866720 0.085140 -0.026994 176193.000000 0 0 1
-16.212425 -20.514426 21.216365 33.672222 0.902002 0.889134 0.082934 -0.025728 -224652.000000 0 0 1
-16.299425 -21.736626 20.487965 34.028060 0.927385 0.924680 0.089218 -0.033583 350781.000000 0 0 1
-17.489825 -21.855926 19.722465 34.242533 0.895914 0.957013 0.080662 -0.026151 288971.000000 0 0 1
-18.682325 -22.471826 20.499865 35.696732 0.877220 0.959074 0.070499 -0.028372 -449265.000000 0 0 1
-19.382025 -21.644926 21.401865 36.086085 0.840499 0.935920 0.076418 -0.023121 182337.000000 0 0 1
-19.975325 -22.366926 22.454165 37.463082 0.841821 0.928085 0.068768 -0.018300 -100292.000000 0 0 1
-20.472925 -21.389926 23.513635 37.809530 0.807300 0.899633 0.056222 -0.013680 482648.000000 0 0 1
-21.548825 -20.503426 23.131865 37.680572 0.760544 0.909813 0.055171 -0.002546 816295.000000 0 0 1
-21.815625 -19.572926 24.156415 37.980959 0.731265 0.881475 0.055548 -0.000321 451122.000000 0 0 1
-22.825625 -18.451226 23.697195 37.722857 0.679815 0.891569 0.051566 -0.001251 356258.000000 0 0 1
-22.354525 -17.777826 22.549065 36.390056 0.671849 0.902501 0.056904 -0.000468 -459131.000000 0 0 1
-23.293025 -16.903126 22.018265 36.236510 0.627749 0.917728 0.054087 -0.002906 -477655.000000 0 0 1
-22.876725 -16.298626 20.637565 34.855399 0.619036 0.937145 0.055264 0.003337 -58094.000000 0 0 1
-21.821725 -15.369726 20.660865 33.753333 0.613627 0.912066 0.050263 0.007646 -477898.000000 0 0 1
-21.396025 -15.013026 19.351565 32.521745 0.611848 0.933488 0.041155 0.003301 -320277.000000 0 0 1
-20.211725 -14.081026 19.221765 31.245245 0.608492 0.908169 0.037699 -0.005593 -488299.000000 0 0 1
-19.885425 -13.926426 17.797865 30.102150 0.610950 0.938190 0.036529 -0.006404 109800.000000 0 0 1
-19.042125 -12.819026 17.581665 28.914441 0.592507 0.917184 0.041214 -0.013731 -662521.000000 0 0 1
-18.665225 -12.786726 16.075065 27.754255 0.600626 0.953058 0.041618 -0.018798 2967.740000 0 0 1
-18.281825 -11.499526 15.501265 26.584834 0.561481 0.948273 0.039850 -0.016196 338950.000000 0 0 1
-16.993625 -11.087126 15.926965 25.794880 0.578081 0.905304 0.056151 -0.022448 -29081.100000 0 0 1
-16.362225 -9.992126 15.040865 24.367860 0.548237 0.905564 0.047294 -0.024610 322766.000000 0 1 0
-17.121725 -8.779126 15.166765 24.500148 0.473794 0.903267 0.064476 -0.021412 336372.000000 0 1 0
-16.541825 -7.684526 14.494565 23.297560 0.434889 0.899311 0.052218 -0.021937 -756196.000000 0 1 0
-16.702625 -6.421126 15.343165 23.571619 0.367019 0.862005 0.054891 -0.010818 642004.000000 0 1 0
-15.926825 -6.273126 16.562765 23.818922 0.375212 0.801873 0.042763 -0.001352 412790.000000 0 1 0
-14.523425 -6.395426 16.375865 22.803515 0.414802 0.769686 0.042356 -0.002079 -332753.000000 0 1 0
-13.739325 -6.271426 17.685165 23.256502 0.428211 0.706807 0.037995 0.001040 -114112.000000 0 1 0
-13.783825 -7.340826 18.661165 24.333529 0.489361 0.696814 0.041251 -0.009974 130951.000000 0 1 0
-13.290625 -8.614726 18.185665 24.115817 0.575095 0.716518 0.042363 -0.004715 -266711.000000 0 1 0
-13.377925 -9.768426 19.303765 25.436713 0.630702 0.709183 0.052027 -0.012451 120110.000000 0 0 1
-14.650025 -10.345526 19.504765 26.496962 0.614860 0.743486 0.055315 -0.012776 420479.000000 0 0 1
-15.554625 -9.593226 20.340265 27.344153 0.552641 0.731966 0.048799 -0.012020 118315.000000 0 0 1
-17.029225 -10.116626 20.464465 28.480431 0.536051 0.769089 0.048617 -0.005599 1226540.000000 0 0 1
-17.849125 -9.984326 19.268365 28.098895 0.510011 0.815185 0.042483 0.002124 489955.000000 0 0 1
-18.186725 -8.623526 19.047965 27.711859 0.442768 0.812951 0.040607 -0.001772 -1322230.000000 0 0 1
-19.218925 -8.483426 17.950265 27.632365 0.415688 0.863725 0.057228 -0.014323 -450719.000000 0 0 1
-20.512525 -8.884126 18.328665 28.907288 0.408718 0.884017 0.058486 -0.009597 -443684.000000 0 0 1
-21.337825 -8.984926 17.193765 28.838467 0.398545 0.932025 0.078417 -0.012828 1271750.000000 0 0 1
-22.807725 -9.440626 17.612165 30.323358 0.392450 0.951071 0.071495 -0.003744 1224010.000000 0 0 1
-23.562325 -8.516826 18.358565 31.060527 0.346847 0.938427 0.081056 -0.000790 349107.000000 0 0 1
-24.911725 -8.947026 18.467965 32.275517 0.344802 0.961614 0.091408 0.000960 211222.000000 0 0 1
-25.779165 -7.916726 19.285865 33.153951 0.297956 0.949971 0.107024 -0.003491 41124.800000 0 0 1
-25.497095 -7.750126 20.665465 33.722807 0.295087 0.911193 0.098477 -0.003885 469897.000000 0 0 1
-26.290445 -6.672326 21.187765 34.418437 0.248545 0.907658 0.104353 -0.012907 -448768.000000 0 0 1
-26.312425 -6.542826 22.713265 35.370110 0.243716 0.873484 0.099681 -0.010711 -237215.000000 0 0 1
-25.241685 -5.952126 23.395565 34.927395 0.231575 0.836811 0.083607 -0.008770 -628961.000000 0 0 1
-24.104525 -6.762926 23.407645 34.273650 0.273534 0.818985 0.072613 0.000316 -1268400.000000 0 0 1
-23.198725 -6.454626 24.585255 34.413337 0.271368 0.775015 0.066480 -0.000742 -50184.700000 0 0 1
-22.518325 -5.184926 24.537555 33.705341 0.226309 0.755393 0.055913 -0.001608 115855.000000 0 0 1
-21.864625 -4.866426 25.706795 34.096674 0.219001 0.716760 0.051925 -0.003451 210862.000000 0 0 1
-21.059425 -3.499126 25.682425 33.396560 0.164651 0.693499 0.060328 -0.012584 475552.000000 0 0 1
-20.168425 -3.274626 26.789525 33.692242 0.160959 0.651584 0.049962 -0.009059 -11583.500000 0 0 1
-20.688325 -3.164726 28.088885 35.028670 0.151795 0.640357 0.053579 -0.021327 -56719.800000 0 0 1
-21.534225 -1.901626 28.466445 35.744615 0.088079 0.649504 0.063765 -0.024870 432919.000000 0 0 1
-22.795725 -1.881526 27.840855 36.031908 0.082352 0.687756 0.074682 -0.027785 -367417.000000 0 0 1
-23.580225 -0.811626 28.407865 36.928208 0.034406 0.693094 0.072477 -0.034850 1632200.000000 0 0 1
-24.940225 -0.502226 27.636405 37.229530 0.020134 0.734263 0.067766 -0.025912 752639.000000 0 0 1
-24.686925 -0.213626 26.271535 36.051122 0.008653 0.754331 0.069531 -0.030992 312212.000000 0 0 1
-25.878635 0.095074 25.528145 36.351052 -0.003674 0.792219 0.081020 -0.027733 457141.000000 0 0 1
-26.704615 -1.156126 25.147745 36.699893 0.043266 0.815881 0.075190 -0.026219 -41429.000000 0 0 1
-27.498565 -1.700826 26.225725 38.037514 0.061773 0.810039 0.069251 -0.018325 218250.000000 0 0 1
-27.896465 -3.058926 26.033255 38.279239 0.109216 0.822914 0.068326 -0.021066 -286140.000000 0 0 1
-26.833485 -4.150426 26.137795 37.688808 0.153457 0.804438 0.063773 -0.022050 -229750.000000 0 0 1
-26.506075 -4.412226 27.514425 38.458852 0.164948 0.773564 0.061423 -0.021437 294986.000000 0 0 1
-25.382805 -5.297726 27.582805 37.857150 0.205759 0.754517 0.066237 -0.019253 409179.000000 0 0 1
-25.038925 -5.884926 28.973515 38.743318 0.230841 0.726005 0.047491 -0.013299 523019.000000 0 0 1
-26.081595 -6.764326 29.448155 39.914903 0.253761 0.741030 0.057579 -0.020869 729301.000000 0 0 1
-25.811805 -7.230526 30.776345 40.813149 0.273124 0.716545 0.050469 -0.015597 -1172800.000000 0 0 1
-27.051695 -7.548626 31.540265 42.232265 0.272122 0.727516 0.044708 -0.025787 -1190400.000000 0 0 1
-27.815485 -8.550726 30.977755 42.502205 0.298240 0.754155 0.040840 -0.028822 -824377.000000 0 0 1
-29.035355 -8.743026 31.612955 43.804922 0.292481 0.764576 0.054709 -0.027185 -220577.000000 0 0 1
-30.153335 -9.248226 30.667225 43.991271 0.297598 0.799423 0.047595 -0.030668 -80695.700000 0 0 1
-29.944315 -10.680326 30.527435 44.075567 0.342607 0.805687 0.054149 -0.024458 106297.000000 0 0 1
-30.840055 -11.393926 29.701485 44.306983 0.353898 0.836107 0.043364 -0.026112 -380064.000000 0 0 1
-30.223755 -12.657926 29.029715 43.776966 0.396614 0.845807 0.051598 -0.018191 383859.000000 0 0 1
-29.125785 -12.296626 28.192895 42.359859 0.399488 0.842557 0.059615 -0.016823 -53903.000000 0 0 1
-28.377065 -13.423226 27.784985 41.921906 0.441840 0.846272 0.059672 -0.014133 714152.000000 0 0 1
-27.000215 -12.896526 27.190275 40.430719 0.445604 0.833194 0.067056 -0.015211 1149440.000000 0 0 1
-26.046235 -12.281226 28.088035 40.226515 0.440602 0.797851 0.055894 -0.018255 504728.000000 0 0 1
-26.383485 -11.031926 28.637585 40.471013 0.396044 0.784690 0.059906 -0.017898 -873086.000000 0 0 1
-26.594585 -9.813026 27.662785 39.608043 0.353488 0.797618 0.055966 -0.014598 315334.000000 0 0 1
-25.458295 -9.170226 27.079525 38.282091 0.345738 0.785029 0.043073 -0.008723 712560.000000 0 0 1
-24.643525 -9.904726 26.144385 37.268428 0.382160 0.793274 0.044884 -0.004978 458808.000000 0 0 1
-25.277345 -9.964526 24.710825 36.726840 0.375503 0.832772 0.068591 0.003779 35456.900000 0 0 1
-26.544385 -10.576126 24.602795 37.706184 0.379154 0.859935 0.070518 -0.004607 -98874.300000 0 0 1
-27.000345 -10.513126 23.253425 37.151934 0.371309 0.894510 0.075982 -0.001032 318975.000000 0 0 1
-28.300185 -11.402126 23.095565 38.266356 0.383003 0.922853 0.086000 -0.015043 793440.000000 0 0 1
-29.500845 -10.970226 23.694685 39.396494 0.356016 0.925492 0.082241 -0.011598 76906.600000 0 0 1
-29.583075 -10.873326 25.074805 40.275717 0.352225 0.898763 0.078254 -0.016110 -1425680.000000 0 0 1
-31.012095 -10.611726 25.509315 41.534129 0.329692 0.909453 0.056577 -0.013956 -934187.000000 0 0 1
-31.513465 -9.367426 25.224105 41.437937 0.288933 0.916350 0.061410 -0.023309 -561507.000000 0 0 1
-32.865485 -9.141926 25.514495 42.599347 0.271303 0.928618 0.059069 -0.021079 -64868.500000 0 0 1
-33.447395 -9.078426 26.991085 43.927949 0.265039 0.909120 0.046106 -0.026918 25296.300000 0 0 1
-33.741575 -10.350926 27.572055 44.786758 0.297657 0.907612 0.037647 -0.035922 -16875.300000 0 0 1
-34.257636 -10.200926 28.880615 45.953611 0.289410 0.891208 0.056567 -0.034413 -540134.000000 0 0 1
-34.679333 -11.579326 29.511035 46.985509 0.322258 0.891703 0.066103 -0.020012 391667.000000 0 0 1
-35.879000 -12.241626 29.122605 47.804666 0.328807 0.915745 0.043302 -0.018117 1394880.000000 0 0 1
36.312422 -11.632826 29.595795 48.268268 -0.310024 0.910752 0.057585 -0.019642 516138.000000 0 0 1
35.015012 -12.091826 28.931645 47.003228 -0.332511 0.907745 0.057629 -0.023771 -293713.000000 0 0 1
34.720162 -11.629526 27.662585 45.890676 -0.323205 0.923799 0.067161 -0.016350 -592942.000000 0 0 1
33.640222 -12.325626 27.128145 44.939090 -0.351206 0.922706 0.082593 -0.012124 -536987.000000 0 0 1
33.573552 -12.083026 25.630795 43.933137 -0.345465 0.947882 0.069476 -0.017747 146469.000000 0 0 1
33.052732 -10.763726 25.390225 43.046538 -0.314823 0.939946 0.082006 -0.031347 78705.000000 0 0 1
32.972362 -10.469126 23.990295 42.098854 -0.307445 0.964465 0.071562 -0.022504 -94380.700000 0 0 1
32.591932 -9.018726 23.678645 41.282559 -0.269961 0.959933 0.078452 -0.003220 112506.000000 0 0 1
31.250262 -8.744626 24.027295 40.377695 -0.272847 0.933452 0.090673 -0.013039 -415783.000000 0 0 1
30.933062 -7.551626 23.417175 39.525251 -0.239444 0.936686 0.084556 -0.005315 306652.000000 0 0 1
29.402112 -7.344226 23.246845 38.194733 -0.244777 0.916451 0.087022 0.003424 223725.000000 0 0 1
28.879052 -8.183126 22.227865 37.350250 -0.276120 0.933382 0.077657 0.011426 256808.000000 0 0 1
27.493362 -7.901326 22.070465 36.130615 -0.279849 0.913660 0.075452 -0.010789 182574.000000 0 0 1
14.941375 -18.235226 25.570085 34.779267 -0.884356 0.744819 0.048956 0.015841 -189553.000000 0 0 1
13.952275 -19.208326 25.582175 34.900909 -0.942593 0.748083 0.033395 0.009357 -108889.000000 0 0 1
14.558775 -20.454626 25.778085 35.984154 -0.952222 0.772206 0.047966 -0.000907 -495968.000000 0 0 1
13.488875 -21.573026 25.773455 36.216242 -1.012006 0.778946 0.013905 -0.005766 258761.000000 0 0 1
12.819375 -21.751226 26.996045 36.962666 -1.038235 0.751948 0.032998 -0.015708 168478.000000 0 0 1
11.781175 -20.833526 27.311495 36.314593 -1.056138 0.719583 0.034489 -0.003583 -91495.800000 0 0 1
11.053775 -21.087926 28.655675 37.256332 -1.087996 0.693288 0.042305 -0.007680 308042.000000 0 0 1
11.890875 -20.728826 29.799385 38.197912 -1.049985 0.675921 0.043537 -0.004604 375843.000000 0 0 1
11.412675 -19.770126 30.727345 38.278934 -1.047259 0.638951 0.043329 -0.000354 2892.800000 0 0 1
11.224575 -18.285026 30.280165 37.110937 -1.020243 0.616449 0.043697 -0.002450 164842.000000 0 0 1
12.497875 -17.706926 30.125065 37.111341 -0.956176 0.623657 0.038882 0.009943 -250824.000000 0 0 1
12.296575 -16.414626 29.610005 36.019413 -0.927857 0.605782 0.042800 0.010533 -365753.000000 0 0 1
13.462375 -15.460526 29.618405 36.021012 -0.854374 0.605437 0.035137 0.011201 -391665.000000 0 0 1
12.968075 -14.122226 29.411525 35.109059 -0.827976 0.577704 0.060859 0.007911 -655913.000000 0 0 1
13.876575 -13.151926 29.699605 35.321368 -0.758594 0.571964 0.060445 0.010048 -789186.000000 0 0 1
13.317875 -11.708826 29.612395 34.516030 -0.721193 0.539566 0.058984 0.006090 -51370.200000 0 0 1
13.214575 -11.082626 28.382685 33.211841 -0.697878 0.546025 0.076031 0.010102 488993.000000 0 0 1
14.443575 -10.838426 27.684945 33.053661 -0.643756 0.577966 0.074042 0.009807 243524.000000 0 0 1
14.373875 -9.607126 26.807045 31.898633 -0.589184 0.572808 0.078040 0.010748 92519.500000 0 0 1
14.676775 -8.405926 27.499835 32.284799 -0.520132 0.551406 0.074088 -0.001090 1917460.000000 0 0 1
16.124175 -8.183026 27.675955 33.059181 -0.469630 0.578719 0.068135 -0.005238 1597400.000000 0 0 1
16.566575 -6.746826 28.116835 33.324578 -0.386745 0.566608 0.058169 -0.009982 978639.000000 0 0 1
18.000775 -6.624126 28.048965 33.980162 -0.352612 0.599795 0.055255 -0.016929 961507.000000 0 0 1
18.400475 -5.317826 27.630155 33.619670 -0.281339 0.606155 0.055723 -0.016986 1319760.000000 0 0 1
19.946375 -5.030826 27.362235 34.232426 -0.247065 0.644654 0.048663 -0.018808 652391.000000 0 0 1
20.335375 -5.904926 26.362025 33.813488 -0.282605 0.676721 0.044100 -0.008286 11883.900000 0 0 1
21.675375 -5.826926 25.925425 34.291437 -0.262618 0.713567 0.048299 -0.011895 142605.000000 0 0 1
22.805775 -6.256726 26.879995 35.802013 -0.267760 0.721531 0.043231 -0.020976 -734160.000000 0 0 1
23.271875 -5.189326 27.665775 36.522656 -0.219398 0.711327 0.046261 -0.025854 -606504.000000 0 0 1
24.265575 -5.628926 28.518615 37.865741 -0.227940 0.717958 0.053694 -0.036664 -589330.000000 0 0 1
24.862775 -4.370126 29.260675 38.645086 -0.173993 0.711835 0.050770 -0.031746 -192702.000000 0 0 1
25.677775 -3.598126 28.407625 38.461511 -0.139220 0.739807 0.057681 -0.025098 136533.000000 0 0 1
25.942175 -2.325726 28.960055 38.949843 -0.089411 0.732475 0.050329 -0.032550 -285082.000000 0 0 1
26.796675 -1.379526 28.045295 38.813702 -0.051436 0.763296 0.062732 -0.027990 12552.200000 0 0 1
28.145375 -1.723226 27.946615 39.700692 -0.061150 0.789877 0.068081 -0.024404 -536496.000000 0 0 1
28.943275 -0.901826 27.129775 39.680615 -0.031148 0.817971 0.063105 -0.006335 857107.000000 0 0 1
30.476275 -1.027226 27.402405 40.996955 -0.033693 0.838739 0.064072 -0.011623 649565.000000 0 0 1
30.899975 -0.293526 28.516015 42.048279 -0.009499 0.825522 0.062341 -0.004323 125035.000000 0 0 1
32.311375 -0.206626 28.639465 43.177386 -0.006395 0.845579 0.084752 -0.020900 247250.000000 0 0 1
32.887575 0.870974 29.605025 44.258431 0.026477 0.838051 0.088951 -0.019599 4373.070000 0 0 1
32.760975 2.192674 29.053485 43.842837 0.066830 0.846413 0.075090 -0.012355 106292.000000 0 0 1
33.115375 3.206074 29.953435 44.767346 0.096514 0.837811 0.066642 -0.015673 -81986.700000 0 0 1
33.091075 4.623674 29.376455 44.490153 0.138827 0.849590 0.071532 -0.010537 -169604.000000 0 0 1
33.164075 5.662174 30.334615 45.300165 0.169102 0.837078 0.075568 -0.013659 -592857.000000 0 0 1
31.917275 6.091074 30.746805 44.734547 0.188572 0.813008 0.057039 -0.008671 -1184770.000000 0 0 1
31.933175 7.041174 32.001055 45.753397 0.217024 0.796204 0.049536 -0.010305 -400951.000000 0 0 1
32.597875 6.496274 33.096597 46.906373 0.196708 0.787543 0.058600 -0.010194 92001.400000 0 0 1
32.388775 7.348474 -33.965910 47.504904 0.223106 2.367418 0.073150 -0.016889 -72324.200000 0 0 1
32.830675 6.744374 -32.625820 46.773753 0.202610 2.342733 0.074439 -0.015816 140111.000000 0 0 1
32.106375 5.578674 -32.171760 45.792609 0.172038 2.349776 0.051829 -0.003326 584037.000000 0 0 1
32.567875 4.403274 -32.819870 46.445658 0.134388 2.355520 0.073006 -0.014693 123198.000000 0 0 1
32.268275 3.180374 -31.941540 45.515034 0.098243 2.348689 0.073869 -0.021498 46206.300000 0 0 1
33.032175 2.098174 -32.373960 46.299031 0.063434 2.345125 0.082423 -0.030638 42252.900000 0 0 1
32.996075 1.046774 -31.443990 45.591241 0.031714 2.331862 0.069896 -0.029330 32349.500000 0 0 1
33.314575 -0.376326 -31.929830 46.146686 -0.011296 2.334942 0.077916 -0.041472 149746.000000 0 0 1
34.608675 -0.418026 -32.549000 47.511815 -0.012078 2.325498 0.101966 -0.032766 741811.000000 0 0 1
35.310675 -1.656526 -32.250030 47.850311 -0.046879 2.310376 0.104567 -0.032494 735701.000000 0 0 1
35.937175 -1.834926 -30.806170 47.369480 -0.051015 2.278826 0.105011 -0.030283 515457.000000 0 0 1
34.894875 -1.906826 -29.768340 45.906888 -0.054591 2.276343 0.083786 -0.026412 1060950.000000 0 0 1
35.441375 -1.990026 -28.452610 45.492882 -0.056091 2.246479 0.086634 -0.027274 19787.700000 0 0 1
34.391775 -1.684326 -27.367200 43.984029 -0.048936 2.242356 0.091440 -0.026553 -94283.000000 0 0 1
34.124275 -0.275226 -27.330050 43.720402 -0.008065 2.246068 0.068789 -0.021947 113139.000000 0 0 1
33.174175 0.034674 -26.352330 42.367115 0.001045 2.242090 0.059783 -0.013482 -345905.000000 0 0 1
32.546875 1.427274 -26.442290 41.958681 0.043825 2.252605 0.040273 -0.009490 -281862.000000 0 0 1
31.696475 1.565774 -27.543090 42.020709 0.049359 2.285594 0.057518 -0.022675 37749.000000 0 0 1
30.921975 2.726074 -27.334420 41.361462 0.087932 2.292770 0.041571 -0.007920 -13321.800000 0 0 1
30.136875 3.221674 -28.568830 41.650792 0.106497 2.326654 0.055662 -0.013666 -298461.000000 0 0 1
29.162775 4.181174 -28.295330 40.848199 0.142403 2.336015 0.039692 -0.002327 5741.850000 0 0 1
28.622575 4.766374 -29.490940 41.372523 0.165011 2.364300 0.036588 -0.003981 -390957.000000 0 0 1
27.377375 5.601674 -29.205140 40.420782 0.201824 2.378248 0.026725 -0.001013 -642410.000000 0 0 1
26.329075 4.794474 -28.725130 39.259907 0.180124 2.391559 0.036848 -0.002028 201913.000000 0 0 1
25.468875 5.608874 -27.916010 38.202444 0.216765 2.390200 0.040293 -0.009813 325678.000000 0 0 1
24.119675 5.049774 -27.381440 36.837511 0.206382 2.408791 0.045641 -0.000017 -15044.200000 0 0 1
23.170175 5.043174 -28.391400 36.991380 0.214315 2.445750 0.050894 -0.003977 -219269.000000 0 0 1
22.005775 4.295874 -28.107490 35.954689 0.192791 2.468260 0.048230 -0.005056 281164.000000 0 0 1
21.072575 4.052974 -29.334070 36.345119 0.190014 2.510016 0.032600 -0.002928 10090.000000 0 0 1
21.258275 2.759774 -29.859930 36.757938 0.129099 2.518949 0.033686 -0.012242 -10028.000000 0 0 1
20.567875 2.438874 -31.044550 37.319562 0.118026 2.553242 0.013953 -0.013891 -455555.000000 0 0 1
20.760875 3.182474 -32.414840 38.624654 0.152108 2.566656 0.026016 -0.015224 392976.000000 0 0 1
22.077475 2.896874 -32.924060 39.746705 0.130469 2.546947 0.033967 -0.018469 387595.000000 0 0 1
22.157975 3.497074 33.972127 40.710082 0.156533 0.583591 0.042180 -0.028037 192011.000000 0 0 1
23.497175 3.095074 33.297266 40.870584 0.130967 0.618585 0.040701 -0.022239 17660.800000 0 0 1
23.720175 1.778574 32.967445 40.652952 0.074841 0.625025 0.034839 -0.019753 478124.000000 0 0 1
25.093975 1.627574 32.594323 41.167299 0.064768 0.657123 0.042871 -0.023367 461992.000000 0 0 1
25.452275 0.101974 32.366565 41.175518 0.004006 0.666382 0.039140 -0.030511 -320460.000000 0 0 1
24.881275 -0.580826 31.199415 39.910133 -0.023340 0.673342 0.030496 -0.029683 995343.000000 0 0 1
23.469175 -0.806026 31.127115 38.991655 -0.034331 0.646326 0.034483 -0.029416 398808.000000 0 0 1
22.906075 -1.790126 32.173201 39.534892 -0.077992 0.620148 0.029517 -0.027969 -703955.000000 0 0 1
23.385675 -3.123126 31.964235 39.728529 -0.132763 0.635852 0.029652 -0.032484 203246.000000 0 0 1
22.757875 -4.036726 32.816724 40.139176 -0.175551 0.613612 0.034343 -0.030797 -492703.000000 0 0 1
22.654875 -5.507126 32.354774 39.879860 -0.238463 0.624414 0.043847 -0.032320 -25100.900000 0 0 1
23.914775 -6.125226 32.234466 40.601671 -0.250737 0.653568 0.042565 -0.031053 -510477.000000 0 0 1
23.627875 -7.539826 32.151995 40.606357 -0.308893 0.657051 0.067282 -0.035839 -218124.000000 0 0 1
24.880775 -8.316026 31.761765 41.194890 -0.322562 0.690367 0.055834 -0.034051 -100907.000000 0 0 1
25.379875 -7.997426 30.458475 40.445217 -0.305260 0.718066 0.063538 -0.033749 -267774.000000 0 0 1
26.543075 -8.721426 30.150915 41.105666 -0.317463 0.747342 0.066400 -0.031010 -192912.000000 0 0 1
27.035475 -8.366626 28.707775 40.311955 -0.300121 0.778254 0.075440 -0.035807 -22138.900000 0 0 1
26.262475 -8.963826 27.693825 39.204792 -0.328918 0.786413 0.052333 -0.030289 -299980.000000 0 0 1
26.556875 -8.388226 26.435735 38.398933 -0.305942 0.811447 0.077099 -0.026405 -151764.000000 0 0 1
25.767675 -8.867526 25.228655 37.136116 -0.331439 0.823911 0.047235 -0.019916 -830259.000000 0 0 1
24.389175 -8.664926 25.274625 36.176228 -0.341369 0.797283 0.046078 -0.018028 -728129.000000 0 0 1
23.811175 -9.344426 24.178195 35.197663 -0.373971 0.813546 0.042900 -0.014212 -72395.600000 0 0 1
22.343775 -8.953426 23.951955 33.957389 -0.381120 0.787875 0.007380 -0.008331 -254442.000000 0 0 1
21.457875 -9.255126 24.987755 34.212361 -0.407208 0.751930 0.021243 0.001077 -288273.000000 0 0 1
20.137875 -8.855926 24.664505 33.049951 -0.414310 0.728341 0.030997 0.005895 -48281.400000 0 0 1
19.176375 -9.045926 25.826345 33.415000 -0.440771 0.687403 0.040325 -0.002258 -828775.000000 0 0 1
18.847775 -10.364926 26.223115 33.916398 -0.502788 0.686973 0.052339 0.003311 -647671.000000 0 0 1
19.748975 -11.189026 26.861475 35.167530 -0.515470 0.701593 0.035645 -0.001049 -892402.000000 0 0 1
19.100275 -12.231226 27.779545 35.862606 -0.569575 0.684698 0.043286 0.002518 234349.000000 0 0 1
18.369675 -13.212026 26.994415 35.223586 -0.623516 0.697620 0.065785 0.003872 499290.000000 0 0 1
17.486975 -13.995526 27.776935 35.682309 -0.674948 0.678602 0.052133 0.009116 58862.300000 0 0 1
18.138675 -15.067026 28.666245 37.118465 -0.693157 0.688357 0.076152 0.015278 -279698.000000 0 0 1
17.116075 -15.952626 29.130565 37.363567 -0.750230 0.676687 0.066523 0.010284 644579.000000 0 0 1
17.614175 -17.140326 29.757125 38.594513 -0.771765 0.690356 0.076650 0.005228 -412159.000000 0 0 1
18.005375 -18.288126 28.800755 38.576321 -0.793189 0.727872 0.075529 0.010589 -109010.000000 0 0 1
19.089375 -17.912526 27.991685 38.324891 -0.753604 0.751920 0.075282 0.007321 -7412.050000 0 0 1
19.236375 -18.880326 26.972595 38.131689 -0.776057 0.785049 0.070914 0.011595 -334316.000000 0 0 1
20.229175 -18.380126 25.951135 37.689653 -0.737543 0.811311 0.073225 -0.001883 -1578230.000000 0 0 1
21.522275 -18.266926 26.376245 38.634120 -0.703765 0.819319 0.078970 -0.005045 -1193620.000000 0 0 1
22.318475 -17.668726 25.355245 38.120686 -0.669637 0.843127 0.057971 -0.002698 725432.000000 0 0 1
23.789775 -17.481926 25.845685 39.237362 -0.633735 0.851705 0.052011 -0.002326 396322.000000 0 0 1
24.595675 -18.637226 25.933405 40.309241 -0.648439 0.871916 0.057804 -0.008795 557032.000000 0 0 1
25.881475 -18.350426 26.482625 41.326968 -0.616753 0.875247 0.046411 -0.005502 368007.000000 0 0 1
26.779575 -19.580026 26.571895 42.503984 -0.631331 0.895457 0.042701 -0.008817 -426817.000000 0 0 1
26.493175 -20.298026 27.663965 43.349662 -0.653764 0.878692 0.058575 -0.005903 -144306.000000 0 0 1
27.484675 -21.212926 28.063525 44.642547 -0.657314 0.891009 0.058729 -0.008596 -138247.000000 0 0 1
26.912475 -22.327526 28.936635 45.388639 -0.692552 0.879508 0.059670 -0.001226 -120560.000000 0 0 1
26.561375 -22.035526 30.257625 45.897657 -0.692536 0.850987 0.066235 -0.003566 -18905.600000 0 0 1
26.196575 -23.239226 30.883945 46.691972 -0.725647 0.848059 0.062808 -0.005288 -219704.000000 0 0 1
25.555775 -23.163126 32.317219 47.265534 -0.736326 0.817924 0.069003 -0.005381 33604.900000 0 0 1
25.384075 -24.415926 32.901234 48.197302 -0.765960 0.819432 0.058133 -0.006823 130228.000000 0 0 1
25.099675 -24.280226 -33.884180 48.658614 -0.768805 2.341117 0.066876 -0.005032 -335751.000000 0 0 1
24.943575 -25.594006 -33.040540 48.671474 -0.798268 2.316989 0.063741 -0.010445 308050.000000 0 0 1
23.736175 -26.324116 -33.191760 48.559840 -0.837049 2.323374 0.076170 -0.017487 -51303.000000 0 0 1
23.478175 -26.849606 33.684272 49.058702 -0.852288 0.813978 0.067878 -0.019211 -150745.000000 0 0 1
22.098175 -27.499366 33.442363 48.610041 -0.893871 0.812105 0.079758 -0.021848 228934.000000 0 0 1
22.150075 -28.870166 33.699735 49.596214 -0.916359 0.823740 0.073141 -0.023720 -160909.000000 0 0 1
20.836375 -29.322946 33.878839 49.414223 -0.953003 0.815356 0.095401 -0.028655 -491598.000000 0 0 1
20.787475 -30.811616 33.962965 50.348364 -0.977278 0.830429 0.072419 -0.028377 -416187.000000 0 0 1
21.305375 -31.454676 -33.013620 50.331052 -0.975444 2.286210 0.035168 -0.027401 -782823.000000 0 0 1
22.630075 -31.774806 -33.226580 51.242211 -0.951928 2.276306 0.021391 -0.013717 -1238370.000000 0 0 1
23.231775 -32.485746 -31.953980 51.147785 -0.949983 2.245593 0.009481 -0.010459 -1014140.000000 0 0 1
24.368475 -33.232846 -32.209950 52.304163 -0.938092 2.234223 0.001731 -0.006982 -42496.700000 0 0 1
25.009375 -33.791586 -31.051580 52.264144 -0.933657 2.206977 -0.000037 0.012335 405832.000000 0 0 1
25.792575 -32.920706 -30.040820 51.492530 -0.906213 2.193707 -0.008143 0.003538 -84816.700000 0 0 1
26.504975 -33.698606 -29.055740 51.791368 -0.904323 2.166408 0.002836 0.011553 122782.000000 0 0 1
27.162275 -32.856086 -28.159890 51.091007 -0.879983 2.154564 0.010595 0.003968 -693172.000000 0 0 1
27.431975 -33.415656 -26.702850 50.814973 -0.883422 2.124089 0.011162 -0.001974 299624.000000 0 0 1
28.558875 33.951949 -26.568130 51.712762 0.871459 2.110362 0.016530 0.018736 263399.000000 0 0 1
29.713475 -33.513076 -26.240990 51.909599 -0.845421 2.100773 0.023050 0.001376 -73813.200000 0 0 1
-27.665835 -30.840407 9.352600 42.473524 0.839605 1.348779 0.056245 -0.014966 6245.320000 0 0 1
-27.366065 -32.092407 9.958200 43.335780 0.864721 1.338933 0.055754 -0.018086 262884.000000 0 0 1
-26.119315 -31.960007 10.630700 42.622440 0.885625 1.318720 0.053901 -0.017552 134637.000000 0 0 1
-25.950225 -32.955207 11.837600 43.584270 0.903761 1.295739 0.055686 -0.019158 -114488.000000 0 0 1
-25.859335 33.918374 11.426100 44.155600 -0.919407 1.309049 0.059234 -0.009039 -149723.000000 0 0 1
-27.112325 33.268774 11.507900 44.433335 -0.887007 1.308817 0.043265 -0.017329 97044.800000 0 0 1
-27.122115 31.743174 11.242800 43.239320 -0.863740 1.307760 0.045098 -0.006403 174063.000000 0 0 1
-26.712595 31.335374 9.939900 42.358824 -0.864868 1.333928 0.058925 -0.012806 -113476.000000 0 0 1
-26.702645 29.984474 9.802600 41.330266 -0.843227 1.331337 0.065511 -0.011178 -151005.000000 0 0 1
-26.269285 29.514874 8.405400 40.396211 -0.843514 1.361191 0.059192 -0.002782 -507911.000000 0 0 1
-24.973525 29.980774 8.139600 39.859464 -0.876264 1.365142 0.054231 -0.001314 -186703.000000 0 0 1
-24.452525 29.783274 6.818300 39.133855 -0.883372 1.395672 0.043547 0.007340 -87075.700000 0 0 1
-23.120725 29.017574 6.896100 37.737829 -0.898020 1.387027 0.056714 0.007568 -423157.000000 0 0 1
-23.083225 27.640074 7.106100 36.705662 -0.874995 1.375969 0.057096 0.003762 -49942.700000 0 0 1
-23.471825 26.865674 6.032200 36.181189 -0.852718 1.403292 0.046162 0.000197 -422164.000000 0 0 1
-23.745525 25.430574 6.495600 35.394305 -0.819650 1.386229 0.049445 -0.002750 468446.000000 0 0 1
-25.042325 25.214574 7.095400 36.238619 -0.788826 1.373727 0.052551 -0.008101 440847.000000 0 0 1
-25.188325 23.923574 7.641700 35.569435 -0.759651 1.354269 0.053491 -0.017449 -101858.000000 0 0 1
-25.508015 22.814774 6.572200 34.847762 -0.729721 1.381063 0.058940 -0.023334 -65635.700000 0 0 1
-26.742965 22.919274 5.885200 35.708750 -0.708556 1.405230 0.056972 -0.024515 306960.000000 0 0 1
-26.557625 22.169674 4.689400 34.911207 -0.695589 1.436065 0.048008 -0.026547 97322.200000 0 0 1
-26.515135 23.066174 3.448300 35.312767 -0.715948 1.472990 0.046837 -0.026581 9593.120000 0 0 1
-25.211815 23.554074 3.203100 34.650972 -0.751417 1.478225 0.051234 -0.021114 128684.000000 0 0 1
-25.025025 24.287074 2.014600 34.930967 -0.770434 1.513091 0.044695 -0.014672 288210.000000 0 0 1
-23.801125 25.239974 2.094800 34.755403 -0.814729 1.510487 0.049458 -0.007230 332714.000000 0 0 1
-23.465725 25.848774 0.878400 34.922356 -0.833684 1.545641 0.030150 -0.011684 134626.000000 0 0 1
-22.180225 26.458874 0.917200 34.538032 -0.873140 1.544237 0.039389 -0.008549 -78078.000000 0 0 1
-21.833325 27.044374 -0.496500 34.761167 -0.891611 1.585080 0.050921 -0.012536 148632.000000 0 0 1
-21.531825 26.167074 -1.619400 33.925767 -0.882271 1.618548 0.040378 -0.015669 765652.000000 0 0 1
-20.336725 25.425374 -1.297800 32.583988 -0.896141 1.610636 0.045541 -0.016074 305959.000000 0 0 1
-19.979225 24.250074 -2.231500 31.499446 -0.881661 1.641698 0.043429 -0.024579 -190121.000000 0 0 1
-20.879025 23.155274 -2.237000 31.258672 -0.837045 1.642422 0.040412 -0.025723 -107231.000000 0 0 1
-20.571825 22.106674 -3.106900 30.357171 -0.821346 1.673321 0.043906 -0.023797 349220.000000 0 0 1
-21.834425 21.622674 -3.913500 30.977373 -0.780526 1.697469 0.037765 -0.017778 559192.000000 0 0 1
-22.220525 22.516774 -4.920900 32.015185 -0.792020 1.725113 0.027836 -0.010827 -85950.500000 0 0 1
-23.396025 22.070874 -5.562400 32.641044 -0.756261 1.742043 0.039576 -0.007767 134843.000000 0 0 1
-23.779525 22.740074 -6.827400 33.603425 -0.763058 1.775397 0.027717 0.002919 139597.000000 0 0 1
-22.958225 22.305274 -7.905900 32.971330 -0.770974 1.812937 0.016214 -0.001732 222927.000000 0 0 1
-23.041025 23.159374 -9.023900 33.892126 -0.787960 1.840301 0.018556 -0.006846 -539791.000000 0 0 1
-22.279125 22.598374 -10.221900 33.339663 -0.792512 1.882414 0.022210 -0.005955 -100922.000000 0 0 1
-23.050525 21.820174 -11.142600 33.639325 -0.757985 1.908411 0.014204 -0.002941 239402.000000 0 0 1
-22.252225 21.238374 -12.147500 33.072523 -0.762090 1.946900 0.018567 0.001100 317726.000000 0 0 1
-23.137725 20.923174 -13.384600 33.945265 -0.735179 1.976102 0.010545 -0.002984 133568.000000 0 0 1
-23.879625 19.725974 -13.391000 33.744176 -0.690430 1.978867 0.012184 0.003342 -458921.000000 0 0 1
-24.884825 19.898974 -14.332200 34.937596 -0.674523 1.993495 0.018189 -0.005175 -417093.000000 0 0 1
-25.679825 18.607874 -14.608400 34.915780 -0.627053 2.002468 0.045214 -0.011727 108148.000000 0 0 1
-25.076895 17.710774 -15.526600 34.403451 -0.614914 2.039028 0.038985 -0.014616 533917.000000 0 0 1
-25.993205 16.630074 -15.777300 34.657311 -0.569161 2.043435 0.074767 -0.020797 379855.000000 0 0 1
-25.516045 15.797074 -17.019700 34.500526 -0.554348 2.086695 0.079261 -0.016831 -376963.000000 0 0 1
-24.395425 15.023074 -16.796700 33.210821 -0.551967 2.101059 0.090250 -0.017653 -502124.000000 0 0 1
-24.122525 14.157174 -17.898200 33.206435 -0.530721 2.140043 0.098677 -0.023601 -296915.000000 0 0 1
-23.324525 12.928974 -17.513500 31.904772 -0.506145 2.151880 0.099466 -0.018001 347189.000000 0 0 1
-21.938525 13.163174 -17.271900 30.868860 -0.540421 2.164609 0.104852 -0.034251 456473.000000 0 0 1
-21.333925 12.012674 -16.708400 29.641378 -0.512829 2.169637 0.111868 -0.028941 -282617.000000 0 0 1
-20.143825 12.293374 -15.802800 28.401218 -0.547944 2.160859 0.114449 -0.033779 -232783.000000 0 0 1
-19.019925 12.851274 -16.465400 28.249286 -0.594213 2.193041 0.099596 -0.029192 -158872.000000 0 0 1
-17.980525 12.980974 -15.545100 27.082376 -0.625304 2.182170 0.095120 -0.019287 -164932.000000 0 0 1
-17.018125 14.179174 -15.824900 27.223023 -0.694648 2.191129 0.069999 -0.016584 150591.000000 0 0 1
-16.215825 13.970174 -16.963500 27.310786 -0.711141 2.240978 0.085139 -0.028838 -124067.000000 0 0 1
-15.468725 15.111574 -17.303900 27.695958 -0.773720 2.245647 0.069747 -0.014153 -267140.000000 0 0 1
-14.716525 14.992174 -18.652500 28.093721 -0.794676 2.296870 0.066032 -0.016442 244075.000000 0 0 1
-13.710125 14.004374 -18.441500 26.910573 -0.796015 2.325796 0.060481 -0.018563 -659666.000000 0 0 1
-12.625525 14.183874 -19.295500 27.072172 -0.843460 2.364197 0.072224 -0.023392 -290628.000000 0 0 1
-11.577025 13.075374 -19.193900 25.949927 -0.846103 2.403349 0.060456 -0.029918 91957.200000 0 0 1
-12.212825 11.902474 -19.625200 25.999432 -0.772529 2.426194 0.086768 -0.035212 -2490.270000 0 0 1
-11.277625 10.843274 -19.714000 25.167503 -0.765765 2.470772 0.054892 -0.020912 -3295.150000 0 0 1
-11.674925 9.713874 -20.652900 25.636019 -0.693968 2.507518 0.079618 -0.023898 -81413.900000 0 0 1
-11.374025 10.093674 -21.996200 26.741045 -0.725828 2.536700 0.089556 -0.028753 -18829.200000 0 0 1
-11.829125 9.121674 -22.991600 27.418001 -0.656881 2.565428 0.093954 -0.004602 23602.700000 0 0 1
-11.377425 9.372174 -24.440200 28.541318 -0.689057 2.598877 0.085936 -0.020519 -133045.000000 0 0 1
-9.978825 9.298774 -24.631600 28.155991 -0.750136 2.635873 0.071699 -0.021549 -221479.000000 0 0 1
-9.640625 8.330274 -25.636610 28.628148 -0.712612 2.680358 0.048965 -0.024867 -203319.000000 0 0 1
-9.253125 8.991674 -27.009480 29.932967 -0.771069 2.695946 0.085940 -0.029919 22429.900000 0 0 1
-8.022925 9.685774 -27.089670 29.866901 -0.879024 2.706932 0.084561 -0.033970 72864.700000 0 0 1
-8.085925 11.030474 -26.605960 29.915391 -0.938230 2.666770 0.053144 -0.025283 155918.000000 0 0 1
-6.708625 11.758674 -26.629210 29.872845 -1.052331 2.671262 0.047098 -0.023657 561065.000000 0 0 1
-6.068425 11.818674 -27.927850 30.926876 -1.096438 2.697564 0.048181 -0.029059 77530.000000 0 0 1
-4.907125 12.594474 -27.946770 31.043882 -1.199266 2.691104 0.058691 -0.030778 -566364.000000 0 0 1
-4.166025 12.415974 -29.285380 32.080300 -1.247063 2.721074 0.062730 -0.032056 687127.000000 0 0 1
-2.825325 12.939574 -29.225100 32.086157 -1.355823 2.716092 0.078631 -0.043327 598110.000000 0 0 1
-2.133825 12.793074 -30.441050 33.088872 -1.405523 2.738822 0.079766 -0.041420 199734.000000 0 0 1
-0.601425 12.804574 -30.227310 32.833049 -1.523861 2.740505 0.092558 -0.053487 -317984.000000 0 0 1
-0.296925 11.689274 -29.417910 31.656606 -1.545400 2.763260 0.069699 -0.030596 169397.000000 0 0 1
1.029275 11.170274 -29.444750 31.509169 1.478912 2.777597 0.083004 -0.034842 562020.000000 0 0 1
1.459375 10.473674 -30.791820 32.557085 1.432350 2.810782 0.084399 -0.032724 -306603.000000 0 0 1
1.682275 11.373974 -31.833650 33.846397 1.423955 2.794992 0.095999 -0.048241 143012.000000 0 0 1
1.672175 10.704474 -33.100240 34.828262 1.415836 2.825266 0.097746 -0.034505 17642.800000 0 0 1
1.794675 11.722074 33.818624 35.837511 1.418874 0.337258 0.096761 -0.044313 -645330.000000 0 0 1
3.129275 12.078274 33.609095 35.850360 1.317287 0.355471 0.097845 -0.048388 -433987.000000 0 0 1
3.259575 13.038474 32.578687 35.241985 1.325821 0.391263 0.093032 -0.046085 -79405.600000 0 0 1
4.736575 13.346974 32.265442 35.236850 1.229781 0.413616 0.082655 -0.033030 -357841.000000 0 0 1
5.415575 12.225674 31.774125 34.473041 1.153806 0.398332 0.074055 -0.035575 -266470.000000 0 0 1
6.746375 12.648674 31.529275 34.635209 1.080813 0.426729 0.063082 -0.020945 -67907.900000 0 0 1
7.580375 11.450074 31.040595 33.942375 0.986006 0.416505 0.046819 -0.014484 -67708.100000 0 0 1
7.078775 10.868874 29.827375 32.525587 0.993516 0.410194 0.049604 -0.020119 -198754.000000 0 0 1
8.049475 10.062874 29.262425 31.974130 0.896105 0.414816 0.050372 -0.016156 -293117.000000 0 0 1
7.540675 9.282074 28.028615 30.473299 0.888545 0.403287 0.042895 -0.011261 64981.700000 0 0 1
6.618775 8.302574 28.464375 30.380282 0.897768 0.357039 0.055064 -0.020720 -9515.880000 0 0 1
6.036575 7.514274 27.447405 29.090627 0.894017 0.337717 0.063048 -0.024797 -257205.000000 0 0 1
5.117975 6.412574 28.025655 29.201920 0.897205 0.284794 0.082147 -0.023498 -175408.000000 0 0 1
5.707575 5.203674 28.532785 29.559676 0.739249 0.264358 0.066587 -0.019588 -416166.000000 0 0 1
4.827675 4.529274 29.357625 30.094699 0.753518 0.221777 0.078966 -0.020174 -956279.000000 0 0 1
5.453175 3.292074 30.011765 30.680302 0.543135 0.209141 0.079679 -0.015188 21299.300000 0 0 1
5.748475 2.214174 29.122255 29.766647 0.367662 0.208455 0.087082 -0.015666 -252019.000000 0 0 1
7.052175 2.287274 28.607145 29.552217 0.313631 0.253581 0.074388 -0.013138 -365893.000000 0 0 1
7.346275 1.007374 27.720925 28.695509 0.136277 0.261369 0.075150 -0.020603 19445.400000 0 0 1
7.674075 -0.111226 28.520825 29.535424 -0.014493 0.262870 0.058280 0.001435 -25649.000000 0 0 1
7.808375 -1.313726 27.765045 28.872034 -0.166685 0.277808 0.078187 0.000909 -48558.300000 0 0 1
8.458975 -2.420126 28.611675 29.933914 -0.278658 0.298332 0.071901 0.011451 -154977.000000 0 0 1
9.826775 -2.276626 28.871815 30.583169 -0.227659 0.336117 0.053869 0.001804 -172902.000000 0 0 1
10.590075 -3.448426 28.488975 30.588609 -0.314800 0.372669 0.043676 0.005309 -417669.000000 0 0 1
12.095675 -3.394926 28.704255 31.333132 -0.273632 0.412556 0.044990 0.002124 -527410.000000 0 0 1
12.706575 -4.617226 28.395485 31.449633 -0.348538 0.444356 0.054269 -0.002189 -112969.000000 0 0 1
12.831675 -5.567126 29.482825 32.632526 -0.409350 0.442977 0.060157 0.001523 -526585.000000 0 0 1
12.327675 -6.962726 29.085785 32.348632 -0.514138 0.453007 0.065862 0.007433 84731.400000 0 0 1
10.937175 -6.839426 28.826765 31.581354 -0.558842 0.420762 0.055188 0.009128 205851.000000 0 0 1
10.327375 -8.145426 28.529245 31.415290 -0.667826 0.431995 0.055288 0.007163 534203.000000 0 0 1
8.800675 -7.993126 28.373065 30.763172 -0.737349 0.396790 0.066963 0.003277 49101.400000 0 0 1
8.045975 -7.697326 29.511985 31.542730 -0.763256 0.360787 0.076930 0.009517 232655.000000 0 0 1
6.685975 -7.442026 29.160225 30.828635 -0.838861 0.330497 0.085315 0.002799 415079.000000 0 0 1
5.897975 -6.760826 30.295295 31.595882 -0.853455 0.287919 0.081842 0.000887 -59545.800000 0 0 1
5.701575 -7.544926 31.438595 32.830156 -0.923668 0.292197 0.077700 -0.001561 65128.700000 0 0 1
5.051675 -6.811526 32.488695 33.577248 -0.932669 0.255328 0.088100 -0.001871 77726.600000 0 0 1
5.931075 -5.752326 33.160671 34.174509 -0.770100 0.244190 0.094867 0.006617 21694.200000 0 0 1
6.232075 -4.588926 32.375198 33.287392 -0.634701 0.234647 0.094659 0.004983 -40935.000000 0 0 1
6.626775 -3.479426 33.168424 34.002425 -0.483491 0.221940 0.091855 0.011974 87849.700000 0 0 1
6.707375 -2.232026 32.318158 33.082233 -0.321245 0.215340 0.088318 0.010970 -48783.000000 0 0 1
5.448975 -1.801826 31.861315 32.374084 -0.319354 0.178218 0.099643 0.009092 -201333.000000 0 0 1
5.472275 -0.471126 31.331375 31.809162 -0.085881 0.173541 0.099501 -0.001850 -316490.000000 0 0 1
4.070075 -0.018526 30.909115 31.175940 -0.004552 0.130927 0.105519 -0.008449 -290425.000000 0 0 1
3.247075 0.102374 32.020335 32.184714 0.031518 0.101111 0.088555 -0.006987 -558646.000000 0 0 1
2.026875 0.770674 31.817575 31.891382 0.363346 0.068047 0.086441 -0.016279 -77441.200000 0 0 1
1.256975 0.952974 33.104360 33.141919 0.648696 0.047613 0.077168 -0.016294 -494162.000000 0 0 1
1.893875 1.840874 33.955407 34.057969 0.771208 0.077626 0.076025 -0.013452 -545742.000000 0 0 1
1.186675 2.179974 -33.022810 33.115955 1.072299 3.066573 0.054556 -0.011991 -437642.000000 0 0 1
1.820475 3.156274 -32.056100 32.262513 1.047625 3.028414 0.051123 -0.000873 416613.000000 0 0 1
2.807575 2.556474 -31.153850 31.384397 0.738620 3.020308 0.048885 0.004545 675632.000000 0 0 1
3.407075 3.593574 -30.375960 30.776954 0.812032 2.979992 0.043491 0.007979 -45069.200000 0 0 1
4.536675 3.048574 -29.485100 29.987436 0.591675 2.958298 0.064500 0.006169 -289816.000000 0 0 1
4.037775 2.395274 -28.314360 28.700940 0.535417 2.977278 0.069852 -0.016550 779858.000000 0 0 1
5.031375 2.197374 -27.285960 27.832837 0.411768 2.943031 0.081990 -0.020825 342704.000000 0 0 1
4.500575 1.446874 -26.052460 26.477902 0.311051 2.962088 0.084166 -0.023090 -350224.000000 0 0 1
3.854075 0.299274 -26.419240 26.700556 0.077496 2.996303 0.091328 -0.019272 -270147.000000 0 0 1
3.534775 -0.505626 -25.332070 25.582495 -0.142079 3.001557 0.087525 -0.016014 -176065.000000 0 0 1
4.264575 -1.880326 -25.174560 25.602357 -0.415275 2.958530 0.092461 -0.025483 -311496.000000 0 0 1
5.626875 -1.730226 -24.898800 25.585262 -0.298317 2.909424 0.087802 -0.026379 -366714.000000 0 0 1
6.187975 -3.077426 -24.667100 25.616936 -0.461504 2.868427 0.096532 -0.036758 -503677.000000 0 0 1
7.632175 -3.052226 -24.237500 25.593409 -0.380434 2.814627 0.109376 -0.039405 -552455.000000 0 0 1
8.608475 -2.634526 -25.166470 26.728221 -0.296988 2.798056 0.095551 -0.032839 -833960.000000 0 0 1
9.801075 -3.314726 -24.984200 27.041796 -0.326124 2.748975 0.077001 -0.018292 -464255.000000 0 0 1
-30.618125 -3.642426 18.047765 35.727561 0.118407 1.041241 0.207157 -0.020981 -292763.000000 0 0 1
-31.995555 -3.692226 18.246165 37.017166 0.114890 1.055364 0.178973 -0.003564 -766779.000000 0 0 1
-32.403005 -4.931426 18.818465 37.794289 0.151031 1.049600 0.139296 -0.015711 1878140.000000 0 0 1
-33.943615 -4.975826 19.292965 39.359196 0.145554 1.058504 0.134041 -0.010920 1339050.000000 0 0 1
-34.784026 -5.053826 18.209165 39.585897 0.144282 1.092811 0.120009 -0.005603 -954345.000000 0 0 1
-36.088605 -4.861926 18.654265 40.914634 0.133916 1.097378 0.069999 0.004811 -297307.000000 0 0 1
36.202452 -4.590726 17.624965 40.525692 -0.126134 1.120860 0.045081 0.008579 168826.000000 0 0 1
34.897312 -4.548426 18.137565 39.591436 -0.129607 1.094919 0.021230 0.014677 -348951.000000 0 0 1
33.976652 -4.662826 17.079065 38.312521 -0.136384 1.108748 0.023788 0.010499 -276966.000000 0 0 1
32.553722 -5.047226 17.483565 37.294696 -0.153818 1.082870 0.041040 0.016780 -427389.000000 0 0 1
31.941972 -4.157626 18.379665 37.086217 -0.129434 1.052279 0.053624 0.011206 -230735.000000 0 0 1
30.741502 -4.696926 18.852565 36.366472 -0.151615 1.025812 0.060550 0.009413 -333276.000000 0 0 1
30.146252 -4.011926 20.080265 36.443231 -0.132305 0.987233 0.076465 -0.004935 156214.000000 0 0 1
29.220512 -2.954826 19.850665 35.448811 -0.100779 0.976433 0.074554 -0.000917 90628.800000 0 0 1
29.779782 -1.752726 19.377765 35.572535 -0.058788 0.994718 0.061557 0.004170 -238313.000000 0 0 1
28.901152 -0.525126 19.688165 34.973936 -0.018168 0.972860 0.040069 0.007195 -78939.200000 0 0 1
29.409002 0.703274 19.258565 35.160721 0.023909 0.991148 0.043736 0.000805 -471183.000000 0 0 1
28.519172 1.710374 19.568465 34.629372 0.059901 0.970263 0.035996 0.002322 -357530.000000 0 0 1
28.872492 3.007274 18.766165 34.566363 0.103783 0.996907 0.039511 -0.001869 172066.000000 0 0 1
28.731722 2.834974 17.342765 33.679674 0.098352 1.029867 0.032360 -0.003347 21591.900000 0 0 1
28.604762 4.051674 16.687165 33.363303 0.140707 1.047007 0.037743 -0.009305 65912.700000 0 0 1
28.642172 4.045174 15.141565 32.649724 0.140303 1.088564 0.041845 -0.003739 -64333.100000 0 0 1
28.239362 5.319474 14.631665 32.246612 0.186189 1.099836 0.055067 -0.022006 169069.000000 0 0 1
27.634362 5.090874 13.365665 31.116169 0.182180 1.126812 0.059824 -0.013807 -82077.400000 0 0 1
26.973462 6.383174 12.818365 30.538878 0.232372 1.137638 0.080535 -0.018653 493741.000000 0 0 1
25.860962 6.780874 13.648565 30.017544 0.256432 1.098776 0.055285 -0.021041 432817.000000 0 0 1
25.379962 7.983774 13.157265 29.681589 0.304770 1.111541 0.081911 -0.037103 423739.000000 0 0 1
24.113562 8.598874 13.928965 29.144821 0.342542 1.072508 0.076465 -0.039096 878480.000000 0 0 1
22.873162 7.975274 13.755065 27.856568 0.335493 1.054363 0.077887 -0.026680 167211.000000 0 0 1
22.710962 6.640274 14.212765 27.602241 0.284453 1.029890 0.077888 -0.026336 -1575040.000000 0 0 1
21.412162 5.903274 13.993065 26.251385 0.269014 1.008606 0.091480 -0.021525 -868522.000000 0 0 1
21.265062 5.629274 12.621365 25.361200 0.258784 1.049892 0.101559 -0.021280 731124.000000 0 0 1
20.117262 4.802574 12.461365 24.146523 0.234343 1.028537 0.102389 -0.017524 126551.000000 0 1 0
19.735362 4.650974 10.977865 23.057094 0.231444 1.074563 0.105595 -0.020958 148886.000000 0 1 0
20.667362 3.769574 10.356465 23.422338 0.180409 1.112789 0.102147 -0.025065 792095.000000 0 1 0
20.375962 3.703174 8.978165 22.572124 0.179780 1.161728 0.112520 -0.023356 8307.780000 0 1 0
21.504962 3.046174 8.155465 23.200306 0.140714 1.211598 0.110716 -0.022527 -789923.000000 0 1 0
21.647562 1.703174 8.507865 23.321696 0.078516 1.197373 0.105394 -0.022708 573103.000000 0 1 0
22.494262 0.917874 7.680965 23.787214 0.040782 1.242001 0.088501 -0.019312 1725920.000000 0 1 0
24.090162 1.163774 7.734565 25.328122 0.048272 1.260465 0.096242 -0.020560 1439240.000000 0 0 1
24.693962 0.662574 8.912165 26.261330 0.026825 1.224555 0.092392 -0.017144 253874.000000 0 0 1
24.490062 1.360974 10.160565 26.549058 0.055515 1.178070 0.082889 -0.017518 -528916.000000 0 0 1
25.419462 0.840874 11.266065 27.816908 0.033068 1.153809 0.067254 -0.012032 565576.000000 0 0 1
26.793462 1.254274 11.265565 29.092538 0.046779 1.173169 0.075004 -0.019437 640190.000000 0 0 1
27.441962 0.597874 12.331765 30.091380 0.021783 1.148550 0.062447 -0.015595 -844466.000000 0 0 1
28.955512 0.583274 12.173865 31.415997 0.020141 1.172872 0.089763 -0.018981 -791649.000000 0 0 1
29.526382 1.828774 12.408865 32.080081 0.061858 1.173628 0.079709 -0.013120 -211796.000000 0 0 1
30.911872 1.721874 12.180865 33.269839 0.055645 1.195957 0.085965 -0.012196 -288156.000000 0 0 1
31.755182 2.858474 12.746465 34.337077 0.089774 1.190478 0.072311 -0.010344 -710908.000000 0 0 1
31.573082 4.128274 12.082465 34.057130 0.130015 1.208128 0.087364 -0.022541 404829.000000 0 0 1
32.453472 5.149974 12.533365 35.168670 0.157376 1.206407 0.080730 -0.026319 1191890.000000 0 0 1
33.967102 5.035074 12.120765 36.414680 0.147162 1.231468 0.076931 -0.021466 746316.000000 0 0 1
34.792322 4.003474 12.686665 37.248959 0.114564 1.223251 0.071390 -0.025886 -236489.000000 0 0 1
36.043592 3.999074 12.085865 38.225662 0.110499 1.249105 0.089863 -0.023331 -913034.000000 0 0 1
-36.331695 3.082574 12.699565 38.610533 -0.084643 1.235642 0.130736 -0.016145 -927416.000000 0 0 1
-36.372845 1.707174 12.409465 38.469379 -0.046901 1.242342 0.113313 -0.009026 163403.000000 0 0 1
35.914412 0.936374 12.771865 38.129284 0.026066 1.229231 0.084571 -0.005362 -273845.000000 0 0 1
35.547022 0.774874 14.279165 38.315607 0.021795 1.188909 0.078751 -0.004314 -504830.000000 0 0 1
36.498692 0.105274 15.080365 39.491556 0.002884 1.178985 0.085992 -0.001497 417723.000000 0 0 1
36.054852 0.116974 16.436965 39.624990 0.003244 1.143059 0.091147 -0.015880 -313587.000000 0 0 1
-36.535155 -0.803026 17.325565 40.443016 0.021976 1.128081 0.111185 -0.010444 610871.000000 0 0 1
-35.171453 -0.350026 17.465565 39.270849 0.009952 1.109905 0.159632 -0.030037 744115.000000 0 0 1
-34.327594 -1.263326 18.119465 38.836770 0.036785 1.085405 0.147925 -0.021924 -95394.100000 0 0 1
-34.390868 -1.420326 19.638365 39.628455 0.041276 1.052314 0.160123 -0.025529 -165348.000000 0 0 1
-35.602106 -1.953926 20.160065 40.960419 0.054827 1.056199 0.112847 -0.026632 160350.000000 0 0 1
-35.677564 -1.727826 21.549665 41.716447 0.048391 1.027951 0.099127 -0.023701 207672.000000 0 0 1
-36.044539 -3.008826 22.397665 42.543121 0.083282 1.016353 0.068817 -0.018110 -182107.000000 0 0 1
-34.947167 -3.902226 22.399865 41.692754 0.111200 1.003611 0.088199 -0.024091 230563.000000 0 0 1
-35.271492 -5.148526 22.993265 42.417870 0.144945 0.997903 0.078324 -0.027516 29832.300000 0 0 1
-35.340474 -5.194326 24.521505 43.327062 0.145935 0.969196 0.080004 -0.031864 189855.000000 0 0 1
-34.034895 -5.177026 25.047605 42.574149 0.150952 0.941806 0.094106 -0.035262 -120590.000000 0 0 1
-34.176090 -5.261926 26.476635 43.551179 0.152766 0.917329 0.110433 -0.048388 326598.000000 0 0 1
-32.911555 -4.619826 27.091575 42.877344 0.139460 0.886873 0.093987 -0.034745 194160.000000 0 0 1
-32.796665 -3.191626 26.955725 42.572512 0.097010 0.885152 0.084034 -0.019821 -84202.900000 0 0 1
-32.170715 -2.710426 25.763605 41.304535 0.084053 0.897268 0.078950 -0.020193 -24916.700000 0 0 1
-31.902865 -1.201326 25.739895 41.009488 0.037638 0.892256 0.078669 -0.020354 352907.000000 0 0 1
-33.097395 -0.463326 25.486435 41.775717 0.013998 0.914638 0.090976 -0.031543 320053.000000 0 0 1
-32.946445 0.827474 24.819045 41.256974 -0.025110 0.925329 0.073446 -0.014561 -936813.000000 0 0 1
-34.308273 1.382774 24.503185 42.182647 -0.040283 0.950983 0.104286 -0.014969 -470964.000000 0 0 1
-35.013362 0.778574 23.425475 42.134244 -0.022233 0.981264 0.116600 -0.012126 1212210.000000 0 0 1
-36.384105 1.195174 23.186525 43.160705 -0.032837 1.003666 0.101456 -0.007428 1460560.000000 0 0 1
-36.571145 2.520274 22.391165 42.955380 -0.068805 1.022463 0.106516 -0.014509 -47443.100000 0 0 1
-36.092075 2.429374 21.082765 41.869114 -0.067209 1.043105 0.134480 -0.036380 -58913.000000 0 0 1
-36.661655 3.419074 20.283465 42.037911 -0.092991 1.067285 0.119706 -0.029058 79322.100000 0 0 1
-36.349585 3.082674 18.805865 41.042121 -0.084604 1.094817 0.139226 -0.028942 440308.000000 0 0 1
-35.041751 3.364874 18.331665 39.690007 -0.095731 1.090693 0.176578 -0.041132 170543.000000 0 0 1
-34.942406 2.737974 17.042265 38.973157 -0.078197 1.118222 0.201784 -0.037409 47998.800000 0 0 1
-33.984455 3.366174 15.987065 37.707566 -0.098728 1.132967 0.177717 -0.036536 120979.000000 0 0 1
-34.376699 4.659074 15.636065 38.051950 -0.134709 1.147340 0.178859 -0.046660 -67937.900000 0 0 1
-33.451645 5.267374 14.765865 36.943044 -0.156180 1.159615 0.189086 -0.039732 -175696.000000 0 0 1
-33.734855 6.757274 14.581365 37.367330 -0.197689 1.169929 0.201775 -0.060595 217104.000000 0 0 1
-32.924205 7.370174 13.562165 36.362825 -0.220222 1.188591 0.202189 -0.047733 381983.000000 0 0 1
-33.243855 8.734974 13.286865 36.850976 -0.256946 1.201932 0.176461 -0.049096 -258094.000000 0 0 1
-32.212375 9.313474 12.301065 35.716860 -0.281452 1.219191 0.181019 -0.044007 24191.400000 0 0 1
-32.395105 10.719474 12.131265 36.214880 -0.319557 1.229212 0.166293 -0.036598 344691.000000 0 0 1
-31.581485 11.206274 11.067565 35.291100 -0.340977 1.251806 0.138178 -0.032900 194676.000000 0 0 1
-31.965885 12.714674 11.023965 36.124902 -0.378572 1.260687 0.121243 -0.026124 26720.100000 0 0 1
-31.249935 13.318074 10.008665 35.413315 -0.402869 1.284267 0.095461 -0.015391 -183451.000000 0 0 1
-31.072135 14.676574 10.284165 35.869812 -0.441275 1.280007 0.085823 -0.014713 238961.000000 0 0 1
-30.289205 15.409374 9.127265 35.187948 -0.470616 1.308410 0.081867 -0.015284 685425.000000 0 0 1
-28.894405 15.105874 9.093265 33.849099 -0.481718 1.298814 0.096628 -0.014558 191265.000000 0 0 1
-28.257935 15.962774 8.208365 33.476832 -0.514207 1.323075 0.077947 -0.021205 479923.000000 0 0 1
-26.762265 16.214074 8.626565 32.458167 -0.544714 1.301789 0.081163 -0.015120 454380.000000 0 0 1
-26.515765 16.768774 9.917365 32.903369 -0.563908 1.264627 0.074099 -0.020007 92450.600000 0 0 1
-27.049295 18.054874 10.206865 34.085523 -0.588566 1.266682 0.073192 -0.026727 -226396.000000 0 0 1
-26.817485 18.502274 11.668265 34.607225 -0.603938 1.226895 0.078950 -0.017248 175757.000000 0 0 1
-25.497285 18.889774 12.025665 33.934521 -0.637622 1.208547 0.072320 -0.009528 429483.000000 0 0 1
-25.379305 19.456974 13.364365 34.659619 -0.654070 1.174950 0.075561 -0.020835 -170707.000000 0 0 1
-25.652115 18.536574 14.575565 34.843689 -0.625742 1.139209 0.076882 -0.018563 -398222.000000 0 0 1
-24.722525 17.532474 14.873765 33.761217 -0.616854 1.114576 0.079839 -0.013765 -169642.000000 0 0 1
-25.167605 16.692374 15.931565 34.144669 -0.585632 1.085365 0.084618 -0.008996 611498.000000 0 0 1
-24.205525 15.445174 16.341365 33.037873 -0.567953 1.053393 0.080411 -0.009103 531022.000000 0 0 1
-23.039025 15.928374 16.979665 32.753912 -0.604907 1.025816 0.074982 -0.006881 371917.000000 0 0 1
-22.058825 14.893974 17.195465 31.687635 -0.593883 0.997201 0.072720 -0.013397 77332.200000 0 0 1
-22.463425 13.796374 18.220565 32.045817 -0.550774 0.966019 0.076072 -0.002327 -574975.000000 0 0 1
-22.434525 14.335574 19.516465 33.010740 -0.568601 0.938231 0.075732 -0.001120 119878.000000 0 0 1
-22.727725 13.321374 20.462665 33.357595 -0.530158 0.910395 0.074433 -0.003713 -489742.000000 0 0 1
-22.362625 13.672274 21.954565 34.190949 -0.548752 0.873541 0.071530 0.001870 -463979.000000 0 0 1
-21.040525 13.959374 22.284765 33.677567 -0.585774 0.847700 0.080701 -0.003029 -551891.000000 0 0 1
-20.669425 15.267374 21.834565 33.720410 -0.636194 0.866474 0.074635 0.001824 -629500.000000 0 0 1
-19.194225 15.574874 22.215765 33.234548 -0.681675 0.838668 0.072023 -0.012671 394686.000000 0 0 1
-18.256725 14.752774 21.545065 31.861296 -0.679644 0.828185 0.057612 -0.007907 -276141.000000 0 0 1
-17.736825 15.519274 20.465865 31.213690 -0.718816 0.855727 0.045831 -0.010568 -1339630.000000 0 0 1
-16.467925 14.850774 19.872765 29.776918 -0.733809 0.840100 0.039353 0.000502 676162.000000 0 0 1
-15.435825 14.566474 20.828565 29.736778 -0.756430 0.794795 0.051981 0.001313 311121.000000 0 0 1
-14.809425 15.720474 21.399265 30.403633 -0.815231 0.790009 0.043437 -0.006626 -1046970.000000 0 0 1
-13.611325 15.307774 22.280065 30.265449 -0.843993 0.743425 0.039557 -0.015757 1149550.000000 0 0 1
-12.532925 14.676074 21.474565 28.872449 -0.864002 0.732098 0.030141 0.000613 768461.000000 0 0 1
-11.625125 14.036974 22.324265 28.819316 -0.879108 0.684669 0.044086 -0.010968 -174658.000000 0 0 1
-10.361825 13.447074 21.676665 27.533053 -0.914264 0.664385 0.047662 -0.006898 -888502.000000 0 0 1
-9.773325 12.516374 22.491165 27.532344 -0.907846 0.614781 0.045337 -0.006564 -64898.100000 0 0 1
-8.642725 11.862674 21.949965 26.404937 -0.941156 0.589385 0.049184 -0.001991 690789.000000 0 0 1
-7.255025 12.564974 22.094165 26.432292 -1.047160 0.581066 0.045099 0.001477 -10778.700000 0 0 1
-6.971325 13.610974 21.105065 26.063034 -1.097449 0.627036 0.036761 0.004121 -365790.000000 0 0 1
-6.297825 14.734874 21.628565 26.917911 -1.166887 0.637643 0.027359 0.013797 -432957.000000 0 0 1
-7.081725 15.734574 22.452565 28.316873 -1.147881 0.655236 0.035149 -0.011037 -216081.000000 0 0 1
-8.023425 16.492374 21.717665 28.425881 -1.118013 0.701290 0.019630 -0.009770 -293284.000000 0 0 1
-7.497125 17.710674 21.254165 28.663817 -1.170357 0.735496 0.022322 0.010212 -505584.000000 0 0 1
-8.352825 18.344774 20.105165 28.469599 -1.143523 0.786683 0.019201 0.022524 457162.000000 0 0 1
-9.581625 18.941074 20.373965 29.422275 -1.102468 0.805893 0.029334 0.010498 -562897.000000 0 0 1
-10.606125 18.100274 20.848665 29.576623 -1.040761 0.788509 0.028974 -0.001026 -623524.000000 0 0 1
-11.908125 18.829674 21.270265 30.802341 -1.006884 0.808560 0.026703 -0.006888 78293.100000 0 0 1
-12.741725 18.888474 20.142065 30.410998 -0.977338 0.846874 0.020452 0.000426 -1091570.000000 0 0 1
-14.017825 19.331174 20.422365 31.420800 -0.943396 0.863260 0.013595 -0.005606 -707407.000000 0 0 1
-14.980025 19.387174 19.227265 31.144042 -0.912939 0.905407 0.011625 -0.004457 -237731.000000 0 0 1
-15.514825 18.187374 18.747965 30.380529 -0.864532 0.905739 0.024139 0.004913 3089.240000 0 0 1
-16.253925 18.512074 17.596965 30.274414 -0.850260 0.950534 0.039689 -0.003820 -510182.000000 0 0 1
-16.932025 17.323274 16.820565 29.491027 -0.796819 0.963850 0.043148 -0.006407 1000810.000000 0 0 1
-18.101025 16.644674 17.321765 30.078827 -0.743508 0.957117 0.039326 -0.005768 465717.000000 0 0 1
-19.279725 17.411474 17.304065 31.213745 -0.734524 0.983187 0.052482 -0.013741 -360552.000000 0 0 1
34.619462 -9.387726 11.996000 37.822488 -0.264801 1.248057 0.053449 -0.014306 -682035.000000 0 0 1
33.379232 -9.967926 11.756400 36.766093 -0.290196 1.245318 0.049364 -0.004967 -328077.000000 0 0 1
33.234892 -11.204326 12.388400 37.196336 -0.325160 1.231255 0.055700 -0.008981 328210.000000 0 0 1
31.744482 -11.652526 12.535700 36.064349 -0.351802 1.215794 0.061240 0.002314 -194640.000000 0 0 1
31.006462 -10.865826 13.399600 35.482618 -0.337064 1.183552 0.060790 0.009449 -647982.000000 0 0 1
29.639632 -11.125126 13.289100 34.334770 -0.359074 1.173372 0.066112 0.001376 -476039.000000 0 0 1
29.093392 -12.092926 14.338400 34.615806 -0.393932 1.143716 0.053161 0.004657 -1356030.000000 0 0 1
29.036642 -11.578626 15.691200 34.977206 -0.379436 1.105584 0.060763 0.003217 152540.000000 0 0 1
27.879962 -11.956526 16.411200 34.490264 -0.405133 1.074899 0.061412 -0.007307 192896.000000 0 0 1
26.565962 -11.301726 15.947800 32.981990 -0.402227 1.066113 0.071349 -0.028583 -873243.000000 0 0 1
26.463262 -9.933126 16.152700 32.555813 -0.359082 1.051633 0.063976 -0.011322 237753.000000 0 0 1
25.339362 -9.377326 15.465500 31.131964 -0.354441 1.050920 0.085386 -0.016023 435783.000000 0 0 1
25.061462 -7.890626 15.861400 30.690762 -0.305025 1.027672 0.089428 -0.019452 -14482.200000 0 0 1
26.202462 -7.111926 15.584200 31.305204 -0.265037 1.049719 0.076642 -0.012640 13393.100000 0 0 1
26.123462 -5.829026 16.145900 31.258645 -0.219537 1.028008 0.070702 -0.000513 -962997.000000 0 0 1
27.399062 -5.086626 15.935600 32.101802 -0.183560 1.051340 0.077898 0.002039 -991732.000000 0 0 1
27.519662 -4.644826 14.608600 31.501070 -0.167206 1.088574 0.093374 0.000965 541103.000000 0 0 1
28.631012 -3.741726 14.536100 32.326979 -0.129951 1.104413 0.083125 0.009971 309112.000000 0 0 1
28.872752 -3.313026 13.078400 31.869366 -0.114246 1.147931 0.081917 -0.003387 15602.800000 0 0 1
29.571572 -4.316926 12.338200 32.331794 -0.144958 1.179257 0.077350 -0.005117 388954.000000 0 0 1
30.016352 -3.720526 11.097100 32.217532 -0.123321 1.219151 0.085129 -0.016304 246309.000000 0 0 1
30.692932 -4.799526 10.192000 32.695082 -0.155116 1.253784 0.108269 -0.017818 995077.000000 0 0 1
32.107622 -5.031226 10.335800 34.103393 -0.155435 1.262881 0.101973 -0.017605 1082890.000000 0 0 1
32.542132 -5.915026 9.296200 34.356910 -0.179802 1.296804 0.113551 -0.021433 -358117.000000 0 0 1
33.992152 -6.358026 9.419700 35.841619 -0.184907 1.304858 0.091315 -0.019794 -893764.000000 0 0 1
34.989192 -5.449526 9.122400 36.567186 -0.154507 1.318664 0.110014 -0.025549 -396285.000000 0 0 1
36.219442 -6.132726 8.976000 37.815696 -0.167731 1.331147 0.113027 -0.032596 328348.000000 0 0 1
-35.992686 -5.275326 8.493900 37.355707 0.145530 1.341411 0.113358 -0.035693 168521.000000 0 0 1
-36.151745 -4.766726 7.178000 37.164418 0.131097 1.376433 0.118387 -0.034703 653838.000000 0 0 1
-34.878981 -4.176826 6.901800 35.799777 0.119184 1.376793 0.099751 -0.015172 430190.000000 0 0 1
-34.751997 -3.324926 5.617900 35.359825 0.095385 1.411242 0.128474 -0.029960 -361822.000000 0 0 1
-34.438009 -4.070926 4.486200 34.966768 0.117664 1.442143 0.119486 -0.032890 166972.000000 0 0 1
-34.530952 -3.278626 3.319200 34.844700 0.094664 1.475395 0.125889 -0.032708 -45272.100000 0 0 1
-34.039045 -3.963826 2.000100 34.327378 0.115927 1.512498 0.145087 -0.035877 14994.300000 0 0 1
-34.829281 -5.115426 1.693100 35.243623 0.145829 1.522738 0.139923 -0.022238 957639.000000 0 0 1
-35.987871 -4.788026 0.895400 36.316026 0.132269 1.546138 0.120516 -0.024759 264574.000000 0 0 1
-35.666215 -4.872326 -0.592600 36.002355 0.135769 1.587257 0.161107 -0.025874 -764902.000000 0 0 1
-35.536828 -6.236826 -0.956600 36.092647 0.173734 1.597303 0.165484 -0.033910 617143.000000 0 0 1
-34.824924 -6.523526 -2.202300 35.499040 0.185177 1.632874 0.144465 -0.031510 362361.000000 0 0 1
-33.311895 -6.188826 -2.328800 33.961849 0.183690 1.639421 0.137315 -0.037011 -54171.400000 0 0 1
-32.626995 -6.950026 -1.347000 33.386195 0.209878 1.611153 0.116867 -0.036702 457990.000000 0 0 1
-31.234315 -6.653626 -1.251100 31.959637 0.209886 1.609953 0.143886 -0.049719 730593.000000 0 0 1
-30.450085 -7.273726 -0.071300 31.306865 0.234480 1.573074 0.124667 -0.039984 127616.000000 0 0 1
-30.054945 -8.599026 -0.496900 31.264834 0.278666 1.586690 0.139144 -0.033507 229465.000000 0 0 1
-29.470315 -9.289526 0.574400 30.905091 0.305358 1.552209 0.125315 -0.024701 -5097.210000 0 0 1
-28.838625 -10.698126 0.198600 30.759642 0.355229 1.564340 0.109904 -0.023189 -687372.000000 0 0 1
-27.747555 -10.629226 -0.642300 29.720696 0.365826 1.592409 0.099984 -0.028803 -260208.000000 0 0 1
-27.120265 -11.834526 -1.015300 29.607357 0.411463 1.605095 0.086931 -0.017199 -306643.000000 0 0 1
-27.833765 -12.799626 -1.995800 30.700685 0.431023 1.635851 0.079335 -0.020325 -737867.000000 0 0 1
-28.781085 -13.538426 -1.299900 31.832837 0.439683 1.611643 0.094834 -0.030969 -136306.000000 0 0 1
-29.569115 -14.302526 -2.173300 32.918354 0.450521 1.636865 0.088304 -0.023035 -940140.000000 0 0 1
-30.424735 -15.291826 -1.440800 34.081965 0.465735 1.613083 0.102190 -0.021882 -712194.000000 0 0 1
-29.775575 -16.423626 -0.918700 34.017118 0.504056 1.597807 0.065939 -0.015659 78378.100000 0 0 1
-30.562005 -17.121726 0.041000 35.031290 0.510663 1.569626 0.067223 -0.007293 24978.300000 0 0 1
-30.677835 -18.631126 -0.021700 35.892184 0.545781 1.571401 0.078082 -0.011416 247007.000000 0 0 1
-29.480685 -19.338026 0.340200 35.258839 0.580551 1.561148 0.071172 -0.017395 710174.000000 0 0 1
-29.606875 -20.755626 0.179000 36.157918 0.611424 1.565846 0.081747 -0.020319 113743.000000 0 0 1
-30.408585 -21.587526 1.257000 37.313313 0.617350 1.537102 0.086837 -0.018870 -37407.400000 0 0 1
-29.749505 -21.916026 2.477500 37.033542 0.634925 1.503848 0.083403 -0.019362 -555192.000000 0 0 1
-30.642865 -22.301226 3.459200 38.056483 0.629127 1.479774 0.090914 -0.025260 -553187.000000 0 0 1
-30.000395 -22.494626 4.812300 37.804631 0.643380 1.443156 0.077201 -0.018790 -254629.000000 0 0 1
-29.781825 -21.237826 5.405200 36.975918 0.619473 1.424089 0.061433 -0.020411 -70353.600000 0 0 1
-28.940865 -21.316226 6.537000 36.533375 0.634834 1.390895 0.061985 -0.017613 60562.100000 0 0 1
-28.705035 -19.939426 7.123300 35.669330 0.607114 1.369741 0.058041 -0.012234 -42518.800000 0 0 1
-27.851205 -19.997326 8.236500 35.262197 0.622708 1.335040 0.055411 -0.020438 -223710.000000 0 0 1
-27.426225 -18.661626 8.589100 34.266992 0.597471 1.317442 0.053532 -0.021553 55306.100000 0 0 1
-26.342585 -18.781826 9.663000 33.764809 0.619387 1.280553 0.068274 -0.023573 -322011.000000 0 0 1
-26.824195 -19.486926 10.794500 34.868308 0.628270 1.256046 0.064339 -0.020593 -293737.000000 0 0 1
-25.867755 -19.775126 11.771200 34.623077 0.652698 1.223899 0.066543 -0.016929 -362572.000000 0 0 1
-25.581655 -18.600826 12.779100 34.113299 0.628694 1.186823 0.055267 -0.019483 -158093.000000 0 0 1
-24.847025 -17.559026 12.107400 32.745735 0.615199 1.192067 0.048800 -0.023149 220782.000000 0 0 1
-24.512125 -16.376426 12.871100 32.166703 0.588991 1.159130 0.045824 -0.015738 48640.100000 0 0 1
-23.629625 -16.518526 14.136300 32.110058 0.610095 1.114925 0.046501 -0.017335 -518481.000000 0 0 1
-24.229225 -17.127026 15.261200 33.366069 0.615325 1.095742 0.039063 -0.023964 132753.000000 0 0 1
-23.350825 -17.231326 16.409500 33.338436 0.635733 1.056170 0.049257 -0.021536 -208244.000000 0 0 1
-24.048425 -18.098726 17.460200 34.795821 0.645160 1.045129 0.041515 0.001215 -61350.500000 0 0 1
-25.109345 -17.404726 18.045800 35.483159 0.606119 1.037269 0.044187 0.004232 -102277.000000 0 0 1
-25.832535 -18.119126 19.039400 36.852698 0.611670 1.027880 0.042222 0.011828 280689.000000 0 0 1
-26.881555 -17.201526 19.740300 37.525857 0.569243 1.016853 0.049342 0.014141 -241265.000000 0 0 1
-26.372085 -16.422326 20.737000 37.352414 0.556955 0.982227 0.045442 0.008396 -10409.200000 0 0 1
-27.249015 -15.383626 21.096800 37.739101 0.513951 0.977597 0.064102 -0.000866 -23351.600000 0 0 1
-26.601645 -14.554126 22.238200 37.603293 0.500625 0.938015 0.061020 -0.002801 -7797.040000 0 0 1
-25.451335 -13.838726 21.865000 36.295440 0.498019 0.924270 0.056365 -0.002423 -127493.000000 0 0 1
-24.771925 -13.360926 23.012400 36.355648 0.494636 0.885400 0.049526 -0.002045 376702.000000 0 0 1
-23.548025 -12.495626 22.514500 34.893450 0.487861 0.869465 0.043019 0.009614 218209.000000 0 0 1
-23.927025 -11.359826 21.759000 34.278306 0.443260 0.883079 0.062947 0.008080 -350714.000000 0 0 1
-22.869225 -10.703526 21.175600 32.954104 0.437748 0.872937 0.062546 0.009763 -1169310.000000 0 0 1
-22.362525 -9.389626 21.872500 32.659667 0.397528 0.836978 0.064530 0.006768 36914.200000 0 0 1
-21.756125 -9.613926 23.127600 33.175931 0.416094 0.799424 0.057983 0.003616 1388900.000000 0 0 1
-20.373825 -10.057826 23.027500 32.349936 0.458566 0.778703 0.040484 -0.000582 605985.000000 0 0 1
-19.650725 -10.113726 24.357400 32.889533 0.475318 0.736860 0.041023 0.004946 -273039.000000 0 0 1
-19.991325 -11.162326 25.222800 34.065235 0.509238 0.737092 0.058408 0.003518 -27245.200000 0 0 1
-19.453025 -10.947926 26.526200 34.668668 0.512608 0.699546 0.059681 0.000922 -767944.000000 0 0 1
-19.478125 -12.199726 27.451300 35.802298 0.559555 0.697038 0.066790 -0.011867 916705.000000 0 0 1
-20.740125 -12.537026 28.059600 37.076555 0.543708 0.712390 0.062966 -0.009638 730716.000000 0 0 1
-21.752425 -12.994526 27.137000 37.127381 0.538493 0.751133 0.055014 -0.005856 -119124.000000 0 0 1
-22.989525 -13.425026 27.936300 38.589978 0.528544 0.761320 0.055543 -0.009256 -571780.000000 0 0 1
-22.987125 -14.579626 28.841600 39.658685 0.565225 0.756496 0.051831 -0.009191 -500283.000000 0 0 1
-22.138525 -14.427926 29.936700 39.931007 0.577577 0.723172 0.054848 -0.006138 -132041.000000 0 0 1
-22.465025 -15.464326 31.087000 41.354858 0.602880 0.720140 0.046398 -0.013478 -279924.000000 0 0 1
-22.100625 -16.786126 30.719300 41.399119 0.649574 0.734706 0.048593 -0.014693 -58581.200000 0 0 1
-22.325125 -17.785726 31.721300 42.672990 0.672706 0.732720 0.052935 -0.015474 411893.000000 0 0 1
-23.786925 -18.065926 32.196800 43.918440 0.649547 0.747921 0.061025 -0.020517 437185.000000 0 0 1
-24.409125 -17.106126 33.026500 44.487915 0.611268 0.734195 0.067368 -0.027238 -279049.000000 0 0 1
-25.640655 -17.609526 33.504200 45.717283 0.601799 0.748286 0.063322 -0.027377 129915.000000 0 0 1
-26.484055 -16.538826 -33.842165 46.045955 0.558227 2.396411 0.058019 -0.025866 279938.000000 0 0 1
-25.980935 -16.121726 -32.541865 44.653017 0.555372 2.387323 0.067501 -0.028675 -73474.200000 0 0 1
-26.599455 -14.925626 -32.035165 44.232986 0.511345 2.380724 0.071729 -0.025508 -421275.000000 0 0 1
-26.211435 -14.688026 -30.517565 42.826384 0.510768 2.363976 0.054455 -0.018152 183080.000000 0 0 1
-27.012235 -15.393226 -29.545465 42.889937 0.517964 2.330721 0.049772 -0.008366 27973.400000 0 0 1
-26.344915 -15.548726 -28.322665 41.689216 0.533181 2.317709 0.048156 -0.010169 -149187.000000 0 0 1
-27.237135 -16.135526 -27.205665 41.741644 0.534819 2.280703 0.049246 -0.004870 267224.000000 0 0 1
-28.197025 -15.292726 -26.533165 41.628698 0.496953 2.261885 0.061574 -0.007343 283464.000000 0 0 1
-27.858915 -14.101726 -25.850665 40.536831 0.468582 2.262315 0.058639 -0.005861 -805924.000000 0 0 1
-26.823265 -14.181326 -24.694365 39.120444 0.486339 2.253946 0.058743 -0.010473 401972.000000 0 0 1
-25.494245 -14.004326 -25.179165 38.471652 0.502316 2.284299 0.042682 -0.009378 659336.000000 0 0 1
-24.481625 -14.082726 -24.188365 37.185348 0.522012 2.279014 0.045994 -0.011974 187730.000000 0 0 1
-23.719225 -15.447026 -24.145765 37.205244 0.577250 2.277050 0.035834 -0.010619 -222670.000000 0 0 1
-23.075325 -15.774826 -25.347665 37.733537 0.599650 2.307371 0.055654 -0.007215 50733.400000 0 0 1
-22.796125 -17.169526 -25.335965 38.162377 0.645532 2.296817 0.066809 -0.012587 -164633.000000 0 0 1
-22.119825 -17.620926 -26.656865 38.863506 0.672672 2.326650 0.068034 -0.016190 523905.000000 0 0 1
-22.935525 -17.505226 -27.856065 40.105256 0.651919 2.338624 0.078536 -0.018474 708023.000000 0 0 1
-24.020025 -18.418226 -28.000065 41.233436 0.654158 2.317281 0.086239 -0.014258 -103957.000000 0 0 1
-24.460625 -18.395326 -29.477065 42.492441 0.644804 2.337412 0.056776 -0.017084 -26501.800000 0 0 1
-23.606325 -19.178226 -30.290965 42.925580 0.682268 2.354154 0.068524 -0.025688 248044.000000 0 0 1
-24.037225 -18.988126 -31.591465 44.004065 0.668581 2.371608 0.049415 -0.020917 -353945.000000 0 0 1
-23.011425 -19.417326 -32.658165 44.419747 0.700891 2.396783 0.060982 -0.030669 -564030.000000 0 0 1
-21.938125 -18.514326 -32.882765 43.650175 0.700962 2.423900 0.064269 -0.025255 -230833.000000 0 0 1
-20.704025 -18.859726 -32.340065 42.781137 0.738816 2.427888 0.065230 -0.023947 -351885.000000 0 0 1
-19.948725 -19.908326 -33.197965 43.547651 0.784385 2.437712 0.058155 -0.023264 -997780.000000 0 0 1
-19.788725 -19.548726 33.598200 43.618635 0.779297 0.691529 0.053340 -0.022266 204658.000000 0 0 1
-19.383025 -20.610126 32.734100 43.266618 0.816071 0.712749 0.052076 -0.018710 824388.000000 0 0 1
-20.680625 -21.199526 32.048900 43.637600 0.797788 0.745965 0.053401 -0.015028 921841.000000 0 0 1
-21.523125 -21.854426 33.003000 45.056174 0.793036 0.748830 0.049977 -0.017429 412131.000000 0 0 1
-22.687125 -22.453126 32.403700 45.484594 0.780214 0.777869 0.038854 -0.004068 383845.000000 0 0 1
-22.633525 -23.612726 31.352600 45.308087 0.806569 0.806559 0.034492 0.000585 -656473.000000 0 0 1
-21.994425 -24.759626 31.854800 45.951301 0.844473 0.804836 0.031673 0.007549 -159934.000000 0 0 1
-22.224025 -25.918846 31.064700 46.159608 0.861995 0.832560 0.039026 0.015326 12883.100000 0 0 1
-21.667725 -27.189156 31.735600 47.073228 0.897933 0.830949 0.048778 0.004769 314861.000000 0 0 1
-22.549625 -27.683636 32.726500 48.434420 0.887248 0.828900 0.031660 0.000325 123791.000000 0 0 1
-21.839225 -28.584776 33.514500 49.165667 0.918385 0.820761 0.037039 -0.003740 -91329.100000 0 0 1
-22.715925 -29.309246 -33.541765 50.000951 0.911459 2.306114 0.035324 -0.011103 237146.000000 0 0 1
-23.622325 -30.390796 -33.897865 51.290154 0.910060 2.292819 0.029812 -0.011035 537503.000000 0 0 1
-24.796825 -29.967206 33.601800 51.400359 0.879531 0.858297 0.030102 -0.004802 -572006.000000 0 0 1
-25.879325 -29.423296 -33.636965 51.642184 0.849394 2.280154 0.028163 -0.008412 -882818.000000 0 0 1
-27.066045 -28.934806 33.913900 52.153105 0.818756 0.862849 0.026572 -0.000547 127673.000000 0 0 1
-27.902265 -28.360646 -33.286165 51.873224 0.793545 2.267487 0.021784 0.008526 -369105.000000 0 0 1
-28.874905 -27.361866 -33.933365 52.286758 0.758500 2.277047 0.023117 -0.007454 62893.600000 0 0 1
-29.950065 -28.024576 33.545500 52.987582 0.752198 0.885268 0.041448 -0.014238 815386.000000 0 0 1
-31.026605 -27.054156 33.428900 53.028944 0.717109 0.888741 0.044945 -0.021736 552247.000000 0 0 1
