# x y z rho theta phi s1 s2 stress_xx np intf bulk
-0.819563 -10.767447 -14.394706 17.994920 1.494828 2.497978 -0.011199 0.006240 541347.000000 1 0 0
2.120437 -13.395147 -13.058106 18.826586 -1.413800 2.337270 0.000479 0.006715 1023940.000000 1 0 0
2.041037 -11.148947 -14.699906 18.562114 -1.389731 2.484761 -0.005020 0.004983 -1174890.000000 1 0 0
-5.646363 -6.257647 -16.696706 18.703464 0.836704 2.674112 0.012826 0.003192 -464687.000000 1 0 0
4.431337 -14.093247 -11.507906 18.726672 -1.266154 2.232573 0.001743 0.005339 695227.000000 1 0 0
14.182737 -10.631447 -7.930406 19.418265 -0.643248 1.991496 0.020342 0.002150 -151403.000000 1 0 0
7.120437 10.850653 -10.874706 16.932116 0.990060 2.268231 0.001946 -0.003285 -1970670.000000 1 0 0
5.756337 -4.269647 -12.622606 14.515353 -0.638187 2.625196 0.004437 -0.001060 2861470.000000 1 0 0
13.637037 0.562853 -10.066506 16.959367 0.041250 2.206279 0.009383 0.005735 1905170.000000 1 0 0
14.092337 5.100553 -10.263706 18.164616 0.347270 2.171276 0.007043 -0.005897 195021.000000 1 0 0
4.052237 4.446653 -13.439206 14.724321 0.831773 2.720693 0.005274 0.002397 1319190.000000 1 0 0
10.325437 -4.991647 -13.634206 17.816362 -0.450306 2.442246 0.015883 0.001323 -535078.000000 1 0 0
2.520237 -7.460747 -12.112606 14.447476 -1.245032 2.565117 0.002837 0.000517 1465260.000000 1 0 0
-5.624463 -1.967447 -15.168006 16.296437 0.336498 2.767271 0.000914 -0.006408 600588.000000 1 0 0
10.612437 0.090453 -9.661406 14.351821 0.008523 2.309302 0.007130 0.000305 2326410.000000 1 0 0
-1.701363 -9.414047 -16.878006 19.400670 1.392000 2.625938 -0.000439 -0.001005 998099.000000 1 0 0
8.727037 1.597353 -17.802406 19.890661 0.181031 2.679257 0.018196 0.006094 -753562.000000 1 0 0
16.547537 -5.976547 -8.789206 19.666983 -0.346595 2.034095 0.005684 0.010377 -195358.000000 1 0 0
10.131037 7.634253 -9.967606 16.132976 0.645770 2.236790 0.001787 -0.003685 1025640.000000 1 0 0
13.862537 -2.260947 -10.696106 17.654702 -0.161674 2.221631 0.018575 0.007639 -570487.000000 1 0 0
7.212237 -1.889247 -13.700806 15.598003 -0.256194 2.643236 0.009547 -0.002051 795051.000000 1 0 0
-2.820463 6.651453 -13.877306 15.645334 -1.169742 2.661589 0.006605 -0.005471 419613.000000 1 0 0
11.178037 1.854053 -13.929906 17.956289 0.164369 2.458727 0.006546 -0.002824 -705610.000000 1 0 0
-2.398363 10.703753 -12.901906 16.934629 -1.350370 2.436984 0.007612 -0.007773 535901.000000 1 0 0
2.890437 -1.052447 -15.309806 15.615775 -0.349192 2.943311 0.010931 -0.002321 282702.000000 1 0 0
-9.046763 0.450653 -15.280106 17.763126 -0.049773 2.606487 -0.002030 -0.000156 -1347110.000000 1 0 0
2.374637 -1.640947 -18.075506 18.304522 -0.604681 2.983241 0.020273 -0.008723 2035920.000000 1 0 0
1.008037 8.024353 -13.312606 15.576645 1.445829 2.595676 0.009609 0.001297 -1348630.000000 1 0 0
9.400237 -9.080247 -9.857106 16.370030 -0.768085 2.216979 0.022037 0.002281 -911275.000000 1 0 0
3.931137 7.419753 -13.580406 15.966653 1.083578 2.587823 0.003540 0.000519 739849.000000 1 0 0
-2.874963 9.078653 -15.527906 18.215467 -1.264114 2.591464 0.005813 -0.007755 602239.000000 1 0 0
5.556737 -7.753147 -15.352206 18.074259 -0.948945 2.585636 0.005834 0.002240 766943.000000 1 0 0
4.186637 7.279753 -16.460906 18.479290 1.048882 2.669846 0.013119 0.003054 522926.000000 1 0 0
-0.229363 5.169953 -13.500706 14.458565 -1.526461 2.775551 0.010068 -0.003282 1404690.000000 1 0 0
8.782137 4.218953 -16.624106 19.268794 0.447846 2.611475 0.011507 0.006093 -872374.000000 1 0 0
5.363237 0.207053 -14.360306 15.330544 0.038587 2.783914 0.000957 0.004738 341785.000000 1 0 0
6.261837 7.988753 -11.612906 15.423695 0.905992 2.423294 -0.002077 0.000026 -1468820.000000 1 0 0
2.758537 -8.345747 -15.109906 17.480569 -1.251569 2.614718 0.000661 0.001956 -764094.000000 1 0 0
4.077737 11.536753 -13.694406 18.364678 1.231046 2.412370 0.005640 -0.010490 -1437340.000000 1 0 0
0.598437 -4.493247 -13.870906 14.592787 -1.438390 2.825739 0.011559 -0.001514 1865100.000000 1 0 0
8.469237 -0.034747 -11.691206 14.436533 -0.004103 2.514667 0.002479 -0.001086 -503653.000000 1 0 0
-1.046563 -4.903147 -16.350806 17.102193 1.360505 2.844067 0.003204 -0.005705 -117386.000000 1 0 0
4.464337 0.898353 -11.794006 12.642623 0.198577 2.773114 0.004107 -0.001348 1719130.000000 1 0 0
-2.929363 -7.002647 -15.643606 17.387945 1.174595 2.689835 -0.000419 0.001274 827929.000000 1 0 0
11.403837 -3.741647 -11.383106 16.541539 -0.317037 2.329736 0.013311 0.001758 1297530.000000 1 0 0
6.515337 -7.172347 -12.577306 15.877053 -0.833361 2.485151 0.006042 0.002008 -1124210.000000 1 0 0
3.456337 -4.041547 -14.715606 15.647026 -0.863290 2.794816 0.012847 -0.002481 2202740.000000 1 0 0
-0.592363 -1.456647 -18.294706 18.362162 1.184560 3.055850 0.019539 -0.012114 1734980.000000 1 0 0
14.978637 2.922253 -8.516806 17.476702 0.192675 2.079818 0.012806 0.002651 -782379.000000 1 0 0
6.908437 4.332253 -14.305606 16.466490 0.560105 2.623511 0.007978 0.002934 4036730.000000 1 0 0
10.218137 -9.737347 -13.904006 19.812815 -0.761310 2.348673 0.036268 -0.006804 -820134.000000 1 0 0
8.956637 -3.317547 -15.610706 18.300864 -0.354733 2.592510 0.009808 -0.005446 186519.000000 1 0 0
-5.393063 -2.047547 -18.152006 19.046598 0.362853 2.833888 0.000744 0.001951 -2131250.000000 1 0 0
4.937337 -9.161847 -11.208706 15.295484 -1.076514 2.393241 -0.000510 0.002516 1719210.000000 1 0 0
-2.413763 4.034353 -17.268406 17.896930 -1.031626 2.875786 0.009496 -0.001436 2562020.000000 1 0 0
9.408237 9.258753 -14.508006 19.614323 0.777390 2.403367 0.012563 -0.007204 -374049.000000 1 0 0
9.755337 10.039653 -11.672506 18.226592 0.799760 2.265829 0.002087 -0.006104 -729997.000000 1 0 0
12.065137 -5.918047 -9.649406 16.543937 -0.456025 2.193532 0.024866 0.000530 -216866.000000 1 0 0
8.146137 6.917253 -13.708206 17.381682 0.703998 2.479420 0.005603 0.001269 992705.000000 1 0 0
4.037337 -4.098747 -17.587706 18.504789 -0.792946 2.825447 0.025405 -0.010009 -1624490.000000 1 0 0
9.370837 -7.518547 -12.347206 17.227728 -0.676163 2.369863 0.021597 -0.001602 -338967.000000 1 0 0
12.059037 -8.710347 -8.785906 17.276651 -0.625542 2.104287 0.025785 0.001311 1810480.000000 1 0 0
-2.963863 -2.388447 -13.892006 14.404062 0.678301 2.874153 0.005933 -0.005667 -1860110.000000 1 0 0
-0.444463 6.259753 -17.684006 18.764491 -1.499912 2.800586 0.015231 -0.000576 -257455.000000 1 0 0
0.997437 -8.395747 -17.451706 19.391892 -1.452548 2.690448 -0.003434 -0.007215 -140284.000000 1 0 0
-0.088063 8.673853 -16.056306 18.249615 -1.560644 2.646272 0.012024 -0.001380 1115010.000000 1 0 0
1.821337 3.471553 -14.933606 15.439610 1.087627 2.884868 0.013385 -0.000218 1856010.000000 1 0 0
-1.962863 -0.410847 -15.847806 15.974185 0.206331 3.015721 0.014807 -0.008585 1722540.000000 1 0 0
14.232837 -4.240047 -8.485806 17.104401 -0.289535 2.089919 0.019019 0.003813 1236220.000000 1 0 0
0.531637 0.651453 -14.686306 14.710358 0.886328 3.084401 0.011728 -0.003194 414927.000000 1 0 0
8.801537 2.840853 -12.585306 15.618176 0.312212 2.507841 0.001972 -0.000288 941643.000000 1 0 0
5.945737 1.012553 -17.093506 18.126362 0.168681 2.802387 0.012923 0.007059 96148.400000 1 0 0
15.200337 1.633853 -12.471706 19.729754 0.107077 2.255091 0.000628 0.002475 -34824.100000 1 0 0
8.791037 -11.289147 -11.819906 18.559023 -0.909169 2.261243 0.025614 0.000529 394084.000000 1 0 0
-4.691163 0.804453 -15.074706 15.808255 -0.169831 2.835762 0.009527 -0.006646 1788030.000000 1 0 0
2.262937 5.228953 -17.207906 18.126634 1.162362 2.821849 0.016797 0.000215 -40392.000000 1 0 0
5.903637 -11.754047 -12.446506 18.108729 -1.105339 2.328590 0.009652 0.005213 75473.200000 1 0 0
12.799537 7.219953 -8.595406 17.024596 0.513588 2.100041 0.008642 -0.004567 -64892.300000 1 0 0
-5.007563 3.639853 -15.804006 16.973239 -0.628534 2.768249 0.005914 -0.002808 1199160.000000 1 0 0
-0.571563 -4.306647 -19.113106 19.600631 1.438851 2.918090 0.010648 -0.012529 -322527.000000 1 0 0
9.704237 4.512953 -10.255106 14.822489 0.435299 2.334860 -0.004441 0.001404 481956.000000 1 0 0
13.213337 3.773553 -12.807006 18.784339 0.278182 2.321005 0.002839 -0.006117 78704.300000 1 0 0
-6.266763 5.862853 -17.223406 19.242949 -0.752111 2.679340 -0.002372 0.004418 -23295.300000 1 0 0
-10.225163 3.173953 -15.481906 18.823320 -0.300976 2.536563 0.001687 0.004739 -1647970.000000 1 0 0
10.738337 13.543453 -8.185106 19.124146 0.900412 2.013073 0.012456 -0.000817 -973732.000000 1 0 0
7.484637 13.446053 -12.294806 19.697167 1.062868 2.244893 0.005115 -0.002619 -1501970.000000 1 0 0
5.353537 15.236453 -11.232606 19.671841 1.232907 2.178519 0.009127 -0.003638 574191.000000 1 0 0
13.964837 9.510553 -10.045106 19.656334 0.597885 2.107187 0.009428 -0.006001 -498125.000000 1 0 0
8.162837 -17.157247 -2.287106 19.137238 -1.126723 1.690593 0.014997 0.002801 -244691.000000 1 0 0
0.680837 -15.929347 -0.005006 15.943891 -1.528081 1.571110 0.011749 -0.004693 2189600.000000 1 0 0
-9.230763 -11.631647 7.536094 16.652174 0.899976 1.101163 0.008031 -0.005329 1076950.000000 1 0 0
2.060837 -15.877047 -2.602106 16.220315 -1.441718 1.731915 0.004948 -0.005840 341846.000000 1 0 0
-1.342963 -11.010747 -9.489806 14.597826 1.449427 2.278491 -0.001101 0.004439 529050.000000 1 0 0
-4.788563 -12.641447 -13.073406 18.805596 1.208699 2.339476 0.012429 0.003493 -131833.000000 1 0 0
-8.391363 -17.865347 -1.700506 19.811040 1.131681 1.656738 0.005484 -0.011403 -2659930.000000 1 0 0
-11.342563 -7.040947 -8.858406 16.021861 0.555541 2.156631 0.008665 -0.001729 2608540.000000 1 0 0
-13.498663 -11.518047 -4.811106 18.385485 0.706391 1.835558 -0.011678 0.004289 260065.000000 1 0 0
-5.559663 -13.534447 9.550394 17.472868 1.181033 0.992517 -0.002914 -0.003972 873366.000000 1 0 0
0.119437 -13.987547 -3.586406 14.440500 -1.562258 1.821781 0.011134 -0.003305 -53908.300000 1 0 0
-14.727863 -11.486047 1.973894 18.781253 0.662355 1.465503 -0.010570 0.005003 -213486.000000 1 0 0
-4.068363 -16.451747 -7.449906 18.512500 1.328369 1.984961 0.005978 -0.007094 122217.000000 1 0 0
0.367837 -15.188147 -9.286906 17.806227 -1.546582 2.119467 0.003762 0.000082 793530.000000 1 0 0
4.446437 -14.129847 -2.698006 15.056646 -1.265923 1.750960 0.001550 -0.000119 1417130.000000 1 0 0
-3.631463 -18.095947 -2.472006 18.621536 1.372749 1.703939 0.004506 -0.008258 2386820.000000 1 0 0
-1.016063 -13.528247 0.695694 13.584176 1.495830 1.519560 0.010284 -0.005733 2541950.000000 1 0 0
-8.546063 -11.276747 -10.562206 17.656738 0.922291 2.212045 0.014304 -0.004596 1770990.000000 1 0 0
-3.775563 -14.161147 -0.462806 14.663122 1.310243 1.602364 0.006706 -0.002973 4143250.000000 1 0 0
-1.636363 -14.852347 -7.320806 16.639233 1.461064 2.026364 0.001351 -0.000698 427884.000000 1 0 0
-14.180863 -7.998447 -1.802506 16.380508 0.513552 1.681059 -0.006196 0.000192 1444430.000000 1 0 0
-10.691163 -7.325447 -11.658306 17.432132 0.600715 2.303366 0.010605 0.000179 -106920.000000 1 0 0
-9.610663 -14.641247 6.900894 18.824274 0.989928 1.195449 0.000917 0.001737 -409265.000000 1 0 0
-2.492863 -14.332947 -12.409406 19.121744 1.398594 2.277024 0.011749 0.001850 12248.000000 1 0 0
2.320137 -17.638947 -4.920806 18.458868 -1.440012 1.840642 0.008933 -0.005434 -418742.000000 1 0 0
-6.565663 -9.663847 -9.307406 14.937392 0.974027 2.243489 0.001757 -0.002291 125484.000000 1 0 0
-11.095363 -15.305047 0.342694 18.906850 0.943522 1.552670 -0.003188 -0.001699 1213670.000000 1 0 0
-12.715563 -11.003647 4.179194 17.327188 0.713349 1.327202 0.004180 0.006497 59590.800000 1 0 0
-16.960463 -8.869747 -1.508806 19.199120 0.481851 1.649465 -0.010519 0.002108 -712696.000000 1 0 0
-1.454763 -19.190347 -4.094206 19.676083 1.495134 1.780408 0.002224 -0.005606 -1530930.000000 1 0 0
3.173837 -14.242047 -8.788806 17.033856 -1.351529 2.112926 0.003774 0.002441 759780.000000 1 0 0
-4.268863 -7.894047 -13.096106 15.875993 1.075067 2.540822 -0.001768 0.005002 1722170.000000 1 0 0
5.455737 -16.572747 1.198094 17.488751 -1.252771 1.502236 0.013950 0.004215 4040180.000000 1 0 0
-2.798863 -13.822547 -3.291406 14.482050 1.371012 1.800075 0.004114 -0.003758 -650405.000000 1 0 0
-0.507063 -14.042747 3.656894 14.519942 1.534703 1.316202 0.006903 -0.002719 -3592990.000000 1 0 0
1.112937 -16.245847 7.031294 17.737115 -1.502397 1.163186 0.020182 -0.007989 1342250.000000 1 0 0
-5.508063 -10.236747 -14.596306 18.659633 1.077160 2.469049 0.008758 0.003215 928807.000000 1 0 0
-0.362163 -17.177147 -5.912206 18.169747 1.549715 1.902218 0.007494 -0.005341 1006660.000000 1 0 0
-6.592363 -13.484447 -1.267106 15.063038 1.116079 1.655016 0.003535 -0.001332 1481220.000000 1 0 0
-1.748663 -17.731247 -0.144006 17.817847 1.472494 1.578879 0.010439 -0.008002 2262220.000000 1 0 0
-9.393263 -9.726147 -4.845006 14.363335 0.802807 1.914862 0.010378 -0.003512 953963.000000 1 0 0
-0.920063 -16.753747 4.815994 17.456470 1.515935 1.291285 0.011511 -0.006633 2660600.000000 1 0 0
-6.775263 -9.876247 -6.364406 13.562821 0.969517 2.059242 0.010002 -0.001204 2266890.000000 1 0 0
-6.170463 -14.586947 -8.589606 18.017629 1.170610 2.067731 0.009383 -0.005166 -920160.000000 1 0 0
-5.800763 -12.277847 -10.289106 17.037021 1.129424 2.219214 0.007762 -0.000074 1316970.000000 1 0 0
-10.741663 -12.099347 -8.766606 18.401926 0.844769 2.067348 0.019440 -0.017851 281147.000000 1 0 0
3.889337 -17.183147 6.738694 18.862594 -1.348201 1.205473 0.030624 -0.004811 1604860.000000 1 0 0
-6.763563 -14.358147 -4.144006 16.403504 1.130567 1.826193 0.004573 -0.005455 -645802.000000 1 0 0
-2.954263 -12.217847 -7.133306 14.452941 1.333551 2.086968 0.003751 0.000835 1591650.000000 1 0 0
-7.197163 -12.784447 4.321294 15.294274 1.058056 1.284352 0.004226 -0.000357 1895410.000000 1 0 0
2.474337 -16.441347 2.360994 16.793288 -1.421423 1.429737 0.012669 -0.000323 3478790.000000 1 0 0
-6.256463 -11.976347 7.169694 15.296428 1.089388 1.082959 0.003674 -0.000717 2199760.000000 1 0 0
-11.298563 -12.745547 -0.988506 17.061173 0.845506 1.628768 -0.002985 0.003167 533943.000000 1 0 0
-14.294563 -8.630247 4.743294 17.358414 0.543167 1.294020 -0.000818 0.001695 -619414.000000 1 0 0
-8.138263 -15.534247 4.433594 18.088695 1.088219 1.323170 -0.003141 0.003398 967230.000000 1 0 0
-16.338863 -9.036547 1.315794 18.717610 0.505198 1.500441 -0.023585 0.008346 -1210100.000000 1 0 0
-6.767863 -17.067647 2.370094 18.512857 1.193283 1.442420 0.005710 -0.005647 2459380.000000 1 0 0
-11.638663 -14.965547 -4.623306 19.514124 0.909803 1.809992 0.010853 -0.007027 -257909.000000 1 0 0
-10.060563 -9.989347 -12.680306 19.020834 0.781846 2.300506 0.015090 0.003399 -1582620.000000 1 0 0
-4.455363 -15.957747 -4.534206 17.177280 1.298532 1.837927 0.002255 -0.005827 -911887.000000 1 0 0
-11.781163 -8.237747 -0.026206 14.375568 0.610209 1.572619 -0.000441 -0.000601 2646920.000000 1 0 0
-9.731463 -11.126347 3.558694 15.203988 0.852175 1.334541 -0.000763 0.005864 1646750.000000 1 0 0
-14.179263 -12.824947 -0.612906 19.128680 0.735288 1.602843 -0.007885 0.007665 584708.000000 1 0 0
5.481337 -14.819347 -7.089406 17.318134 -1.216525 1.992552 0.005354 -0.009270 21308.400000 1 0 0
-7.467163 -10.589947 -1.187106 13.012099 0.956644 1.662154 0.002194 -0.000434 1562900.000000 1 0 0
-11.546863 -8.199947 -6.009506 15.384516 0.617502 1.972102 0.005305 -0.003413 115101.000000 1 0 0
-14.404663 -6.708047 -9.245706 18.384104 0.435821 2.097768 0.004676 -0.000100 1771680.000000 1 0 0
-3.947763 -16.483447 1.342294 17.002664 1.335725 1.491768 0.005204 -0.007423 2889670.000000 1 0 0
-8.078763 -15.540247 0.124694 17.515171 1.091387 1.563677 0.007237 -0.005146 861716.000000 1 0 0
1.028537 -18.591147 3.706094 18.984829 -1.515529 1.374321 0.018543 -0.006655 462990.000000 1 0 0
-14.072263 -8.675247 -4.585706 17.155675 0.552448 1.841386 -0.005241 -0.002619 -884229.000000 1 0 0
-3.168063 -14.675347 10.977894 18.598833 1.358183 0.939432 -0.015868 -0.002871 609654.000000 1 0 0
-10.763163 -12.126847 -3.866906 16.669105 0.844903 1.804909 0.005992 -0.004757 879577.000000 1 0 0
-10.008763 -10.662047 0.580794 14.635296 0.816992 1.531101 -0.001289 0.005242 809934.000000 1 0 0
-0.159863 -13.118347 -11.162006 17.225184 1.558611 2.275759 0.001197 0.001231 748157.000000 1 0 0
-5.945863 -12.656247 -6.356506 15.360307 1.131602 1.997450 0.000204 -0.003118 1780130.000000 1 0 0
1.556837 -15.899747 9.872194 18.779933 -1.473192 1.017285 0.024051 -0.011472 -1170820.000000 1 0 0
-9.076163 -15.721147 -5.532606 18.977379 1.047219 1.866629 0.013507 -0.011472 -602920.000000 1 0 0
-3.412663 -15.531747 5.781794 16.920714 1.354511 1.222072 0.001962 -0.005096 -1465430.000000 1 0 0
-17.430163 -5.345247 -6.522506 19.362989 0.297562 1.914370 0.004140 -0.004966 -975952.000000 1 0 0
18.919737 5.740553 -2.780106 19.965956 0.294588 1.710493 0.006812 0.013551 -806974.000000 1 0 0
12.875337 -12.487547 -5.961706 18.901192 -0.770110 1.891690 0.023113 0.000497 -45100.000000 1 0 0
11.052837 -13.510747 -1.744306 17.542750 -0.885129 1.670393 0.019825 -0.000078 670351.000000 1 0 0
18.718537 -2.890947 4.589694 19.488624 -0.153232 1.333057 0.031267 -0.002377 -1154480.000000 1 0 0
8.631237 -17.012047 4.891494 19.693519 -1.101278 1.319788 0.024451 -0.001194 766696.000000 1 0 0
18.123837 -1.227947 6.969194 19.456387 -0.067650 1.204462 0.049266 -0.002709 -380269.000000 1 0 0
18.141637 -4.098347 -4.959206 19.248614 -0.222179 1.831375 0.015582 -0.000687 929193.000000 1 0 0
5.451737 -11.762047 14.712994 19.609675 -1.136771 0.722292 0.008585 -0.004702 1737870.000000 1 0 0
16.071937 -8.904247 -0.885606 18.395028 -0.505928 1.618959 0.009714 -0.002029 247771.000000 1 0 0
13.836537 -12.585447 -1.420406 18.757952 -0.738083 1.646592 0.013689 0.002275 991194.000000 1 0 0
10.977437 -1.995547 13.924694 17.843302 -0.179823 0.675511 0.005121 -0.004340 -233671.000000 1 0 0
17.045037 -6.119347 -1.382006 18.162864 -0.344679 1.646960 0.011603 -0.006415 -2059180.000000 1 0 0
17.683037 3.568953 -1.014206 18.068089 0.199154 1.626958 0.007683 0.006944 1574180.000000 1 0 0
9.734537 -11.168947 9.602694 17.655546 -0.853911 0.995729 0.002643 0.001930 303045.000000 1 0 0
8.991337 -11.164947 4.162294 14.927319 -0.892821 1.288213 0.002719 0.001464 -1324510.000000 1 0 0
13.916837 -10.218447 6.756094 18.540221 -0.633345 1.197806 0.018054 -0.005790 -545009.000000 1 0 0
16.367837 -0.506347 -4.745306 17.049352 -0.030926 1.852849 0.018683 0.003582 575077.000000 1 0 0
15.903037 -0.500147 -1.672906 15.998604 -0.031439 1.675554 0.022074 -0.000777 768526.000000 1 0 0
12.914937 -5.223747 -0.253006 13.933669 -0.384357 1.588955 0.013719 -0.004665 1688610.000000 1 0 0
14.289037 -7.578647 1.017194 16.206392 -0.487657 1.507990 0.013156 -0.003073 2200920.000000 1 0 0
15.471337 2.267153 3.796594 16.090879 0.145503 1.332603 0.015450 0.001383 2528420.000000 1 0 0
15.843637 -7.177947 5.056894 18.113970 -0.425387 1.287866 0.028620 -0.010149 -1457920.000000 1 0 0
13.584137 -12.208647 3.216594 18.545250 -0.732120 1.396469 0.012483 0.000411 146406.000000 1 0 0
13.952537 -1.018247 9.340594 16.821320 -0.072850 0.982093 0.016876 -0.001310 2507920.000000 1 0 0
14.231137 -2.839347 -1.575906 14.596939 -0.196931 1.678969 0.013263 0.000549 1580090.000000 1 0 0
15.020737 1.811453 9.202494 17.708467 0.120017 1.024336 0.021702 0.000252 -2173730.000000 1 0 0
14.472937 -10.169747 -3.051506 17.949968 -0.612518 1.741627 0.008626 -0.001019 740149.000000 1 0 0
7.320337 -12.742447 6.057594 15.895022 -1.049350 1.179810 0.005141 0.002125 894587.000000 1 0 0
12.369937 -4.814647 6.981394 14.997867 -0.371180 1.086605 0.005928 -0.001528 1538220.000000 1 0 0
15.040337 -9.006947 -5.658106 18.421482 -0.539575 1.882990 0.013017 0.002699 -594471.000000 1 0 0
14.278837 -4.598047 4.766594 15.740001 -0.311533 1.263132 0.017177 -0.004990 283584.000000 1 0 0
17.106837 -4.316347 1.073894 17.675632 -0.247158 1.510003 0.015610 -0.007365 -2816170.000000 1 0 0
10.123037 -14.515247 1.018394 17.725839 -0.961813 1.513312 0.015985 0.002069 591730.000000 1 0 0
16.292937 -2.747947 8.693694 18.670600 -0.167086 1.086444 0.037744 -0.006198 262955.000000 1 0 0
16.012237 -2.702247 3.335194 16.577617 -0.167186 1.368227 0.026319 -0.003585 2850820.000000 1 0 0
7.745337 -15.275647 2.650694 17.330949 -1.101534 1.417248 0.010836 0.003614 3377280.000000 1 0 0
16.431237 -7.175247 7.932894 19.606135 -0.411725 1.154241 0.030310 -0.007471 375698.000000 1 0 0
10.234637 -8.642447 5.096394 14.332233 -0.701252 1.207251 0.000591 -0.001765 642023.000000 1 0 0
10.853937 -11.935147 2.123994 16.271663 -0.832807 1.439889 0.013663 0.000510 -344332.000000 1 0 0
12.170637 -7.331647 11.997094 18.595906 -0.542186 0.869581 0.007204 -0.008263 405834.000000 1 0 0
15.095937 -9.932147 4.260694 18.565785 -0.581933 1.339241 0.021463 -0.007713 -404404.000000 1 0 0
7.364237 -10.426647 7.794394 14.956588 -0.955861 1.022617 -0.001883 0.003910 2388350.000000 1 0 0
15.289137 -3.276247 -4.412606 16.246926 -0.211094 1.845848 0.012993 -0.000998 491852.000000 1 0 0
11.785737 -9.066347 9.792094 17.804138 -0.655717 0.988444 0.004196 -0.003312 -1466720.000000 1 0 0
16.952837 -6.832247 2.441694 18.440177 -0.383103 1.437995 0.025255 -0.003937 2007930.000000 1 0 0
17.529237 3.698553 2.100694 18.037914 0.207943 1.454072 0.017129 0.003768 716666.000000 1 0 0
14.585137 -5.057847 8.834594 17.786458 -0.333804 1.051000 0.027980 -0.008867 -171937.000000 1 0 0
12.676737 -12.685647 6.004894 18.912536 -0.785749 1.247695 0.007610 -0.001478 -548966.000000 1 0 0
18.337037 0.695253 -0.876506 18.371134 0.037897 1.618526 0.028588 -0.000247 -525071.000000 1 0 0
11.627237 -2.188747 11.089594 16.216114 -0.186066 0.817753 0.008273 -0.000797 2151690.000000 1 0 0
5.797237 -12.592547 10.593194 17.446946 -1.139352 0.918307 0.007520 -0.001598 100382.000000 1 0 0
10.647037 -5.013047 11.021594 16.123447 -0.440048 0.818146 0.001034 -0.002332 204268.000000 1 0 0
17.859437 1.102753 5.255094 18.649171 0.061668 1.285140 0.033753 0.003574 -589736.000000 1 0 0
12.184537 -7.860847 7.106594 16.148050 -0.572958 1.115098 0.007801 -0.005864 -2211540.000000 1 0 0
10.514537 -7.933347 14.291994 19.435909 -0.646383 0.744629 0.001658 -0.007785 -2036990.000000 1 0 0
14.118537 -0.374047 3.813194 14.629198 -0.026487 1.307094 0.006423 0.003583 842935.000000 1 0 0
11.660237 -7.764547 2.491794 14.228786 -0.587471 1.394765 0.008159 -0.001973 1312910.000000 1 0 0
9.389537 6.034553 3.579094 11.721312 0.571219 1.260491 0.000891 0.000386 3561540.000000 1 0 0
-3.946263 14.783153 -9.943706 18.248066 -1.309936 2.147088 0.000535 -0.000709 2444260.000000 1 0 0
8.790837 -6.478447 9.195194 14.275877 -0.635100 0.870941 -0.001716 0.000188 -568113.000000 1 0 0
5.778737 -10.566047 -8.600106 14.798546 -1.070324 2.190932 0.007690 -0.002256 232313.000000 1 0 0
5.460837 1.007553 0.490094 5.574594 0.182453 1.482767 0.002991 -0.000454 2417200.000000 1 0 0
-0.531863 9.901553 10.984694 14.798214 -1.517133 0.734302 -0.005037 0.004463 414191.000000 1 0 0
-6.339963 -5.145547 1.038594 8.231067 0.681777 1.444279 0.004464 -0.003245 2303440.000000 1 0 0
-1.053763 4.016053 -10.868406 11.634490 -1.314193 2.776678 0.009674 -0.002675 1192800.000000 1 0 0
10.988037 5.735553 1.211394 12.453955 0.481078 1.473372 -0.000346 0.001267 546535.000000 1 0 0
-10.181063 -1.843947 -13.625606 17.108809 0.179173 2.492130 0.001932 -0.002216 787449.000000 1 0 0
7.476637 10.890353 -6.052106 14.530240 0.969163 2.000408 -0.001132 -0.000514 202820.000000 1 0 0
-12.366763 -2.940347 -9.587906 15.922010 0.233428 2.217024 0.007371 -0.000364 -135914.000000 1 0 0
-3.951163 -8.653647 2.583694 9.857625 1.142476 1.305598 0.004672 -0.001178 -1265610.000000 1 0 0
7.996337 -6.704947 -5.943706 12.009386 -0.697781 2.088541 0.010315 -0.004222 2240100.000000 1 0 0
14.293637 3.148753 -4.204906 15.228393 0.216827 1.850554 0.011690 0.003431 1753100.000000 1 0 0
-2.446163 -5.011847 9.853094 11.321916 1.116733 0.515051 -0.004032 -0.000732 2061030.000000 1 0 0
3.405837 -1.941847 -4.593406 6.039029 -0.518184 2.435064 0.004956 -0.002274 -1989520.000000 1 0 0
-4.075163 8.471153 -3.495006 10.029081 -1.122412 1.926753 0.001994 0.001424 1038870.000000 1 0 0
5.735937 0.124053 11.723794 13.052345 0.021624 0.455108 -0.002915 -0.000188 754991.000000 1 0 0
7.154437 4.652053 12.412494 15.063120 0.576539 0.602305 -0.001380 0.006063 1368980.000000 1 0 0
1.103837 -14.512347 12.417694 19.131800 -1.494881 0.864448 0.006271 -0.005851 45746.300000 1 0 0
3.023437 8.726653 -9.103906 12.968298 1.237279 2.349016 0.005901 -0.000708 261861.000000 1 0 0
-4.414463 -8.856947 -4.596306 10.911417 1.108415 2.005607 0.001159 -0.000673 1255300.000000 1 0 0
5.702137 -6.500747 -4.140006 9.587164 -0.850749 2.017315 0.005524 -0.006763 2501970.000000 1 0 0
-3.137963 3.448453 8.659594 9.834999 -0.832504 0.493907 -0.001154 0.001587 2979440.000000 1 0 0
-3.838263 3.240553 -11.143106 12.223022 -0.701162 2.718075 0.003988 -0.004791 554235.000000 1 0 0
3.082637 -6.111247 8.489394 10.905035 -1.103619 0.678550 -0.004702 0.001813 -88501.700000 1 0 0
-5.101663 -8.725947 10.480194 14.560342 1.041737 0.767316 0.000077 -0.000086 1347990.000000 1 0 0
-13.221763 -2.479447 6.532694 14.954557 0.185375 1.118718 -0.000603 0.000411 1349280.000000 1 0 0
3.952937 -5.947247 -8.403206 11.027662 -0.984180 2.437210 0.001400 -0.001550 3927260.000000 1 0 0
2.867537 -0.551047 12.356694 12.697019 -0.189853 0.232053 -0.004245 0.001655 981583.000000 1 0 0
1.437537 -1.402047 -7.552606 7.814993 -0.772900 2.881730 0.005038 -0.003137 -600559.000000 1 0 0
3.670537 -3.471947 3.420194 6.101228 -0.757601 0.975717 0.001916 -0.002816 2374770.000000 1 0 0
1.472637 0.396753 -11.923906 12.021049 0.263168 3.014377 0.009134 -0.003534 1508900.000000 1 0 0
4.059537 3.568253 -10.610006 11.907330 0.721080 2.670446 0.001470 0.002374 2486680.000000 1 0 0
2.864137 3.258953 3.352194 5.482815 0.849789 0.912968 -0.000619 0.002207 -495929.000000 1 0 0
-5.334263 0.931953 2.519894 5.972668 -0.172965 1.135252 0.003739 -0.003463 3605130.000000 1 0 0
-9.540363 -9.221447 5.709894 14.444947 0.768402 1.164417 0.005702 -0.001360 -434733.000000 1 0 0
-2.966763 3.807653 -0.583906 4.862186 -0.908894 1.691178 0.000217 -0.002801 -891280.000000 1 0 0
-15.901363 -6.369147 4.981994 17.839272 0.380973 1.287761 0.006906 -0.003139 1275270.000000 1 0 0
0.993337 6.769053 -8.087806 10.593366 1.425090 2.439478 0.007094 0.000518 551362.000000 1 0 0
-1.588663 6.513153 -9.439106 11.577640 -1.331552 2.524022 0.006401 -0.000926 3685890.000000 1 0 0
2.075637 -0.362247 5.266494 5.672341 -0.172783 0.380574 0.002090 -0.000690 2427580.000000 1 0 0
-3.430363 -0.627147 -6.243006 7.150932 0.180825 2.632186 -0.000393 -0.004570 411736.000000 1 0 0
1.812337 -1.261047 -2.401006 3.261845 -0.607910 2.398069 0.009787 -0.003034 1935560.000000 1 0 0
2.399037 -8.569247 -7.646406 11.732642 -1.297826 2.280647 -0.001526 -0.001333 3036270.000000 1 0 0
-2.445763 14.075153 -5.565406 15.331844 -1.398750 1.942278 0.004645 0.004313 2015820.000000 1 0 0
6.884237 -5.156547 -8.261406 11.926170 -0.642884 2.336040 0.007378 -0.004581 1482790.000000 1 0 0
-14.190663 -5.077147 -2.130206 15.221370 0.343590 1.711206 -0.001058 -0.003506 447549.000000 1 0 0
-2.748863 6.928553 -6.828106 10.108617 -1.193100 2.312403 0.002323 0.000704 -767160.000000 1 0 0
-5.572363 -1.071647 -8.091306 9.882757 0.189995 2.529991 0.008235 -0.007765 562346.000000 1 0 0
-5.819363 -10.627247 3.399694 12.584168 1.069806 1.297241 0.004146 -0.001259 -2564050.000000 1 0 0
8.047837 -7.690847 6.675594 12.979998 -0.762720 1.030607 -0.004320 0.000527 -186276.000000 1 0 0
8.650037 -5.989347 13.107794 16.808024 -0.605612 0.676365 -0.002867 -0.001528 864992.000000 1 0 0
-4.751663 9.478253 -0.723306 10.627265 -1.106091 1.638910 0.001075 0.003748 1540190.000000 1 0 0
2.765037 6.594053 12.151294 14.098968 1.173744 0.531876 0.000869 0.004601 2142220.000000 1 0 0
5.912237 -2.813547 10.961394 12.768036 -0.444170 0.538454 -0.007025 -0.000021 -266419.000000 1 0 0
-9.609463 -6.522747 -1.104606 11.666540 0.596344 1.665620 0.004472 -0.003526 -45098.600000 1 0 0
0.814237 -13.421047 6.300694 14.848778 -1.510202 1.132581 0.003148 -0.001917 450981.000000 1 0 0
-0.495763 -3.182147 8.688794 9.266443 1.416244 0.354955 -0.003129 -0.000676 1822810.000000 1 0 0
4.235937 0.724753 3.406194 5.483665 0.169456 0.900584 0.000078 0.001507 2466080.000000 1 0 0
-10.089663 5.548353 8.281994 14.183686 -0.502770 0.947260 -0.002262 -0.005785 628172.000000 1 0 0
9.422837 7.885553 -0.062006 12.287215 0.696813 1.575843 -0.000320 0.001171 -1398650.000000 1 0 0
4.391737 2.882253 8.146594 9.693386 0.580784 0.572724 -0.002906 0.001566 3852460.000000 1 0 0
1.302737 2.650653 -9.806306 10.241422 1.113990 2.849051 0.007885 -0.001136 793995.000000 1 0 0
-1.397763 -10.170247 3.052994 10.710202 1.434215 1.281733 0.006495 -0.002560 -1485610.000000 1 0 0
-9.951563 9.568953 9.065394 16.516048 -0.765800 0.989768 0.001247 -0.006192 1663120.000000 1 0 0
9.823037 -2.017147 -7.705806 12.646754 -0.202533 2.225988 0.016150 -0.000780 487475.000000 1 0 0
-5.253163 -1.888647 6.741394 8.752662 0.345136 0.691625 0.003966 -0.003104 -236450.000000 1 0 0
3.097637 -7.791847 -4.965406 9.744921 -1.192405 2.105444 -0.000614 -0.004263 2181810.000000 1 0 0
-5.142363 4.965153 -13.138006 14.956733 -0.767867 2.643302 0.000371 -0.007813 2470250.000000 1 0 0
-5.565763 9.652353 5.405894 12.384237 -1.047744 1.119076 -0.001277 0.001598 1667550.000000 1 0 0
-0.433263 -1.773447 -9.439106 9.614029 1.331184 2.950543 0.005821 -0.005593 9924.340000 1 0 0
-16.838763 0.281653 6.411294 18.020210 -0.016725 1.207044 0.009595 -0.000488 -74671.100000 1 0 0
-5.969763 -2.831947 4.064494 7.757455 0.442944 1.019318 0.001495 -0.001466 2234480.000000 1 0 0
0.914137 -5.707047 -5.128306 7.726937 -1.411969 2.296540 0.000232 -0.002976 194050.000000 1 0 0
-7.001463 1.446753 -8.552606 11.147226 -0.203768 2.445324 -0.001405 -0.003661 420101.000000 1 0 0
8.066837 1.978653 4.745394 9.565965 0.240534 1.051729 -0.003063 0.001150 341555.000000 1 0 0
0.504337 -8.111647 -0.514406 8.143573 -1.508702 1.634006 0.002062 -0.001714 965735.000000 1 0 0
5.433037 5.460653 -3.343306 8.397281 0.787933 1.980286 -0.000705 0.002537 1579310.000000 1 0 0
-0.842063 -0.411647 -1.205306 1.526855 0.454692 2.480635 0.005362 -0.001899 -443391.000000 1 0 0
9.055437 6.433153 -6.341506 12.790665 0.617684 2.089543 0.000073 0.000800 1915250.000000 1 0 0
-14.881663 -7.032647 2.520794 16.651619 0.441465 1.418828 -0.012165 -0.000903 -359871.000000 1 0 0
-6.305263 6.754453 8.914794 12.839491 -0.819780 0.803313 0.001230 0.000699 -690191.000000 1 0 0
-9.418063 -3.228247 -9.691306 13.893988 0.330221 2.342724 0.001704 0.000297 921728.000000 1 0 0
14.782737 3.424453 -1.246406 15.225299 0.227637 1.652752 0.004378 0.002503 1020650.000000 1 0 0
12.015437 1.698653 -5.827406 13.461605 0.140442 2.018494 0.011698 0.000120 230152.000000 1 0 0
1.628037 -9.498647 12.691294 15.935612 -1.401049 0.649459 -0.005316 -0.001513 303537.000000 1 0 0
-3.531663 6.337753 7.928794 10.747350 -1.062410 0.741074 -0.001930 0.003464 273768.000000 1 0 0
-4.222663 13.030053 -12.326406 18.426977 -1.257405 2.303568 0.002568 -0.006228 33109.600000 1 0 0
-10.177863 7.823853 6.478194 14.379450 -0.655370 1.103451 0.000539 -0.005410 -587669.000000 1 0 0
7.962137 -9.329847 -7.158306 14.201514 -0.864329 2.099081 0.014460 -0.002775 942350.000000 1 0 0
5.858637 -3.788347 -0.403006 6.988391 -0.574000 1.628496 0.006097 -0.004260 -581287.000000 1 0 0
-1.643063 -4.456147 4.219094 6.352767 1.217544 0.844460 0.003754 -0.001495 1446750.000000 1 0 0
9.924837 -2.050847 -2.689206 10.485237 -0.203770 1.830170 0.005930 -0.002191 -1319800.000000 1 0 0
13.600137 7.000653 1.498794 15.369426 0.475377 1.473123 0.003566 0.005279 64581.800000 1 0 0
5.407037 -3.678347 -3.289906 7.320503 -0.597374 2.036901 0.007295 -0.007185 -2181240.000000 1 0 0
-12.283963 -5.897547 1.936794 13.763284 0.447602 1.429606 -0.004081 -0.002663 -284002.000000 1 0 0
3.847837 -5.815847 -0.251306 6.978042 -0.986301 1.606818 0.004127 -0.003438 -1181880.000000 1 0 0
-5.195163 3.803453 -8.724006 10.842706 -0.631956 2.505793 -0.001295 -0.004075 716729.000000 1 0 0
-1.682263 -9.294047 7.248294 11.905758 1.391731 0.916242 -0.002982 -0.001177 2123310.000000 1 0 0
-7.386463 -7.363747 2.589694 10.746679 0.783858 1.327425 0.009539 -0.003513 -4190500.000000 1 0 0
-5.788963 13.105653 -8.524306 16.671354 -1.154854 2.107510 0.003016 -0.005248 2274910.000000 1 0 0
9.236937 -13.813747 -4.216506 17.144081 -0.981403 1.819291 0.019091 -0.000327 957906.000000 1 0 0
-6.464863 -5.125447 -6.754506 10.662458 0.670345 2.256845 0.005746 -0.002850 1462690.000000 1 0 0
3.392037 0.385653 -6.292406 7.158842 0.113208 2.644494 0.003422 -0.002578 2730140.000000 1 0 0
-3.571063 5.786953 5.013394 8.448399 -1.017906 0.935503 -0.001794 0.002635 121515.000000 1 0 0
-2.689363 -10.743047 -2.840106 11.432932 1.325502 1.821839 0.005379 -0.000799 1426820.000000 1 0 0
-12.644263 -0.394347 1.841794 12.783783 0.031178 1.426221 0.003185 -0.005224 953665.000000 1 0 0
8.327137 -11.969647 -6.137006 15.820129 -0.962970 1.969174 0.013858 -0.002265 -252806.000000 1 0 0
6.183237 3.877453 1.045794 7.372974 0.560102 1.428475 -0.000184 -0.001602 -1096220.000000 1 0 0
3.455637 -4.733147 -10.959106 12.427635 -0.940158 2.650533 0.002646 -0.001898 694559.000000 1 0 0
-7.533963 4.230553 8.599894 12.190831 -0.511653 0.787753 0.001389 -0.002009 487272.000000 1 0 0
8.176037 8.682353 4.093294 12.608961 0.815423 1.240172 0.002935 0.002904 1652370.000000 1 0 0
0.301937 10.651853 -6.381206 12.420666 1.542458 2.110355 0.007966 0.003115 1452710.000000 1 0 0
5.435637 7.992353 3.299794 10.213349 0.973548 1.241807 0.001278 0.002526 3043630.000000 1 0 0
8.078237 6.609053 -3.724506 11.081942 0.685699 1.913556 -0.001185 0.000932 -455900.000000 1 0 0
10.508337 2.655153 -8.203106 13.592863 0.247491 2.218662 0.002571 0.001503 1333830.000000 1 0 0
3.343137 -12.381647 -0.367106 12.830296 -1.307078 1.599413 0.000993 -0.000614 -634004.000000 1 0 0
0.623537 2.095853 5.207994 5.648416 1.281626 0.397511 0.003825 -0.000043 425585.000000 1 0 0
-4.827463 13.431053 1.405994 14.341353 -1.225749 1.472601 -0.001105 0.003528 1832410.000000 1 0 0
8.174337 4.125453 -7.982906 12.147672 0.467387 2.287835 -0.000172 0.002502 1298010.000000 1 0 0
-13.827763 -0.608247 -3.551506 14.289513 0.043959 1.821968 -0.001252 0.001110 777508.000000 1 0 0
-8.596663 0.023853 -0.481706 8.610182 -0.002775 1.626772 -0.000102 -0.003197 -238087.000000 1 0 0
1.869837 -3.948347 -1.009206 4.483774 -1.128512 1.797821 0.004453 -0.002511 -1237300.000000 1 0 0
8.121537 -5.605347 -0.299906 9.872650 -0.604107 1.601178 0.006877 -0.004829 1226680.000000 1 0 0
-2.350063 -1.156747 7.420094 7.868840 0.457404 0.339349 0.004163 -0.000694 2993310.000000 1 0 0
-5.868663 8.839853 -11.798206 15.867636 -0.984721 2.409144 -0.003883 -0.003052 -1983090.000000 1 0 0
-6.154563 9.262353 -8.982506 14.295288 -0.984316 2.250232 -0.005133 -0.002225 1008150.000000 1 0 0
-1.552463 13.999953 -8.432306 16.416840 -1.460357 2.110215 0.012104 0.000287 -168429.000000 1 0 0
-1.435063 7.167653 9.845694 12.262640 -1.373195 0.638649 -0.002535 0.003528 859190.000000 1 0 0
10.107337 2.264853 -3.969606 11.092592 0.220439 1.936773 0.004351 -0.000648 -1577390.000000 1 0 0
-3.035663 -7.479747 -6.991006 10.678765 1.185256 2.284535 0.001990 -0.000515 -126947.000000 1 0 0
-5.480763 -4.961247 -1.640306 7.572538 0.735687 1.789140 0.003802 -0.002681 775035.000000 1 0 0
5.628337 7.371453 -8.817706 12.797205 0.918691 2.330951 -0.001076 0.001776 -33750.200000 1 0 0
-9.490763 5.324953 -7.494106 13.213302 -0.511300 2.173854 -0.006000 0.002791 446297.000000 1 0 0
-0.445763 6.179153 -5.328306 8.171382 -1.498781 2.281107 0.007169 0.001319 -149604.000000 1 0 0
-8.211063 2.778553 -6.349006 10.744850 -0.326296 2.202956 -0.002273 0.002148 1132770.000000 1 0 0
3.707137 1.306553 -2.056506 4.436120 0.338849 2.052830 0.002564 -0.000542 4263690.000000 1 0 0
-6.699963 12.480353 -3.589106 14.612680 -1.078112 1.818951 0.001541 0.000410 1432300.000000 1 0 0
-6.491863 3.224853 -2.350506 7.620292 -0.461047 1.884363 -0.003863 0.000084 -1722190.000000 1 0 0
12.028637 3.973453 -0.754106 12.690355 0.319048 1.630255 0.002164 0.000715 607646.000000 1 0 0
2.321637 12.376153 -5.454106 13.722480 1.385362 1.979541 0.007953 0.001233 1464250.000000 1 0 0
-9.135563 -1.436347 -4.216606 10.163728 0.155949 1.998594 0.001276 0.000227 -778083.000000 1 0 0
-1.110563 5.756653 3.421394 6.788103 -1.380219 1.042540 -0.000823 0.003342 1214890.000000 1 0 0
11.553737 2.641953 12.055194 16.905515 0.224802 0.776897 0.004910 0.002361 -1049610.000000 1 0 0
-7.036063 -2.300247 -5.743806 9.369559 0.315970 2.230684 0.002816 -0.003400 -1081550.000000 1 0 0
7.423137 -7.427247 10.796794 15.061132 -0.785675 0.771501 -0.005621 0.002116 -669216.000000 1 0 0
-5.538663 -1.876447 -10.958706 12.421396 0.326654 2.651405 0.004720 -0.002732 72457.600000 1 0 0
0.852037 -6.245147 4.474994 7.730032 -1.435202 0.953405 0.001925 -0.001181 1552760.000000 1 0 0
-4.800763 -9.327347 7.415894 12.846875 1.095460 0.955436 0.001214 -0.001025 3265920.000000 1 0 0
-8.705563 9.371453 1.704094 12.904065 -0.822218 1.438351 0.007016 -0.003464 842863.000000 1 0 0
-8.189363 7.315653 -9.217406 14.336842 -0.729108 2.269098 -0.007784 -0.000451 94211.400000 1 0 0
-1.332163 -10.656247 -0.049406 10.739306 1.446429 1.575397 0.005160 -0.002616 608931.000000 1 0 0
-3.896663 10.333253 7.773094 13.504855 -1.210186 0.957486 -0.000240 0.003791 964553.000000 1 0 0
-7.407163 12.096353 1.942494 14.316463 -1.021348 1.434694 0.004199 -0.003735 499083.000000 1 0 0
-8.070363 -8.259647 -2.788306 11.879696 0.796989 1.807719 0.010701 -0.003103 -331469.000000 1 0 0
5.389137 4.538553 -7.997806 10.658619 0.699929 2.419403 0.001832 0.006033 -822136.000000 1 0 0
-8.886863 -0.167047 -10.307506 13.610618 0.018795 2.429986 -0.003888 -0.000635 -1294030.000000 1 0 0
-15.181663 -2.207147 -1.454906 15.410099 0.144371 1.665350 -0.004922 -0.001227 1081970.000000 1 0 0
-7.175263 -5.808147 8.780194 12.740124 0.680488 0.810444 0.000420 -0.000345 10913.700000 1 0 0
8.154037 3.322553 -0.892206 8.850068 0.386932 1.671781 -0.001852 0.001008 -70619.400000 1 0 0
11.904737 7.287353 -5.816306 15.121432 0.549297 1.965614 0.000317 0.001044 600489.000000 1 0 0
3.809037 13.388753 -9.482406 16.842907 1.293624 2.168797 0.004669 -0.005825 826167.000000 1 0 0
-9.664463 5.422053 -0.483206 11.092069 -0.511272 1.614373 -0.002182 -0.000631 840676.000000 1 0 0
11.267337 -1.284247 -5.214906 12.481884 -0.113490 2.001817 0.018393 -0.001983 263482.000000 1 0 0
10.639337 1.619153 -1.225406 10.831379 0.151027 1.684174 0.001336 -0.000129 198633.000000 1 0 0
14.697037 4.997753 4.887394 16.274737 0.327785 1.265783 0.008333 0.002742 1586700.000000 1 0 0
0.909537 -0.831147 10.267494 10.341155 -0.740394 0.119429 -0.001957 0.000721 2011870.000000 1 0 0
-7.983763 1.413353 -12.641306 15.018011 -0.175213 2.571300 -0.008480 -0.002588 -938978.000000 1 0 0
3.117337 -11.485647 -7.816606 14.238581 -1.305769 2.151932 -0.000195 -0.002086 811613.000000 1 0 0
2.901937 5.002553 -6.703206 8.853234 1.045144 2.429732 0.002866 0.004926 -540013.000000 1 0 0
6.543137 7.974153 0.546694 10.329503 0.883654 1.517846 0.002187 0.001383 620958.000000 1 0 0
-9.086763 -5.350747 6.749294 12.520093 0.532181 1.001455 0.000617 -0.001225 -600059.000000 1 0 0
-0.281363 -6.749247 -11.892706 13.677279 1.529132 2.625032 0.001629 0.004517 1280970.000000 1 0 0
6.437837 -13.298647 -4.658106 15.491859 -1.119952 1.876203 0.008102 -0.004923 2692320.000000 1 0 0
-3.256163 -0.341847 10.047194 10.567193 0.104601 0.315017 -0.003774 0.001157 520111.000000 1 0 0
8.637937 8.514453 7.010194 14.009022 0.778199 1.046729 0.001199 0.002498 713145.000000 1 0 0
-7.919663 5.652853 -2.683406 10.093388 -0.619911 1.839890 -0.001508 -0.000480 34609.700000 1 0 0
-5.402163 5.873053 -6.613606 10.364165 -0.827137 2.262854 -0.002086 0.000884 -1526420.000000 1 0 0
3.249137 -13.588347 2.466694 14.187481 -1.336091 1.396044 0.006046 -0.003180 -1252410.000000 1 0 0
-11.353163 -6.966647 6.489994 14.817169 0.550382 1.117418 0.005443 -0.001340 -1351630.000000 1 0 0
-12.881763 -3.820547 -6.743106 15.033492 0.288321 2.035926 0.008221 -0.002632 -284024.000000 1 0 0
6.118637 0.356653 -7.293006 9.526430 0.058224 2.442700 0.001983 0.000554 735198.000000 1 0 0
-1.417063 2.168353 -2.495006 3.596510 -0.991950 2.337451 0.001696 -0.002118 1695820.000000 1 0 0
7.611937 0.907553 -4.989006 9.146334 0.118667 2.147740 0.003862 0.000111 808556.000000 1 0 0
3.601837 -4.473447 10.815994 12.246251 -0.892917 0.488136 -0.006377 0.002182 -25837.600000 1 0 0
6.071737 -2.544447 2.105994 6.911976 -0.396832 1.261186 0.005561 -0.002704 -157773.000000 1 0 0
-6.297163 7.705753 1.109594 10.013196 -0.885654 1.459755 -0.000482 -0.000087 827403.000000 1 0 0
5.985537 -3.450347 7.888894 10.486476 -0.522921 0.719262 -0.002435 0.001189 -1456260.000000 1 0 0
6.812937 -2.277447 -7.914806 10.688640 -0.322605 2.404592 0.005539 -0.002917 45803.700000 1 0 0
12.152037 -8.075447 -5.818606 15.707992 -0.586525 1.950261 0.023205 -0.002604 589027.000000 1 0 0
5.576437 -9.727847 9.937594 14.982771 -1.050282 0.845619 -0.005727 0.002710 1659770.000000 1 0 0
-6.646963 7.583253 -4.549006 11.062609 -0.851099 1.994573 -0.002554 0.000657 1470750.000000 1 0 0
-1.341863 -7.633847 9.791394 12.487898 1.396796 0.669599 -0.005233 -0.002420 -1921530.000000 1 0 0
9.950837 -9.304547 0.757694 13.644334 -0.751847 1.515236 0.010209 -0.005030 1528090.000000 1 0 0
11.168137 6.069153 9.854094 16.083068 0.497789 0.911324 0.005325 -0.000736 1481940.000000 1 0 0
-15.260863 -4.343247 -4.906606 16.608206 0.277269 1.870705 -0.001860 -0.003086 1317820.000000 1 0 0
-4.677363 -4.673147 7.855794 10.267888 0.784947 0.699625 0.004621 -0.002263 -178415.000000 1 0 0
2.946437 10.972853 -11.014206 15.823961 1.308464 2.340672 0.007969 -0.000942 -501222.000000 1 0 0
9.938637 -1.427147 1.522794 10.155400 -0.142621 1.420279 -0.002451 -0.000320 115928.000000 1 0 0
-1.641063 -2.669447 0.742794 3.220369 1.019596 1.338046 0.004501 -0.004341 1308680.000000 1 0 0
1.655837 2.965953 0.835094 3.498008 1.061617 1.329734 -0.001533 0.000520 -659062.000000 1 0 0
-8.960763 -2.329647 4.323594 10.218414 0.254352 1.133913 0.001807 -0.002123 3256930.000000 1 0 0
9.844137 4.783153 -2.653306 11.261688 0.452295 1.808637 -0.001338 0.001134 -230373.000000 1 0 0
2.568237 8.450453 2.482094 9.174246 1.275750 1.296832 -0.001737 0.003081 197579.000000 1 0 0
-8.189763 -0.124347 2.430294 8.543653 0.015182 1.282357 0.001519 -0.005898 2046420.000000 1 0 0
6.855637 2.011653 13.808694 15.547557 0.285419 0.477474 -0.005529 0.000885 -516157.000000 1 0 0
6.836437 4.372353 3.905394 9.005912 0.569005 1.122259 -0.002770 0.002511 236433.000000 1 0 0
-0.312963 3.429453 7.780994 8.508993 -1.479791 0.416665 -0.002782 0.001547 -695919.000000 1 0 0
2.713737 -10.300147 9.193894 14.070717 -1.313185 0.858721 -0.001515 -0.002579 1333500.000000 1 0 0
1.363037 -4.571147 6.867094 8.361234 -1.281008 0.607108 -0.003312 -0.001377 54032.000000 1 0 0
-0.097463 10.847553 -1.931706 11.018639 -1.561812 1.747020 0.006260 0.002165 2575420.000000 1 0 0
8.820237 5.584653 8.036294 13.174481 0.564448 0.914749 -0.000766 -0.000015 -206461.000000 1 0 0
2.737337 11.421153 -2.861406 12.088151 1.335561 1.809776 0.007905 -0.000450 2780280.000000 1 0 0
1.379937 2.423653 -6.796706 7.346668 1.053209 2.752204 0.005923 0.000350 1785190.000000 1 0 0
-13.690663 -2.159947 3.605094 14.321185 0.156478 1.316327 0.003026 -0.003487 1895320.000000 1 0 0
-1.008463 -10.693847 -5.310606 11.982399 1.476771 2.029962 0.001731 -0.000938 480302.000000 1 0 0
-5.604263 2.908853 0.411594 6.327606 -0.478766 1.505703 0.002083 -0.001897 368353.000000 1 0 0
3.751637 7.300353 -4.967906 9.594271 1.096092 2.115073 0.002458 0.002530 -1872000.000000 1 0 0
2.977037 9.829353 -6.447006 12.126122 1.276707 2.131359 0.005209 0.003469 946315.000000 1 0 0
-12.096263 1.593153 -2.510606 12.456358 -0.130953 1.773739 0.002543 -0.000671 1711980.000000 1 0 0
-2.448363 9.609953 -5.739906 11.458281 -1.321330 2.095480 0.004343 0.000394 2136830.000000 1 0 0
-1.252563 3.297553 1.761194 3.942661 -1.207784 1.107721 -0.001722 -0.000664 307077.000000 1 0 0
12.855737 3.694953 9.699694 16.522915 0.279873 0.943393 0.013495 0.002813 545318.000000 1 0 0
-2.606363 -9.605947 11.672294 15.339810 1.305847 0.706074 -0.010200 -0.001101 1737460.000000 1 0 0
-0.501963 -8.914347 -7.573906 11.708185 1.514546 2.274295 -0.001095 0.001711 2510250.000000 1 0 0
2.437537 7.566053 -0.491106 7.964166 1.259128 1.632500 -0.000221 0.001926 1539060.000000 1 0 0
-11.775963 -1.445747 -5.521006 13.086061 0.122160 2.006336 0.006184 0.001009 -1447740.000000 1 0 0
-6.169563 -7.133547 -10.975506 14.471100 0.857735 2.431717 -0.000380 0.002034 1390200.000000 1 0 0
-4.700063 -2.267247 -1.412706 5.406176 0.449458 1.835179 0.001204 -0.002877 -1593820.000000 1 0 0
-10.492063 3.766853 4.473694 12.011932 -0.344687 1.189162 0.002634 -0.005694 2252010.000000 1 0 0
6.801037 9.286853 -3.608206 12.063122 0.938701 1.874557 0.002387 0.001796 158998.000000 1 0 0
1.262437 -2.675147 -11.538206 11.911354 -1.129870 2.890626 0.007525 -0.003365 -279794.000000 1 0 0
1.325037 8.790753 7.684594 11.751002 1.421192 0.858000 -0.004968 0.005735 1177830.000000 1 0 0
10.304537 0.437053 10.542594 14.748586 0.042388 0.774429 -0.000766 0.002716 135987.000000 1 0 0
-5.210863 -0.903847 -3.969206 6.612460 0.171745 2.214625 0.000346 -0.003239 -1816600.000000 1 0 0
11.818537 5.592353 5.485894 14.179114 0.441966 1.173529 0.003991 0.002741 2910470.000000 1 0 0
9.933337 -3.556947 3.550994 11.132502 -0.343856 1.246148 0.001452 -0.003190 -1391450.000000 1 0 0
7.330037 -1.699247 -3.504006 8.300298 -0.227796 2.006617 0.005312 -0.001864 -1930310.000000 1 0 0
2.422837 9.268853 10.595694 14.284625 1.315122 0.735113 -0.002819 0.008867 3132800.000000 1 0 0
2.338337 -10.899047 6.365094 12.836333 -1.359455 1.051965 -0.003496 0.000712 125040.000000 1 0 0
5.982137 -7.477847 -1.354106 9.671492 -0.896067 1.711268 0.003186 -0.007126 -380439.000000 1 0 0
-0.264763 -5.707347 -2.296106 6.157598 1.524440 1.952918 0.002448 -0.002707 1252020.000000 1 0 0
7.738337 -5.110147 2.618494 9.635972 -0.583629 1.295594 0.001335 -0.002460 512878.000000 1 0 0
-2.766263 -12.499247 4.600794 13.603333 1.352993 1.225781 0.005216 -0.002888 -123060.000000 1 0 0
4.900937 -10.224647 -1.261806 11.408538 -1.123824 1.681625 0.001906 -0.005352 837104.000000 1 0 0
1.039437 0.182553 1.069694 1.502664 0.173854 0.778646 0.000803 0.000262 -1198630.000000 1 0 0
-1.584363 8.549053 2.422294 9.025743 -1.387549 1.299089 -0.002715 0.006224 -1212150.000000 1 0 0
-7.452363 0.631353 -3.063306 8.082089 -0.084517 1.959538 -0.001820 0.000413 -175303.000000 1 0 0
4.404937 -6.405647 12.853394 15.021502 -0.968397 0.543959 -0.003517 -0.000377 -432303.000000 1 0 0
-5.046663 13.108753 8.467294 16.401320 -1.203301 1.028322 0.000331 0.000346 3249540.000000 1 0 0
0.665037 6.128553 8.239994 10.290721 1.462705 0.642299 -0.005638 0.005527 -1491820.000000 1 0 0
7.934037 -0.587347 -0.836806 7.999635 -0.073894 1.675594 0.000416 -0.001727 3599410.000000 1 0 0
2.402537 -9.147247 -2.440506 9.767311 -1.313946 1.823337 -0.001342 -0.004286 1482230.000000 1 0 0
-7.100463 12.200653 4.799894 14.910114 -1.043737 1.243037 0.003960 -0.000838 199537.000000 1 0 0
-14.982263 0.278753 0.241594 14.986804 -0.018603 1.554675 0.001903 -0.003572 -1021610.000000 1 0 0
6.922137 -0.548547 3.971094 7.999154 -0.079080 1.051304 -0.000923 0.001395 1907660.000000 1 0 0
-4.171163 -5.017947 5.128294 8.299264 0.877289 0.904700 0.005678 -0.001887 -190639.000000 1 0 0
2.895737 5.084253 6.879294 9.031036 1.053067 0.704803 -0.004264 0.003704 -915051.000000 1 0 0
2.010237 -7.207747 1.792094 7.694431 -1.298808 1.335730 0.001353 -0.002799 2984640.000000 1 0 0
-2.464763 6.449453 -1.798906 7.134884 -1.205758 1.825675 0.001353 0.001935 1533120.000000 1 0 0
2.624437 -3.899347 -6.590906 8.095222 -0.978391 2.522099 0.001955 -0.003486 -1005120.000000 1 0 0
-5.162863 0.982653 -12.238106 13.318859 -0.188081 2.735966 0.005564 -0.003993 -720099.000000 1 0 0
-7.532363 6.449753 -12.034406 15.593677 -0.708124 2.452383 -0.003335 -0.005251 3253990.000000 1 0 0
-1.040463 11.200153 -9.024306 14.420961 -1.478165 2.246924 0.009982 -0.001221 1325260.000000 1 0 0
4.705537 5.832453 -0.545306 7.513784 0.891932 1.643434 -0.000563 0.001925 -259640.000000 1 0 0
-2.679863 13.455353 3.590594 14.181698 -1.374202 1.314825 -0.001934 0.006870 1627750.000000 1 0 0
1.470537 -8.018347 10.183694 13.044692 -1.389415 0.675048 -0.006965 -0.002317 887174.000000 1 0 0
13.041037 -0.270647 -1.042606 13.085447 -0.020750 1.650558 0.014893 -0.004097 1537830.000000 1 0 0
-1.025463 3.141453 -5.393306 6.325192 -1.255272 2.591872 0.003119 -0.002430 887379.000000 1 0 0
6.677137 1.087653 7.323494 9.969990 0.161474 0.745788 -0.001055 0.002222 1441820.000000 1 0 0
5.411037 -6.241047 6.750294 10.667542 -0.856511 0.885648 -0.003700 0.000338 2192960.000000 1 0 0
12.264537 -4.987947 2.653394 13.503295 -0.386266 1.373010 0.006552 -0.004257 -787380.000000 1 0 0
4.435137 -9.240547 13.744994 17.145932 -1.123305 0.640750 -0.003370 -0.001607 637649.000000 1 0 0
-2.695263 -4.266147 -1.425506 5.243712 1.007337 1.846112 0.003497 -0.004273 2601450.000000 1 0 0
-9.296363 -5.146447 -7.567106 13.044898 0.505601 2.189625 0.007988 -0.003114 243281.000000 1 0 0
-10.609463 -3.085247 7.901494 13.583558 0.282996 0.949985 0.002637 -0.001759 -122307.000000 1 0 0
12.030637 -0.549247 1.712394 12.164300 -0.045622 1.429555 0.002178 -0.000832 909547.000000 1 0 0
-7.564263 4.739353 4.409294 9.955974 -0.559710 1.111989 0.003195 -0.004856 2249750.000000 1 0 0
-0.990963 10.615953 7.007494 12.758740 -1.477719 0.989353 -0.004233 0.008062 2390740.000000 1 0 0
7.261737 -10.037247 1.790494 12.517388 -0.944486 1.427263 0.001374 -0.002871 2803180.000000 1 0 0
-4.382463 -1.664147 1.666194 4.975095 0.362910 1.229290 -0.000325 -0.001739 811837.000000 1 0 0
6.667737 -14.940547 -0.982006 16.390332 -1.151036 1.630746 0.005332 0.005546 -793362.000000 1 0 0
-10.468863 1.718853 2.395894 10.876206 -0.162735 1.348687 0.001119 -0.002915 162982.000000 1 0 0
-3.027363 8.255353 -11.445106 14.432818 -1.219309 2.486500 0.004430 -0.004643 -188065.000000 1 0 0
-1.283363 -5.159247 -6.902106 8.712285 1.326994 2.485246 -0.002923 -0.001873 -274014.000000 1 0 0
12.783937 -0.565547 6.532694 14.367497 -0.044210 1.098777 0.004477 0.000670 3168110.000000 1 0 0
5.823937 -13.322147 3.762894 15.018562 -1.158670 1.317548 0.007009 0.002560 470025.000000 1 0 0
-5.598563 3.533353 -5.031806 8.315502 -0.562987 2.220702 -0.004358 -0.000359 905028.000000 1 0 0
-4.339163 8.082853 3.322694 9.757108 -1.078116 1.223304 -0.002469 0.002758 -108694.000000 1 0 0
14.001237 6.147253 -3.945206 15.792024 0.413711 1.823293 0.011992 0.003922 1616250.000000 1 0 0
-6.747963 -8.471247 5.306494 12.060510 0.898149 1.115210 0.010159 -0.003235 411101.000000 1 0 0
1.715837 11.396053 2.715194 11.840034 1.421355 1.339414 -0.000469 0.003216 1067120.000000 1 0 0
-7.367363 7.288853 6.012294 11.981365 -0.780041 1.045114 0.002078 -0.003295 -491333.000000 1 0 0
-17.364763 -3.959447 5.245194 18.566752 0.224183 1.284392 0.004117 -0.004123 -1842240.000000 1 0 0
7.430737 -13.097047 -8.606206 17.344027 -1.054723 2.090019 0.019938 0.000248 -1301520.000000 1 0 0
-2.260463 12.775853 -2.803506 13.273725 -1.395676 1.783606 0.001543 0.004612 1965840.000000 1 0 0
-5.480863 14.017553 -5.797506 16.128941 -1.198073 1.938472 0.004326 0.001800 3346530.000000 1 0 0
-5.585263 2.415053 7.377894 9.563523 -0.408120 0.689661 0.002196 -0.000760 2550200.000000 1 0 0
-7.333463 5.095053 1.502394 9.055188 -0.607206 1.404110 0.002432 -0.001164 2570270.000000 1 0 0
10.788237 -5.689447 -5.048606 13.200162 -0.485307 1.963260 0.021552 -0.006334 2962550.000000 1 0 0
-9.550963 -0.648347 6.813394 11.750046 0.067779 0.952238 0.000887 -0.003108 -416072.000000 1 0 0
-11.289263 -4.571147 -2.538806 12.441398 0.384733 1.776301 0.003996 -0.002728 1052970.000000 1 0 0
6.429237 -4.340047 13.566494 15.627567 -0.593783 0.519408 -0.006557 -0.002903 -1795060.000000 1 0 0
0.171437 10.372153 -11.641406 15.592732 1.554269 2.413721 0.010553 -0.003764 -1574540.000000 1 0 0
-11.858763 -3.155347 1.455094 12.357337 0.260052 1.452771 -0.000715 -0.004174 2550780.000000 1 0 0
5.237537 5.921953 5.487894 9.623840 0.846652 0.963999 0.000158 0.004173 -4100350.000000 1 0 0
-7.176763 -0.058847 8.077694 10.805486 0.008199 0.726423 0.000448 -0.002070 48591.800000 1 0 0
1.789437 2.069253 9.605894 9.987847 0.857787 0.277446 -0.001497 0.000088 3216060.000000 1 0 0
10.569037 -4.921047 -2.071106 11.841061 -0.435759 1.746610 0.011130 -0.004064 1815490.000000 1 0 0
-9.589963 -2.388547 -1.667106 10.022564 0.244101 1.737908 0.003078 -0.002693 123737.000000 1 0 0
-2.017963 -5.161247 -9.917306 11.360616 1.198087 2.632024 0.004762 -0.002111 36224.200000 1 0 0
7.736337 -1.621147 6.549594 10.265291 -0.206561 0.878855 -0.000874 0.000620 600353.000000 1 0 0
1.449937 -11.795147 -2.629106 12.171278 -1.448483 1.788521 0.004269 -0.001596 -3667190.000000 1 0 0
-0.739163 -1.488747 4.844594 5.121798 1.109952 0.330508 0.005643 -0.001064 1838930.000000 1 0 0
7.612937 1.553053 9.990994 12.656569 0.201241 0.660978 -0.003596 0.001481 129922.000000 1 0 0
-3.815663 10.717953 -7.995806 13.905637 -1.228780 2.183406 0.002223 -0.001279 2256450.000000 1 0 0
-9.473463 12.656453 6.335294 17.031391 -0.928250 1.189658 -0.002138 -0.002825 1695890.000000 1 0 0
-2.630863 -2.354447 -11.019206 11.570988 0.730009 2.831526 0.008612 -0.006041 -1415980.000000 1 0 0
1.197937 -11.996447 11.040994 16.347884 -1.471269 0.829320 -0.000748 -0.002122 1594860.000000 1 0 0
1.420337 3.386253 -2.048106 4.204618 1.173643 2.079573 0.002407 -0.000420 2424370.000000 1 0 0
-1.859063 -9.324547 -12.109306 15.396057 1.374004 2.475950 -0.003550 0.005247 1466340.000000 1 0 0
1.263437 -2.751347 1.656794 3.451253 -1.140313 1.070078 0.006619 -0.002468 3639840.000000 1 0 0
-1.053663 -2.230247 -6.655506 7.097885 1.129437 2.786674 0.001141 -0.005719 -1349280.000000 1 0 0
1.827137 5.880653 4.082194 7.388154 1.269549 0.985397 -0.005562 0.006308 -1292830.000000 1 0 0
-10.929563 8.556453 3.640594 14.349988 -0.664210 1.314293 0.001962 -0.007304 2311670.000000 1 0 0
-16.414063 -1.429947 4.040894 16.964523 0.086898 1.330288 0.004767 -0.001496 -298844.000000 1 0 0
-12.240363 0.325053 6.838794 14.025022 -0.026550 1.061442 0.003884 -0.003737 476470.000000 1 0 0
-5.063263 3.087653 4.653094 7.538005 -0.547605 0.905510 0.000644 -0.000736 476625.000000 1 0 0
5.178037 -6.017647 3.846594 8.821588 -0.860252 1.119599 -0.003358 -0.001840 718195.000000 1 0 0
9.967137 3.404353 6.298094 12.271896 0.329134 1.031872 -0.002656 0.003144 610839.000000 1 0 0
-12.198063 5.836553 3.121594 13.878128 -0.446285 1.343926 0.006039 -0.006933 958906.000000 1 0 0
-4.871063 12.273753 -1.317906 13.270613 -1.192993 1.670270 -0.001884 0.005960 1070850.000000 1 0 0
-1.704663 -12.255147 10.312594 16.107268 1.432585 0.875979 -0.005927 -0.002010 300952.000000 1 0 0
5.209537 6.279753 13.897394 16.115587 0.878279 0.530889 0.001836 0.006167 316679.000000 1 0 0
13.006237 -3.672247 -5.933306 14.759801 -0.275182 1.984487 0.016592 -0.001956 1883040.000000 1 0 0
3.537937 -2.556447 6.407894 7.753291 -0.625721 0.597981 -0.003378 0.001644 1153240.000000 1 0 0
7.202037 -11.847747 -0.772406 13.886506 -1.024601 1.626448 0.003626 0.001186 -1293430.000000 1 0 0
-6.011763 -6.495547 -4.083906 9.747395 0.824059 2.003112 0.006182 -0.003363 -608725.000000 1 0 0
0.280737 -8.965047 5.035094 10.286061 -1.539492 1.059273 0.001099 -0.001339 954923.000000 1 0 0
-10.227963 2.543653 -0.388806 10.546685 -0.243751 1.607670 -0.001890 -0.000056 -715738.000000 1 0 0
-1.857963 8.962153 -0.362106 9.159877 -1.366380 1.610338 0.003049 0.003169 972839.000000 1 0 0
-3.532963 2.345353 -6.637106 7.876147 -0.586049 2.573046 0.002837 -0.004717 -345045.000000 1 0 0
-12.684863 3.087953 6.415794 14.546602 -0.238791 1.114027 0.004480 -0.006766 1158740.000000 1 0 0
11.360937 1.601453 8.042494 14.011326 0.140039 0.959415 0.004591 0.000226 -1995860.000000 1 0 0
6.107137 2.572753 -3.192306 7.355746 0.398707 2.019711 0.000661 0.000370 1114850.000000 1 0 0
10.487937 -2.558547 6.332594 12.515779 -0.239278 1.040292 0.002259 -0.002991 2880920.000000 1 0 0
-0.896163 11.034953 4.124594 11.814634 -1.489763 1.214176 0.000770 0.007237 1493520.000000 1 0 0
-1.675163 -12.194447 7.375694 14.349619 1.434280 1.030956 -0.002212 0.002844 314493.000000 1 0 0
8.012337 8.706853 -7.880706 14.216623 0.826914 2.158355 -0.002976 -0.001941 1329680.000000 1 0 0
-4.743463 -5.914147 -8.759606 11.584829 0.894804 2.428171 0.003369 -0.002219 481463.000000 1 0 0
-8.469163 -5.326047 -11.668006 15.369966 0.561381 2.432792 0.002651 0.002173 920173.000000 1 0 0
6.032537 -0.610847 -9.961006 11.661316 -0.100915 2.594792 0.002814 0.001814 428365.000000 1 0 0
-11.126463 -5.495947 -5.330806 13.506336 0.458798 1.976526 0.002902 -0.005176 575121.000000 1 0 0
3.932237 8.880653 -2.696906 10.079772 1.153957 1.841652 0.003730 0.000600 24721.700000 1 0 0
11.758937 -10.426047 -4.020106 16.221476 -0.725390 1.821232 0.021063 -0.002808 829982.000000 1 0 0
3.909137 -11.300647 3.983594 12.603769 -1.237760 1.249219 -0.000119 0.000297 126778.000000 1 0 0
-0.978563 0.823953 3.215094 3.460248 -0.699833 0.378686 0.003718 -0.001345 -986057.000000 1 0 0
-10.562563 -5.046947 4.502294 12.542331 0.445742 1.203634 0.002680 -0.003061 3240200.000000 1 0 0
4.475837 -8.712247 2.766394 10.177882 -1.096217 1.295529 -0.003520 -0.000650 4184850.000000 1 0 0
-3.740963 -5.622347 2.622494 7.244519 0.983689 1.200387 0.005801 -0.002621 1226080.000000 1 0 0
10.032937 5.125753 12.327394 16.700234 0.472324 0.740462 0.004955 0.005589 291149.000000 1 0 0
1.566137 -12.330547 -5.319806 13.520189 -1.444460 1.975201 0.003816 -0.003574 585401.000000 1 0 0
9.878537 -10.739947 -1.768306 14.698940 -0.827152 1.691390 0.016066 -0.004189 1736940.000000 1 0 0
9.622837 -4.485547 -9.227606 14.066550 -0.436191 2.286298 0.017136 -0.001446 1781600.000000 1 0 0
-7.469663 -3.062347 -13.123106 15.407458 0.389073 2.590088 -0.001356 0.000906 1312950.000000 1 0 0
0.440337 6.221953 -2.491606 6.716748 1.500143 1.950833 0.004153 0.000800 3203260.000000 1 0 0
-6.020063 -9.470247 0.987594 11.265082 1.004553 1.483015 0.006210 -0.000660 -443779.000000 1 0 0
-9.065163 -4.120547 0.665394 9.979922 0.426629 1.504074 0.000690 -0.003559 4953150.000000 1 0 0
1.852737 3.796653 12.047094 12.766349 1.116801 0.337275 -0.002516 0.001674 897434.000000 1 0 0
6.707037 4.296953 9.593694 12.469447 0.569784 0.692933 -0.001390 0.002839 1296680.000000 1 0 0
-8.327463 9.880153 -3.639406 13.424208 -0.870469 1.845340 -0.000921 0.001002 2533520.000000 1 0 0
16.419737 2.232753 -5.956306 17.608820 0.135151 1.915860 0.014475 0.003860 -1930300.000000 1 0 0
-10.931163 2.595253 -5.157406 12.362221 -0.233102 2.001149 0.001734 0.001987 286492.000000 1 0 0
-13.688963 3.941653 1.450394 14.318798 -0.280360 1.469329 0.004069 -0.002580 -105558.000000 1 0 0
-17.599663 10.457453 3.258194 20.729744 -0.536133 1.412967 0.041845 -0.005397 -1324050.000000 1 0 0
-14.302163 2.795253 -1.148406 14.617939 -0.193010 1.649439 0.001155 0.000107 1407570.000000 1 0 0
-14.393563 5.105453 5.129894 16.110746 -0.340859 1.246740 0.003772 -0.004184 1711990.000000 1 0 0
-17.454363 7.509253 3.028394 19.240968 -0.406286 1.412746 0.017781 -0.005055 -1713730.000000 1 0 0
-15.133463 12.777953 -3.349906 20.087799 -0.701205 1.738342 0.040903 -0.003096 -1696810.000000 1 0 0
-8.502763 12.536953 -9.535806 17.899826 -0.974841 2.132622 -0.006253 -0.007281 -1637630.000000 1 0 0
-12.390463 8.759353 -9.859106 18.095630 -0.615371 2.146987 0.000584 0.000628 -1284540.000000 1 0 0
-13.763263 -3.577747 -12.209706 18.743122 0.254320 2.280255 0.001540 0.003088 -1458490.000000 1 0 0
-14.731063 5.736053 -7.621006 17.549537 -0.371322 2.020009 0.012544 0.008201 527978.000000 1 0 0
-10.847663 13.551153 -8.293006 19.237451 -0.895752 2.016493 -0.003361 -0.009609 950877.000000 1 0 0
-10.839963 13.506353 3.855094 17.742270 -0.894483 1.351766 0.008157 -0.007213 -720051.000000 1 0 0
-15.215663 3.282253 3.011194 15.854239 -0.212460 1.379706 0.002816 -0.002576 333795.000000 1 0 0
-11.112063 9.415453 -12.428906 19.146969 -0.702935 2.277239 -0.009745 -0.004475 -1532130.000000 1 0 0
-12.977563 11.565953 -9.189406 19.663001 -0.727947 2.057082 -0.000777 -0.010830 -107403.000000 1 0 0
-8.838963 14.614553 -3.613906 17.457742 -1.026851 1.779313 0.008810 -0.008113 1228100.000000 1 0 0
-16.603163 8.308353 -4.172606 19.029041 -0.463974 1.791868 0.021198 0.005641 -779946.000000 1 0 0
-16.866463 6.727853 0.208494 18.159985 -0.379549 1.559315 0.013277 0.001149 208105.000000 1 0 0
-10.493663 2.732353 -12.540706 16.578662 -0.254725 2.428644 -0.001375 -0.003252 -716921.000000 1 0 0
-16.894963 0.938153 2.397294 17.089966 -0.055472 1.430057 0.005453 -0.006640 229027.000000 1 0 0
-12.545063 1.124953 -6.989606 14.404816 -0.089434 2.077419 0.001105 -0.000996 533424.000000 1 0 0
-12.248363 8.934953 -5.488606 16.123914 -0.630239 1.918140 0.005304 0.000397 -1578300.000000 1 0 0
-9.656163 13.897153 1.165194 16.962607 -0.963548 1.502050 0.019780 -0.012237 1276520.000000 1 0 0
-12.206963 11.087953 2.755594 16.719628 -0.737398 1.405229 0.008479 -0.004885 1746220.000000 1 0 0
-12.516563 6.864453 -3.633306 14.730444 -0.501637 1.820021 0.001502 0.004000 782230.000000 1 0 0
-15.954763 3.535953 -9.206906 18.756987 -0.218099 2.083864 0.024700 -0.003672 -1754450.000000 1 0 0
-15.015963 5.827153 -4.730806 16.787358 -0.370174 1.856474 0.012348 0.008049 1288460.000000 1 0 0
-17.865063 5.431253 7.454994 20.105619 -0.295137 1.190935 0.013771 -0.002937 45083.400000 1 0 0
-15.848563 10.192153 -2.045806 18.953687 -0.571507 1.678944 0.031867 0.001657 -1486170.000000 1 0 0
-8.783563 9.987853 -8.335106 15.696566 -0.849466 2.130594 -0.008533 -0.002518 861604.000000 1 0 0
-16.932663 4.212753 -1.323406 17.498965 -0.243844 1.646496 0.002960 0.002626 -1676140.000000 1 0 0
-10.110563 5.386253 -4.599206 12.344550 -0.489492 1.952573 -0.003586 0.003107 -407194.000000 1 0 0
-18.282863 2.902253 6.054994 19.476887 -0.157428 1.254677 0.012664 -0.000191 -1070180.000000 1 0 0
-10.354063 10.178453 -5.736206 15.611265 -0.776846 1.947052 -0.003633 0.002391 -8377.930000 1 0 0
-15.268563 0.448353 -5.846406 16.355748 -0.029356 1.936335 0.001851 0.002659 1809150.000000 1 0 0
-16.316063 -4.131847 -8.887806 19.033633 0.248024 2.056638 -0.002653 -0.009207 -1322000.000000 1 0 0
-9.923863 9.660453 -1.055906 13.889649 -0.771949 1.646891 0.003194 -0.000877 2183770.000000 1 0 0
-17.344963 -2.974847 -3.185206 17.884155 0.169858 1.749854 0.001474 -0.003163 12578.700000 1 0 0
-11.952663 4.939853 -11.509706 17.313048 -0.391906 2.298022 -0.001198 0.000405 -360917.000000 1 0 0
-16.265463 7.189353 5.779694 18.699116 -0.416182 1.256561 0.012273 -0.005288 1096670.000000 1 0 0
-12.065463 5.933753 -8.771306 16.053680 -0.457063 2.148825 0.002271 0.001749 690230.000000 1 0 0
-14.499363 8.467853 -0.113906 16.791338 -0.528583 1.577580 0.018417 -0.003563 2267800.000000 1 0 0
-15.003263 11.860253 3.825194 19.503734 -0.668928 1.373390 0.017893 -0.008333 1309480.000000 1 0 0
-17.295163 4.187553 -4.198106 18.283390 -0.237551 1.802476 0.014008 0.004662 511214.000000 1 0 0
-13.960263 13.430453 -0.664106 19.383164 -0.766058 1.605065 0.030755 -0.006403 19152.500000 1 0 0
-10.200963 6.788053 -13.148906 17.973065 -0.587148 2.391447 -0.010219 -0.004414 179181.000000 1 0 0
-15.787763 -1.171047 -8.334206 17.890886 0.074039 2.055375 0.007655 -0.006670 1001790.000000 1 0 0
-11.565563 11.891653 -0.092806 16.588619 -0.799299 1.576391 0.020224 -0.008893 923303.000000 1 0 0
-11.889063 7.416653 -0.918006 14.042767 -0.557751 1.636215 0.003898 0.001472 2297870.000000 1 0 0
-11.509363 0.074953 -11.704106 16.415150 -0.006512 2.364573 0.005306 -0.005491 -853332.000000 1 0 0
-18.951263 -1.234647 -4.900206 19.613433 0.065057 1.823311 0.006899 -0.001991 -2216170.000000 1 0 0
-17.906863 1.433153 -5.206706 18.703461 -0.079864 1.852905 0.004091 0.004429 -731890.000000 1 0 0
-13.226363 -0.167147 -9.498906 16.284773 0.012637 2.193582 0.006846 -0.005441 -265509.000000 1 0 0
-6.216463 11.224853 -13.293906 18.476193 -1.065031 2.373901 -0.010983 -0.002665 -1055970.000000 1 0 0
16.402837 5.851653 7.177594 18.836474 0.342672 1.179867 0.018418 0.003120 1318070.000000 1 0 0
14.874437 10.132453 -5.433606 18.799988 0.597996 1.864001 0.027621 0.001776 -134054.000000 1 0 0
2.462737 16.898853 4.386294 17.631673 1.426081 1.319383 0.006879 -0.005758 1726930.000000 1 0 0
-3.912863 18.185053 -5.888806 19.511143 -1.358858 1.877395 0.004681 -0.004183 331319.000000 1 0 0
5.500937 14.496753 5.668994 16.509199 1.208121 1.220279 -0.002909 0.000602 69471.300000 1 0 0
9.836237 5.868053 15.115794 18.965042 0.537897 0.648427 0.013239 0.000652 -2250860.000000 1 0 0
4.742837 12.761853 -1.046706 13.654853 1.214973 1.647526 0.004047 -0.002894 858621.000000 1 0 0
3.606737 13.824753 13.013394 19.325651 1.315595 0.832033 -0.000863 0.001756 529999.000000 1 0 0
-0.696863 12.363353 9.296394 15.484220 -1.514491 0.926822 -0.003652 0.003791 393449.000000 1 0 0
-7.712263 13.976753 8.384194 18.031177 -1.066578 1.087181 0.005408 -0.005552 1211960.000000 1 0 0
11.440137 12.882653 -4.211706 17.736346 0.844636 1.810548 0.013296 0.000599 1834880.000000 1 0 0
-5.760763 16.182153 0.828494 17.196944 -1.228791 1.522601 0.002463 -0.000179 1924560.000000 1 0 0
3.278337 10.651853 6.901594 13.108832 1.272225 1.016336 -0.007406 0.008301 112072.000000 1 0 0
-1.238263 15.675253 2.501394 15.921804 -1.491965 1.413038 0.000033 0.001941 -1617010.000000 1 0 0
9.996037 8.824753 9.523894 16.386018 0.723245 0.950568 0.006885 0.001345 1450990.000000 1 0 0
7.286237 12.257853 6.197094 15.548254 1.034494 1.160837 -0.001115 0.005561 991273.000000 1 0 0
11.873137 13.940953 -1.634606 18.384600 0.865332 1.659826 0.014250 -0.002924 -258606.000000 1 0 0
9.768037 15.902953 -1.286906 18.707608 1.019981 1.639641 0.010025 -0.003539 560516.000000 1 0 0
10.111937 13.684953 2.859994 17.254240 0.934431 1.404272 0.005094 0.001914 1445880.000000 1 0 0
-5.978063 14.569553 6.272994 16.951684 -1.181432 1.191732 -0.003262 -0.001236 314486.000000 1 0 0
-0.983663 18.186853 -6.307706 19.274760 -1.516762 1.904190 0.016825 0.001185 1271000.000000 1 0 0
-3.441763 15.770053 5.511194 17.056189 -1.355919 1.241772 -0.006925 0.002733 941570.000000 1 0 0
7.062737 12.232053 10.723694 17.734232 1.047163 0.921421 -0.003828 0.001988 3725990.000000 1 0 0
1.493337 14.569553 6.272994 15.932746 1.468656 1.166125 -0.003683 0.001216 896973.000000 1 0 0
17.416737 7.695253 -1.280606 19.084014 0.416040 1.637950 0.011756 0.013103 -1363570.000000 1 0 0
2.125637 16.390953 -3.251606 16.845018 1.441833 1.765046 0.004996 -0.003031 1678620.000000 1 0 0
6.766337 11.085053 0.576794 12.999785 1.022764 1.526412 0.004975 0.000689 738243.000000 1 0 0
12.736537 9.230753 3.219494 16.055881 0.627142 1.368910 0.004003 0.004248 -1912800.000000 1 0 0
6.100237 14.300353 -3.415406 15.917852 1.167589 1.787042 0.001234 -0.001903 666290.000000 1 0 0
3.195337 16.582353 1.555994 16.958943 1.380435 1.478916 0.008549 -0.008406 -730343.000000 1 0 0
2.745537 19.060253 -2.500906 19.418696 1.427735 1.699944 0.003616 -0.003708 -464393.000000 1 0 0
3.939737 11.980753 10.808694 16.609872 1.253096 0.862239 -0.004045 0.000948 932811.000000 1 0 0
8.053837 11.429053 3.343894 14.375993 0.956936 1.336043 -0.000750 0.007356 1392910.000000 1 0 0
0.838037 12.615953 0.200894 12.645353 1.504467 1.554909 0.005504 0.001437 -1540490.000000 1 0 0
12.018337 9.913753 -4.595606 16.243230 0.689732 1.857638 0.007282 0.003674 2669880.000000 1 0 0
-1.137663 16.416653 10.025594 19.269492 -1.501608 1.023614 -0.000896 -0.003024 148292.000000 1 0 0
8.231437 14.841053 -8.023006 18.771842 1.064398 2.012407 0.003919 0.000759 699827.000000 1 0 0
14.537937 7.578953 -1.308006 16.446976 0.480560 1.650409 0.010922 0.008837 -578221.000000 1 0 0
12.561037 8.285353 6.065194 16.223850 0.583100 1.187646 0.006050 0.001285 -3641490.000000 1 0 0
-2.985763 14.218253 10.308394 17.813941 -1.363809 0.953699 -0.000649 -0.003083 1893060.000000 1 0 0
-4.566563 17.077953 -3.158706 17.957935 -1.309514 1.747611 0.007425 -0.007382 -289744.000000 1 0 0
-7.146663 16.382753 -1.823006 17.966434 -1.159452 1.672439 0.010394 -0.007696 13577.600000 1 0 0
8.372137 11.221853 -1.849806 14.122480 0.929824 1.702157 0.005163 -0.001132 -1189870.000000 1 0 0
8.561137 12.938753 -4.154206 16.061190 0.986264 1.832419 0.012080 -0.001546 1711670.000000 1 0 0
2.614937 14.806753 -7.255706 16.695003 1.395994 2.020394 0.004253 -0.001380 -1784340.000000 1 0 0
11.390837 11.357953 9.760194 18.815304 0.783953 1.025423 0.016389 0.000031 -805054.000000 1 0 0
8.700537 15.774753 1.441094 18.072602 1.066765 1.490972 0.005008 0.001620 713207.000000 1 0 0
6.117637 9.985853 7.808094 14.075123 1.021142 0.982741 -0.002506 0.009498 2500650.000000 1 0 0
14.485437 11.322153 2.472194 18.550762 0.663435 1.437132 0.020497 0.004481 1771060.000000 1 0 0
12.145937 12.591153 1.019394 17.524272 0.803394 1.512593 0.010122 0.003472 2917110.000000 1 0 0
5.175737 15.808853 8.237294 18.562357 1.254400 1.111003 0.000059 -0.003561 -348876.000000 1 0 0
11.330937 14.921053 5.149094 19.430418 0.921311 1.302591 0.011201 0.001158 -252574.000000 1 0 0
6.047037 16.932753 1.761394 18.066192 1.227792 1.473145 -0.003571 -0.007743 1099100.000000 1 0 0
-0.639063 16.200953 -4.203306 16.749540 -1.531371 1.824458 0.006602 -0.002646 1563670.000000 1 0 0
16.136737 6.334253 2.637894 17.534980 0.374056 1.419787 0.007731 0.003548 1440340.000000 1 0 0
7.835437 16.742953 -3.247706 18.768808 1.133088 1.744709 0.003479 -0.005078 -591343.000000 1 0 0
14.896237 8.178053 7.490094 18.570943 0.502076 1.155651 0.016831 0.001584 -925128.000000 1 0 0
2.100437 12.952253 8.715094 15.752002 1.410028 0.984513 -0.005197 0.003812 718478.000000 1 0 0
16.044937 7.353953 -5.803206 18.579500 0.429764 1.888456 0.015874 0.008497 -1811950.000000 1 0 0
-2.978463 17.171353 0.672794 17.440736 -1.399050 1.532211 -0.003931 0.000099 826183.000000 1 0 0
-2.874963 18.628553 4.722294 19.431636 -1.417673 1.325317 -0.010253 -0.001300 17521.600000 1 0 0
-0.878663 19.207553 0.851194 19.246472 -1.525082 1.526556 -0.003172 -0.005337 -228024.000000 1 0 0
7.011237 16.788553 -6.031906 19.167599 1.175193 1.890929 0.003073 0.001367 3077370.000000 1 0 0
11.080237 9.950953 0.764494 14.912330 0.731754 1.519508 -0.002003 0.004019 -2470630.000000 1 0 0
9.113537 8.598453 14.342194 19.044382 0.756325 0.718045 0.007849 0.002873 580877.000000 1 0 0
6.414537 12.413353 -8.359506 16.282474 1.093843 2.109944 0.007962 -0.004122 1650290.000000 1 0 0
6.334137 8.949553 13.316794 17.249719 0.954881 0.688814 0.000867 0.002290 1293230.000000 1 0 0
16.677237 9.361053 2.793094 19.327724 0.511483 1.425776 0.014685 0.003009 -1342850.000000 1 0 0
2.671137 14.810953 -0.756306 15.068886 1.392366 1.621007 0.005122 -0.002949 194438.000000 1 0 0
9.066937 12.813153 8.422094 17.813419 0.954970 1.078336 0.003218 0.000545 1189640.000000 1 0 0
7.265637 9.352853 10.563494 15.869869 0.910340 0.842456 -0.000099 0.003786 2192060.000000 1 0 0
4.346637 15.866553 -5.238706 17.265133 1.303407 1.879083 0.005649 -0.000356 1403220.000000 1 0 0
0.316937 16.283553 -8.082506 18.181899 1.551335 2.031452 0.008412 -0.001061 461049.000000 1 0 0
-2.380863 15.729053 -1.982406 16.031268 -1.420570 1.694772 -0.001701 0.002237 -517937.000000 1 0 0
13.288737 10.521153 7.652094 18.596767 0.669681 1.146725 0.018945 -0.000584 965396.000000 1 0 0
-0.932063 15.843653 7.123494 17.396386 -1.512035 1.148911 -0.000004 -0.003869 1627390.000000 1 0 0
13.241037 13.281653 6.653294 19.899590 0.786930 1.229888 0.021986 0.001145 -583901.000000 1 0 0
5.456437 17.405353 4.591494 18.809595 1.267008 1.324201 0.003673 -0.007441 552550.000000 1 0 0
10.755537 9.504653 -1.937106 14.483521 0.723735 1.704944 -0.001835 0.003125 1131010.000000 1 0 0
3.288037 12.719653 4.800994 13.987506 1.317833 1.220438 -0.004145 0.006595 946321.000000 1 0 0
-0.141263 18.090353 3.628694 18.451240 -1.562988 1.372842 -0.001744 -0.007002 3245990.000000 1 0 0
-7.654063 16.061753 -5.867506 18.734787 -1.126092 1.889344 0.009367 -0.004784 424311.000000 1 0 0
-12.474863 -8.974247 8.342494 17.485895 0.623619 1.073446 0.010042 -0.005175 -1065510.000000 1 0 0
-13.273463 -11.617747 6.990494 18.974295 0.718978 1.193488 0.007770 0.001943 -836221.000000 1 0 0
-6.412763 -12.456047 12.167794 18.556180 1.095354 0.855651 0.005285 -0.001109 -876893.000000 1 0 0
-1.930063 -10.676247 14.430694 18.054149 1.391947 0.644666 -0.009885 0.001205 1274140.000000 1 0 0
-8.833963 2.782053 10.937194 14.331815 -0.305094 0.702637 0.003622 -0.004856 1693910.000000 1 0 0
0.598537 10.132253 15.237694 18.308690 1.511792 0.587614 -0.002335 0.000636 -861919.000000 1 0 0
1.085237 -6.853647 16.633694 18.023040 -1.413756 0.395218 -0.004506 -0.005960 1299060.000000 1 0 0
5.895237 2.084153 17.828794 18.893475 0.339818 0.337310 0.000116 -0.002213 1361870.000000 1 0 0
-5.039363 -2.904247 17.610894 18.546520 0.522820 0.318991 0.002022 -0.007677 1089380.000000 1 0 0
-4.324263 8.129653 13.096894 16.009970 -1.081946 0.612791 -0.004811 -0.001714 815845.000000 1 0 0
0.150737 -4.939647 18.630394 19.274709 -1.540290 0.259291 -0.003704 -0.006547 709523.000000 1 0 0
-11.656163 2.156653 11.214194 16.317948 -0.182954 0.813126 0.007883 -0.001831 67954.400000 1 0 0
-3.390563 -6.195447 14.407994 16.045864 1.070054 0.455762 -0.001454 -0.000947 991879.000000 1 0 0
-7.342163 -2.312747 14.565494 16.474519 0.305157 0.486184 -0.002936 0.002267 521936.000000 1 0 0
-6.150963 -1.098447 10.559194 12.269373 0.176718 0.534322 0.000638 -0.001367 216553.000000 1 0 0
-3.962463 2.419253 11.168294 12.094821 -0.548136 0.393964 -0.002830 0.004312 346478.000000 1 0 0
-6.471163 6.234453 13.675794 16.363731 -0.766770 0.581321 -0.005158 -0.003594 1430450.000000 1 0 0
-9.031363 5.395753 12.474594 16.318553 -0.538540 0.700620 0.001203 -0.009046 651285.000000 1 0 0
-12.050563 -2.084147 15.840294 20.011863 0.171256 0.657463 -0.002262 0.004911 2149960.000000 1 0 0
-3.535063 -7.668447 17.063594 19.038592 1.138842 0.459525 -0.006712 0.002667 -1228590.000000 1 0 0
-0.561163 -5.503947 14.390694 15.417535 1.469191 0.367028 -0.003288 0.000043 1034470.000000 1 0 0
-14.109863 -2.219947 13.764394 19.836203 0.156054 0.803901 0.008133 0.005803 -943787.000000 1 0 0
-6.469963 1.475053 12.187794 13.877266 -0.224154 0.498593 -0.000565 0.000016 2099000.000000 1 0 0
2.145137 -2.335147 14.551094 14.892577 -0.827783 0.214560 -0.007990 0.000991 1038820.000000 1 0 0
-12.568263 4.119053 9.122994 16.067260 -0.316703 0.966965 0.005409 -0.004606 -313695.000000 1 0 0
-9.003763 -3.040247 12.588394 15.772714 0.325643 0.646641 -0.002254 0.004891 97518.100000 1 0 0
-7.051463 -7.233647 15.357094 18.381760 0.798151 0.581840 0.004527 -0.000536 -2735240.000000 1 0 0
-3.231463 6.025453 19.519994 20.682809 -1.078531 0.336916 0.009297 -0.006755 643156.000000 1 0 0
0.652637 5.391353 16.234094 17.118365 1.450330 0.322823 0.003505 -0.000251 1764530.000000 1 0 0
3.343337 1.481553 16.711294 17.106731 0.417131 0.215432 -0.008542 -0.002042 -11158.400000 1 0 0
-11.713663 11.489153 7.742094 18.142507 -0.775722 1.129914 0.004231 -0.010012 -1158100.000000 1 0 0
0.646637 -9.554747 15.379094 18.117060 -1.503222 0.556946 -0.015256 0.001516 623612.000000 1 0 0
-2.443163 -3.690947 18.883794 19.395613 0.986077 0.230240 -0.001741 -0.014628 1997330.000000 1 0 0
-12.836063 2.454353 13.753394 18.972196 -0.188927 0.759873 0.003865 -0.007589 -616159.000000 1 0 0
-5.281963 -0.538147 15.779894 16.649138 0.101533 0.324562 0.001143 0.003767 1619210.000000 1 0 0
-4.421763 -5.993447 11.670994 13.845053 0.935171 0.568012 0.000631 0.000166 572731.000000 1 0 0
2.389937 1.823853 13.966594 14.286496 0.651857 0.212019 -0.003526 0.001067 -79590.400000 1 0 0
0.084237 3.354953 14.254794 14.644520 1.545693 0.231220 0.003408 -0.000292 389904.000000 1 0 0
-13.059763 7.131453 12.139794 19.203896 -0.499816 0.886468 0.008459 -0.013435 686496.000000 1 0 0
0.844137 1.570253 18.287494 18.374185 1.077539 0.097179 -0.000082 -0.000752 1191660.000000 1 0 0
-2.043163 6.337453 12.575194 14.229312 -1.258922 0.486974 -0.005364 0.000731 468377.000000 1 0 0
-13.474863 -2.550347 10.907794 17.523018 0.187054 0.898884 0.006143 0.003777 -472579.000000 1 0 0
-2.609763 3.571253 13.611994 14.312620 -0.939717 0.314186 -0.001493 0.003679 -1034630.000000 1 0 0
3.506537 6.106553 16.388194 17.837003 1.049545 0.405830 -0.001476 0.002690 -40888.600000 1 0 0
-3.713963 12.281453 12.406394 17.847863 -1.277135 0.802211 0.001115 -0.006383 946025.000000 1 0 0
3.653237 -1.529147 16.989594 17.445077 -0.396414 0.229015 -0.004641 -0.002032 -345994.000000 1 0 0
-15.826563 0.662953 9.190694 18.313614 -0.041864 1.045060 0.011297 0.004237 -346385.000000 1 0 0
-4.679663 4.637253 15.359694 16.712976 -0.780846 0.405189 0.002452 -0.002126 -682507.000000 1 0 0
-8.007963 -8.200547 10.452994 15.512624 0.797279 0.831406 0.006604 -0.004615 2385260.000000 1 0 0
-2.515663 -0.416447 14.685994 14.905717 0.164054 0.171914 -0.000728 0.003102 1679390.000000 1 0 0
-1.880363 0.940553 17.307394 17.434629 -0.463806 0.120886 -0.001338 -0.003299 1239070.000000 1 0 0
-0.731163 -2.548047 14.291494 14.535265 1.291354 0.183402 -0.004326 0.000648 542064.000000 1 0 0
5.222737 -8.350347 16.361194 19.096961 -1.011872 0.541875 0.006028 -0.007010 747624.000000 1 0 0
-4.483263 9.910353 10.664194 15.232852 -1.145963 0.795289 -0.001665 -0.002244 -805421.000000 1 0 0
-6.161663 2.088553 15.232394 16.563634 -0.326805 0.403662 0.001165 0.000364 1213050.000000 1 0 0
-5.015563 6.893453 17.398894 19.375167 -0.941797 0.455594 0.005986 -0.000211 -241120.000000 1 0 0
-4.076863 9.167553 15.878394 18.782658 -1.152354 0.563529 -0.005518 0.002132 -93337.200000 1 0 0
-4.444263 -9.893647 18.688494 21.607765 1.148605 0.525851 -0.003941 0.008210 -1245160.000000 1 0 0
-6.822363 -4.133647 11.063794 13.639619 0.544744 0.624678 -0.000241 0.000697 545123.000000 1 0 0
-2.359763 -0.884447 19.602494 19.763818 0.358598 0.127857 -0.003157 -0.005855 13897.500000 1 0 0
-5.594063 -4.537747 15.298294 16.909242 0.681516 0.440052 -0.002678 0.000971 713008.000000 1 0 0
-12.931863 0.113953 9.763594 16.204130 -0.008812 0.924120 0.004839 0.002502 1275090.000000 1 0 0
-14.305063 9.050253 10.494194 19.916577 -0.564089 1.015838 -0.005311 -0.006407 16659.200000 1 0 0
-8.276963 10.289753 12.841594 18.419926 -0.893385 0.799371 -0.003107 -0.018666 -1532750.000000 1 0 0
-10.479263 7.168653 10.756394 16.640449 -0.599961 0.867939 0.005852 -0.007602 -662425.000000 1 0 0
-9.785963 -6.513847 14.777794 18.883285 0.587286 0.671987 0.005005 -0.000122 -809783.000000 1 0 0
-0.804663 -13.382147 14.374994 19.656291 1.510739 0.750544 -0.015959 -0.005476 -15590.900000 1 0 0
3.891637 -5.773847 16.934094 18.309715 -0.977726 0.390105 0.002630 -0.004541 1445330.000000 1 0 0
-7.267863 9.307053 10.245594 15.633786 -0.907812 0.856151 -0.005338 -0.004944 1229360.000000 1 0 0
-10.264563 -6.715147 11.805194 17.024014 0.579327 0.804539 0.003866 -0.004771 3795740.000000 1 0 0
-10.850063 -3.907947 10.717894 15.743861 0.345713 0.821988 0.000025 0.004153 1504540.000000 1 0 0
-10.131263 -10.161847 9.808994 17.381656 0.786905 0.971175 0.017831 -0.011340 676288.000000 1 0 0
-9.779463 -3.616747 15.257994 18.480398 0.354231 0.599476 0.002178 -0.001156 663053.000000 1 0 0
5.593037 -3.385847 16.125494 17.400505 -0.544357 0.385194 -0.003716 -0.000844 -586913.000000 1 0 0
-11.185463 0.612153 15.181094 18.866768 -0.054673 0.635715 0.004881 -0.007983 371638.000000 1 0 0
-3.276063 3.132353 18.831294 19.369095 -0.762977 0.236201 0.006563 -0.006744 172299.000000 1 0 0
0.501437 7.363453 14.065994 15.884712 1.502803 0.483216 0.004033 0.000256 1068610.000000 1 0 0
-13.085063 -7.540647 12.285794 19.468461 0.522795 0.887876 -0.002407 -0.002849 453186.000000 1 0 0
-1.455963 -1.098447 12.098694 12.235391 0.646341 0.149621 -0.004625 0.002142 1084830.000000 1 0 0
1.978537 -4.966847 13.110094 14.158345 -1.191714 0.387220 -0.006379 -0.002048 1408430.000000 1 0 0
-14.652463 -3.986147 8.694494 17.497950 0.265618 1.050789 0.001261 -0.001599 -659492.000000 1 0 0
7.971637 0.731853 16.204194 18.073696 0.091551 0.458850 0.003819 -0.006100 2190590.000000 1 0 0
-1.286163 11.220553 13.413294 17.534865 -1.456669 0.699833 -0.008900 -0.002340 -191022.000000 1 0 0
2.824937 -12.198247 -13.767006 18.609351 -1.343223 2.403554 0.000979 0.005961 -362070.000000 1 0 0
0.736137 -10.607247 -14.069106 17.635060 -1.501508 2.494420 -0.006296 0.007135 -2760800.000000 1 0 0
3.171537 -14.365147 -12.406506 19.244154 -1.353502 2.271413 0.003589 0.004014 -1385770.000000 1 0 0
-4.999063 -10.286047 -16.094406 19.743943 1.118408 2.523796 0.003863 -0.003858 -224652.000000 1 0 0
-1.134463 -12.184347 -15.062706 19.406969 1.477956 2.459332 -0.005537 0.004187 -424985.000000 1 0 0
5.650837 -15.004547 -12.080806 20.075215 -1.210616 2.216521 0.011002 0.006142 740750.000000 1 0 0
1.891237 -11.939847 -16.103906 20.136348 -1.413704 2.497664 -0.006839 0.006208 -464550.000000 1 0 0
1.245237 -14.275647 -14.122506 20.119391 -1.483788 2.348907 0.006378 0.010339 18857.400000 1 0 0
-1.189163 -10.615047 -15.935806 19.184453 1.459235 2.551093 -0.007349 -0.000949 -432583.000000 1 0 0
-6.247363 -5.647147 -15.322006 17.483812 0.734979 2.639036 0.011710 0.005999 270478.000000 1 0 0
-6.212763 -7.732247 -17.032106 19.709863 0.893933 2.614238 0.005449 0.018167 399367.000000 1 0 0
4.938537 -12.564047 -11.474306 17.717339 -1.196279 2.275268 0.006458 0.005109 -31960.100000 1 0 0
-1.781863 -15.503047 -13.283206 20.493000 1.456362 2.275992 0.007052 0.003341 -35520.100000 1 0 0
15.774337 -7.385547 -8.798306 19.513744 -0.437886 2.038544 -0.011222 0.015868 176630.000000 1 0 0
19.351337 -3.470247 -4.101406 20.083286 -0.177442 1.776463 0.002576 -0.002572 630449.000000 1 0 0
15.002637 -11.658647 -8.819006 20.947029 -0.660625 2.005360 0.011041 -0.000549 -144754.000000 1 0 0
18.207837 -3.428147 -6.440606 19.615273 -0.186100 1.905349 0.040758 0.006195 600550.000000 1 0 0
9.831537 -9.293547 -15.369906 20.475916 -0.757275 2.419817 0.042318 -0.008617 -24680.100000 1 0 0
1.347637 1.929853 -15.254006 15.434545 0.961205 2.988492 0.014260 -0.003156 503007.000000 1 0 0
4.821537 -4.365347 -13.943806 15.386137 -0.735782 2.705142 0.005159 0.000773 106029.000000 1 0 0
13.222037 -5.476547 -8.674606 16.735101 -0.392686 2.115714 0.023100 0.003250 -729535.000000 1 0 0
2.947137 0.897153 -12.347606 12.726110 0.295503 2.897089 0.005160 -0.001805 -357961.000000 1 0 0
0.575737 6.494153 -13.077906 14.612910 1.482373 2.679128 0.011790 -0.001241 141882.000000 1 0 0
3.076337 -0.936847 -16.860806 17.164741 -0.295610 2.953128 0.018654 -0.002503 -570705.000000 1 0 0
13.128737 4.292553 -11.300706 17.846448 0.316002 2.256501 0.004693 -0.006475 1002600.000000 1 0 0
-4.190163 9.386753 -16.406306 19.360669 -1.150948 2.581873 0.006458 -0.009096 54385.100000 1 0 0
-0.249463 -5.044547 -17.706106 18.412384 1.521385 2.863720 0.006408 -0.006768 316404.000000 1 0 0
-0.568063 -8.503447 -17.545706 19.505976 1.504092 2.689430 -0.004371 -0.002020 -2379080.000000 1 0 0
5.419137 -10.253947 -12.274806 16.887313 -1.084615 2.384543 0.002635 0.003372 597990.000000 1 0 0
1.579137 -9.753047 -18.008706 20.540913 -1.410277 2.639804 -0.008251 -0.005133 -432561.000000 1 0 0
10.914637 8.661153 -14.442806 20.068371 0.670787 2.374138 0.016758 -0.009916 198650.000000 1 0 0
10.921337 -3.704147 -12.891806 17.297253 -0.326991 2.411795 0.008835 -0.001268 342811.000000 1 0 0
4.903937 7.794153 -12.401806 15.446754 1.009196 2.502898 -0.000197 0.003430 -770161.000000 1 0 0
9.615037 -5.965147 -12.588906 16.926679 -0.555283 2.409432 0.016439 -0.002206 -1190320.000000 1 0 0
-3.367763 0.328253 -15.812906 16.170887 -0.097162 2.930787 0.014901 -0.007899 -1634090.000000 1 0 0
-0.784263 10.867253 -12.767706 16.784713 -1.498754 2.435148 0.010869 -0.007222 11457.600000 1 0 0
6.707737 -5.586347 -12.489706 15.237905 -0.694436 2.531591 0.006516 -0.000685 443828.000000 1 0 0
17.944237 -6.223847 -8.030206 20.620769 -0.333860 1.970802 -0.005028 0.009960 391419.000000 1 0 0
13.063937 5.014553 -13.790906 19.646915 0.366504 2.348910 0.002681 -0.006543 415971.000000 1 0 0
14.156737 0.904353 -11.537006 18.284791 0.063795 2.253589 0.011355 0.002065 -226294.000000 1 0 0
14.987637 6.195053 -11.035506 19.616074 0.391957 2.168293 0.006192 -0.007219 129605.000000 1 0 0
8.256437 1.575053 -11.749606 14.446549 0.188502 2.520625 -0.003435 0.002781 720876.000000 1 0 0
9.919737 1.349353 -8.897806 13.393763 0.135197 2.297386 0.002779 0.001344 544810.000000 1 0 0
-0.082863 -5.748847 -13.124206 14.328325 1.556383 2.728696 0.002986 -0.000334 74108.300000 1 0 0
10.651937 -5.698047 -8.966806 15.044438 -0.491200 2.209333 0.021574 -0.003772 -746336.000000 1 0 0
10.268037 8.607853 -11.203406 17.465510 0.697671 2.267195 0.006077 -0.007017 864076.000000 1 0 0
8.290337 8.163553 -14.698006 18.745791 0.777693 2.471992 0.012627 -0.000069 217096.000000 1 0 0
8.656437 10.598653 -10.649606 17.340112 0.885926 2.232118 0.002170 -0.006832 -1737230.000000 1 0 0
7.151837 1.692153 -17.858806 19.311891 0.232332 2.751193 0.014897 0.010121 -2117830.000000 1 0 0
12.000337 2.780253 -12.951606 17.874059 0.227665 2.381255 0.001146 -0.004227 -1988530.000000 1 0 0
2.655937 -0.820447 -19.472006 19.669422 -0.299611 2.999793 0.025550 -0.006008 -191459.000000 1 0 0
10.277137 -2.332247 -15.712706 18.919515 -0.223156 2.550806 0.009062 0.003230 1291210.000000 1 0 0
8.293637 -0.830247 -13.097006 15.524345 -0.099774 2.574829 0.003947 0.000021 907689.000000 1 0 0
0.544337 4.396953 -14.592106 15.249887 1.447624 2.846814 0.013082 -0.001238 -230007.000000 1 0 0
4.023937 -7.704547 -15.779106 18.014780 -1.089483 2.638090 0.003607 -0.003439 -1586490.000000 1 0 0
11.471137 -5.939647 -14.300406 19.270911 -0.477779 2.406953 0.020935 -0.002896 -459026.000000 1 0 0
-5.871163 4.349153 -16.945206 18.453339 -0.637565 2.734493 0.002410 -0.001511 165650.000000 1 0 0
11.347237 7.727053 -8.964006 16.395748 0.597835 2.149247 0.003736 -0.005054 -1654090.000000 1 0 0
9.555637 6.190853 -13.389706 17.576151 0.574880 2.436901 0.008897 -0.001033 34724.500000 1 0 0
12.034637 0.664853 -10.172306 15.771821 0.055189 2.271777 0.005665 0.002964 -40630.000000 1 0 0
5.536837 -7.429647 -13.778806 16.604569 -0.930351 2.549582 0.004544 0.001874 -800805.000000 1 0 0
8.614537 -10.181147 -10.643606 17.063187 -0.868555 2.244361 0.020353 0.000722 -264417.000000 1 0 0
10.003137 4.986953 -15.947706 19.474645 0.462478 2.530281 0.016626 0.004185 -341329.000000 1 0 0
9.848737 -0.344147 -10.977406 14.751932 -0.034929 2.410033 -0.000409 0.001933 -1040490.000000 1 0 0
-1.693763 5.547053 -14.069306 15.217885 -1.274443 2.750582 0.007229 -0.003157 414306.000000 1 0 0
1.365937 -0.673747 -15.017206 15.094244 -0.458232 3.040517 0.011042 -0.003401 -473795.000000 1 0 0
11.549937 -10.608647 -14.006506 21.026808 -0.742944 2.299799 0.031395 -0.003846 -656703.000000 1 0 0
9.327837 -7.757647 -10.727206 16.194523 -0.693754 2.294810 0.021861 0.000246 -115994.000000 1 0 0
13.999737 -0.968947 -9.768806 17.098569 -0.069102 2.178913 0.008726 0.006593 701377.000000 1 0 0
4.030637 11.132353 -12.115906 16.940204 1.223414 2.367730 0.009445 -0.009001 -1574730.000000 1 0 0
-1.179263 2.990153 -17.133006 17.431913 -1.195142 2.956140 0.012231 -0.003505 705756.000000 1 0 0
5.876437 -0.501547 -17.641506 18.601258 -0.085142 2.818960 0.005063 0.007094 -83587.400000 1 0 0
6.367037 -6.614947 -16.153406 18.580345 -0.804492 2.624745 0.012161 0.002901 98950.100000 1 0 0
-1.776463 -5.083447 -19.818106 20.536664 1.234602 2.876282 0.010090 -0.017386 -573417.000000 1 0 0
-0.091463 -4.224847 -15.271206 15.845108 1.549151 2.871629 0.005849 -0.003764 -158287.000000 1 0 0
0.422237 0.655253 -13.107106 13.130266 0.998377 3.082190 0.009837 -0.004889 736234.000000 1 0 0
15.522137 0.662853 -13.714006 20.723177 0.042678 2.293975 -0.003155 0.003915 673366.000000 1 0 0
-0.163863 7.147053 -16.423906 17.912340 -1.547873 2.731050 0.012795 0.000289 -578053.000000 1 0 0
-5.003963 -0.441347 -18.279206 18.956894 0.087972 2.873399 0.005129 -0.006747 -13460.900000 1 0 0
10.476337 -8.458447 -13.026206 18.734487 -0.679228 2.339642 0.029521 -0.009034 522631.000000 1 0 0
4.298537 8.521753 -17.492206 19.926740 1.103620 2.642100 0.018538 -0.007264 -224051.000000 1 0 0
9.190837 0.423253 -16.848306 19.196772 0.046019 2.641762 0.010017 0.006125 -248389.000000 1 0 0
3.133337 5.058353 -18.553806 19.484570 1.016207 2.831256 0.018480 0.006304 -595314.000000 1 0 0
1.452137 -8.117347 -15.944206 17.950424 -1.393776 2.664286 -0.005260 -0.001451 -623312.000000 1 0 0
4.521737 7.841353 -15.001206 17.520534 1.047721 2.598679 0.006900 0.003096 814482.000000 1 0 0
-5.811263 -0.416647 -15.180106 16.259766 0.071574 2.775126 0.001918 -0.005446 431283.000000 1 0 0
2.846537 3.488853 -13.720406 14.440375 0.886438 2.824487 0.005377 0.002125 -1306840.000000 1 0 0
-2.405663 -10.084747 -18.163706 20.914338 1.336628 2.622926 -0.000241 -0.003420 -155236.000000 1 0 0
6.283637 -9.173947 -15.521806 19.093765 -0.970247 2.519954 0.014090 -0.001856 298025.000000 1 0 0
-1.812363 5.528453 -17.463206 18.406847 -1.254012 2.820003 0.010786 -0.002587 -449122.000000 1 0 0
9.903637 -12.342147 -11.500306 19.561893 -0.894579 2.199248 0.023850 0.005677 -879247.000000 1 0 0
10.831037 3.708453 -9.407906 14.817985 0.329881 2.258673 -0.002590 -0.000996 -1091170.000000 1 0 0
4.785037 -0.442447 -10.960506 11.967666 -0.092202 2.728399 0.005893 -0.002382 639222.000000 1 0 0
6.363637 9.565353 -11.398506 16.183875 0.983754 2.352251 -0.000155 -0.003603 -137364.000000 1 0 0
10.849337 -9.583047 -9.453606 17.289117 -0.723503 2.149328 0.029373 0.002376 -350466.000000 1 0 0
3.209237 -2.433747 -14.606906 15.152031 -0.648828 2.872539 0.010225 -0.001387 -166199.000000 1 0 0
9.207437 -4.520747 -14.622806 17.861705 -0.456413 2.529884 0.014531 -0.005331 -233761.000000 1 0 0
-4.074463 -6.372947 -16.508506 18.158923 1.001953 2.711945 -0.001072 -0.002123 -1976120.000000 1 0 0
5.887737 -7.877347 -11.266506 14.955006 -0.928944 2.423953 0.004229 0.000955 324181.000000 1 0 0
5.309437 6.198253 -16.867806 18.738499 0.862482 2.690953 0.017238 -0.007658 -1155500.000000 1 0 0
9.302837 1.130253 -19.229806 21.391720 0.120903 2.688133 0.030969 -0.003507 377648.000000 1 0 0
13.104537 5.781453 -9.206906 17.027073 0.415495 2.142091 0.004568 -0.004282 631041.000000 1 0 0
-1.712763 -0.801147 -17.359406 17.462084 0.437517 3.033096 0.015747 -0.007073 765067.000000 1 0 0
-0.539363 -0.489847 -19.626606 19.640126 0.737324 3.104486 0.018164 -0.011496 -179030.000000 1 0 0
2.720637 6.613853 -16.522106 18.003470 1.180540 2.733093 0.009144 0.003216 -559947.000000 1 0 0
7.700337 3.751853 -15.560606 17.762434 0.453381 2.638385 0.007618 0.003961 -254180.000000 1 0 0
2.995137 -9.908947 -14.824106 18.080713 -1.277262 2.532007 -0.002230 0.000995 -11508.300000 1 0 0
9.053137 -10.642147 -13.263106 19.264593 -0.865903 2.330175 0.032804 -0.002789 157746.000000 1 0 0
3.823837 0.108753 -14.735806 15.224242 0.028433 2.887601 0.009223 0.000020 -1842690.000000 1 0 0
-1.128563 -2.823747 -18.889206 19.132415 1.190576 2.981975 0.017528 -0.010435 517854.000000 1 0 0
9.090637 10.009053 -13.143706 18.856772 0.833447 2.342041 0.007117 -0.010248 83274.400000 1 0 0
4.538237 2.099253 -10.746706 11.853023 0.433258 2.706103 0.001557 0.003415 61713.500000 1 0 0
-0.498463 7.236453 -18.939306 20.280830 -1.502023 2.775834 0.023852 0.000570 -108249.000000 1 0 0
0.835337 -1.698647 -17.590806 17.692361 -1.113757 3.034396 0.022821 -0.012042 -580270.000000 1 0 0
-4.484363 -2.143347 -14.117806 14.967161 0.445861 2.803088 0.007131 -0.007125 -3755010.000000 1 0 0
10.089437 6.074053 -10.470106 15.757982 0.541904 2.297530 0.002735 0.001148 397473.000000 1 0 0
8.072237 5.192753 -17.701106 20.135910 0.571641 2.644728 0.012866 0.001359 77392.500000 1 0 0
11.482237 0.259253 -13.656506 17.844023 0.022575 2.442345 0.005757 0.005749 583295.000000 1 0 0
6.842537 12.051453 -11.887606 18.258506 1.054407 2.279793 0.005502 -0.003972 -411460.000000 1 0 0
-0.835863 0.629053 -15.406606 15.442082 -0.645150 3.073796 0.012309 -0.007222 -1787540.000000 1 0 0
-4.420563 -2.869547 -19.123706 19.836628 0.575768 2.872680 0.006107 0.001044 -178778.000000 1 0 0
5.701937 -12.222047 -13.934006 19.391932 -1.134282 2.372507 0.010039 0.002410 -256047.000000 1 0 0
2.174237 -4.780847 -14.128006 15.072636 -1.143974 2.785678 0.010470 -0.000982 171781.000000 1 0 0
11.749137 2.101953 -15.414406 19.495239 0.177030 2.482708 0.015725 0.001683 440266.000000 1 0 0
9.652437 2.235653 -13.827006 17.010402 0.227602 2.519835 0.007487 0.000097 -1085720.000000 1 0 0
-2.323463 -3.974947 -16.533706 17.162812 1.041832 2.870000 0.001271 -0.004224 -1443260.000000 1 0 0
-2.922263 10.079653 -14.275306 17.717884 -1.288615 2.507653 0.004723 -0.010612 295108.000000 1 0 0
3.503837 5.892553 -13.567206 15.200926 1.034341 2.673710 0.002656 0.000539 -31374.600000 1 0 0
-5.161063 -2.515147 -16.619606 17.583340 0.453461 2.808974 0.006414 -0.002994 598178.000000 1 0 0
-4.331163 6.188153 -13.726506 15.667456 -0.960129 2.638542 0.001837 -0.002758 -303862.000000 1 0 0
5.843937 -1.246147 -14.120906 15.333117 -0.210091 2.741286 0.006145 0.000299 -2278460.000000 1 0 0
6.850237 -3.044847 -12.689906 14.738743 -0.418261 2.608009 0.006566 -0.000432 1771040.000000 1 0 0
2.977337 -3.115347 -18.252106 18.753914 -0.808046 2.909741 0.019933 -0.012006 25480.500000 1 0 0
7.384837 -12.032247 -11.954706 18.499345 -1.020325 2.273421 0.018373 0.002687 -1274900.000000 1 0 0
-6.082463 -5.348847 -17.892406 19.640385 0.721310 2.716501 0.024096 0.004861 301499.000000 1 0 0
0.590637 8.884053 -12.045506 14.978968 1.504411 2.505059 0.009528 -0.001563 382640.000000 1 0 0
0.237637 8.711453 -14.527106 16.940564 1.543524 2.601253 0.009343 -0.003611 151673.000000 1 0 0
7.725637 -2.491147 -15.105706 17.148575 -0.311926 2.648498 0.012485 -0.003573 -619482.000000 1 0 0
14.274237 1.539353 -8.948506 16.917423 0.107426 2.128162 0.007075 0.004372 655167.000000 1 0 0
2.829537 10.950953 -14.511106 18.398420 1.317944 2.479512 0.017424 -0.004868 -307432.000000 1 0 0
6.212237 0.910453 -15.516806 16.738939 0.145522 2.757099 0.005601 0.006542 420925.000000 1 0 0
16.769337 -5.565747 -10.323106 20.463497 -0.320460 2.099558 0.019469 0.005299 526529.000000 1 0 0
4.990637 -4.319847 -11.255506 13.048140 -0.713476 2.611211 0.003777 0.000213 -476968.000000 1 0 0
8.679737 -3.846147 -17.098606 19.557429 -0.417116 2.634740 -0.000249 -0.004185 303324.000000 1 0 0
13.418437 -9.553147 -8.844506 18.696052 -0.618696 2.063566 0.021418 0.005552 283121.000000 1 0 0
2.333537 -7.651647 -13.689906 15.855807 -1.274784 2.612767 0.000761 0.002598 364354.000000 1 0 0
-6.870763 -2.384847 -18.564706 19.938485 0.334090 2.768211 0.000933 0.002383 -1794720.000000 1 0 0
-1.526663 -6.306747 -15.855606 17.132017 1.333297 2.753138 0.001151 -0.001041 -664284.000000 1 0 0
1.561537 -7.303547 -18.420706 19.877188 -1.360162 2.756400 0.004696 -0.004911 -251184.000000 1 0 0
5.377937 10.951553 -14.439306 18.903764 1.114321 2.440027 0.011385 -0.013821 -249715.000000 1 0 0
5.419837 -3.409347 -17.387006 18.528526 -0.561506 2.788742 0.021866 -0.005343 -1971990.000000 1 0 0
4.006737 13.150053 -13.805706 19.482694 1.275039 2.358328 0.008631 -0.012515 164796.000000 1 0 0
9.328337 10.315753 -15.728406 20.995604 0.835621 2.417542 0.021255 -0.011908 273086.000000 1 0 0
2.528137 3.980453 -16.280106 16.949258 1.004940 2.859663 0.013415 -0.000638 10551.600000 1 0 0
16.586437 1.855453 -11.644906 20.350834 0.111403 2.179992 0.000544 0.008144 758587.000000 1 0 0
10.050637 -3.641347 -10.504406 14.987236 -0.347590 2.347441 0.013914 -0.000154 408462.000000 1 0 0
14.765837 -2.152447 -11.985206 19.139178 -0.144753 2.247483 0.021558 0.004482 -333110.000000 1 0 0
-2.716863 -8.509447 -16.028206 18.349262 1.261750 2.633156 -0.000241 0.002774 -134571.000000 1 0 0
13.907037 8.285853 -9.032906 18.537919 0.537328 2.079753 0.016673 -0.003459 624909.000000 1 0 0
-8.247363 0.154153 -16.651106 18.582306 -0.018689 2.681639 -0.011164 -0.000427 -358657.000000 1 0 0
-3.469963 3.989153 -16.039206 16.888165 -0.854891 2.823170 0.007471 -0.002406 -151931.000000 1 0 0
15.106037 4.053153 -9.626806 18.365615 0.262139 2.122543 0.012144 0.000275 185623.000000 1 0 0
5.516737 1.067053 -12.982206 14.146048 0.191062 2.733115 0.001292 -0.000399 24093.800000 1 0 0
7.924037 -7.768947 -12.880106 17.001295 -0.775516 2.430418 0.015610 0.001326 -3757080.000000 1 0 0
3.242737 -6.028347 -11.898206 13.726748 -1.077279 2.619525 0.004714 -0.000578 -932322.000000 1 0 0
-3.253963 3.735153 -18.633806 19.281037 -0.854138 2.881755 0.009081 -0.000509 310577.000000 1 0 0
0.787737 5.277153 -17.755006 18.539394 1.422617 2.849665 0.019158 -0.006236 -2209310.000000 1 0 0
6.222337 7.131053 -10.282206 13.974733 0.853345 2.397601 -0.001566 0.002064 489103.000000 1 0 0
9.697537 3.789353 -11.642806 15.619102 0.372511 2.411962 0.000816 -0.001162 -153717.000000 1 0 0
4.580337 1.809953 -17.432406 18.114751 0.376325 2.866250 0.014910 0.001402 158842.000000 1 0 0
2.559437 8.188153 -13.458206 15.959946 1.267840 2.574095 0.006752 0.000980 -2310040.000000 1 0 0
14.416137 -3.497447 -9.884506 17.825841 -0.238008 2.158564 0.014947 0.009033 365386.000000 1 0 0
-1.530663 9.369153 -16.334706 18.893030 -1.408854 2.615128 0.012914 -0.002362 39561.000000 1 0 0
-5.260363 2.078153 -15.868206 16.846071 -0.376240 2.799197 0.007585 -0.005743 706766.000000 1 0 0
4.437237 4.369353 -11.935906 13.462770 0.777690 2.660708 0.002422 -0.000267 371745.000000 1 0 0
9.394937 2.911253 -17.309806 19.909034 0.300491 2.624874 0.015729 0.001928 457508.000000 1 0 0
-4.539563 14.283953 -13.313206 20.046955 -1.263082 2.297087 0.018650 -0.003925 -142749.000000 1 0 0
15.652437 -4.841147 -8.043506 18.251944 -0.299958 2.027167 0.012222 0.004707 677705.000000 1 0 0
1.091037 9.375353 -16.910106 19.365932 1.454945 2.632503 0.010793 0.000406 468222.000000 1 0 0
0.572237 -3.221447 -12.869006 13.278422 -1.394997 2.892623 0.009397 -0.003429 365486.000000 1 0 0
7.486037 3.638153 -12.986006 15.424437 0.452378 2.571612 0.001991 0.001390 5166.040000 1 0 0
-2.967763 7.487753 -15.209906 17.210907 -1.193441 2.654583 0.006398 -0.004675 297436.000000 1 0 0
12.150637 -5.147847 -11.075906 17.228291 -0.400743 2.269062 0.023289 0.002209 -805003.000000 1 0 0
0.698037 -4.258347 -20.141706 20.598765 -1.408319 2.930542 0.018936 -0.012630 -56904.700000 1 0 0
3.416437 -4.574247 -16.224606 17.199815 -0.929292 2.803235 0.017417 -0.007491 566432.000000 1 0 0
-5.691863 4.157053 -14.393906 16.026944 -0.630806 2.686242 -0.000506 -0.003445 1157470.000000 1 0 0
12.254937 -7.498947 -9.815706 17.400166 -0.549133 2.170158 0.021797 0.002508 146888.000000 1 0 0
-1.934963 -1.716447 -14.915206 15.137822 0.725625 2.969883 0.009786 -0.005228 811812.000000 1 0 0
7.055237 5.896053 -14.313706 17.012407 0.696133 2.570607 0.013821 0.001016 637212.000000 1 0 0
4.222437 -5.348447 -18.560506 19.771880 -0.902509 2.789730 0.021339 -0.006220 256844.000000 1 0 0
7.506337 7.369753 -12.323206 16.202462 0.776217 2.434996 0.001707 -0.002724 -783203.000000 1 0 0
12.308537 -2.475247 -11.084606 16.747998 -0.198453 2.294076 0.016183 0.002870 -100219.000000 1 0 0
7.420237 -0.653847 -10.717606 13.051993 -0.087890 2.534214 0.004068 0.000396 -1859840.000000 1 0 0
5.292637 4.082153 -14.440206 15.912119 0.656988 2.708084 0.002877 0.004160 2162550.000000 1 0 0
14.613137 3.019053 -13.037106 19.814757 0.203732 2.288889 -0.004931 -0.003392 488166.000000 1 0 0
-6.645563 6.648253 -15.876206 18.450385 -0.785601 2.607009 -0.002548 -0.000163 492626.000000 1 0 0
-11.397063 3.719453 -16.413906 20.325937 -0.315454 2.510757 0.017034 -0.004313 -150924.000000 1 0 0
-5.109863 6.679753 -18.044606 19.908230 -0.917778 2.705453 0.003328 0.013196 406909.000000 1 0 0
-10.028163 1.609153 -15.742306 18.734290 -0.159107 2.568621 0.000186 -0.003681 -547431.000000 1 0 0
-7.634763 5.886053 -18.070706 20.481349 -0.656778 2.651524 -0.007715 0.006022 -157304.000000 1 0 0
-8.874863 3.956753 -15.674606 18.442136 -0.419388 2.586657 -0.004067 0.006135 -1349500.000000 1 0 0
9.021437 13.383853 -11.968606 20.093815 0.977697 2.208854 0.009683 -0.010181 -2130420.000000 1 0 0
13.649437 8.992253 -11.509406 19.990852 0.582537 2.184297 0.003069 -0.007938 210923.000000 1 0 0
8.518137 16.060053 -9.067006 20.314886 1.083131 2.033449 0.017967 -0.002587 138362.000000 1 0 0
7.367337 13.556253 -13.909406 20.773089 1.072985 2.304450 0.005952 -0.004940 95858.100000 1 0 0
4.832537 16.027353 -12.545306 20.919230 1.277947 2.213925 0.011045 -0.003566 363624.000000 1 0 0
11.013337 10.997253 -11.631206 19.429826 0.784667 2.212582 0.005212 -0.007053 -530869.000000 1 0 0
15.477137 10.085653 -10.047706 21.028994 0.577533 2.068948 0.020559 0.006668 838396.000000 1 0 0
12.947037 10.652353 -9.475106 19.258142 0.688468 2.085188 0.016201 -0.007022 389754.000000 1 0 0
10.503437 11.977553 -7.966006 17.811267 0.850876 2.034479 0.010907 0.002582 373888.000000 1 0 0
5.545437 16.274253 -10.043806 19.911837 1.242387 2.099499 0.009080 -0.004046 -164874.000000 1 0 0
6.812737 14.628153 -11.509206 19.820648 1.134940 2.190345 0.011288 0.001628 -160784.000000 1 0 0
10.703737 13.861153 -9.777506 20.057447 0.913231 2.079992 0.014687 0.000603 -582672.000000 1 0 0
7.923637 -18.605947 -1.603606 20.286370 -1.168193 1.649927 0.014760 0.012264 -272276.000000 1 0 0
7.236837 -17.109147 -3.606706 18.923610 -1.170637 1.762562 0.022442 -0.005792 -58922.300000 1 0 0
4.392437 -18.432647 5.891094 19.843411 -1.336863 1.269374 0.027464 0.008212 281073.000000 1 0 0
9.678137 -17.073247 -2.813806 19.826235 -1.055101 1.713201 0.019726 0.003922 -711340.000000 1 0 0
-9.740763 -12.169747 -9.994006 18.516624 0.895807 2.140915 0.019364 -0.010306 -302948.000000 1 0 0
-5.202463 -6.927647 -12.227206 14.985409 0.926674 2.525151 0.000173 0.003964 124461.000000 1 0 0
-10.698563 -9.440847 -5.631606 15.339616 0.723029 1.946716 0.003999 -0.001811 -2210490.000000 1 0 0
-4.529963 -11.343147 -13.984706 18.567702 1.190845 2.423670 0.006579 -0.000181 258430.000000 1 0 0
-3.085663 -15.618547 7.344394 17.532839 1.375744 1.138570 -0.001118 -0.002677 124211.000000 1 0 0
-4.866563 -12.095747 -11.563706 17.427272 1.188277 2.296338 0.008021 0.003963 274400.000000 1 0 0
-14.314663 -12.778747 -4.253306 19.654428 0.728769 1.788926 -0.012498 0.000090 -163765.000000 1 0 0
-3.190363 -12.241247 -3.208906 13.050809 1.315844 1.819222 0.004659 -0.003149 751158.000000 1 0 0
-2.474863 -17.397247 -1.563606 17.641825 1.429488 1.659543 0.003226 -0.005061 290106.000000 1 0 0
-5.901263 -12.202147 3.645994 14.036045 1.120334 1.308023 0.003423 -0.000320 83981.600000 1 0 0
-8.864863 -10.828247 -12.025106 18.451014 0.884769 2.280661 0.014702 0.005614 112752.000000 1 0 0
-9.966763 -11.945547 -7.348506 17.205609 0.875459 2.012079 0.014867 -0.012388 210355.000000 1 0 0
-11.018263 -15.101447 6.365494 19.747793 0.940469 1.242596 0.005843 -0.001351 -1685950.000000 1 0 0
-9.566163 -15.679247 0.662394 18.379037 1.022972 1.534748 0.001698 0.002930 -1083670.000000 1 0 0
-14.839563 -7.798147 -8.194206 18.659280 0.483837 2.025448 -0.003610 0.000989 -23851.700000 1 0 0
-2.512663 -16.642847 5.011094 17.561574 1.420952 1.281431 0.007510 -0.005300 551049.000000 1 0 0
4.338137 -15.858147 5.972094 17.491888 -1.303770 1.222368 0.022547 -0.000100 -207265.000000 1 0 0
4.043037 -14.644247 -10.079606 18.231801 -1.301423 2.156587 0.003166 0.004147 374765.000000 1 0 0
-7.612163 -14.044247 -0.171006 15.975454 1.074106 1.581501 0.002468 0.001995 811437.000000 1 0 0
2.832637 -14.977547 9.621194 18.025485 -1.383878 1.007761 0.020119 -0.008725 -678834.000000 1 0 0
2.082837 -17.389947 10.255794 20.296053 -1.451592 1.041055 0.037892 -0.008086 -167773.000000 1 0 0
-8.383963 -17.145647 -5.830406 19.956394 1.116000 1.867278 0.014795 -0.009435 -218057.000000 1 0 0
-6.395863 -9.220847 -7.763006 13.645341 0.964358 2.175979 0.008946 -0.003842 340027.000000 1 0 0
-6.114663 -13.056247 -4.778306 15.188380 1.132802 1.890834 0.001848 -0.003635 144052.000000 1 0 0
2.178037 -19.220747 -5.073806 19.998111 -1.457961 1.827315 0.006551 -0.007949 168341.000000 1 0 0
-5.434763 -13.002047 8.075594 16.242077 1.174876 1.050425 0.001703 0.000427 1073480.000000 1 0 0
2.179237 -17.502847 3.499294 17.981762 -1.446926 1.374944 0.016687 -0.003433 180995.000000 1 0 0
-17.799463 -9.869747 -2.416106 20.495618 0.506289 1.688955 0.007335 -0.001516 412064.000000 1 0 0
-3.576963 -15.417447 2.468394 16.018280 1.342822 1.416081 0.006011 -0.006613 -72139.600000 1 0 0
-10.144363 -10.500947 -14.191706 20.361299 0.802668 2.341993 0.018753 0.001482 -183687.000000 1 0 0
5.956337 -14.469547 -5.617406 16.625311 -1.180290 1.915463 0.003836 -0.007246 289544.000000 1 0 0
-7.331763 -12.284847 -10.778506 17.912242 1.032723 2.216474 0.012001 -0.005462 -998376.000000 1 0 0
-7.472663 -14.250447 3.751194 16.522330 1.087835 1.341761 0.005110 0.001239 839275.000000 1 0 0
3.157137 -14.878547 -3.258306 15.554910 -1.361704 1.781830 0.004121 -0.003738 -1161090.000000 1 0 0
-7.646663 -11.470947 7.812994 15.846039 0.982832 1.055197 0.005203 -0.003067 232523.000000 1 0 0
-12.786263 -12.215547 -1.115706 17.718716 0.762575 1.633806 -0.005400 0.007492 -1444440.000000 1 0 0
-1.995263 -13.690947 3.906594 14.376528 1.426079 1.295602 0.001525 -0.001549 -3555780.000000 1 0 0
-3.156463 -13.990847 5.258994 15.276258 1.348902 1.219347 0.000104 -0.002127 -255688.000000 1 0 0
-14.413663 -10.252447 -4.494506 18.250121 0.618270 1.819629 -0.011968 0.000182 834963.000000 1 0 0
-6.209763 -8.646447 -10.473106 14.933457 0.947969 2.348041 -0.001455 0.002284 187019.000000 1 0 0
0.881237 -19.474647 2.418094 19.643971 -1.525577 1.447387 0.020847 -0.002434 137879.000000 1 0 0
6.230037 -14.000447 -8.174306 17.367934 -1.152118 2.060829 0.012610 -0.001360 -2851440.000000 1 0 0
-4.006863 -16.622347 -5.867106 18.077065 1.334256 1.901344 0.003783 -0.008943 -298221.000000 1 0 0
-3.708763 -13.773047 -13.258906 19.474351 1.307759 2.319704 0.015215 0.006010 -1132800.000000 1 0 0
-8.256363 -14.670247 -4.594606 17.449759 1.058182 1.837243 0.007152 -0.005849 -1119030.000000 1 0 0
-4.262063 -14.441247 9.840494 17.987498 1.283812 0.991931 -0.008807 -0.002545 -292618.000000 1 0 0
-0.285263 -12.069047 -9.978706 15.662626 1.547165 2.261530 0.004926 0.001256 136897.000000 1 0 0
2.271837 -17.299447 6.874594 18.753457 -1.440219 1.195469 0.023820 -0.006498 -102048.000000 1 0 0
-2.909263 -19.077047 -3.497406 19.611970 1.419462 1.750085 0.004070 -0.008783 -1058350.000000 1 0 0
0.714937 -15.298347 -3.023706 15.610680 -1.524097 1.765723 0.009243 -0.006835 -2736950.000000 1 0 0
5.870137 -17.841147 0.335294 18.785032 -1.252931 1.552946 0.014759 0.001272 -493317.000000 1 0 0
-7.169163 -16.716547 3.903494 18.603147 1.165655 1.359395 0.002675 -0.001908 403233.000000 1 0 0
-5.358563 -13.643447 -9.546606 17.492728 1.196549 2.148077 0.006252 -0.002560 -174625.000000 1 0 0
5.596137 -15.148547 -2.174806 16.294938 -1.216929 1.704661 0.006680 0.002551 326824.000000 1 0 0
-8.817663 -10.228847 -0.355906 13.509521 0.859354 1.597144 0.000826 0.002765 -664940.000000 1 0 0
-7.587863 -18.278147 -3.008906 20.017988 1.177313 1.721678 0.012718 -0.016916 118902.000000 1 0 0
7.799637 -16.046047 -1.182806 17.880408 -1.118348 1.636996 0.011759 0.004845 -660481.000000 1 0 0
-8.062263 -10.179947 -9.500706 16.090209 0.900968 2.202431 0.011638 -0.003239 -1027400.000000 1 0 0
-9.284863 -15.057147 -6.996406 19.023040 1.018230 1.947423 0.014079 -0.012549 -418349.000000 1 0 0
-11.397363 -10.518247 -12.054606 19.642987 0.745306 2.231516 0.016309 0.007349 -1584520.000000 1 0 0
6.525437 -16.341647 2.380194 17.756578 -1.190882 1.436346 0.020637 0.005007 948118.000000 1 0 0
-2.319863 -11.194047 -6.114106 12.964210 1.366448 2.061917 0.000898 0.000482 310647.000000 1 0 0
-12.432063 -15.439647 -3.309706 20.097090 0.892890 1.736236 -0.002364 -0.003004 -299975.000000 1 0 0
-0.460463 -19.605547 -2.945906 19.830982 1.547314 1.719899 0.012746 -0.009667 -545312.000000 1 0 0
-5.930663 -15.527547 -4.822806 17.307135 1.205951 1.853195 0.000223 -0.005811 -3072760.000000 1 0 0
1.951737 -15.927547 -0.988406 16.077094 -1.448866 1.632314 0.010216 -0.003553 650034.000000 1 0 0
-13.285763 -11.889847 5.429494 18.637579 0.730008 1.275190 0.011361 0.005512 595721.000000 1 0 0
1.859937 -15.106147 -8.762406 17.562312 -1.448288 2.093163 0.007810 0.000833 -2060990.000000 1 0 0
-11.942063 -16.644547 -0.006006 20.485454 0.948438 1.571090 0.005488 -0.005894 600633.000000 1 0 0
-7.729763 -16.578147 -1.105806 18.325037 1.134501 1.631177 0.009438 -0.007718 400840.000000 1 0 0
-3.039363 -14.477447 -1.850006 14.908277 1.363864 1.695210 0.006448 -0.003238 334701.000000 1 0 0
-1.876063 -10.479047 -13.225006 16.977362 1.393643 2.463832 -0.001776 0.004490 -131714.000000 1 0 0
1.384937 -19.522347 4.934394 20.183863 -1.499974 1.323821 0.023430 -0.009209 104462.000000 1 0 0
-17.309963 -9.207547 2.592694 19.777153 0.488858 1.439322 -0.012851 0.003129 -525910.000000 1 0 0
-2.838163 -15.611647 -8.042706 17.789429 1.390963 2.039921 0.004491 -0.003355 -435009.000000 1 0 0
-10.550363 -12.106847 0.265194 16.061016 0.853987 1.554284 -0.002112 0.006566 383420.000000 1 0 0
-6.976463 -11.464647 -6.491106 14.907837 1.024136 2.021296 0.001781 -0.002007 168136.000000 1 0 0
-2.317963 -13.588647 -6.696806 15.325517 1.401842 2.023025 -0.000822 -0.001048 237327.000000 1 0 0
-14.327463 -14.360947 -1.052106 20.313048 0.786565 1.622614 0.002559 0.002952 196994.000000 1 0 0
-9.495663 -11.292547 -4.365206 15.386496 0.871621 1.858451 0.007608 -0.004879 710121.000000 1 0 0
9.390337 -15.095547 -5.173406 18.515347 -1.014314 1.853978 0.021204 -0.000971 208857.000000 1 0 0
-5.637563 -10.944447 -9.488006 15.543014 1.095136 2.227407 0.003250 -0.000791 -875445.000000 1 0 0
-10.467463 -16.015347 -4.828006 19.732429 0.991902 1.817979 0.008456 -0.010382 -1447020.000000 1 0 0
2.208137 -17.296547 -3.348106 17.755456 -1.443820 1.760500 0.009720 -0.005833 555932.000000 1 0 0
-0.499363 -14.359247 -8.256306 16.571177 1.536034 2.092356 0.003528 -0.000802 -1549590.000000 1 0 0
-0.682863 -18.139247 -7.154606 19.511201 1.533168 1.946247 0.001828 -0.006137 164334.000000 1 0 0
-1.801763 -9.941147 -10.618306 14.656779 1.391500 2.381053 0.000707 0.003399 274827.000000 1 0 0
-5.197263 -17.267947 2.074494 18.152053 1.278443 1.456262 0.005776 -0.008826 992055.000000 1 0 0
0.188537 -12.740047 -2.641406 13.012354 -1.555999 1.775209 0.005924 -0.003927 -1834820.000000 1 0 0
2.518137 -14.937047 2.871494 15.417582 -1.403783 1.383454 0.011617 0.000426 -920896.000000 1 0 0
-9.622463 -13.022647 6.840094 17.577486 0.934436 1.171099 0.005275 -0.004298 52754.700000 1 0 0
-1.031063 -17.764347 -4.595506 18.378079 1.512820 1.823532 0.002871 -0.006758 29293.100000 1 0 0
-9.889763 -17.621947 -2.115506 20.317869 1.059381 1.675106 0.009933 -0.014259 -1480430.000000 1 0 0
1.178737 -16.310847 1.430194 16.415803 -1.498655 1.483563 0.011026 -0.005170 52277.200000 1 0 0
-0.453763 -18.045647 3.999294 18.489067 1.545656 1.352767 0.021044 -0.009832 87063.900000 1 0 0
-17.225463 -9.178647 0.021394 19.518314 0.489584 1.569700 -0.023973 0.002493 494612.000000 1 0 0
-14.707363 -7.315847 -10.675506 19.590676 0.461587 2.147099 0.009470 -0.002919 290498.000000 1 0 0
2.744137 -12.690647 -8.822306 15.697639 -1.357842 2.167616 -0.002459 -0.000439 821477.000000 1 0 0
-11.708763 -14.660747 1.693394 18.838795 0.896881 1.480786 -0.006897 0.004948 59347.300000 1 0 0
-2.179163 -15.841647 10.493794 19.126584 1.434095 0.990048 -0.009728 -0.002376 -306010.000000 1 0 0
-7.186963 -15.884647 1.360994 17.487903 1.145909 1.492893 0.006667 -0.006103 -897372.000000 1 0 0
-12.500363 -15.015347 -6.000306 20.438282 0.876547 1.868768 -0.000098 -0.006108 54274.000000 1 0 0
1.016037 -13.755147 -4.924206 14.645279 -1.497064 1.913709 0.008129 -0.004305 356972.000000 1 0 0
6.071537 -16.235147 -7.546906 18.905008 -1.212925 1.981442 0.009397 -0.009369 162647.000000 1 0 0
-6.618663 -12.793547 5.863194 15.551803 1.093370 1.184230 0.004875 -0.002577 525235.000000 1 0 0
-2.639763 -13.588447 0.592794 13.855166 1.378921 1.527998 0.010511 -0.006394 2125280.000000 1 0 0
-4.315563 -15.579847 0.077794 16.166687 1.300575 1.565984 0.007349 -0.005089 166179.000000 1 0 0
-17.473563 -7.363347 -1.851006 19.051785 0.398817 1.668106 -0.026648 0.001031 150069.000000 1 0 0
1.093037 -12.704147 -11.991306 17.503757 -1.484970 2.325497 -0.001179 0.006157 -328483.000000 1 0 0
1.222037 -16.902847 -5.795206 17.910444 -1.498624 1.900292 0.008636 -0.002958 -467893.000000 1 0 0
-12.827063 -6.434947 -9.142206 17.015347 0.464982 2.138019 0.007502 0.002326 951152.000000 1 0 0
-11.511063 -13.548547 -8.675506 19.782116 0.866525 2.024784 0.014639 -0.018984 458935.000000 1 0 0
-4.345863 -9.999147 3.395994 11.419380 1.160803 1.268840 0.005317 -0.000797 -4020830.000000 1 0 0
-6.849263 -14.493747 9.613294 18.692151 1.129335 1.030610 -0.002888 0.002093 -516022.000000 1 0 0
-5.408663 -15.859847 -8.048406 18.589384 1.242136 2.018567 0.002896 -0.009349 -1236830.000000 1 0 0
-0.288663 -13.486447 2.153394 13.660332 1.549396 1.412498 0.007075 -0.006029 727811.000000 1 0 0
-10.914563 -13.518647 -4.574006 17.966720 0.891577 1.828212 0.011227 -0.004320 -831433.000000 1 0 0
-9.809663 -10.423547 6.682694 15.796778 0.815729 1.133997 0.009648 -0.002878 -340485.000000 1 0 0
-15.486463 -8.032747 -4.844906 18.106040 0.478491 1.841682 -0.001475 0.000737 -981635.000000 1 0 0
-14.566763 -7.176747 5.458794 17.131687 0.457774 1.246505 0.002779 -0.001924 -61038.700000 1 0 0
-1.535763 -19.308347 0.032194 19.369353 1.491425 1.569134 0.014100 -0.006100 -112971.000000 1 0 0
-15.381963 -12.026647 -1.355106 19.572464 0.663586 1.640087 -0.009867 0.007604 760133.000000 1 0 0
-4.493563 -12.141347 -6.792706 14.620030 1.216325 2.053998 0.003304 -0.000484 -1613920.000000 1 0 0
-7.627463 -18.387047 1.999194 20.006460 1.177573 1.470702 0.006627 -0.004918 349713.000000 1 0 0
-2.516563 -11.782247 -8.641206 14.826492 1.360369 2.192994 0.000205 0.003170 878347.000000 1 0 0
-1.402663 -20.249947 -5.312706 20.982198 1.501639 1.826784 -0.003261 -0.001303 17983.700000 1 0 0
-5.309463 -8.779747 -13.936306 17.305923 1.026899 2.506963 -0.000426 0.007032 559469.000000 1 0 0
-8.329963 -19.079347 -0.678506 20.829549 1.159145 1.603376 0.001743 -0.005899 112580.000000 1 0 0
-17.202263 -7.169647 5.562394 19.448957 0.394892 1.280747 0.010470 -0.001475 262880.000000 1 0 0
-3.674963 -14.584447 -4.372406 15.662994 1.323957 1.853711 0.002019 -0.001871 -2753810.000000 1 0 0
-3.183263 -14.993547 -11.113406 18.932707 1.361594 2.198139 0.007567 -0.000289 195563.000000 1 0 0
-0.210163 -16.691247 6.249594 17.824121 1.558206 1.212557 0.019447 -0.010960 -363888.000000 1 0 0
-11.247063 -11.459347 3.936294 16.532013 0.794747 1.330386 -0.000575 0.004921 -2297090.000000 1 0 0
-0.256763 -14.632447 -0.145806 14.635425 1.553251 1.580759 0.009179 -0.004395 747068.000000 1 0 0
-7.280063 -9.569547 -2.370006 12.255304 0.920449 1.765409 0.006172 -0.000691 -144616.000000 1 0 0
-11.117163 -14.335347 -0.865006 18.161545 0.911170 1.618443 -0.004109 -0.004089 249115.000000 1 0 0
0.134437 -14.602247 -10.746406 18.130883 -1.561590 2.205219 0.002686 0.002894 -518077.000000 1 0 0
-1.401063 -14.080047 -3.944306 14.689052 1.471616 1.842653 0.003947 -0.003461 -3384110.000000 1 0 0
-11.335263 -8.022547 -7.583406 15.822689 0.615909 2.070624 0.005371 -0.003251 653187.000000 1 0 0
-0.264863 -17.144647 -0.259506 17.148656 1.555349 1.585930 0.012905 -0.011100 -507958.000000 1 0 0
-12.921763 -9.455647 4.690694 16.684838 0.631726 1.285820 0.000423 0.003462 -444205.000000 1 0 0
3.904137 -16.828947 1.638994 17.353444 -1.342839 1.476208 0.011865 0.000712 2889030.000000 1 0 0
-4.022763 -17.897647 -8.129006 20.064624 1.349706 1.987930 0.010865 -0.004469 58007.700000 1 0 0
-13.409263 -11.206947 2.779294 17.695436 0.696170 1.413081 -0.004347 0.005031 -1246680.000000 1 0 0
-8.662963 -12.099747 4.226894 15.469888 0.949438 1.294043 -0.000211 -0.000824 420595.000000 1 0 0
-8.177763 -9.303447 -5.830506 13.690315 0.849703 2.010737 0.011195 -0.003766 186367.000000 1 0 0
3.793237 -17.349147 -5.458706 18.578994 -1.355543 1.869007 0.004162 0.001304 -660645.000000 1 0 0
-2.431863 -13.280447 11.282794 17.595046 1.389687 0.874672 -0.014769 -0.000199 -26204.000000 1 0 0
-0.065163 -16.703147 -9.460706 19.196466 1.566895 2.086142 0.008115 0.000470 -300135.000000 1 0 0
-7.085463 -10.623047 -14.542106 19.352668 0.982570 2.421018 0.016610 0.006026 154731.000000 1 0 0
-4.596263 -18.902247 -1.469306 19.508445 1.332266 1.646184 0.010381 -0.013086 -525199.000000 1 0 0
-2.551363 -17.253747 1.138294 17.478471 1.423987 1.505625 0.012990 -0.010014 347121.000000 1 0 0
3.937037 -14.672847 -7.408106 16.901856 -1.308650 2.024504 0.009401 -0.000663 -614271.000000 1 0 0
-1.058763 -15.787447 -6.142406 16.973320 1.503833 1.941087 0.003430 -0.003457 -450273.000000 1 0 0
-9.517563 -15.051547 8.452394 19.712332 1.006942 1.127647 0.004699 -0.005197 -592949.000000 1 0 0
-7.231663 -12.099547 -1.683106 14.196085 1.032084 1.689637 0.001271 -0.002833 614936.000000 1 0 0
-7.478263 -15.167347 -9.286006 19.292556 1.112724 2.072963 0.015613 -0.009724 -486481.000000 1 0 0
-5.108263 -13.306747 -0.676206 14.269587 1.204259 1.618202 0.005461 -0.001551 449996.000000 1 0 0
-6.598763 -13.745347 -7.326406 16.916100 1.123217 2.018728 0.005502 -0.004230 458991.000000 1 0 0
5.712637 -15.294247 0.277394 16.328660 -1.213328 1.553807 0.007146 0.005375 432404.000000 1 0 0
-14.396763 -12.709247 0.971594 19.228513 0.723222 1.520246 -0.016146 0.004436 950950.000000 1 0 0
0.747137 -15.421247 11.126494 19.030815 -1.522386 0.946339 0.016093 -0.008843 -352768.000000 1 0 0
-9.385263 -10.764747 2.035594 14.425899 0.853752 1.429217 0.000543 0.004931 204835.000000 1 0 0
-9.354863 -8.783347 -3.564106 13.317789 0.753900 1.841718 0.012722 -0.003564 -799797.000000 1 0 0
-12.160663 -7.252647 -12.255406 18.726388 0.537770 2.284246 0.015518 -0.000960 -1223740.000000 1 0 0
-13.289063 -8.463247 -0.579106 15.765821 0.567081 1.607536 -0.002279 0.000062 274645.000000 1 0 0
-11.203463 -9.599847 0.609394 14.766381 0.708466 1.529516 -0.003700 0.003996 483738.000000 1 0 0
-15.878963 -12.015347 2.962794 20.131770 0.647765 1.423090 0.003373 0.006120 167049.000000 1 0 0
-10.476063 -12.381847 -2.317906 16.383855 0.868581 1.712748 0.004984 -0.004122 884051.000000 1 0 0
-3.335963 -8.743047 -12.126206 15.317127 1.206290 2.484344 -0.002898 0.004625 -923931.000000 1 0 0
-0.329463 -15.596947 3.872994 16.073997 1.549676 1.327454 0.010755 -0.003714 -670620.000000 1 0 0
-15.592363 -7.622447 1.279294 17.402875 0.454694 1.497219 -0.018039 0.001486 -55905.800000 1 0 0
-6.186063 -13.388747 -13.346606 19.891149 1.137980 2.306329 0.019227 0.001030 -466511.000000 1 0 0
-15.218963 -10.184647 1.252794 18.355200 0.589760 1.502490 -0.012333 0.004332 171115.000000 1 0 0
-9.811563 -8.428447 -12.507806 17.993074 0.709714 2.339419 0.012045 0.002513 1033690.000000 1 0 0
-13.250063 -11.684047 -6.375706 18.781127 0.722674 1.917154 0.000118 0.001126 -328882.000000 1 0 0
-12.151663 -11.371447 -3.969006 17.109229 0.752242 1.804909 -0.005067 0.002370 -1729510.000000 1 0 0
-11.809463 -10.884047 -8.951806 18.386428 0.744642 2.079299 0.009962 -0.012474 577189.000000 1 0 0
-13.093463 -8.485247 -5.803106 16.646748 0.575005 1.926877 -0.000792 -0.001731 -1510620.000000 1 0 0
-13.444263 -8.183847 -3.195406 16.060329 0.546810 1.771096 0.000613 -0.003801 58551.000000 1 0 0
-4.464463 -16.919847 -3.217706 17.792309 1.312817 1.752645 0.004803 -0.011542 426177.000000 1 0 0
-15.420963 -9.050247 -1.817006 17.972606 0.530716 1.672068 -0.006913 0.002617 -1416020.000000 1 0 0
-9.535563 -15.730647 3.656494 18.755003 1.025847 1.374579 -0.001459 -0.000093 -929415.000000 1 0 0
4.674637 -17.183847 8.148794 19.584168 -1.305187 1.141654 0.038003 -0.019144 594866.000000 1 0 0
-8.404463 -15.359347 6.024094 18.515783 1.070114 1.239415 -0.001240 0.001109 1008830.000000 1 0 0
0.705537 -15.968047 8.551394 18.127400 -1.526641 1.079535 0.024094 -0.013663 43797.600000 1 0 0
-10.812763 -7.802547 -10.169806 16.769631 0.625079 2.222374 0.011026 0.000297 1081350.000000 1 0 0
-4.957663 -15.797447 5.598994 17.478171 1.266703 1.244706 0.001713 -0.011921 -1745170.000000 1 0 0
-1.460663 -13.185347 -12.089006 17.948007 1.460467 2.309807 0.001825 0.000105 -719944.000000 1 0 0
-6.570163 -14.426847 -2.544206 16.055340 1.143451 1.729932 0.006658 -0.002926 245055.000000 1 0 0
-17.617263 -6.756647 -7.207906 20.198370 0.366223 1.935696 -0.003196 -0.008268 112067.000000 1 0 0
-17.170163 -4.057647 -10.250306 20.404602 0.232062 2.097114 0.001441 -0.009469 621435.000000 1 0 0
-15.285263 -5.376647 -8.944506 18.508155 0.338236 2.075187 -0.000428 -0.007266 167047.000000 1 0 0
-16.163163 -5.421547 -5.595106 17.942860 0.323633 1.887914 0.002882 -0.002375 -1195980.000000 1 0 0
-15.069663 -4.469247 -12.412006 20.028150 0.288309 2.239192 0.005196 -0.000562 -560054.000000 1 0 0
-18.694563 -5.076147 -5.587106 20.161094 0.265138 1.851595 0.008363 -0.002918 -610608.000000 1 0 0
-17.350763 -4.266647 -7.682006 19.449074 0.241121 1.976843 -0.000625 -0.008844 431376.000000 1 0 0
12.183837 -7.922747 8.700994 16.938804 -0.576563 1.031337 0.008205 -0.005005 81598.100000 1 0 0
16.015037 -3.497347 1.885894 16.500589 -0.215004 1.456254 0.020860 -0.005331 -141559.000000 1 0 0
11.842937 -2.407847 12.685394 17.520619 -0.200581 0.761174 0.007216 -0.000433 -163278.000000 1 0 0
9.653337 -10.123747 5.091394 14.886217 -0.809179 1.221730 -0.000290 0.001530 177847.000000 1 0 0
16.931537 -2.210847 7.356494 18.592546 -0.129841 1.164000 0.039433 -0.007145 4914.790000 1 0 0
5.154737 -13.040747 9.204194 16.773478 -1.194366 0.989946 0.008138 0.003354 20480.200000 1 0 0
15.281937 -9.036447 -2.259206 17.896898 -0.534009 1.697369 0.005724 -0.002693 433717.000000 1 0 0
11.005637 -8.633347 6.493394 15.421507 -0.665186 1.136182 0.005384 -0.002052 -4007650.000000 1 0 0
19.977037 -3.040147 3.649094 20.533884 -0.151023 1.392137 0.033951 -0.008121 -273139.000000 1 0 0
13.522437 -8.666547 6.805794 17.443743 -0.569952 1.169995 0.015226 -0.006356 -1726830.000000 1 0 0
8.306337 -11.188047 8.896894 16.532463 -0.932158 1.002559 -0.000774 0.005272 -1027520.000000 1 0 0
16.889537 0.137453 -0.619006 16.901435 0.008138 1.607429 0.019505 -0.000852 -1448150.000000 1 0 0
12.374537 -12.344547 2.245494 17.622691 -0.784185 1.443028 0.014823 -0.001003 -2568080.000000 1 0 0
10.252537 -11.795547 3.533794 16.023019 -0.855268 1.348423 0.008811 0.003293 -1336690.000000 1 0 0
16.305737 2.739553 2.489394 16.720625 0.166457 1.421359 0.016285 0.004033 96222.200000 1 0 0
18.282537 -3.371147 0.648094 18.602038 -0.182343 1.535949 0.011682 -0.009744 -812076.000000 1 0 0
13.449137 -11.604047 -0.189306 17.764262 -0.711884 1.581453 0.015182 0.001060 -434556.000000 1 0 0
17.107437 -7.673247 -0.938006 18.772932 -0.421633 1.620783 0.020532 -0.005870 578910.000000 1 0 0
10.094537 -5.719347 9.656194 15.094790 -0.515482 0.876684 0.003979 -0.004242 -522543.000000 1 0 0
11.195837 -13.320747 6.036194 18.418053 -0.871854 1.236894 0.008785 0.000375 -264034.000000 1 0 0
13.063637 -1.842547 10.425694 16.815132 -0.140120 0.902030 0.019612 -0.002213 826786.000000 1 0 0
15.632637 -2.049547 -1.356806 15.824693 -0.130363 1.656642 0.016494 -0.004091 402235.000000 1 0 0
10.457137 -12.501747 9.133094 18.683115 -0.874219 1.060034 0.011509 -0.003033 63177.300000 1 0 0
14.395637 1.128853 3.413294 14.837764 0.078256 1.338677 0.010393 0.002314 797485.000000 1 0 0
14.885937 -5.959247 5.350394 16.903563 -0.380788 1.248733 0.026265 -0.008761 -905916.000000 1 0 0
14.418837 -3.249647 -3.075006 15.096977 -0.221671 1.775915 0.014793 0.000616 986508.000000 1 0 0
14.158037 0.554653 9.689594 17.165252 0.039156 0.970982 0.019965 0.000212 187859.000000 1 0 0
15.437637 -3.557747 4.533794 16.478273 -0.226505 1.292063 0.024767 -0.003266 -1200230.000000 1 0 0
18.733737 5.102753 -4.255506 19.877131 0.265932 1.786557 0.012931 0.007135 732253.000000 1 0 0
18.352837 -5.685447 -5.135106 19.887691 -0.300410 1.831960 0.026756 -0.000083 747490.000000 1 0 0
17.373237 -0.039647 6.245394 18.461741 -0.002282 1.225699 0.040876 0.003337 694541.000000 1 0 0
16.969737 -6.755447 4.036094 18.705563 -0.378857 1.353316 0.024885 -0.008438 -218172.000000 1 0 0
9.676837 -6.640047 14.172994 18.401227 -0.601390 0.691610 0.002884 -0.002620 -601982.000000 1 0 0
8.549137 -12.396147 5.096694 15.897436 -0.967043 1.244435 0.005792 0.001653 -1366830.000000 1 0 0
16.881637 -10.267447 -0.623206 19.768624 -0.546429 1.602327 0.010933 0.001381 -148309.000000 1 0 0
15.020737 -8.834647 0.297394 17.428768 -0.531671 1.553732 0.021283 -0.006980 86301.100000 1 0 0
9.937137 -12.993847 1.463094 16.423379 -0.917917 1.481592 0.011723 0.001116 -247440.000000 1 0 0
16.582437 -8.502747 8.821494 20.617775 -0.473800 1.128674 0.032317 -0.010327 329144.000000 1 0 0
19.209937 -0.214347 -1.874506 19.302368 -0.011158 1.668062 0.024852 0.000572 -142120.000000 1 0 0
13.338237 -1.253547 7.886094 15.545752 -0.093706 1.038767 0.009457 -0.002326 40994.300000 1 0 0
12.901937 -9.901547 -3.079006 16.552368 -0.654574 1.757902 0.013701 -0.001222 -1894920.000000 1 0 0
8.765537 -15.317347 1.424694 17.705522 -1.051022 1.490243 0.014291 0.009226 230866.000000 1 0 0
11.267237 -8.341447 11.124894 17.896749 -0.637282 0.899993 0.005453 -0.004709 130578.000000 1 0 0
13.963137 -4.057347 -0.583106 14.552363 -0.282788 1.610877 0.016417 -0.005886 -434418.000000 1 0 0
7.245937 -13.338747 10.790594 18.624250 -1.073170 0.952824 0.019205 0.005269 1162510.000000 1 0 0
15.424737 -6.840247 1.877394 16.977517 -0.417402 1.459989 0.014334 -0.007207 416870.000000 1 0 0
15.942837 -6.132847 -2.535806 17.268937 -0.367228 1.718171 0.009199 -0.004354 163856.000000 1 0 0
11.210637 -8.547147 3.814694 14.604245 -0.651399 1.306527 0.010642 -0.004293 640194.000000 1 0 0
10.526137 -14.494747 -0.571406 17.922716 -0.942700 1.602683 0.017976 0.002070 862603.000000 1 0 0
13.327137 -12.988147 4.566494 19.161352 -0.772517 1.330163 0.012111 0.000998 349043.000000 1 0 0
12.671637 -11.162147 6.460694 18.080499 -0.722149 1.205389 0.007065 -0.003915 -292979.000000 1 0 0
10.731637 -10.553447 1.369094 15.113493 -0.777027 1.480084 0.008123 -0.002923 183276.000000 1 0 0
13.760937 -7.553547 11.774794 19.623079 -0.502008 0.927235 0.020401 -0.015314 291539.000000 1 0 0
15.485837 -1.822547 -5.002106 16.375405 -0.117152 1.881223 0.020562 0.001021 -89679.500000 1 0 0
13.039937 -11.378847 -7.107106 18.709064 -0.717478 1.960458 0.021164 0.000039 -111582.000000 1 0 0
17.655937 -5.470247 2.016494 18.593600 -0.300446 1.462132 0.024248 -0.006643 495270.000000 1 0 0
10.671637 -9.975947 9.133294 17.228476 -0.751717 1.012045 -0.000582 0.000783 -920960.000000 1 0 0
16.365737 1.864153 10.042294 19.291451 0.113417 1.023294 0.030322 0.002390 -343803.000000 1 0 0
17.948037 3.540753 0.552994 18.302316 0.194777 1.540577 -0.001177 0.001775 520414.000000 1 0 0
13.245637 -4.119047 5.843294 15.051828 -0.301494 1.172106 0.014807 -0.007103 -2168740.000000 1 0 0
12.037337 -6.343647 6.581994 15.114959 -0.485012 1.120245 0.009859 -0.006308 -342265.000000 1 0 0
16.444537 -10.350347 3.483294 19.740461 -0.561764 1.393413 0.010603 -0.004737 -50142.400000 1 0 0
16.331237 -8.107247 -5.498306 19.043847 -0.460784 1.863684 0.000013 0.002651 -435127.000000 1 0 0
13.974737 -0.497447 5.421294 14.997705 -0.035581 1.200947 0.009923 0.002020 793420.000000 1 0 0
18.409337 -4.386347 4.966094 19.565424 -0.233906 1.314169 0.046325 -0.004610 -5205.430000 1 0 0
13.526737 -13.524447 7.058694 20.388929 -0.785313 1.217276 0.017181 -0.001954 -164102.000000 1 0 0
15.033437 -13.577247 -0.915906 20.277691 -0.734545 1.615980 0.011134 0.004255 1062740.000000 1 0 0
17.750437 -6.250547 8.127594 20.498905 -0.338575 1.163107 0.044211 -0.002909 526629.000000 1 0 0
14.319637 3.248453 9.236294 17.346861 0.223078 1.009307 0.013546 0.000344 -459676.000000 1 0 0
18.841237 3.295453 2.956694 19.354438 0.173155 1.417430 0.030705 -0.003151 300096.000000 1 0 0
14.705237 -10.721147 8.070794 19.907905 -0.629971 1.153373 0.018805 -0.009280 142550.000000 1 0 0
14.740937 -5.051947 10.432294 18.752337 -0.330171 0.980846 0.031953 -0.012452 199271.000000 1 0 0
17.895737 -8.032047 1.933194 19.710617 -0.421876 1.472560 0.030973 -0.011079 217271.000000 1 0 0
18.506337 -5.632447 -1.753806 19.423820 -0.295445 1.661211 0.008843 -0.009906 -714174.000000 1 0 0
14.265137 -13.153647 -5.518006 20.173273 -0.744883 1.847858 0.009037 0.002540 -857816.000000 1 0 0
15.420537 -1.689847 9.506194 18.193852 -0.109149 1.021022 0.039321 -0.007294 284264.000000 1 0 0
12.923637 -10.096047 10.268894 19.349437 -0.663177 1.011361 0.005332 -0.004847 -1225440.000000 1 0 0
16.563137 1.938553 4.906494 17.383014 0.116510 1.284649 0.022818 0.002000 -815668.000000 1 0 0
14.843537 2.420753 0.017294 15.039645 0.161661 1.569646 0.011834 0.003076 -1197570.000000 1 0 0
15.158937 -9.888147 -6.942306 19.384644 -0.577989 1.937065 0.013897 0.004445 297132.000000 1 0 0
16.266937 -0.123247 -3.195406 16.578270 -0.007576 1.764757 0.018087 0.003345 -97070.400000 1 0 0
12.024037 2.571053 13.615394 18.345755 0.210654 0.734516 0.011858 -0.001457 -122128.000000 1 0 0
17.397437 -3.191947 9.735494 20.190076 -0.181454 1.067641 0.028139 -0.004644 -631448.000000 1 0 0
7.682837 -18.233747 4.425094 20.275033 -1.172019 1.350772 0.032182 -0.003112 -12946.500000 1 0 0
6.738237 -11.387047 6.680794 14.822337 -1.036468 1.103219 0.004064 0.002524 682149.000000 1 0 0
17.992737 2.072853 -1.525706 18.175893 0.114699 1.654836 0.013364 0.004115 715389.000000 1 0 0
17.542037 -2.284747 3.703294 18.073669 -0.129515 1.364435 0.024800 -0.000956 7964.810000 1 0 0
12.617237 -13.526947 -1.894506 18.594679 -0.820180 1.672858 0.018425 0.004535 -1307030.000000 1 0 0
14.952137 -8.357647 4.410394 17.688081 -0.509696 1.318795 0.024695 -0.010650 -247777.000000 1 0 0
11.471337 -2.821847 15.182194 19.236772 -0.241202 0.661246 0.011071 -0.004446 25800.000000 1 0 0
11.939037 -13.668947 -6.555006 19.296342 -0.852849 1.917396 0.016047 -0.002467 194740.000000 1 0 0
10.664037 -12.043947 -1.235906 16.133995 -0.846091 1.647474 0.018431 -0.004963 -1016940.000000 1 0 0
13.162237 -8.054147 2.019594 15.562536 -0.549133 1.440656 0.011866 -0.003529 -803150.000000 1 0 0
8.706637 -7.899847 9.967794 15.413306 -0.736853 0.867546 -0.003366 0.002048 -1277840.000000 1 0 0
15.408637 -3.945647 8.137194 17.866397 -0.250681 1.097922 0.033045 -0.010871 -1193870.000000 1 0 0
10.169237 -17.491647 5.141594 20.875993 -1.044183 1.321944 0.025581 -0.002267 855472.000000 1 0 0
15.012837 -6.508047 8.302894 18.348787 -0.409047 1.101225 0.023735 -0.006947 -8609.460000 1 0 0
16.578437 -5.094247 -0.235006 17.345061 -0.298124 1.584346 0.010209 -0.005704 -721124.000000 1 0 0
13.912237 -10.660247 3.475194 17.868077 -0.653820 1.375057 0.016136 -0.003783 -169002.000000 1 0 0
15.068237 -10.132747 -4.547206 18.719012 -0.592001 1.816170 0.013802 0.000688 435242.000000 1 0 0
13.754337 -6.617347 -0.110306 15.263788 -0.448422 1.578023 0.012862 -0.005407 226198.000000 1 0 0
17.967637 -0.835447 -4.849206 18.629244 -0.046464 1.834130 0.019438 0.002191 997505.000000 1 0 0
14.492337 0.171053 -1.555506 14.576580 0.011802 1.677713 0.016018 0.000333 -1753090.000000 1 0 0
4.819637 -12.975647 11.808694 18.194547 -1.215153 0.864496 0.009766 -0.001706 -231599.000000 1 0 0
11.834537 -7.700047 13.498494 19.533467 -0.576826 0.807863 0.004474 -0.005336 -907486.000000 1 0 0
11.850937 -5.785247 11.656794 17.600984 -0.454137 0.846938 0.005342 -0.003926 -696750.000000 1 0 0
13.080437 -4.885947 8.394794 16.292417 -0.357482 1.029488 0.016357 -0.007288 -1990530.000000 1 0 0
15.255237 -1.322047 3.211294 15.645525 -0.086446 1.364074 0.023932 0.000375 -423555.000000 1 0 0
15.078737 -10.466847 5.741094 19.232351 -0.606786 1.267663 0.024069 -0.006847 -406321.000000 1 0 0
13.748837 -8.062847 -5.701806 16.927806 -0.530388 1.914345 0.018075 0.002018 -887767.000000 1 0 0
9.436737 -2.399447 13.587394 16.716059 -0.248990 0.621794 -0.000837 -0.004915 272430.000000 1 0 0
9.653937 -9.173447 13.841194 19.207531 -0.759883 0.766111 0.003442 0.001262 -527346.000000 1 0 0
20.358937 6.414153 -2.723906 21.518535 0.305209 1.697721 0.017737 0.009267 -924703.000000 1 0 0
11.122437 -3.594347 10.503794 15.714885 -0.312568 0.838744 0.004987 -0.002328 679529.000000 1 0 0
10.389237 -13.993347 -3.089106 17.700073 -0.932150 1.746220 0.020114 -0.001781 744295.000000 1 0 0
14.821537 -12.923547 2.486994 19.821230 -0.717096 1.444994 0.011686 0.006336 -134051.000000 1 0 0
11.220837 -0.395047 14.096194 18.021263 -0.035192 0.672611 0.019495 -0.011460 109279.000000 1 0 0
19.042337 -2.007747 5.890994 20.033608 -0.105048 1.272329 0.048045 -0.001988 901456.000000 1 0 0
19.018737 -0.749247 8.182594 20.717832 -0.039375 1.164778 0.053705 0.000302 41322.300000 1 0 0
19.144737 0.777853 0.478194 19.166499 0.040608 1.545844 0.027740 -0.004357 -40622.900000 1 0 0
18.591037 0.473353 3.967694 19.015607 0.025456 1.360597 0.035559 -0.001712 341902.000000 1 0 0
16.733137 -3.893647 -4.176606 17.680565 -0.228622 1.809276 0.006284 -0.001119 44797.900000 1 0 0
10.810237 -8.171047 15.816994 20.827974 -0.647242 0.708389 0.012647 -0.006032 249138.000000 1 0 0
16.489637 -7.697047 6.400094 19.290253 -0.436721 1.232608 0.030166 -0.007412 302349.000000 1 0 0
18.828037 2.057053 6.101994 19.898763 0.108823 1.259123 0.034675 0.000737 -8060.550000 1 0 0
15.459037 1.650953 7.653894 17.328865 0.106392 1.113321 0.026640 0.002056 22301.600000 1 0 0
8.656337 -15.853147 3.865694 18.471546 -1.071004 1.359959 0.015897 0.001200 1098260.000000 1 0 0
11.343737 -15.159847 1.789894 19.018544 -0.928400 1.476544 0.015706 0.005835 -417538.000000 1 0 0
8.043837 -16.270847 6.174594 19.172099 -1.111662 1.242890 0.024477 -0.000377 88991.000000 1 0 0
14.596637 -11.670347 -2.481106 18.852445 -0.674450 1.702786 0.007393 -0.002574 841847.000000 1 0 0
13.683537 -4.946047 3.329594 14.926110 -0.346847 1.345832 0.010008 -0.002217 -2269430.000000 1 0 0
-1.059863 10.408053 -5.622906 11.877203 -1.469315 2.063966 0.005823 0.001120 -828031.000000 1 0 0
8.313037 -1.762047 -8.044806 11.701722 -0.208870 2.328822 0.005349 -0.002378 -3581080.000000 1 0 0
2.935037 -10.240347 7.644994 13.112020 -1.291664 0.948316 -0.002080 -0.000071 645210.000000 1 0 0
-6.252663 1.233853 8.224394 10.404751 -0.194829 0.659260 0.000518 -0.000502 -365476.000000 1 0 0
7.340437 -6.297647 -7.307306 12.121844 -0.709085 2.217829 0.005859 -0.003883 178439.000000 1 0 0
-11.372063 -4.521147 -4.094206 12.904538 0.378406 1.893644 0.004787 -0.002985 107598.000000 1 0 0
2.134937 -3.282247 2.888294 4.865526 -0.994105 0.935241 0.004102 -0.001669 1427890.000000 1 0 0
-3.624163 -4.344147 8.982294 10.615450 0.875509 0.562072 -0.000781 -0.000613 -1038340.000000 1 0 0
-4.721563 -1.073347 -2.429406 5.417310 0.223530 2.035830 0.000134 -0.000938 -3253.240000 1 0 0
4.988537 -5.141447 -3.726806 8.075213 -0.800492 2.050495 0.008368 -0.006155 -1601.000000 1 0 0
2.693137 14.249553 -8.753606 16.938960 1.384002 2.113874 0.007829 -0.006589 -624684.000000 1 0 0
5.391537 -5.536447 13.738894 15.763189 -0.798658 0.512379 -0.006980 -0.000577 -1331560.000000 1 0 0
-4.755463 -0.844747 9.853294 10.973396 0.175803 0.455763 0.002756 0.000503 -2519820.000000 1 0 0
-0.895463 11.981153 -2.680106 12.309868 -1.496196 1.790274 0.005566 0.001341 -196934.000000 1 0 0
2.964037 9.476353 -10.477906 14.435141 1.267654 2.383082 0.008934 -0.000740 -366197.000000 1 0 0
-10.600663 2.683753 1.142394 10.994619 -0.247959 1.466704 -0.001888 -0.001602 -260263.000000 1 0 0
5.760637 -8.948947 -0.870606 10.678321 -0.998847 1.652417 0.002182 -0.005116 801353.000000 1 0 0
-6.795863 5.389353 9.420294 12.805109 -0.670479 0.744146 0.004803 -0.000960 260952.000000 1 0 0
-5.472863 -1.855847 5.181294 7.761585 0.326931 0.839875 0.004461 -0.003569 718695.000000 1 0 0
6.672137 -3.798147 -7.409806 10.669984 -0.517506 2.338456 0.005722 -0.004307 436582.000000 1 0 0
6.246937 4.695253 11.053294 13.536799 0.644530 0.615410 0.000392 0.004255 781139.000000 1 0 0
3.696737 -9.808547 3.499894 11.050914 -1.210370 1.248541 -0.003568 -0.000363 573437.000000 1 0 0
-6.606763 6.657553 -5.916006 11.089250 -0.789227 2.133518 -0.004558 0.000001 -476411.000000 1 0 0
-11.011563 8.416653 5.263994 14.825795 -0.652620 1.207822 0.002338 -0.005488 65920.600000 1 0 0
-9.149663 -5.461547 5.123894 11.823667 0.538146 1.122580 0.000441 -0.002025 -1230480.000000 1 0 0
3.379237 9.829853 -7.988906 13.109839 1.239680 2.226078 0.006329 -0.000352 839150.000000 1 0 0
-8.142463 -8.480547 6.087994 13.239450 0.805734 1.092984 0.008323 -0.002046 -357248.000000 1 0 0
-7.797563 -5.651347 -7.461106 12.182275 0.627150 2.229960 0.006599 -0.003543 -878592.000000 1 0 0
9.252937 -1.724947 6.976494 11.715961 -0.184306 0.932947 -0.001953 -0.002382 -380702.000000 1 0 0
-4.043563 -0.491347 -4.846506 6.330912 0.120920 2.442662 0.000462 -0.004624 -2591000.000000 1 0 0
9.090137 1.057553 -4.392306 10.150929 0.115820 2.018282 0.002910 -0.000267 -1300040.000000 1 0 0
-1.862763 -10.718147 10.803994 15.332150 1.398720 0.788849 -0.012556 -0.001402 50285.100000 1 0 0
-12.757463 0.165453 -2.632906 13.027373 -0.012968 1.774304 -0.001059 0.000993 215352.000000 1 0 0
-9.729963 -5.122947 -6.033606 12.542774 0.484632 2.072640 0.007771 -0.004612 -554547.000000 1 0 0
-5.665663 8.271953 -0.221906 10.028669 -0.970260 1.592925 -0.001294 0.001447 250080.000000 1 0 0
6.295737 9.570253 0.393294 11.462144 0.988926 1.536477 0.004780 0.000729 359464.000000 1 0 0
-0.700563 -12.132847 0.033094 12.153100 1.513119 1.568073 0.010515 -0.003209 72385.400000 1 0 0
6.206037 4.644853 2.428294 8.123187 0.642503 1.267221 0.001126 0.000456 293244.000000 1 0 0
3.496937 -7.525647 -8.248706 11.700644 -1.135811 2.353190 0.000622 -0.004303 855778.000000 1 0 0
-6.610763 -9.827647 4.486694 12.665514 0.978649 1.208690 0.005678 -0.000726 -2213660.000000 1 0 0
0.038937 6.557253 -9.319106 11.394948 1.564858 2.528423 0.008117 -0.000364 402923.000000 1 0 0
-17.325263 -2.676947 4.382294 18.070287 0.153299 1.325840 0.008964 -0.000757 480901.000000 1 0 0
-8.270363 0.876453 -9.281806 12.462705 -0.105581 2.410981 -0.002710 -0.001498 -152488.000000 1 0 0
-9.964363 -5.858247 -11.879806 16.575204 0.531490 2.369886 0.006021 0.005314 -134362.000000 1 0 0
2.217937 9.515653 6.564794 11.771297 1.341802 0.979190 -0.005312 0.006635 -265951.000000 1 0 0
-11.207063 1.630453 -1.197006 11.388128 -0.144471 1.676101 0.003226 -0.000932 -2423500.000000 1 0 0
-5.838663 -5.225847 -3.126006 8.436313 0.730069 1.950389 0.006667 -0.003574 370988.000000 1 0 0
-6.946063 -8.265747 1.333994 10.878874 0.871935 1.447865 0.005947 -0.000442 -814111.000000 1 0 0
0.116937 10.948153 -7.931106 13.519548 1.560116 2.197700 0.009854 0.002039 1115090.000000 1 0 0
-2.903963 9.306853 -4.219406 10.623272 -1.268345 1.979244 0.003988 0.001471 695257.000000 1 0 0
3.437837 -4.772747 9.241094 10.954252 -0.946572 0.566829 -0.005447 0.000690 -1738690.000000 1 0 0
-8.892363 1.580653 -0.371806 9.039404 -0.175917 1.611940 -0.000923 -0.000618 -331992.000000 1 0 0
2.438437 3.610553 -10.381006 11.258213 0.976797 2.744225 0.005227 0.000386 1283200.000000 1 0 0
-13.785063 0.553053 1.223894 13.850334 -0.040098 1.482315 0.001032 -0.003614 -1154040.000000 1 0 0
9.442337 -12.561647 -5.144006 16.535220 -0.926221 1.887140 0.018655 -0.000693 -1554640.000000 1 0 0
-4.667363 9.469253 -8.439706 13.515905 -1.112848 2.245195 -0.001419 -0.001259 -625277.000000 1 0 0
-2.266963 7.096253 8.484394 11.290743 -1.261584 0.720544 -0.001796 0.004767 -2243770.000000 1 0 0
-10.666063 -1.388747 -4.438406 11.635848 0.129474 1.962153 0.003974 -0.001441 -4370930.000000 1 0 0
2.720737 -7.169647 9.636594 12.315445 -1.208104 0.672157 -0.005852 0.000111 -253386.000000 1 0 0
-16.011763 -6.359347 3.371894 17.555270 0.378062 1.377522 -0.003784 -0.001917 -939389.000000 1 0 0
-10.797363 0.112453 6.183494 12.443122 -0.010415 1.050727 0.002184 -0.004526 -1142780.000000 1 0 0
-8.394163 9.924853 9.285894 15.974746 -0.868762 0.950488 0.000814 -0.006736 689088.000000 1 0 0
0.217637 -6.062547 -3.775306 7.145262 -1.534913 2.127470 0.000394 -0.001780 -246943.000000 1 0 0
4.965937 1.402953 -3.058906 5.998809 0.275340 2.105887 0.000285 0.001476 1406850.000000 1 0 0
0.352037 5.344153 3.815594 6.575915 1.505018 0.951776 -0.002507 0.005322 -2403010.000000 1 0 0
6.036537 -11.219647 -1.669406 12.849403 -1.077187 1.701086 0.001057 -0.004114 -2017660.000000 1 0 0
6.135837 -13.543847 5.297594 15.784447 -1.145421 1.228532 0.010491 0.001618 428063.000000 1 0 0
8.028337 -8.288747 -5.968706 12.991650 -0.801356 2.048146 0.008202 -0.004967 756073.000000 1 0 0
-13.015563 -1.450847 -4.602306 13.881321 0.111012 1.908739 0.000966 0.001719 -2842780.000000 1 0 0
-6.696863 -1.484747 -7.053806 9.839138 0.218179 2.370161 0.003649 -0.003285 -598155.000000 1 0 0
-5.644463 12.889053 -4.653906 14.820476 -1.158028 1.890219 0.000152 0.001421 -283506.000000 1 0 0
-4.337563 6.976753 -6.856406 10.700460 -1.014562 2.266282 0.001434 0.000810 -2181430.000000 1 0 0
-9.227663 -3.671247 -8.207506 12.883749 0.378653 2.261453 0.005249 0.000665 736267.000000 1 0 0
-2.146063 -6.428247 9.225494 11.447169 1.248582 0.633570 -0.002768 -0.000620 -774144.000000 1 0 0
7.447937 -6.042947 9.989094 13.848139 -0.681629 0.765074 -0.004060 0.002154 294317.000000 1 0 0
9.478537 -4.994547 12.133094 16.186418 -0.484961 0.723362 -0.001327 -0.002007 101214.000000 1 0 0
-6.465763 2.884753 -9.041106 11.483444 -0.419655 2.477241 -0.000938 -0.002854 -208752.000000 1 0 0
7.434137 5.481853 8.847994 12.790782 0.635381 0.806890 -0.002386 0.000587 -14765.000000 1 0 0
12.686437 3.310853 11.217894 17.255393 0.255282 0.863068 0.009823 0.004285 -907535.000000 1 0 0
-7.355363 -7.279447 -3.820206 11.031123 0.780211 1.924433 0.010183 -0.005866 -1657430.000000 1 0 0
2.215037 1.391553 -5.856006 6.413706 0.560919 2.721487 0.006360 -0.000009 1013160.000000 1 0 0
12.911737 7.104353 -7.007106 16.318221 0.503016 2.014629 0.009995 0.000222 -602128.000000 1 0 0
0.703237 -7.593347 0.944994 7.684170 -1.478448 1.447505 0.004246 -0.001673 949556.000000 1 0 0
-10.221063 -5.988547 -8.604406 14.641333 0.529989 2.198984 0.007392 0.000019 -513719.000000 1 0 0
-6.776763 0.320453 3.115294 7.465404 -0.047252 1.140327 0.004766 -0.003818 2532640.000000 1 0 0
10.667637 -7.990547 1.301094 13.391794 -0.642890 1.473487 0.007358 -0.003365 -412055.000000 1 0 0
6.224837 1.153053 10.611794 12.356710 0.183158 0.537897 -0.000804 -0.000225 -1040520.000000 1 0 0
-12.909263 5.325153 1.766194 14.075716 -0.391241 1.444987 0.008361 -0.004424 293556.000000 1 0 0
2.029137 7.433453 3.627594 8.516634 1.304315 1.130793 -0.004692 0.005996 176727.000000 1 0 0
10.039437 -9.474947 -0.817506 13.828710 -0.756479 1.629947 0.011461 -0.004078 829812.000000 1 0 0
6.774837 -11.741947 -9.114006 16.335141 -1.047477 2.162696 0.012819 0.000646 -56709.400000 1 0 0
10.289137 3.569453 11.955494 16.172234 0.333924 0.738825 0.001027 0.002184 -1536740.000000 1 0 0
-11.023263 -3.089847 -1.936806 11.610801 0.273289 1.738391 0.000437 -0.002489 452677.000000 1 0 0
12.318537 0.919953 6.939094 14.168405 0.074542 1.058984 0.005982 0.001871 -197901.000000 1 0 0
-9.500563 9.179753 3.084594 13.566256 -0.768226 1.341418 0.005059 -0.005976 1538890.000000 1 0 0
-6.645763 7.737753 -9.008506 13.608533 -0.861172 2.294247 -0.004224 -0.004431 -172345.000000 1 0 0
8.489637 5.454653 12.089494 15.747477 0.571090 0.695537 0.000415 0.006973 -1711130.000000 1 0 0
1.324937 4.864553 -2.703106 5.720675 1.304881 2.062939 0.003092 -0.000408 815482.000000 1 0 0
1.535237 0.502353 9.479494 9.616138 0.316235 0.168782 0.000431 -0.000254 875521.000000 1 0 0
2.632337 12.586553 -3.918906 13.442781 1.364629 1.866617 0.008178 -0.000509 495007.000000 1 0 0
2.011437 0.582853 13.036294 13.203430 0.282045 0.159282 -0.001605 0.000263 -56564.900000 1 0 0
-12.234163 -1.662147 0.880194 12.377892 0.135034 1.499626 -0.003854 -0.004058 49290.700000 1 0 0
3.412537 8.673953 -1.188306 9.396539 1.195972 1.697598 0.003512 0.002947 395829.000000 1 0 0
3.599537 -2.920447 -5.842006 7.457527 -0.681617 2.470866 0.003729 -0.002600 -992904.000000 1 0 0
-7.742563 -7.254347 9.179694 14.029954 0.752855 0.857550 0.002560 0.000075 58985.600000 1 0 0
-7.075963 10.907153 -3.716406 13.522090 -0.995304 1.849219 0.002839 0.000660 889326.000000 1 0 0
0.389437 0.440853 2.514394 2.582284 0.847245 0.229811 0.002988 -0.000577 -2205550.000000 1 0 0
-6.977063 4.629653 -1.962606 8.600286 -0.585844 1.801027 -0.001753 -0.000059 -1335880.000000 1 0 0
-6.966663 -3.880047 -5.918706 9.930772 0.508159 2.209302 -0.000485 -0.003031 -139382.000000 1 0 0
2.917037 -6.251147 13.412294 15.082293 -1.134191 0.475041 -0.005150 -0.002396 -913924.000000 1 0 0
-5.400363 -0.543647 -11.855706 13.039066 0.100331 2.712263 0.006282 -0.004803 -675821.000000 1 0 0
11.777037 2.403653 -0.423106 12.027268 0.201331 1.605983 0.001302 0.001834 -993996.000000 1 0 0
6.122237 -11.044647 10.671094 16.532944 -1.064645 0.869192 0.002955 0.000112 117216.000000 1 0 0
-8.224863 6.510453 -10.583006 14.900819 -0.669572 2.360621 -0.006186 -0.002809 476806.000000 1 0 0
2.959837 7.965053 11.334694 14.166086 1.215007 0.643286 0.000602 0.006353 924626.000000 1 0 0
-6.200963 -10.004747 -0.452806 11.779301 1.015944 1.609247 0.006852 0.001884 -282608.000000 1 0 0
11.397837 4.163653 6.074994 13.570271 0.350241 1.106639 0.003107 0.002552 1202160.000000 1 0 0
-7.758563 10.613953 1.450094 13.227021 -0.939581 1.460944 0.002126 -0.000660 464293.000000 1 0 0
4.290137 -2.610147 -3.508306 6.125876 -0.546578 2.180595 0.004710 -0.004648 -4668060.000000 1 0 0
6.384737 6.490953 6.359794 11.106049 0.793647 0.961071 0.001516 0.002917 -4401700.000000 1 0 0
-0.479263 10.349853 -10.212106 14.547724 -1.524523 2.348960 0.007682 -0.003041 -352486.000000 1 0 0
13.946537 6.505153 -2.358606 15.568749 0.436437 1.722878 0.004791 0.002543 789384.000000 1 0 0
1.431137 9.553053 -6.106106 11.427752 1.422093 2.134502 0.005773 0.003534 -277205.000000 1 0 0
0.695637 7.410153 7.278394 10.410058 1.477194 0.796561 -0.006557 0.006959 259722.000000 1 0 0
12.315137 6.184553 1.920394 13.913993 0.465399 1.432335 0.000247 0.002086 -2019680.000000 1 0 0
-6.842663 6.688153 -3.247706 10.104505 -0.773980 1.898016 -0.003061 -0.000636 529956.000000 1 0 0
1.060537 9.833353 11.246194 14.976530 1.463361 0.721340 -0.002504 0.004292 347601.000000 1 0 0
-3.676863 13.575253 -10.942706 17.819923 -1.306292 2.232005 -0.000607 -0.000496 -25644.800000 1 0 0
-10.029763 -5.508347 -2.271406 11.666075 0.502229 1.766750 0.004004 -0.003062 -57329.500000 1 0 0
-4.017063 4.007453 -12.544706 13.768302 -0.784201 2.716813 0.003475 -0.005848 -163505.000000 1 0 0
-3.132363 8.406553 2.408794 9.288925 -1.214123 1.308479 -0.001818 0.005447 -4453360.000000 1 0 0
7.064137 8.925753 7.082594 13.406500 0.901301 1.014205 0.002908 0.005124 480811.000000 1 0 0
-1.350563 -2.227147 -8.218106 8.620990 1.025677 2.834668 0.000983 -0.004818 -1701050.000000 1 0 0
0.851037 -1.310747 4.818794 5.065875 -0.994930 0.313609 0.004658 -0.002410 -696887.000000 1 0 0
2.601137 -8.824547 -6.079406 11.027135 -1.284152 2.154734 -0.002880 -0.003822 226345.000000 1 0 0
5.444537 3.946853 8.714494 11.007408 0.627256 0.657220 -0.000374 0.000657 -638750.000000 1 0 0
6.121837 -7.349447 -2.917906 10.000271 -0.876275 1.866886 0.006128 -0.008305 477908.000000 1 0 0
1.792237 2.218853 -8.326606 8.801579 0.891359 2.811572 0.005453 0.001314 304997.000000 1 0 0
-5.407063 10.908453 -0.631206 12.191354 -1.110614 1.622594 -0.000796 0.004928 422197.000000 1 0 0
-5.410163 3.382553 -3.486606 7.271035 -0.558759 2.070904 -0.003520 0.001615 -209868.000000 1 0 0
2.074037 13.703353 -6.270806 15.212052 1.420584 1.995692 0.005935 -0.000952 587956.000000 1 0 0
-5.344663 -2.487147 2.623694 6.452526 0.435547 1.152050 -0.001765 -0.003388 -272378.000000 1 0 0
10.553537 -3.336147 -1.952406 11.239168 -0.306176 1.745397 0.005168 -0.001904 97645.800000 1 0 0
2.378137 -3.399147 7.072994 8.199815 -0.960320 0.530450 -0.002483 -0.000542 -2116590.000000 1 0 0
-2.936163 9.831453 -11.715306 15.573276 -1.280579 2.422297 0.004505 -0.005751 -2530910.000000 1 0 0
0.523637 -2.034947 9.202694 9.439533 -1.318938 0.224480 -0.002384 -0.000997 424598.000000 1 0 0
9.497537 2.657053 4.963994 11.041031 0.272788 1.104484 -0.002563 -0.000194 -534701.000000 1 0 0
13.405437 2.114153 -5.108906 14.500907 0.156420 1.930841 0.012030 -0.000084 -711899.000000 1 0 0
-6.418463 3.763053 7.605994 10.639943 -0.530274 0.774383 0.001780 -0.001475 -616330.000000 1 0 0
10.519537 0.013753 1.889494 10.687892 0.001307 1.393074 -0.002092 0.002544 1360320.000000 1 0 0
15.406237 6.739753 -4.470706 17.400104 0.412385 1.830646 0.015791 0.004171 614046.000000 1 0 0
8.098437 -4.962647 -9.257506 13.263256 -0.549771 2.343371 0.011308 -0.000021 -235108.000000 1 0 0
4.436937 5.551853 -2.109406 7.413439 0.896555 1.859321 0.000503 0.001750 192803.000000 1 0 0
-1.705363 -10.512747 1.497294 10.754905 1.409979 1.431123 0.007759 -0.002362 -855761.000000 1 0 0
-3.011063 12.171053 -12.849906 17.953304 -1.328271 2.368480 0.003438 -0.007304 -447349.000000 1 0 0
8.289937 4.237253 -9.571506 13.352569 0.472514 2.370040 -0.000801 0.002303 -1508670.000000 1 0 0
4.088237 7.570853 -9.104206 12.526694 1.075666 2.384425 0.003443 -0.000939 -2168730.000000 1 0 0
-1.656163 -4.955547 -2.426206 5.760798 1.248262 2.005518 0.000744 -0.002641 -770711.000000 1 0 0
-3.252863 -9.151147 7.009694 11.977496 1.229266 0.945622 0.001721 -0.000418 -315557.000000 1 0 0
1.142237 7.228153 -1.416506 7.453683 1.414066 1.762000 0.004339 0.001036 1077730.000000 1 0 0
0.259137 -0.994847 -2.106206 2.343710 -1.315979 2.687509 0.008281 -0.001350 -1364780.000000 1 0 0
4.087237 -6.798047 7.449694 10.881952 -1.029468 0.816753 -0.002703 0.000701 -718698.000000 1 0 0
-13.988663 3.881353 6.020394 15.716003 -0.270656 1.177674 0.004885 -0.002010 -566537.000000 1 0 0
4.261437 6.228753 12.614794 14.700008 0.970783 0.539143 0.005125 0.006045 -511225.000000 1 0 0
8.280637 10.089053 -7.195306 14.904039 0.883528 2.074618 -0.001071 -0.001768 -54034.500000 1 0 0
12.501737 5.265653 9.502494 16.562546 0.398642 0.959739 0.009999 0.002330 -5792.610000 1 0 0
7.617637 3.920653 0.464594 8.579963 0.475323 1.516621 -0.001463 0.001018 -2647600.000000 1 0 0
-10.749863 -7.632947 -1.052106 13.226048 0.617440 1.650429 0.005622 -0.001820 -1289320.000000 1 0 0
10.489137 6.731753 0.086194 12.463785 0.570577 1.563881 -0.000289 0.001116 -701534.000000 1 0 0
14.652937 3.543453 4.316394 15.681067 0.237270 1.291935 0.012031 0.002638 576517.000000 1 0 0
2.111737 5.518853 8.210694 10.115961 1.205344 0.623813 -0.004386 0.005991 -1710740.000000 1 0 0
4.167037 0.126253 11.709494 12.429496 0.030289 0.342038 -0.004964 0.000691 -1895430.000000 1 0 0
-1.608463 -1.494347 -0.363006 2.225309 0.748636 1.734655 0.006454 -0.004653 -1137960.000000 1 0 0
3.108837 -5.250647 -9.536606 11.321705 -1.036216 2.572387 0.000724 -0.001552 199321.000000 1 0 0
-3.933263 -5.295847 -1.335906 6.730616 0.931979 1.770605 0.002224 -0.004654 -118450.000000 1 0 0
-1.375763 -8.768147 8.678894 12.413554 1.415161 0.796593 -0.004332 -0.001148 8770.620000 1 0 0
3.916637 8.615253 -5.877206 11.140206 1.144110 2.126530 0.004289 0.003966 583865.000000 1 0 0
-14.182063 -1.745847 -2.590106 14.521968 0.122486 1.750114 -0.005696 -0.001845 -824260.000000 1 0 0
8.800137 -10.515847 -6.486406 15.169011 -0.873989 2.012642 0.010889 -0.003537 683491.000000 1 0 0
14.856437 6.037953 1.700894 16.126489 0.386029 1.465128 0.002911 0.006000 -185984.000000 1 0 0
-5.742563 0.436553 -8.563106 10.319612 -0.075875 2.549527 0.001906 -0.006258 175401.000000 1 0 0
-8.035263 -4.569147 -12.989706 15.942867 0.517039 2.523122 -0.001014 -0.000015 645908.000000 1 0 0
0.904637 -10.787847 12.044794 16.194847 -1.487135 0.732145 -0.003392 -0.001658 -356384.000000 1 0 0
0.266737 11.731153 3.320194 12.194868 1.548063 1.295054 0.000497 0.005866 -747264.000000 1 0 0
5.146137 -13.049847 -3.728506 14.514923 -1.195175 1.830583 0.005913 -0.003325 1133050.000000 1 0 0
-7.439663 1.549353 -7.053206 10.368066 -0.205321 2.318943 -0.002607 -0.000557 662195.000000 1 0 0
1.520537 2.715853 3.995994 5.065161 1.060404 0.661751 0.000810 0.000624 -1240520.000000 1 0 0
17.302137 5.202153 2.426094 18.229434 0.292067 1.437314 0.011469 0.004783 974433.000000 1 0 0
2.613337 -8.006547 -3.463006 9.106411 -1.255299 1.960898 -0.001384 -0.002697 407286.000000 1 0 0
-0.183663 -9.550947 -0.391406 9.560728 1.551569 1.611747 0.007647 -0.000197 122475.000000 1 0 0
0.779137 11.895353 -5.551006 13.149911 1.505390 2.006593 0.009563 0.001236 293930.000000 1 0 0
5.987637 -5.064847 7.670494 10.970002 -0.702100 0.796484 -0.003673 0.001498 -1211220.000000 1 0 0
-5.998563 -1.822047 -9.439606 11.331760 0.294891 2.555344 0.003952 -0.004223 -448146.000000 1 0 0
2.033337 -1.370647 11.287694 11.550981 -0.593122 0.213919 -0.003250 0.001183 -493590.000000 1 0 0
17.974137 2.428953 -5.705806 19.013828 0.134322 1.875580 0.001656 0.006368 -973382.000000 1 0 0
-8.766763 4.776253 7.789994 12.663046 -0.498853 0.908188 0.001541 -0.006437 -1088030.000000 1 0 0
11.598637 -6.992547 -4.805206 14.370598 -0.542532 1.911741 0.022959 -0.005199 -475959.000000 1 0 0
10.758137 0.545553 9.039994 14.062597 0.050667 0.872597 0.001898 0.002041 -81882.800000 1 0 0
-8.317763 -7.327547 -1.534406 11.190734 0.722191 1.708344 0.007599 -0.003168 -1401010.000000 1 0 0
10.313737 -10.395047 -3.264006 15.002796 -0.789324 1.790110 0.017937 -0.003397 1403070.000000 1 0 0
7.707637 -13.811447 -3.823206 16.272081 -1.061785 1.807969 0.010971 -0.003138 -1526030.000000 1 0 0
1.716837 -1.140047 -11.669606 11.850188 -0.586181 2.966792 0.008102 -0.003965 223724.000000 1 0 0
-11.826363 -2.738147 -6.393006 13.719724 0.227520 2.055529 0.007457 -0.002897 -750059.000000 1 0 0
2.653137 -12.136347 -6.441906 13.993863 -1.355571 2.049172 0.000979 -0.003022 114559.000000 1 0 0
-5.484663 1.455153 1.024194 5.766106 -0.259338 1.392226 0.001420 -0.001766 627526.000000 1 0 0
0.102737 6.851853 -3.969206 7.919157 1.555803 2.095799 0.007083 -0.000199 1003620.000000 1 0 0
5.390037 -11.828447 3.658394 13.503647 -1.143225 1.296449 -0.003659 -0.000468 -2360120.000000 1 0 0
-4.455863 -9.136447 1.166094 10.231771 1.117035 1.456580 0.005815 -0.001047 -217887.000000 1 0 0
7.059037 -6.044647 -4.852106 10.483830 -0.708140 2.051968 0.007619 -0.007509 -236548.000000 1 0 0
-6.833563 -5.994447 2.192394 9.350806 0.720078 1.334133 0.006173 -0.002213 -1059600.000000 1 0 0
-6.483663 -1.008247 7.070394 9.645979 0.154270 0.748091 0.002251 -0.003460 -3251930.000000 1 0 0
4.207037 -4.951447 3.164494 7.227033 -0.866501 1.117569 -0.000994 -0.002396 -858071.000000 1 0 0
-2.445463 10.495953 -8.761406 13.889117 -1.341889 2.253394 0.003650 -0.003123 -1125620.000000 1 0 0
-2.289263 -4.873147 2.776194 6.057684 1.131623 1.094723 0.003638 -0.001704 944701.000000 1 0 0
15.161937 5.035353 6.448594 17.228566 0.320645 1.187158 0.014062 0.002127 1288720.000000 1 0 0
6.854937 0.290753 0.058494 6.861350 0.042390 1.562271 0.003018 -0.001359 2299550.000000 1 0 0
-9.705263 9.327553 0.495994 13.470018 -0.765556 1.533966 0.003552 -0.003754 -1843170.000000 1 0 0
7.260037 10.355553 -2.584006 12.908242 0.959348 1.772341 0.002373 0.001027 -337144.000000 1 0 0
1.569137 -4.278847 -5.455906 7.108982 -1.219305 2.445676 0.000907 -0.003564 -1005670.000000 1 0 0
0.856437 -8.099547 -7.878106 11.331403 -1.465449 2.339558 -0.001845 0.000374 1151240.000000 1 0 0
-10.400063 0.224653 -10.558106 14.821788 -0.021598 2.363619 -0.002080 -0.001277 -3184130.000000 1 0 0
5.867637 -2.507847 0.496094 6.400357 -0.403904 1.493208 0.005147 -0.002884 150196.000000 1 0 0
-3.320263 5.289253 -1.124706 6.345496 -1.010231 1.748983 0.000616 -0.001629 862261.000000 1 0 0
-0.371163 4.576153 -5.156106 6.903939 -1.489865 2.414087 0.003998 -0.000383 -1085810.000000 1 0 0
3.982137 -9.766847 9.985094 14.524146 -1.183653 0.812780 -0.001968 0.000299 -2149590.000000 1 0 0
7.262437 -13.460647 -0.925406 15.322806 -1.076026 1.631227 0.005637 0.001151 240519.000000 1 0 0
12.984837 -0.020747 0.572394 12.997463 -0.001598 1.526743 0.004358 -0.003054 38272.200000 1 0 0
9.294437 2.261253 -0.629606 9.586252 0.238654 1.636522 -0.001196 0.000208 -925275.000000 1 0 0
-0.712763 -5.796247 4.486394 7.364254 1.448441 0.915729 0.000705 -0.000535 1280140.000000 1 0 0
11.478537 -3.737247 3.243594 12.499789 -0.314761 1.308300 0.005198 -0.000659 -1164050.000000 1 0 0
1.602837 -8.271547 11.705894 14.422743 -1.379391 0.623864 -0.001570 -0.001627 250828.000000 1 0 0
9.496937 -6.137847 -5.887606 12.748681 -0.573768 2.050843 0.011764 -0.003964 -248067.000000 1 0 0
3.268437 6.259753 -0.145606 7.063172 1.089598 1.591413 -0.000334 0.003479 -1997940.000000 1 0 0
6.298837 -1.353847 11.417894 13.110169 -0.211715 0.513727 -0.004302 -0.000387 360097.000000 1 0 0
-4.855363 -7.528147 -3.827606 9.741566 0.997971 1.974596 0.003862 -0.001781 -705069.000000 1 0 0
-3.400163 -8.402847 -5.768806 10.744676 1.186293 2.137553 0.004136 0.001880 -845927.000000 1 0 0
9.844337 5.356653 2.199194 11.421084 0.498330 1.377030 -0.000924 -0.000523 -536254.000000 1 0 0
8.910037 -1.397147 0.217994 9.021546 -0.155539 1.546630 -0.000459 -0.000725 1788390.000000 1 0 0
-3.875263 9.618853 9.231594 13.883887 -1.187808 0.843417 -0.001728 0.003348 -4774.480000 1 0 0
-14.323563 -3.658647 -6.004706 15.956398 0.250081 1.956617 -0.000808 -0.001027 436044.000000 1 0 0
10.629937 6.361653 -5.997106 13.763411 0.539291 2.021643 0.000514 -0.001163 -381206.000000 1 0 0
-1.739863 4.468753 2.707294 5.506934 -1.199514 1.056852 -0.001189 0.000870 532870.000000 1 0 0
6.985837 -3.703547 2.595494 8.321945 -0.487476 1.253619 0.001658 -0.003491 -2613360.000000 1 0 0
8.361937 -11.243647 -1.675406 14.112001 -0.931337 1.689799 0.010631 -0.003968 -1514870.000000 1 0 0
4.557637 0.507453 1.788794 4.922331 0.110885 1.198877 0.003346 -0.000392 697676.000000 1 0 0
-10.803263 2.420653 3.766694 11.694359 -0.220426 1.242855 0.001561 -0.004749 141560.000000 1 0 0
-0.876663 -3.081347 4.538694 5.555446 1.293614 0.614640 0.003238 -0.000328 325180.000000 1 0 0
8.685837 -8.710647 -8.484006 14.943142 -0.786824 2.174569 0.018120 -0.002137 -226484.000000 1 0 0
12.114137 -4.805047 1.077294 13.076748 -0.377613 1.488320 0.005232 -0.001956 426078.000000 1 0 0
2.888237 4.841153 3.500494 6.635671 1.032880 1.015110 -0.001807 0.002762 -559839.000000 1 0 0
6.176837 7.433553 1.986394 9.866954 0.877472 1.368093 0.000305 0.001446 -249068.000000 1 0 0
-1.676363 -1.275547 -10.311606 10.524563 0.650441 2.940084 0.008129 -0.004706 1451870.000000 1 0 0
-0.899563 -8.591947 6.040894 10.541497 1.466478 0.960563 -0.002602 -0.000887 -406341.000000 1 0 0
-4.265863 -0.248047 2.356694 4.879869 0.058081 1.066785 0.002145 -0.002439 589046.000000 1 0 0
-8.369963 6.249653 -8.104406 13.221038 -0.641371 2.230640 -0.006953 -0.002051 -1099420.000000 1 0 0
6.485237 11.253953 -9.502706 16.093825 1.048013 2.202421 0.003802 -0.001076 650.408000 1 0 0
-11.152663 -5.665247 3.108494 12.889517 0.470005 1.327231 -0.000158 -0.001183 1058570.000000 1 0 0
1.517837 -6.264047 3.008194 7.112759 -1.333069 1.134121 -0.000424 -0.002040 572176.000000 1 0 0
10.128637 2.182953 7.255594 12.649040 0.212276 0.959892 0.000270 0.003343 -1207670.000000 1 0 0
-4.116363 -2.500947 -10.571706 11.617235 0.545961 2.714085 0.005269 -0.003656 -2512230.000000 1 0 0
-8.183063 11.806453 5.917294 15.536062 -0.964716 1.180054 0.001125 0.000274 242168.000000 1 0 0
6.895337 5.964453 -2.855206 9.553668 0.713137 1.874294 0.001312 0.001531 -1811070.000000 1 0 0
3.836637 -9.864747 -2.398006 10.852808 -1.199875 1.793592 -0.001850 -0.006601 -1151580.000000 1 0 0
8.409837 -12.889347 -7.435806 17.092449 -0.992691 2.020873 0.019350 -0.003068 -591679.000000 1 0 0
-1.145863 9.528053 3.649194 10.267104 -1.451109 1.207427 -0.003198 0.006785 -6145.790000 1 0 0
0.414937 -13.273547 4.757794 14.106588 -1.539546 1.226776 0.004378 -0.003075 -579569.000000 1 0 0
-11.192163 -7.041047 -4.983506 14.130682 0.561546 1.931222 0.004005 -0.005428 -275000.000000 1 0 0
3.723137 10.279553 -3.307506 11.422371 1.223305 1.864568 0.008764 0.001599 -447757.000000 1 0 0
11.705337 -8.039347 -7.358706 15.993641 -0.601819 2.048906 0.027979 -0.001155 160533.000000 1 0 0
11.726437 -4.639147 -5.849506 13.901357 -0.376720 2.005109 0.021130 -0.007489 777722.000000 1 0 0
1.280937 -10.229047 -2.775906 10.676135 -1.446219 1.833829 -0.001325 -0.001179 -875203.000000 1 0 0
2.317937 -11.981147 -3.955006 12.828202 -1.379692 1.884208 0.003240 -0.002880 -1691950.000000 1 0 0
-7.655163 -5.596147 7.304294 11.969590 0.631249 0.914436 0.003524 -0.000211 -2535180.000000 1 0 0
-7.281363 -0.817947 9.508794 12.004351 0.111865 0.656534 0.000055 -0.001959 -381741.000000 1 0 0
16.190037 2.696453 -7.499906 18.045408 0.165035 1.999413 0.008540 0.005570 -343712.000000 1 0 0
-2.055363 6.277353 -5.506006 8.599174 -1.254373 2.265678 0.002864 0.002158 1001570.000000 1 0 0
7.714337 1.076453 8.504794 11.532617 0.138644 0.741501 -0.000611 0.001501 -596236.000000 1 0 0
7.891037 8.184553 -3.782906 11.981893 0.803655 1.892010 0.001835 0.001796 -826095.000000 1 0 0
8.113037 0.508253 4.041394 9.078136 0.062565 1.109422 -0.000556 0.000996 504009.000000 1 0 0
-7.005563 5.866353 5.391994 10.609694 -0.697125 1.037687 0.004945 -0.005135 48048.800000 1 0 0
-6.010063 -2.154747 -4.537906 7.833032 0.344248 2.188702 0.001169 -0.002907 -1057470.000000 1 0 0
-15.211163 -1.970947 3.148294 15.658093 0.128854 1.368351 0.006884 -0.004568 -1473100.000000 1 0 0
1.122737 1.305953 -10.682406 10.820345 0.860694 2.981748 0.007620 -0.004861 402615.000000 1 0 0
1.446737 -9.351947 9.317794 13.280558 -1.417314 0.793140 -0.005361 -0.002337 -584200.000000 1 0 0
-0.374763 -7.071847 -1.397906 7.218421 1.517852 1.765686 0.001950 -0.001881 738412.000000 1 0 0
-0.470763 -10.221447 -8.465806 13.280417 1.524772 2.262000 -0.000952 0.001224 -387546.000000 1 0 0
-4.367463 6.558553 3.859494 8.774112 -0.983312 1.115339 -0.001690 0.001348 86273.500000 1 0 0
10.795937 -1.138847 -8.636706 13.872344 -0.105100 2.242837 0.014726 0.000963 558760.000000 1 0 0
3.061637 -1.088947 6.289394 7.079258 -0.341721 0.476893 -0.000501 0.001278 380856.000000 1 0 0
1.791437 -12.289947 6.815194 14.166824 -1.426051 1.068925 0.002914 0.000693 -554961.000000 1 0 0
3.018237 -5.025147 -1.312606 6.007061 -1.029916 1.791084 0.005960 -0.002932 -1800760.000000 1 0 0
-1.062563 9.594453 -1.664706 9.795602 -1.460498 1.741569 0.004064 0.001980 1092690.000000 1 0 0
4.536737 -2.483447 2.565694 5.773411 -0.500851 1.110294 0.004327 -0.002788 -558485.000000 1 0 0
17.808037 6.874953 -2.582106 19.262877 0.368431 1.705247 0.012197 0.016051 186250.000000 1 0 0
-7.139663 3.510053 -5.494006 9.668473 -0.456927 2.175161 -0.004521 0.000317 -1496460.000000 1 0 0
-13.782663 -5.897547 2.358694 15.175846 0.404321 1.414739 -0.006991 -0.001905 -1997680.000000 1 0 0
6.661637 -6.053447 3.239694 9.566464 -0.737602 1.225313 -0.000119 -0.003310 -600286.000000 1 0 0
-4.660263 2.047753 3.482794 6.167755 -0.414010 0.970754 0.002503 -0.002978 588828.000000 1 0 0
6.893237 -11.998147 -5.450206 14.872020 -1.049319 1.946013 0.009758 -0.003599 -973988.000000 1 0 0
2.860537 -12.310047 3.354594 13.075673 -1.342474 1.311343 0.004165 -0.004595 -1059210.000000 1 0 0
3.356537 11.312853 -6.085506 13.277062 1.282369 2.046931 0.005392 0.003368 -352051.000000 1 0 0
-5.646063 -8.364647 6.423594 11.962771 0.977053 1.003961 0.007174 -0.001258 -823502.000000 1 0 0
-3.879463 6.626653 6.374394 9.979763 -1.041157 0.877947 0.000840 0.002789 492607.000000 1 0 0
4.325537 4.301953 -6.888606 9.201629 0.782665 2.416788 0.000871 0.005156 -1581490.000000 1 0 0
-0.360763 -2.707047 1.694694 3.214069 1.438309 1.015408 0.003967 -0.002775 149289.000000 1 0 0
-13.179563 -0.923647 6.648394 14.790373 0.069967 1.104582 0.000829 0.000043 -173668.000000 1 0 0
-0.676963 -9.321347 -6.023206 11.118669 1.498299 2.143278 -0.001278 0.000693 -159328.000000 1 0 0
1.990637 -1.819947 -3.884506 4.729083 -0.740634 2.534671 0.008159 -0.002706 -904161.000000 1 0 0
11.425337 -1.970747 1.161794 11.652121 -0.170808 1.470924 0.003615 -0.001568 863233.000000 1 0 0
0.618437 -4.478247 -1.808306 4.868997 -1.433566 1.951304 0.003492 -0.004196 -1732870.000000 1 0 0
1.114737 -7.221447 -11.370806 13.516182 -1.417640 2.570431 0.001250 0.002605 -1684730.000000 1 0 0
-4.529263 4.242453 -10.086406 11.842644 -0.752713 2.590021 0.001141 -0.004987 -83036.800000 1 0 0
-1.062563 5.774953 -2.101306 6.236555 -1.388836 1.914455 0.003348 0.000158 -850038.000000 1 0 0
-11.286563 1.711353 -3.869506 12.053560 -0.150481 1.897609 0.003650 0.001117 -288416.000000 1 0 0
-1.795963 -11.288847 4.150394 12.160975 1.413027 1.222510 0.007329 -0.002750 -372218.000000 1 0 0
-3.534863 -5.459347 -9.669806 11.653535 0.996189 2.549500 0.000907 0.001613 -2171120.000000 1 0 0
-12.806963 -3.824447 -8.321206 15.744433 0.290192 2.127649 0.006824 -0.000691 89489.300000 1 0 0
11.305937 4.360053 0.542894 12.129675 0.368069 1.526024 -0.000074 0.002276 -215252.000000 1 0 0
-8.774563 -2.392947 -3.004706 9.578487 0.266240 1.889876 0.004741 -0.003210 -447411.000000 1 0 0
-2.514163 -6.103447 -6.465006 9.239555 1.180052 2.345787 -0.001690 -0.002182 -123534.000000 1 0 0
-0.040763 2.708553 -1.912106 3.315731 -1.555748 2.185452 0.002252 -0.001584 -586644.000000 1 0 0
8.139437 5.955953 -5.123406 11.312520 0.631712 2.040808 0.001907 0.001353 -97353.900000 1 0 0
-9.728063 -0.928047 -1.044206 9.827861 0.095111 1.677247 0.000795 -0.003205 -881812.000000 1 0 0
6.101537 0.579553 -8.867006 10.779074 0.094701 2.536788 0.002387 0.002219 591678.000000 1 0 0
-4.063263 2.411753 7.909594 9.213487 -0.535664 0.538498 -0.001892 0.002521 -283270.000000 1 0 0
-10.243263 -3.308047 1.482694 10.865818 0.312375 1.433914 0.000654 -0.003707 1062580.000000 1 0 0
-1.853463 -8.098347 -7.878706 11.449566 1.345802 2.329695 0.000843 -0.000670 52451.000000 1 0 0
-9.489763 -9.755247 4.209394 14.245681 0.799192 1.270833 0.004121 -0.000586 -452619.000000 1 0 0
-1.082163 -10.764047 7.256494 13.026606 1.470598 0.979965 -0.001633 -0.000651 -293277.000000 1 0 0
9.459837 3.677053 -3.771506 10.827442 0.370729 1.926584 0.001191 0.001494 -985449.000000 1 0 0
12.792837 -0.827547 3.099594 13.188972 -0.064598 1.333563 0.002666 -0.000193 -1318520.000000 1 0 0
6.566137 11.957753 -6.854606 15.267208 1.068636 2.036415 0.004947 0.000050 393187.000000 1 0 0
-11.742863 -0.168347 -6.477306 13.411885 0.014335 2.074820 0.004649 -0.000651 549336.000000 1 0 0
-7.605563 -6.621247 -11.478406 15.278721 0.716321 2.420777 0.006683 0.000836 -1864680.000000 1 0 0
4.101637 6.042253 6.596094 9.840767 0.974423 0.836207 -0.001907 0.004438 -2472910.000000 1 0 0
-4.163663 -1.456347 -7.408906 8.622582 0.336475 2.604587 0.000844 -0.007177 -823673.000000 1 0 0
9.720737 9.181153 0.861994 13.398856 0.756859 1.506418 0.001512 0.002580 -2119790.000000 1 0 0
-8.930463 3.950853 4.794594 10.878904 -0.416517 1.114391 0.003688 -0.005669 830654.000000 1 0 0
-7.013563 7.912653 -12.329506 16.242441 -0.845561 2.432713 -0.006701 -0.003699 -942520.000000 1 0 0
11.132137 -3.773847 7.250894 13.810932 -0.326846 1.018068 0.001921 -0.000933 844771.000000 1 0 0
11.980137 6.832253 6.532394 15.260260 0.518294 1.128445 0.007910 0.000312 202469.000000 1 0 0
-9.886563 -0.810747 -14.801806 17.818387 0.081822 2.551167 -0.003402 -0.000344 500687.000000 1 0 0
1.759037 -13.080647 12.044594 17.868121 -1.437122 0.831074 0.007791 -0.004332 305831.000000 1 0 0
2.858637 2.984353 13.015194 13.655528 0.806911 0.307451 -0.005207 0.001621 -1317450.000000 1 0 0
-2.633163 -1.431347 11.069294 11.467849 0.497904 0.264414 -0.002097 0.000528 112672.000000 1 0 0
2.545937 -10.033047 -8.233906 13.226527 -1.322287 2.242767 -0.004236 0.000223 -1103040.000000 1 0 0
13.948537 3.619253 -7.515706 16.252585 0.253873 2.051532 0.011697 0.001509 -2546030.000000 1 0 0
7.450537 -1.583447 5.013694 9.118932 -0.209412 0.988658 -0.003509 0.000866 382099.000000 1 0 0
-1.145763 8.674753 10.243994 13.472325 -1.439476 0.706909 -0.002950 0.003525 90336.000000 1 0 0
-12.346263 -4.615647 0.928694 13.213511 0.357762 1.500455 -0.001211 -0.004115 235104.000000 1 0 0
-4.980463 4.954453 -5.391406 8.855444 -0.782780 2.225374 -0.000795 -0.000975 -433332.000000 1 0 0
-11.319663 0.408253 2.153194 11.529861 -0.036050 1.382944 0.001012 -0.000423 -2188660.000000 1 0 0
-1.305463 2.233853 -4.072506 4.824898 -1.041927 2.575607 0.001673 -0.002597 967399.000000 1 0 0
3.136637 -9.861847 13.058194 16.661661 -1.262856 0.670152 0.000259 -0.001280 -1639670.000000 1 0 0
8.883237 4.600853 -1.435106 10.106398 0.477885 1.713278 -0.000816 -0.001606 -1853610.000000 1 0 0
4.085637 2.290353 3.760394 6.006555 0.510935 0.894321 -0.001568 0.002119 253053.000000 1 0 0
-5.459363 -3.277547 7.509394 9.845707 0.540679 0.703307 0.003576 -0.002411 292352.000000 1 0 0
1.740537 -5.834547 7.711894 9.825717 -1.280885 0.668313 -0.006267 -0.000909 -840524.000000 1 0 0
-5.888063 -6.207247 -9.790506 13.002046 0.811781 2.423402 0.003410 0.000150 -918491.000000 1 0 0
-11.731863 -5.779847 5.452694 14.169513 0.457760 1.175785 0.002943 -0.001698 -198199.000000 1 0 0
10.715937 6.185653 4.489394 13.162381 0.523515 1.222733 -0.000845 0.000873 95785.700000 1 0 0
1.457037 -3.857747 0.514594 4.155716 -1.209668 1.446650 0.008061 -0.002079 -278219.000000 1 0 0
8.899937 4.364253 6.979394 12.123016 0.455913 0.957319 -0.000386 0.003067 -208547.000000 1 0 0
-7.880563 12.114153 3.439594 14.855531 -0.994052 1.337140 0.006900 -0.003721 -499147.000000 1 0 0
-6.231863 13.307053 -7.028806 16.288582 -1.132818 2.016970 0.003470 -0.001910 732388.000000 1 0 0
4.552437 -6.994647 -0.985006 8.403571 -0.993827 1.688279 0.005787 -0.006645 -2099950.000000 1 0 0
-1.844663 -8.259447 11.230494 14.062191 1.351063 0.645780 -0.008024 -0.002074 88405.500000 1 0 0
11.614337 8.850853 -5.722106 15.683524 0.651177 1.944266 0.005527 0.001808 505983.000000 1 0 0
-3.346463 -2.896947 -1.994906 4.854973 0.713524 1.994237 0.003153 -0.003429 -1847520.000000 1 0 0
-2.002363 5.910853 4.778094 7.859887 -1.244169 0.917372 -0.002703 0.002788 -87906.000000 1 0 0
0.289737 -11.499947 -5.670806 12.825395 -1.545607 2.028796 0.001987 -0.003498 -1806340.000000 1 0 0
-8.810263 6.239253 -1.530506 10.903736 -0.616195 1.711627 -0.000386 0.000060 -1338530.000000 1 0 0
2.891437 -0.020647 3.949894 4.895150 -0.007140 0.631912 0.001347 0.000684 102398.000000 1 0 0
-10.053963 3.961753 -1.058006 10.858040 -0.375366 1.668391 0.001385 -0.000437 -190000.000000 1 0 0
6.468837 5.394953 13.651394 16.040945 0.695126 0.552845 0.004303 0.008097 -1137620.000000 1 0 0
-8.839663 -1.517047 5.704394 10.629261 0.169962 1.004312 0.001135 -0.002866 -1026050.000000 1 0 0
12.985937 -1.812047 -1.479706 13.194984 -0.138644 1.683174 0.015303 -0.003243 -743832.000000 1 0 0
5.299237 -5.557747 5.346294 9.356993 -0.809204 0.962624 -0.003703 -0.002558 66573.100000 1 0 0
-9.102663 -1.201447 3.187094 9.719029 0.131230 1.236692 -0.000888 -0.002872 367171.000000 1 0 0
2.040937 5.462253 5.583494 8.073230 1.213215 0.807086 -0.002911 0.003927 -1302930.000000 1 0 0
9.214437 3.089653 -7.324906 12.169883 0.323525 2.216659 0.001564 0.000651 -98209.700000 1 0 0
2.255137 -2.492847 -1.441206 3.657458 -0.835422 1.975826 0.006612 -0.002160 162785.000000 1 0 0
-6.120763 0.312553 -3.859006 7.242469 -0.051020 2.132738 -0.001247 -0.001026 -2363340.000000 1 0 0
-3.978463 4.210553 5.043294 7.680608 -0.813732 0.854459 0.001128 -0.000131 263250.000000 1 0 0
-6.500363 1.839853 -12.344106 14.071842 -0.275824 2.640838 -0.000658 -0.003317 -2630020.000000 1 0 0
-0.054963 3.073753 6.272094 6.984994 -1.552917 0.455734 -0.000504 0.001490 1343320.000000 1 0 0
-8.666863 9.504053 -2.086606 13.030559 -0.831439 1.731620 -0.000222 0.001421 922865.000000 1 0 0
-1.318963 -3.706447 -6.155706 7.305486 1.228914 2.572916 -0.002525 -0.001524 131995.000000 1 0 0
-3.357663 7.085653 -2.997206 8.394262 -1.128272 1.935909 0.001202 0.002710 1497430.000000 1 0 0
7.005637 -0.429447 -4.369506 8.267766 -0.061224 2.127628 0.003376 -0.000240 -269923.000000 1 0 0
-5.198163 -10.827047 6.968394 13.885401 1.123188 1.045060 0.003621 -0.000748 468621.000000 1 0 0
9.679637 8.382653 -1.534806 12.896506 0.713715 1.690089 0.000586 0.001349 -112934.000000 1 0 0
13.735337 4.611753 -4.349506 15.127655 0.323931 1.862433 0.005268 0.000174 482982.000000 1 0 0
4.725737 1.039453 -6.911006 8.436531 0.216508 2.530770 -0.000145 0.000482 296697.000000 1 0 0
9.005637 -4.859347 3.510894 10.818554 -0.494815 1.240287 -0.001097 -0.001708 -830313.000000 1 0 0
-8.790563 -3.276047 -0.636806 9.402766 0.356733 1.638574 0.001245 -0.003041 238534.000000 1 0 0
-8.503363 -4.318647 -10.443806 14.143231 0.469928 2.401538 0.001118 0.000988 -29580.000000 1 0 0
10.449837 -1.140747 10.759394 15.042106 -0.108733 0.773764 0.002114 0.000709 969432.000000 1 0 0
2.243937 -11.683747 9.868094 15.457182 -1.381050 0.878359 0.002085 -0.003238 281237.000000 1 0 0
-6.463163 -10.595647 1.959794 12.565070 1.023069 1.414185 0.008672 0.000905 -785036.000000 1 0 0
-3.833763 -1.236947 6.830294 7.929734 0.312101 0.532871 0.006675 0.000504 -1305530.000000 1 0 0
4.582837 -7.476247 3.770694 9.545407 -1.020883 1.164699 -0.004888 -0.000937 -224680.000000 1 0 0
11.613337 -9.443447 -5.260006 15.865558 -0.682711 1.908728 0.024184 -0.004350 455390.000000 1 0 0
11.327637 1.162353 11.463094 16.157628 0.102254 0.782073 0.001696 0.001618 -598330.000000 1 0 0
-10.213863 -3.437947 4.368194 11.628568 0.324684 1.185706 0.004096 -0.002199 1370550.000000 1 0 0
2.097837 8.753053 9.088094 12.791025 1.335564 0.780580 -0.005250 0.006996 -121389.000000 1 0 0
6.562537 8.760853 4.092094 11.686089 0.927887 1.213046 0.001283 0.004708 -6921.240000 1 0 0
-4.187263 3.575853 0.411194 5.521683 -0.706802 1.496258 0.001881 -0.002760 -1959040.000000 1 0 0
4.895237 6.780853 4.169294 9.344856 0.945510 1.108327 0.000683 0.002276 -1570000.000000 1 0 0
-8.291463 13.043653 1.001594 15.488333 -1.004561 1.506084 0.006718 -0.006065 770117.000000 1 0 0
8.800737 8.197653 -9.208306 15.147521 0.749934 2.224220 -0.004608 -0.002804 -20986.300000 1 0 0
7.219437 1.952053 6.126294 9.667588 0.264074 0.884477 -0.001389 0.003340 -1098550.000000 1 0 0
11.556637 -6.304147 3.070394 13.517597 -0.499382 1.341656 0.005449 -0.002617 -376126.000000 1 0 0
11.312237 4.674053 -2.051306 12.410533 0.391821 1.736846 0.003786 0.001834 -460751.000000 1 0 0
-3.932463 14.464353 -6.009806 16.149290 -1.305340 1.952111 0.002293 0.003564 319068.000000 1 0 0
7.119437 -3.024247 6.941894 10.393380 -0.401690 0.839393 -0.001962 -0.000456 -1571180.000000 1 0 0
-8.021363 -0.540647 0.906394 8.090495 0.067299 1.458529 0.000771 -0.003858 416117.000000 1 0 0
-3.199263 1.107653 10.696894 11.219880 -0.333305 0.306526 -0.003988 0.003919 6666.360000 1 0 0
7.107437 -1.380547 -1.933506 7.493999 -0.191851 1.831755 0.004707 -0.001792 -2705880.000000 1 0 0
-7.758463 5.451253 2.990094 9.942363 -0.612482 1.265325 0.004003 -0.003428 914293.000000 1 0 0
9.397937 -2.294247 2.756994 10.059115 -0.239439 1.293164 -0.001959 -0.002276 -2389280.000000 1 0 0
0.293837 3.500053 1.475694 3.809775 1.487041 1.173047 0.000076 0.001595 -2638200.000000 1 0 0
-7.563263 -3.043547 4.089994 9.121084 0.382584 1.105810 0.001671 -0.001117 -571122.000000 1 0 0
-2.127563 8.384253 -6.712206 10.948787 -1.322285 2.230718 0.004888 -0.000187 -623126.000000 1 0 0
4.557937 9.912453 7.454794 13.213836 1.139807 0.971374 -0.005096 0.010512 -560199.000000 1 0 0
-11.761863 -3.134047 6.796094 13.940967 0.260408 1.061583 0.001370 -0.001947 -291540.000000 1 0 0
-4.830163 2.347753 -5.715406 7.842722 -0.452434 2.387295 -0.001428 -0.003158 -1099830.000000 1 0 0
-2.705563 2.877453 -1.872006 4.370837 -0.816177 2.013401 0.001052 -0.000588 434463.000000 1 0 0
2.340637 5.207853 11.426294 12.773430 1.148405 0.463404 0.000247 0.000405 174969.000000 1 0 0
-0.709863 1.630353 4.553394 4.888287 -1.160146 0.372307 0.005034 -0.000961 -809498.000000 1 0 0
5.170437 1.547553 7.672794 9.380837 0.290822 0.613006 -0.000930 0.003402 733742.000000 1 0 0
3.199437 -8.347347 1.883394 9.135741 -1.204779 1.363151 -0.000779 -0.003346 2408440.000000 1 0 0
5.039137 6.483753 -4.534606 9.380544 0.910117 2.075337 0.002545 0.001909 -2334150.000000 1 0 0
-4.026263 2.966453 -8.008606 9.441844 -0.634984 2.583381 0.004038 -0.007020 567009.000000 1 0 0
-8.757263 -2.167247 -12.993506 15.818275 0.242605 2.534699 -0.002902 -0.002701 -1052660.000000 1 0 0
-7.789163 8.138053 1.316194 11.341576 -0.807300 1.454484 0.000625 -0.001348 -1808200.000000 1 0 0
7.455937 0.877353 -6.575006 9.979552 0.117133 2.290083 0.003120 0.001316 517661.000000 1 0 0
8.966237 8.904253 5.511694 13.786149 0.781930 1.159498 0.002911 0.003046 932245.000000 1 0 0
9.427437 -1.108947 -1.421306 9.598252 -0.117092 1.719423 0.003431 -0.001969 1889320.000000 1 0 0
5.438937 0.074753 4.263994 6.911531 0.013743 0.905949 -0.002869 0.001917 751288.000000 1 0 0
-4.184963 -7.185047 -8.002006 11.539970 1.043378 2.337016 0.007330 -0.003997 -1277010.000000 1 0 0
-2.167763 7.405853 -0.578806 7.738274 -1.286041 1.645664 0.002424 0.000795 376713.000000 1 0 0
13.497337 -3.292847 -7.408206 15.744919 -0.239288 2.060670 0.014840 0.001049 1278450.000000 1 0 0
-4.810863 -5.016347 1.575494 7.126733 0.806305 1.347887 0.005969 -0.003650 1012510.000000 1 0 0
-8.952463 1.271453 2.575294 9.401879 -0.141079 1.293337 0.000739 -0.004036 -1036490.000000 1 0 0
-1.004163 11.120153 10.208294 15.128629 -1.480739 0.830148 -0.003521 0.002467 139085.000000 1 0 0
-8.597963 0.400253 7.550594 11.449744 -0.046519 0.850702 0.000348 -0.003833 -1073940.000000 1 0 0
-6.076163 12.898653 -2.184006 14.424455 -1.130560 1.722791 -0.001921 -0.000080 757692.000000 1 0 0
-13.096763 -0.705847 3.359894 13.539288 0.053843 1.320017 0.000284 -0.004977 234015.000000 1 0 0
-6.641963 12.845053 8.768394 16.911410 -1.093576 1.025712 0.001586 -0.001782 1163420.000000 1 0 0
-8.037663 1.033053 -14.193906 16.344363 -0.127826 2.622820 -0.006399 0.000341 -503547.000000 1 0 0
7.233337 2.845753 3.790694 8.648054 0.374823 1.117057 -0.003035 0.001881 -945537.000000 1 0 0
-1.658563 0.641553 -2.030806 2.699370 -0.369087 2.422382 0.000958 -0.002139 321833.000000 1 0 0
-6.195363 9.729853 -10.536906 15.623027 -1.003801 2.311012 -0.005349 0.000034 9986.210000 1 0 0
-9.971363 13.630953 5.201494 17.671630 -0.939225 1.272030 -0.001455 -0.008138 42922.900000 1 0 0
-5.614563 8.331253 2.407094 10.330886 -0.977792 1.335635 -0.000857 0.001127 -1138040.000000 1 0 0
-2.474163 -10.648047 -1.221406 10.999737 1.342489 1.682065 0.005420 -0.000682 518385.000000 1 0 0
-2.322163 -12.331247 8.825894 15.341072 1.384661 0.957811 -0.004430 0.001565 140693.000000 1 0 0
-14.660663 -6.472947 -1.559506 16.101743 0.415778 1.667802 0.001207 -0.002790 -47500.100000 1 0 0
-2.706463 -9.311947 3.317294 10.248987 1.287945 1.241190 0.004147 -0.001589 -553020.000000 1 0 0
4.661037 -2.645147 7.541694 9.251984 -0.516181 0.617820 -0.005791 0.003217 -1756600.000000 1 0 0
-15.004663 -1.245947 -0.185706 15.057449 0.082847 1.583130 -0.002793 -0.003491 -142928.000000 1 0 0
5.493137 8.758253 -2.801306 10.711156 1.010620 1.835405 0.001590 0.002463 -1608280.000000 1 0 0
-5.597263 -5.776747 8.558994 11.745490 0.801177 0.754368 0.004459 -0.001395 -1871940.000000 1 0 0
3.501737 3.583053 7.003194 8.610758 0.796875 0.620982 -0.002802 0.002901 629971.000000 1 0 0
3.346437 2.456353 9.307794 10.191533 0.633196 0.419514 0.000987 -0.001025 1521290.000000 1 0 0
9.938937 -3.356047 5.115394 11.671023 -0.325645 1.117091 -0.000747 -0.000297 -224800.000000 1 0 0
6.572237 9.971853 -5.073906 12.976004 0.988065 1.972538 0.002620 0.000036 291886.000000 1 0 0
-4.497563 12.098353 -8.508306 15.459285 -1.214878 2.153602 -0.000770 -0.001832 912138.000000 1 0 0
-3.472763 -7.177247 2.263894 8.288436 1.120146 1.294142 0.004405 -0.004465 827427.000000 1 0 0
-7.511063 -4.073847 1.290494 8.641624 0.496974 1.420901 0.001246 -0.004180 3762890.000000 1 0 0
-2.090163 -3.884647 -10.908206 11.766402 1.077168 2.757300 0.006493 -0.002059 -481433.000000 1 0 0
-5.264963 8.355853 -4.518006 10.860594 -1.008543 1.999838 -0.001646 -0.000184 -1482940.000000 1 0 0
-10.932063 -3.277747 -10.194506 15.302993 0.291300 2.299868 0.005233 0.003748 -1105230.000000 1 0 0
4.702437 -11.322047 -7.758406 14.508429 -1.177141 2.135010 0.006692 -0.005615 -2168660.000000 1 0 0
-9.392063 -3.917547 7.343394 12.549241 0.395171 0.945711 0.001559 -0.001678 -820773.000000 1 0 0
-5.711363 -9.598247 -5.203006 12.321415 1.034030 2.006748 0.007108 -0.002485 -48018.700000 1 0 0
5.008037 4.120053 -9.481406 11.487051 0.688423 2.541706 0.000872 0.008577 109486.000000 1 0 0
-3.372663 -7.021847 -14.115306 16.122129 1.123024 2.637315 -0.005311 0.004597 376626.000000 1 0 0
0.644137 -0.830847 -8.821706 8.884127 -0.911313 3.022981 0.005814 -0.005942 -616220.000000 1 0 0
-7.613663 2.236453 -2.910906 8.452394 -0.285706 1.922384 -0.003572 0.000625 -606635.000000 1 0 0
-2.332363 7.515653 -12.656406 14.903341 -1.269886 2.585327 0.006663 -0.006075 -202106.000000 1 0 0
-9.820463 8.918253 7.580494 15.278764 -0.737288 1.051642 0.000745 -0.005395 -187463.000000 1 0 0
-10.750163 -3.130747 -14.363306 18.211868 0.283390 2.479453 0.005066 0.003487 -391692.000000 1 0 0
-3.296263 4.767353 7.930394 9.822635 -0.965849 0.631134 -0.001029 0.000926 -240121.000000 1 0 0
8.724737 -2.423847 -3.634506 9.757341 -0.270980 1.952486 0.006963 -0.001681 -3986460.000000 1 0 0
1.939537 -8.378147 -1.136506 8.674491 -1.343304 1.702191 0.000614 -0.001895 -1138310.000000 1 0 0
-13.599963 -2.793347 5.057394 14.776299 0.202576 1.221471 0.001244 -0.004482 71175.600000 1 0 0
7.148437 2.667753 -1.976806 7.881930 0.357186 1.824305 -0.001983 -0.001049 -80752.400000 1 0 0
-11.080963 4.459153 8.800494 14.836458 -0.382587 0.935810 0.000625 -0.003797 -3199780.000000 1 0 0
-1.811463 -2.519947 8.055194 8.632362 0.947531 0.367749 -0.000107 -0.002146 -66211.500000 1 0 0
3.155337 11.986453 -9.801006 15.801612 1.313394 2.239862 0.006879 -0.005442 628103.000000 1 0 0
3.596037 -5.079947 -7.094206 9.437431 -0.954796 2.421447 0.001336 -0.003696 485893.000000 1 0 0
8.165737 -13.954247 -9.736006 18.872999 -1.041346 2.112819 0.016120 0.009131 62995.000000 1 0 0
-6.316863 -5.739547 -0.451106 8.546850 0.737550 1.623601 0.005174 -0.002979 -194009.000000 1 0 0
-1.099463 -4.142047 9.845294 10.737559 1.311340 0.410548 -0.005679 0.000349 956589.000000 1 0 0
2.815437 3.457253 1.723694 4.780210 0.887363 1.201896 -0.000726 0.002555 -1236830.000000 1 0 0
-9.034163 13.371653 7.715594 17.887079 -0.976621 1.124808 0.000888 -0.011471 36399.000000 1 0 0
4.151037 -10.994847 -0.087806 11.752679 -1.209797 1.578268 -0.001103 -0.002055 -394203.000000 1 0 0
-12.419363 -1.488147 -9.119706 15.479800 0.119256 2.200785 0.006944 -0.002284 143624.000000 1 0 0
-4.305763 1.113653 -13.543206 14.254763 -0.253096 2.824298 0.006862 -0.004705 373770.000000 1 0 0
4.013537 -3.128447 4.967394 7.111305 -0.662099 0.797468 -0.000553 0.001945 -24794.700000 1 0 0
1.759537 -1.274847 1.068594 2.421383 -0.627004 1.113732 0.005362 -0.000532 670345.000000 1 0 0
8.184837 -9.155247 7.273994 14.273089 -0.841303 1.036042 0.000170 0.002250 -1363510.000000 1 0 0
-0.162563 2.302253 -6.440006 6.841088 -1.500303 2.797470 0.002760 -0.002472 -1043470.000000 1 0 0
-3.839163 -9.754747 -3.382606 11.015275 1.195846 1.882923 0.004699 -0.000772 85297.200000 1 0 0
-9.427163 2.230653 -5.456806 11.118631 -0.232346 2.083782 -0.002612 0.002022 -1174050.000000 1 0 0
8.980437 -7.671647 5.318794 12.953454 -0.706963 1.147675 -0.003054 0.000128 1025420.000000 1 0 0
-5.495263 -4.273747 4.664594 8.379813 0.661004 0.980453 0.003398 -0.002210 -792242.000000 1 0 0
-0.147263 -12.469747 10.300094 16.174307 1.558987 0.880432 -0.000680 -0.001807 -1931470.000000 1 0 0
-14.117663 -8.207147 3.255294 16.651204 0.526585 1.374030 -0.011839 -0.000203 -1238660.000000 1 0 0
10.949437 -1.264047 -3.629406 11.604334 -0.114935 1.888897 0.015897 -0.002724 -317359.000000 1 0 0
-13.658263 2.976053 2.739194 14.244586 -0.214541 1.377294 0.002872 -0.002799 -1206270.000000 1 0 0
-6.296963 6.160353 0.978994 8.863415 -0.774432 1.460117 0.000352 -0.000181 143199.000000 1 0 0
7.184637 -6.894047 -0.521606 9.970906 -0.764761 1.623133 0.007442 -0.007379 -495652.000000 1 0 0
-6.810163 7.800553 10.009894 14.402254 -0.853080 0.802345 0.001352 -0.001872 236133.000000 1 0 0
-12.619163 -5.089647 -1.878206 13.735918 0.383371 1.707963 -0.000443 -0.004329 -2012310.000000 1 0 0
-9.391063 -5.648847 0.229294 10.961483 0.541531 1.549877 0.002272 -0.003873 -1361690.000000 1 0 0
-1.740063 1.796053 2.208594 3.336392 -0.801231 0.847351 0.002890 -0.000485 -20132.500000 1 0 0
-6.955863 7.292953 7.544694 12.589424 -0.809051 0.928185 0.002621 -0.001819 136943.000000 1 0 0
5.724437 7.067353 -0.423006 9.104702 0.889998 1.617273 0.001690 0.000859 -1751310.000000 1 0 0
-0.048063 -4.060047 7.427794 8.465129 1.558959 0.500260 -0.002370 -0.001432 -236998.000000 1 0 0
6.307937 0.694253 13.091394 14.548424 0.109619 0.451372 -0.003676 -0.001044 413378.000000 1 0 0
5.728137 6.081953 -7.909506 11.504868 0.815348 2.328826 -0.001958 0.003431 -406979.000000 1 0 0
9.986437 5.313553 9.071994 14.500477 0.488979 0.894852 -0.000112 -0.000255 -1592630.000000 1 0 0
-1.226863 -5.012847 -8.520506 9.961569 1.330771 2.596999 0.003906 -0.002796 725428.000000 1 0 0
9.920237 -3.559647 -7.976306 13.217551 -0.344517 2.218634 0.018654 -0.004951 355376.000000 1 0 0
8.323637 -5.664947 1.271594 10.148473 -0.597577 1.445167 0.003792 -0.003220 1087690.000000 1 0 0
15.740537 3.205753 -4.942706 16.806894 0.200914 1.869298 0.013465 0.004898 -168570.000000 1 0 0
-6.768563 3.619953 1.276394 7.781175 -0.491113 1.406016 0.002013 -0.002332 510773.000000 1 0 0
-1.707063 3.831553 0.330494 4.207623 -1.151668 1.492169 0.001940 -0.001607 -1647940.000000 1 0 0
-2.533463 10.143753 6.961694 12.561025 -1.326047 0.983359 -0.002395 0.007198 784.468000 1 0 0
5.536237 -5.756747 -8.783706 11.871965 -0.804922 2.403673 0.003273 -0.003429 -164874.000000 1 0 0
-1.268463 -0.851447 6.244394 6.428562 0.591164 0.239943 0.005178 -0.003464 961284.000000 1 0 0
-5.750563 5.066553 -7.934006 11.031201 -0.722248 2.373494 -0.001830 -0.001083 -190965.000000 1 0 0
6.857937 -1.231547 2.565594 7.424977 -0.177686 1.217987 -0.000063 0.001334 -1297650.000000 1 0 0
8.797237 7.476453 3.281794 12.002454 0.704415 1.293842 0.003486 0.000494 -115195.000000 1 0 0
-5.265563 -4.735347 -7.791106 10.528580 0.732431 2.403861 0.003706 -0.003932 1527280.000000 1 0 0
-2.409563 7.807353 -10.022306 12.930869 -1.271443 2.457619 0.008448 -0.002543 1092690.000000 1 0 0
-2.929463 -2.328447 1.693794 4.107597 0.671585 1.145757 0.001833 0.000626 481474.000000 1 0 0
6.027837 -2.093247 -9.301306 11.279663 -0.334235 2.540306 0.002397 0.000499 1121330.000000 1 0 0
1.167537 -7.669947 5.113794 9.292045 -1.419734 0.988024 -0.001959 -0.000596 39236.900000 1 0 0
1.839937 12.086753 1.293794 12.294262 1.419729 1.465366 0.004052 0.000266 217539.000000 1 0 0
-1.052363 7.034153 2.475194 7.530828 -1.422290 1.235896 -0.000917 0.005221 456047.000000 1 0 0
8.635537 7.918953 -6.646806 13.470796 0.742139 2.086818 -0.000028 -0.001461 308228.000000 1 0 0
3.642137 -11.173647 5.547894 12.995948 -1.255698 1.129741 0.000845 0.001683 -386164.000000 1 0 0
7.824537 -7.132847 12.320294 16.244707 -0.739187 0.709912 -0.006093 0.000051 257072.000000 1 0 0
-8.684163 0.061553 -3.861706 9.504276 -0.007088 1.989211 0.000225 -0.000501 -919763.000000 1 0 0
-3.190363 -5.042447 11.241094 12.726621 1.006678 0.487996 -0.002141 -0.001834 714731.000000 1 0 0
-8.176463 0.176453 -11.680306 14.258865 -0.021577 2.530743 -0.006249 -0.002323 -1713630.000000 1 0 0
1.472837 -5.085447 5.346794 7.524574 -1.288891 0.780478 -0.000326 -0.000412 -411578.000000 1 0 0
6.663837 3.792753 -7.557906 10.766320 0.517430 2.348992 -0.000094 0.002670 -1788460.000000 1 0 0
16.204637 4.074653 -1.384906 16.766366 0.246343 1.653491 0.006901 0.007375 -1284640.000000 1 0 0
7.985837 7.408653 0.156594 10.894322 0.747923 1.556422 0.002652 -0.000830 -3420460.000000 1 0 0
5.485137 -10.447047 13.800694 18.157276 -1.087317 0.707385 0.002207 -0.003087 63911.100000 1 0 0
-5.176863 -9.353647 9.002294 13.976119 1.065301 0.870924 0.000172 0.000099 510356.000000 1 0 0
-12.639563 -3.125547 2.843594 13.327176 0.242420 1.355775 -0.000859 -0.003765 277349.000000 1 0 0
-2.065763 -1.380947 -5.868506 6.372892 0.589265 2.741063 -0.000090 -0.004890 -1212710.000000 1 0 0
-2.466163 13.005153 -4.377506 13.941970 -1.383392 1.890179 0.005843 0.004678 508642.000000 1 0 0
3.889837 -0.504047 -5.015406 6.367040 -0.128862 2.477886 0.005452 -0.001508 315797.000000 1 0 0
-8.786263 3.883153 -7.377406 12.112119 -0.416146 2.225713 -0.004106 0.001801 380775.000000 1 0 0
-4.591663 7.961553 -11.425406 14.663206 -1.047663 2.464167 0.000619 -0.004475 -1809530.000000 1 0 0
-10.179863 -6.374347 7.367394 14.090436 0.559442 1.020588 0.003624 -0.001935 -1110490.000000 1 0 0
8.152437 5.236053 4.207394 10.563174 0.570921 1.161125 -0.002830 0.002336 -376007.000000 1 0 0
-6.648263 -7.557347 4.005094 10.832990 0.849306 1.192097 0.010460 -0.002227 -837215.000000 1 0 0
-4.178563 11.810153 8.187594 14.965855 -1.230730 0.991918 0.001968 0.001613 58586.100000 1 0 0
-7.194763 10.020053 -7.997506 14.701231 -0.948068 2.145996 -0.004062 -0.003102 431643.000000 1 0 0
13.182937 5.387953 4.660394 14.984630 0.387989 1.254539 0.002843 0.002432 -991949.000000 1 0 0
5.461537 3.910353 -3.707906 7.672537 0.621371 2.075182 -0.000732 0.001453 455799.000000 1 0 0
-2.875263 -4.127847 5.193094 7.230109 0.962388 0.769499 0.005977 -0.001387 -1678130.000000 1 0 0
12.474237 -2.332547 -5.272306 13.742073 -0.184854 1.964554 0.016423 -0.003808 -1037590.000000 1 0 0
-5.137063 9.825053 6.923394 13.071131 -1.089034 1.012584 -0.003287 0.004126 -305001.000000 1 0 0
1.822737 3.706853 -0.540006 4.165902 1.113794 1.700787 -0.000491 0.000403 649233.000000 1 0 0
-0.070263 9.585853 7.800294 12.358726 -1.563467 0.887753 -0.005628 0.006194 364728.000000 1 0 0
-5.461263 2.083853 5.818694 8.247729 -0.364518 0.787681 0.002422 -0.002291 631914.000000 1 0 0
8.803237 0.899953 10.819994 13.977810 0.101876 0.685530 -0.000823 0.002833 -1064780.000000 1 0 0
0.447337 -2.890247 -10.209806 10.620442 -1.417240 2.862607 0.004939 -0.003819 -1530980.000000 1 0 0
1.288837 10.684453 -2.708306 11.097458 1.450749 1.817334 0.005993 0.001249 552410.000000 1 0 0
2.225137 -4.430847 11.611994 12.626244 -1.105396 0.403554 -0.007956 0.000663 -561696.000000 1 0 0
6.402637 -3.141647 9.437394 11.829121 -0.456164 0.647142 -0.004111 0.001418 276534.000000 1 0 0
-10.694563 -8.174447 5.713394 14.623205 0.652625 1.169396 0.003635 -0.000768 -1889400.000000 1 0 0
-3.069163 0.833353 -6.765806 7.475987 -0.265132 2.702188 0.003079 -0.006186 424106.000000 1 0 0
11.040337 2.680453 -5.077606 12.444113 0.238179 1.991095 0.007736 -0.001749 -2977530.000000 1 0 0
-1.991363 -4.031147 0.001994 4.496184 1.111965 1.570353 0.001479 -0.003208 991083.000000 1 0 0
-1.323763 -6.343447 -10.713906 12.521160 1.365067 2.597629 0.000956 0.000426 1084420.000000 1 0 0
0.301237 6.845653 -6.631406 9.535684 1.526821 2.339815 0.007688 0.002755 -2740710.000000 1 0 0
1.970837 3.823253 -6.257306 7.593112 1.094836 2.539367 0.003308 0.002317 -1706670.000000 1 0 0
1.526337 -14.824347 6.494894 16.256525 -1.468196 1.159797 0.015014 -0.003340 -412045.000000 1 0 0
-1.748563 5.367453 -10.528306 11.946224 -1.255867 2.649420 0.008024 -0.000940 -493852.000000 1 0 0
13.611537 4.371653 -0.696106 14.313275 0.310766 1.619449 0.007914 0.001787 1013630.000000 1 0 0
-2.490163 3.304553 -6.005206 7.292701 -0.925024 2.538269 0.001329 -0.001814 -1814790.000000 1 0 0
5.776237 7.695453 14.103094 17.072849 0.926909 0.598727 0.004640 0.001313 265824.000000 1 0 0
16.111237 0.656053 -5.817806 17.142031 0.040698 1.917063 0.020861 0.001311 341195.000000 1 0 0
6.109837 -8.328647 10.516394 14.740794 -0.937879 0.776428 -0.007785 0.003064 646143.000000 1 0 0
0.033037 -5.903047 -6.404406 8.709964 -1.565200 2.396900 -0.001431 -0.001781 -1582970.000000 1 0 0
8.687737 5.563153 -7.562406 12.791225 0.569558 2.203365 -0.000677 0.002047 -150127.000000 1 0 0
-15.986763 -0.604847 5.376794 16.877569 0.037816 1.246569 0.001392 -0.001860 57182.400000 1 0 0
-0.346363 4.085753 -12.305906 12.971071 -1.486225 2.819956 0.007455 -0.003149 717750.000000 1 0 0
-11.334163 3.752053 5.793194 13.270352 -0.319685 1.119034 0.004119 -0.005352 181889.000000 1 0 0
5.051937 -9.674347 -9.720206 14.614974 -1.089547 2.298405 0.001470 0.000028 966.521000 1 0 0
1.477037 11.247653 -11.586406 16.215306 1.440224 2.366756 0.010722 -0.003664 -1306260.000000 1 0 0
6.000837 2.308553 1.233194 6.546772 0.367252 1.381298 0.002441 -0.000138 -320183.000000 1 0 0
5.738637 4.476653 5.039794 8.852791 0.662482 0.965156 -0.002954 0.003641 -501381.000000 1 0 0
0.334337 -1.502047 -6.364706 6.548084 -1.351779 2.904373 0.003403 -0.002901 -517288.000000 1 0 0
12.684537 6.897153 -4.443206 15.106630 0.498028 1.869334 0.002886 0.000658 462401.000000 1 0 0
7.434737 3.161653 12.839794 15.170091 0.402086 0.561629 0.000356 0.001700 -209702.000000 1 0 0
-2.337363 -0.266947 8.712394 9.024430 0.113716 0.263734 -0.004205 -0.001850 1023630.000000 1 0 0
2.175737 -15.242447 13.367194 20.389896 -1.429012 0.855847 0.010884 -0.006657 274790.000000 1 0 0
18.789537 4.563153 -1.693706 19.409732 0.238244 1.658168 0.000253 0.010186 1207800.000000 1 0 0
-0.466163 -13.263447 7.213294 15.105229 1.535664 1.072948 -0.003523 -0.001737 -1092390.000000 1 0 0
4.453537 1.508453 -0.651206 4.746946 0.326581 1.708415 0.002783 -0.000383 675751.000000 1 0 0
2.722337 -0.502747 -7.417706 7.917464 -0.182617 2.784391 0.003392 -0.001159 -156133.000000 1 0 0
7.230837 -11.330747 0.794594 13.464850 -1.002789 1.511750 -0.000058 -0.000498 261555.000000 1 0 0
-11.827463 -7.275447 1.225294 13.939955 0.551471 1.482785 -0.000534 -0.001949 196219.000000 1 0 0
0.134737 -7.144147 9.990094 12.282465 -1.551939 0.620888 -0.007378 -0.001914 -1917840.000000 1 0 0
-4.589663 -7.226547 10.604694 13.628922 1.004959 0.679158 0.001399 0.001026 -1419860.000000 1 0 0
11.924937 0.730653 -1.669406 12.063370 0.061195 1.709628 0.006806 -0.001841 564892.000000 1 0 0
6.443937 -9.636947 -7.530206 13.823859 -0.981408 2.146858 0.005067 -0.004650 -822812.000000 1 0 0
-10.959063 4.931853 3.509894 12.519728 -0.422875 1.286639 0.002602 -0.005619 159139.000000 1 0 0
5.825037 -9.237147 1.943594 11.092046 -1.008173 1.394663 -0.005369 -0.001925 3449770.000000 1 0 0
11.581137 -1.462747 5.897794 13.078468 -0.125639 1.102962 0.003151 -0.001842 240775.000000 1 0 0
-6.426063 3.682253 4.185094 8.506955 -0.520344 1.056455 0.001455 -0.003111 -2354600.000000 1 0 0
9.442837 6.251653 -3.067206 11.732779 0.584801 1.835291 0.000499 0.000971 -1258670.000000 1 0 0
-2.262463 6.519853 11.023794 13.005816 -1.236786 0.559341 -0.005965 0.000717 44533.100000 1 0 0
1.748837 9.797253 2.541994 10.271628 1.394154 1.320721 -0.002750 0.007741 -127975.000000 1 0 0
2.887137 6.114153 -5.595506 8.776567 1.129631 2.262111 0.002163 0.004257 -1239200.000000 1 0 0
11.883437 0.124553 -5.628906 13.149759 0.010481 2.013143 0.012979 -0.001037 299642.000000 1 0 0
-2.692863 -12.533547 6.204294 14.242000 1.359161 1.120054 0.001690 0.001205 -294886.000000 1 0 0
10.997837 1.861753 -2.743106 11.486652 0.167694 1.811935 0.006954 -0.000552 140462.000000 1 0 0
-8.810863 5.198853 0.808894 10.262246 -0.533072 1.491892 0.000613 -0.002087 770418.000000 1 0 0
1.173337 -10.185147 5.525094 11.646484 -1.456101 1.076514 -0.001262 -0.000015 -485034.000000 1 0 0
9.485537 -5.622447 -1.065806 11.078053 -0.535063 1.667154 0.011030 -0.005191 -566100.000000 1 0 0
-7.940663 8.559553 -4.499006 12.512440 -0.822889 1.938596 -0.001345 0.000505 345206.000000 1 0 0
-7.412963 -0.019247 -1.590206 7.581632 0.002596 1.782110 -0.000147 -0.001841 -557511.000000 1 0 0
4.135637 8.710853 2.634494 9.996150 1.127537 1.304095 0.001374 0.001399 179363.000000 1 0 0
-1.394963 -10.466147 -3.775406 11.213378 1.438294 1.914193 0.005388 -0.000669 -572231.000000 1 0 0
3.092837 7.888553 -3.633906 9.219555 1.197148 1.975941 0.005558 0.000766 85395.300000 1 0 0
-4.347363 1.726853 -11.119406 12.063282 -0.378106 2.743382 0.005013 -0.005443 -337274.000000 1 0 0
1.266337 2.743853 10.960694 11.369659 1.138406 0.269026 -0.000608 -0.001891 741262.000000 1 0 0
2.094437 5.588853 -8.001006 9.981886 1.212243 2.500684 0.004003 0.002393 1018640.000000 1 0 0
15.589837 6.080453 4.100594 17.228749 0.371879 1.330481 0.009720 -0.001804 108534.000000 1 0 0
-4.309863 9.141553 4.558694 11.087137 -1.130241 1.147060 -0.001073 0.004753 285334.000000 1 0 0
-0.867463 -8.102547 -12.550906 14.964257 1.464142 2.565735 -0.000899 0.004655 282553.000000 1 0 0
14.325737 -4.231047 -5.219306 15.823073 -0.287181 1.906945 0.010171 0.001206 578458.000000 1 0 0
-5.925463 -6.120347 -5.638506 10.215797 0.801575 2.155485 0.006463 -0.003190 234502.000000 1 0 0
-8.950163 2.593553 -12.264606 15.403003 -0.282052 2.491864 -0.006889 -0.003565 -1721980.000000 1 0 0
10.515537 5.361353 13.775194 18.140468 0.471497 0.708463 0.013466 0.004346 307189.000000 1 0 0
-0.289863 10.869153 5.592994 12.227187 -1.544134 1.095701 -0.001334 0.009343 812532.000000 1 0 0
0.397937 11.322953 -0.529806 11.342324 1.535667 1.617524 0.004672 0.001953 496404.000000 1 0 0
-1.504663 -0.670047 3.665194 4.018286 0.418950 0.422349 0.004740 -0.000726 636962.000000 1 0 0
-4.737463 6.750353 8.874494 12.114762 -0.958857 0.748757 -0.001430 0.000580 -2393190.000000 1 0 0
3.430137 -8.679847 -11.540606 14.842209 -1.194449 2.461562 -0.004122 0.004025 827049.000000 1 0 0
6.555137 -3.807547 12.029394 14.218774 -0.526219 0.562317 -0.005365 0.002306 -768850.000000 1 0 0
-2.556663 -1.818447 -12.471706 12.860277 0.618242 2.895145 0.006638 -0.006929 945304.000000 1 0 0
-16.023563 -4.797147 5.301294 17.546250 0.290889 1.263867 -0.001465 -0.004326 -336902.000000 1 0 0
-8.920563 7.235753 5.784794 12.860654 -0.681492 1.104249 -0.003152 -0.002841 -4453590.000000 1 0 0
-12.898563 1.561953 6.062494 14.337589 -0.120508 1.134220 0.005123 -0.005821 449728.000000 1 0 0
-3.508463 3.617153 10.189894 11.367807 -0.800650 0.459258 -0.001043 0.001961 596715.000000 1 0 0
1.971737 -12.128947 -1.151606 12.342013 -1.409642 1.664240 0.005578 -0.001101 -1559620.000000 1 0 0
10.235537 -5.188147 -3.624806 12.034214 -0.469133 1.876756 0.019139 -0.003895 680543.000000 1 0 0
3.125037 -13.337147 0.912494 13.728728 -1.340638 1.504281 0.003815 0.000727 390439.000000 1 0 0
10.020737 -1.708047 -6.161706 11.886935 -0.168829 2.115728 0.017294 -0.002031 654674.000000 1 0 0
11.958237 -5.462347 -1.523806 13.234751 -0.428482 1.686189 0.017626 -0.003088 -1040530.000000 1 0 0
1.455537 0.957753 5.889394 6.141729 0.581983 0.287645 0.001992 -0.001411 -47873.900000 1 0 0
-10.769463 11.770053 6.566894 17.252234 -0.829762 1.180308 0.001426 -0.005135 -1327810.000000 1 0 0
4.668737 -14.094347 3.016294 15.150767 -1.250923 1.370372 0.006963 0.001703 -2817690.000000 1 0 0
5.208437 -3.365947 -1.741806 6.441374 -0.573734 1.844614 0.008286 -0.005403 -1790150.000000 1 0 0
2.059737 -2.898147 -7.731206 8.509602 -0.952920 2.710542 0.001977 -0.002260 86001.800000 1 0 0
-2.785763 14.846553 -8.841906 17.503141 -1.385316 2.100365 0.010758 -0.002658 -1846690.000000 1 0 0
-2.320563 6.023053 -8.065406 10.330197 -1.203043 2.466678 0.005487 -0.001260 200732.000000 1 0 0
2.655837 -3.440847 -11.299606 12.106775 -0.913454 2.774373 0.004513 -0.000869 -572525.000000 1 0 0
14.443537 2.774753 -2.652906 14.944997 0.189798 1.749253 0.006496 0.002210 403851.000000 1 0 0
-3.501163 13.135553 2.256894 13.780221 -1.310311 1.406277 -0.003461 0.005606 -436033.000000 1 0 0
7.696137 -5.110147 14.016394 16.787001 -0.586146 0.582745 -0.003427 -0.001686 -2380430.000000 1 0 0
-11.373663 7.198253 2.831894 13.754806 -0.564251 1.363429 0.004030 -0.004530 1573140.000000 1 0 0
-2.181163 12.027453 4.168794 12.914951 -1.391397 1.242122 -0.001916 0.007359 783779.000000 1 0 0
1.920937 1.421253 0.759594 2.507378 0.636990 1.263017 -0.002918 0.000812 -1696540.000000 1 0 0
-6.795263 8.635953 5.312694 12.205737 -0.904121 1.120467 0.000572 -0.001156 -421388.000000 1 0 0
-1.087663 9.155753 1.056594 9.280475 -1.452555 1.456698 0.000552 0.004958 322390.000000 1 0 0
4.964037 13.087553 -8.429306 16.339490 1.208266 2.112837 0.006799 -0.009456 -1480000.000000 1 0 0
8.998337 6.951553 7.182894 13.449466 0.657770 1.007394 -0.001941 0.001268 -955929.000000 1 0 0
7.087137 -13.804447 2.882594 15.782889 -1.096490 1.387125 0.009897 0.004090 323507.000000 1 0 0
4.096437 -13.363747 -1.363506 14.043848 -1.273356 1.668039 -0.001042 0.001789 -2411850.000000 1 0 0
12.114637 -11.847047 -4.694206 17.582733 -0.774231 1.841052 0.018292 -0.000362 -775998.000000 1 0 0
2.842337 -0.077047 -1.973306 3.461033 -0.027100 2.177484 0.006373 -0.001910 1966740.000000 1 0 0
-13.471763 -3.198647 -10.698906 17.498181 0.233117 2.228662 0.004522 -0.002749 -52870.000000 1 0 0
-6.541563 13.704053 5.036394 15.998700 -1.125436 1.250550 0.004085 -0.001841 115648.000000 1 0 0
7.361437 -4.265147 -0.725506 8.538653 -0.525128 1.655866 0.006414 -0.004342 -291610.000000 1 0 0
11.731937 2.103353 -7.305906 13.979939 0.177400 2.120693 0.011334 -0.000936 -872507.000000 1 0 0
-7.539263 -4.636247 9.742094 13.162206 0.551337 0.737493 0.002762 -0.000907 199741.000000 1 0 0
0.963737 2.834453 8.502094 9.013796 1.243051 0.338568 -0.000871 0.001508 -1416090.000000 1 0 0
1.599837 8.150753 -8.692906 12.023347 1.376979 2.378934 0.006999 -0.001524 -478461.000000 1 0 0
-8.551363 -1.955047 -5.594106 10.403944 0.224761 2.138492 0.003955 -0.001668 -1908700.000000 1 0 0
6.793837 -0.467947 7.158594 9.880317 -0.068769 0.760443 -0.000769 0.002743 338891.000000 1 0 0
-10.722863 6.493753 7.157694 14.435415 -0.544526 1.051991 -0.000176 -0.005543 111959.000000 1 0 0
-5.951863 11.084453 4.754494 13.449721 -1.078023 1.209485 -0.002565 0.001956 65488.400000 1 0 0
6.118337 -1.208747 -6.983706 9.363080 -0.195050 2.412647 0.003580 -0.001029 -264336.000000 1 0 0
4.449237 -5.790547 11.364794 13.508689 -0.915647 0.571122 -0.005673 0.000627 -1021270.000000 1 0 0
-8.950163 -7.253547 2.698694 11.832257 0.681073 1.340692 0.007059 -0.002143 -2668530.000000 1 0 0
-1.239463 12.729153 -9.355906 15.846154 -1.473730 2.202377 0.016148 -0.000102 580138.000000 1 0 0
-4.648863 9.205853 -2.261106 10.558043 -1.103165 1.786628 -0.000290 0.000444 236321.000000 1 0 0
-3.268563 9.610853 -0.095606 10.151904 -1.242976 1.580214 0.002970 0.003024 -1205990.000000 1 0 0
-3.491763 10.628353 -6.427206 12.902065 -1.253372 2.092264 0.004020 0.001255 759628.000000 1 0 0
4.947737 -4.884147 0.296794 6.958669 -0.778930 1.528132 0.002775 -0.004449 -2270200.000000 1 0 0
-2.278463 3.040353 -10.854406 11.500143 -0.927675 2.804892 0.008823 -0.002948 -1148690.000000 1 0 0
-3.576063 12.064753 -2.176406 12.770405 -1.282640 1.742058 0.001411 0.004655 -454953.000000 1 0 0
-0.065563 0.336653 -0.043806 0.345764 -1.378454 1.697832 -0.002832 -0.000886 -1513870.000000 1 0 0
-4.818263 -1.709347 0.109194 5.113653 0.340913 1.549441 0.000211 -0.001263 -15493.800000 1 0 0
2.591737 2.425653 -2.495606 4.339233 0.752309 2.183555 -0.001788 -0.000150 1378010.000000 1 0 0
6.026537 -9.825147 8.418894 14.273417 -1.020597 0.939948 -0.003056 0.004193 -101963.000000 1 0 0
-4.166563 -5.502847 6.630294 9.570912 0.922725 0.805495 0.006552 -0.002509 26249.600000 1 0 0
-6.356163 5.347553 -12.136706 14.707032 -0.699432 2.541408 -0.002926 -0.004881 883337.000000 1 0 0
-13.005763 3.220353 7.954694 15.581967 -0.242728 1.035023 0.004898 -0.003749 718413.000000 1 0 0
4.664137 -7.388447 -5.033406 10.083575 -1.007698 2.093436 0.002856 -0.006949 1240080.000000 1 0 0
-5.887163 2.572353 -1.086206 6.515791 -0.411943 1.738282 -0.000394 -0.001796 -1202460.000000 1 0 0
-6.897263 -2.818047 -14.621006 16.409980 0.387876 2.670301 -0.000298 -0.000852 755782.000000 1 0 0
2.926737 -6.191547 0.966894 6.916352 -1.129227 1.430539 0.002519 -0.002780 -40065.000000 1 0 0
4.835037 -7.935147 12.935994 15.927463 -1.023553 0.622914 -0.006653 -0.001617 -341455.000000 1 0 0
-10.079163 -1.622947 8.008994 12.975649 0.159650 0.905576 0.004366 0.000358 -592006.000000 1 0 0
-4.430163 13.269053 -0.127306 13.989651 -1.248561 1.579896 -0.001467 0.005081 667174.000000 1 0 0
6.872437 2.194253 -4.482106 8.493198 0.309053 2.126721 0.000688 0.002038 -1676750.000000 1 0 0
5.129737 4.409553 -0.010206 6.764500 0.710045 1.572305 -0.000570 -0.000834 -1118730.000000 1 0 0
-5.851563 12.285853 1.858594 13.734532 -1.126300 1.435057 -0.001340 0.003709 -1661920.000000 1 0 0
6.531237 -7.381147 6.435794 11.771059 -0.846412 0.992322 -0.006107 0.001132 -1292650.000000 1 0 0
-0.289363 5.012453 7.654594 9.154301 -1.513131 0.580525 -0.006218 0.003712 -1079220.000000 1 0 0
-5.797563 -3.414947 -1.557706 6.906522 0.532315 1.798295 0.002170 -0.003329 -486329.000000 1 0 0
2.236037 -6.541947 -5.140906 8.615442 -1.241445 2.210189 0.001429 -0.003109 -1804020.000000 1 0 0
-14.400163 -4.999047 -3.736206 15.694407 0.334135 1.811164 -0.002279 -0.003599 -109770.000000 1 0 0
-12.349063 -5.236147 -6.313706 14.824961 0.401033 2.010734 0.003502 -0.004322 -1075870.000000 1 0 0
-14.854163 -3.828147 -1.335106 15.397512 0.252227 1.657615 -0.001440 -0.004749 238790.000000 1 0 0
11.878037 2.806853 8.824194 15.060962 0.232049 0.944808 0.008443 0.000499 -1744550.000000 1 0 0
8.650737 -6.569547 7.631594 13.275369 -0.649503 0.958353 0.000315 -0.000878 5130.400000 1 0 0
-8.843763 -1.692247 -9.791206 13.302014 0.189064 2.398042 -0.004410 -0.000427 79047.900000 1 0 0
-8.726463 5.109253 -3.911006 10.842122 -0.529682 1.939840 -0.002576 0.001192 -2209040.000000 1 0 0
-4.076763 -6.209447 4.127994 8.498091 0.989836 1.063569 0.009247 -0.003227 -1577310.000000 1 0 0
-0.212863 -9.207847 3.522294 9.860847 1.547683 1.205528 0.001322 -0.002571 -118115.000000 1 0 0
7.843237 -10.579647 3.213394 13.556223 -0.932853 1.331476 -0.000656 0.000364 -49458.000000 1 0 0
0.018037 6.453353 9.664894 11.621371 1.568001 0.588727 -0.006551 0.003700 899029.000000 1 0 0
-0.054763 3.432053 -9.737206 10.324494 -1.554841 2.802681 0.007725 -0.000546 -846791.000000 1 0 0
4.356837 -3.118347 10.985394 12.222315 -0.621209 0.453776 -0.005012 0.000326 -2469420.000000 1 0 0
8.412537 -9.144747 1.218894 12.485306 -0.827078 1.473014 0.003304 -0.003113 -365890.000000 1 0 0
-0.300463 -0.403747 11.200194 11.211495 0.931026 0.044905 -0.002080 0.001509 -1821490.000000 1 0 0
10.899737 6.061553 11.424794 16.913681 0.507529 0.829186 0.008353 0.002119 -311412.000000 1 0 0
-6.386263 -2.889847 -11.922006 13.830033 0.424939 2.610072 0.001490 -0.002290 566789.000000 1 0 0
-1.614363 2.883953 8.498294 9.118353 -1.060480 0.370907 -0.000005 0.000243 191797.000000 1 0 0
-1.770563 13.486953 -6.913806 15.258883 -1.440263 2.041037 0.007071 0.002360 806369.000000 1 0 0
7.780237 3.098953 9.787594 12.881482 0.379049 0.707762 0.000300 0.001997 827704.000000 1 0 0
6.442937 8.511253 -8.064506 13.378682 0.922836 2.217787 0.002846 0.000449 -511345.000000 1 0 0
6.608537 -3.023047 -4.023306 8.306537 -0.429028 2.076421 0.007608 -0.003788 -2449640.000000 1 0 0
2.117637 7.928353 1.001294 8.267150 1.309793 1.449381 0.000017 0.001773 855158.000000 1 0 0
-17.643163 6.588053 6.413594 19.895171 -0.357372 1.242565 0.021176 -0.000442 1044320.000000 1 0 0
-14.836863 2.724053 -10.004506 18.100915 -0.181578 2.156406 0.022985 -0.003598 -405723.000000 1 0 0
-18.317063 0.131453 -4.403106 18.839305 -0.007176 1.806697 0.017806 -0.001716 224764.000000 1 0 0
-12.965263 7.997053 0.083894 15.233448 -0.552685 1.565289 0.004824 -0.001810 109318.000000 1 0 0
-12.511363 -4.426347 -12.719906 18.382676 0.340044 2.334984 0.005928 0.005237 -744195.000000 1 0 0
-17.292663 -0.676247 -8.740106 19.387701 0.039086 2.038465 -0.000384 -0.007706 818675.000000 1 0 0
-16.675863 -2.050447 -2.064606 16.927827 0.122345 1.693066 0.003611 -0.004550 771139.000000 1 0 0
-15.291063 4.019353 1.591694 15.890415 -0.257042 1.470461 0.005639 -0.001648 -932159.000000 1 0 0
-13.214663 5.911853 4.313794 15.105832 -0.420665 1.281194 0.003151 -0.004125 32242.600000 1 0 0
-10.117163 14.259953 2.662694 17.685961 -0.953736 1.419668 0.021965 -0.007516 48095.500000 1 0 0
-11.783463 2.445153 -6.458606 13.658052 -0.204603 2.063352 -0.000100 0.005055 -383330.000000 1 0 0
-16.074963 10.680453 3.611594 19.634667 -0.586442 1.385803 0.024818 -0.002318 -707074.000000 1 0 0
-12.646563 1.002753 -8.570706 15.310065 -0.079125 2.164951 0.005958 -0.001181 490289.000000 1 0 0
-12.277763 14.196153 4.082494 19.207837 -0.857735 1.356620 0.015699 -0.009269 195823.000000 1 0 0
-10.559163 11.138253 -1.085506 15.386193 -0.812081 1.641406 0.010073 -0.003126 681664.000000 1 0 0
-16.943363 5.736753 8.812394 19.941068 -0.326469 1.113056 0.008058 -0.004836 965083.000000 1 0 0
-11.711063 12.545153 -9.175906 19.460913 -0.819771 2.061792 -0.001346 -0.007508 -1005780.000000 1 0 0
-17.286863 -0.426947 3.161994 17.578854 0.024693 1.389937 0.012530 -0.003122 639954.000000 1 0 0
-13.357563 14.873053 -0.394906 19.994703 -0.839029 1.590548 0.040609 -0.008531 -148949.000000 1 0 0
-16.573763 4.557853 -10.223806 19.999747 -0.268370 2.107373 0.024813 -0.003919 408993.000000 1 0 0
-11.846563 7.478653 -9.044606 16.675617 -0.563112 2.144070 0.001424 0.000548 -86891.100000 1 0 0
-14.777863 13.631353 -2.008906 20.204820 -0.745063 1.670388 0.034499 -0.010559 379325.000000 1 0 0
-11.881263 10.512053 -5.440206 16.770913 -0.724331 1.901156 0.005009 -0.002649 -76064.900000 1 0 0
-17.617763 2.849653 -0.921706 17.870524 -0.160360 1.622396 0.002759 0.005006 -996213.000000 1 0 0
-9.442863 15.328853 0.431294 18.009093 -1.018681 1.546845 0.021407 -0.012674 -152982.000000 1 0 0
-8.101363 13.240653 -3.824006 15.986557 -1.021705 1.812340 0.003760 -0.002348 -16493.900000 1 0 0
-18.032163 11.483053 2.100094 21.480918 -0.567047 1.472874 0.049405 0.003617 289274.000000 1 0 0
-7.783863 16.011753 -7.469506 19.306949 -1.118303 1.968044 0.005094 -0.004040 -18176.800000 1 0 0
-6.230563 15.410753 -5.420006 17.483927 -1.186589 1.885989 0.005195 -0.000790 8101.980000 1 0 0
-17.241663 5.211453 -0.128506 18.012515 -0.293528 1.577931 0.011628 -0.000411 629687.000000 1 0 0
-5.594463 12.235753 -12.189606 18.154839 -1.141952 2.306926 -0.005977 -0.007865 -39270.700000 1 0 0
-11.168063 3.546553 -11.377106 16.332245 -0.307490 2.341449 0.000926 -0.003770 149505.000000 1 0 0
-11.935363 11.043653 1.203994 16.305360 -0.746612 1.496889 0.014013 -0.007158 302384.000000 1 0 0
-12.924263 0.171553 -11.036506 16.996190 -0.013273 2.277528 0.009196 -0.007503 -583311.000000 1 0 0
-13.992063 -2.249047 -13.051306 19.265841 0.159374 2.315063 0.005189 0.000029 60100.600000 1 0 0
-18.689263 -2.399447 -3.842306 19.230424 0.127688 1.771954 0.006526 -0.000484 1243420.000000 1 0 0
-18.239763 4.993053 -5.228806 19.620396 -0.267200 1.840555 0.019348 0.002750 214035.000000 1 0 0
-8.217263 15.377053 -2.394906 17.598658 -1.080021 1.707304 0.014351 -0.012230 -537045.000000 1 0 0
-15.876663 9.212353 -5.261406 19.094981 -0.525767 1.849946 0.014254 0.005819 -231020.000000 1 0 0
-18.247363 1.741353 2.092994 18.449368 -0.095142 1.457106 0.013268 -0.006981 -91716.500000 1 0 0
-15.580363 -2.743547 -8.756906 18.081985 0.174303 2.076347 0.000521 -0.006476 -940424.000000 1 0 0
-9.668563 10.568153 -7.142106 16.005520 -0.829822 2.033342 -0.005927 -0.001823 174599.000000 1 0 0
-13.993363 11.957053 -8.033706 20.082972 -0.707089 1.982341 0.014925 -0.009386 -452263.000000 1 0 0
-10.986563 6.448953 -3.836506 13.304599 -0.530795 1.863309 -0.002805 0.003214 -955101.000000 1 0 0
-13.099763 4.842953 -12.601306 18.810925 -0.354114 2.304861 0.006780 -0.003460 -226658.000000 1 0 0
-17.829863 9.007553 2.643494 20.150139 -0.467795 1.439227 0.038102 -0.005838 989051.000000 1 0 0
-13.315563 8.625353 -6.569706 17.171546 -0.574802 1.963397 0.006426 0.000375 -1542780.000000 1 0 0
-15.701863 7.005553 -3.827306 17.614612 -0.419657 1.789824 0.011077 0.006642 -346967.000000 1 0 0
-14.809363 -0.313947 -9.286806 17.483151 0.021196 2.130796 0.010228 -0.007925 92934.300000 1 0 0
-9.849963 5.896553 -6.048206 12.975820 -0.539417 2.055689 -0.005650 0.005451 215954.000000 1 0 0
-12.886863 12.255153 -0.904106 17.806668 -0.760278 1.621592 0.027969 -0.010547 -562514.000000 1 0 0
-10.672263 3.381053 -13.977206 17.907848 -0.306804 2.466273 -0.002925 -0.000199 398311.000000 1 0 0
-10.996363 6.166853 -11.890406 17.330085 -0.511104 2.326930 -0.006969 -0.001088 -505276.000000 1 0 0
-5.847463 11.612453 -14.842406 19.731673 -1.104312 2.422209 -0.006234 -0.010279 -145255.000000 1 0 0
-15.645263 13.274453 3.482894 20.811437 -0.703602 1.402650 0.014876 -0.003081 405419.000000 1 0 0
-15.373063 11.239253 -3.171706 19.305740 -0.631295 1.735833 0.045963 0.002642 770340.000000 1 0 0
-18.063763 7.843553 -4.633506 20.230923 -0.409650 1.801878 0.018831 0.006888 124498.000000 1 0 0
-4.031863 16.234953 -10.647006 19.828978 -1.327376 2.137604 0.013501 -0.002622 100654.000000 1 0 0
-15.709263 4.389453 -4.468206 16.911922 -0.272469 1.838175 0.012713 0.006710 852109.000000 1 0 0
-18.441963 -1.720447 -6.296606 19.563057 0.093021 1.898492 -0.002881 -0.002637 64978.300000 1 0 0
-10.713163 8.595753 -5.815106 14.915572 -0.676175 1.971285 -0.002409 0.005020 1524.500000 1 0 0
-11.247763 13.557953 -6.760006 18.868703 -0.878262 1.937206 -0.001810 -0.005454 261704.000000 1 0 0
-9.541363 10.598953 -4.410406 14.927395 -0.837861 1.870730 -0.006243 0.003453 -540062.000000 1 0 0
-10.932363 6.340953 -0.195806 12.639723 -0.525596 1.586288 0.003109 -0.001887 -477759.000000 1 0 0
-14.614463 9.478253 -1.345206 17.470816 -0.575357 1.647870 0.023746 0.000104 46495.500000 1 0 0
-18.810463 3.594653 4.714194 19.722542 -0.188822 1.329434 0.017696 -0.000685 395188.000000 1 0 0
-15.009163 12.948353 0.484094 19.828494 -0.711819 1.546380 0.033531 -0.014918 567506.000000 1 0 0
-17.190663 2.619353 -8.807806 19.492495 -0.151208 2.039641 0.028101 -0.004347 -159298.000000 1 0 0
-9.169163 8.567653 -8.914506 15.393072 -0.751498 2.188451 -0.006021 0.003289 -1801290.000000 1 0 0
-17.578263 4.694053 -2.694306 18.392628 -0.260948 1.717814 0.010091 0.005769 828809.000000 1 0 0
-13.465163 5.831453 -4.412806 15.322837 -0.408692 1.862922 0.007632 0.009052 -1253240.000000 1 0 0
-12.042963 9.618953 3.273494 15.756681 -0.673960 1.361519 0.002063 -0.003530 202756.000000 1 0 0
-17.645263 2.608453 -4.203506 18.325632 -0.146764 1.802235 0.020755 0.005788 1048180.000000 1 0 0
-11.284863 1.360053 -12.614706 16.980244 -0.119942 2.408196 0.005618 -0.004220 176713.000000 1 0 0
-11.095763 11.999553 3.459494 16.705488 -0.824511 1.362200 0.009420 -0.006982 437487.000000 1 0 0
-16.505563 13.340853 -3.948106 21.587022 -0.679760 1.754724 0.039286 0.001712 -1376.780000 1 0 0
-10.982463 4.075653 -4.649806 12.603418 -0.355352 1.948656 -0.001222 0.004863 -104547.000000 1 0 0
-11.006063 15.083453 -8.810106 20.646113 -0.940429 2.011659 0.004074 -0.007429 -154942.000000 1 0 0
-15.470963 7.224353 -0.368806 17.078583 -0.436870 1.592393 0.016686 -0.000586 -529043.000000 1 0 0
-12.755663 8.353353 -4.090606 15.786656 -0.579794 1.832905 0.005075 0.003654 560854.000000 1 0 0
-19.080663 1.958953 -6.148506 20.142327 -0.102308 1.881000 0.013894 0.000203 -108209.000000 1 0 0
-12.592463 10.025653 -8.925806 18.405268 -0.672397 2.077113 0.000233 -0.008036 411915.000000 1 0 0
-16.764963 10.892653 -0.943606 20.015101 -0.576183 1.617959 0.032425 -0.003332 166408.000000 1 0 0
-10.903063 6.441753 -14.529706 19.273955 -0.533643 2.424701 -0.000588 -0.007640 -390148.000000 1 0 0
-14.119863 13.045953 -4.543306 19.753710 -0.745887 1.802872 0.033102 -0.002674 -636805.000000 1 0 0
-18.132263 7.594553 -0.302506 19.660817 -0.396643 1.586183 0.031426 0.000344 700045.000000 1 0 0
-12.750363 6.763153 -2.086806 14.583099 -0.487693 1.714387 0.001752 0.004088 413425.000000 1 0 0
-13.744663 8.328853 -10.631206 19.269357 -0.544798 2.155216 0.004598 -0.002632 -253094.000000 1 0 0
-15.027163 1.383853 -0.906906 15.117975 -0.091831 1.630821 0.003420 0.001362 -272585.000000 1 0 0
-13.363263 2.596053 -2.401706 13.823331 -0.191878 1.745425 -0.000860 0.001329 402204.000000 1 0 0
-11.261163 9.146353 -10.884206 18.136580 -0.682138 2.214453 -0.007091 -0.004942 -659647.000000 1 0 0
-15.343963 4.263353 -7.931506 17.791070 -0.271016 2.032880 0.011570 0.002903 777987.000000 1 0 0
-18.542463 10.637653 4.525394 21.850899 -0.520850 1.362183 0.039280 -0.000370 443359.000000 1 0 0
-15.318463 6.263653 -6.248206 17.689792 -0.388151 1.931796 0.017146 0.009447 537091.000000 1 0 0
-7.808263 11.245153 -13.106006 18.952305 -0.963861 2.334395 -0.014987 -0.006204 -850922.000000 1 0 0
-16.745663 9.129153 -2.791206 19.275620 -0.499124 1.716112 0.020856 0.002952 506576.000000 1 0 0
-20.523063 -1.055947 -5.013506 21.152929 0.051406 1.810086 0.009213 -0.002008 -534977.000000 1 0 0
-15.453263 4.411553 4.124794 16.591536 -0.278080 1.319553 0.006414 -0.003991 384779.000000 1 0 0
-6.969163 12.499653 -9.391406 17.117508 -1.062176 2.151537 -0.002636 -0.005939 -3064080.000000 1 0 0
-17.413563 1.612553 5.759894 18.412194 -0.092340 1.252625 0.015706 -0.003487 -113871.000000 1 0 0
-10.394563 14.248753 -3.296806 17.942766 -0.940540 1.755586 0.015708 -0.013393 865235.000000 1 0 0
-10.167263 8.372453 -13.112706 18.585324 -0.688890 2.353982 -0.011089 -0.003883 -461431.000000 1 0 0
-13.756963 11.579353 2.897694 18.213514 -0.699661 1.411022 0.019500 -0.008561 778222.000000 1 0 0
-16.776563 6.735453 1.781694 18.165732 -0.381782 1.472558 0.009227 -0.002249 1022690.000000 1 0 0
-9.258363 13.321253 -8.413406 18.274531 -0.963429 2.049230 -0.002981 -0.009823 -261793.000000 1 0 0
-5.675363 9.759453 -13.058106 17.261831 -1.044072 2.428699 -0.002149 -0.002947 -327265.000000 1 0 0
-15.845863 1.831253 3.205794 16.270279 -0.115056 1.372465 0.000810 -0.004753 -445897.000000 1 0 0
-18.609263 -4.732847 4.612794 19.747971 0.249047 1.335035 0.009198 -0.000818 -375016.000000 1 0 0
-5.353463 14.512753 -9.144206 17.969310 -1.217402 2.104679 0.006324 -0.002331 1295720.000000 1 0 0
-15.390863 -0.845947 -6.816306 16.853971 0.054909 1.987155 0.009808 -0.001390 788016.000000 1 0 0
-8.938863 10.994253 -9.559406 17.092663 -0.888149 2.164301 -0.010804 -0.004751 345400.000000 1 0 0
-16.576863 1.302153 -6.065306 17.699603 -0.078391 1.920565 -0.002799 0.003631 -1143750.000000 1 0 0
-11.064563 8.658953 -1.518206 14.131772 -0.664031 1.678436 0.006930 -0.001346 -833042.000000 1 0 0
-10.698863 10.913653 -12.708906 19.876866 -0.795336 2.264490 -0.010040 -0.011609 -591283.000000 1 0 0
-13.692963 11.578353 -10.646806 20.854496 -0.701916 2.106595 0.001204 -0.014340 -97054.600000 1 0 0
-13.126063 5.700153 -7.597806 16.202220 -0.409690 2.058882 0.006752 0.007403 -25256.700000 1 0 0
-8.846363 15.431653 -5.006506 18.478614 -1.050270 1.845161 0.009502 -0.008128 244428.000000 1 0 0
-8.751963 6.136653 -13.075906 16.888893 -0.611514 2.456296 -0.004084 -0.006302 335727.000000 1 0 0
-16.400563 7.468253 4.203094 18.504574 -0.427307 1.341658 0.018757 -0.004746 -129515.000000 1 0 0
-12.657063 5.263553 -10.093706 17.023194 -0.394103 2.205499 0.004118 -0.001297 594584.000000 1 0 0
-12.476563 9.202053 -13.220806 20.374792 -0.635484 2.276909 0.003903 -0.007760 -1455360.000000 1 0 0
-10.685663 5.207653 -8.533406 14.632911 -0.453476 2.193416 -0.006990 0.004674 -1922430.000000 1 0 0
-17.786763 -4.368647 -2.548406 18.491847 0.240845 1.709049 0.002859 -0.003798 655651.000000 1 0 0
-8.921563 13.244253 -10.903106 19.336035 -0.977997 2.169867 -0.002487 -0.005830 91454.700000 1 0 0
-15.041763 6.211753 6.074394 17.370630 -0.391635 1.213553 0.003463 -0.006328 -724596.000000 1 0 0
-16.240963 -3.238247 -4.313806 17.113271 0.196807 1.825619 -0.002982 -0.001364 -343352.000000 1 0 0
-11.227263 -1.267247 -12.521406 16.865437 0.112397 2.407487 0.003670 -0.001074 512048.000000 1 0 0
-15.196363 6.741653 -8.773706 18.797799 -0.417549 2.056399 0.005907 0.004991 -575404.000000 1 0 0
-14.789863 9.287853 1.201394 17.505645 -0.560745 1.502113 0.017167 -0.004077 -115716.000000 1 0 0
-19.385563 5.356053 7.987894 21.640097 -0.269566 1.192729 0.019646 -0.001453 114428.000000 1 0 0
-16.296063 0.549753 0.993094 16.335548 -0.033723 1.509965 0.005225 -0.003436 -1927080.000000 1 0 0
-17.463463 3.996353 6.871894 19.187660 -0.224967 1.204520 0.009116 0.001396 459043.000000 1 0 0
-15.397863 3.912953 -1.447206 15.953050 -0.248855 1.661638 0.004666 0.001926 -1942250.000000 1 0 0
-10.780063 13.205753 0.251694 17.048901 -0.886186 1.556033 0.021879 -0.017309 -531379.000000 1 0 0
-13.343563 3.300653 0.068094 13.745895 -0.242492 1.565843 0.003336 -0.000703 -275347.000000 1 0 0
-15.037763 0.147953 -4.249006 15.627228 -0.009838 1.846161 -0.000395 0.002968 -30108.100000 1 0 0
-18.795363 6.745853 3.462894 20.267310 -0.344591 1.399093 0.020858 -0.001691 318686.000000 1 0 0
-13.971863 1.309853 -6.361306 15.407624 -0.093476 1.996396 0.007430 0.002692 -568941.000000 1 0 0
-14.477263 11.957753 5.324594 19.517436 -0.690376 1.294481 0.011292 -0.010521 341723.000000 1 0 0
17.750137 5.399153 6.404694 19.627489 0.295283 1.238396 0.022557 0.001751 129539.000000 1 0 0
18.477537 7.492553 -0.110106 19.939154 0.385235 1.576318 0.016969 0.009721 102014.000000 1 0 0
16.625137 5.347853 8.702494 19.512255 0.311220 1.108504 0.023950 0.009525 453189.000000 1 0 0
11.579337 12.391353 10.986794 20.207333 0.819261 0.995953 0.014661 -0.003481 378654.000000 1 0 0
-2.315363 16.289153 -0.510706 16.460809 -1.429601 1.601827 -0.002110 0.000045 85413.700000 1 0 0
15.104537 12.627953 3.147994 19.937956 0.696332 1.412243 0.027459 0.001460 -255929.000000 1 0 0
13.478037 11.699953 6.561494 19.015772 0.714895 1.218499 0.018524 -0.000012 871533.000000 1 0 0
-0.558463 15.839653 8.689694 18.075322 -1.535554 1.069288 -0.003053 -0.000529 56238.300000 1 0 0
0.758437 12.934153 9.562494 16.103069 1.512225 0.934985 -0.006934 0.004091 -1565900.000000 1 0 0
0.791437 15.619453 -3.735606 16.079442 1.520170 1.805261 0.004935 -0.000395 442919.000000 1 0 0
5.341537 10.235653 13.628094 17.861287 1.089817 0.702861 0.001085 0.001830 863647.000000 1 0 0
-1.396363 16.582953 -2.847806 16.883547 -1.486790 1.740280 0.001103 0.002937 -1452490.000000 1 0 0
8.615737 9.947753 3.329594 13.574790 0.857030 1.322990 0.001354 0.003928 507960.000000 1 0 0
12.506437 13.838653 -4.969306 19.303194 0.835923 1.831163 0.022973 -0.003858 205687.000000 1 0 0
2.499337 11.598553 7.958794 14.286900 1.358555 0.979944 -0.003078 0.004630 534383.000000 1 0 0
-0.200763 14.865653 -8.592506 17.171462 -1.557292 2.094851 0.010982 -0.002580 -763527.000000 1 0 0
2.396437 15.927253 0.338694 16.110091 1.421455 1.549771 0.006611 -0.005403 -203532.000000 1 0 0
1.928937 13.376853 5.337394 14.530959 1.427584 1.194679 -0.001782 0.006139 321844.000000 1 0 0
17.370537 9.277053 -1.712406 19.766932 0.490529 1.657535 -0.001470 0.010505 -529056.000000 1 0 0
-7.161363 15.051153 7.280494 18.188676 -1.126694 1.158978 0.005832 -0.004672 -67858.100000 1 0 0
8.645137 15.973353 -0.147706 18.163376 1.074717 1.578929 0.004873 -0.002286 -37427.800000 1 0 0
15.634337 10.294053 1.941794 18.819421 0.582276 1.467432 0.013380 0.000700 900075.000000 1 0 0
14.242037 7.586553 8.802894 18.381576 0.489454 1.071398 0.014524 0.002904 -1184370.000000 1 0 0
4.196037 18.581053 -2.000406 19.153692 1.348698 1.675427 0.006978 -0.009769 -779879.000000 1 0 0
-0.457563 17.588253 -4.961406 18.280360 -1.544787 1.845650 0.011095 0.001143 443220.000000 1 0 0
1.411937 13.823853 -0.726006 13.914725 1.469012 1.622995 0.006279 -0.000275 49233.700000 1 0 0
10.189937 14.607953 4.115794 18.280232 0.961709 1.343699 0.005713 -0.003294 -164112.000000 1 0 0
-1.538863 15.297953 -5.157106 16.217004 -1.470541 1.894422 0.005622 -0.000110 -72324.200000 1 0 0
15.204637 8.689253 -6.148606 18.560427 0.519190 1.908451 0.022151 0.000842 445571.000000 1 0 0
-2.355163 18.651853 0.733894 18.814277 -1.445191 1.531779 -0.007482 -0.003204 -796565.000000 1 0 0
-3.666863 19.452553 3.587094 20.117529 -1.384480 1.391531 -0.008196 -0.002963 -30564.400000 1 0 0
1.811437 17.755353 -2.526406 18.025443 1.469126 1.711417 0.003842 -0.004665 13463.600000 1 0 0
2.942337 12.046853 3.440394 12.869356 1.331245 1.300173 -0.000311 0.004616 -330932.000000 1 0 0
-2.568163 16.376853 1.978394 16.694635 -1.415246 1.452012 -0.002332 0.001909 -902072.000000 1 0 0
11.894537 12.791253 -2.720006 17.677517 0.821707 1.725278 0.009029 0.002072 247645.000000 1 0 0
7.246237 11.681253 4.701794 14.528128 1.015562 1.241229 -0.003295 0.005774 58276.800000 1 0 0
7.188837 15.841553 1.908694 17.500780 1.144790 1.461516 0.001191 -0.003543 -1456440.000000 1 0 0
5.450037 12.245553 10.460094 17.002060 1.152056 0.908125 -0.006121 0.008452 -409820.000000 1 0 0
-1.367263 14.240753 3.107594 14.639864 -1.475079 1.356900 -0.000647 0.006089 -142303.000000 1 0 0
4.710437 16.138353 1.454794 16.874569 1.286807 1.484477 0.005957 -0.008995 -2295580.000000 1 0 0
7.352337 13.184553 11.973194 19.267763 1.062100 0.900254 0.001754 0.000961 81545.900000 1 0 0
0.789337 16.995153 -9.493206 19.482794 1.524385 2.079747 0.005100 -0.001353 480278.000000 1 0 0
9.990137 9.562853 15.287494 20.614521 0.763549 0.735361 0.019618 -0.007296 -263690.000000 1 0 0
13.629737 7.631453 0.025394 15.620802 0.510421 1.569171 0.002615 0.006515 178194.000000 1 0 0
12.481537 13.538253 -0.249306 18.415624 0.825988 1.584334 0.015914 -0.002094 528112.000000 1 0 0
9.402137 12.326053 3.257594 15.841202 0.919162 1.363678 0.001496 0.009224 1038850.000000 1 0 0
-0.606563 13.029753 0.714994 13.063446 -1.524278 1.516037 0.004122 0.000309 -565362.000000 1 0 0
15.994037 7.218453 -0.875906 17.569362 0.423952 1.620671 0.010665 0.010843 -3720150.000000 1 0 0
-4.251463 18.483253 -2.450406 19.123548 -1.344712 1.699285 0.006306 -0.003687 -56427.100000 1 0 0
11.493937 9.220953 -3.292506 15.098913 0.676108 1.790625 0.001415 0.003972 -14844.900000 1 0 0
14.743337 9.805453 7.726794 19.318805 0.586901 1.159321 0.020229 -0.002380 393581.000000 1 0 0
4.533637 13.675953 4.689694 15.151858 1.250693 1.256116 -0.002117 0.005713 -518338.000000 1 0 0
2.161837 15.881653 5.577094 16.970693 1.435506 1.235943 0.000538 -0.000716 527420.000000 1 0 0
6.254637 18.412853 5.533394 20.218113 1.243337 1.293574 0.012338 -0.015075 -365455.000000 1 0 0
10.922937 16.935653 -0.896506 20.172522 0.997967 1.615253 0.027056 -0.013754 -1033460.000000 1 0 0
9.985137 13.628853 -4.402606 17.459426 0.938494 1.825710 0.013052 -0.002128 1077160.000000 1 0 0
16.696937 7.794553 2.383994 18.580263 0.436757 1.442134 0.013183 0.004427 -60302.800000 1 0 0
4.021237 14.035053 -0.474306 14.607465 1.291758 1.603272 0.005554 -0.003742 -516494.000000 1 0 0
5.699137 13.253053 -2.271906 14.604285 1.164678 1.726995 0.004498 -0.001493 -261303.000000 1 0 0
-6.125463 16.777953 -2.975606 18.107326 -1.220742 1.735877 0.008583 -0.009184 -945377.000000 1 0 0
18.149037 9.928453 2.534594 20.841926 0.500576 1.448884 0.021098 -0.001720 -110100.000000 1 0 0
7.799737 12.682553 9.388094 17.601686 1.019422 1.008225 0.001302 -0.003616 -8120.780000 1 0 0
-2.490763 15.680953 6.799694 17.272291 -1.413272 1.166169 -0.007587 -0.000393 -314069.000000 1 0 0
10.653437 15.870253 6.272594 20.117308 0.979604 1.253709 0.004966 -0.004149 438408.000000 1 0 0
13.585737 11.881953 1.256294 18.092301 0.718598 1.501302 0.020658 0.001789 646312.000000 1 0 0
17.518137 7.839753 -5.551806 19.979224 0.420791 1.852382 0.006345 0.018446 -1477680.000000 1 0 0
9.542837 9.281553 8.093194 15.579241 0.771519 1.024547 0.002338 0.001793 -249488.000000 1 0 0
-1.969763 14.168153 -2.053106 14.451013 -1.432654 1.713352 0.000148 0.002420 646828.000000 1 0 0
11.038337 11.492453 0.616094 15.946816 0.805551 1.532152 0.000801 0.005596 194242.000000 1 0 0
11.778337 9.630953 -0.674206 15.229545 0.685431 1.615080 -0.001063 0.006094 -1092010.000000 1 0 0
-0.003663 16.122453 11.107594 19.578359 -1.570569 0.967524 -0.001991 -0.006786 -412399.000000 1 0 0
2.127537 20.126253 -1.474106 20.292005 1.465478 1.643505 0.010375 -0.012503 -617358.000000 1 0 0
9.259037 14.322753 1.704294 17.139885 0.996916 1.471197 0.002088 0.003568 -458442.000000 1 0 0
8.471337 11.664253 -5.099606 15.291316 0.942660 1.910807 0.008529 -0.001982 -970990.000000 1 0 0
10.726737 10.028553 10.314494 17.945015 0.751772 0.958457 0.011055 0.001373 603315.000000 1 0 0
-4.993163 15.779353 5.900694 17.570938 -1.264329 1.228319 -0.011819 0.000167 100725.000000 1 0 0
14.599837 9.053853 -1.928206 17.287148 0.555092 1.682569 0.027137 0.007598 -1403590.000000 1 0 0
12.219237 9.513553 7.044994 17.013212 0.661538 1.143854 0.006680 0.001423 -2076670.000000 1 0 0
3.172037 13.009153 9.862994 16.630651 1.331632 0.935941 -0.006731 0.000745 -1145110.000000 1 0 0
8.461737 12.615453 -2.607806 15.412700 0.979976 1.740813 0.006614 -0.001317 -1317200.000000 1 0 0
9.527437 16.996453 2.141794 19.602009 1.059886 1.461314 0.012309 -0.002298 159898.000000 1 0 0
9.605737 14.341453 -7.422406 18.789348 0.980636 1.976900 0.012284 -0.007930 -1156040.000000 1 0 0
6.338237 11.455653 7.226094 14.953985 1.065435 1.066465 -0.002369 0.006046 -1270350.000000 1 0 0
5.489337 16.937753 -5.419206 18.611505 1.257389 1.866251 0.005101 0.000714 207991.000000 1 0 0
-4.036063 17.155553 -4.675406 18.233547 -1.339735 1.830111 0.003311 -0.005568 110040.000000 1 0 0
0.005637 18.537253 -0.283706 18.539425 1.570492 1.586100 0.004276 -0.007379 -550383.000000 1 0 0
6.689037 15.683553 -2.844006 17.285990 1.167656 1.736074 0.002546 -0.001428 327471.000000 1 0 0
-0.777763 20.830853 0.752994 20.858964 -1.533477 1.534689 -0.000023 -0.003797 -4703.380000 1 0 0
-1.317563 18.841353 4.456494 19.406002 -1.500981 1.339083 -0.004641 -0.005114 -260686.000000 1 0 0
7.241337 13.792153 -4.415606 16.191295 1.087323 1.847010 0.007658 0.000310 -174340.000000 1 0 0
-0.903863 11.959853 7.784794 14.298884 -1.495365 0.995083 -0.002712 0.009122 461523.000000 1 0 0
7.706537 10.806853 11.035694 17.261672 0.951322 0.877186 0.000237 0.002564 373187.000000 1 0 0
1.592237 16.011653 -7.153906 17.609277 1.471680 1.989151 0.007292 -0.001934 -360549.000000 1 0 0
8.930137 7.101153 14.913994 18.777671 0.671801 0.653039 0.007069 0.007156 -629902.000000 1 0 0
11.387237 11.386553 -4.813106 16.807402 0.785368 1.861231 0.009054 0.003566 -136408.000000 1 0 0
-3.258463 17.066653 4.646994 17.985627 -1.382141 1.309459 -0.009164 -0.000754 -485856.000000 1 0 0
3.987437 15.339353 -6.696906 17.205928 1.316477 1.970582 0.008062 -0.004621 -1002460.000000 1 0 0
-4.364463 14.064653 9.568194 17.561701 -1.269904 0.994606 0.000261 -0.002813 -1045330.000000 1 0 0
6.403537 17.991353 0.588894 19.106043 1.228855 1.539969 -0.002932 -0.006601 99454.800000 1 0 0
9.861137 10.775253 -2.064006 14.751550 0.829666 1.711175 0.003205 0.002903 -1961270.000000 1 0 0
7.456837 18.116253 -2.531406 19.753761 1.180321 1.699298 0.007748 -0.003494 -6197.140000 1 0 0
3.582937 10.429353 10.594694 15.292364 1.239885 0.805419 -0.005001 0.008004 1231020.000000 1 0 0
-0.027763 18.738853 2.165294 18.863560 -1.569315 1.455756 -0.002235 -0.006191 1132740.000000 1 0 0
-0.933063 17.050253 -7.483206 18.643501 -1.516127 1.983824 0.016139 0.001562 -177227.000000 1 0 0
9.967237 8.513553 12.956894 18.431156 0.706901 0.791205 0.005637 -0.002983 171161.000000 1 0 0
3.757537 11.524053 5.701394 13.395103 1.255606 1.131135 -0.004754 0.006629 411706.000000 1 0 0
13.159037 13.828053 8.160194 20.759674 0.810183 1.166818 0.025706 -0.002544 -83550.600000 1 0 0
-0.534463 17.316653 6.793594 18.609273 -1.539942 1.197094 -0.001338 -0.006524 -660039.000000 1 0 0
11.934037 13.610153 5.811994 19.011491 0.850921 1.260113 0.007945 0.004400 -464248.000000 1 0 0
4.838737 14.623853 -4.339306 16.003126 1.251256 1.845388 0.004386 -0.002721 -507829.000000 1 0 0
3.875137 17.598353 4.726594 18.629531 1.354056 1.314277 0.005150 -0.008068 -294828.000000 1 0 0
7.044537 11.509753 2.088594 13.655114 1.021564 1.417240 0.000865 0.003890 590827.000000 1 0 0
6.429737 8.687053 11.724394 15.945778 0.933628 0.744737 -0.001311 0.003617 425315.000000 1 0 0
-5.366163 14.897653 1.749694 15.931014 -1.225062 1.460745 0.000537 0.002271 241131.000000 1 0 0
6.883137 13.768853 6.009394 16.524882 1.107224 1.198605 -0.002556 0.004571 -139522.000000 1 0 0
5.902837 15.876453 4.922194 17.638970 1.214836 1.287989 0.001182 -0.007287 830467.000000 1 0 0
1.327937 17.996853 4.306094 18.552428 1.497143 1.336556 0.005687 -0.007705 157379.000000 1 0 0
7.443137 18.105453 -6.934606 20.767679 1.180758 1.911249 0.006086 0.005087 725066.000000 1 0 0
-2.440463 18.743253 -6.000906 19.831195 -1.441320 1.878215 0.011749 -0.001389 -1936670.000000 1 0 0
13.647637 10.002153 -4.461106 17.498644 0.632457 1.828582 0.022885 0.004102 38141.900000 1 0 0
-1.349963 17.985353 9.963094 20.604819 -1.495878 1.066111 0.004406 -0.006722 -43918.700000 1 0 0
3.539437 11.882553 -1.531506 12.492726 1.281296 1.693697 0.007712 -0.002043 -209628.000000 1 0 0
4.341637 14.061353 -10.812606 18.261542 1.271319 2.204455 0.002440 -0.008642 85833.100000 1 0 0
11.586137 13.410753 2.313694 17.872886 0.858263 1.440979 0.010759 0.006262 -42711.400000 1 0 0
15.937037 6.305253 -7.054806 18.534175 0.376738 1.961282 0.007233 -0.001705 21514.600000 1 0 0
2.647937 16.094353 2.982094 16.581094 1.407731 1.389963 0.004238 -0.003526 267865.000000 1 0 0
13.475137 10.596553 3.465494 17.489308 0.666380 1.371327 0.009558 0.007294 -611681.000000 1 0 0
-4.953163 19.427053 -5.820106 20.876251 -1.321153 1.853331 0.008118 -0.007981 358403.000000 1 0 0
5.520337 12.035353 0.158794 13.241943 1.140750 1.558804 0.005945 -0.000248 575743.000000 1 0 0
4.903337 15.322753 9.716494 18.794673 1.261090 1.027476 -0.000827 -0.001787 -100415.000000 1 0 0
7.752137 9.292853 13.941794 18.461483 0.875544 0.714863 -0.003450 0.000645 -1875310.000000 1 0 0
-4.946763 13.659053 7.021394 16.135060 -1.223330 1.120576 -0.004558 0.003304 -1552750.000000 1 0 0
-4.546863 17.194653 0.576594 17.795014 -1.312279 1.538389 0.003424 -0.001838 -1953000.000000 1 0 0
-0.599463 16.595853 3.632494 16.999315 -1.534691 1.355451 0.000898 -0.003978 -1411980.000000 1 0 0
8.056537 16.885753 -4.800906 19.315412 1.125619 1.821983 0.010110 -0.000047 1159920.000000 1 0 0
3.072737 16.514953 -4.550306 17.403755 1.386842 1.835326 0.000167 -0.001715 -185630.000000 1 0 0
9.370837 14.393953 8.481994 19.155748 0.993700 1.112087 0.004328 0.005953 501259.000000 1 0 0
12.762837 11.018053 9.075594 19.148209 0.712160 1.077007 0.018759 -0.004701 -923494.000000 1 0 0
3.782837 12.381953 12.338094 17.884384 1.274290 0.809472 -0.002182 0.007199 353653.000000 1 0 0
-3.265563 19.227553 6.118894 20.440244 -1.402564 1.266780 -0.006208 -0.004806 5531.420000 1 0 0
-2.554463 15.723153 10.374394 19.009758 -1.409738 0.993524 -0.001471 -0.004220 447258.000000 1 0 0
2.049637 14.257653 7.751894 16.357676 1.428018 1.077082 -0.001473 0.004103 -232180.000000 1 0 0
4.308137 17.111553 7.870894 19.321394 1.324155 1.151227 0.004570 -0.010694 112887.000000 1 0 0
-1.869563 13.387853 9.467494 16.503434 -1.432047 0.959819 0.000891 -0.002389 -720703.000000 1 0 0
5.852637 17.772553 3.128394 18.971132 1.252673 1.405137 -0.002203 -0.011930 398795.000000 1 0 0
7.340637 15.434553 -6.805306 18.396265 1.126860 1.949729 0.006975 -0.001471 352683.000000 1 0 0
11.075237 7.637253 9.502594 16.470817 0.603698 0.955825 0.008193 -0.000624 474004.000000 1 0 0
9.197437 16.178853 -2.714406 18.807343 1.053872 1.715629 0.014992 -0.013133 -1157490.000000 1 0 0
14.559037 11.258053 -6.564906 19.539890 0.658228 1.913436 0.029122 0.001532 464625.000000 1 0 0
10.945237 6.325753 16.167694 20.523345 0.524045 0.663615 0.019122 -0.004161 -393614.000000 1 0 0
8.598337 8.497153 10.228894 15.835507 0.779480 0.868534 0.000289 0.002518 368365.000000 1 0 0
16.376437 9.465553 4.380194 19.415728 0.524085 1.343237 0.015407 0.005930 35197.100000 1 0 0
-3.375563 14.423353 4.644494 15.524138 -1.340899 1.266964 -0.003611 0.006102 -1460180.000000 1 0 0
4.792737 14.827453 12.647294 20.069323 1.258163 0.889011 -0.000051 0.005405 -874743.000000 1 0 0
16.153637 10.571053 -4.592106 19.843755 0.579467 1.804326 0.032371 -0.001948 244239.000000 1 0 0
14.533437 13.950753 5.984394 21.015644 0.764945 1.282041 0.019094 0.002168 -392072.000000 1 0 0
6.193337 9.559353 9.338094 14.728838 0.995911 0.884081 -0.002209 0.006965 1539840.000000 1 0 0
10.454137 12.090953 8.736294 18.215459 0.857873 1.070588 0.008630 -0.000826 -417506.000000 1 0 0
7.945137 11.521853 -0.356606 14.000196 0.967104 1.596271 0.002381 0.000655 -979913.000000 1 0 0
7.453837 13.579953 -8.710206 17.771959 1.068809 2.083012 0.003384 -0.002431 -179351.000000 1 0 0
2.818637 15.478953 -2.165206 15.881777 1.390675 1.707555 0.002272 -0.003649 259915.000000 1 0 0
12.234737 13.857453 -7.738106 20.039863 0.847510 1.967235 0.014925 -0.008032 -199372.000000 1 0 0
-8.094863 14.721753 9.800794 19.450254 -1.068063 1.042700 0.011801 -0.010418 207814.000000 1 0 0
11.589737 9.450453 2.173894 15.111548 0.684070 1.426439 0.005655 0.004719 -2028480.000000 1 0 0
12.075137 8.725253 4.582494 15.586476 0.625720 1.272383 0.002809 0.003128 523325.000000 1 0 0
14.058937 8.045153 6.151794 17.326938 0.519761 1.207837 0.006133 0.002204 -5140210.000000 1 0 0
16.274837 7.438253 7.183694 19.282204 0.428693 1.189035 0.023198 0.000975 -237600.000000 1 0 0
13.646137 8.138853 2.575194 16.096261 0.537784 1.410119 -0.000728 0.007147 -2383870.000000 1 0 0
-4.209863 17.357253 -7.219806 19.264548 -1.332849 1.954947 0.005263 -0.006025 -113564.000000 1 0 0
2.845737 19.689853 -3.922306 20.277402 1.427262 1.765456 -0.011098 0.001919 224220.000000 1 0 0
-0.098363 14.715653 6.341894 16.024349 -1.564112 1.163894 0.000259 0.000295 -326394.000000 1 0 0
6.721037 16.315753 8.187794 19.452920 1.180043 1.136356 0.005578 0.002823 222117.000000 1 0 0
12.845637 15.115853 -2.114406 19.949189 0.866411 1.676985 0.032673 -0.011558 -676159.000000 1 0 0
12.455637 15.849053 4.482494 20.650136 0.904718 1.351986 0.019754 0.000422 -173374.000000 1 0 0
2.960537 18.135153 1.367294 18.426016 1.408975 1.496524 0.014298 -0.012635 -253559.000000 1 0 0
10.408437 14.463953 -1.262806 17.864383 0.947029 1.641544 0.007024 0.003241 -813121.000000 1 0 0
-6.358463 15.696953 -0.602706 16.946612 -1.185922 1.606369 0.004864 -0.004063 354761.000000 1 0 0
-3.841763 15.814953 -2.581906 16.478414 -1.332493 1.728129 0.003131 -0.000982 -1670920.000000 1 0 0
-6.919163 17.072653 1.538694 18.485613 -1.185749 1.487463 0.010203 -0.002535 596026.000000 1 0 0
0.083937 19.351153 -6.604106 20.447210 1.566459 1.899676 0.012147 0.000892 239662.000000 1 0 0
4.913237 14.681453 7.150094 17.053117 1.247856 1.138140 0.000614 -0.000515 -255701.000000 1 0 0
8.722537 12.326253 6.924694 16.612362 0.954962 1.140830 0.003507 0.004507 203688.000000 1 0 0
-7.637463 17.653953 -5.503806 20.007119 -1.162489 1.849482 0.015071 -0.007027 196309.000000 1 0 0
-7.822863 17.741653 -1.382406 19.438994 -1.155509 1.641972 0.019073 -0.009563 22796.300000 1 0 0
-13.754463 -8.916047 9.270594 18.831491 0.575129 1.056075 0.005427 -0.013009 -519499.000000 1 0 0
-12.590963 -12.829247 7.841294 19.611420 0.794772 1.159462 0.014769 -0.001467 -296906.000000 1 0 0
-3.968663 -15.119147 12.290594 19.884606 1.314095 0.904478 -0.012330 -0.001471 151917.000000 1 0 0
-2.172163 -13.985047 14.879494 20.535315 1.416707 0.760370 -0.015892 -0.000359 -1365570.000000 1 0 0
-7.090463 -13.822347 12.660194 20.040270 1.096826 0.887004 0.008390 -0.002283 288953.000000 1 0 0
-9.989763 -11.485747 8.955994 17.661471 0.854946 1.038989 0.012059 -0.007616 524388.000000 1 0 0
-10.631563 -10.496947 11.282294 18.721810 0.779027 0.924006 0.016884 -0.014653 159617.000000 1 0 0
-5.789663 -12.414247 10.691794 17.376656 1.134411 0.908034 0.005890 0.000541 864660.000000 1 0 0
-12.541863 -10.251947 7.384094 17.802404 0.685272 1.143095 0.006913 -0.002838 -477338.000000 1 0 0
-7.562763 -11.383847 12.326794 18.404814 0.984405 0.836912 0.006546 -0.004537 -300613.000000 1 0 0
-14.826863 -11.570647 7.404194 20.212318 0.662665 1.195744 0.005477 0.004434 95593.000000 1 0 0
-11.153463 -9.102947 9.201794 17.086146 0.684514 1.002078 0.013071 -0.008610 -862064.000000 1 0 0
-5.167163 -12.048647 13.082094 18.520546 1.165662 0.786460 -0.001975 -0.000767 -130139.000000 1 0 0
3.960937 -12.445147 14.657394 19.631859 -1.262662 0.727841 0.003906 -0.008346 959825.000000 1 0 0
6.545037 -12.834947 14.159594 20.200680 -1.099229 0.794073 0.017550 -0.002601 78515.200000 1 0 0
6.764537 -8.668447 15.975394 19.393662 -0.908144 0.602815 0.011042 -0.002235 282569.000000 1 0 0
0.652737 -1.776447 14.558994 14.681489 -1.218670 0.129268 -0.004840 0.000193 -1303100.000000 1 0 0
-0.051763 -6.377447 15.617694 16.869702 1.562680 0.387693 -0.004038 -0.004208 -66347.600000 1 0 0
-1.401463 -4.760747 18.258694 18.921118 1.284504 0.265390 -0.005504 -0.017401 -645896.000000 1 0 0
-5.131763 12.674653 13.095194 18.933197 -1.186087 0.807022 0.000020 -0.002730 347691.000000 1 0 0
-4.088263 8.731853 11.652294 15.123991 -1.132910 0.691248 -0.006396 -0.000129 -263591.000000 1 0 0
-0.773063 -4.002347 14.904394 15.451775 1.379994 0.266969 -0.005475 -0.002928 101256.000000 1 0 0
-4.246563 9.215653 14.263894 17.504863 -1.138998 0.618320 -0.008585 -0.003171 287209.000000 1 0 0
-13.289963 -2.113047 16.904994 21.607103 0.157676 0.672316 0.002588 0.007936 459889.000000 1 0 0
-0.299363 0.793453 17.493694 17.514237 -1.210018 0.048439 -0.000232 0.001653 -649029.000000 1 0 0
-3.335563 -7.384047 15.519794 17.507545 1.146508 0.481150 -0.004940 -0.001706 347986.000000 1 0 0
-7.451063 5.545353 12.624494 15.673134 -0.639802 0.634301 0.000100 -0.004382 -451182.000000 1 0 0
-9.723863 9.869953 13.397094 19.273080 -0.792854 0.802210 0.002332 -0.021404 45612.200000 1 0 0
-5.542063 2.252653 11.113294 12.621181 -0.386067 0.493823 -0.000038 0.001231 -1261260.000000 1 0 0
-7.003063 -7.497647 16.966194 19.826985 0.819492 0.543871 -0.002288 -0.000257 -543564.000000 1 0 0
-4.883363 2.941453 18.798994 19.644377 -0.542140 0.294437 0.004710 -0.002202 73173.200000 1 0 0
1.028737 -8.438147 16.482394 18.545348 -1.449480 0.476160 -0.005158 -0.001144 712365.000000 1 0 0
-14.755863 -3.613847 14.053494 20.695315 0.240182 0.824306 0.005567 0.003334 106037.000000 1 0 0
-14.279863 2.376853 13.058094 19.495582 -0.164936 0.836860 0.006606 -0.001593 -517376.000000 1 0 0
-5.414163 1.011353 16.194794 17.105769 -0.184669 0.327826 0.003148 0.000952 637377.000000 1 0 0
4.522937 5.707653 15.213994 16.867124 0.900686 0.446437 -0.000074 0.007464 298141.000000 1 0 0
-1.137563 -11.931147 13.859394 18.322912 1.475740 0.713009 -0.015245 -0.002480 -48764.400000 1 0 0
-5.844163 -3.999147 16.749294 18.184781 0.600109 0.400000 0.000312 -0.003805 166118.000000 1 0 0
-12.924963 -1.465747 9.859094 16.321912 0.112922 0.922235 0.002745 0.002938 -605555.000000 1 0 0
-14.120263 10.686253 10.350594 20.511281 -0.647841 1.041844 -0.011643 0.001232 313728.000000 1 0 0
-3.503663 -3.373047 17.728194 18.383198 0.766406 0.267747 -0.000256 -0.008927 -764621.000000 1 0 0
-7.889763 9.236853 11.719994 16.879753 -0.863891 0.803318 -0.006032 -0.014202 -97788.200000 1 0 0
-4.321763 10.624853 16.445194 20.050176 -1.184476 0.609032 -0.004646 -0.000035 123391.000000 1 0 0
-12.420663 12.825853 8.201894 19.648065 -0.801446 1.140170 0.003673 -0.009549 -354084.000000 1 0 0
-12.520663 3.297853 10.518994 16.682088 -0.257543 0.888527 0.005534 -0.002441 372241.000000 1 0 0
-10.046063 -3.476947 13.700694 17.341325 0.333197 0.659889 0.001155 0.002551 -1675340.000000 1 0 0
-4.283363 -6.477347 17.805294 19.425028 0.986530 0.411264 -0.004657 0.000091 -739630.000000 1 0 0
0.894237 -3.716547 17.954894 18.357303 -1.334675 0.209769 -0.003606 -0.006686 -1011780.000000 1 0 0
-5.908463 1.798753 13.655694 14.987442 -0.295522 0.424749 -0.000422 0.003219 -1055420.000000 1 0 0
-10.548363 8.666453 10.209694 17.047382 -0.687769 0.928668 0.006523 -0.013385 -97150.100000 1 0 0
4.461637 2.483653 17.208494 17.950125 0.507949 0.288458 -0.001799 -0.003604 -521935.000000 1 0 0
0.479137 -5.517747 13.164394 14.282029 -1.484178 0.398239 -0.005868 -0.000876 -480191.000000 1 0 0
-4.011463 5.706053 20.871694 22.006328 -0.958047 0.322517 0.010863 -0.006894 -150075.000000 1 0 0
-10.900263 10.824753 8.960994 17.784556 -0.781922 1.042730 0.009158 -0.010453 118372.000000 1 0 0
0.597737 4.164353 12.961994 13.627634 1.428234 0.313840 0.002862 0.002693 -2240960.000000 1 0 0
-3.174863 7.059853 13.405794 15.480200 -1.148186 0.523657 -0.004624 0.000893 -1053200.000000 1 0 0
0.891037 8.920353 14.258594 16.842629 1.471238 0.561274 0.002016 0.005879 317126.000000 1 0 0
-4.163863 -6.638247 13.087694 15.254239 1.010578 0.539490 -0.000135 -0.000331 -181075.000000 1 0 0
-5.138363 8.210453 16.517094 19.147551 -1.011599 0.530366 0.006263 -0.001248 -618214.000000 1 0 0
1.472837 -10.882547 15.547794 19.035046 -1.436274 0.614957 -0.008949 0.001114 -1119950.000000 1 0 0
-15.032663 -1.070947 14.417894 20.856739 0.071121 0.807534 0.013578 0.004626 624044.000000 1 0 0
-13.629463 -5.180247 8.634494 16.945551 0.363214 1.036142 0.003452 0.001781 -1139160.000000 1 0 0
-14.078463 -1.858347 12.215994 18.731980 0.131241 0.860384 0.007151 0.005934 495080.000000 1 0 0
9.236537 1.334053 17.080494 19.463725 0.143440 0.500057 0.014946 -0.008618 482425.000000 1 0 0
5.067237 -6.809847 16.690294 18.724764 -0.931079 0.470485 0.004109 -0.010650 40400.800000 1 0 0
-6.136963 -2.655947 11.033094 12.901377 0.408441 0.544884 -0.000909 0.000394 258285.000000 1 0 0
0.751037 -6.339447 18.130194 19.221253 -1.452876 0.338551 -0.003092 -0.003368 -125161.000000 1 0 0
-8.301563 11.771453 12.245994 18.906280 -0.956570 0.866207 -0.004243 -0.009852 -237095.000000 1 0 0
-6.564063 -5.761347 15.023494 17.377727 0.720363 0.526590 0.003406 0.002332 -1158820.000000 1 0 0
-4.375463 -9.001147 17.333694 20.015550 1.118330 0.523627 -0.002577 0.003969 170770.000000 1 0 0
2.546737 -6.347947 16.262794 17.642584 -1.189264 0.398118 -0.001996 -0.004781 -774861.000000 1 0 0
2.248837 5.184153 16.205794 17.162764 1.161504 0.335513 0.000226 0.003031 -1409800.000000 1 0 0
0.895137 -8.921447 13.951594 16.584343 -1.470796 0.571204 -0.007778 -0.003492 -272850.000000 1 0 0
-9.808363 -2.783147 11.264894 15.193674 0.276485 0.735612 -0.004530 0.002276 -178775.000000 1 0 0
-1.259563 9.942053 12.410794 15.951763 -1.444777 0.679288 -0.004297 -0.002802 -89762.800000 1 0 0
-12.317663 -3.572147 11.358294 17.131722 0.282259 0.845980 0.001755 0.002843 504878.000000 1 0 0
-1.795663 6.679153 19.914394 21.081238 -1.308160 0.334270 0.002929 -0.005818 266796.000000 1 0 0
0.260037 -13.340347 15.595094 20.524118 -1.551306 0.707726 -0.014261 -0.006306 -259066.000000 1 0 0
4.169337 -8.782547 15.224694 18.063992 -1.127568 0.568295 0.000775 -0.004773 192524.000000 1 0 0
4.400037 -4.450147 16.206294 17.372625 -0.791060 0.368513 -0.004910 0.001636 -393006.000000 1 0 0
7.994537 1.600753 14.846694 16.938103 0.197618 0.502199 -0.000613 0.002702 203047.000000 1 0 0
-6.279463 -0.089747 11.827694 13.391566 0.014291 0.488113 -0.000485 0.001254 239285.000000 1 0 0
-3.202163 -10.877147 18.751594 21.913202 1.284491 0.543853 -0.010217 0.003012 -838202.000000 1 0 0
3.192537 -1.674247 13.476794 13.950604 -0.482996 0.261371 -0.005581 0.000421 1319260.000000 1 0 0
-2.531163 8.727453 16.172694 18.550775 -1.288518 0.511917 -0.003103 0.007680 283175.000000 1 0 0
-3.284363 4.043253 14.995694 15.874690 -0.888596 0.334334 0.001916 0.002798 -1660390.000000 1 0 0
-4.462163 -9.025547 20.048494 22.434649 1.111645 0.465405 -0.000387 0.005728 -144751.000000 1 0 0
-5.659563 -2.930647 19.123494 20.157563 0.477803 0.321696 0.002131 -0.011365 -639193.000000 1 0 0
-6.593763 -8.628347 11.039394 15.485293 0.918270 0.777178 0.002662 -0.004136 -1215930.000000 1 0 0
-11.678163 2.651153 12.712494 17.464696 -0.223234 0.755547 0.007870 -0.008084 -727561.000000 1 0 0
-11.615763 -7.633447 11.663994 18.145088 0.581394 0.872625 0.006223 -0.005088 491704.000000 1 0 0
-10.875863 -7.272747 15.681994 20.423079 0.589413 0.695308 0.009466 -0.007666 -240400.000000 1 0 0
0.098237 5.589853 17.691194 18.553556 1.553224 0.306086 0.001315 -0.000482 -108973.000000 1 0 0
-2.080663 -0.090547 13.213894 13.377008 0.043491 0.156323 -0.001926 0.003501 216645.000000 1 0 0
-5.791263 -10.755647 18.725594 22.357784 1.076872 0.578027 -0.008696 0.019474 -328346.000000 1 0 0
0.195937 2.785553 19.120894 19.323723 1.500572 0.145016 0.002232 -0.007998 -127657.000000 1 0 0
-0.806763 10.768753 14.859594 18.369117 -1.496019 0.628442 -0.004651 -0.001031 -533566.000000 1 0 0
-12.620463 -2.219447 14.334094 19.226759 0.174081 0.729469 0.004187 0.003559 -866752.000000 1 0 0
-13.588663 8.591453 11.836494 19.964153 -0.563797 0.936157 -0.000242 -0.010244 222196.000000 1 0 0
-18.074363 -0.546847 7.031194 19.401529 0.030246 1.199950 0.017921 -0.000015 -40854.900000 1 0 0
-2.068063 -7.803047 17.684794 19.440071 1.311720 0.428215 -0.007642 -0.002417 -1527950.000000 1 0 0
5.709237 2.705153 14.663994 15.967027 0.442486 0.406799 -0.003406 -0.000001 -2248700.000000 1 0 0
-14.042563 -6.660347 11.305094 19.218713 0.442875 0.941923 0.002237 -0.002499 950698.000000 1 0 0
3.226537 7.730753 16.313294 18.338447 1.175411 0.474398 -0.000409 -0.002891 -248703.000000 1 0 0
1.005437 2.127753 14.662694 14.850348 1.129362 0.159142 0.000566 -0.000349 -2355380.000000 1 0 0
-14.378763 0.761553 9.808794 17.422435 -0.052914 0.972788 0.011118 0.001223 -2596910.000000 1 0 0
-9.439463 -5.156447 15.552094 18.909258 0.499971 0.605075 -0.001461 0.005335 -124672.000000 1 0 0
-2.564163 -0.204447 18.200794 18.381665 0.079564 0.140399 -0.001589 -0.004434 32765.600000 1 0 0
6.813037 3.379553 17.697494 19.262402 0.460476 0.405872 0.013031 -0.000844 -631775.000000 1 0 0
-4.093663 -0.741847 14.707294 15.284401 0.179273 0.275673 0.000211 0.003765 -85632.800000 1 0 0
4.751737 -9.111947 17.706394 20.472493 -1.090109 0.525871 0.002881 -0.003448 9023.360000 1 0 0
1.831437 6.853853 13.424994 15.184200 1.309684 0.486141 0.004874 0.003367 -1498170.000000 1 0 0
-3.755063 -0.876147 20.410294 20.771332 0.229223 0.186720 0.001562 -0.009553 -547118.000000 1 0 0
-10.533963 1.768453 16.105394 19.325515 -0.166330 0.585611 0.006949 -0.015881 -565006.000000 1 0 0
-4.084663 7.112853 18.671494 20.393671 -1.049515 0.413915 0.011584 0.001156 -16065.200000 1 0 0
-12.601863 1.159253 14.657994 19.365113 -0.091732 0.712197 0.010868 -0.003523 230256.000000 1 0 0
-16.115263 -4.664847 8.580394 18.843717 0.281766 1.098037 0.010230 -0.002230 -447091.000000 1 0 0
-2.150863 0.732053 15.763694 15.926586 -0.328055 0.143145 0.002006 0.001824 274737.000000 1 0 0
-13.701663 -9.012747 12.467094 20.600815 0.581828 0.920811 -0.000255 -0.010118 347424.000000 1 0 0
6.054137 -3.237247 14.604594 16.137735 -0.491034 0.439425 -0.005700 0.000820 655877.000000 1 0 0
-15.842263 0.688353 7.569394 17.571194 -0.043423 1.125435 0.010759 0.002388 306904.000000 1 0 0
-14.321363 6.105853 12.160494 19.755012 -0.403010 0.907694 0.017248 -0.018997 445026.000000 1 0 0
0.434737 9.629253 16.769894 19.342721 1.525679 0.521672 0.000991 0.002750 -141366.000000 1 0 0
-10.380863 -5.468447 10.892594 16.009835 0.484843 0.822530 0.001671 -0.001869 294297.000000 1 0 0
-3.211663 -11.120347 15.293594 19.179961 1.289637 0.647866 -0.008056 0.003735 -661420.000000 1 0 0
-3.523763 2.672153 12.678994 13.428112 -0.648807 0.335601 -0.000952 0.003020 -1945540.000000 1 0 0
-12.416363 -7.661047 7.476794 16.393906 0.552835 1.097220 0.004957 -0.003492 34067.200000 1 0 0
-8.097963 -1.882147 13.196994 15.597440 0.228368 0.562171 -0.002887 0.003154 -330800.000000 1 0 0
-9.759263 6.376653 9.588194 15.094316 -0.578758 0.882505 -0.001499 -0.005353 -377909.000000 1 0 0
-17.802163 -3.478247 6.665994 19.324872 0.192953 1.218617 0.005430 -0.004588 186317.000000 1 0 0
-1.256563 -0.120947 20.496094 20.534932 0.095956 0.061513 -0.005214 -0.007325 -734088.000000 1 0 0
-2.898663 2.458953 20.273494 20.626761 -0.703510 0.185341 0.007627 -0.003990 -511266.000000 1 0 0
-3.851363 11.252853 11.172694 16.318358 -1.241036 0.816645 -0.001350 -0.004904 -574594.000000 1 0 0
-4.065663 -4.876747 14.977794 16.267962 0.875851 0.400945 -0.002335 -0.000893 -88927.500000 1 0 0
-0.250763 -14.295547 13.225394 19.476565 1.553257 0.824340 -0.001879 -0.011969 -656400.000000 1 0 0
-12.112563 0.559653 8.430194 14.768059 -0.046172 0.963268 0.002727 -0.001791 -121901.000000 1 0 0
-7.766063 2.019753 15.535994 17.485944 -0.254438 0.476764 -0.001480 0.000364 142474.000000 1 0 0
3.477837 -2.300347 18.388394 18.855237 -0.584369 0.222990 -0.000393 -0.008420 -285470.000000 1 0 0
-2.187663 4.776353 12.682094 13.727160 -1.141293 0.392727 -0.005234 0.002310 -899708.000000 1 0 0
-10.230263 -6.190047 13.318794 17.898749 0.544141 0.731582 -0.003085 -0.004382 -254285.000000 1 0 0
2.296437 -3.892947 14.240894 14.940941 -1.037839 0.307327 -0.006687 0.001510 -391576.000000 1 0 0
6.622437 0.869853 17.088794 18.347757 0.130602 0.372602 -0.002270 0.000483 -168579.000000 1 0 0
-1.901663 -6.048247 13.842294 15.225200 1.266167 0.429510 -0.006440 -0.000277 -2522800.000000 1 0 0
-12.836863 3.775453 14.619294 19.818245 -0.286045 0.741186 -0.000577 -0.006724 163843.000000 1 0 0
-13.207663 -6.864147 13.706294 20.234163 0.479291 0.826596 0.000366 0.001334 -316118.000000 1 0 0
-9.614863 6.829553 12.034094 16.849564 -0.617613 0.775304 0.003385 -0.007214 -339523.000000 1 0 0
-0.990363 -2.483447 12.750594 13.027892 1.191337 0.206693 -0.004518 0.002076 365177.000000 1 0 0
0.240137 6.719153 15.469094 16.867055 1.535072 0.410005 0.006580 0.002470 327952.000000 1 0 0
-16.492163 -0.728247 9.708994 19.151667 0.044128 1.039150 0.017011 0.007356 -80037.600000 1 0 0
-1.319263 2.724853 13.842394 14.169585 -1.119901 0.215316 -0.001094 0.002046 -2017730.000000 1 0 0
-11.030763 -3.286147 16.158194 19.838440 0.289536 0.618948 0.002032 -0.001804 -423312.000000 1 0 0
-5.104463 -1.380547 17.092394 17.891657 0.264139 0.300030 0.006184 0.000522 168936.000000 1 0 0
-11.953563 6.693053 11.091594 17.626914 -0.510428 0.890219 0.005411 -0.007177 -1829540.000000 1 0 0
-2.940463 4.686953 18.732894 19.532925 -1.010493 0.287196 0.008088 -0.006125 145692.000000 1 0 0
5.105537 -1.909847 16.473094 17.351566 -0.357958 0.319565 -0.006331 0.000480 -489916.000000 1 0 0
-7.973263 -4.189847 12.181294 15.149642 0.483829 0.636696 0.001065 0.002675 -1225500.000000 1 0 0
-11.305463 -0.684647 16.108694 19.691934 0.060485 0.612810 0.001953 0.000202 289502.000000 1 0 0
2.001537 2.051053 17.310494 17.546115 0.797616 0.164066 -0.000793 -0.006504 -1780250.000000 1 0 0
-8.859163 -7.505247 11.574894 16.394867 0.702851 0.786952 0.004787 -0.005910 843782.000000 1 0 0
-7.340363 6.760153 14.951894 17.976088 -0.744273 0.588515 -0.000365 -0.008888 -25473.300000 1 0 0
-5.672763 3.501553 15.765594 17.117099 -0.553012 0.400045 -0.002045 -0.002897 -268850.000000 1 0 0
-9.265263 4.228853 11.424394 15.305067 -0.428180 0.728092 -0.002007 -0.007976 -394724.000000 1 0 0
-10.159163 0.287453 13.972494 17.277784 -0.028287 0.628863 0.000601 -0.002399 59678.400000 1 0 0
8.207837 -0.829747 15.788894 17.814214 -0.100750 0.481484 0.003732 -0.005699 -121692.000000 1 0 0
-8.456063 -7.362847 14.716994 18.501525 0.716400 0.651050 0.003139 -0.002899 -3157790.000000 1 0 0
-0.181763 4.233453 15.548894 16.115932 -1.527888 0.266057 -0.000714 -0.004021 -93874.000000 1 0 0
-7.992263 3.065353 9.563194 12.834615 -0.366237 0.730097 -0.001241 -0.002600 -94561.300000 1 0 0
-2.397563 -9.723447 13.240794 16.601576 1.329043 0.647553 -0.011109 0.001015 602894.000000 1 0 0
-6.021563 10.257853 10.388794 15.792714 -1.039976 0.852873 -0.000402 -0.006035 -2032720.000000 1 0 0
-8.450663 -2.779747 15.594294 17.953348 0.317790 0.518425 0.000370 0.001463 -306299.000000 1 0 0
4.171037 5.810753 17.785894 19.170300 0.948215 0.382368 0.002495 0.003765 113697.000000 1 0 0
-6.651763 -1.030047 15.114994 16.545996 0.153633 0.418957 -0.002010 0.000455 -198551.000000 1 0 0
-0.920463 -9.941047 15.447694 18.393012 1.478467 0.573757 -0.012532 0.000931 179596.000000 1 0 0
-4.394663 5.831853 16.372694 17.927317 -0.925019 0.419527 0.001301 -0.002764 214.106000 1 0 0
3.530737 0.024953 17.364094 17.719438 0.007067 0.200606 -0.008426 -0.004061 -912266.000000 1 0 0
1.411737 0.547653 19.396194 19.455212 0.370057 0.077911 -0.001016 -0.000104 -277836.000000 1 0 0
-6.442463 6.336953 17.872794 20.027458 -0.777142 0.468128 0.014437 -0.010276 -567547.000000 1 0 0
-12.265663 0.725453 11.020794 16.505474 -0.059076 0.839674 0.011380 -0.002022 -912219.000000 1 0 0
-5.324163 5.250453 14.073594 15.936750 -0.778428 0.488388 -0.001873 0.000394 -1633050.000000 1 0 0
-8.696663 -9.529847 9.982394 16.312514 0.831079 0.912276 0.013539 -0.004381 -1266580.000000 1 0 0
6.848637 -3.742147 17.038894 18.741168 -0.500081 0.429512 0.000092 -0.002414 -553256.000000 1 0 0
-16.582163 1.937153 9.737694 19.327270 -0.116294 1.042767 0.010304 0.006028 -5306.070000 1 0 0
-4.205763 -9.678147 11.418094 15.547599 1.160854 0.746020 -0.002153 -0.000255 840625.000000 1 0 0
-11.148563 -3.805147 9.160894 14.922854 0.328915 0.909826 0.001846 0.000526 -649896.000000 1 0 0
3.724737 -5.482947 18.522194 19.672520 -0.974077 0.343665 0.000303 -0.003994 -90361.800000 1 0 0
2.481437 -2.057647 16.055994 16.376397 -0.692303 0.198137 -0.002455 -0.000514 -503849.000000 1 0 0
-3.066163 -4.420747 20.174694 20.879718 0.964389 0.260606 -0.007069 -0.012740 -953721.000000 1 0 0
-6.166563 -3.387547 14.330194 15.964223 0.502337 0.456401 -0.002538 0.001225 691116.000000 1 0 0
-9.788263 5.069753 13.866894 17.714492 -0.477898 0.671645 0.009869 -0.013814 458469.000000 1 0 0
-5.795563 -5.178047 11.716194 14.059513 0.729185 0.585694 0.000011 0.002047 -367731.000000 1 0 0
5.612937 1.690953 19.375894 20.243262 0.292612 0.293792 -0.003879 -0.010553 323289.000000 1 0 0
-2.787463 11.629553 13.552394 18.074397 -1.335546 0.723019 -0.002627 -0.012813 -2111750.000000 1 0 0
3.369637 1.375653 15.140694 15.572010 0.387598 0.235911 -0.000795 0.000231 -1035380.000000 1 0 0
-5.792063 7.523353 13.065894 16.151360 -0.914694 0.628406 -0.007820 -0.002493 -639315.000000 1 0 0
-1.859263 -1.776347 15.118494 15.335616 0.762595 0.168473 -0.001589 -0.000422 -205609.000000 1 0 0
-7.235363 10.194053 14.042494 18.800554 -0.953548 0.727380 0.012437 -0.020782 -287047.000000 1 0 0
-10.176163 2.019353 10.648094 14.866539 -0.195895 0.772389 0.004937 -0.003361 -1791600.000000 1 0 0
-13.612063 5.375353 9.043394 17.203652 -0.376099 1.017297 0.003651 -0.009292 837130.000000 1 0 0
0.395537 -4.862547 20.198494 20.779316 -1.489631 0.236994 -0.007537 -0.006955 -303558.000000 1 0 0
-14.376363 -2.874847 7.570194 16.500073 0.197367 1.094155 0.001115 0.000381 450815.000000 1 0 0
-2.573963 2.375653 17.631994 17.976546 -0.745354 0.196104 0.001442 -0.003988 342048.000000 1 0 0
-6.165563 -8.360447 14.676494 17.980843 0.935364 0.615942 0.002592 -0.001362 -581407.000000 1 0 0
-8.002463 1.961653 12.066294 14.611056 -0.240391 0.599118 -0.000060 -0.001206 437170.000000 1 0 0
-14.560263 -3.363947 10.169594 18.075897 0.227052 0.973263 0.005553 0.001156 -666102.000000 1 0 0
-0.662463 7.021453 12.988994 14.780177 -1.476726 0.497430 0.002450 0.001300 -271156.000000 1 0 0
-1.729163 -2.336047 19.300594 19.518198 0.933591 0.149463 -0.002406 -0.012354 106319.000000 1 0 0
-12.795263 10.454953 7.236894 18.038776 -0.685079 1.157986 0.003667 -0.013642 -442064.000000 1 0 0
-19.559863 2.424753 6.906394 20.884586 -0.123337 1.233758 0.013912 -0.000529 393372.000000 1 0 0
-16.006863 8.618353 6.439994 19.286503 -0.493906 1.230346 0.011509 -0.007920 324093.000000 1 0 0
-12.550763 7.148353 13.655194 19.876743 -0.517733 0.813453 0.029610 -0.020692 48288.700000 1 0 0
-15.900763 8.771653 10.691794 21.073458 -0.504109 1.038680 0.006196 0.009490 508020.000000 1 0 0
1.757237 11.192953 15.021494 18.815296 1.415072 0.646219 -0.003298 -0.002404 -909750.000000 1 0 0
2.208637 14.492653 12.471794 19.247356 1.419563 0.865874 -0.003211 -0.001519 452868.000000 1 0 0
-3.022863 13.551153 11.748094 18.187610 -1.351319 0.868543 -0.008439 -0.006998 -156491.000000 1 0 0
9.004537 4.603553 15.632294 18.618351 0.472606 0.574218 0.012212 -0.006186 -179631.000000 1 0 0
-0.376963 12.494553 12.917994 17.975832 -1.540635 0.768964 -0.005920 -0.002573 41606.400000 1 0 0
3.713537 13.583553 14.599694 20.284337 1.303932 0.767351 -0.003181 0.005156 -165260.000000 1 0 0
-2.936863 -4.009847 -13.867306 14.731131 0.938646 2.797437 0.001169 -0.005050 -100723.000000 1 0 0
5.974537 -11.550447 16.256894 20.818129 -1.093439 0.674690 0.013711 -0.007488 272136.000000 1 0 0
7.802837 -13.623347 7.306394 17.316559 -1.050651 1.135222 0.003381 -0.001023 -368466.000000 1 0 0
-0.141563 15.674453 1.385394 15.736195 -1.561765 1.482644 0.000546 0.000117 -2292260.000000 1 0 0
-13.713563 8.326353 9.159694 18.474035 -0.545669 1.052024 0.001853 -0.002087 649669.000000 1 0 0
-15.561363 -9.593747 4.905394 18.927728 0.552471 1.308639 0.004849 -0.001509 -1081550.000000 1 0 0
9.556537 -11.189547 11.211694 18.499606 -0.863950 0.919711 0.001214 0.001667 56119.300000 1 0 0
-5.744063 -10.275547 -16.683806 20.418876 1.061067 2.527120 0.017841 0.000096 226989.000000 1 0 0
-1.976063 -12.498247 -14.753506 19.436485 1.413987 2.432668 -0.001323 0.006052 -72656.900000 1 0 0
5.686337 -15.140647 -13.020306 20.762995 -1.211528 2.248611 0.012340 -0.001855 240413.000000 1 0 0
2.556337 -11.800947 -16.767906 20.663007 -1.357471 2.517501 0.001752 0.004106 130628.000000 1 0 0
0.425737 -13.893747 -14.414106 20.024582 -1.540164 2.374340 0.009728 0.007763 164009.000000 1 0 0
-6.505363 -6.315047 -14.697606 17.269024 0.770554 2.588867 0.006083 0.005285 -3169.780000 1 0 0
-5.600063 -8.200447 -17.587006 20.196802 0.971641 2.627586 -0.004077 0.006830 -1836.930000 1 0 0
-2.214163 -16.340247 -13.162206 21.098575 1.436113 2.244447 0.009310 0.001352 269193.000000 1 0 0
16.354037 -8.123947 -8.652806 20.207031 -0.461048 2.013305 -0.003502 0.009991 -423.282000 1 0 0
19.089237 -3.217247 -3.224006 19.625082 -0.166968 1.735824 -0.002123 -0.010020 206374.000000 1 0 0
15.914337 -11.402247 -8.893906 21.502998 -0.621699 1.997215 0.009651 0.005139 333420.000000 1 0 0
18.720537 -2.628847 -6.470706 19.980975 -0.139514 1.900585 0.125833 0.006876 -274805.000000 1 0 0
9.080237 -9.773347 -15.698306 20.601112 -0.822144 2.437212 0.038936 -0.001552 201206.000000 1 0 0
-4.960063 9.592053 -15.888906 19.211118 -1.093561 2.544668 0.002606 -0.013060 486491.000000 1 0 0
2.224437 -9.725047 -18.705306 21.199366 -1.345932 2.651634 -0.000600 0.009781 212190.000000 1 0 0
11.093237 7.872353 -14.941206 20.205779 0.617175 2.403053 0.015782 -0.029828 468836.000000 1 0 0
18.474937 -5.456347 -7.852306 20.802734 -0.287174 1.957854 -0.007744 0.002438 303049.000000 1 0 0
12.659537 5.771653 -13.384006 19.305633 0.427761 2.336812 0.013089 -0.010320 39213.700000 1 0 0
15.906437 6.072153 -10.827906 20.177446 0.364668 2.137239 0.002050 -0.006854 64797.000000 1 0 0
3.420837 -0.264047 -19.384106 19.685411 -0.077035 2.966406 0.030078 -0.001424 162248.000000 1 0 0
10.241737 -1.468047 -15.319806 18.486341 -0.142370 2.547594 0.008383 0.011358 198839.000000 1 0 0
12.344637 -5.800047 -13.953906 19.512614 -0.439233 2.367595 0.021591 0.002735 -140615.000000 1 0 0
10.275837 6.629253 -12.951906 17.812684 0.572944 2.384909 0.010790 -0.001676 528517.000000 1 0 0
10.516637 5.443253 -16.604006 20.394158 0.477616 2.522069 0.010928 0.003120 217805.000000 1 0 0
12.086537 -10.373347 -14.754206 21.711225 -0.709268 2.317967 0.048758 -0.005617 188420.000000 1 0 0
-1.106663 2.315253 -17.797706 17.981753 -1.124913 2.998395 0.013886 -0.002697 297528.000000 1 0 0
6.614537 -1.045147 -17.392206 18.636879 -0.156712 2.774054 0.017664 0.018369 113574.000000 1 0 0
6.981337 -6.113447 -15.630406 18.177538 -0.719217 2.605821 0.002101 -0.002551 304862.000000 1 0 0
-2.431063 -4.585547 -20.293606 20.946784 1.083315 2.891208 0.017456 -0.023636 297553.000000 1 0 0
15.940737 -0.155047 -13.472406 20.871916 -0.009726 2.272448 -0.000546 0.011846 -15947.400000 1 0 0
-4.067663 -0.389547 -18.431506 18.879037 0.095476 2.923421 0.006860 -0.012267 120676.000000 1 0 0
3.590637 9.155353 -17.497706 20.071943 1.197041 2.629558 0.016275 -0.019106 162539.000000 1 0 0
10.127637 0.460253 -16.695106 19.532215 0.045414 2.595860 0.021250 -0.013622 -72371.900000 1 0 0
3.780537 4.372353 -18.439306 19.324025 0.857861 2.837826 0.021658 0.005779 324840.000000 1 0 0
-1.973063 -10.884047 -18.440406 21.503582 1.391464 2.601285 0.006225 -0.001292 235002.000000 1 0 0
6.504137 -9.541447 -16.369606 20.032649 -0.972477 2.527239 0.025379 0.002974 258471.000000 1 0 0
9.721737 -13.274147 -11.471106 20.057453 -0.938667 2.179632 0.002123 0.049532 123248.000000 1 0 0
6.057337 6.597153 -17.296706 19.477931 0.828030 2.663808 0.021717 -0.002547 136232.000000 1 0 0
8.743237 0.548653 -19.730906 21.588281 0.062670 2.723743 0.036431 -0.010839 70739.800000 1 0 0
-1.374363 -0.478047 -20.079606 20.132262 0.334742 3.069251 0.019542 -0.016832 220255.000000 1 0 0
-0.979863 6.840153 -19.656106 20.835315 -1.428513 2.803543 0.019677 -0.005616 78787.700000 1 0 0
8.309537 6.112553 -17.712406 20.497342 0.634226 2.614219 0.013324 -0.012606 76899.200000 1 0 0
12.116437 0.027153 -12.988406 17.762530 0.002241 2.390912 -0.001589 0.000067 7991.220000 1 0 0
-4.128863 -2.358847 -19.869706 20.430783 0.519054 2.906693 -0.009185 -0.008005 473404.000000 1 0 0
5.538837 -11.463047 -14.481606 19.282040 -1.120686 2.420434 0.000823 0.001026 -110229.000000 1 0 0
11.608037 3.000253 -15.689306 19.745946 0.252928 2.489076 0.031121 0.001543 -98045.100000 1 0 0
-3.046463 -4.201647 -17.106606 17.876542 0.943446 2.847034 0.005407 -0.005674 412663.000000 1 0 0
-6.722463 -4.711147 -17.598806 19.419176 0.611267 2.705145 0.009987 -0.003818 -67543.500000 1 0 0
3.048737 10.299853 -15.167206 18.585638 1.283015 2.525377 0.012265 -0.017019 270848.000000 1 0 0
16.808737 -6.383447 -10.805206 20.976999 -0.362946 2.111918 -0.000404 0.008154 -24740.200000 1 0 0
9.297437 -3.563647 -17.762906 20.363270 -0.366022 2.630685 -0.011333 -0.002503 77496.900000 1 0 0
-7.435263 -1.670347 -18.293906 19.817674 0.220983 2.746889 0.003777 -0.006271 476997.000000 1 0 0
1.547437 -7.556647 -19.336306 20.818026 -1.368811 2.762026 0.003941 -0.008969 236634.000000 1 0 0
5.761337 10.297953 -13.866306 18.207562 1.060716 2.436526 0.011468 -0.013362 291705.000000 1 0 0
6.099437 -4.063047 -17.271206 18.761824 -0.587634 2.740284 0.017799 -0.024793 358114.000000 1 0 0
4.549837 13.515153 -14.494306 20.333354 1.246066 2.364327 0.011653 -0.011067 190934.000000 1 0 0
9.019737 11.153453 -15.403506 21.048116 0.890776 2.391790 0.016120 -0.017749 106708.000000 1 0 0
17.036437 1.018953 -11.661506 20.670490 0.059739 2.170214 0.005980 0.013944 89373.700000 1 0 0
15.365137 -2.881547 -12.093706 19.764829 -0.185385 2.229232 0.017785 0.004002 -121566.000000 1 0 0
-8.646763 0.519253 -17.431906 19.465546 -0.059980 2.680409 -0.008709 -0.004912 360760.000000 1 0 0
-3.488763 4.483553 -19.169806 19.993879 -0.909537 2.853487 0.017291 -0.000558 152916.000000 1 0 0
4.083737 2.095953 -16.674706 17.294963 0.474187 2.872967 0.013655 -0.004996 377813.000000 1 0 0
-5.031363 13.953253 -14.055706 20.434549 -1.224721 2.329306 0.006853 -0.005871 169261.000000 1 0 0
0.722737 9.931453 -17.586506 20.209931 1.498152 2.626387 0.011679 0.000031 425213.000000 1 0 0
1.320237 -4.959647 -19.988606 20.636993 -1.310634 2.890258 0.013603 -0.000800 495399.000000 1 0 0
3.642737 -6.091147 -18.438706 19.757467 -1.031821 2.774160 0.013318 -0.001753 -119240.000000 1 0 0
-7.234063 7.376453 -16.037106 19.077015 -0.795144 2.569280 -0.005414 -0.000485 99795.000000 1 0 0
-11.785363 3.051853 -16.967106 20.882799 -0.253387 2.519210 0.016898 -0.008209 332046.000000 1 0 0
-4.459963 6.913153 -17.392206 19.239849 -0.997844 2.699756 0.005369 0.011475 274157.000000 1 0 0
-8.254963 5.242853 -17.748106 20.263939 -0.565840 2.637984 0.000450 -0.000299 294237.000000 1 0 0
-8.261663 4.032253 -14.952906 17.552879 -0.454057 2.590356 -0.024430 -0.015152 428833.000000 1 0 0
9.606037 13.987653 -12.411406 21.023163 0.969018 2.202311 0.007598 -0.008174 442563.000000 1 0 0
13.307737 9.686453 -12.060606 20.405427 0.629194 2.203155 -0.016254 -0.010749 134785.000000 1 0 0
8.990137 15.672953 -9.794906 20.552475 1.050009 2.067557 0.006686 -0.005387 -84800.100000 1 0 0
7.827337 14.310553 -14.258406 21.664748 1.070288 2.289140 0.009649 -0.005738 -17999.000000 1 0 0
4.241337 15.562053 -13.125406 20.795258 1.304715 2.253861 0.008522 -0.005598 115260.000000 1 0 0
10.860837 11.876453 -11.305106 19.667571 0.830036 2.183168 0.006428 -0.010942 174942.000000 1 0 0
15.583037 10.896553 -10.531006 21.736329 0.610227 2.076575 0.012935 0.002736 192904.000000 1 0 0
13.304237 11.511353 -9.667506 20.074229 0.713275 2.073262 0.026300 -0.007404 128482.000000 1 0 0
11.130937 11.447153 -7.489206 17.635852 0.799403 2.009380 0.012974 -0.001808 -66797.200000 1 0 0
6.248637 16.849253 -10.322306 20.724208 1.215664 2.092179 0.038419 0.004499 22977.500000 1 0 0
11.533137 13.980753 -10.225006 20.809264 0.881038 2.084456 0.021900 -0.012477 -26573.600000 1 0 0
7.844537 -19.247647 -2.299606 20.911644 -1.183791 1.680987 0.013634 0.004137 130815.000000 1 0 0
7.678337 -17.468047 -4.367506 19.574591 -1.156654 1.795812 0.022475 0.013943 173183.000000 1 0 0
3.746337 -18.671647 5.236894 19.750708 -1.372782 1.302437 0.030986 -0.015356 -49362.500000 1 0 0
10.181737 -17.852347 -2.609306 20.716721 -1.052478 1.697083 0.016440 0.004685 586556.000000 1 0 0
-2.250063 -15.306547 7.671394 17.268568 1.424842 1.110470 0.002257 -0.021055 154440.000000 1 0 0
-15.257563 -12.765847 -4.369006 20.367825 0.696716 1.786982 -0.018398 0.004078 126051.000000 1 0 0
-9.343063 -12.634247 -7.150606 17.264072 0.934047 1.997849 0.014816 -0.010982 132693.000000 1 0 0
-11.561863 -15.254047 7.129594 20.425321 0.922224 1.214232 0.007943 -0.000109 -65181.800000 1 0 0
-15.763763 -8.017847 -8.184606 19.487685 0.470524 2.004229 0.074723 -0.002408 -9851.430000 1 0 0
5.224037 -15.625847 6.224494 17.612551 -1.248158 1.209580 0.027061 -0.003805 156333.000000 1 0 0
2.613937 -14.237147 9.067594 17.080699 -1.389219 1.011172 0.015210 -0.005460 467094.000000 1 0 0
2.803337 -17.706047 9.723394 20.393802 -1.413773 1.073806 0.018155 -0.001581 130312.000000 1 0 0
-7.435663 -17.097647 -5.800806 19.526084 1.160575 1.872429 -0.034488 -0.010839 -175244.000000 1 0 0
1.951837 -19.722247 -4.299406 20.279585 -1.472151 1.784424 0.012479 -0.003885 8215.480000 1 0 0
-17.922263 -10.632847 -1.863806 20.922206 0.535461 1.659997 -0.036624 0.003542 24045.100000 1 0 0
-4.282463 -14.838747 2.732694 15.684244 1.289831 1.395671 0.005914 -0.004475 123854.000000 1 0 0
-10.813663 -10.012547 -14.656606 20.784670 0.746950 2.353451 0.020330 0.006653 220543.000000 1 0 0
0.108237 -19.987747 2.622094 20.159293 -1.565381 1.440358 0.015569 -0.013107 286268.000000 1 0 0
6.598037 -18.357047 0.661594 19.518016 -1.225747 1.536893 0.016420 0.007722 228966.000000 1 0 0
-7.721463 -19.206047 -3.162106 20.940204 1.188539 1.722383 0.002448 -0.017546 10412.400000 1 0 0
-9.757263 -15.663547 -7.554706 19.940523 1.013688 1.959363 0.019231 -0.013279 87644.000000 1 0 0
-11.594963 -11.425947 -12.253406 20.375019 0.778056 2.216041 -0.000328 0.009510 288152.000000 1 0 0
-13.279463 -15.012147 -3.270506 20.307755 0.846565 1.732548 -0.007900 -0.008104 139320.000000 1 0 0
-0.486963 -20.465547 -2.543206 20.628709 1.547007 1.694396 0.012590 -0.007466 331936.000000 1 0 0
-12.000963 -16.876447 -0.925406 20.729060 0.952655 1.615454 -0.002603 0.004186 85341.200000 1 0 0
0.664937 -19.651647 5.540494 20.428569 -1.536973 1.296143 0.023412 -0.022704 29041.200000 1 0 0
-18.223863 -9.051147 2.385894 20.487189 0.460976 1.454074 0.004007 0.009883 -309695.000000 1 0 0
-14.934063 -14.838947 -0.498906 21.058715 0.782203 1.594490 -0.004400 0.001041 -57118.000000 1 0 0
10.081637 -15.691947 -4.911206 19.287212 -0.999731 1.828267 0.024145 0.001612 -196785.000000 1 0 0
-0.009663 -18.803847 -7.242606 20.150436 1.570282 1.938450 0.002892 -0.003620 219667.000000 1 0 0
-10.085963 -17.871447 -3.010906 20.740801 1.056994 1.716479 0.004389 0.021729 400925.000000 1 0 0
-14.418663 -6.859547 -11.457206 19.652450 0.444053 2.193202 0.003392 0.001413 -133555.000000 1 0 0
-12.609363 -14.917247 1.853394 19.620279 0.869044 1.476192 0.002295 -0.006648 155132.000000 1 0 0
-2.652663 -16.488647 9.984194 19.457549 1.411285 1.031972 -0.007431 -0.011555 354557.000000 1 0 0
-12.463163 -14.204747 -6.494206 19.981991 0.850612 1.901811 0.002795 -0.010866 89988.000000 1 0 0
5.626937 -17.021847 -7.253606 19.339609 -1.251534 1.955263 0.020240 -0.004064 120642.000000 1 0 0
-17.143863 -7.086347 -2.697706 18.745825 0.391958 1.715207 -0.042812 -0.000917 -168342.000000 1 0 0
-12.047363 -13.712347 -9.442406 20.550583 0.849944 2.048196 0.015700 -0.022570 73653.000000 1 0 0
-7.117363 -14.893047 8.794094 18.702828 1.124986 1.081277 0.001223 -0.002143 213549.000000 1 0 0
-15.636163 -8.199047 -5.768206 18.573803 0.482949 1.886574 0.000633 0.004402 308966.000000 1 0 0
-0.691063 -19.591347 -0.297706 19.605791 1.535537 1.585982 0.018054 -0.006359 97378.900000 1 0 0
-15.025163 -11.447447 -2.018206 18.996650 0.651064 1.677237 -0.006171 0.008554 85938.700000 1 0 0
-7.033863 -19.054947 1.676694 20.380813 1.217177 1.488435 -0.002758 -0.012226 218881.000000 1 0 0
-2.265763 -20.594247 -5.510106 21.438702 1.461218 1.830730 -0.001957 0.000310 147166.000000 1 0 0
-9.062563 -19.677847 -0.590406 21.672477 1.139207 1.598042 -0.003394 -0.002889 8917.020000 1 0 0
-17.866563 -7.285947 4.893294 19.905864 0.387211 1.322429 0.012057 -0.000015 239189.000000 1 0 0
-3.117263 -15.927447 -10.952206 19.579369 1.377523 2.164428 0.009646 0.006559 115097.000000 1 0 0
-3.217263 -18.163847 -8.556606 20.334493 1.395490 2.005115 0.006800 0.002646 174784.000000 1 0 0
4.320437 -18.137147 -5.517906 19.444011 -1.336945 1.858535 0.007918 0.023506 382634.000000 1 0 0
0.638837 -17.248247 -9.792006 19.844231 -1.533775 2.086841 0.012043 0.003886 -247842.000000 1 0 0
-7.537063 -11.216547 -13.953706 19.424833 0.979139 2.372215 0.008815 -0.025585 260525.000000 1 0 0
-5.441863 -19.111247 -1.848406 19.956709 1.293392 1.663550 0.015209 -0.020649 166903.000000 1 0 0
-9.807063 -15.947947 8.575294 20.592502 1.019462 1.141283 -0.000032 -0.005341 117225.000000 1 0 0
-7.332663 -15.617947 -10.109606 19.997308 1.131843 2.100814 0.016510 -0.000512 288810.000000 1 0 0
-12.602063 -8.092947 -12.216806 19.327652 0.570867 2.255043 0.014590 -0.003024 282909.000000 1 0 0
-15.574863 -12.797247 3.408494 20.444161 0.687810 1.403292 -0.000496 0.002462 150174.000000 1 0 0
-6.227363 -14.298747 -13.076706 20.352750 1.160051 2.268557 0.004874 0.007128 479187.000000 1 0 0
-14.047363 -11.704847 -6.891806 19.540441 0.694684 1.931245 -0.000584 -0.002476 93524.700000 1 0 0
-12.471363 -10.699247 -8.295806 18.407313 0.709066 2.038323 0.039442 0.001565 217977.000000 1 0 0
-9.961363 -14.904647 3.459194 18.257691 0.981637 1.380179 -0.003653 0.006150 420272.000000 1 0 0
4.943137 -18.034347 8.475994 20.530824 -1.303271 1.145224 0.044921 -0.015500 133553.000000 1 0 0
-5.166763 -16.714847 5.730194 18.409689 1.271001 1.254278 0.005258 0.009481 521614.000000 1 0 0
-17.889063 -7.431247 -6.596706 20.463591 0.393718 1.899021 -0.025653 -0.011118 -36720.800000 1 0 0
-16.861563 -3.372747 -10.831806 20.322789 0.197420 2.132925 0.009775 -0.013964 -155429.000000 1 0 0
-15.513763 -4.216347 -13.212806 20.809437 0.265371 2.258731 0.000545 -0.001533 306035.000000 1 0 0
-19.494563 -5.553847 -5.772206 21.076090 0.277539 1.848216 0.029078 0.002642 -23998.500000 1 0 0
5.717037 -13.658447 8.751594 17.199653 -1.174383 1.036978 0.029075 0.000147 218269.000000 1 0 0
19.814637 -3.703747 2.988894 20.378201 -0.184787 1.423594 0.021058 -0.004036 11266.500000 1 0 0
18.270437 -2.433547 0.800394 18.449164 -0.132416 1.527399 0.024219 -0.019565 207895.000000 1 0 0
14.247437 -11.309147 0.232894 18.191770 -0.670929 1.557994 0.017686 0.001179 210532.000000 1 0 0
11.069537 -13.954547 5.339794 18.595091 -0.900181 1.279534 0.010718 0.009567 420948.000000 1 0 0
9.929837 -13.271247 9.312894 19.012039 -0.928434 1.058888 0.017455 0.007150 280339.000000 1 0 0
19.122537 4.238353 -4.319506 20.057248 0.218116 1.787856 0.060640 0.009908 28147.900000 1 0 0
18.781537 -6.002147 -4.348706 20.191165 -0.309319 1.787874 -0.004005 -0.004391 -47289.600000 1 0 0
17.763537 -10.178147 -0.281406 20.474792 -0.520315 1.584541 0.024105 -0.002155 99065.800000 1 0 0
17.389737 -9.001147 8.869594 21.496355 -0.477638 1.145480 0.064902 -0.008732 -16511.300000 1 0 0
20.120737 0.047553 -1.808306 20.201888 0.002363 1.660428 0.035292 -0.003039 13010.000000 1 0 0
7.571637 -13.515347 11.665394 19.392671 -1.060137 0.925374 0.018988 0.005752 355959.000000 1 0 0
16.289837 -6.499947 -3.340406 17.854030 -0.379660 1.759001 0.013497 -0.002259 316831.000000 1 0 0
14.333437 -6.836347 12.020894 19.916951 -0.445039 0.922849 0.030180 -0.023282 308358.000000 1 0 0
16.407237 1.343653 10.835994 19.708414 0.081712 0.988653 0.035554 -0.006564 243992.000000 1 0 0
16.269137 -10.183847 2.564594 19.364211 -0.559290 1.437966 -0.008606 -0.007285 262732.000000 1 0 0
16.374937 -7.358747 -6.081706 18.954600 -0.422347 1.897430 0.005065 0.011202 365945.000000 1 0 0
17.666837 -4.570847 5.529394 19.067878 -0.253173 1.276585 0.039372 -0.013047 -140495.000000 1 0 0
13.136637 -13.854447 7.859594 20.646795 -0.811986 1.180277 0.017167 -0.000532 69229.800000 1 0 0
15.254937 -14.150547 -1.640306 20.872031 -0.747859 1.649466 0.008495 0.001052 218618.000000 1 0 0
18.569237 -6.728647 8.185694 21.379823 -0.347638 1.177895 0.051917 -0.010296 288058.000000 1 0 0
19.667237 3.358553 2.491594 20.106917 0.169137 1.446560 0.022885 -0.002678 397816.000000 1 0 0
15.298737 -11.459147 7.995994 20.719539 -0.642877 1.174596 0.025273 -0.009186 284084.000000 1 0 0
13.924837 -4.775247 10.832294 18.276834 -0.330363 0.936416 0.024681 -0.009274 -281845.000000 1 0 0
18.802137 -7.868647 2.166094 20.497022 -0.396350 1.464920 0.029103 -0.009074 139317.000000 1 0 0
19.120937 -5.865847 -1.068006 20.028955 -0.297662 1.624145 0.014723 -0.011938 106190.000000 1 0 0
14.628337 -13.749047 -6.163106 21.000200 -0.754422 1.868660 0.005104 0.002989 292705.000000 1 0 0
13.815637 -9.780447 10.182994 19.754046 -0.616026 1.029218 0.013295 -0.010299 547110.000000 1 0 0
14.190637 2.589953 0.686294 14.441365 0.180524 1.523256 0.003945 0.001491 -128818.000000 1 0 0
12.798337 3.075553 13.835694 19.096672 0.235837 0.760476 0.007539 -0.007873 211563.000000 1 0 0
17.701437 -4.040747 9.436194 20.462411 -0.224427 1.091508 0.018213 -0.001827 -31930.500000 1 0 0
7.555137 -18.792447 5.182794 20.906877 -1.188541 1.320285 0.039185 -0.004329 344174.000000 1 0 0
12.318737 -3.227547 15.041494 19.708244 -0.256243 0.702533 0.014173 0.001093 206610.000000 1 0 0
12.388037 -14.321947 -7.078906 20.216145 -0.857676 1.928539 0.043276 0.014199 213713.000000 1 0 0
10.499837 -17.910847 4.355794 21.213626 -1.040565 1.363995 0.017787 0.000471 494142.000000 1 0 0
18.448637 -0.075147 -4.544206 19.000202 -0.004073 1.812303 0.023121 -0.007068 46885.300000 1 0 0
4.306737 -13.734647 11.556994 18.459485 -1.266939 0.894289 0.010623 -0.008728 109612.000000 1 0 0
9.163137 -2.920247 14.333294 17.260771 -0.308519 0.590976 0.008626 -0.003077 173655.000000 1 0 0
8.948437 -9.312347 14.462094 19.389339 -0.805324 0.728943 0.002412 0.008990 323195.000000 1 0 0
21.107237 5.864253 -2.924106 22.101025 0.270997 1.703492 0.018832 0.009924 549973.000000 1 0 0
14.437337 -13.541547 1.876194 19.882914 -0.753392 1.476294 0.005303 0.003776 285790.000000 1 0 0
10.493737 0.066353 14.497294 17.896772 0.006323 0.626558 0.000736 -0.024017 -8840.500000 1 0 0
19.683937 -0.105247 7.969494 21.236320 -0.005347 1.186101 0.080888 -0.006507 -33471.500000 1 0 0
20.000837 1.180953 0.394394 20.039553 0.058977 1.551114 0.030707 -0.004645 291223.000000 1 0 0
18.129937 0.593153 3.145794 18.410390 0.032705 1.399083 0.032514 0.000692 7114.520000 1 0 0
10.023137 -8.354147 16.316494 20.892176 -0.694829 0.674554 0.006473 -0.001994 144817.000000 1 0 0
19.460037 2.561153 5.602994 20.411910 0.130859 1.292730 0.056561 -0.002364 122805.000000 1 0 0
15.461337 2.475453 7.181994 17.226777 0.158759 1.140755 0.024438 0.001927 108707.000000 1 0 0
11.258937 -16.105747 1.814894 19.734553 -0.960699 1.478701 -0.002733 0.011054 354308.000000 1 0 0
8.717337 -16.210647 6.841794 19.636374 -1.077404 1.214907 0.027440 -0.001541 390980.000000 1 0 0
6.118137 6.820453 7.209994 11.659082 0.839626 0.904089 0.003566 0.001941 -872503.000000 1 0 0
18.489637 2.575653 -6.490206 19.764196 0.138412 1.905386 -0.001158 0.010180 307587.000000 1 0 0
14.258637 4.424153 -7.117606 16.539111 0.300860 2.015677 0.012744 -0.002559 239784.000000 1 0 0
-10.295563 -3.923547 -14.104106 17.897448 0.364100 2.478433 -0.001171 0.004131 -243210.000000 1 0 0
7.566237 -14.642747 -9.999006 19.277917 -1.093860 2.116099 0.007510 0.016912 54225.700000 1 0 0
1.791937 -15.737047 14.081694 21.193390 -1.457417 0.844055 -0.000847 -0.009724 274826.000000 1 0 0
-9.323663 -7.915547 2.128794 12.414441 0.703898 1.398467 0.009908 0.001347 403217.000000 1 0 0
-13.967563 3.019253 -9.760306 17.305268 -0.212886 2.170028 0.017329 0.000208 261658.000000 1 0 0
-12.431663 -4.648947 -13.640006 19.031782 0.357859 2.369850 -0.003831 0.006866 3304.120000 1 0 0
-17.759263 -0.226347 -8.045606 19.498062 0.012745 1.996143 0.022091 -0.022543 416561.000000 1 0 0
-12.256563 15.058653 4.480194 19.926327 -0.887624 1.344020 0.014950 -0.010793 425897.000000 1 0 0
-17.192563 6.536653 9.260194 20.592796 -0.363324 1.104388 0.004664 -0.003811 200936.000000 1 0 0
-13.920963 15.428653 0.130994 20.781090 -0.836723 1.564493 0.035896 -0.016723 169532.000000 1 0 0
-15.955363 5.114653 -10.682106 19.870599 -0.310211 2.138365 0.018734 -0.001696 -111223.000000 1 0 0
-18.186563 2.940053 -0.166206 18.423426 -0.160274 1.579818 0.026606 0.000093 51898.200000 1 0 0
-9.783063 15.392853 -0.453406 18.244282 -1.004640 1.595651 0.018291 -0.013708 -48754.600000 1 0 0
-18.277163 12.340953 2.426494 22.186521 -0.593895 1.461209 0.037217 0.002644 103697.000000 1 0 0
-8.671763 16.216353 -7.738606 19.951331 -1.079733 1.969120 0.023447 -0.022985 33849.000000 1 0 0
-14.917763 -2.069447 -13.166806 20.004676 0.137844 2.289204 0.004943 -0.007102 147774.000000 1 0 0
-18.882763 5.551553 -4.807906 20.260663 -0.285944 1.810384 0.027139 0.003607 -119322.000000 1 0 0
-16.385663 9.960253 -5.551406 19.962833 -0.546182 1.852598 0.015317 0.019954 17504.200000 1 0 0
-18.855763 1.726753 2.822394 19.143860 -0.091322 1.422826 0.008516 -0.014992 351390.000000 1 0 0
-13.471963 11.969353 -7.239606 19.420894 -0.726405 1.952793 0.009563 -0.001393 217024.000000 1 0 0
-12.928263 5.394153 -13.355906 19.355028 -0.395277 2.332352 0.006775 -0.008311 -354132.000000 1 0 0
-13.960163 9.305653 -6.725406 18.075188 -0.587947 1.952045 0.011363 -0.002704 198824.000000 1 0 0
-6.643063 11.445453 -15.333806 20.254735 -1.044905 2.429579 -0.004320 -0.026027 -214870.000000 1 0 0
-15.072063 13.794153 2.931694 20.640751 -0.741157 1.428280 0.020921 -0.013599 59657.100000 1 0 0
-18.606763 8.503953 -5.047606 21.071478 -0.428689 1.812695 0.024207 0.000708 373628.000000 1 0 0
-3.459163 16.882453 -10.253106 20.052661 -1.368697 2.107504 0.013747 -0.000343 132999.000000 1 0 0
-19.093963 -2.319047 -6.641806 20.348734 0.120862 1.903288 -0.005994 -0.005625 -72148.700000 1 0 0
-10.500263 13.808553 -6.229906 18.432130 -0.920661 1.915578 -0.002364 -0.015569 81711.900000 1 0 0
-19.637763 3.248853 4.400294 20.385273 -0.163954 1.353227 0.037663 0.000342 144774.000000 1 0 0
-15.128763 12.018853 0.639494 19.332389 -0.671340 1.537711 0.021364 -0.015779 84340.900000 1 0 0
-17.792163 2.509153 -9.534806 20.341324 -0.140102 2.058661 0.023710 0.008256 154182.000000 1 0 0
-16.477263 14.286153 -3.857306 22.146629 -0.714294 1.745860 0.019816 0.046339 258359.000000 1 0 0
-10.943963 15.779353 -8.166406 20.867403 -0.964404 1.972892 0.019617 -0.009673 25868.500000 1 0 0
-18.904563 2.056953 -7.076906 20.290297 -0.108381 1.927068 0.005343 -0.004228 143698.000000 1 0 0
-17.234463 10.245253 -0.430906 20.054367 -0.536338 1.592285 0.029189 -0.004514 -19402.500000 1 0 0
-11.822563 6.679953 -14.511606 19.874141 -0.514300 2.389375 0.003407 -0.011732 170862.000000 1 0 0
-13.302763 12.628253 -4.297806 18.838987 -0.759392 1.800957 0.023382 -0.005796 148755.000000 1 0 0
-18.915763 7.067853 -0.408406 20.197214 -0.357586 1.591019 0.025522 0.000638 141577.000000 1 0 0
-14.402963 8.987753 -10.817906 20.130876 -0.557895 2.138122 0.007697 0.007330 542127.000000 1 0 0
-18.283863 11.344753 5.104694 22.114723 -0.555342 1.337868 0.009503 -0.003672 119974.000000 1 0 0
-8.091663 12.150953 -13.064206 19.590665 -0.983305 2.300782 -0.019264 -0.007301 391048.000000 1 0 0
-20.950663 -1.829647 -5.361406 21.703054 0.087110 1.820415 0.004246 -0.012431 193241.000000 1 0 0
-10.701963 13.350453 -3.329806 17.431415 -0.895070 1.763001 0.016813 -0.005341 470492.000000 1 0 0
-18.660263 -4.692747 3.664994 19.587227 0.246374 1.382576 0.004064 -0.003850 30395.600000 1 0 0
-11.402263 11.521153 -12.905506 20.719572 -0.790585 2.243196 -0.001368 -0.012518 164510.000000 1 0 0
-14.639263 11.606453 -10.568306 21.464084 -0.670354 2.085609 0.013986 -0.005719 269858.000000 1 0 0
-12.718763 9.852253 -13.869706 21.241530 -0.659075 2.282272 0.009004 -0.009011 342739.000000 1 0 0
-18.210063 -4.974747 -3.145006 19.137543 0.266680 1.735882 -0.013006 -0.004725 -254141.000000 1 0 0
-9.503263 12.654053 -11.367606 19.484854 -0.926652 2.193714 0.001399 -0.009034 20503.400000 1 0 0
-15.379463 7.583753 -8.373806 19.083025 -0.458120 2.025069 -0.003212 0.005987 -20690.800000 1 0 0
-14.414063 8.890753 1.978394 17.050653 -0.552689 1.454504 0.017319 -0.002632 -7818.750000 1 0 0
-19.768563 6.180553 8.263594 22.299828 -0.303017 1.191176 0.029384 0.000781 216128.000000 1 0 0
-18.704963 5.839053 3.731294 19.947249 -0.302581 1.382630 0.008308 -0.001436 156248.000000 1 0 0
-15.014463 12.573153 5.809494 20.427151 -0.697135 1.282415 0.028064 -0.012121 112592.000000 1 0 0
18.306637 6.102053 6.090694 20.235231 0.321743 1.265061 0.026266 0.001671 -62318.200000 1 0 0
18.373637 8.230853 0.478694 20.138685 0.421165 1.547024 0.024349 0.017869 19536.300000 1 0 0
16.752737 4.408353 8.761694 19.412755 0.257309 1.102533 0.019184 0.009289 -22945.500000 1 0 0
12.188837 13.053653 10.682994 20.810862 0.819645 1.031727 0.028398 -0.010746 151701.000000 1 0 0
15.184937 12.440753 4.075894 20.049129 0.686388 1.366074 0.024520 -0.000797 138090.000000 1 0 0
5.025637 10.312453 14.520694 18.505520 1.117331 0.668636 0.002025 0.004191 259538.000000 1 0 0
13.096437 13.324453 -5.507806 19.478030 0.794028 1.857477 0.020506 0.002139 225250.000000 1 0 0
17.344437 9.381353 -2.656306 19.897117 0.495819 1.704698 -0.012981 0.009375 -57877.700000 1 0 0
14.791637 7.246553 9.499094 19.014148 0.455542 1.047682 0.019080 -0.000300 6349.700000 1 0 0
4.584937 19.338353 -1.578806 19.937056 1.338004 1.650069 -0.006810 -0.004000 422637.000000 1 0 0
-4.614563 19.386953 3.590094 20.249369 -1.337120 1.392560 -0.005518 0.001769 339624.000000 1 0 0
6.950137 14.029953 11.811694 19.612754 1.110853 0.924485 0.010348 0.019952 -30064.800000 1 0 0
0.355237 16.619853 -10.250306 19.529836 1.549425 2.123340 0.007446 -0.001452 -30077.600000 1 0 0
10.898137 9.291653 15.354794 20.996997 0.705996 0.750592 0.023463 -0.013066 -190335.000000 1 0 0
-1.096263 12.319453 1.112694 12.418084 -1.482044 1.481073 0.001069 0.003539 431706.000000 1 0 0
-4.811863 19.242353 -2.339806 19.972403 -1.325755 1.688218 0.004789 0.005284 -181842.000000 1 0 0
6.161337 18.244553 6.463694 20.312684 1.245113 1.246956 0.010959 -0.018645 113017.000000 1 0 0
11.377037 17.329853 -1.632006 20.794813 0.989866 1.649359 0.034715 -0.010250 375881.000000 1 0 0
18.454937 10.498953 3.229894 21.476614 0.517235 1.419832 0.020655 0.000480 199545.000000 1 0 0
11.273937 16.177953 6.922794 20.898634 0.962174 1.233162 0.014910 0.003837 121189.000000 1 0 0
18.164337 7.167053 -5.731706 20.350977 0.375814 1.856302 0.007536 0.014652 294724.000000 1 0 0
0.872037 16.104353 10.739894 19.376686 1.516700 0.983312 -0.004764 0.008230 477907.000000 1 0 0
1.211437 20.341853 -1.603706 20.440902 1.511313 1.649333 0.004526 -0.004737 257760.000000 1 0 0
14.446237 9.735053 -1.284106 17.467511 0.592981 1.644377 0.020948 0.002274 -48110.700000 1 0 0
9.662437 17.597153 1.418394 20.125465 1.068651 1.500260 0.014792 -0.009490 261420.000000 1 0 0
0.254337 17.649253 -0.055206 17.651172 1.556387 1.573924 -0.002054 -0.003697 -100511.000000 1 0 0
0.091737 21.138853 0.980194 21.161766 1.566457 1.524461 0.008258 -0.003797 241637.000000 1 0 0
5.836937 17.817453 -0.153606 18.749802 1.254218 1.578989 0.000416 -0.008817 33864.000000 1 0 0
6.539237 18.349153 -2.611306 19.653803 1.228451 1.704056 -0.010432 -0.013344 -105994.000000 1 0 0
10.171237 9.371253 12.602894 18.711157 0.744485 0.831796 0.007820 -0.006418 81510.100000 1 0 0
13.363737 14.754453 8.209594 21.533248 0.834818 1.179646 0.031563 -0.003935 59487.800000 1 0 0
0.335937 17.613453 7.032094 18.968314 1.551726 1.191003 -0.001075 -0.005622 209168.000000 1 0 0
7.148737 18.050453 -7.836106 20.936281 1.193707 1.954420 0.004187 -0.000349 63739.600000 1 0 0
-0.641363 18.535153 9.649894 20.906547 -1.536208 1.091029 0.005155 -0.007832 -220478.000000 1 0 0
15.716837 6.747153 -7.866406 18.826136 0.405503 2.001868 0.013738 0.002217 -424102.000000 1 0 0
-5.077963 19.837453 -6.667806 21.535318 -1.320199 1.885592 0.003550 -0.007164 331247.000000 1 0 0
4.172937 15.750653 10.147794 19.195682 1.311809 1.013787 -0.002309 0.000360 177932.000000 1 0 0
8.746937 14.868353 7.945094 18.992139 1.039030 1.139184 0.003109 0.009466 33671.600000 1 0 0
-2.790063 20.016353 6.351694 21.184496 -1.432300 1.266285 -0.000599 0.002747 17030.200000 1 0 0
4.609737 17.887953 8.327794 20.262791 1.318583 1.147257 0.007138 -0.014250 56114.400000 1 0 0
13.919237 11.025053 -7.227306 19.171096 0.669889 1.957340 -0.046240 -0.027672 39579.900000 1 0 0
11.594237 6.963953 15.895394 20.870710 0.540889 0.704999 0.017212 0.001932 304355.000000 1 0 0
17.128137 9.400953 4.957394 20.157548 0.501968 1.322315 0.016150 0.002295 99500.000000 1 0 0
4.982037 15.486353 13.304894 21.015900 1.259548 0.885262 -0.011190 0.039147 395306.000000 1 0 0
15.950137 11.447653 -4.287806 20.095794 0.622517 1.785818 0.036463 0.023364 279928.000000 1 0 0
15.266737 13.355053 5.885094 21.120252 0.718706 1.288411 0.030745 -0.005972 211073.000000 1 0 0
12.749037 14.381153 -8.341206 20.950686 0.845484 1.980279 0.031163 -0.015925 267111.000000 1 0 0
-8.258463 15.642053 9.630594 20.140119 -1.085027 1.072216 0.014304 -0.007482 161222.000000 1 0 0
-5.113163 17.085653 -7.332906 19.283037 -1.280013 1.960893 0.007962 0.012432 -24653.700000 1 0 0
2.126837 19.681253 -4.543306 20.310510 1.463150 1.796398 -0.011580 -0.004940 -90960.600000 1 0 0
6.878737 16.999853 8.827694 20.352892 1.186301 1.122166 0.000455 0.006975 408056.000000 1 0 0
13.217037 15.636353 -1.411806 20.522641 0.869051 1.639643 0.036106 -0.010546 210201.000000 1 0 0
12.155637 16.747753 4.412694 21.159362 0.942959 1.360709 0.024340 -0.008064 389140.000000 1 0 0
2.364137 18.359853 0.662794 18.523300 1.442734 1.535007 0.003547 -0.015758 -179134.000000 1 0 0
-6.716463 17.991053 1.404794 19.255190 -1.213497 1.497775 -0.024061 0.019662 213660.000000 1 0 0
0.295137 19.897253 -5.856006 20.743206 1.555964 1.856997 0.005481 0.005573 243497.000000 1 0 0
-7.670963 18.223653 -6.263306 20.740642 -1.172374 1.877568 0.025081 -0.011175 119776.000000 1 0 0
-7.413063 18.496553 -1.788106 20.006832 -1.189617 1.660291 0.011028 -0.007142 9121.270000 1 0 0
-14.475463 -8.304947 9.174494 19.044225 0.520876 1.068149 0.006309 -0.005700 466167.000000 1 0 0
-13.141863 -13.579847 8.029994 20.532939 0.801787 1.168993 0.010521 0.002534 -36361.100000 1 0 0
-3.743563 -16.012447 12.522494 20.669435 1.341131 0.919968 -0.005759 0.000384 127775.000000 1 0 0
-2.108563 -14.609247 15.592794 21.471175 1.427455 0.757989 -0.019260 0.000321 456001.000000 1 0 0
-7.116363 -13.833647 13.609794 20.669758 1.095676 0.852052 -0.021381 0.007179 75112.000000 1 0 0
-10.104963 -11.096447 11.797894 19.090094 0.832129 0.904586 0.023697 -0.002233 50357.100000 1 0 0
-7.262863 -10.529847 12.615094 17.965730 0.966989 0.792348 0.004691 -0.009797 387520.000000 1 0 0
-14.963563 -12.038147 8.219894 20.889994 0.677477 1.166377 -0.006582 0.017061 172848.000000 1 0 0
-4.550463 -12.743447 13.280994 18.960141 1.227826 0.794742 -0.003115 0.002462 465932.000000 1 0 0
3.508337 -12.447647 13.822094 18.928883 -1.296075 0.752164 0.005180 -0.009121 488319.000000 1 0 0
6.492937 -13.679347 14.591794 21.028628 -1.127632 0.803903 0.016497 -0.004302 349939.000000 1 0 0
7.241237 -9.015947 16.719994 20.329314 -0.894132 0.605079 0.009257 -0.002780 488198.000000 1 0 0
-5.080663 13.305253 13.803794 19.834002 -1.206030 0.801032 -0.006856 0.002863 427558.000000 1 0 0
-13.150263 -1.581947 17.680194 22.091202 0.119722 0.642955 0.004868 -0.003433 372770.000000 1 0 0
-9.809563 8.924453 13.363394 18.826941 -0.738187 0.781580 -0.008721 -0.023278 427474.000000 1 0 0
-7.418263 -8.291847 17.281594 20.553317 0.840947 0.572004 -0.002749 0.002156 -169033.000000 1 0 0
-5.117563 2.020753 18.797394 19.586090 -0.376073 0.284750 0.007902 0.004683 505006.000000 1 0 0
-15.006263 -3.676747 14.967794 21.511421 0.240281 0.801254 0.006842 0.006801 -17628.200000 1 0 0
-14.594263 3.249553 12.852894 19.716719 -0.219086 0.860738 0.012161 0.008647 291738.000000 1 0 0
-13.257663 10.983953 10.614794 20.225892 -0.691878 1.018302 -0.066404 0.044336 -30972.700000 1 0 0
-4.749063 11.157153 15.784394 19.904340 -1.168374 0.655058 0.013764 -0.004166 241183.000000 1 0 0
-13.355363 12.698853 8.314894 20.217914 -0.760206 1.146956 0.012156 -0.026764 44293.900000 1 0 0
-3.902863 -6.411547 18.673294 20.125411 1.023987 0.382199 -0.004358 -0.001927 335240.000000 1 0 0
0.268037 -3.131447 17.544894 17.824172 -1.485409 0.177255 -0.010223 -0.020068 36196.400000 1 0 0
-4.385063 6.467953 21.298794 22.687041 -0.975011 0.351641 0.012955 -0.001692 134333.000000 1 0 0
2.121837 -10.815247 16.238294 19.625339 -1.377067 0.596308 -0.005400 -0.006484 331370.000000 1 0 0
-14.944263 -0.274547 13.907494 20.416287 0.018369 0.821401 -0.006348 0.006868 80142.100000 1 0 0
-13.987963 -5.939647 8.190294 17.263355 0.401553 1.076477 0.006333 0.001667 99343.200000 1 0 0
10.003637 0.782953 16.978494 19.721943 0.078108 0.533773 0.016425 0.008112 285090.000000 1 0 0
-7.512363 12.280553 12.102694 18.807519 -1.021798 0.871730 0.002611 -0.006547 18623.800000 1 0 0
-1.775663 7.577453 20.222694 21.668598 -1.340615 0.367379 0.001549 -0.003140 468541.000000 1 0 0
1.173637 -13.535347 15.422694 20.553406 -1.484304 0.722172 -0.010815 -0.008286 578943.000000 1 0 0
-3.062163 -11.405947 17.974794 21.507340 1.308510 0.581296 -0.018809 -0.004482 544156.000000 1 0 0
-2.216363 9.219853 16.921594 19.397379 -1.334882 0.510777 -0.001468 0.007622 459422.000000 1 0 0
-5.195163 -9.001147 20.652294 23.119853 1.047335 0.466226 0.031526 -0.011701 79286.800000 1 0 0
-6.469963 -2.450247 19.245994 20.451709 0.362020 0.345088 -0.000021 -0.009597 -1228.000000 1 0 0
-10.692063 -8.158247 15.972894 20.880865 0.651781 0.699827 0.032525 -0.005671 86296.600000 1 0 0
-0.786463 5.929953 17.626494 18.613870 -1.438940 0.327172 0.015042 -0.014215 1709.110000 1 0 0
-5.873363 -11.236947 19.540594 23.293780 1.089167 0.575581 -0.002924 0.019778 425574.000000 1 0 0
0.564637 3.615353 18.841694 19.193723 1.415870 0.191819 0.002877 -0.003797 116293.000000 1 0 0
-18.343063 -0.255947 7.894694 19.971471 0.013952 1.164403 0.002739 0.005148 17475.600000 1 0 0
-1.586063 -8.497247 17.250894 19.295391 1.386264 0.464508 -0.010091 -0.009352 280964.000000 1 0 0
6.058637 3.400453 15.208894 16.720664 0.511445 0.428508 -0.000496 0.000110 462033.000000 1 0 0
-13.597063 -5.830947 11.177594 18.542348 0.405118 0.923773 0.000046 -0.003037 130746.000000 1 0 0
3.576037 8.283453 17.002294 19.247899 1.163257 0.487872 0.000625 0.006991 118662.000000 1 0 0
6.514537 4.147153 18.170894 19.743846 0.566897 0.401868 0.012996 -0.005960 401463.000000 1 0 0
5.367537 -9.731747 18.079294 21.222116 -1.066765 0.551178 0.010626 0.004552 274653.000000 1 0 0
-4.421363 -0.497747 19.848694 20.341260 0.112106 0.220515 -0.000694 -0.010818 574984.000000 1 0 0
-10.929063 1.797153 16.968894 20.263700 -0.162979 0.578281 0.021847 -0.017280 56142.100000 1 0 0
-16.829363 -4.141547 8.924794 19.494405 0.241296 1.095263 0.015679 -0.001383 479844.000000 1 0 0
-13.277963 -9.650947 11.905194 20.277542 0.628513 0.943309 0.012493 -0.017480 194173.000000 1 0 0
-14.741563 6.050653 13.010794 20.571943 -0.389481 0.886080 0.005604 -0.017902 309904.000000 1 0 0
1.114737 9.056153 17.103994 19.385643 1.448321 0.490065 -0.001574 -0.010113 146840.000000 1 0 0
-3.944963 -10.536247 15.139994 18.862519 1.212536 0.639072 -0.004089 0.001511 553816.000000 1 0 0
-18.523563 -2.860147 6.661694 19.891732 0.153196 1.229300 0.070683 -0.010731 -255558.000000 1 0 0
-0.446463 -0.610547 20.577494 20.591390 0.939403 0.036741 -0.003233 -0.020313 343176.000000 1 0 0
-1.975063 2.237453 20.290994 20.509303 -0.847606 0.146036 -0.002982 -0.010805 91743.500000 1 0 0
-7.927163 2.142753 16.464094 18.398307 -0.263996 0.462656 -0.003573 0.005189 573837.000000 1 0 0
2.597937 -2.116547 18.696094 18.994025 -0.683642 0.177351 -0.003615 -0.012828 -10578.000000 1 0 0
-12.035463 4.279153 14.538394 19.352737 -0.341606 0.720870 -0.014307 -0.007729 -64897.400000 1 0 0
-12.684063 -6.079647 13.819894 19.718951 0.446962 0.794217 -0.030289 0.009963 -339727.000000 1 0 0
-17.427163 -0.821447 9.569094 19.898451 0.047101 1.069119 0.020835 -0.003234 -29350.600000 1 0 0
-7.427963 7.705153 14.910494 18.353933 -0.803713 0.622563 0.002540 -0.011413 31450.800000 1 0 0
-9.433063 0.897953 13.922394 16.841082 -0.094906 0.597593 0.001089 -0.005756 122015.000000 1 0 0
7.504537 -1.248747 15.306994 17.093317 -0.164888 0.461252 -0.001306 -0.002430 -97023.900000 1 0 0
3.795837 6.323253 18.492294 19.908713 1.030158 0.379488 0.000996 0.005827 46182.700000 1 0 0
1.467937 0.895153 20.278494 20.351252 0.547597 0.084584 -0.001572 0.004235 133894.000000 1 0 0
-7.244863 6.631753 17.458294 20.031481 -0.741244 0.512456 0.016434 -0.018674 709584.000000 1 0 0
7.681537 -3.427747 16.707594 18.705591 -0.419716 0.466413 0.004444 0.003654 456962.000000 1 0 0
-16.285763 2.763553 9.374594 18.993323 -0.168090 1.054603 0.014370 -0.000334 126921.000000 1 0 0
3.647237 -6.308147 18.986394 20.336622 -1.046576 0.366448 -0.005041 -0.009809 124044.000000 1 0 0
-3.717563 -3.948847 20.680194 21.379525 0.815557 0.256477 -0.006887 -0.008538 398606.000000 1 0 0
-9.854563 5.761453 14.514594 18.465649 -0.529055 0.666432 0.008172 -0.013554 21085.900000 1 0 0
6.265637 2.003153 19.991494 21.045918 0.309435 0.317884 0.016380 -0.000486 -29807.200000 1 0 0
-7.088263 11.030553 14.468294 19.525576 -0.999639 0.736250 0.005851 -0.022286 253888.000000 1 0 0
-14.540563 5.271053 9.215094 18.003609 -0.347773 1.033463 0.006916 -0.010089 213882.000000 1 0 0
0.594837 -5.749847 20.472994 21.273412 -1.467710 0.275186 -0.013910 -0.002917 154745.000000 1 0 0
-6.021963 -8.173147 13.756294 17.096783 0.935798 0.635773 0.001906 0.000046 223770.000000 1 0 0
-12.754463 10.425453 6.288194 17.632578 -0.685259 1.206145 -0.009905 -0.010601 13272.900000 1 0 0
-19.666063 2.907153 7.717794 21.325335 -0.146763 1.200483 -0.009556 0.003799 -37420.700000 1 0 0
-15.398563 9.178553 5.972394 18.895266 -0.537522 1.249203 -0.007622 -0.010929 79192.200000 1 0 0
-13.237263 7.313853 14.290594 20.807178 -0.504776 0.813704 0.029751 -0.022431 128981.000000 1 0 0
-16.473463 9.515753 10.835794 21.893811 -0.523817 1.053048 0.007560 -0.002200 379447.000000 1 0 0
2.513337 10.763653 14.638794 18.343047 1.341404 0.646733 0.000661 -0.030620 276400.000000 1 0 0
1.554137 14.636353 13.145194 19.734090 1.465009 0.841807 -0.002548 -0.012999 569601.000000 1 0 0
8.510537 4.814853 16.415794 19.107337 0.514856 0.537218 0.004743 -0.009924 214143.000000 1 0 0
-0.521563 13.376853 13.239294 18.827935 -1.531826 0.790946 -0.007615 0.004491 89429.200000 1 0 0
4.465137 13.045453 14.818794 20.241491 1.241020 0.749397 0.017201 0.013471 169012.000000 1 0 0
-3.658463 -4.437647 -13.421306 14.601662 0.881344 2.736746 -0.001268 -0.004797 129428.000000 1 0 0
6.292137 -12.345647 16.668394 21.675824 -1.099447 0.693544 0.001935 0.007713 180675.000000 1 0 0
8.692537 -13.934347 7.186894 17.927009 -1.013045 1.158300 0.007237 0.000495 287010.000000 1 0 0
-0.476263 15.347653 0.558594 15.365198 -1.539775 1.534434 0.000467 0.000966 -303147.000000 1 0 0
-14.342263 8.211853 8.456694 18.564771 -0.520001 1.097836 0.015214 -0.002412 -14355.000000 1 0 0
-16.011463 -9.708947 5.734094 19.583422 0.545094 1.273639 0.001736 0.004377 193246.000000 1 0 0
9.306937 -10.341047 11.558494 18.087429 -0.837981 0.877554 0.004127 0.005197 104779.000000 1 0 0
-24.966763 6.386653 31.742706 40.886770 -0.250436 0.681932 0.023898 0.000254 -62528.600000 0 0 1
-23.808363 5.719853 31.278976 39.723157 -0.235777 0.664177 0.022991 0.002593 506502.000000 0 0 1
-22.806263 5.690953 32.294446 39.943007 -0.244541 0.629175 0.016013 0.006699 1101790.000000 0 0 1
-21.462263 4.936053 31.955706 38.809284 -0.226057 0.603413 0.008595 0.004045 668812.000000 0 0 1
-21.446363 3.526853 32.208836 38.856072 -0.162991 0.593610 -0.004924 0.001526 -123420.000000 0 0 1
-20.185463 2.959553 31.953846 37.911214 -0.145581 0.568220 -0.002985 -0.000082 -488263.000000 0 0 1
-19.915163 1.726953 32.828616 38.435844 -0.086499 0.546950 -0.005197 0.004665 -252300.000000 0 0 1
-20.495463 0.508053 32.442366 38.377458 -0.024784 0.563577 -0.007518 0.012426 144172.000000 0 0 1
-20.217863 -0.464547 33.383472 39.031193 0.022973 0.544662 -0.010587 0.014948 -317403.000000 0 0 1
-20.783863 -1.848747 33.070938 39.103373 0.088718 0.562863 -0.002183 -0.003442 -368481.000000 0 0 1
-19.837163 -2.766547 32.513516 38.187636 0.138569 0.552120 -0.018783 -0.007150 116920.000000 0 0 1
-20.119263 -4.124947 32.624716 38.550902 0.202222 0.561840 -0.002106 -0.015389 -1119420.000000 0 0 1
-21.419163 -4.754947 32.124416 38.902033 0.218452 0.599217 0.002595 -0.012481 -48818.800000 0 0 1
-22.601363 -4.559247 32.891536 40.167916 0.199053 0.611390 0.007055 -0.013589 473820.000000 0 0 1
-22.643863 -5.098847 34.210114 41.340956 0.221482 0.596136 0.013279 -0.008843 -765925.000000 0 0 1
-23.875063 -4.541347 -34.080018 41.857975 0.187967 2.522116 0.006177 -0.004114 -7978.080000 0 0 1
-24.039263 -5.035747 -32.774706 40.956395 0.206494 2.498482 0.015911 0.002206 282792.000000 0 0 1
-25.200443 -4.525247 -32.136686 41.089011 0.177677 2.468863 0.010216 -0.000831 82181.800000 0 0 1
-25.355363 -4.919147 -30.648576 40.080265 0.191628 2.441341 -0.001679 0.014890 -647291.000000 0 0 1
-25.528663 -6.270947 -30.412936 40.199305 0.240874 2.428823 0.006101 0.003083 430358.000000 0 0 1
-25.657413 -6.717847 -29.074126 39.353998 0.256080 2.402061 -0.014171 0.007865 -61949.400000 0 0 1
-25.919013 -8.259247 -28.896756 39.686684 0.308483 2.386375 -0.011525 0.007368 -489434.000000 0 0 1
-27.183953 -8.690947 -29.278676 40.886926 0.309439 2.368979 0.017719 0.009662 -836001.000000 0 0 1
-27.381073 -10.030647 -28.811976 40.993500 0.351152 2.350182 0.002897 0.005700 1013350.000000 0 0 1
-28.844723 -10.576847 -28.597486 41.972657 0.351458 2.320383 0.025858 0.004552 1049100.000000 0 0 1
-28.944653 -11.555247 -27.586486 41.621279 0.379833 2.295345 0.024821 0.005567 -1070760.000000 0 0 1
-30.218413 -11.540047 -27.050676 42.167099 0.364796 2.267263 0.022840 0.014249 -884703.000000 0 0 1
-30.378783 -12.341447 -25.758096 41.697258 0.385885 2.236663 0.023360 0.011911 -35791.800000 0 0 1
-29.916563 -11.638647 -24.620006 40.454957 0.371020 2.225064 0.030668 0.011109 240010.000000 0 0 1
-29.861793 -12.460547 -23.487606 39.983241 0.395308 2.198684 0.032239 0.007341 -36881.200000 0 0 1
-29.166043 -11.710347 -22.300506 38.537032 0.381804 2.187902 0.035522 0.002534 151603.000000 0 0 1
-28.931933 -12.488347 -21.092806 37.919942 0.407486 2.160658 0.027959 0.000250 -112398.000000 0 0 1
-27.803803 -13.315947 -21.045106 37.326430 0.446646 2.169791 0.034985 -0.001616 -493564.000000 0 0 1
-27.385393 -13.612647 -19.593006 36.320102 0.461306 2.140584 0.040045 -0.014601 -85292.800000 0 0 1
-26.988953 -12.499347 -18.826406 35.200438 0.433718 2.135108 0.028306 -0.011223 122768.000000 0 0 1
-26.550673 -12.957547 -17.557006 34.366913 0.454026 2.106992 0.019847 -0.011023 -7386.550000 0 0 1
-26.493353 -11.869347 -16.511906 33.397937 0.421200 2.087940 0.014030 -0.020348 -156037.000000 0 0 1
-25.277533 -11.155747 -16.681506 32.275021 0.415621 2.113969 0.027763 -0.017627 223026.000000 0 0 1
-25.301523 -9.826847 -16.162806 31.590668 0.370457 2.107880 0.034831 -0.017073 508096.000000 0 0 1
-23.966363 -8.979347 -16.194706 30.286692 0.358477 2.134965 0.041078 -0.019097 1693010.000000 0 0 1
-22.954663 -9.420247 -15.250606 29.124536 0.389427 2.121908 0.021802 -0.022690 1170020.000000 0 0 1
-21.750363 -8.650147 -15.249806 27.936713 0.378523 2.148223 0.035679 -0.038907 1108790.000000 0 0 1
-20.671663 -9.093347 -14.187706 26.670163 0.414418 2.131721 0.013807 -0.007639 80422.800000 0 0 1
-20.076563 -10.291447 -14.541906 26.841187 0.473685 2.143345 0.008478 -0.002022 -368026.000000 0 0 1
-19.062263 -10.555847 -13.611806 25.691965 0.505722 2.129170 0.014493 0.002657 345479.000000 0 0 1
-17.998163 -11.573747 -14.214906 25.689473 0.571475 2.157160 0.014560 0.004552 244248.000000 0 0 1
-17.305463 -11.188047 -15.361306 25.702552 0.573913 2.211372 0.026094 -0.001860 3353.840000 0 0 1
-17.835963 -11.601947 -16.611006 26.993560 0.576713 2.233651 0.014512 -0.004461 10905.800000 0 0 1
-17.045563 -10.889647 -17.733806 26.900251 0.568501 2.290608 0.004422 -0.004396 140200.000000 0 0 1
-17.577363 -11.220947 -18.995706 28.208335 0.568159 2.309605 -0.002132 -0.002455 315156.000000 0 0 1
-17.014363 -10.409547 -20.060806 28.289276 0.549058 2.359061 -0.002039 -0.003259 78282.900000 0 0 1
-17.760363 -10.603247 -21.396906 29.760493 0.538224 2.373116 0.000168 -0.003057 -321518.000000 0 0 1
-18.999563 -9.956647 -21.458606 30.341226 0.482699 2.356387 0.006356 -0.018626 -664461.000000 0 0 1
-19.692063 -10.454647 -22.536706 31.701421 0.488066 2.361581 0.005077 -0.011374 200739.000000 0 0 1
-21.147563 -9.893347 -22.666706 32.540395 0.437577 2.341404 0.001649 -0.012568 545750.000000 0 0 1
-21.113663 -8.548347 -23.040206 32.399261 0.384700 2.361906 0.003213 -0.016774 608123.000000 0 0 1
-22.147763 -8.237647 -23.981106 33.667131 0.356086 2.363566 0.010305 -0.020535 90370.800000 0 0 1
-21.580863 -7.449047 -25.169976 33.981608 0.332365 2.404899 -0.002136 -0.023083 -431990.000000 0 0 1
-20.764463 -8.285847 -25.916946 34.227274 0.379678 2.429814 0.008884 -0.024814 -233889.000000 0 0 1
-20.254063 -7.542547 -26.996886 34.582495 0.356486 2.466504 0.006318 -0.031777 -32321.000000 0 0 1
-19.084663 -8.225847 -27.769656 34.684906 0.406957 2.499136 0.032820 -0.033357 -96465.500000 0 0 1
-19.378763 -9.254847 -28.668866 35.820281 0.445549 2.498680 0.033945 -0.026307 -839620.000000 0 0 1
-18.267063 -9.995847 -29.011296 35.710753 0.500696 2.519047 0.001496 -0.019075 -917701.000000 0 0 1
-18.381063 -11.177747 -29.984896 36.903923 0.546363 2.519246 0.015733 -0.014800 -441906.000000 0 0 1
-18.606163 -10.776347 -31.336106 38.003559 0.524971 2.540215 0.017113 -0.009475 309561.000000 0 0 1
-18.529063 -11.954447 -32.061336 38.912264 0.572974 2.539124 0.006431 -0.003671 -272072.000000 0 0 1
-18.929963 -11.875147 -33.543506 40.305451 0.560266 2.553919 -0.003608 -0.002351 -129015.000000 0 0 1
-18.136463 -11.080247 -34.382997 40.421450 0.548423 2.587946 -0.001893 -0.001461 -222327.000000 0 0 1
-18.580063 -11.071347 33.274062 39.685724 0.537379 0.576384 -0.001577 -0.008765 -67620.300000 0 0 1
-18.009063 -12.183947 32.387206 39.009051 0.594810 0.591243 0.004491 -0.008203 984269.000000 0 0 1
-16.651563 -11.907147 31.915556 37.916453 0.620773 0.570310 -0.001323 -0.012816 1524160.000000 0 0 1
-16.181063 -12.617147 30.805776 37.013714 0.662269 0.587588 0.008194 -0.014300 -31419.700000 0 0 1
-16.119563 -14.137047 30.970196 37.667618 0.719968 0.605537 0.004468 -0.006709 -1746710.000000 0 0 1
-17.363063 -14.736147 30.997466 38.463917 0.703743 0.633629 0.007491 -0.003376 -808941.000000 0 0 1
-17.371063 -16.106247 31.298476 39.252511 0.747635 0.647884 0.016870 -0.000269 -448680.000000 0 0 1
-17.681063 -16.331747 32.776066 40.664683 0.745748 0.633420 0.014537 -0.005877 -537263.000000 0 0 1
-16.710263 -15.815947 33.617518 40.737140 0.757910 0.600187 0.000537 -0.003055 -214131.000000 0 0 1
-17.246563 -15.766547 -34.111587 41.347652 0.740597 2.540989 0.009517 0.000082 575626.000000 0 0 1
-16.209963 -15.212447 -33.086146 39.860689 0.753663 2.549984 0.008827 -0.003991 289749.000000 0 0 1
-16.000163 -13.828847 -33.239366 39.396671 0.712734 2.574954 0.011132 -0.003495 417739.000000 0 0 1
-14.824463 -13.313947 -32.590636 38.199155 0.731768 2.592842 0.017348 -0.007237 534939.000000 0 0 1
-15.053063 -12.913547 -31.113036 36.896821 0.709044 2.574087 0.024668 -0.009797 -517621.000000 0 0 1
-15.328463 -14.058947 -30.325876 36.773286 0.742226 2.540417 0.024443 -0.014820 -160206.000000 0 0 1
-15.768763 -13.846447 -29.010536 35.804877 0.720579 2.515357 0.019605 -0.013512 -202093.000000 0 0 1
-15.901063 -15.227747 -28.312966 35.865752 0.763772 2.480652 0.013799 0.001341 239079.000000 0 0 1
-14.694963 -15.920147 -28.031126 35.427913 0.825396 2.483591 0.031011 -0.018470 320079.000000 0 0 1
-14.019163 -16.506347 -29.199196 36.353672 0.866697 2.503441 0.029447 -0.024780 -474846.000000 0 0 1
-12.584463 -16.869247 -28.840036 35.702771 0.929860 2.511175 0.038627 -0.020073 -641240.000000 0 0 1
-11.732663 -15.759147 -28.733096 34.808001 0.930825 2.541838 0.029887 -0.018685 454186.000000 0 0 1
-10.368563 -16.190947 -28.559036 34.427785 1.001205 2.549070 0.024498 -0.019883 1537240.000000 0 0 1
-9.350563 -14.993247 -28.426626 33.470936 1.013167 2.585441 0.012650 -0.021093 293306.000000 0 0 1
-9.325263 -14.272747 -27.237436 32.133312 0.992062 2.582315 0.016917 -0.022834 -467782.000000 0 0 1
-8.183763 -13.523347 -26.909256 31.208380 1.026593 2.610481 0.016911 -0.019436 -526000.000000 0 0 1
-8.168563 -12.066247 -27.463376 31.089496 0.975690 2.653791 0.017373 -0.020823 -527377.000000 0 0 1
-7.883063 -11.990247 -28.853326 32.224573 0.989197 2.680086 0.024976 -0.024378 214094.000000 0 0 1
-7.631363 -10.627347 -29.279666 32.069878 0.948034 2.721364 0.015568 -0.016558 124827.000000 0 0 1
-6.622063 -10.544147 -30.481236 32.926228 1.010020 2.753793 0.006463 -0.008220 -640176.000000 0 0 1
-5.287663 -10.714447 -30.051216 32.339362 1.112356 2.763163 0.020520 -0.014387 -32551.900000 0 0 1
-4.393363 -10.465847 -31.119776 33.125157 1.173355 2.791849 0.031183 -0.015371 -163911.000000 0 0 1
-4.287063 -9.013847 -31.663516 33.199497 1.126852 2.836219 0.022710 -0.009121 -873998.000000 0 0 1
-3.064863 -8.689947 -32.355326 33.641874 1.231726 2.864145 0.028884 -0.014012 640958.000000 0 0 1
-3.003763 -7.306847 -32.792486 33.730695 1.180767 2.905184 0.020674 -0.014215 -1041990.000000 0 0 1
-1.650363 -6.858847 -33.244326 33.984595 1.334667 2.932490 0.028002 -0.015272 -893933.000000 0 0 1
-1.218063 -7.289147 -34.506663 35.289165 1.405220 2.930612 0.027370 -0.025086 162794.000000 0 0 1
-0.030463 -6.679047 34.010873 34.660498 1.566235 0.193914 0.016187 -0.013311 756905.000000 0 0 1
0.643037 -7.386147 32.764166 33.592547 -1.483955 0.222539 -0.001055 -0.006206 -165563.000000 0 0 1
0.000237 -7.171347 31.566736 32.371083 -1.570763 0.223389 -0.017789 -0.000060 -98063.800000 0 0 1
0.597737 -7.950447 30.584506 31.606628 -1.495755 0.255008 -0.021701 -0.000019 -118152.000000 0 0 1
0.367537 -7.326447 29.142456 30.051533 -1.520673 0.246594 -0.022011 0.001062 186617.000000 0 0 1
0.981037 -6.020047 28.987726 29.622486 -1.409255 0.207390 -0.021175 0.003527 377650.000000 0 0 1
0.914537 -5.549447 27.621766 28.188556 -1.407467 0.200872 -0.027339 0.004288 176065.000000 0 0 1
-0.258863 -4.535847 27.323246 27.698388 1.513788 0.164770 -0.017635 0.010866 -274414.000000 0 0 1
-1.498763 -5.088847 27.564266 28.070116 1.284375 0.190133 -0.022823 0.012384 -1569560.000000 0 0 1
-2.473463 -4.136447 27.208106 27.631671 1.031872 0.175319 -0.017735 0.004763 -187088.000000 0 0 1
-3.849763 -4.633747 27.727166 28.374073 0.877549 0.213946 -0.014023 0.005598 -110941.000000 0 0 1
-4.278563 -5.700947 26.868116 27.797528 0.926975 0.259319 -0.018720 0.006861 -828254.000000 0 0 1
-5.575763 -6.061647 27.228326 28.446695 0.827126 0.293732 -0.011166 -0.001472 -229413.000000 0 0 1
-5.866063 -7.530547 27.154256 28.783215 0.909011 0.338042 0.003761 0.000652 23243.000000 0 0 1
-5.074363 -8.283647 28.047416 29.682074 1.021181 0.333422 0.004153 -0.004391 -191201.000000 0 0 1
-5.480363 -9.597747 28.162116 30.253197 1.051969 0.373980 0.006085 -0.006222 25016.600000 0 0 1
-4.812463 -10.312347 29.372986 31.500422 1.134166 0.369624 0.005527 -0.009228 -43629.100000 0 0 1
-4.953463 -11.723347 29.367186 32.006332 1.171020 0.408940 0.016316 -0.014495 35887.000000 0 0 1
-4.201663 -12.268347 30.400616 33.050927 1.240836 0.403197 0.017121 -0.013590 -571973.000000 0 0 1
-4.377263 -13.806447 30.424346 33.695983 1.263776 0.444311 0.018167 -0.011253 788997.000000 0 0 1
-5.730063 -14.303647 30.499916 34.171228 1.189771 0.467803 0.038685 -0.016213 694430.000000 0 0 1
-5.824063 -15.720247 30.511116 34.813418 1.215993 0.502423 0.026131 -0.021079 -188506.000000 0 0 1
-6.082363 -16.387447 31.909876 36.383839 1.215397 0.501142 0.045752 -0.019081 -473444.000000 0 0 1
-7.386263 -16.559847 32.369576 37.102222 1.151245 0.510617 0.051109 -0.015187 -915080.000000 0 0 1
-7.436063 -17.032447 33.670399 38.459005 1.159156 0.504351 0.047702 -0.016934 -994009.000000 0 0 1
-8.725063 -17.581347 34.292616 39.512201 1.110139 0.519838 0.051168 -0.013936 -201975.000000 0 0 1
-9.306363 -18.735047 33.654257 39.625994 1.109764 0.556143 0.039973 -0.021424 300212.000000 0 0 1
-9.741663 -18.537847 32.351036 38.537531 1.086956 0.574492 0.031446 -0.015131 -764425.000000 0 0 1
-10.627963 -19.704747 31.771986 38.867592 1.076158 0.613841 0.023687 -0.021280 331790.000000 0 0 1
-11.834163 -20.024447 32.443006 39.919601 1.037031 0.622010 0.028410 -0.017943 356072.000000 0 0 1
-12.218463 -21.379947 32.561576 40.824615 1.051603 0.647496 0.017389 -0.018750 -198366.000000 0 0 1
-11.443563 -22.180647 33.626462 41.876905 1.094490 0.638512 0.029103 -0.019085 1001470.000000 0 0 1
-10.035163 -22.413347 33.320700 41.392411 1.149830 0.635129 0.015836 -0.018232 1294330.000000 0 0 1
-9.280663 -22.963147 34.356752 42.353550 1.186713 0.624613 0.021489 -0.026074 16649.200000 0 0 1
-9.706663 -24.405347 -34.292390 43.195003 1.192251 2.487988 0.024819 -0.007800 -460157.000000 0 0 1
-9.317863 -25.369867 33.764248 43.249013 1.218810 0.675021 0.020266 -0.010225 13114.400000 0 0 1
-9.688163 -26.673547 34.067540 44.338875 1.222400 0.694545 0.028373 -0.015048 -1216250.000000 0 0 1
-9.186363 -27.659527 33.018115 44.041283 1.250136 0.723175 0.016549 -0.003991 -154293.000000 0 0 1
-7.807063 -27.824637 32.823936 43.732956 1.297249 0.721897 0.014488 -0.003020 -317326.000000 0 0 1
-7.051863 -28.257307 33.933635 44.717958 1.326233 0.709271 0.003295 -0.003333 -1346720.000000 0 0 1
-5.546463 -28.111597 33.745236 44.269245 1.375997 0.703979 -0.002792 -0.007814 -177456.000000 0 0 1
-4.988963 -26.851387 34.192310 43.760722 1.387092 0.673975 0.006695 -0.002806 27439.100000 0 0 1
-5.093363 -25.772227 33.296587 42.412412 1.375681 0.667992 0.027616 -0.006899 -73326.500000 0 0 1
-4.574663 -24.444947 33.913804 42.055072 1.385795 0.632733 0.032761 -0.009363 441256.000000 0 0 1
-3.170863 -24.280047 34.025596 41.920355 1.440936 0.623787 0.031398 -0.007057 275349.000000 0 0 1
-3.039063 -23.121147 -34.274707 41.455746 1.440105 2.544152 0.036831 -0.009424 -173913.000000 0 0 1
33.809559 -15.802047 2.524894 37.405428 -0.437216 1.503244 0.070634 -0.036655 -642029.000000 0 0 1
34.685616 -16.133147 3.549394 38.418336 -0.435360 1.478276 0.054714 -0.030893 -184345.000000 0 0 1
34.044399 -16.547747 4.735094 38.148003 -0.452437 1.446351 0.058530 -0.040145 313843.000000 0 0 1
35.023203 -16.554547 5.981994 39.197729 -0.441549 1.417587 0.048937 -0.015366 660895.000000 0 0 1
-34.723905 -17.713547 5.875594 39.421338 0.471715 1.421193 0.061718 -0.018160 -88391.200000 0 0 1
-33.817543 -17.779047 6.961294 38.835297 0.484023 1.390571 0.051367 -0.010101 -11136.800000 0 0 1
-32.640283 -18.731147 6.766594 38.236510 0.520982 1.392893 0.035236 -0.009130 -139548.000000 0 0 1
-33.066073 -20.084747 6.647794 39.255005 0.545852 1.400627 0.053555 -0.012867 185737.000000 0 0 1
-32.063943 -20.883747 7.235394 38.943270 0.577300 1.383917 0.020425 0.001041 36480.400000 0 0 1
-32.374283 -22.399647 7.224894 40.025460 0.605267 1.389294 0.008054 -0.003145 -747212.000000 0 0 1
-32.205313 -23.146447 6.003294 40.112089 0.623176 1.420569 0.023296 0.004392 117992.000000 0 0 1
-32.235083 -24.506547 6.165994 40.959625 0.650025 1.419684 0.030001 -0.004138 -160767.000000 0 0 1
-31.724263 -25.283447 4.946194 40.867424 0.672894 1.449469 0.028907 -0.008057 -41563.700000 0 0 1
-32.525053 -25.135867 3.804794 41.281562 0.657944 1.478498 0.034569 -0.003986 -179138.000000 0 0 1
-31.856243 -25.675947 2.735894 41.006823 0.678385 1.504029 0.031744 -0.002891 -680505.000000 0 0 1
-32.460403 -25.342297 1.387794 41.204802 0.662870 1.537110 0.031134 -0.003945 -2036280.000000 0 0 1
-33.502933 -26.235257 1.152494 42.568339 0.664334 1.543719 0.044586 -0.006203 -199061.000000 0 0 1
-34.461360 -25.805997 0.213394 43.053227 0.642757 1.565840 0.044228 -0.006052 30314.700000 0 0 1
-35.249506 -24.560847 0.681694 42.967750 0.608556 1.554930 0.052692 -0.003074 -1435400.000000 0 0 1
34.034329 -24.526947 0.092894 41.951344 -0.624453 1.568582 0.023325 0.000253 360004.000000 0 0 1
33.160949 -23.541347 0.614994 40.672125 -0.617347 1.555675 0.045131 -0.013302 423942.000000 0 0 1
31.660839 -23.620447 0.266294 39.501963 -0.640966 1.564055 0.014827 -0.010496 39810.200000 0 0 1
31.463499 -23.456647 -1.078706 39.259771 -0.640627 1.598276 0.019655 -0.019663 513736.000000 0 0 1
30.080619 -23.479147 -1.436206 38.186079 -0.662762 1.608416 0.025685 -0.013686 603333.000000 0 0 1
29.823849 -23.211347 -2.987906 37.909842 -0.661357 1.649694 0.018240 0.004349 -294235.000000 0 0 1
30.393579 -22.018947 -3.402306 37.685267 -0.626954 1.661202 0.037320 -0.015396 17941.300000 0 0 1
30.123289 -21.743347 -4.728806 37.450597 -0.625215 1.697402 0.030144 -0.033321 -245528.000000 0 0 1
29.990189 -20.251147 -4.963606 36.526124 -0.593928 1.707110 0.042930 -0.030561 642819.000000 0 0 1
28.843809 -19.782447 -4.246606 35.232714 -0.601164 1.691620 0.043083 -0.031259 520857.000000 0 0 1
28.913769 -18.377647 -4.209506 34.517588 -0.566187 1.693053 0.048308 -0.034428 533082.000000 0 0 1
27.919569 -17.842047 -3.116706 33.279946 -0.568640 1.664585 0.059213 -0.034091 345965.000000 0 0 1
28.404949 -18.011847 -1.786106 33.681715 -0.565123 1.623850 0.058260 -0.028982 422373.000000 0 0 1
28.861639 -19.313347 -1.313406 34.752332 -0.589734 1.608599 0.045161 -0.022216 466497.000000 0 0 1
27.699239 -20.383247 -1.110806 34.408697 -0.634401 1.603085 0.029740 -0.004009 567781.000000 0 0 1
26.883169 -19.954547 -0.030506 33.479690 -0.638535 1.571708 0.044762 -0.004614 135506.000000 0 0 1
26.069449 -21.021947 0.420094 33.492012 -0.678621 1.558253 0.023904 -0.006766 -419484.000000 0 0 1
25.136839 -20.621347 1.554094 32.550204 -0.687035 1.523034 0.031653 -0.002135 -925394.000000 0 0 1
24.420139 -21.684647 2.216894 32.733495 -0.726136 1.503019 0.027827 0.015747 600339.000000 0 0 1
23.490139 -21.313347 3.242194 31.883494 -0.736851 1.468931 0.013519 0.015235 1352550.000000 0 0 1
22.172639 -20.598347 2.704994 30.384779 -0.748607 1.481654 -0.005013 0.007279 67750.200000 0 0 1
22.391739 -19.376547 2.013594 29.679877 -0.713335 1.502900 0.003835 0.001710 -89207.300000 0 0 1
22.395939 -18.336347 2.986894 29.098474 -0.686061 1.467967 0.008689 0.010415 -189085.000000 0 0 1
22.219739 -16.927347 2.375994 28.033858 -0.651020 1.485940 0.007593 0.009627 -231207.000000 0 0 1
20.969139 -16.607947 1.845394 26.812947 -0.669855 1.501917 -0.007842 0.011575 -526704.000000 0 0 1
21.013439 -15.280047 1.377194 26.018092 -0.628720 1.517839 -0.001225 0.006412 136550.000000 0 0 1
19.664939 -14.932347 0.718794 24.702256 -0.649451 1.541694 -0.007456 0.005445 205098.000000 0 1 0
18.517139 -14.945947 1.565894 23.847804 -0.679080 1.505087 -0.006466 0.000733 305122.000000 0 1 0
17.814139 -13.726747 1.616094 22.547258 -0.656526 1.499059 0.008314 -0.006397 -576653.000000 0 1 0
18.529339 -12.494447 2.272694 22.463587 -0.593273 1.469451 0.027670 -0.004878 -29684.200000 0 1 0
19.439339 -11.917547 1.309394 22.839227 -0.549970 1.513434 0.016645 -0.004494 638654.000000 0 1 0
19.979039 -10.684447 1.714394 22.721323 -0.491085 1.495271 0.024489 -0.012082 -162654.000000 0 1 0
20.778239 -9.947047 0.637094 23.045278 -0.446483 1.543147 0.020789 -0.013801 -78191.800000 0 1 0
19.945939 -9.437547 -0.389806 22.069429 -0.441943 1.588460 0.013390 -0.006905 127155.000000 0 1 0
20.703239 -8.778047 -1.325206 22.526304 -0.401018 1.629660 0.007839 -0.002182 -779366.000000 0 1 0
19.994839 -8.577147 -2.646506 21.917231 -0.405227 1.691842 -0.003389 -0.003174 -672559.000000 0 1 0
20.725939 -7.799247 -3.577306 22.431895 -0.359913 1.730954 -0.007715 0.001169 163008.000000 0 1 0
21.842739 -8.349847 -4.213906 23.760938 -0.365130 1.749085 -0.006877 -0.003822 -935179.000000 0 1 0
21.709439 -9.677147 -5.020806 24.293114 -0.419320 1.778973 0.002770 -0.003768 -615365.000000 0 1 0
21.050839 -9.573547 -6.263906 23.958863 -0.426824 1.835314 -0.009958 -0.000933 -959809.000000 0 1 0
19.699139 -9.358647 -6.244706 22.685605 -0.443513 1.849669 -0.022748 0.009574 -1612950.000000 0 1 0
18.976939 -9.363147 -7.624606 22.492828 -0.458351 1.916628 -0.023111 0.015632 -378743.000000 0 1 0
18.844839 -10.639747 -8.225506 23.151482 -0.513981 1.934021 -0.028523 0.019463 536565.000000 0 1 0
19.892139 -10.977547 -9.119506 24.482016 -0.504265 1.952496 -0.034607 0.018136 -399190.000000 0 1 0
19.873139 -12.359247 -9.809306 25.375482 -0.556372 1.967702 -0.035315 0.012007 -270321.000000 0 0 1
18.711239 -12.608447 -10.568506 24.915391 -0.592955 2.008848 -0.029219 0.015048 26882.500000 0 1 0
18.847739 -13.787547 -11.305806 25.945230 -0.631570 2.021675 -0.024535 0.017424 -134314.000000 0 0 1
17.610739 -14.278847 -12.092306 25.695281 -0.681294 2.060772 -0.013202 0.012204 -158808.000000 0 0 1
17.620339 -15.590747 -12.584706 26.681877 -0.724362 2.061966 -0.001310 0.006691 269256.000000 0 0 1
16.547439 -15.709447 -13.521506 26.522360 -0.759425 2.105766 0.000935 0.002837 100007.000000 0 0 1
16.267939 -17.129647 -13.982406 27.451381 -0.811194 2.105228 0.003685 -0.001818 -512025.000000 0 0 1
15.800039 -17.931647 -12.939206 27.177348 -0.848507 2.067014 -0.003678 -0.002016 88647.000000 0 0 1
15.722939 -19.285347 -13.311006 28.219112 -0.886808 2.062016 0.003258 -0.003283 -456120.000000 0 0 1
14.736039 -20.150547 -12.479406 27.909334 -0.939373 2.034363 0.004435 -0.006397 677501.000000 0 0 1
13.383639 -19.733447 -12.671906 27.001998 -0.974837 2.059289 -0.000076 -0.007504 555221.000000 0 0 1
12.445539 -20.455247 -11.887706 26.732491 -1.024203 2.031626 0.002211 -0.005429 755115.000000 0 0 1
10.963439 -20.446147 -12.356306 26.285361 -1.078602 2.060181 0.003728 -0.006858 561427.000000 0 0 1
10.111739 -21.133947 -11.440506 26.072517 -1.124529 2.025054 0.006284 -0.002246 -1043140.000000 0 0 1
8.792339 -20.820047 -11.690306 25.444898 -1.171213 2.048157 0.004618 0.001028 -638365.000000 0 0 1
7.842339 -21.427747 -10.590406 25.155661 -1.219948 2.005338 0.012164 -0.002090 99091.700000 0 0 1
7.820739 -22.847447 -10.587806 26.368000 -1.240995 1.983994 0.010990 0.004326 -403357.000000 0 0 1
6.882739 -23.384147 -9.724806 26.244280 -1.284546 1.950397 0.020520 -0.008754 -246537.000000 0 0 1
6.960239 -24.977047 -9.785306 27.713715 -1.299026 1.931663 0.016945 -0.003504 260170.000000 0 0 1
8.195039 -25.496547 -9.350306 28.366543 -1.259808 1.906702 0.015502 0.003766 -458682.000000 0 0 1
8.390439 -26.833427 -9.656506 29.726762 -1.267742 1.901641 0.010733 0.002883 947459.000000 0 0 1
9.877939 -27.291497 -9.398306 30.507829 -1.223523 1.883952 0.018948 0.003434 923806.000000 0 0 1
10.227139 -27.425077 -8.089406 30.367214 -1.213858 1.840438 0.022409 -0.003526 246305.000000 0 0 1
11.606439 -27.780287 -7.966706 31.143573 -1.175045 1.829477 0.026366 -0.001443 251224.000000 0 0 1
12.057939 -27.978987 -6.529706 31.158540 -1.163885 1.781925 0.019506 -0.004950 -343649.000000 0 0 1
11.658439 -29.091177 -5.798606 31.872238 -1.189639 1.753748 0.020331 -0.007170 -54418.900000 0 0 1
10.272139 -29.236747 -5.564306 31.484372 -1.232925 1.748462 0.029319 -0.009834 19313.400000 0 0 1
9.780439 -30.459247 -4.695706 32.333765 -1.260097 1.716538 0.044655 -0.017520 67577.600000 0 0 1
10.026639 -31.776167 -5.236506 33.729501 -1.265145 1.726677 0.045059 -0.015140 -354773.000000 0 0 1
9.209639 -32.159887 -6.280706 34.037083 -1.291890 1.756385 0.046289 -0.014293 -232170.000000 0 0 1
9.479039 -33.622987 -6.627406 35.556714 -1.296007 1.758283 0.044356 -0.013465 -361162.000000 0 0 1
8.964039 -34.531974 -5.743306 36.135810 -1.316816 1.730410 0.040146 -0.008245 -248342.000000 0 0 1
9.408739 33.283445 -5.891206 35.085871 1.295299 1.739504 0.039064 -0.005680 -72048.100000 0 0 1
8.957439 32.341975 -4.758706 33.895196 1.300609 1.711656 0.046651 0.000811 -23796.300000 0 0 1
7.599139 31.995185 -4.749106 33.226386 1.337608 1.714219 0.044131 -0.002509 -812504.000000 0 0 1
7.369439 31.054395 -3.733206 32.134419 1.337799 1.687234 0.031467 -0.002949 1218080.000000 0 0 1
5.921439 30.374065 -3.801006 31.178436 1.378261 1.693012 0.025983 -0.004470 1486360.000000 0 0 1
5.615639 29.513145 -4.844606 30.430763 1.382768 1.730678 0.027741 -0.003409 -76261.800000 0 0 1
5.422939 30.272765 -6.030506 31.340318 1.393541 1.764424 0.027193 -0.010649 -631996.000000 0 0 1
5.527239 29.452075 -7.327306 30.849060 1.385285 1.810610 0.038286 -0.013801 317290.000000 0 0 1
4.533739 28.436185 -7.484406 29.752104 1.412691 1.825087 0.032424 -0.015651 490888.000000 0 0 1
4.886839 27.268785 -6.720506 28.506719 1.393469 1.808788 0.023002 -0.007588 -81786.400000 0 0 1
3.968939 26.134485 -7.194006 27.395574 1.420082 1.836509 0.009921 -0.007237 -1134640.000000 0 0 1
2.639439 26.068955 -6.795606 27.069121 1.469892 1.824557 0.011558 -0.008470 -1076810.000000 0 0 1
1.756439 26.704605 -7.662406 27.837627 1.505118 1.849650 0.025355 -0.014295 -483868.000000 0 0 1
1.480339 25.948485 -8.978706 27.497862 1.513809 1.903420 0.015267 -0.011792 -488005.000000 0 0 1
2.589539 25.836095 -9.875706 27.780192 1.470900 1.934239 0.006554 -0.016206 422783.000000 0 0 1
2.129439 25.170175 -11.058006 27.574476 1.486396 1.983430 0.008861 -0.010765 -284477.000000 0 0 1
2.093639 23.620925 -10.940906 26.115797 1.482392 2.003072 0.013672 -0.000608 -999403.000000 0 0 1
1.081639 23.073425 -10.216706 25.257354 1.523953 1.987233 0.019004 -0.004481 -952662.000000 0 0 1
1.180939 21.657225 -10.312106 24.016027 1.516322 2.014607 -0.002700 0.001190 40898.000000 0 1 0
0.068239 20.973825 -9.473406 23.014157 1.567543 1.995042 0.013642 0.001830 184430.000000 0 1 0
-1.224461 21.049025 -10.029006 23.348270 -1.512690 2.014779 0.032884 -0.005273 244321.000000 0 1 0
-2.230361 20.688625 -9.051206 22.691805 -1.463405 1.981087 0.027919 -0.003795 425540.000000 0 1 0
-3.442361 20.102525 -9.753406 22.607306 -1.401201 2.016870 0.016862 -0.017546 -375979.000000 0 1 0
-4.667561 20.037125 -9.065506 22.482346 -1.341932 1.985838 0.023399 -0.007036 -77811.100000 0 1 0
-5.681261 19.620825 -9.933606 22.714093 -1.288952 2.023426 0.026414 -0.000921 -596924.000000 0 1 0
-6.633861 18.569325 -9.359106 21.827066 -1.227679 2.013943 0.019963 -0.004470 355445.000000 0 1 0
-7.664661 19.023125 -8.469606 22.189199 -1.187781 1.962431 0.027440 -0.006498 307310.000000 0 1 0
-8.945861 19.161725 -9.042406 22.999244 -1.134010 1.974863 0.034888 -0.012021 -484360.000000 0 1 0
-9.959461 19.385525 -7.960106 23.202429 -1.096203 1.920982 0.039607 -0.011643 -590290.000000 0 1 0
-10.135161 18.268725 -7.164106 22.086019 -1.064289 1.901145 0.026399 -0.008232 111466.000000 0 1 0
-11.184161 18.543225 -6.210806 22.527999 -1.028071 1.850107 0.032444 -0.007763 69849.200000 0 1 0
-11.558061 17.310925 -5.400606 21.504033 -0.982096 1.824658 0.013720 -0.010200 -523842.000000 0 1 0
-12.618061 17.656325 -4.558706 22.175281 -0.950307 1.777849 0.035114 -0.009570 -180124.000000 0 1 0
-13.066061 16.528925 -3.770306 21.404264 -0.901877 1.747868 0.037242 -0.009135 -461615.000000 0 1 0
-14.326961 16.844225 -2.974006 22.312204 -0.865979 1.704485 0.028923 -0.009584 -776461.000000 0 1 0
-15.446761 16.831925 -3.815706 23.161946 -0.828284 1.736291 0.046724 -0.015489 -580607.000000 0 1 0
-16.558961 17.288625 -3.096906 24.138902 -0.806952 1.699446 0.040363 -0.013167 -180503.000000 0 1 0
-17.857661 17.429625 -3.920606 25.259831 -0.773269 1.726637 0.037173 -0.019140 61526.400000 0 0 1
-17.683761 18.424225 -4.894506 26.002378 -0.805902 1.760159 0.037134 -0.017851 -182081.000000 0 0 1
-18.863561 18.601825 -5.625006 27.083252 -0.778412 1.780012 0.027726 -0.017118 -102603.000000 0 0 1
-18.728361 19.644125 -6.776606 27.974373 -0.809259 1.815474 0.032602 -0.007472 -63233.200000 0 0 1
-18.444461 20.934625 -6.351806 28.614718 -0.848550 1.794638 0.030392 -0.000499 3895.540000 0 0 1
-18.457261 21.830825 -7.479406 29.549906 -0.868939 1.826691 0.022803 0.014018 137399.000000 0 0 1
-18.402961 23.267425 -6.972706 30.473934 -0.901609 1.801650 0.024324 0.011444 1211880.000000 0 0 1
-17.113961 23.614125 -6.396706 29.856865 -0.943662 1.786716 0.026474 0.012589 918237.000000 0 0 1
-17.250561 24.687845 -5.447906 30.606392 -0.960912 1.749749 0.026741 0.008698 108667.000000 0 0 1
-15.967761 25.014465 -4.647806 30.038225 -1.002661 1.726150 0.025648 0.014283 -64511.600000 0 0 1
-16.057261 26.132025 -3.790906 30.904520 -1.019807 1.693771 0.023092 0.005606 439859.000000 0 0 1
-14.808761 26.568165 -3.234806 30.588082 -1.062299 1.676748 0.029639 0.006105 896407.000000 0 0 1
-14.036561 27.634195 -4.048906 31.258078 -1.100816 1.700693 0.030632 0.002017 47255.600000 0 0 1
-14.685361 28.852545 -3.958506 32.615931 -1.099991 1.692464 0.041312 -0.010083 122753.000000 0 0 1
-13.983261 29.776665 -4.795406 33.244207 -1.131759 1.715549 0.024869 -0.001192 -700811.000000 0 0 1
-14.547461 31.186635 -4.530206 34.709618 -1.134335 1.701687 0.018414 -0.010651 387256.000000 0 0 1
-15.920761 31.325195 -4.870206 35.474743 -1.100577 1.708518 0.025075 -0.001514 21932.800000 0 0 1
-16.589361 32.145435 -3.963006 36.390126 -1.094374 1.679916 0.030358 -0.005360 -173503.000000 0 0 1
12.717437 -8.810547 18.553296 24.157478 -0.605872 0.695061 0.030976 0.001415 197842.000000 0 1 0
13.513937 -9.892647 19.069796 25.380072 -0.631903 0.720662 0.043451 -0.001648 260355.000000 0 0 1
13.502437 -11.095447 18.334996 25.329762 -0.687855 0.761427 0.034365 0.000886 -24389.400000 0 0 1
13.812437 -12.319147 19.190896 26.661494 -0.728315 0.767285 0.045057 -0.012293 220661.000000 0 0 1
15.160737 -12.371247 19.661096 27.739041 -0.684425 0.783018 0.038055 -0.011006 663508.000000 0 0 1
15.535737 -13.529547 20.350996 28.958087 -0.716484 0.791507 0.037768 -0.012774 -59196.900000 0 0 1
16.135637 -14.655547 19.423696 29.196298 -0.737366 0.842928 0.035843 -0.012616 -187383.000000 0 0 1
15.229937 -15.192747 18.439396 28.333405 -0.784176 0.862158 0.039514 -0.016748 602149.000000 0 0 1
15.709537 -16.294447 17.646296 28.700005 -0.803672 0.908596 0.046648 -0.024462 -402023.000000 0 0 1
14.974637 -16.429047 16.285096 27.556445 -0.831678 0.938533 0.042947 -0.026004 190348.000000 0 0 1
13.592337 -16.740047 16.412596 27.098968 -0.888802 0.920209 0.059343 -0.026267 98288.900000 0 0 1
12.996937 -16.430947 15.187196 25.875612 -0.901565 0.943533 0.068962 -0.029496 -214809.000000 0 0 1
12.381737 -17.642447 14.435196 25.941053 -0.958853 0.980675 0.046707 -0.019704 -228791.000000 0 0 1
13.340837 -18.554447 14.019996 26.810552 -0.947425 1.020514 0.045213 -0.014696 425781.000000 0 0 1
12.605337 -19.700847 13.468696 26.989325 -1.001599 1.048308 0.042433 -0.013761 410467.000000 0 0 1
13.495037 -20.837047 12.893596 27.973976 -0.996077 1.091772 0.039894 -0.013048 73518.300000 0 0 1
14.333137 -21.438847 13.872296 29.283162 -0.981485 1.077276 0.033255 -0.015398 226517.000000 0 0 1
14.929237 -22.646047 13.359596 30.235812 -0.987951 1.113140 0.031092 -0.021454 -148734.000000 0 0 1
15.724237 -23.343647 14.464396 31.644845 -0.978010 1.096081 0.028178 -0.016778 278173.000000 0 0 1
17.044037 -22.846947 14.672696 32.058855 -0.929854 1.095412 0.020813 -0.023236 255911.000000 0 0 1
17.797737 -23.577047 15.595996 33.404665 -0.924182 1.085036 0.029840 -0.024186 -75140.200000 0 0 1
19.184137 -22.990747 15.897996 33.902092 -0.875412 1.082708 0.010630 -0.024833 -354045.000000 0 0 1
20.217237 -23.570747 15.160996 34.556802 -0.861834 1.116615 0.014859 -0.028754 -460280.000000 0 0 1
21.434437 -22.878247 15.431096 34.942352 -0.817969 1.113397 0.015730 -0.019396 -350973.000000 0 0 1
22.616037 -23.624247 14.874996 35.928480 -0.807198 1.143934 0.004551 -0.022187 -874185.000000 0 0 1
22.847337 -24.773647 15.607896 37.139477 -0.825827 1.137075 0.011342 -0.018171 -315220.000000 0 0 1
24.022137 -25.389877 15.186796 38.109679 -0.813071 1.160913 0.012254 -0.011721 -641730.000000 0 0 1
24.425637 -26.560157 16.102696 39.513928 -0.827239 1.151060 0.004398 -0.013173 -83317.400000 0 0 1
24.793537 -26.121327 17.437996 40.014084 -0.811471 1.119873 -0.003152 -0.008765 365790.000000 0 0 1
25.233737 -27.211877 18.293396 41.374824 -0.823098 1.112815 0.006156 -0.003725 213179.000000 0 0 1
25.500937 -26.685747 19.705996 41.842002 -0.808098 1.080415 -0.004485 -0.001515 -177449.000000 0 0 1
24.310637 -26.310997 20.338796 41.193959 -0.824894 1.054420 0.004028 0.001337 83701.400000 0 0 1
24.628637 -25.873287 21.678096 41.784406 -0.810039 1.025340 0.005285 0.009301 -711585.000000 0 0 1
23.365037 -25.692987 22.472996 41.365324 -0.832816 0.996456 0.010384 0.010612 -735428.000000 0 0 1
22.827337 -26.970817 22.679996 41.986837 -0.868412 1.000158 0.014486 0.011154 3228.600000 0 0 1
21.632537 -27.106347 23.422896 41.849167 -0.897238 0.976775 0.018736 0.014028 -72155.500000 0 0 1
21.141937 -28.552937 23.455896 42.572653 -0.933437 0.987280 0.037825 0.014862 -215081.000000 0 0 1
21.964137 -29.463817 24.157876 43.978890 -0.930206 0.989263 0.026411 0.018122 453852.000000 0 0 1
21.560137 -30.793527 23.817396 44.501114 -0.959969 1.006041 0.032742 0.014284 -614436.000000 0 0 1
22.586337 -31.832347 24.184356 45.916489 -0.953696 1.016079 0.025762 0.025595 -504554.000000 0 0 1
22.622137 -32.139787 25.552536 46.879196 -0.957480 0.994321 0.023799 0.016772 717574.000000 0 0 1
23.864837 -32.715867 25.960746 48.102169 -0.940573 1.000715 0.026358 0.008015 -121246.000000 0 0 1
23.691637 -33.096687 27.486196 49.113901 -0.949524 0.976843 0.028258 -0.006750 256538.000000 0 0 1
23.050137 -34.340659 27.747486 49.804745 -0.979648 0.979876 0.020693 0.003979 1216670.000000 0 0 1
21.671937 -34.426450 27.303166 48.993022 -1.008957 0.979682 0.023018 0.014182 695068.000000 0 0 1
20.950737 33.495189 28.020276 48.435492 1.011848 0.953899 0.042911 -0.013779 -17510.700000 0 0 1
20.568637 33.722378 29.354826 49.213549 1.023100 0.931690 0.043273 -0.012348 90878.800000 0 0 1
19.992337 32.631155 29.976696 48.611605 1.021108 0.906307 0.047480 -0.019254 -123426.000000 0 0 1
19.672537 32.838365 31.438606 49.535370 1.031060 0.883215 0.041312 -0.021890 -190873.000000 0 0 1
20.882237 32.852485 32.129546 50.474363 1.004585 0.880777 0.034020 -0.007588 -49454.500000 0 0 1
20.592437 32.992075 33.528880 51.348917 1.012799 0.859308 0.023093 -0.009354 -512263.000000 0 0 1
21.821337 32.736145 34.353950 52.230449 0.982852 0.852985 0.006592 0.000328 -701444.000000 0 0 1
22.188437 31.399655 34.484018 51.646999 0.955624 0.839699 0.013460 -0.001965 -6678.550000 0 0 1
23.184437 31.351495 -33.534866 51.429773 0.934049 2.281084 0.000647 0.008668 64136.200000 0 0 1
23.735237 29.916605 -33.290516 50.661851 0.900105 2.287778 0.008034 0.004330 66165.500000 0 0 1
24.343337 29.411145 -34.489592 51.450417 0.879397 2.305472 0.015733 -0.001890 127181.000000 0 0 1
23.804337 28.082945 34.327363 50.335535 0.867672 0.820342 0.040974 -0.014684 35226.300000 0 0 1
24.031437 27.478705 32.912106 49.150747 0.852223 0.837105 0.051817 -0.022874 -454452.000000 0 0 1
25.382037 27.153495 32.735816 49.529726 0.819105 0.848735 0.039462 -0.022633 118870.000000 0 0 1
25.472837 26.350605 31.593836 48.387914 0.802334 0.859352 0.064558 -0.032959 67133.500000 0 0 1
26.621937 25.302025 31.625116 48.467184 0.759984 0.859910 0.043204 -0.024038 -190489.000000 0 0 1
26.368737 24.315725 32.647546 48.501825 0.744915 0.832377 0.049432 -0.029334 598346.000000 0 0 1
27.288737 24.496875 33.709059 49.810367 0.731538 0.827460 0.042520 -0.029062 -815728.000000 0 0 1
26.985737 23.680325 -34.000206 49.446959 0.720251 2.328988 0.028698 -0.031624 329488.000000 0 0 1
25.883437 24.182835 -33.215376 48.559479 0.751444 2.324048 0.037002 -0.032168 2194880.000000 0 0 1
24.513037 24.025925 -33.650406 48.067493 0.775363 2.346286 0.039406 -0.022028 842073.000000 0 0 1
23.957037 22.608825 -33.632866 47.077258 0.756453 2.366589 0.024417 -0.024726 -765480.000000 0 0 1
23.931637 22.003325 -32.324566 45.844816 0.743444 2.353342 0.013310 -0.035133 320302.000000 0 0 1
23.610937 20.671825 -32.501236 45.178878 0.719124 2.373720 0.001344 -0.022053 -289855.000000 0 0 1
23.567437 19.974525 -31.076596 43.819637 0.703069 2.359150 0.007056 -0.026578 707367.000000 0 0 1
22.310137 20.223925 -30.403706 42.791760 0.736389 2.361010 -0.000735 -0.020153 960764.000000 0 0 1
22.345937 19.599225 -29.121586 41.611745 0.720008 2.345971 0.000746 -0.020808 -386534.000000 0 0 1
21.031737 19.764525 -28.359686 40.462850 0.754346 2.347430 0.016460 -0.021318 -469341.000000 0 0 1
20.965837 19.097025 -27.133676 39.249192 0.738785 2.334108 0.013687 -0.012757 -163661.000000 0 0 1
21.744437 19.709825 -26.142906 39.303298 0.736357 2.298502 0.004682 -0.008235 -323236.000000 0 0 1
21.892537 19.003025 -24.793006 38.145659 0.714860 2.278323 0.009993 0.001495 -166828.000000 0 0 1
22.613137 17.789425 -24.920406 38.063687 0.666569 2.284586 0.011405 -0.010702 292012.000000 0 0 1
22.653737 17.091025 -23.684406 36.962765 0.646341 2.266289 0.010321 -0.001115 -462890.000000 0 0 1
23.556037 15.832625 -23.683606 36.965823 0.591773 2.266192 0.033869 -0.006543 420492.000000 0 0 1
24.950237 16.133925 -23.645106 37.972475 0.574012 2.242973 0.057917 -0.017441 780560.000000 0 0 1
25.877737 15.063525 -23.791006 38.243679 0.527156 2.242205 0.057722 -0.022296 536047.000000 0 0 1
26.177837 14.150925 -22.516706 37.316617 0.495574 2.218550 0.058119 -0.006991 -367263.000000 0 0 1
25.008637 13.406225 -22.311106 36.096319 0.492081 2.237119 0.032603 0.000811 -91267.900000 0 0 1
24.885237 12.837725 -21.053506 35.033303 0.476268 2.215494 0.024045 -0.008658 347959.000000 0 0 1
23.421137 12.368825 -20.754106 33.649226 0.485878 2.235439 0.024571 -0.001195 585314.000000 0 0 1
22.529137 13.454225 -20.799006 33.483979 0.538352 2.241022 0.042754 -0.003068 -418210.000000 0 0 1
21.298437 13.074625 -21.381706 32.889916 0.550561 2.278511 0.028151 -0.003449 165826.000000 0 0 1
20.202337 14.144525 -21.179206 32.507857 0.610822 2.280370 0.029389 -0.003630 -684418.000000 0 0 1
20.507537 15.346825 -21.897706 33.698570 0.642445 2.278132 0.018583 0.005092 808884.000000 0 0 1
19.513737 16.417025 -21.883206 33.603264 0.699425 2.279991 0.008477 0.003405 -336145.000000 0 0 1
18.300937 16.224225 -22.752506 33.403986 0.725320 2.320103 0.018629 0.007317 -485015.000000 0 0 1
17.495437 15.138325 -22.263906 32.108265 0.713294 2.336995 0.018898 0.006830 929349.000000 0 0 1
16.373837 14.830325 -23.128506 31.983884 0.735973 2.379120 0.018294 -0.002870 1070580.000000 0 0 1
15.165937 14.084625 -22.496606 30.569259 0.748448 2.397825 0.022287 -0.005829 -86456.600000 0 0 1
14.018437 14.226625 -23.276906 30.671286 0.792769 2.432442 0.028047 -0.008037 -966940.000000 0 0 1
12.935137 13.639225 -22.574606 29.376165 0.811887 2.447238 0.035370 -0.010179 -47250.800000 0 0 1
11.649937 13.945925 -23.385006 29.615340 0.874860 2.480994 0.029974 -0.007678 -230750.000000 0 0 1
11.310637 15.337825 -23.440406 30.209800 0.935386 2.458969 0.021460 -0.006855 138815.000000 0 0 1
10.484337 15.729525 -24.535606 30.973137 0.982882 2.485132 0.025473 -0.007608 -542772.000000 0 0 1
10.367637 17.276925 -24.597606 31.796576 1.030314 2.455288 0.018459 -0.001776 1031190.000000 0 0 1
11.599437 18.062625 -24.623006 32.666463 0.999939 2.424577 0.016807 -0.002226 1843080.000000 0 0 1
12.688937 17.788325 -25.545116 33.615273 0.951180 2.433995 0.014225 -0.009752 622449.000000 0 0 1
12.334337 17.837225 -27.045616 34.666523 0.965802 2.465726 0.028202 -0.020752 -714391.000000 0 0 1
13.422537 17.808625 -27.916126 35.729843 0.924925 2.467560 0.013043 -0.022186 -116114.000000 0 0 1
12.927137 17.527525 -29.239796 36.459439 0.935322 2.501401 0.011587 -0.028353 677044.000000 0 0 1
14.001737 17.866225 -30.373176 37.918076 0.906075 2.499795 0.014641 -0.022063 1040670.000000 0 0 1
15.066337 16.919025 -30.586616 38.062961 0.843257 2.504081 0.006007 -0.018634 20255.000000 0 0 1
15.928537 17.525725 -31.497986 39.408025 0.833104 2.496890 0.010927 -0.020637 -713056.000000 0 0 1
17.235037 16.774025 -31.739196 39.821991 0.771843 2.493153 0.014732 -0.020245 -419943.000000 0 0 1
18.160137 16.924225 -30.668086 39.455690 0.750186 2.461126 0.016498 -0.017843 247376.000000 0 0 1
19.256237 16.020925 -30.791276 39.693518 0.693943 2.458660 0.016074 -0.012124 751674.000000 0 0 1
20.584637 16.731025 -31.191566 40.945919 0.682492 2.436844 0.012995 -0.014779 -101863.000000 0 0 1
20.599837 16.959425 -32.565436 42.100867 0.688775 2.455157 0.021933 -0.013966 226099.000000 0 0 1
21.830637 17.482725 -33.034836 43.284209 0.675250 2.439059 0.021690 -0.003676 -27738.400000 0 0 1
21.786537 17.865525 34.495319 44.539389 0.686833 0.684888 0.000135 0.009953 -515897.000000 0 0 1
22.542737 18.968025 34.123923 45.082181 0.699495 0.712198 0.015952 0.000573 -57066.100000 0 0 1
22.394737 19.164925 32.692326 44.018255 0.707839 0.733704 0.030654 -0.005527 -185782.000000 0 0 1
23.220437 20.395025 32.195256 44.628245 0.720708 0.764960 0.041657 -0.006173 -116131.000000 0 0 1
24.594237 20.096625 32.167196 45.204859 0.685098 0.779042 0.022407 -0.011193 -399743.000000 0 0 1
25.292537 21.330825 32.044876 46.060727 0.700629 0.801389 0.032985 -0.019558 -102490.000000 0 0 1
26.814837 21.103425 32.059346 46.820847 0.666767 0.816572 0.022246 -0.019975 -294474.000000 0 0 1
27.430337 20.716825 33.250147 47.824497 0.646854 0.802024 0.015445 -0.021881 -442928.000000 0 0 1
28.711637 20.210325 33.055355 48.223146 0.613343 0.815552 0.010269 -0.025370 -546475.000000 0 0 1
29.325037 19.509325 34.282045 49.151095 0.587041 0.798918 0.000542 -0.017748 -146757.000000 0 0 1
29.472137 20.271725 -33.554176 49.045208 0.602509 2.324231 -0.000557 -0.023525 861071.000000 0 0 1
28.254637 20.394325 -32.790096 47.848128 0.625210 2.325805 -0.003400 -0.032179 627462.000000 0 0 1
28.576237 20.543525 -31.289546 47.092180 0.623300 2.297530 0.003038 -0.027035 9499.840000 0 0 1
29.206337 19.410725 -30.731946 46.628734 0.586575 2.290388 0.001499 -0.020689 -52115.700000 0 0 1
29.660637 19.731125 -29.427336 46.206480 0.587007 2.261223 -0.009018 -0.028788 911817.000000 0 0 1
31.178837 19.338725 -29.287586 46.945382 0.555177 2.244475 0.030186 -0.026870 1228530.000000 0 0 1
32.150437 20.021525 -30.111956 48.386382 0.556976 2.242503 -0.007244 -0.018302 -534833.000000 0 0 1
33.371137 19.814925 -29.495856 48.746995 0.535829 2.220663 0.027786 -0.018795 -962556.000000 0 0 1
34.444137 20.777625 -30.054666 50.213457 0.542789 2.212471 0.036969 -0.012640 -7839.420000 0 0 1
35.062037 20.244525 -31.235806 51.135729 0.523630 2.227919 0.028264 -0.015301 379022.000000 0 0 1
-34.504165 21.153525 -31.716246 51.419153 -0.549976 2.235490 0.035310 -0.016846 523310.000000 0 0 1
-33.690565 20.546725 -32.913376 51.385916 -0.547642 2.265963 0.049154 -0.023464 216539.000000 0 0 1
-32.606365 19.739825 -32.481356 50.078680 -0.544379 2.276548 0.056912 -0.016959 600183.000000 0 0 1
-31.768365 19.264825 -33.540186 50.053038 -0.545123 2.305130 0.049877 -0.007139 571337.000000 0 0 1
-30.810165 18.113225 -33.087526 48.704615 -0.531473 2.317674 0.032245 -0.000721 209788.000000 0 0 1
-31.521765 16.905025 -32.948796 48.631520 -0.492262 2.315181 0.034079 -0.006408 303697.000000 0 0 1
-30.681565 15.785425 -32.991826 47.738859 -0.475174 2.333792 0.029140 -0.002405 -244032.000000 0 0 1
-31.556665 14.569425 -33.390186 48.197466 -0.432533 2.336132 0.034546 -0.007257 64396.000000 0 0 1
-31.091565 13.241325 -33.578126 47.639360 -0.402617 2.352994 0.030652 -0.010661 -219535.000000 0 0 1
-32.229865 12.401525 -33.568546 48.160246 -0.367320 2.342026 0.033243 -0.011956 123064.000000 0 0 1
-31.911565 10.903325 -33.698956 47.674418 -0.329238 2.355840 0.032225 -0.011223 -71484.600000 0 0 1
-31.301065 10.542525 34.093487 47.468593 -0.324877 0.769538 0.017496 -0.010852 109066.000000 0 0 1
-31.531465 9.178625 33.802890 47.128715 -0.283266 0.770954 0.022160 -0.007711 -696322.000000 0 0 1
-30.465965 8.611525 32.904086 45.661934 -0.275474 0.766126 0.028183 -0.002147 637759.000000 0 0 1
-29.227765 8.398625 33.648550 45.354427 -0.279812 0.734893 0.024109 0.001960 778311.000000 0 0 1
-28.310965 7.685925 32.835136 44.031016 -0.265093 0.729170 0.024258 0.013843 -51757.400000 0 0 1
19.712737 -3.742747 -31.741296 37.551432 -0.187631 2.577876 0.028948 -0.028320 -247658.000000 0 0 1
20.942637 -3.873147 -32.410376 38.781797 -0.182874 2.560223 0.045547 -0.034193 659561.000000 0 0 1
22.085937 -3.147147 -31.915766 38.939816 -0.141543 2.531540 0.052103 -0.032010 928919.000000 0 0 1
22.162137 -1.682447 -32.483926 39.359832 -0.075770 2.541541 0.043114 -0.027863 -526703.000000 0 0 1
23.283437 -0.936847 -32.079806 39.649843 -0.040215 2.513378 0.052829 -0.022064 105225.000000 0 0 1
23.092737 0.405553 -32.446816 39.827564 0.017560 2.522978 0.041233 -0.019819 -291120.000000 0 0 1
24.184637 1.392353 -31.979006 40.118476 0.057508 2.493297 0.036268 -0.015845 -305056.000000 0 0 1
25.426537 1.144453 -32.552186 41.321464 0.044980 2.477991 0.038081 -0.018311 -674265.000000 0 0 1
26.507137 1.844153 -31.973536 41.573263 0.069460 2.448211 0.037806 -0.012464 381315.000000 0 0 1
27.841737 1.456853 -32.669776 42.948795 0.052279 2.435138 0.041163 -0.020738 -15297.700000 0 0 1
28.170737 2.234053 -33.839016 44.086964 0.079138 2.445809 0.041635 -0.025358 -71754.900000 0 0 1
28.831837 1.516253 34.184195 44.745201 0.052541 0.701346 0.031986 -0.021771 23213.200000 0 0 1
29.569837 2.411153 33.084084 44.438109 0.081361 0.731014 0.045562 -0.013792 33028.500000 0 0 1
28.796437 3.299053 32.301326 43.399242 0.114067 0.731335 0.054363 -0.008075 47530.400000 0 0 1
28.521637 4.483353 32.968126 43.823299 0.155915 0.719255 0.031745 0.000183 -221646.000000 0 0 1
27.867837 5.514253 32.036326 42.817631 0.195348 0.725445 0.057917 -0.003329 -672561.000000 0 0 1
27.523537 6.743153 32.671346 43.248492 0.240263 0.714481 0.035140 0.000656 358780.000000 0 0 1
26.736037 7.600653 31.811446 42.243978 0.276978 0.718125 0.036947 0.000783 -45870.300000 0 0 1
26.887337 9.059753 32.054456 42.807665 0.325004 0.724544 0.029059 0.006133 -354289.000000 0 0 1
28.177237 9.472053 31.723546 43.474819 0.324292 0.752914 0.029172 0.004047 -583077.000000 0 0 1
28.428137 10.828853 32.037146 44.179201 0.363951 0.759524 0.026778 0.007506 -415920.000000 0 0 1
29.775637 11.195053 31.452116 44.734253 0.359630 0.791066 0.022155 0.008865 -1080200.000000 0 0 1
30.918937 10.633153 32.064576 45.794996 0.331234 0.795152 0.029810 -0.001095 -424966.000000 0 0 1
32.110337 10.807153 31.378236 46.178588 0.324654 0.823719 0.029545 -0.002370 -415718.000000 0 0 1
32.720237 12.228653 31.346206 46.933341 0.357660 0.839429 0.041531 -0.008477 -1077790.000000 0 0 1
33.161337 12.536753 32.635466 48.186285 0.361445 0.826741 0.047331 -0.018429 76089.500000 0 0 1
33.661437 13.892453 32.745616 48.973135 0.391416 0.838412 0.038396 -0.014635 -20711.700000 0 0 1
32.590737 14.990853 32.750896 48.574716 0.431116 0.830865 0.039308 -0.014674 -705838.000000 0 0 1
32.111337 15.421953 31.488506 47.544722 0.447735 0.846922 0.034747 -0.021136 716982.000000 0 0 1
31.189037 16.548053 31.604496 47.386056 0.487806 0.840678 0.033095 -0.021823 625246.000000 0 0 1
29.722937 16.117653 31.815226 46.426720 0.496884 0.815810 0.029824 -0.012829 -465131.000000 0 0 1
29.217637 15.279953 30.786826 45.110708 0.481854 0.819656 0.030525 -0.003715 793300.000000 0 0 1
27.817237 14.992753 30.899506 44.196842 0.494338 0.796611 0.014260 -0.006533 875132.000000 0 0 1
27.110137 14.579353 29.593326 42.699907 0.493415 0.805080 0.014091 0.004481 40752.900000 0 0 1
27.423637 13.259753 29.161176 42.169315 0.450373 0.807197 0.026033 0.003135 153613.000000 0 0 1
26.524437 12.937953 28.127066 40.768471 0.453820 0.809415 0.019722 0.004477 -2922.640000 0 0 1
26.335437 11.437153 27.832866 39.987900 0.409711 0.800940 0.014362 0.018299 185441.000000 0 0 1
27.434437 10.666753 27.386146 40.204837 0.370822 0.821443 0.016138 0.013814 92414.500000 0 0 1
26.929837 9.358953 27.280476 39.459226 0.334474 0.807429 0.017809 0.016935 811418.000000 0 0 1
28.050537 8.261253 27.097666 39.866834 0.286415 0.823437 0.026120 0.008604 604853.000000 0 0 1
28.465237 8.291153 25.715576 39.246704 0.283431 0.856311 0.012747 0.008214 183337.000000 0 0 1
29.543037 7.418753 25.416456 39.671466 0.246030 0.875421 0.015612 0.015996 462328.000000 0 0 1
30.163537 7.596253 23.962296 39.264916 0.246706 0.914392 0.023472 0.014615 159207.000000 0 0 1
30.740837 8.906453 23.714896 39.833657 0.282006 0.933097 0.021764 0.001366 -67584.500000 0 0 1
29.817237 9.913253 23.460296 39.213846 0.320971 0.929461 0.023296 -0.003047 -571070.000000 0 0 1
29.332537 9.935453 22.021296 38.000637 0.326589 0.952684 0.018570 0.003858 -658231.000000 0 0 1
30.294937 10.422553 21.150896 38.389754 0.331352 0.987292 0.025699 -0.006189 -172766.000000 0 0 1
29.911437 10.333553 19.755196 37.306087 0.332635 1.012734 0.021659 -0.010195 -883194.000000 0 0 1
30.906637 10.845453 18.679696 37.706433 0.337485 1.052503 0.030584 -0.027603 786992.000000 0 0 1
32.170737 10.207653 18.464196 38.471795 0.307248 1.070209 0.026867 -0.018118 1053360.000000 0 0 1
33.137137 10.324653 19.488196 39.805252 0.302041 1.059178 0.017399 -0.014018 95426.300000 0 0 1
34.628537 10.007553 19.164896 40.823767 0.281332 1.082124 0.018077 -0.007189 298200.000000 0 0 1
34.833137 8.630553 18.965796 40.589842 0.242877 1.084613 0.020816 0.000517 318215.000000 0 0 1
-34.736565 8.292153 18.021796 40.002173 -0.234330 1.103448 0.026843 0.002414 -83776.500000 0 0 1
-34.719165 6.755353 17.711796 39.557084 -0.192170 1.106546 0.027276 0.005156 497614.000000 0 0 1
34.648537 6.279553 17.088796 39.140527 0.179290 1.118979 0.023438 0.005143 831221.000000 0 0 1
34.938237 4.993053 16.616396 39.009173 0.141950 1.130772 0.029272 0.005016 631300.000000 0 0 1
33.669037 4.062353 16.460096 37.696704 0.120075 1.118930 0.028887 0.005463 696821.000000 0 0 1
33.272237 3.435653 17.678796 37.833653 0.102894 1.084588 0.026969 0.010258 14359.100000 0 0 1
32.174237 2.569353 17.509996 36.720336 0.079688 1.073732 0.010285 0.009117 115657.000000 0 0 1
31.839637 1.840053 18.858196 37.051044 0.057727 1.036798 0.006661 0.003178 -19471.100000 0 0 1
32.681637 0.715753 18.931096 37.775496 0.021897 1.045872 0.016512 0.001931 74503.200000 0 0 1
32.370337 -0.091347 20.050796 38.077309 -0.002822 1.016222 0.015363 0.002152 127340.000000 0 0 1
33.042937 -1.503847 20.135796 38.723992 -0.045481 1.023966 0.017042 -0.001778 167867.000000 0 0 1
32.537237 -2.329747 21.167496 38.886532 -0.071480 0.995194 0.014640 0.003654 62672.000000 0 0 1
33.130237 -3.632247 21.156196 39.476454 -0.109199 1.005200 0.022842 0.007209 -142247.000000 0 0 1
32.777137 -4.531347 22.327996 39.917580 -0.137376 0.977192 0.016648 0.014061 2859.820000 0 0 1
33.293937 -4.061947 23.572496 40.995710 -0.121403 0.958193 0.022941 0.008614 519783.000000 0 0 1
32.522037 -4.629747 24.629866 41.057858 -0.141407 0.927443 0.022147 0.005830 170505.000000 0 0 1
33.078737 -4.213547 25.960166 42.259757 -0.126697 0.909298 0.008776 0.003390 -66103.500000 0 0 1
32.188837 -4.434447 27.022496 42.261103 -0.136902 0.877056 0.029200 0.001934 304294.000000 0 0 1
32.717437 -3.785747 28.167886 43.338117 -0.115198 0.863269 0.036540 -0.001732 421369.000000 0 0 1
31.736837 -4.086947 29.334756 43.410343 -0.128071 0.828808 0.042229 -0.007619 219135.000000 0 0 1
31.848537 -5.463047 29.761996 43.931203 -0.169879 0.826481 0.038980 -0.006102 293824.000000 0 0 1
31.026137 -5.766347 30.886396 44.157008 -0.183758 0.796144 0.042342 -0.011213 51895.100000 0 0 1
31.115637 -7.292547 31.157196 44.633339 -0.230214 0.798098 0.043539 -0.014855 967753.000000 0 0 1
32.310837 -7.618947 31.908286 46.045383 -0.231571 0.805189 0.055330 -0.016656 788113.000000 0 0 1
32.785437 -8.936447 31.615146 46.414033 -0.266109 0.821457 0.045807 -0.018353 934638.000000 0 0 1
34.017537 -9.425047 32.482946 47.970471 -0.270284 0.826921 0.037371 -0.012459 1017040.000000 0 0 1
33.741637 -9.747647 33.809612 48.750431 -0.281234 0.804427 0.024109 -0.023232 59286.700000 0 0 1
35.013737 -10.033947 34.352507 50.067321 -0.279092 0.814645 0.003891 -0.023535 33977.400000 0 0 1
35.025937 -10.385947 -33.167676 49.343479 -0.288263 2.307945 0.022233 -0.015702 -272715.000000 0 0 1
34.620537 -9.304347 -32.343506 48.283070 -0.262548 2.304834 0.006760 -0.013727 27553.900000 0 0 1
-35.049365 -8.227947 -32.284206 48.357285 0.230578 2.301801 0.011840 -0.001735 -375226.000000 0 0 1
34.945637 -6.962347 -31.683876 47.681651 -0.196659 2.297605 0.012748 -0.006373 -313798.000000 0 0 1
34.726837 -6.953647 -30.318596 46.621065 -0.197625 2.278802 0.002208 -0.000605 107295.000000 0 0 1
33.989137 -5.837647 -29.888436 45.636150 -0.170091 2.284885 0.012082 -0.000505 -162188.000000 0 0 1
34.165837 -5.545347 -28.379496 44.759927 -0.160904 2.257560 -0.001235 0.007804 354416.000000 0 0 1
-35.148865 -4.909947 -28.125206 45.283303 0.138792 2.240935 -0.012858 0.015480 320372.000000 0 0 1
-35.039265 -4.768347 -26.699216 44.309540 0.135255 2.217503 -0.015388 0.018836 897071.000000 0 0 1
-33.584465 -4.415747 -26.227006 42.840062 0.130732 2.229646 -0.008530 0.026355 -307129.000000 0 0 1
-33.547065 -4.234347 -24.811606 41.939850 0.125557 2.203838 -0.001251 0.024711 391954.000000 0 0 1
-32.257865 -4.328747 -24.201606 40.558916 0.133395 2.210182 0.007969 0.021121 645862.000000 0 0 1
-31.136065 -3.372547 -24.691906 39.881309 0.107896 2.238437 0.015382 0.023992 -404436.000000 0 0 1
-30.600065 -3.700147 -25.977916 40.310137 0.120335 2.271102 0.014062 0.017269 740202.000000 0 0 1
-29.346265 -3.065247 -26.296016 39.523151 0.104074 2.298735 0.015603 0.007270 790376.000000 0 0 1
-28.699365 -3.744147 -27.504556 39.927093 0.129728 2.330725 0.011726 0.017807 173471.000000 0 0 1
-29.432565 -3.564447 -28.725826 41.281403 0.120519 2.340405 -0.003767 0.023817 24446.700000 0 0 1
-28.786965 -4.282647 -29.752946 41.620526 0.147687 2.367224 0.014683 0.010184 -1518430.000000 0 0 1
-29.578665 -4.631347 -31.006186 43.101396 0.155316 2.373702 0.000535 0.009615 -322262.000000 0 0 1
-30.768165 -5.421447 -30.798606 43.870562 0.174413 2.349045 -0.015527 0.009311 671714.000000 0 0 1
-31.884165 -4.805747 -30.213436 44.187633 0.149599 2.323690 -0.005481 0.012132 -729535.000000 0 0 1
-32.642665 -3.772547 -31.082956 45.231912 0.115061 2.328411 0.021048 0.004908 -766339.000000 0 0 1
-31.848065 -2.703847 -31.606846 44.951115 0.084695 2.350598 0.021365 0.011252 13532.400000 0 0 1
-31.801865 -1.563147 -30.778066 44.284212 0.049113 2.339233 0.001770 0.014017 186189.000000 0 0 1
-31.159165 -0.301947 -31.436986 44.263629 0.009690 2.360609 0.024633 0.018549 302913.000000 0 0 1
-32.072265 0.155653 -32.416216 45.601157 -0.004853 2.361522 0.016622 0.014319 195662.000000 0 0 1
-31.725165 1.417753 -32.995686 45.795321 -0.044659 2.375324 0.004794 0.023273 -101441.000000 0 0 1
-32.960665 2.288153 -33.207516 46.844212 -0.069310 2.358723 0.033399 0.008288 468744.000000 0 0 1
-33.881065 1.840753 -34.227098 48.195531 -0.054276 2.360538 0.028354 0.007721 891625.000000 0 0 1
-35.164265 2.486253 -34.157173 49.085838 -0.070587 2.340422 0.026336 0.009559 542968.000000 0 0 1
34.461837 1.808553 33.878333 48.359389 0.052432 0.794624 0.023095 0.004195 -445365.000000 0 0 1
34.686337 2.108353 32.542436 47.608794 0.060709 0.818197 0.016683 0.009089 492197.000000 0 0 1
-34.830465 1.377753 31.908706 47.257010 -0.039535 0.829538 0.015647 0.008941 74105.400000 0 0 1
-34.578665 1.720553 30.398156 46.072685 -0.049717 0.850261 0.023261 0.006616 -220324.000000 0 0 1
-34.030365 2.982053 30.132856 45.551590 -0.087406 0.847965 0.022520 0.002368 210646.000000 0 0 1
-33.736765 3.021953 28.751416 44.429106 -0.089336 0.866982 0.016478 0.003532 15532.400000 0 0 1
-33.383265 4.493353 28.397556 44.057392 -0.133795 0.870351 0.021419 0.006527 -114280.000000 0 0 1
-33.108965 4.711353 27.038826 43.005796 -0.141349 0.890884 0.025594 0.008973 216021.000000 0 0 1
-32.401765 5.919253 26.861286 42.502243 -0.180691 0.886669 0.031602 0.005879 -411929.000000 0 0 1
-31.594065 5.989153 25.559316 41.077166 -0.187343 0.899212 0.028960 -0.000382 -496880.000000 0 0 1
-30.468465 5.158053 25.597556 40.126896 -0.167702 0.879008 0.026205 0.003323 -429669.000000 0 0 1
-29.565565 5.315053 24.550596 38.795672 -0.177872 0.885609 0.027922 0.001287 -169026.000000 0 0 1
-29.952865 4.806353 23.112996 38.137721 -0.159108 0.919723 0.038370 -0.007593 -222616.000000 0 0 1
-30.141065 3.414553 23.119396 38.139867 -0.112805 0.919555 0.024818 -0.000914 -66297.600000 0 0 1
-30.879965 3.048553 21.975196 38.023350 -0.098404 0.954595 0.032420 -0.002656 -428565.000000 0 0 1
-30.804165 1.489853 21.672096 37.693448 -0.048328 0.958245 0.027019 -0.002950 653223.000000 0 0 1
-29.596265 0.991753 21.052796 36.333768 -0.033497 0.952770 0.031741 0.000298 757187.000000 0 0 1
-29.334865 1.589053 19.770796 35.411068 -0.054117 0.978434 0.023679 0.001328 -619739.000000 0 0 1
-28.139265 0.935553 19.098296 34.021146 -0.033235 0.974761 0.030648 0.007015 -545165.000000 0 0 1
-28.449165 -0.359247 18.661196 34.025348 0.012627 0.990287 0.032618 0.007272 111736.000000 0 0 1
-27.431865 -1.067847 17.982696 32.818057 0.038908 0.990883 0.033685 0.005288 -382550.000000 0 0 1
-27.371365 -0.750147 16.482296 31.959669 0.027399 1.028946 0.031358 0.004097 29540.300000 0 0 1
-26.891365 0.554153 16.178196 31.387683 -0.020604 1.029285 0.028215 0.006849 385460.000000 0 0 1
-27.207865 0.986053 14.832796 31.004065 -0.036226 1.071948 0.034820 0.002441 107347.000000 0 0 1
-26.640065 2.417853 14.623296 30.485732 -0.090512 1.070510 0.028297 0.000868 274883.000000 0 0 1
-25.287465 2.387653 14.201996 29.100747 -0.094141 1.060967 0.015913 -0.003411 203599.000000 0 0 1
-24.884165 3.655953 13.636596 28.610215 -0.145875 1.073975 0.014535 -0.002949 296605.000000 0 0 1
-23.348265 3.835453 13.489596 27.236398 -0.162817 1.052641 0.010655 -0.000738 220548.000000 0 0 1
-22.701065 4.143553 14.718896 27.370665 -0.180539 1.003016 0.006342 -0.000488 229459.000000 0 0 1
-21.372265 4.557953 14.453396 26.200178 -0.210117 0.986452 0.009386 0.001965 -181430.000000 0 0 1
-20.739965 5.309453 15.622096 26.502572 -0.250619 0.940411 0.009179 -0.001561 -421839.000000 0 0 1
-21.089565 6.698653 15.861396 27.225459 -0.307551 0.948879 0.006038 -0.002599 708396.000000 0 0 1
-20.381265 7.163153 17.026796 27.506699 -0.337973 0.903321 -0.005122 0.001073 -19895.800000 0 0 1
-20.475665 8.694353 17.216896 28.129453 -0.401548 0.912134 0.000674 0.000674 -647173.000000 0 0 1
-19.620965 9.367153 16.298296 27.172786 -0.445409 0.927542 0.003928 -0.003997 602459.000000 0 0 1
-19.671365 10.793853 16.345196 27.760319 -0.501851 0.941226 0.014564 -0.010945 -147005.000000 0 0 1
-19.055865 11.453853 17.608696 28.361645 -0.541204 0.900953 0.016363 -0.013582 112511.000000 0 0 1
-19.914165 11.313253 18.742496 29.594676 -0.516634 0.884978 0.016990 -0.006292 752482.000000 0 0 1
-19.346465 12.097353 19.745796 30.174959 -0.558815 0.857438 0.018916 0.002851 -193676.000000 0 0 1
-12.268763 -33.106118 -21.127406 41.144925 1.215898 2.110040 0.039080 -0.020797 -468096.000000 0 0 1
-12.950863 -33.710418 -20.047906 41.304185 1.204002 2.077585 0.057818 -0.018664 -429716.000000 0 0 1
-14.129863 -32.959618 -19.894206 41.009375 1.165794 2.077289 0.051539 -0.038816 258672.000000 0 0 1
-15.278463 -33.702718 -19.096806 41.641237 1.145176 2.047219 0.042913 -0.030935 -328035.000000 0 0 1
-15.798663 34.408253 -19.951106 42.796873 -1.140357 2.055766 0.041150 -0.034319 13419.200000 0 0 1
-16.497663 33.354053 -19.254906 41.897699 -1.111460 2.048307 0.042159 -0.027352 1309880.000000 0 0 1
-17.984563 33.666553 -18.816006 42.554946 -1.080167 2.028799 0.044038 -0.025037 373489.000000 0 0 1
-17.973763 -34.350018 -17.951806 42.722912 1.088720 2.004453 0.042266 -0.026886 -262960.000000 0 0 1
-19.200963 -34.108318 -17.274306 42.783828 1.058072 1.986417 0.017464 -0.019403 290560.000000 0 0 1
-19.326063 34.367853 -15.961906 42.537378 -1.058536 1.955457 0.014461 -0.017689 -480544.000000 0 0 1
-19.307063 32.968253 -15.888006 41.377496 -1.041013 1.964896 0.017719 -0.025759 -21558.200000 0 0 1
-19.664263 32.484453 -14.638706 40.696618 -1.026457 1.938746 0.018761 -0.017839 -239394.000000 0 0 1
-19.782363 30.965953 -14.634606 39.552546 -1.002305 1.949810 0.014624 -0.018149 26190.600000 0 0 1
-18.677063 30.298153 -14.033306 38.258914 -1.018375 1.946361 0.007177 -0.017914 287987.000000 0 0 1
-18.817163 28.917253 -14.199106 37.308280 -0.993912 1.961229 0.011719 -0.016675 42980.100000 0 0 1
-17.574363 28.156853 -13.644906 35.886628 -1.012802 1.960833 0.007108 -0.012981 348292.000000 0 0 1
-16.363863 28.402753 -14.322606 35.771909 -1.048108 1.982735 0.012105 -0.012315 -778473.000000 0 0 1
-15.353263 27.541653 -13.850806 34.439951 -1.062247 1.984685 0.023737 -0.014892 -458815.000000 0 0 1
-14.048663 28.083753 -14.416906 34.552993 -1.106955 2.001203 0.023512 -0.018826 -755351.000000 0 0 1
-14.061763 27.946253 -15.839706 35.065974 -1.104615 2.039479 0.017645 -0.011127 -478470.000000 0 0 1
-12.913063 28.568553 -16.347806 35.357605 -1.146278 2.051447 0.028245 -0.014366 -253967.000000 0 0 1
-13.075463 28.805853 -17.860206 36.328114 -1.144690 2.084764 0.034466 -0.025824 -211443.000000 0 0 1
-12.914363 27.597753 -18.562706 35.678997 -1.133116 2.117963 0.008579 -0.019154 32816.500000 0 0 1
-13.407463 27.624653 -19.878106 36.578965 -1.118942 2.145314 0.010187 -0.022317 -246975.000000 0 0 1
-12.909763 26.474553 -20.738906 36.023134 -1.117094 2.184269 -0.002918 -0.001286 -353812.000000 0 0 1
-11.582963 26.712553 -21.167006 35.996773 -1.161651 2.199411 0.009131 -0.005774 -263225.000000 0 0 1
-11.136763 25.530753 -21.756406 35.343855 -1.159469 2.233898 0.008799 -0.005108 -431666.000000 0 0 1
-9.776363 25.790353 -22.393206 35.527106 -1.208462 2.252753 0.017266 -0.008265 -487554.000000 0 0 1
-9.905763 26.622353 -23.564106 36.907194 -1.214584 2.263304 0.014397 -0.006434 242848.000000 0 0 1
-8.694963 26.654453 -24.313206 37.110568 -1.255470 2.285185 0.005199 -0.011805 135582.000000 0 0 1
-8.856263 27.355153 -25.648226 38.530109 -1.257694 2.299184 0.013527 -0.013487 -35272.000000 0 0 1
-9.654063 26.676253 -26.579096 38.875079 -1.223562 2.323624 0.010103 -0.009853 -131916.000000 0 0 1
-10.223963 27.417553 -27.621476 40.239255 -1.213869 2.327366 0.019825 -0.005915 -199188.000000 0 0 1
-11.301463 26.683853 -28.411406 40.582744 -1.170170 2.346314 0.008058 -0.001157 -121936.000000 0 0 1
-11.757763 27.447153 -29.567546 42.021792 -1.166068 2.351281 0.015373 0.004947 445708.000000 0 0 1
-12.949163 26.844753 -30.066806 42.335971 -1.121350 2.360572 0.005433 0.009689 334803.000000 0 0 1
-13.297663 27.177353 -31.581206 43.735672 -1.115752 2.377619 0.003239 0.008872 -116657.000000 0 0 1
-12.448763 26.474253 -32.464916 43.701586 -1.131254 2.408155 -0.000641 0.003228 33049.900000 0 0 1
-12.658563 25.120853 -32.595166 43.055097 -1.104028 2.429593 -0.014838 0.000812 4017.260000 0 0 1
-11.877563 24.300053 -33.677716 43.194417 -1.116159 2.464947 -0.006779 0.005540 318703.000000 0 0 1
-12.436363 24.494953 34.077103 43.771164 -1.100999 0.678478 -0.006715 0.010575 142933.000000 0 0 1
-11.652163 23.701553 33.181245 42.409098 -1.113875 0.672272 -0.019455 0.010751 127375.000000 0 0 1
-12.225063 23.672953 31.716336 41.422058 -1.094103 0.698687 -0.018920 0.025446 240248.000000 0 0 1
-13.490463 23.070853 31.518406 41.323925 -1.041673 0.703294 -0.018822 0.010116 -37513.700000 0 0 1
-14.023363 23.116553 30.247306 40.570054 -1.025511 0.729425 -0.004215 0.015422 274758.000000 0 0 1
-15.130163 22.035353 30.129136 40.277084 -0.969099 0.725683 -0.003930 0.014135 194272.000000 0 0 1
-14.579063 20.750053 30.264016 39.484484 -0.958325 0.697456 -0.025632 0.009293 10970.300000 0 0 1
-15.594463 19.791753 30.272886 39.387161 -0.903460 0.694150 -0.021863 0.015069 -2896.580000 0 0 1
-14.934563 18.389953 30.158706 38.350738 -0.888718 0.665850 -0.044926 0.010873 66600.100000 0 0 1
-14.561163 18.065953 28.761456 36.954398 -0.892407 0.678849 -0.028095 0.002171 110838.000000 0 0 1
-14.235963 16.686853 28.569026 36.018092 -0.864491 0.654774 -0.039730 0.005479 35006.000000 0 0 1
-13.907263 16.279853 27.114766 34.549329 -0.863833 0.668402 -0.024853 -0.003011 578783.000000 0 0 1
-12.770063 16.961153 26.565606 34.007156 -0.925441 0.674248 -0.040919 0.000362 308421.000000 0 0 1
-12.374863 16.372153 25.362506 32.625778 -0.923563 0.680312 -0.035590 -0.004264 110807.000000 0 0 1
-11.234563 17.080253 24.604396 31.989479 -0.988991 0.693302 -0.025703 0.002261 73297.500000 0 0 1
-11.649663 18.205353 23.854596 32.189925 -1.001552 0.736152 -0.021161 0.000358 -206700.000000 0 0 1
-12.085363 19.426053 24.495296 33.517862 -1.014270 0.751284 -0.019872 -0.005833 81735.400000 0 0 1
-11.049063 20.194353 25.354906 34.245656 -1.070154 0.737156 -0.039033 0.000094 -15605.500000 0 0 1
-10.807263 19.720353 26.636036 34.859256 -1.069470 0.701148 -0.039842 0.006310 102425.000000 0 0 1
-11.766263 20.175853 27.576996 36.138632 -1.042832 0.702717 -0.024782 0.009963 -147635.000000 0 0 1
-11.597263 19.555053 28.973266 36.828614 -1.035498 0.665343 -0.029925 0.012256 -400973.000000 0 0 1
-10.528263 20.110753 29.708196 37.388015 -1.088515 0.652462 -0.041589 0.010107 -87398.900000 0 0 1
-10.706363 19.745953 31.029736 38.306310 -1.073957 0.626572 -0.033401 0.002416 -58981.000000 0 0 1
-9.768563 20.589353 31.921696 39.221690 -1.127799 0.620000 -0.030789 -0.003483 1107930.000000 0 0 1
-8.400563 20.119753 31.964086 38.692076 -1.175271 0.598619 -0.029193 -0.008759 998648.000000 0 0 1
-7.654963 21.073753 32.707576 39.654597 -1.222370 0.600927 -0.004820 -0.013833 -859038.000000 0 0 1
-6.373563 20.556553 33.290251 39.641330 -1.270145 0.573907 -0.010096 -0.009266 -1223350.000000 0 0 1
-6.490563 19.609853 34.368565 40.098280 -1.251161 0.541167 -0.019837 -0.011888 -154147.000000 0 0 1
-5.250663 19.253053 -34.099889 39.510150 -1.304552 2.612106 -0.027570 -0.006693 -31744.800000 0 0 1
-4.467063 18.143753 34.174801 38.949550 -1.329394 0.500356 -0.034450 -0.003935 -141175.000000 0 0 1
-5.104863 16.883753 34.213782 38.492904 -1.277182 0.476003 -0.035196 -0.002337 -20222.300000 0 0 1
-4.602563 16.058153 33.208502 37.173277 -1.291661 0.466065 -0.022978 -0.000151 93860.600000 0 0 1
-5.384963 14.688553 33.069799 36.583645 -1.219402 0.441877 -0.021727 -0.001324 -123061.000000 0 0 1
-4.701763 13.610353 33.687624 36.636107 -1.238176 0.403939 -0.014178 0.000530 168996.000000 0 0 1
-5.369463 12.331953 33.601164 36.193182 -1.160141 0.380756 -0.012022 0.001240 269898.000000 0 0 1
-4.453963 11.153053 34.068429 36.123209 -1.190851 0.338910 -0.001147 -0.013118 323404.000000 0 0 1
-4.415763 11.014553 -33.540486 35.577852 -1.189512 2.801534 0.008630 -0.012532 -810805.000000 0 0 1
-3.491663 10.051253 -33.260756 34.921302 -1.236452 2.831971 0.021449 -0.016252 -704112.000000 0 0 1
-3.340563 9.693053 -31.761246 33.375012 -1.238909 2.829351 0.029328 -0.014305 -125052.000000 0 0 1
-4.507363 9.151953 -31.181006 32.807464 -1.113164 2.825393 0.027166 -0.012669 -165566.000000 0 0 1
-4.283763 8.419553 -30.004846 31.456801 -1.100143 2.836579 0.031869 -0.007052 332852.000000 0 0 1
-5.605663 7.806853 -29.454506 30.982872 -0.948063 2.826187 0.028906 -0.010985 458048.000000 0 0 1
-5.408363 6.962053 -28.292426 29.634135 -0.910341 2.839528 0.031577 -0.011700 118812.000000 0 0 1
-6.583963 6.182553 -28.139576 29.553482 -0.753966 2.831017 0.038118 -0.019395 -92274.800000 0 0 1
-6.620063 5.395553 -26.840566 28.166527 -0.683839 2.833535 0.036282 -0.017364 -172282.000000 0 0 1
-6.896163 6.090253 -25.619086 27.221055 -0.723420 2.796812 0.016128 -0.006304 617424.000000 0 0 1
-5.883263 7.054553 -25.323446 26.938011 -0.875684 2.793613 0.026639 -0.008774 -210265.000000 0 0 1
-6.389763 7.952853 -24.140906 26.208020 -0.893952 2.741761 0.012172 -0.002771 186103.000000 0 0 1
-6.536263 7.306053 -22.897406 24.907677 -0.840952 2.737072 0.006679 0.001178 56923.000000 0 1 0
-7.789263 7.667253 -22.333706 24.864711 -0.777505 2.686474 -0.000930 0.008536 268980.000000 0 1 0
-7.723563 7.980953 -20.778506 23.560462 -0.801786 2.650722 -0.001164 0.003161 -43845.400000 0 1 0
-7.053463 9.180553 -20.414406 23.468743 -0.915683 2.625705 -0.016583 0.004486 -120815.000000 0 1 0
-7.019063 9.345653 -19.007406 22.313448 -0.926623 2.590277 -0.006386 0.002469 -60679.100000 0 1 0
-8.304763 9.554253 -18.139206 22.119757 -0.855248 2.532287 -0.010308 0.005553 1397.300000 0 1 0
-7.969263 9.765553 -16.753406 20.965491 -0.886340 2.496584 -0.016526 0.003715 362555.000000 0 1 0
-9.100463 10.214753 -16.015806 21.063373 -0.843024 2.434668 -0.008888 0.000271 -15112.700000 0 1 0
-9.528163 11.666953 -16.199806 22.120972 -0.885967 2.392531 -0.015402 -0.000177 -820020.000000 0 1 0
-8.481063 12.564253 -16.032206 22.064010 -0.977036 2.384189 -0.029442 0.006086 -366174.000000 0 1 0
-8.929063 13.899453 -16.191506 23.131966 -0.999780 2.346141 -0.009813 -0.000737 490251.000000 0 1 0
-7.736263 14.821753 -15.824106 23.020349 -1.089741 2.328694 0.010441 -0.003939 137441.000000 0 1 0
-7.238663 14.934253 -14.525006 22.054613 -1.119462 2.289743 0.011602 -0.001714 -137734.000000 0 1 0
-8.132363 15.450853 -13.551506 22.102206 -1.086301 2.230812 0.000065 -0.016879 -290944.000000 0 1 0
-7.426863 16.311653 -12.431206 21.811997 -1.143535 2.177211 -0.002114 -0.012524 600631.000000 0 1 0
-6.846763 17.599853 -12.698406 22.757032 -1.199788 2.162769 0.016919 -0.012089 -221424.000000 0 1 0
-5.768863 17.592953 -13.585106 22.964035 -1.253937 2.203816 0.020663 -0.005967 -609870.000000 0 1 0
-5.374863 18.989453 -14.105006 24.257776 -1.294967 2.191322 0.038651 -0.002490 -5818.670000 0 1 0
-4.629163 19.806553 -13.240606 24.270195 -1.341199 2.147842 0.028793 -0.009333 -48329.800000 0 1 0
-4.640163 21.129253 -13.761606 25.638999 -1.354620 2.137371 0.051828 -0.007242 62183.700000 0 0 1
-4.179163 22.143553 -12.681606 25.857794 -1.384260 2.083387 0.049755 -0.003236 -332219.000000 0 0 1
-4.422063 23.559553 -12.940506 27.240850 -1.385258 2.065806 0.054626 -0.009027 387188.000000 0 0 1
-5.739163 24.081953 -13.127606 28.021644 -1.336842 2.058367 0.056590 -0.013880 855683.000000 0 0 1
-6.683363 24.077153 -11.864606 27.661264 -1.300032 2.014099 0.043062 -0.012289 80663.100000 0 0 1
-7.024563 22.768053 -11.500006 26.457114 -1.271535 2.020464 0.047160 -0.013328 -310344.000000 0 0 1
-7.868963 22.703253 -10.375306 26.172605 -1.237153 1.978409 0.040745 -0.011645 126409.000000 0 0 1
-7.241663 23.122053 -8.987506 25.842723 -1.267280 1.925995 0.035748 -0.007718 176114.000000 0 0 1
-7.185163 24.494953 -8.779506 26.994611 -1.285468 1.902053 0.022603 -0.003360 -37601.900000 0 0 1
-6.360363 24.787153 -7.663806 26.713126 -1.319616 1.861778 0.021611 -0.006697 155812.000000 0 0 1
-6.445763 26.292653 -7.396306 28.063443 -1.330383 1.837504 0.006555 0.001152 -75.169500 0 0 1
-5.823263 27.198253 -8.341406 29.038499 -1.359876 1.862154 0.007581 -0.003100 -152973.000000 0 0 1
-6.225363 27.227253 -9.701806 29.566933 -1.346016 1.905120 0.008971 0.001748 103735.000000 0 0 1
-5.653263 28.392353 -10.575206 30.820774 -1.374255 1.921032 0.001533 0.004139 206229.000000 0 0 1
-6.318563 29.607653 -10.281906 31.972722 -1.360541 1.898198 0.001085 0.000683 75781.900000 0 0 1
-7.084863 29.984053 -11.450606 32.868756 -1.338764 1.926632 0.009453 -0.000401 -171836.000000 0 0 1
-7.977763 31.201853 -11.108306 34.067504 -1.320477 1.902937 0.001042 0.004363 -588620.000000 0 0 1
-9.035763 30.804153 -10.303206 33.714937 -1.285471 1.881362 -0.003877 0.006426 -778186.000000 0 0 1
-9.959963 31.854053 -10.095906 34.868451 -1.267752 1.864545 -0.001328 0.005245 -354015.000000 0 0 1
-11.056063 31.359653 -9.178206 34.494983 -1.231845 1.840114 0.008032 0.003767 -548950.000000 0 0 1
-11.719863 30.229253 -9.654406 33.828546 -1.200939 1.860212 0.013373 -0.002516 -313260.000000 0 0 1
-13.044663 30.244753 -9.154506 34.186450 -1.163599 1.841886 0.026953 0.000919 621616.000000 0 0 1
-13.941163 29.012353 -9.526806 33.568329 -1.122850 1.858555 0.027804 -0.002929 248495.000000 0 0 1
-13.552763 27.709953 -8.981606 32.127685 -1.115912 1.854132 0.025179 0.004472 232713.000000 0 0 1
-14.561963 26.755353 -9.323506 31.856357 -1.072368 1.867818 0.038006 0.006675 274239.000000 0 0 1
-14.434463 25.346553 -8.701706 30.438811 -1.053117 1.860716 0.035411 0.010012 225092.000000 0 0 1
-13.361463 24.539753 -9.199506 29.416987 -1.072199 1.888860 0.035494 0.010113 367087.000000 0 0 1
-13.624163 23.188853 -8.900106 28.329360 -1.039596 1.890374 0.035253 0.008762 -205092.000000 0 0 1
-12.700163 22.142953 -9.542606 27.251897 -1.050050 1.928541 0.039818 0.009683 -259465.000000 0 0 1
-12.876363 21.764053 -10.843206 27.514539 -1.036551 1.975874 0.048389 0.004048 12949.300000 0 0 1
-12.209163 20.556853 -11.119806 26.368504 -1.034858 2.006124 0.051039 -0.004353 -125108.000000 0 0 1
-12.348463 20.242453 -12.622306 26.861945 -1.023036 2.059969 0.050608 -0.003062 -287945.000000 0 0 1
-13.672263 19.966953 -13.009906 27.474855 -0.970382 2.064080 0.045166 -0.000113 -230397.000000 0 0 1
-13.681963 19.518353 -14.366206 27.830741 -0.959413 2.113204 0.036908 0.003574 467051.000000 0 0 1
-15.121363 19.094453 -14.804906 28.503316 -0.900999 2.116957 0.027126 0.005287 542910.000000 0 0 1
-15.977963 20.174853 -15.042306 29.809243 -0.900968 2.099737 0.007314 0.008753 -251682.000000 0 0 1
-17.263063 19.691753 -15.416506 30.388274 -0.851024 2.102866 0.000314 0.018103 58892.100000 0 0 1
-18.068063 20.778553 -16.099806 31.896817 -0.855059 2.099885 -0.008874 0.022814 -377745.000000 0 0 1
-18.512463 21.848353 -15.306606 32.470818 -0.867862 2.061669 0.000292 0.015820 174769.000000 0 0 1
-18.703463 23.025853 -16.096006 33.750420 -0.888612 2.067935 -0.002434 0.010963 9292.100000 0 0 1
-18.910163 24.287053 -15.232106 34.343446 -0.909234 2.030322 -0.004980 0.015127 323031.000000 0 0 1
-20.241463 24.319353 -14.747706 34.909062 -0.876657 2.006955 -0.009742 0.023973 119361.000000 0 0 1
-20.436563 25.428253 -13.986706 35.494748 -0.893806 1.975830 0.000671 0.005898 -2138.250000 0 0 1
-25.704593 -0.950347 3.837494 26.006838 0.036955 1.422698 0.041715 -0.008702 147927.000000 0 0 1
-25.686213 -0.170747 4.992594 26.167474 0.006647 1.378826 0.024509 -0.005706 -585784.000000 0 0 1
-26.849613 -0.473647 5.668094 27.445461 0.017639 1.362777 0.028471 -0.002604 -737582.000000 0 0 1
-27.057023 0.428853 6.852994 27.914690 -0.015849 1.322763 0.023980 0.000171 -272928.000000 0 0 1
-27.324613 1.778553 6.580494 28.162042 -0.064998 1.334951 0.024888 -0.003488 17561.300000 0 0 1
-27.626113 2.666253 7.625594 28.782993 -0.096214 1.302661 0.035088 -0.000747 496113.000000 0 0 1
-26.427083 3.060653 8.578994 27.952772 -0.115301 1.258851 0.030311 -0.002165 392743.000000 0 0 1
-26.089063 2.024653 9.408694 27.807588 -0.077450 1.225634 0.034042 -0.002612 -886249.000000 0 0 1
-24.871563 2.220453 10.003494 26.899720 -0.089041 1.189762 0.023926 -0.010312 -1289680.000000 0 0 1
-24.360063 0.982353 10.752494 26.645709 -0.040305 1.155418 0.010355 -0.004446 -597191.000000 0 0 1
-23.746263 -0.013747 9.925794 25.737261 0.000579 1.174875 0.014639 -0.006576 413381.000000 0 0 1
-24.500463 -1.053647 9.294494 26.225379 0.042979 1.208515 0.020002 -0.000389 -164325.000000 0 0 1
-23.477163 -1.857747 8.392794 25.001348 0.078965 1.228455 0.025406 0.000871 713085.000000 0 0 1
-22.461063 -2.475847 9.146994 24.378201 0.109785 1.186171 0.010562 0.005575 66400.800000 0 1 0
-21.302663 -2.865347 8.452094 23.096570 0.133704 1.196147 0.012054 0.002337 415835.000000 0 1 0
-20.048563 -2.721847 9.369694 22.296737 0.134938 1.137101 0.013018 0.003180 -67549.200000 0 1 0
-19.640463 -1.424347 9.749894 21.973552 0.072394 1.111062 0.017659 0.004801 258069.000000 0 1 0
-20.307463 -0.776747 10.847894 23.036345 0.038231 1.080482 0.013955 0.004497 -238427.000000 0 1 0
-19.894863 0.682553 11.062994 22.774136 -0.034295 1.063552 0.012786 0.007461 -345800.000000 0 1 0
-20.434363 1.619553 10.174794 22.884767 -0.079091 1.110058 0.005954 0.008194 358841.000000 0 1 0
-20.661963 2.786753 10.913794 23.532820 -0.134065 1.088552 0.002167 0.009316 -307075.000000 0 1 0
-21.550863 3.782553 10.082094 24.091410 -0.173748 1.139011 0.005190 0.009139 -345636.000000 0 1 0
-21.758263 4.968153 10.766894 24.779640 -0.224486 1.121307 0.008513 0.003710 461686.000000 0 1 0
-22.366963 6.004053 10.052894 25.246591 -0.262252 1.161256 0.016051 0.005851 -356274.000000 0 0 1
-22.685963 7.228053 11.001794 26.228556 -0.308445 1.137947 0.021916 0.003869 -473074.000000 0 0 1
-23.405163 6.803053 12.102794 27.213247 -0.282870 1.109913 0.017051 0.000282 65191.400000 0 0 1
-23.382563 7.805253 13.105494 27.918098 -0.322176 1.082155 0.023182 -0.001202 -387646.000000 0 0 1
-24.023863 7.350053 14.408294 28.961495 -0.296905 1.050084 0.022998 -0.007279 437081.000000 0 0 1
-25.427313 7.164153 14.230194 30.006195 -0.274631 1.076694 0.030429 -0.008542 296622.000000 0 0 1
-26.169273 6.750353 15.326194 31.069122 -0.252447 1.054924 0.026791 -0.011582 -243657.000000 0 0 1
-27.666393 6.561753 15.073994 32.182467 -0.232871 1.083327 0.025501 -0.005879 -224569.000000 0 0 1
-27.993683 5.430353 14.314694 31.906825 -0.191605 1.105553 0.035028 -0.000353 100125.000000 0 0 1
-28.535283 5.663553 13.023494 31.873964 -0.195929 1.149884 0.035360 0.002283 -326502.000000 0 0 1
-28.707573 4.393253 12.130794 31.473506 -0.151856 1.175124 0.047473 0.003019 82368.600000 0 0 1
-29.633463 3.475753 12.696494 32.425668 -0.116758 1.168473 0.040739 0.000466 289562.000000 0 0 1
-30.021563 2.469753 11.770794 32.341081 -0.082081 1.198283 0.046587 -0.002663 -639342.000000 0 0 1
-31.091133 1.573953 12.328694 33.483318 -0.050581 1.193720 0.048947 0.001682 -788039.000000 0 0 1
-30.612543 0.453953 13.053394 33.282502 -0.014828 1.167774 0.043846 0.000588 55038.700000 0 0 1
-31.567013 -0.118847 13.959994 34.516255 0.003765 1.154422 0.056691 0.004741 232035.000000 0 0 1
-31.125713 -1.383947 14.822694 34.502718 0.044434 1.126736 0.049877 -0.002233 -58323.300000 0 0 1
-31.094793 -2.602247 14.050494 34.220962 0.083493 1.147705 0.035403 -0.006892 155527.000000 0 0 1
-31.099643 -3.737047 14.939094 34.703456 0.119590 1.125773 0.028358 -0.001913 -146865.000000 0 0 1
-31.122303 -5.126547 14.275394 34.621758 0.163257 1.145792 0.029817 -0.005582 -147842.000000 0 0 1
-32.363213 -5.393447 13.676194 35.545817 0.165136 1.175861 0.023125 -0.016758 -77672.600000 0 0 1
-32.343443 -6.629147 13.056694 35.503819 0.202161 1.194203 0.032732 -0.019404 -339750.000000 0 0 1
-33.576383 -6.813447 12.133594 36.345848 0.200205 1.230425 0.040742 -0.010650 188407.000000 0 0 1
-34.824683 -6.896747 12.760494 37.724712 0.195512 1.225737 0.021436 -0.011140 -78645.800000 0 0 1
35.145899 -5.670747 13.206094 37.970942 -0.159970 1.215578 0.027700 -0.011559 48569.400000 0 0 1
33.625169 -5.557047 12.867994 36.429631 -0.163784 1.209776 0.028121 -0.008622 820554.000000 0 0 1
32.856649 -6.609447 13.494494 36.129565 -0.198511 1.188014 0.026943 -0.005837 205036.000000 0 0 1
31.483509 -6.311347 13.304094 34.756918 -0.197843 1.177998 0.013014 -0.001469 519420.000000 0 0 1
30.442059 -7.380847 13.778894 34.220662 -0.237866 1.156388 -0.008530 -0.007466 334827.000000 0 0 1
30.248569 -7.305347 15.174594 34.620980 -0.236973 1.117083 0.007880 -0.003370 -274037.000000 0 0 1
29.322069 -8.309847 15.495794 34.190011 -0.276158 1.100416 0.018427 0.007479 -196174.000000 0 0 1
28.903919 -8.291047 16.980594 34.532862 -0.279348 1.056729 -0.000657 -0.003428 -210567.000000 0 0 1
29.860509 -8.734047 17.914894 35.900933 -0.284557 1.048341 -0.008503 -0.002010 -300696.000000 0 0 1
29.318109 -8.592547 19.184094 36.075099 -0.285096 1.010093 0.003049 -0.002957 124273.000000 0 0 1
30.353599 -8.875247 20.348794 37.605643 -0.284465 0.999040 0.004152 -0.002187 457096.000000 0 0 1
31.346229 -7.907147 20.517094 38.289165 -0.247097 1.005287 0.010405 -0.000171 -101645.000000 0 0 1
32.541079 -8.226747 19.819294 38.979553 -0.247623 1.037408 -0.000394 0.012865 77026.300000 0 0 1
33.835519 -7.715147 20.503094 40.308097 -0.224186 1.037169 0.010351 0.002570 130557.000000 0 0 1
34.174659 -8.381447 21.708194 41.344910 -0.240506 1.018021 0.017040 0.007331 -620381.000000 0 0 1
-35.170801 -8.016647 22.230994 42.372974 0.224106 1.018492 0.013887 0.009450 -703788.000000 0 0 1
-34.817691 -8.733647 23.597494 42.958002 0.245768 0.989252 0.011408 0.012068 -79553.100000 0 0 1
35.138994 -8.136047 24.740894 43.738495 -0.227530 0.969569 0.014241 0.011886 317850.000000 0 0 1
34.915395 -9.149047 25.769794 44.349432 -0.256273 0.950763 0.005063 0.005446 -204800.000000 0 0 1
34.384039 -8.527047 27.092394 44.597875 -0.243090 0.917910 0.022443 0.005650 -221225.000000 0 0 1
-35.276504 -7.735347 27.833494 45.595731 0.215861 0.914179 -0.003287 0.001319 -561635.000000 0 0 1
34.771354 -6.988147 28.885294 45.741026 -0.198332 0.887315 0.004608 -0.005656 -352602.000000 0 0 1
-34.768497 -6.332847 29.839494 46.253094 0.180168 0.869596 0.008634 -0.004040 214228.000000 0 0 1
-34.238417 -7.272247 30.755394 46.594517 0.209290 0.849892 0.001083 -0.006504 41634.500000 0 0 1
-32.832073 -7.176247 30.947594 45.685852 0.215190 0.826574 0.004039 -0.016012 294665.000000 0 0 1
-32.212743 -7.993747 32.079094 46.158738 0.243241 0.802413 -0.003215 -0.011908 -175426.000000 0 0 1
-32.300733 -9.381547 31.979094 46.411348 0.282667 0.810638 -0.004980 -0.011512 325908.000000 0 0 1
-31.741123 -10.001447 33.146594 46.970464 0.305247 0.787400 -0.007441 -0.012953 -223232.000000 0 0 1
-31.832843 -11.531847 33.059394 47.320576 0.347557 0.797321 0.000919 -0.018542 553129.000000 0 0 1
-33.181493 -11.866147 33.421694 48.567752 0.343441 0.811866 0.004854 -0.023852 510812.000000 0 0 1
-33.369843 -13.285147 33.195194 48.907693 0.378883 0.824762 0.012678 -0.024438 -554606.000000 0 0 1
-34.702807 -13.754047 33.720894 50.304645 0.377346 0.836138 0.012165 -0.025169 -602807.000000 0 0 1
-35.035080 -15.109147 33.544194 50.803111 0.407159 0.849607 0.015065 -0.022904 426619.000000 0 0 1
34.167779 -15.278547 33.924294 50.514639 -0.420492 0.834466 0.004812 -0.020827 475162.000000 0 0 1
33.737279 -16.788547 34.181394 50.876585 -0.461747 0.834094 0.003810 -0.018415 29709.600000 0 0 1
34.349499 -17.244447 -33.653509 51.086374 -0.465270 2.289962 0.005513 -0.016597 240369.000000 0 0 1
34.163649 -18.624847 -33.515209 51.354737 -0.499124 2.281836 -0.001363 -0.019270 -319704.000000 0 0 1
34.696480 -19.112147 -32.175409 51.033095 -0.503487 2.252969 0.014022 -0.015919 409415.000000 0 0 1
33.798339 -18.932447 -31.063509 49.655884 -0.510609 2.246665 0.019037 -0.011479 309678.000000 0 0 1
34.267589 -19.754647 -30.032909 49.663762 -0.522947 2.220217 0.019067 -0.006795 -529960.000000 0 0 1
33.255889 -19.838947 -28.868909 48.300640 -0.537882 2.211416 0.032055 -0.001348 92945.400000 0 0 1
32.034729 -20.458647 -29.156309 47.904805 -0.568348 2.225129 0.017843 0.000920 -69140.700000 0 0 1
31.022679 -19.614447 -29.697109 47.212830 -0.563804 2.251069 0.018186 0.004166 -27503.000000 0 0 1
29.779489 -20.488947 -30.069009 47.018721 -0.602642 2.264659 0.012708 0.008508 -42705.300000 0 0 1
28.801049 -19.789047 -30.795509 46.577571 -0.602012 2.293168 -0.000322 0.012979 -970426.000000 0 0 1
27.754649 -20.669247 -30.978009 46.445401 -0.640109 2.300940 -0.001930 0.014289 -290177.000000 0 0 1
26.681689 -20.025247 -31.918409 46.170421 -0.643836 2.334107 -0.001582 0.016385 528503.000000 0 0 1
27.102549 -20.161647 -33.276109 47.416659 -0.639587 2.348691 -0.003874 0.012250 494588.000000 0 0 1
26.028579 -19.746947 -34.118209 47.238554 -0.649023 2.377851 0.022224 0.007080 417332.000000 0 0 1
26.366929 -19.855847 33.387994 46.949203 -0.645456 0.779662 0.019318 0.003360 -468759.000000 0 0 1
27.215819 -18.818547 33.034794 46.756134 -0.604969 0.786208 0.009480 -0.003821 -250393.000000 0 0 1
27.489039 -18.775547 31.655194 45.937127 -0.599238 0.810552 0.010869 -0.004553 -140535.000000 0 0 1
26.421789 -18.082247 30.744794 44.388297 -0.600158 0.805663 0.010795 -0.002125 923.093000 0 0 1
26.398049 -16.668747 31.024494 44.013899 -0.563216 0.788543 0.014488 -0.006693 651953.000000 0 0 1
25.560699 -15.974847 30.085094 42.587063 -0.558583 0.786344 0.029363 -0.004078 193912.000000 0 0 1
25.219339 -14.582947 30.647694 42.284258 -0.524269 0.760050 0.036677 -0.003279 219627.000000 0 0 1
26.356489 -13.738247 30.744594 42.762530 -0.480501 0.768490 0.033821 -0.002497 511389.000000 0 0 1
25.970689 -12.479147 31.244894 42.502343 -0.447933 0.744933 0.060345 -0.011279 229228.000000 0 0 1
27.192109 -11.522447 31.442394 43.137010 -0.400805 0.754088 0.059333 -0.024771 333338.000000 0 0 1
27.741869 -11.247047 30.201594 42.523448 -0.385168 0.780966 0.046630 -0.019861 -987888.000000 0 0 1
29.125389 -11.222147 30.167294 43.408414 -0.367774 0.802426 0.042793 -0.015663 -702785.000000 0 0 1
29.804609 -10.599747 28.935594 42.871178 -0.341692 0.829909 0.036090 -0.014425 -187328.000000 0 0 1
29.771059 -9.149747 28.964194 42.531851 -0.298174 0.821669 0.043474 -0.015814 108525.000000 0 0 1
30.214749 -8.725447 27.690094 41.902336 -0.281133 0.848879 0.033173 -0.003836 13557.100000 0 0 1
30.084329 -7.217647 27.591094 41.453947 -0.235464 0.842520 0.040372 -0.001365 429742.000000 0 0 1
28.756899 -6.856447 27.227694 40.191011 -0.234058 0.826496 0.042435 -0.005416 121835.000000 0 0 1
28.677029 -5.431347 27.257994 39.935820 -0.187180 0.819557 0.044919 -0.006032 258964.000000 0 0 1
27.262899 -4.795347 27.190294 38.801715 -0.174112 0.794348 0.044661 -0.000926 103489.000000 0 0 1
26.650559 -4.999947 25.942294 37.526715 -0.185455 0.807507 0.039842 0.002286 -816016.000000 0 0 1
25.439939 -4.347447 25.846494 36.525772 -0.169256 0.784667 0.044561 0.002028 -1133820.000000 0 0 1
24.666439 -4.644247 24.586594 35.135492 -0.186103 0.795728 0.040599 0.013285 -322244.000000 0 0 1
25.256339 -4.012647 23.445594 34.694089 -0.157560 0.828773 0.038335 0.014641 413490.000000 0 0 1
24.916139 -4.704147 22.246594 33.732090 -0.186603 0.850632 0.040029 0.010425 77521.300000 0 0 1
25.279239 -3.850347 21.056994 33.124946 -0.151151 0.881902 0.032556 0.008848 513444.000000 0 0 1
24.306039 -2.827947 20.814294 32.125000 -0.115827 0.865951 0.031806 0.014079 417782.000000 0 0 1
24.867439 -1.903947 19.930794 31.925711 -0.076415 0.896578 0.019853 0.008504 -954477.000000 0 0 1
23.867539 -0.951647 19.339294 30.733911 -0.039851 0.890209 0.031693 0.004054 -703986.000000 0 0 1
22.915139 -1.659347 18.586694 29.552025 -0.072287 0.890597 0.033229 0.001064 -732964.000000 0 0 1
21.847339 -0.830247 18.254294 28.481832 -0.037984 0.875113 0.032797 -0.000344 -236519.000000 0 0 1
20.737239 -1.631747 17.530694 27.203325 -0.078525 0.870516 0.039684 -0.010733 -193109.000000 0 0 1
21.072639 -2.072047 16.207194 26.665007 -0.098014 0.917500 0.059327 -0.016037 -139588.000000 0 0 1
20.102139 -2.922547 15.647894 25.641643 -0.144373 0.914416 0.066690 -0.028062 -110928.000000 0 0 1
20.440339 -3.380947 14.183394 25.107905 -0.163921 0.970487 0.071834 -0.038905 -8538.530000 0 0 1
19.429639 -4.210147 13.635894 24.107546 -0.213388 0.969602 0.079386 -0.038143 732307.000000 0 1 0
19.658339 -4.525047 12.276794 23.614529 -0.226244 1.024082 0.070329 -0.031096 -474330.000000 0 1 0
18.487539 -5.395247 11.848694 22.611707 -0.283946 1.019247 0.056758 -0.027401 -485890.000000 0 1 0
18.564739 -6.650947 12.434194 23.312953 -0.344012 1.008229 0.069841 -0.027422 554499.000000 0 1 0
17.342039 -7.315147 12.232594 22.447584 -0.399171 0.994478 0.051970 -0.013250 -341890.000000 0 1 0
17.377839 -8.845147 12.553094 23.190646 -0.470814 0.998814 0.063130 -0.021123 -244713.000000 0 1 0
18.174939 -9.545847 11.618294 23.588903 -0.483620 1.055799 0.050447 -0.033303 422494.000000 0 1 0
17.995439 -10.959847 11.627194 24.065446 -0.547036 1.066549 0.066269 -0.029915 -54921.500000 0 1 0
18.743839 -11.651247 10.454794 24.421010 -0.556154 1.128400 0.076570 -0.029496 261335.000000 0 1 0
18.127939 -11.359847 9.176294 23.278158 -0.559784 1.165597 0.059820 -0.023164 295484.000000 0 1 0
18.784939 -11.882847 8.041394 23.637681 -0.564027 1.223673 0.055571 -0.027026 -187563.000000 0 1 0
18.474839 -11.268847 6.678394 22.647461 -0.547708 1.271461 0.048498 -0.020550 -59872.600000 0 1 0
18.946739 -9.906447 6.550394 22.361222 -0.481766 1.273501 0.056816 -0.016857 588170.000000 0 1 0
19.389639 -9.684247 5.222394 22.293858 -0.463211 1.334347 0.031221 -0.013546 -171618.000000 0 1 0
19.857839 -8.198147 5.123494 22.086049 -0.391528 1.336685 0.045830 -0.018150 -568009.000000 0 1 0
20.465839 -7.936547 3.901694 22.294899 -0.369941 1.394887 0.046396 -0.019231 121851.000000 0 1 0
21.060339 -6.687847 4.052394 22.465241 -0.307485 1.389418 0.072539 -0.014923 -904542.000000 0 1 0
21.728939 -6.202647 2.827094 22.773055 -0.278060 1.446333 0.054476 -0.013002 -678180.000000 0 1 0
20.846739 -6.246147 1.751894 21.832773 -0.291110 1.490469 0.037989 -0.019606 255765.000000 0 1 0
21.285939 -5.368247 0.693994 21.963399 -0.247045 1.539193 0.031965 -0.013385 -65420.200000 0 1 0
-25.234723 -15.806647 0.000894 29.776523 0.559594 1.570766 -0.001592 0.004672 -1233810.000000 0 0 1
-24.305963 -15.090647 -0.759406 28.619646 0.555618 1.597334 -0.007973 0.009598 -737165.000000 0 0 1
-23.003663 -15.222647 -0.276006 27.585751 0.584590 1.580802 -0.007064 0.005373 -338576.000000 0 0 1
-22.592563 -14.716647 1.099794 26.985425 0.577354 1.530030 -0.004673 -0.000745 -971966.000000 0 0 1
-23.018463 -15.523447 2.217994 27.852227 0.593331 1.491078 -0.005451 0.010947 208801.000000 0 0 1
-22.096663 -15.216547 3.240994 27.024246 0.603058 1.450578 0.007337 0.016210 251182.000000 0 0 1
-22.336463 -15.981647 4.568494 27.842445 0.621050 1.405967 0.001276 0.018724 -605165.000000 0 0 1
-21.910363 -17.316247 4.538294 28.293330 0.668812 1.409699 0.006562 0.008282 62131.800000 0 0 1
-22.407863 -17.952647 5.700094 29.272870 0.675458 1.374822 0.006921 -0.000144 39008.800000 0 0 1
-22.598163 -19.448047 5.489494 30.315640 0.710618 1.388714 0.002108 0.003450 -2404.770000 0 0 1
-23.067563 -20.083247 6.641594 31.297924 0.716348 1.356965 0.002708 0.003456 -197059.000000 0 0 1
-23.198063 -21.467847 6.377894 32.244319 0.746681 1.371684 0.008887 0.004466 -121820.000000 0 0 1
-23.841163 -22.295447 7.498994 33.492132 0.751908 1.344979 0.009869 0.004289 117880.000000 0 0 1
-23.001863 -22.516047 8.633094 33.325491 0.774725 1.308754 0.012169 0.001115 106260.000000 0 0 1
-23.647163 -23.399947 9.566494 34.615945 0.780144 1.290791 0.012906 -0.005198 215664.000000 0 0 1
-22.712663 -23.854947 10.707394 34.634835 0.809923 1.256496 0.005272 -0.005646 104709.000000 0 0 1
-22.489163 -22.782147 11.573394 34.040154 0.791870 1.223888 0.019555 -0.002978 -129742.000000 0 0 1
-21.584363 -23.159947 12.570494 34.062959 0.820597 1.192824 0.034866 -0.005317 -758448.000000 0 0 1
-21.721963 -22.349647 13.883394 34.118895 0.799640 1.151725 0.031187 -0.000555 -743100.000000 0 0 1
-22.901963 -22.710147 14.522394 35.371607 0.781193 1.147721 0.025872 -0.001471 -360573.000000 0 0 1
-23.331663 -21.828947 15.522994 35.522285 0.752135 1.118543 0.021281 0.014987 794848.000000 0 0 1
-24.837063 -21.895347 16.009194 36.777441 0.722533 1.120426 0.008133 0.015120 812349.000000 0 0 1
-25.823833 -21.664747 15.039094 36.910784 0.698040 1.151142 0.003573 0.016522 5371.530000 0 0 1
-26.186723 -22.801147 14.257794 37.535602 0.716397 1.181165 -0.010195 0.016844 72802.300000 0 0 1
-27.338493 -23.746247 14.767494 39.106985 0.715194 1.183574 -0.020114 0.013040 135379.000000 0 0 1
-27.064603 -24.447747 15.963294 39.812207 0.734641 1.158227 -0.004916 0.013798 -325704.000000 0 0 1
-28.123213 -25.291607 16.318594 41.193167 0.732436 1.163478 -0.017609 0.014651 -173881.000000 0 0 1
-27.900843 -26.727267 15.745094 41.721838 0.763918 1.183828 -0.011718 0.010396 -60262.500000 0 0 1
-28.450353 -27.017877 14.490894 41.825521 0.759579 1.217001 -0.023775 0.007443 -159824.000000 0 0 1
-29.702433 -27.660627 14.618794 43.139934 0.749819 1.225082 -0.026596 0.006210 -121230.000000 0 0 1
-30.328923 -28.178727 13.303494 43.484102 0.748664 1.259871 -0.019796 -0.003777 -506820.000000 0 0 1
-29.710783 -29.253217 12.708594 43.588871 0.777638 1.274943 -0.016364 -0.014973 -146234.000000 0 0 1
-30.280203 -29.614167 11.445594 43.873582 0.774278 1.306866 -0.013349 -0.011752 -503019.000000 0 0 1
-29.629243 -30.783637 10.795694 44.068938 0.804504 1.323305 -0.016014 -0.023716 -514157.000000 0 0 1
-29.795613 -32.047877 11.411394 45.222393 0.821801 1.315699 -0.016579 -0.020873 302414.000000 0 0 1
-29.098043 -33.080037 10.674994 45.331451 0.849353 1.333076 -0.000248 -0.017293 -234880.000000 0 0 1
-29.210393 -34.477675 11.315994 46.583353 0.867915 1.325422 0.006073 -0.013964 471670.000000 0 0 1
-30.529573 34.110439 11.282494 47.147339 -0.840739 1.329149 0.000813 -0.015725 191405.000000 0 0 1
-30.565953 32.856505 11.910794 46.429456 -0.821498 1.311361 0.003422 -0.016611 -1479060.000000 0 0 1
-31.880393 32.528155 12.577094 47.250647 -0.795455 1.301370 0.008759 -0.015415 -286068.000000 0 0 1
-33.016713 32.304645 11.740894 47.660697 -0.774498 1.321891 0.005367 -0.015107 428281.000000 0 0 1
-33.519493 33.518035 11.194494 48.706588 -0.785376 1.338888 0.005583 -0.010754 -523610.000000 0 0 1
-34.934817 33.296916 10.541894 49.398963 -0.761398 1.355739 0.001587 0.002355 647633.000000 0 0 1
-34.985866 32.687725 9.283594 48.771746 -0.751452 1.379280 -0.010100 0.009157 854534.000000 0 0 1
34.222489 32.724235 8.813394 48.163577 0.763022 1.386771 -0.005197 0.006271 815947.000000 0 0 1
34.042399 32.305455 7.382394 47.508179 0.759225 1.414772 -0.002189 0.005518 -62865.500000 0 0 1
34.274169 30.894275 7.162594 46.695584 0.733581 1.416799 0.000995 0.007433 55447.800000 0 0 1
33.781149 30.440935 5.916694 45.856556 0.733435 1.441409 0.017952 0.005615 133454.000000 0 0 1
34.092229 28.939965 5.646194 45.074173 0.703839 1.445202 0.015690 0.006161 273941.000000 0 0 1
33.147799 28.070715 6.269394 43.886751 0.702654 1.427452 0.011787 0.008437 175403.000000 0 0 1
33.671259 27.451185 7.422794 44.072884 0.683983 1.401569 -0.001749 0.011723 152909.000000 0 0 1
32.731649 26.296985 7.885694 42.720913 0.676818 1.385145 -0.004176 0.009207 190249.000000 0 0 1
32.860319 25.166325 7.082694 41.991773 0.653573 1.401318 -0.005612 0.007049 32019.300000 0 0 1
31.846789 24.213495 7.356294 40.677098 0.650068 1.388950 -0.004803 0.014403 -506807.000000 0 0 1
31.802899 22.860825 6.531494 39.707708 0.623251 1.405556 -0.001798 0.012637 -12726.200000 0 0 1
32.739639 21.860725 6.892994 39.966093 0.588728 1.397459 0.004915 0.007894 -693369.000000 0 0 1
34.035059 22.173725 6.497894 41.137354 0.577427 1.412176 0.021031 0.003530 -1095520.000000 0 0 1
34.999775 21.001725 6.680294 41.360404 0.540459 1.408571 0.006642 0.002265 -264834.000000 0 0 1
34.819228 20.068425 5.630694 40.581092 0.522856 1.431596 0.019366 -0.003326 448946.000000 0 0 1
-34.942402 18.939825 5.977494 40.192274 -0.496704 1.421520 0.010971 -0.000584 215561.000000 0 0 1
-35.276673 17.742625 5.037194 39.807257 -0.466010 1.443917 0.013752 -0.008112 -108843.000000 0 0 1
-34.717579 17.844225 3.709494 39.210802 -0.474771 1.476051 0.018424 -0.006960 358766.000000 0 0 1
-35.276885 16.840825 2.851094 39.194397 -0.445396 1.497990 0.006818 -0.007720 -673381.000000 0 0 1
-34.293477 16.382025 1.746894 38.045564 -0.445650 1.524864 0.011359 -0.000192 394218.000000 0 0 1
-33.166823 15.577825 2.062694 36.700974 -0.439100 1.514564 0.016718 -0.011452 666485.000000 0 0 1
-32.061353 16.246525 2.637794 36.039393 -0.469019 1.497539 0.018386 -0.007998 428447.000000 0 0 1
-30.769353 15.430225 3.012394 34.553139 -0.464831 1.483504 -0.001915 -0.005538 620756.000000 0 0 1
-30.856983 14.564025 4.125394 34.369799 -0.440985 1.450477 0.003172 -0.001567 -487188.000000 0 0 1
-29.605463 14.036325 4.411394 33.059980 -0.442724 1.436961 0.006960 0.005976 -632914.000000 0 0 1
-29.574893 13.268125 5.730694 32.917447 -0.421712 1.395812 0.009062 0.017470 -223230.000000 0 0 1
-29.954063 11.907725 5.650794 32.725697 -0.378378 1.397255 0.002944 0.027749 410118.000000 0 0 1
-29.798883 11.262925 6.933394 32.602130 -0.361367 1.356493 0.000775 0.026855 -97583.700000 0 0 1
-29.764103 9.757525 6.897094 32.073058 -0.316788 1.354060 0.010236 0.014160 134188.000000 0 0 1
-31.028863 9.135425 7.006494 33.095880 -0.286327 1.357479 0.005121 0.023410 109753.000000 0 0 1
-30.911973 7.747525 6.958994 32.619041 -0.245573 1.355802 0.016714 0.010248 308732.000000 0 0 1
-32.281573 7.042125 6.756894 33.724577 -0.214782 1.369076 0.021376 0.003786 408890.000000 0 0 1
-33.134333 7.091625 7.891194 34.791466 -0.210845 1.341991 0.028092 -0.001792 340481.000000 0 0 1
-34.327998 6.335725 7.672994 35.741121 -0.182510 1.354430 0.014822 0.005361 456618.000000 0 0 1
-34.962846 6.016725 9.060594 36.615515 -0.170420 1.320746 0.015318 0.000005 13419.700000 0 0 1
34.930748 7.031525 9.766994 36.945820 0.198644 1.303256 0.020189 0.003886 854398.000000 0 0 1
-34.676739 7.799825 10.542994 37.073821 -0.221247 1.282438 0.022703 0.002426 662053.000000 0 0 1
35.243223 8.790625 11.541694 38.112603 0.244440 1.263134 0.011966 -0.005269 -34117.900000 0 0 1
34.496539 8.203125 12.639394 37.643814 0.233460 1.228381 0.011678 -0.007084 762583.000000 0 0 1
34.139069 9.216425 13.524894 37.859493 0.263681 1.205486 0.024849 -0.007166 -556186.000000 0 0 1
33.519309 8.683325 14.818594 37.663442 0.253482 1.166418 0.024016 -0.007747 -641458.000000 0 0 1
32.183049 8.287825 14.731494 36.351803 0.252045 1.153546 0.033028 -0.012038 -183318.000000 0 0 1
31.805659 7.888625 16.042294 36.485415 0.243120 1.115542 0.018650 -0.003376 983637.000000 0 0 1
30.314309 7.369925 16.188694 35.147502 0.238490 1.092133 0.018551 0.003481 857810.000000 0 0 1
29.349089 8.392525 15.968094 34.449724 0.278522 1.088834 0.008161 0.001148 398571.000000 0 0 1
27.998069 7.992325 16.095494 33.269115 0.278064 1.065808 0.008787 0.003883 391237.000000 0 0 1
27.400109 7.522025 17.436494 33.337338 0.267925 1.020392 0.009831 0.006305 -719874.000000 0 0 1
27.405089 8.588225 18.397394 34.106606 0.303687 1.001062 0.023389 0.001305 261512.000000 0 0 1
26.721389 8.331425 19.618894 34.181080 0.302237 0.959451 0.030651 0.004997 -296381.000000 0 0 1
27.170669 7.096925 20.456994 34.743347 0.255490 0.941219 0.024222 -0.000626 -280092.000000 0 0 1
26.778229 7.043125 21.786494 35.232520 0.257192 0.904138 0.006152 0.008139 59137.600000 0 0 1
27.214419 5.800025 22.397694 35.720044 0.209982 0.893056 0.022469 0.010526 -524162.000000 0 0 1
26.608029 5.504725 23.823794 36.136717 0.204004 0.850951 0.020618 0.012399 589168.000000 0 0 1
25.239539 5.116025 23.991894 35.196860 0.199989 0.820783 0.013366 0.011479 705237.000000 0 0 1
24.433639 6.338725 23.918294 34.774515 0.253830 0.812327 0.010570 0.012039 658581.000000 0 0 1
22.897639 6.136125 24.147894 33.838952 0.261829 0.776155 0.015824 0.003988 911223.000000 0 0 1
22.234939 5.451325 23.105094 32.526217 0.240427 0.780797 0.025742 0.021670 -791533.000000 0 0 1
20.858239 5.482725 23.124994 31.621065 0.257042 0.750547 0.041542 0.005314 -1394500.000000 0 0 1
20.155139 4.740425 21.983594 30.199001 0.230998 0.755458 0.038600 0.008595 1082700.000000 0 0 1
18.812839 5.079025 21.571794 29.069944 0.263690 0.734650 0.051155 -0.003006 2145280.000000 0 0 1
17.730539 4.646325 22.466794 28.995123 0.256289 0.684323 0.053741 -0.008799 1105060.000000 0 0 1
16.468339 4.376625 21.583294 27.499083 0.259756 0.668305 0.067669 -0.011354 15582.500000 0 0 1
16.656539 3.230325 20.769994 26.819171 0.191559 0.684958 0.057227 -0.007085 644032.000000 0 0 1
15.542539 2.909725 19.925894 25.437733 0.185068 0.670807 0.064737 -0.019857 807626.000000 0 0 1
14.381539 2.000325 20.505994 25.126196 0.138203 0.616131 0.066346 -0.021467 371519.000000 0 0 1
14.650139 0.590725 20.705994 25.371513 0.040300 0.616146 0.042589 -0.011888 1013540.000000 0 0 1
13.542439 -0.060475 21.390594 25.317164 -0.004466 0.564409 0.047767 -0.016495 794887.000000 0 0 1
13.792439 -1.557875 21.513494 25.602515 -0.112475 0.572982 0.027975 -0.007757 33000.200000 0 0 1
13.650239 -2.226175 20.260594 24.531134 -0.161664 0.598976 0.041907 -0.014964 160432.000000 0 1 0
13.928239 -3.618375 20.362294 24.934143 -0.254169 0.615226 0.023387 0.000293 -123635.000000 0 1 0
13.461539 -4.395075 19.092894 23.771165 -0.315580 0.638156 0.024437 0.000336 -145645.000000 0 1 0
12.070739 -4.563775 18.997794 22.966213 -0.361473 0.596679 0.027319 -0.001312 -306461.000000 0 1 0
11.709139 -5.251975 17.810494 21.952240 -0.421636 0.624374 0.025376 -0.002900 381245.000000 0 1 0
10.174039 -5.450075 17.718594 21.146228 -0.491786 0.577357 0.017213 0.000555 259561.000000 0 1 0
9.668439 -6.402575 18.590994 21.911110 -0.584914 0.557702 0.017436 0.006640 -302960.000000 0 1 0
8.262939 -6.246375 18.630894 21.316744 -0.647299 0.507416 0.013731 0.006058 550927.000000 0 1 0
7.470439 -7.300575 19.494894 22.116888 -0.773899 0.491876 0.011559 0.001869 -73280.900000 0 1 0
7.471439 -8.644875 18.973294 22.148186 -0.858080 0.542051 0.008027 -0.003375 465554.000000 0 1 0
8.704439 -9.313675 19.303894 23.133355 -0.819198 0.583641 0.029089 -0.009731 782576.000000 0 1 0
8.884139 -10.758675 18.752594 23.373848 -0.880541 0.639675 0.042929 -0.015242 -3441.360000 0 1 0
9.257839 -10.663175 17.404194 22.412426 -0.855827 0.681637 0.042792 -0.015472 34408.800000 0 1 0
9.574539 -11.985975 16.961694 22.869946 -0.896780 0.735257 0.028202 -0.017898 205646.000000 0 1 0
9.514839 -12.129675 15.410594 21.797880 -0.905624 0.785582 0.027160 -0.018592 -602654.000000 0 1 0
10.172839 -13.209075 14.988194 22.419016 -0.914530 0.838541 0.014774 -0.012897 -438142.000000 0 1 0
9.872539 -13.405675 13.588194 21.489955 -0.936027 0.886272 0.008443 -0.005516 -404525.000000 0 1 0
10.591639 -14.625575 12.909394 22.197809 -0.944022 0.950149 0.016571 -0.006067 129556.000000 0 1 0
11.964839 -14.464575 12.655894 22.639632 -0.879699 0.977599 0.002651 -0.003915 -238179.000000 0 1 0
12.247639 -13.626075 11.553494 21.660051 -0.838623 1.008180 -0.009194 -0.000506 -1158760.000000 0 1 0
13.677939 -13.414675 11.053594 22.118351 -0.775681 1.047489 0.014668 -0.011389 -102065.000000 0 1 0
14.221739 -14.553675 10.339394 22.824776 -0.796933 1.100680 0.027609 -0.007993 -143679.000000 0 1 0
15.529939 -14.218575 9.942094 23.285019 -0.741345 1.129653 0.034148 -0.017411 14424.700000 0 1 0
16.337539 -15.446875 9.390694 24.366088 -0.757383 1.175155 0.030331 -0.018907 22770.900000 0 1 0
16.747039 -16.351175 10.405494 25.614420 -0.773438 1.152466 0.035403 -0.017276 525772.000000 0 0 1
15.763339 -17.324275 10.840194 25.809362 -0.832539 1.137340 0.052385 -0.014765 530414.000000 0 0 1
16.196639 -18.091975 12.138994 27.147852 -0.840618 1.107227 0.045191 -0.014022 -451362.000000 0 0 1
17.308739 -18.909875 11.965694 28.290522 -0.829577 1.134089 0.064644 -0.019493 -416756.000000 0 0 1
17.543739 -19.696575 13.092594 29.447476 -0.843143 1.110059 0.049411 -0.018136 -96441.700000 0 0 1
18.984339 -20.233075 13.249694 30.746330 -0.817229 1.125267 0.022491 -0.022599 -621527.000000 0 0 1
19.887739 -19.228175 13.577794 30.815602 -0.768538 1.114514 0.017174 -0.025984 -1166540.000000 0 0 1
21.129839 -19.784875 13.244394 31.832771 -0.752538 1.141686 0.007908 -0.027341 -170329.000000 0 0 1
22.002739 -18.989775 12.235194 31.534617 -0.712030 1.172344 -0.000133 -0.023847 -682443.000000 0 0 1
21.999139 -19.367075 10.860394 31.256901 -0.721855 1.215940 -0.007828 -0.007385 10834.000000 0 0 1
20.875139 -18.988275 10.061994 29.959468 -0.738100 1.228285 0.003002 -0.012413 261354.000000 0 0 1
20.459339 -17.482475 10.068994 28.733362 -0.707100 1.212768 0.032393 -0.012047 318584.000000 0 0 1
21.502239 -16.590175 9.642994 28.819568 -0.657155 1.229617 0.020426 -0.001971 256068.000000 0 0 1
20.962539 -15.333975 9.448494 27.637526 -0.631552 1.221888 0.040812 -0.018295 81605.100000 0 0 1
-34.009493 25.156553 8.082094 43.067599 -0.636871 1.382016 0.016669 0.004837 167327.000000 0 0 1
-33.088573 24.376253 8.857494 42.041772 -0.634933 1.358523 0.019132 -0.007248 634483.000000 0 0 1
-32.075893 25.234153 9.389094 41.878163 -0.666579 1.344674 0.026967 -0.004750 -439766.000000 0 0 1
-31.050043 24.449253 10.193094 40.813850 -0.667020 1.318378 0.033130 -0.022028 -449079.000000 0 0 1
-30.285883 23.637553 9.340394 39.537471 -0.662725 1.332300 0.033670 -0.018460 101783.000000 0 0 1
-29.319423 22.771153 9.908594 38.423095 -0.660345 1.309968 0.032800 -0.018671 15166.800000 0 0 1
-28.499663 22.043053 8.853194 37.101294 -0.658341 1.329849 0.030354 -0.021170 -771100.000000 0 0 1
-29.198883 21.152153 8.086594 36.951067 -0.626926 1.350165 0.021470 -0.022587 -803099.000000 0 0 1
-28.443693 20.321653 7.252494 35.701708 -0.620360 1.366231 0.019529 -0.020468 -610730.000000 0 0 1
-29.193403 19.460853 6.205394 35.629854 -0.587969 1.395741 0.017783 -0.016544 -299863.000000 0 0 1
-29.895893 18.402953 6.843294 35.766797 -0.551788 1.378278 0.015562 -0.007806 456249.000000 0 0 1
-30.873433 17.889353 5.956094 36.175584 -0.525166 1.405399 0.006899 -0.006519 446585.000000 0 0 1
-31.648423 16.569253 6.340194 36.281688 -0.482303 1.395145 0.017109 -0.002479 368222.000000 0 0 1
-32.565823 16.623753 7.425294 37.309744 -0.471986 1.370441 0.007685 0.000128 292787.000000 0 0 1
-33.507083 15.569453 7.436394 37.688625 -0.434979 1.372182 0.013650 0.001586 -270892.000000 0 0 1
-34.350050 15.770353 8.700694 38.785720 -0.430402 1.344544 0.006566 -0.000747 86775.400000 0 0 1
35.283672 16.859753 8.526394 40.023595 0.445758 1.356117 0.008618 -0.008071 233740.000000 0 0 1
34.749650 17.295053 9.734394 40.017689 0.461809 1.325079 0.017648 -0.004039 -221582.000000 0 0 1
33.947829 18.591553 9.523094 39.859632 0.501038 1.329547 0.022234 -0.005073 -163831.000000 0 0 1
32.670789 18.359553 8.958394 38.531889 0.511976 1.336156 0.009437 -0.003324 -598452.000000 0 0 1
32.000699 19.518753 9.190694 38.593980 0.547702 1.330348 0.000463 0.007342 -346988.000000 0 0 1
30.521219 19.441753 8.725594 37.224489 0.567176 1.334190 -0.013030 0.008159 -181056.000000 0 0 1
29.837909 20.694453 8.746694 37.350580 0.606392 1.334423 -0.019696 0.013867 -500932.000000 0 0 1
28.542759 20.628553 8.246994 36.169589 0.625815 1.340764 -0.027387 0.010066 -508661.000000 0 0 1
28.411579 20.427553 6.706294 35.629722 0.623356 1.381445 -0.042558 0.019741 -792651.000000 0 0 1
28.479879 19.087553 6.254994 34.850583 0.590453 1.390338 -0.027018 0.014853 -76637.900000 0 0 1
28.429589 18.819353 4.847994 34.437082 0.584740 1.429549 -0.026985 0.014119 -575165.000000 0 0 1
27.124289 19.107453 4.104294 33.431528 0.613700 1.447719 0.005570 0.014663 802980.000000 0 0 1
25.974729 18.294253 4.576194 32.098408 0.613613 1.427741 0.010264 0.005102 1581560.000000 0 0 1
24.682539 18.645853 4.143294 31.209973 0.646965 1.437648 0.032300 0.000652 93889.300000 0 0 1
24.039339 19.939253 4.726594 31.588041 0.692438 1.420600 0.038176 0.006218 -394553.000000 0 0 1
24.592239 21.166753 4.242694 32.723235 0.710678 1.440776 0.018797 0.011293 129485.000000 0 0 1
24.013839 22.187153 4.959994 33.068652 0.745881 1.420237 0.005738 0.023117 -253922.000000 0 0 1
24.644339 23.575153 4.699494 34.426974 0.763228 1.433863 -0.015234 0.024804 789701.000000 0 0 1
26.037449 23.590753 5.051894 35.496394 0.736138 1.427990 -0.020639 0.028480 751932.000000 0 0 1
26.658949 24.850553 4.787294 36.758233 0.750305 1.440188 -0.012325 0.026413 -408133.000000 0 0 1
28.067439 24.953753 5.413294 37.944363 0.726740 1.427644 -0.022719 0.020677 492474.000000 0 0 1
29.091059 24.095553 4.867294 38.086427 0.691749 1.442650 -0.029842 0.015557 537403.000000 0 0 1
29.380209 24.034853 3.477694 38.117781 0.685658 1.479434 -0.025717 0.008650 -766005.000000 0 0 1
30.184739 25.206353 2.869794 39.429867 0.695762 1.497950 -0.018362 0.004948 -723976.000000 0 0 1
29.541139 26.435753 2.924894 39.750257 0.729979 1.497148 -0.016549 0.001596 -437205.000000 0 0 1
30.314649 27.392453 2.226594 40.917993 0.734803 1.516353 0.024223 -0.003021 -437763.000000 0 0 1
29.769509 28.882253 2.220694 41.537208 0.770272 1.517308 0.024642 0.002290 954401.000000 0 0 1
28.462159 29.159753 1.718394 40.784048 0.797504 1.528650 0.052144 -0.000055 794487.000000 0 0 1
27.376689 28.570153 2.440494 39.644580 0.806727 1.509198 0.022143 0.012867 -674510.000000 0 0 1
26.024729 29.113353 2.004294 39.101036 0.841356 1.519515 -0.009526 0.013170 -671508.000000 0 0 1
25.835409 30.383553 2.542694 39.963658 0.866123 1.507128 0.002646 0.005181 242612.000000 0 0 1
24.575139 30.990353 2.280094 39.617399 0.900342 1.513212 -0.007980 0.018567 368180.000000 0 0 1
24.577839 32.386353 2.983094 40.765732 0.921627 1.497554 0.010724 0.005860 -234733.000000 0 0 1
24.462339 32.303353 4.385994 40.757203 0.922659 1.462975 0.010687 -0.015964 228784.000000 0 0 1
25.678839 32.048153 5.084194 41.380381 0.895289 1.447620 0.014948 -0.019178 167569.000000 0 0 1
25.621599 32.106253 6.666494 41.613940 0.897261 1.409905 0.027268 -0.030999 -114468.000000 0 0 1
24.937139 31.054453 7.259794 40.483880 0.894221 1.390495 0.019618 -0.027669 -74795.800000 0 0 1
25.693579 29.855353 7.169994 40.036370 0.860179 1.390738 0.018333 -0.019309 300072.000000 0 0 1
24.867639 28.605053 7.591094 38.655831 0.855179 1.373135 0.014718 -0.006978 -209341.000000 0 0 1
23.823339 28.308053 6.706894 37.601593 0.871214 1.391469 -0.006135 -0.014494 -443234.000000 0 0 1
23.342539 27.028453 6.962394 36.385249 0.858443 1.378257 -0.004048 0.005709 -243906.000000 0 0 1
22.073139 26.771153 6.106994 35.230860 0.881287 1.396574 0.013270 0.007659 -11807.600000 0 0 1
22.357739 26.338853 4.802694 34.880790 0.866970 1.432669 0.008858 0.011482 184883.000000 0 0 1
22.721039 27.378653 3.923694 35.794296 0.878099 1.460958 0.007225 0.008427 -28283.800000 0 0 1
22.949439 27.008153 2.396494 35.522673 0.866463 1.503281 0.002652 0.018435 -98075.200000 0 0 1
23.912739 26.024553 2.101294 35.404970 0.827662 1.511411 -0.025277 0.037794 -168899.000000 0 0 1
24.019839 25.749753 0.750894 35.221674 0.820143 1.549476 -0.024409 0.035510 -371437.000000 0 0 1
25.353039 25.150153 0.336394 35.713022 0.781381 1.561377 -0.005160 0.026491 -523412.000000 0 0 1
26.482109 25.987753 0.026694 37.103452 0.775977 1.570077 0.012631 0.023056 1291360.000000 0 0 1
27.389319 25.509653 -0.997306 37.442113 0.749880 1.597435 0.003742 0.022889 1143250.000000 0 0 1
28.347719 24.355753 -0.505606 37.377152 0.709799 1.584324 -0.000253 0.015022 -775571.000000 0 0 1
27.578929 23.229753 -0.289606 36.059709 0.700007 1.578828 -0.008050 0.014671 -323716.000000 0 0 1
28.106009 22.265353 0.599794 35.861587 0.669962 1.554070 -0.017358 0.015735 -586742.000000 0 0 1
27.085009 21.312853 1.179894 34.485179 0.666694 1.536575 -0.006184 0.017711 -356445.000000 0 0 1
26.557339 20.310353 0.358694 33.435480 0.652889 1.560068 0.012177 -0.001741 -245813.000000 0 0 1
25.477639 19.696653 0.968194 32.218095 0.658119 1.540741 0.026186 -0.001795 -821026.000000 0 0 1
24.851239 18.596753 0.092994 31.039200 0.642427 1.567800 0.036945 -0.012344 1000520.000000 0 0 1
23.596439 18.103053 0.665594 29.748201 0.654415 1.548420 0.056724 -0.017740 1213460.000000 0 0 1
23.216939 17.015953 -0.106806 28.785071 0.632474 1.574507 0.071410 -0.034137 585726.000000 0 0 1
21.788539 16.425853 0.208494 27.287223 0.645977 1.563156 0.079076 -0.025142 -350449.000000 0 0 1
21.288739 15.314653 -0.493806 26.229618 0.623613 1.589624 0.080617 -0.031057 1654710.000000 0 0 1
19.853439 15.121053 -0.318406 24.958098 0.650905 1.583554 0.088789 -0.028001 1716560.000000 0 1 0
18.912239 16.250253 -0.863206 24.949722 0.709837 1.605401 0.089545 -0.035602 -883675.000000 0 1 0
18.948839 17.540753 -0.266806 25.822620 0.746829 1.581129 0.064975 -0.026760 219340.000000 0 0 1
17.900939 18.376653 -0.776306 25.666080 0.798511 1.601047 0.051499 -0.034895 545197.000000 0 0 1
17.964739 19.839553 -0.268306 26.765868 0.834950 1.580821 0.050233 -0.026387 -104707.000000 0 0 1
17.258139 20.071953 0.969894 26.489004 0.860632 1.534173 0.049094 -0.022059 221399.000000 0 0 1
17.450539 21.391253 1.478194 27.645833 0.886508 1.517302 0.055019 -0.021988 332367.000000 0 0 1
16.452539 22.475453 0.916694 27.868842 0.938900 1.537897 0.053085 -0.032087 1004250.000000 0 0 1
15.109939 22.330553 1.402594 26.998725 0.975915 1.518823 0.044624 -0.034861 393232.000000 0 0 1
14.359039 23.401253 0.916294 27.470716 1.020436 1.537435 0.033252 -0.030874 -137906.000000 0 0 1
12.911139 23.482653 1.441294 26.836726 1.068094 1.517064 0.024975 -0.028289 67925.700000 0 0 1
12.800939 23.976953 2.781694 27.322082 1.080410 1.468808 0.016012 -0.013315 336833.000000 0 0 1
11.449139 23.727353 3.149294 26.532775 1.121223 1.451821 0.008877 -0.016569 437599.000000 0 0 1
11.199439 24.031953 4.590394 26.907879 1.134698 1.399361 0.018384 -0.018393 -216311.000000 0 0 1
11.799339 23.113453 5.476394 26.522575 1.098787 1.362820 0.016531 -0.024751 -110405.000000 0 0 1
11.031439 23.010653 6.637994 26.367514 1.123759 1.316309 0.013599 -0.013361 -694061.000000 0 0 1
11.562339 21.959153 7.733094 25.994092 1.086144 1.268729 0.019107 -0.009893 -443466.000000 0 0 1
12.772039 22.219253 8.367694 26.959942 1.049098 1.255209 0.019481 -0.002288 -1023590.000000 0 0 1
13.821739 21.774453 7.567094 26.878024 1.005203 1.285403 0.017688 -0.004713 -1031860.000000 0 0 1
15.160439 21.892653 8.329894 27.901869 0.965129 1.267631 0.018881 -0.002850 -517779.000000 0 0 1
15.376439 20.797853 9.141594 27.432723 0.934160 1.231062 0.024170 0.002769 -202397.000000 0 0 1
16.631239 20.705453 9.755794 28.292922 0.894089 1.218756 0.023733 -0.005038 -329169.000000 0 0 1
16.850039 21.715253 10.887694 29.563794 0.910890 1.193640 0.013764 0.000190 -1366880.000000 0 0 1
16.121839 21.412253 12.022094 29.375653 0.925425 1.149160 0.014141 -0.003811 -175058.000000 0 0 1
16.307839 22.254053 13.152294 30.564216 0.938392 1.125953 0.001632 0.004165 -2374.770000 0 0 1
17.357339 21.672653 14.146294 31.162457 0.895515 1.099599 0.011660 -0.000998 1695040.000000 0 0 1
18.736239 21.958353 13.776794 31.984621 0.864411 1.125493 0.016964 -0.005078 802364.000000 0 0 1
19.631539 21.565253 14.781994 32.695027 0.832302 1.101658 0.006608 -0.006118 -999000.000000 0 0 1
21.078039 21.918453 14.621994 33.741740 0.804942 1.122589 0.012642 -0.013312 -1065330.000000 0 0 1
21.671839 21.325953 13.483494 33.260630 0.777354 1.153392 0.021650 -0.006417 197985.000000 0 0 1
23.042739 21.722153 13.458494 34.408586 0.755906 1.168929 0.017717 -0.000814 137597.000000 0 0 1
23.753639 21.176553 12.227794 34.091065 0.728103 1.203943 0.024875 0.006605 -195485.000000 0 0 1
23.484039 21.967953 11.059094 34.005802 0.752055 1.239560 0.029683 0.008408 516069.000000 0 0 1
24.293439 21.460253 10.000094 33.922198 0.723555 1.271555 0.031553 0.001564 32529.300000 0 0 1
24.056639 22.391253 8.738294 34.006586 0.749559 1.310922 0.014926 0.007844 144788.000000 0 0 1
24.454139 23.763953 8.983094 35.262251 0.771085 1.313206 0.016283 0.007735 -565508.000000 0 0 1
25.781339 24.117853 8.844594 36.394713 0.752074 1.325320 -0.003388 0.015560 -1044910.000000 0 0 1
26.153409 25.491253 9.455494 37.725471 0.772577 1.317456 0.011382 0.018127 246088.000000 0 0 1
27.469079 25.944653 9.159494 38.878936 0.756866 1.332971 0.007032 0.020481 451173.000000 0 0 1
27.711269 27.272153 9.673594 40.065736 0.777412 1.326944 0.012937 0.004999 76072.200000 0 0 1
28.974569 27.926953 9.091294 41.256417 0.766989 1.348612 0.011474 0.012077 57256.700000 0 0 1
28.763079 28.465453 7.787494 41.209729 0.780198 1.380681 0.019612 0.006638 38993.800000 0 0 1
29.971839 28.486753 7.065794 41.949156 0.760000 1.401552 0.012148 0.010483 -258843.000000 0 0 1
29.904679 29.448753 5.833294 42.373886 0.777717 1.432695 0.039494 0.004962 -3667.750000 0 0 1
29.938199 30.794153 6.243294 43.399935 0.799491 1.426441 0.044885 -0.010390 16903.100000 0 0 1
29.857039 31.778053 5.207494 43.913613 0.816556 1.451932 0.056932 -0.017068 127789.000000 0 0 1
29.943139 33.262553 5.721494 45.119004 0.837868 1.443645 0.035078 -0.014041 255896.000000 0 0 1
28.728939 33.628253 6.341594 44.681396 0.863806 1.428386 0.032328 -0.021254 -72642.600000 0 0 1
28.753039 -34.141818 6.690294 45.134920 -0.870869 1.422019 0.030795 -0.016978 -327106.000000 0 0 1
27.440979 -33.566518 7.243694 43.956678 -0.885469 1.405250 0.051270 -0.025836 119968.000000 0 0 1
26.447739 -33.609118 6.215994 43.216828 -0.904081 1.426463 0.041218 -0.027122 115325.000000 0 0 1
25.212839 -33.076818 6.667494 42.121474 -0.919501 1.411836 0.032347 -0.025536 426399.000000 0 0 1
24.018739 -33.191718 5.692294 41.364141 -0.944382 1.432744 0.030320 -0.011672 103797.000000 0 0 1
24.260739 -32.429718 4.488094 40.748166 -0.928511 1.460430 0.015185 0.010385 374411.000000 0 0 1
23.330039 -32.712518 3.431994 40.325899 -0.951277 1.485587 0.012899 0.005692 197548.000000 0 0 1
23.801439 -32.071018 2.124094 39.994630 -0.932340 1.517662 0.015664 0.015470 3622.900000 0 0 1
23.680239 -30.637618 2.124194 38.780530 -0.912791 1.515994 0.022902 0.022501 464161.000000 0 0 1
24.528739 -30.058318 1.104494 38.812129 -0.886352 1.542335 0.014890 0.025043 113208.000000 0 0 1
24.750839 -28.512718 1.357894 37.781251 -0.855909 1.534848 0.024571 0.015156 69638.900000 0 0 1
23.592439 -27.691218 1.369494 36.404426 -0.865152 1.533169 0.024271 0.006519 233982.000000 0 0 1
23.032439 -27.478618 0.065794 35.854874 -0.873196 1.568961 0.024271 0.008254 116106.000000 0 0 1
21.855139 -26.459818 0.015094 34.318643 -0.880417 1.570357 0.002740 0.007622 -19763.500000 0 0 1
22.157339 -25.078518 0.220494 33.465330 -0.847162 1.564208 0.013339 -0.003633 -105293.000000 0 0 1
22.176839 -24.559618 1.522294 33.125585 -0.836337 1.524825 0.013986 0.003078 -525522.000000 0 0 1
20.817039 -24.335718 2.153994 32.096977 -0.863169 1.503637 0.008206 -0.001839 -706182.000000 0 0 1
20.903739 -23.595818 3.374994 31.703619 -0.845821 1.464140 0.004876 -0.004470 151280.000000 0 0 1
19.633739 -23.435818 4.004094 30.834299 -0.873448 1.440570 0.003120 -0.005196 317806.000000 0 0 1
19.818339 -22.833518 5.426594 30.717812 -0.855974 1.393205 -0.009634 -0.002244 -126357.000000 0 0 1
19.979639 -21.420118 5.494394 29.802613 -0.820179 1.385376 -0.010075 0.011632 -409975.000000 0 0 1
18.860239 -20.660718 5.139094 28.442647 -0.830924 1.389116 -0.014799 0.007731 -731432.000000 0 0 1
19.024139 -19.097518 5.130394 27.440007 -0.787323 1.382722 -0.007821 0.010562 20682.700000 0 0 1
19.096839 -18.431118 6.414394 27.304575 -0.767661 1.333660 0.003437 0.003123 -390994.000000 0 0 1
17.853939 -18.298718 7.044994 26.518637 -0.797700 1.301906 0.011638 0.011707 -159001.000000 0 0 1
18.060037 -26.539647 -12.217506 34.348002 -0.973283 1.934457 0.049677 -0.009993 94176.100000 0 0 1
18.379137 -25.288457 -12.761406 33.766140 -0.942323 1.958361 0.054689 -0.011507 186472.000000 0 0 1
17.289037 -24.654247 -13.435506 32.973558 -0.959225 1.990471 0.045991 -0.007149 423475.000000 0 0 1
17.769537 -23.252647 -13.877506 32.388689 -0.918273 2.013593 0.043066 -0.013171 105264.000000 0 0 1
17.832037 -22.233347 -12.936306 31.299381 -0.894813 1.996881 0.050202 -0.012114 -403261.000000 0 0 1
18.960437 -22.099447 -12.103906 31.533922 -0.861699 1.964745 0.039189 -0.015373 -663817.000000 0 0 1
19.035837 -22.996847 -10.785106 31.741716 -0.879357 1.917476 0.032742 -0.017709 18725.400000 0 0 1
18.188937 -22.673847 -9.700806 30.643864 -0.894716 1.892903 0.028113 -0.016183 290551.000000 0 0 1
16.801237 -22.945447 -9.878906 30.105944 -0.938768 1.905128 0.033856 -0.011360 572421.000000 0 0 1
15.955637 -22.412047 -8.672606 28.846079 -0.952114 1.876172 0.014366 -0.003945 -187816.000000 0 0 1
15.789637 -20.971547 -8.724806 27.662983 -0.925437 1.891671 0.008830 -0.009493 132568.000000 0 0 1
14.862337 -20.416347 -7.808406 26.432697 -0.941549 1.870678 0.000380 -0.005494 743437.000000 0 0 1
13.356637 -20.384347 -8.255506 25.730813 -0.990746 1.897414 0.012134 -0.000495 871585.000000 0 0 1
12.800337 -21.739847 -8.133706 26.507107 -1.038656 1.882678 0.004204 0.000566 1382920.000000 0 0 1
11.370437 -21.655247 -8.422706 25.868485 -1.087297 1.902440 0.005145 0.000518 1434690.000000 0 0 1
10.636437 -22.956447 -8.113706 26.569992 -1.136912 1.881124 0.008037 0.003317 -334134.000000 0 0 1
10.816637 -23.344947 -6.788306 26.609533 -1.136905 1.828756 0.018225 0.003944 69012.400000 0 0 1
10.037337 -24.400947 -6.343306 27.136541 -1.180544 1.806734 0.015065 0.000872 -12156.800000 0 0 1
10.629637 -24.712147 -4.944006 27.351829 -1.164582 1.752551 0.027480 -0.006213 -97292.100000 0 0 1
9.827637 -25.545127 -4.169006 27.686035 -1.203534 1.721953 0.050543 -0.015577 -74219.100000 0 0 1
10.517037 -26.152087 -3.107606 28.358366 -1.188439 1.680600 0.032642 -0.012463 -550875.000000 0 0 1
9.511737 -27.055267 -2.435606 28.781813 -1.232726 1.655521 0.051893 -0.013668 72389.000000 0 0 1
8.602337 -26.321317 -1.622906 27.738885 -1.254919 1.629336 0.037644 -0.009131 -123734.000000 0 0 1
7.903637 -27.248037 -0.810106 28.382728 -1.288481 1.599342 0.036057 -0.009339 254888.000000 0 0 1
7.013537 -26.596487 0.276894 27.507080 -1.312964 1.560730 0.035014 -0.004849 311403.000000 0 0 1
5.783337 -25.979307 -0.060006 26.615314 -1.351755 1.573051 0.038430 -0.009370 102096.000000 0 0 1
5.212637 -25.564777 1.196694 26.118221 -1.369654 1.524962 0.034926 -0.000399 189759.000000 0 0 1
3.740937 -25.078287 1.121894 25.380577 -1.422718 1.526579 0.027812 -0.005286 235355.000000 0 0 1
2.807837 -26.104617 0.867594 26.269520 -1.463647 1.537764 0.022528 -0.006587 -1222320.000000 0 0 1
1.556637 -25.547267 0.923594 25.611306 -1.509940 1.534727 0.019468 -0.005958 -569381.000000 0 0 1
0.350237 -26.530187 0.696794 26.541646 -1.557596 1.544540 0.024536 -0.005463 582444.000000 0 0 1
0.191337 -27.601467 1.647194 27.651235 -1.563864 1.511191 0.028689 -0.009130 -50460.000000 0 0 1
0.788837 -28.830897 1.214094 28.867229 -1.543442 1.528726 0.025462 -0.011237 -14729.700000 0 0 1
0.264437 -29.998357 2.047594 30.069319 -1.561982 1.502648 0.034107 -0.011028 64784.900000 0 0 1
0.801937 -29.944787 3.346094 30.141826 -1.544022 1.459555 0.022147 -0.010518 117065.000000 0 0 1
0.113737 -30.810827 4.217094 31.098293 -1.567105 1.434772 0.032159 -0.011832 -234849.000000 0 0 1
0.501737 -30.578937 5.678794 31.105816 -1.554390 1.387203 0.023286 -0.017730 -799838.000000 0 0 1
1.845537 -30.821507 5.950694 31.444905 -1.510990 1.380406 0.019865 -0.005127 -582885.000000 0 0 1
2.216637 -30.910997 7.340694 31.847904 -1.499209 1.338213 0.024368 -0.005502 770425.000000 0 0 1
3.680637 -31.418627 7.511494 32.513070 -1.454180 1.337660 0.015114 -0.002716 601742.000000 0 0 1
3.678737 -32.791647 7.300594 33.795323 -1.459078 1.353056 0.024806 -0.000040 -409427.000000 0 0 1
4.962137 -33.316977 7.500494 34.509435 -1.422946 1.351702 0.013461 0.004431 -194632.000000 0 0 1
5.090537 34.320762 7.343294 35.464802 1.423547 1.362229 -0.006871 0.008543 -624289.000000 0 0 1
5.025437 34.067578 5.950294 34.946543 1.424339 1.399694 -0.006791 0.008513 -4005.900000 0 0 1
4.794937 32.657915 5.756594 33.506256 1.425015 1.398133 -0.009900 0.003747 -411859.000000 0 0 1
4.970337 32.216205 4.316294 32.881887 1.417723 1.439150 0.003039 0.002165 1005660.000000 0 0 1
6.321137 32.224685 3.800094 33.057946 1.377097 1.455589 -0.000690 0.005866 614786.000000 0 0 1
7.013237 31.057095 4.027094 32.092773 1.348704 1.444982 -0.002971 0.003631 -163100.000000 0 0 1
8.492337 31.043675 3.556694 32.380235 1.303768 1.460733 -0.010848 0.003368 -151578.000000 0 0 1
9.367437 31.680765 4.424094 33.331552 1.283306 1.437674 -0.010053 -0.001909 -487267.000000 0 0 1
10.612637 31.939795 3.789694 33.869460 1.250003 1.458670 -0.006022 -0.002775 194252.000000 0 0 1
11.673337 32.305115 4.842994 34.689218 1.224049 1.430728 0.012323 -0.012536 -253649.000000 0 0 1
12.030037 31.277745 5.800194 34.009724 1.203619 1.399413 0.011673 -0.012061 -316177.000000 0 0 1
13.367737 31.499785 6.169794 34.770665 1.169455 1.392409 0.036989 -0.011445 -214636.000000 0 0 1
13.927137 30.372285 7.059994 34.150905 1.140857 1.362565 0.034040 -0.014184 -269317.000000 0 0 1
13.327437 30.389085 8.338994 34.214848 1.157497 1.324592 0.015513 -0.006123 498178.000000 0 0 1
13.999337 29.363035 9.139194 33.788964 1.125907 1.296906 0.010753 -0.007162 327855.000000 0 0 1
13.858837 29.504675 10.640194 34.290041 1.131668 1.255288 0.005353 0.006893 -98524.300000 0 0 1
14.571037 30.529715 11.290294 35.662997 1.125494 1.248671 0.009704 -0.001034 -537.062000 0 0 1
14.018137 30.773175 12.588494 36.082774 1.143352 1.214422 0.000363 0.009420 19209.200000 0 0 1
14.796137 31.728175 13.517494 37.527661 1.134437 1.202313 -0.001521 0.011958 171338.000000 0 0 1
15.995937 31.217875 14.051794 37.787281 1.097281 1.189778 -0.015876 0.017844 233178.000000 0 0 1
16.673837 32.101175 14.938794 39.136553 1.091738 1.179151 0.002052 0.012550 138140.000000 0 0 1
17.779037 31.491715 15.828694 39.476193 1.056842 1.158223 0.003654 0.009336 -11665.800000 0 0 1
18.951737 31.087595 15.156094 39.437470 1.023331 1.176339 -0.004145 0.007434 38915.600000 0 0 1
19.100537 29.690295 14.918494 38.326304 0.999127 1.170980 -0.004777 0.006127 -322771.000000 0 0 1
20.509637 29.391895 14.378294 38.616888 0.961549 1.189276 0.017734 0.005509 -419209.000000 0 0 1
21.489237 29.180665 15.329194 39.348223 0.936043 1.170623 0.034678 -0.001385 -1258390.000000 0 0 1
22.748537 29.067375 14.735994 39.743650 0.906747 1.190952 0.048219 -0.006479 -148341.000000 0 0 1
23.791437 29.282315 15.896294 40.941160 0.888489 1.172041 0.049267 -0.011270 13473.500000 0 0 1
23.966337 28.164105 16.699694 40.576864 0.865749 1.146634 0.045247 -0.009749 152157.000000 0 0 1
24.990937 28.330485 17.690594 41.714750 0.847947 1.132845 0.046097 -0.009039 329120.000000 0 0 1
25.820837 27.023025 17.898694 41.440593 0.808144 1.124185 0.017259 -0.007950 403609.000000 0 0 1
25.119237 25.860825 18.491594 40.517865 0.799944 1.096872 0.022421 -0.017041 287334.000000 0 0 1
24.924437 25.971845 19.869794 41.116578 0.805975 1.066427 0.037602 -0.010764 -360515.000000 0 0 1
24.408337 24.714365 20.459294 40.313142 0.791628 1.038505 0.042015 -0.014855 -503048.000000 0 0 1
25.363537 23.706025 20.543694 40.340153 0.751632 1.036470 0.016074 -0.009138 -722429.000000 0 0 1
24.713837 22.469525 20.698894 39.295006 0.737868 1.016016 0.024136 -0.010854 -247871.000000 0 0 1
25.558237 21.172125 20.663194 39.095395 0.691812 1.013925 0.005479 -0.009725 -33023.400000 0 0 1
24.845237 20.033525 21.108494 38.264820 0.678590 0.986464 0.004457 -0.004691 -483362.000000 0 0 1
25.636637 18.923225 20.853494 38.081410 0.635862 0.991299 0.004282 -0.010859 95591.500000 0 0 1
26.429737 18.377925 22.074094 39.032611 0.607599 0.969721 0.021727 -0.004874 300908.000000 0 0 1
25.540237 17.939525 23.095794 38.827129 0.612337 0.933734 0.016147 -0.004567 433992.000000 0 0 1
26.249637 17.719425 24.291794 39.913816 0.593774 0.916494 0.035471 -0.005915 102284.000000 0 0 1
25.302337 17.116625 25.365694 39.706492 0.594768 0.877820 0.018183 -0.000294 384196.000000 0 0 1
24.925637 15.775025 24.968294 38.646532 0.564248 0.868374 0.024110 -0.005352 431300.000000 0 0 1
23.820437 15.272225 25.706894 38.229549 0.570121 0.833302 0.018759 -0.001483 -21572.000000 0 0 1
23.254137 14.099725 24.942794 36.901221 0.545062 0.828565 0.021086 -0.000085 -788955.000000 0 0 1
22.020137 13.652625 25.415794 36.293845 0.555000 0.795009 0.005213 -0.001208 -129625.000000 0 0 1
21.539637 12.684625 24.518794 35.014667 0.532215 0.795058 0.014184 0.000080 39407.700000 0 0 1
20.189737 12.012025 24.902494 34.235193 0.536703 0.756279 0.013807 -0.003013 317085.000000 0 0 1
19.110237 12.950025 24.941094 33.984738 0.595567 0.746764 0.025659 -0.008082 875688.000000 0 0 1
17.889037 12.218825 25.146194 33.191089 0.599249 0.711139 0.024528 -0.004050 91030.400000 0 0 1
16.665037 13.050025 25.465994 33.114097 0.664337 0.693462 0.016300 -0.006577 -574025.000000 0 0 1
16.668937 13.463725 26.812594 34.322595 0.679427 0.674221 0.024275 -0.006942 145281.000000 0 0 1
15.599737 14.367025 26.985094 34.321400 0.744285 0.666085 0.033203 -0.008593 -322718.000000 0 0 1
15.311437 14.824525 28.411994 35.516870 0.769242 0.643572 0.015082 0.002181 -173194.000000 0 0 1
14.861537 13.755125 29.260194 35.584093 0.746754 0.605385 0.027203 0.009507 251417.000000 0 0 1
15.127837 13.948225 30.636294 36.905107 0.744851 0.591443 0.015521 0.020029 -388475.000000 0 0 1
16.518237 13.528925 31.156794 37.770753 0.686237 0.600785 0.010036 0.013648 -181907.000000 0 0 1
17.479537 14.548025 30.949194 38.406143 0.694122 0.633704 0.021403 0.006396 -1280480.000000 0 0 1
18.625537 14.004425 30.489194 38.374803 0.644712 0.652595 0.012084 0.019060 -1705710.000000 0 0 1
19.587137 15.127925 29.985094 38.879505 0.657646 0.690023 0.007611 0.011641 -443257.000000 0 0 1
19.237937 15.898425 28.833294 38.134197 0.690638 0.713462 0.026798 0.005310 211308.000000 0 0 1
19.215337 15.127925 27.643694 36.908767 0.666939 0.724285 0.029600 -0.003745 -761184.000000 0 0 1
18.981937 15.943025 26.350794 36.178147 0.698604 0.754868 0.027512 -0.009260 63069.900000 0 0 1
20.023737 16.908925 26.108694 36.993589 0.701260 0.787297 0.022004 -0.007443 687851.000000 0 0 1
20.145937 17.250625 24.729694 36.262937 0.708130 0.820364 0.025513 -0.013048 -103398.000000 0 0 1
21.269637 18.275525 24.473694 37.220343 0.709829 0.853253 0.026439 -0.015344 -237727.000000 0 0 1
21.465237 18.642925 23.076994 36.617792 0.715146 0.888969 0.030876 -0.021244 14269.900000 0 0 1
22.552537 19.539825 22.908694 37.619542 0.713946 0.916051 0.020967 -0.020857 -446008.000000 0 0 1
22.490137 20.974125 23.534794 38.724755 0.750533 0.917578 0.028763 -0.024978 -251907.000000 0 0 1
21.624037 21.866825 22.841794 38.308022 0.790981 0.931954 0.030713 -0.017781 269841.000000 0 0 1
21.729937 23.126025 23.459694 39.463406 0.816512 0.934194 0.042578 -0.013755 327537.000000 0 0 1
20.733437 24.171135 22.840294 39.189261 0.861805 0.948601 0.051707 -0.024170 397563.000000 0 0 1
21.187537 24.620135 21.586894 39.000727 0.860193 0.984236 0.055977 -0.023554 147880.000000 0 0 1
20.450937 25.805835 21.332194 39.233205 0.900650 0.995924 0.059098 -0.022348 -121758.000000 0 0 1
20.962237 26.700315 20.177594 39.489967 0.905211 1.034501 0.062353 -0.019132 -125970.000000 0 0 1
20.626337 26.139745 18.909994 38.292557 0.902750 1.054308 0.040503 -0.020362 60395.000000 0 0 1
21.165337 26.853805 17.840594 38.566632 0.903311 1.089880 0.043208 -0.028612 -203850.000000 0 0 1
20.992837 26.060435 16.537794 37.327524 0.892684 1.111803 0.017881 -0.005573 176513.000000 0 0 1
19.642737 25.970245 16.100194 36.325018 0.923240 1.111602 0.013437 -0.003803 6758.490000 0 0 1
19.656237 25.484265 14.795494 35.422056 0.913796 1.139893 0.019349 0.003780 -948739.000000 0 0 1
18.331737 25.406645 14.097194 34.355219 0.945764 1.147974 0.006345 0.008862 -1283380.000000 0 0 1
17.712637 26.647205 13.832694 34.859065 0.984150 1.162749 -0.006564 0.017651 397948.000000 0 0 1
16.617337 27.039065 14.675994 34.966151 1.019734 1.137659 0.003803 0.022692 307046.000000 0 0 1
15.240237 26.421865 14.361994 33.714190 1.047607 1.130738 -0.003189 0.009649 -872798.000000 0 0 1
15.104537 25.003405 14.548694 32.634058 1.027368 1.108714 -0.007615 0.016012 -270032.000000 0 0 1
15.023037 24.457515 15.902994 32.814126 1.019964 1.064846 -0.007176 0.021559 -78991.400000 0 0 1
13.844237 24.925735 16.789494 33.088400 1.063802 1.038616 0.016905 0.013454 -184333.000000 0 0 1
13.926337 26.282615 17.098894 34.308758 1.083540 1.049064 0.012219 0.006212 85686.100000 0 0 1
12.923137 26.677045 18.015294 34.687505 1.119683 1.024695 0.007168 -0.000738 272018.000000 0 0 1
13.393837 27.981865 18.766694 36.256977 1.124365 1.026750 0.014365 -0.003350 -17581.900000 0 0 1
13.508437 29.082785 17.919294 36.734008 1.135964 1.061215 0.005902 -0.002046 152706.000000 0 0 1
14.038137 30.245715 18.572694 38.168279 1.136249 1.062602 0.007062 -0.003338 -491227.000000 0 0 1
14.138737 31.418295 17.648894 38.710419 1.147929 1.097390 -0.001362 -0.002441 913439.000000 0 0 1
12.799237 31.933685 17.432294 38.567675 1.189595 1.101799 -0.006043 0.004302 1104040.000000 0 0 1
12.879037 33.166032 16.774294 39.334872 1.200399 1.130234 0.002987 0.001818 -218945.000000 0 0 1
11.567237 33.932612 16.514294 39.470812 1.242262 1.139122 0.000987 -0.001384 -202234.000000 0 0 1
11.677037 -33.937157 15.853894 39.235567 -1.239407 1.154835 0.014441 -0.012617 -186677.000000 0 0 1
12.303037 -32.881287 16.579494 38.825550 -1.212758 1.129596 0.020626 -0.009346 -401397.000000 0 0 1
11.851737 -32.513277 18.012494 39.013161 -1.221245 1.090882 0.015793 -0.003113 -352600.000000 0 0 1
12.416637 -33.334177 18.992094 40.324184 -1.214228 1.080389 0.031809 -0.003748 144169.000000 0 0 1
12.002537 -32.937437 20.260394 40.489742 -1.221347 1.046755 0.023675 -0.004178 -290420.000000 0 0 1
12.931937 -33.464537 21.369894 41.758623 -1.202037 1.033578 0.047933 0.002093 -234260.000000 0 0 1
14.168637 -32.810557 21.451194 41.682570 -1.163153 1.030218 0.053910 0.003211 -710241.000000 0 0 1
14.962237 -33.294247 22.463494 42.860051 -1.148446 1.019123 0.041233 0.007210 -676339.000000 0 0 1
16.414337 -32.842257 22.344394 42.980416 -1.107314 1.024093 0.065864 0.002338 -329618.000000 0 0 1
16.587237 -31.447767 22.543294 42.098676 -1.085428 1.005712 0.071513 -0.003422 -1332480.000000 0 0 1
17.896837 -31.077037 22.520594 42.346855 -1.048296 1.010057 0.059692 0.000869 -1388710.000000 0 0 1
-4.508263 13.530153 17.815996 22.821026 -1.249165 0.675038 -0.011578 0.009054 -506052.000000 0 1 0
-4.152663 14.872353 17.607896 23.419426 -1.298511 0.719933 -0.019113 0.013029 -117664.000000 0 1 0
-5.269963 15.732753 17.466796 24.091098 -1.247576 0.759717 -0.014845 0.009787 -96801.700000 0 1 0
-4.999263 17.258853 17.533496 25.105460 -1.288849 0.797646 -0.010976 0.017720 -357147.000000 0 0 1
-4.672963 17.695953 18.866896 26.285797 -1.312620 0.770216 -0.018271 0.027032 249516.000000 0 0 1
-4.329963 19.050153 18.795596 27.109618 -1.347301 0.804713 -0.020403 0.015114 -392698.000000 0 0 1
-3.862163 19.608453 20.129496 28.365549 -1.376322 0.781801 -0.011706 0.014578 426209.000000 0 0 1
-4.919063 19.713453 21.090496 29.285260 -1.326262 0.766743 -0.012624 0.021361 221968.000000 0 0 1
-4.414463 20.405953 22.161496 30.447041 -1.357747 0.755585 -0.010628 0.022889 135454.000000 0 0 1
-5.450163 20.570253 23.321996 31.571429 -1.311794 0.739648 -0.022376 0.018903 257539.000000 0 0 1
-5.651263 19.358253 24.059056 31.392944 -1.286759 0.697603 -0.031743 0.019690 -57469.900000 0 0 1
-6.295663 19.608353 25.331636 32.646817 -1.260123 0.682609 -0.041518 0.011544 81336.100000 0 0 1
-5.506563 20.268353 26.480886 33.798901 -1.305517 0.670544 -0.040205 0.003239 -609270.000000 0 0 1
-5.139963 21.591453 26.160646 34.307280 -1.337091 0.703567 -0.030810 0.003966 76931.600000 0 0 1
-4.018363 22.178853 26.796576 35.015786 -1.391561 0.699334 -0.016943 0.003927 454586.000000 0 0 1
-2.649263 21.738553 26.211866 34.156189 -1.449525 0.696002 -0.007575 0.011283 -505027.000000 0 0 1
-2.217263 20.506253 26.688956 33.730151 -1.463089 0.657947 0.002573 0.003971 -664844.000000 0 0 1
-0.981463 20.081553 26.227696 33.047301 -1.521961 0.654026 0.008244 0.008112 -562020.000000 0 0 1
-0.385363 18.850753 26.927656 32.872452 -1.550356 0.610859 0.006822 0.008832 -394638.000000 0 0 1
-0.971363 17.618553 26.518966 31.852983 -1.515719 0.587114 0.007573 0.010588 -467942.000000 0 0 1
-0.286363 16.498653 26.931786 31.584944 -1.553441 0.549706 0.005653 0.015911 -966377.000000 0 0 1
1.110837 16.292453 26.356156 31.005241 1.502721 0.554707 0.009328 0.021791 -1000310.000000 0 0 1
1.052137 16.012653 24.971716 29.683306 1.505184 0.571166 -0.002271 0.024855 -36614.700000 0 0 1
1.125037 14.644453 24.719096 28.753425 1.494124 0.536129 0.008428 0.024882 -119973.000000 0 0 1
1.278837 14.198453 23.241096 27.264997 1.480970 0.550209 0.004370 0.022020 1082810.000000 0 0 1
2.558837 14.498153 22.625496 26.993651 1.396101 0.576862 -0.001950 0.014572 832632.000000 0 0 1
2.671037 13.790453 21.395996 25.594915 1.379478 0.580940 -0.002741 0.009965 498669.000000 0 0 1
4.078037 13.831853 20.704596 25.231545 1.284090 0.608365 -0.003712 0.006965 706536.000000 0 0 1
4.403837 14.957053 19.945396 25.316517 1.284455 0.663500 -0.000731 -0.005898 582877.000000 0 0 1
5.832437 15.038653 19.842296 25.571373 1.200825 0.682565 0.003651 -0.005386 519992.000000 0 0 1
6.415037 16.203653 18.988896 25.773810 1.193829 0.742543 0.014422 -0.006232 -117442.000000 0 0 1
6.302437 15.702053 17.685796 24.475755 1.189104 0.763263 0.018787 -0.015431 238577.000000 0 1 0
6.964737 16.619353 16.816596 24.647685 1.173956 0.819921 0.018961 -0.011273 99200.200000 0 1 0
6.872237 16.251553 15.338796 23.379891 1.170734 0.855200 0.012720 -0.008028 125895.000000 0 1 0
7.659837 15.117953 14.858496 22.538867 1.101826 0.850990 0.007935 -0.012146 627810.000000 0 1 0
7.496537 13.837853 15.466496 22.065737 1.074316 0.794098 0.007737 -0.013512 -473964.000000 0 1 0
8.662937 13.032553 14.910696 21.615337 0.984146 0.809556 0.004704 -0.012211 109505.000000 0 1 0
9.943737 13.579853 15.197396 22.677107 0.938758 0.836366 0.007191 -0.013652 354919.000000 0 1 0
10.903337 13.028853 14.301896 22.207612 0.873980 0.871069 0.008366 -0.010957 878234.000000 0 1 0
12.328637 13.679853 14.314796 23.324817 0.837304 0.910039 0.018035 -0.003679 234528.000000 0 1 0
13.074237 13.384653 15.484796 24.287106 0.797130 0.879453 0.013521 -0.008946 458916.000000 0 1 0
14.359137 13.986053 15.620296 25.412362 0.772237 0.908825 0.021566 -0.010947 603808.000000 0 0 1
15.450337 13.275453 14.746696 25.147875 0.709830 0.944190 0.028261 -0.011918 -891551.000000 0 0 1
16.688037 13.898453 15.015296 26.402968 0.694447 0.965875 0.027541 -0.017260 -659453.000000 0 0 1
17.597037 13.413353 14.094296 26.234004 0.651296 1.003620 0.024749 -0.004460 -1111330.000000 0 0 1
18.959737 14.075053 14.300596 27.605902 0.638597 1.026254 0.024543 -0.003292 -310645.000000 0 0 1
19.604437 13.588153 15.488996 28.440831 0.606091 0.994879 0.014804 -0.011110 281125.000000 0 0 1
20.962537 13.996153 15.467896 29.573232 0.588700 1.020386 -0.000871 0.002855 43160.800000 0 0 1
21.806537 13.564853 16.659196 30.611421 0.556478 0.995343 0.006982 -0.006149 -212494.000000 0 0 1
22.050937 12.137453 16.702196 30.208028 0.503172 0.984949 0.017627 -0.004635 461568.000000 0 0 1
22.619937 11.696953 17.932196 31.145528 0.477240 0.957269 0.008884 -0.010658 -92626.300000 0 0 1
22.945137 10.194753 17.967196 30.874463 0.418112 0.949680 0.019242 -0.001725 -578237.000000 0 0 1
21.799237 9.457353 18.247496 29.960297 0.409333 0.915927 0.024156 -0.000938 -67373.700000 0 0 1
21.839037 8.080353 17.943096 29.397115 0.354376 0.914270 0.023590 0.011158 -52958.800000 0 0 1
20.742137 7.247753 18.656596 28.824204 0.336160 0.866819 0.034125 0.010214 76130.800000 0 0 1
20.748037 5.933053 18.239296 28.255160 0.278524 0.869091 0.036424 0.001959 1251440.000000 0 0 1
19.487937 5.362153 18.651396 27.502854 0.268508 0.825537 0.032894 0.002393 505427.000000 0 0 1
19.286137 3.902253 18.172896 26.785011 0.199639 0.825115 0.039113 0.010392 -570034.000000 0 0 1
18.676037 3.853153 16.926096 25.497723 0.203461 0.844871 0.034918 0.001245 110577.000000 0 0 1
18.472737 2.549553 16.326296 24.784878 0.137151 0.851680 0.037058 -0.008889 88470.700000 0 1 0
17.435937 1.586253 16.962596 24.377403 0.090726 0.801218 0.043964 -0.009295 -199338.000000 0 1 0
18.061537 0.827953 18.014896 25.523344 0.045809 0.787216 0.047901 -0.014764 421791.000000 0 0 1
17.199337 0.048153 18.840996 25.510834 0.002800 0.739881 0.057271 -0.014916 -300290.000000 0 0 1
17.986437 -0.491747 20.056096 26.944401 -0.027333 0.731234 0.045566 -0.002837 509019.000000 0 0 1
18.569137 -1.822147 19.798796 27.205246 -0.097815 0.755751 0.040938 0.005280 216258.000000 0 0 1
17.742637 -2.828047 20.334296 27.134528 -0.158063 0.723659 0.028374 0.009062 -17689.500000 0 0 1
17.794437 -4.082347 19.478096 26.696512 -0.225515 0.753042 0.021527 0.009222 36416.100000 0 0 1
17.195137 -3.962547 18.181296 25.336417 -0.226492 0.770453 0.022212 -0.000124 459697.000000 0 0 1
16.988437 -5.217147 17.547896 24.975073 -0.297958 0.791729 0.036350 -0.003983 -164971.000000 0 1 0
16.823637 -5.164547 16.000896 23.785205 -0.297850 0.832911 0.035573 -0.015069 -404795.000000 0 1 0
15.597937 -4.629147 15.584596 22.530075 -0.288500 0.806923 0.031951 -0.019236 -102947.000000 0 1 0
15.403737 -4.566247 14.159796 21.415544 -0.288185 0.848389 0.034320 -0.023598 18181.900000 0 1 0
15.855537 -3.325047 13.397096 21.022278 -0.206713 0.879832 0.036946 -0.020427 287732.000000 0 1 0
14.898737 -2.250447 13.472796 20.212697 -0.149916 0.841224 0.026474 -0.015589 562390.000000 0 1 0
15.444237 -1.018547 13.075196 20.261358 -0.065855 0.869345 0.026460 -0.009900 -156430.000000 0 1 0
14.473837 0.137053 13.342396 19.685789 0.009469 0.826074 0.024699 -0.001385 -578374.000000 0 1 0
14.881037 1.385353 12.915196 19.752639 0.092828 0.858139 0.025778 0.000883 80758.500000 0 1 0
15.814937 1.991053 13.806996 21.088140 0.125238 0.856974 0.034539 -0.002848 -24953.600000 0 1 0
16.060437 3.453753 13.345296 21.165136 0.211821 0.888558 0.029241 0.003080 -393485.000000 0 1 0
14.961637 4.271953 13.628696 20.684330 0.278127 0.851454 0.022129 0.004992 135771.000000 0 1 0
15.142737 5.528453 12.965696 20.687570 0.350054 0.893436 0.017728 0.005790 614145.000000 0 1 0
13.953437 6.561053 13.069496 20.212807 0.439533 0.867684 0.012870 0.001885 437728.000000 0 1 0
14.224437 7.711453 12.283696 20.314781 0.496779 0.921447 0.006458 -0.008170 267738.000000 0 1 0
13.239937 8.714853 12.448096 20.154396 0.582135 0.905062 0.002210 -0.002419 -397128.000000 0 1 0
13.432837 9.742753 13.599696 21.454932 0.627501 0.884246 0.012471 -0.008881 -120786.000000 0 1 0
13.107737 9.231653 14.873196 21.868886 0.613600 0.822887 0.019332 -0.000717 19350.600000 0 1 0
13.658637 10.005553 15.856396 23.196870 0.632235 0.818171 0.031450 -0.007064 -459227.000000 0 1 0
13.220437 9.510153 17.270696 23.738153 0.623596 0.756052 0.041141 -0.012046 737647.000000 0 1 0
11.823637 9.755353 17.522196 23.280736 0.689843 0.718722 0.025549 -0.011395 946100.000000 0 1 0
11.231537 8.885953 18.515396 23.407851 0.669328 0.658370 0.031323 -0.009697 56441.700000 0 1 0
11.672937 9.042853 20.002896 24.862552 0.659113 0.635897 0.035205 -0.009051 -617834.000000 0 1 0
12.935937 8.465953 20.187096 25.426948 0.579499 0.653558 0.043711 -0.011745 -222103.000000 0 0 1
13.385437 8.674853 21.522296 26.788659 0.575025 0.637795 0.040058 -0.007396 -699335.000000 0 0 1
14.900237 8.715553 21.627296 27.671608 0.529263 0.673618 0.050887 -0.009622 -634622.000000 0 0 1
15.617237 9.774353 21.046396 27.971179 0.559224 0.719050 0.055171 -0.002707 179449.000000 0 0 1
16.460637 9.218653 20.033696 27.518814 0.510521 0.755396 0.046735 -0.007107 -143558.000000 0 0 1
17.242837 10.327253 19.354496 27.902762 0.539632 0.804265 0.032162 -0.006056 -514919.000000 0 0 1
18.028737 11.112253 20.179996 29.253201 0.552365 0.809530 0.024756 -0.005291 -74320.600000 0 0 1
18.848537 11.963853 19.417996 29.588168 0.565570 0.854924 0.013088 -0.005286 -202847.000000 0 0 1
19.739037 12.837853 20.324996 31.105394 0.576642 0.858698 0.020019 -0.008890 -596568.000000 0 0 1
19.062137 13.845653 21.032096 31.581898 0.628188 0.842024 0.016042 -0.007361 449020.000000 0 0 1
19.893337 14.530853 21.977496 33.013647 0.630864 0.842352 0.015357 -0.007783 -93926.100000 0 0 1
21.104637 15.381653 21.529396 33.845470 0.629813 0.881352 0.011866 -0.010689 -12632.800000 0 0 1
22.217537 14.522053 21.290396 34.026313 0.578923 0.894763 0.006177 -0.010253 -284618.000000 0 0 1
23.393337 15.248653 21.504096 35.244798 0.577666 0.914565 0.007546 -0.008345 -289152.000000 0 0 1
24.694937 14.413353 21.532996 35.794617 0.528315 0.925330 -0.006902 -0.013086 -54122.500000 0 0 1
25.089937 13.894353 20.266296 35.118097 0.505742 0.955636 -0.005730 -0.015411 -48113.500000 0 0 1
26.092437 12.940953 20.465096 35.596400 0.460415 0.958289 0.001220 -0.018869 -261154.000000 0 0 1
26.467637 12.097753 19.166796 34.846198 0.428724 0.988384 0.021747 -0.018098 242003.000000 0 0 1
27.209737 12.772753 18.123496 35.099489 0.438884 1.028217 0.019260 -0.017174 847130.000000 0 0 1
27.687537 11.939753 17.077596 34.652586 0.407137 1.055465 0.032341 -0.022386 -103989.000000 0 0 1
26.563937 11.671653 16.058596 33.162460 0.413987 1.065302 0.023412 -0.018073 87650.000000 0 0 1
26.225337 12.727453 15.242296 32.895045 0.451828 1.089012 0.024712 -0.007337 -224457.000000 0 0 1
25.124137 12.547353 14.407696 31.563270 0.463179 1.096772 0.016214 -0.004760 -272678.000000 0 0 1
24.819237 13.786953 13.562596 31.464561 0.507052 1.125147 -0.000162 0.003615 -9414.230000 0 0 1
24.020837 14.838653 14.092096 31.555878 0.553362 1.107861 -0.002938 0.001728 362238.000000 0 0 1
23.956437 16.004353 13.260896 31.715951 0.588967 1.139428 -0.003627 0.006014 -155349.000000 0 0 1
22.936737 17.072853 13.744396 31.725142 0.639872 1.122719 -0.004676 -0.000708 485932.000000 0 0 1
21.584937 16.752853 13.370696 30.419453 0.660020 1.115705 0.015000 0.000371 250080.000000 0 0 1
20.759737 17.802753 13.664796 30.571741 0.708868 1.107416 0.018506 -0.005977 -1454510.000000 0 0 1
20.103837 18.399953 12.393496 29.938625 0.741175 1.143993 0.020605 0.000591 456160.000000 0 0 1
19.009937 17.633553 11.848596 28.508054 0.747854 1.142169 0.029643 0.005536 995731.000000 0 0 1
17.803037 17.735553 12.620596 28.120765 0.783499 1.105374 0.023001 -0.001865 169429.000000 0 0 1
16.602637 17.115853 11.809996 26.609697 0.800618 1.110936 0.037012 0.003288 128112.000000 0 0 1
16.582837 15.702053 11.624396 25.625603 0.758123 1.099968 0.038783 0.003984 -841466.000000 0 0 1
15.413237 15.270053 11.060696 24.353263 0.780732 1.099348 0.039591 -0.003676 -972392.000000 0 1 0
15.515137 13.899653 10.327396 23.250268 0.730532 1.110533 0.042071 -0.009661 -294769.000000 0 1 0
15.545737 12.763453 11.141896 22.993859 0.687431 1.064937 0.029448 -0.003407 324163.000000 0 1 0
15.851837 11.631353 10.393396 22.239420 0.633023 1.084515 0.027602 -0.000139 -164612.000000 0 1 0
16.504937 10.497253 11.243596 22.561554 0.566475 1.049099 0.028048 -0.004643 -354086.000000 0 1 0
17.489337 9.757453 10.535296 22.629124 0.508895 1.086525 0.039851 0.002278 374584.000000 0 1 0
18.000837 8.685353 11.282696 22.951356 0.449548 1.056880 0.047147 0.002737 557743.000000 0 1 0
19.085237 8.963853 12.392096 24.457330 0.439094 1.039464 0.026344 0.000783 77505.600000 0 1 0
18.608037 9.771853 13.463196 24.960084 0.483558 1.001085 0.018826 0.000359 269579.000000 0 1 0
19.682237 10.004953 14.352596 26.334133 0.470285 0.994385 0.027302 0.008007 -548701.000000 0 0 1
19.153437 10.407253 15.793196 26.918212 0.497733 0.943806 0.030662 -0.003069 280931.000000 0 0 1
18.553437 9.323653 16.506196 26.525743 0.465669 0.899156 0.034387 -0.000673 -403376.000000 0 0 1
17.373537 8.826953 16.013396 25.222683 0.470082 0.882942 0.029005 -0.008995 -1740180.000000 0 0 1
17.143637 7.387953 16.478596 24.900407 0.406895 0.847606 0.031003 0.001802 -529808.000000 0 1 0
15.832337 7.154853 16.899696 24.237462 0.424444 0.799235 0.032850 -0.006654 -289791.000000 0 1 0
15.560437 5.857153 17.404396 24.069617 0.360009 0.762537 0.047825 0.002509 -352701.000000 0 1 0
14.076237 5.667553 17.761696 23.361067 0.382774 0.707003 0.030696 -0.006770 -27663.300000 0 1 0
13.653937 4.292753 17.871996 22.896855 0.304612 0.675261 0.049481 -0.010294 186770.000000 0 1 0
13.340737 3.646753 16.639896 21.637010 0.266836 0.693446 0.047277 -0.007399 -222757.000000 0 1 0
12.941537 2.156853 16.848296 21.354168 0.165143 0.661627 0.033745 -0.012597 -34613.200000 0 1 0
14.064337 1.346353 17.149696 22.220043 0.095437 0.689110 0.036528 -0.005889 71503.500000 0 1 0
14.011337 -0.065047 16.949496 21.991071 -0.004642 0.690788 0.037534 -0.004386 -1092770.000000 0 1 0
13.039937 -0.846847 17.750096 22.041393 -0.064851 0.634603 0.033219 -0.014055 206662.000000 0 1 0
11.644237 -0.648447 17.474796 21.008980 -0.055631 0.588494 0.025695 -0.013674 648357.000000 0 1 0
10.871237 -1.595847 18.180296 21.242733 -0.145754 0.543631 0.028146 -0.014646 -88833.100000 0 1 0
-24.910063 14.403653 28.945706 40.814585 -0.524256 0.782433 0.040771 -0.000297 -197641.000000 0 0 1
-24.020263 14.416953 30.046456 41.080544 -0.540566 0.750418 0.040999 0.001606 669864.000000 0 0 1
-23.366263 13.129353 30.283816 40.440966 -0.511929 0.724486 0.030683 0.004334 621085.000000 0 0 1
-22.150063 13.174553 31.249596 40.505943 -0.536577 0.689630 0.037653 -0.005252 49767.300000 0 0 1
-22.611663 13.515053 32.516456 41.848105 -0.538729 0.680892 0.031637 -0.009444 -189242.000000 0 0 1
-21.612063 13.546253 33.515052 42.116992 -0.559886 0.650533 0.008728 -0.006354 -186367.000000 0 0 1
-22.108463 13.838853 -34.049326 42.891195 -0.559284 2.487916 0.011569 -0.003190 -125852.000000 0 0 1
-22.652463 12.709553 -33.429406 42.334289 -0.511300 2.481040 0.015957 -0.005827 37805.300000 0 0 1
-23.279163 13.027453 -32.200406 41.815071 -0.510198 2.449742 -0.003456 -0.010261 46205.900000 0 0 1
-23.944763 11.867553 -31.394506 41.228698 -0.460139 2.436378 -0.012653 -0.014568 125191.000000 0 0 1
-23.073163 10.902953 -30.805716 40.002967 -0.441438 2.449772 -0.002323 -0.016912 210682.000000 0 0 1
-22.993263 9.684253 -31.612196 40.271651 -0.398629 2.473450 0.002531 -0.013520 -138004.000000 0 0 1
-22.247063 8.531953 -30.921836 39.036983 -0.366210 2.485065 0.014071 -0.004772 -27774.000000 0 0 1
-23.048963 7.853553 -29.962616 38.609473 -0.328396 2.459164 0.014282 -0.004099 386920.000000 0 0 1
-22.289963 6.889553 -29.210866 37.384263 -0.299773 2.467651 0.006893 0.002686 63683.500000 0 0 1
-23.017463 5.962753 -28.189206 36.878034 -0.253481 2.440891 0.008612 0.010439 19378.300000 0 0 1
-23.851263 4.911753 -28.641796 37.594688 -0.203093 2.436972 0.023739 0.003171 99149.400000 0 0 1
-24.330163 4.173553 -27.560536 36.999440 -0.169885 2.411167 0.031582 0.006405 -345621.000000 0 0 1
-24.967463 2.817253 -27.941086 37.576794 -0.112362 2.409194 0.036386 0.005688 664165.000000 0 0 1
-26.278133 2.756053 -28.503256 38.866074 -0.104498 2.394064 0.016102 0.006691 540464.000000 0 0 1
-26.521063 3.464453 -29.734196 39.993645 -0.129895 2.409045 0.007789 0.011593 -602240.000000 0 0 1
-27.969943 3.281953 -30.242936 41.324619 -0.116804 2.391812 0.002038 0.009974 -116777.000000 0 0 1
-28.880833 3.976753 -29.413276 41.413258 -0.136835 2.360633 0.001084 0.008964 51196.400000 0 0 1
-30.165613 4.121053 -30.008116 42.748501 -0.135774 2.348955 0.000593 0.008374 438458.000000 0 0 1
-30.409533 5.420753 -30.879226 43.676663 -0.176405 2.356038 0.011921 -0.008671 -217139.000000 0 0 1
-29.513853 5.609553 -31.991476 43.886093 -0.187825 2.387607 0.024407 -0.003542 373855.000000 0 0 1
-29.689513 6.891953 -32.567916 44.605329 -0.228094 2.389316 0.024646 -0.006134 -880929.000000 0 0 1
-29.209363 8.142653 -31.864356 43.986667 -0.271866 2.380974 0.016677 -0.010038 126903.000000 0 0 1
-27.788973 8.271353 -31.727456 42.979923 -0.289298 2.401183 -0.006850 -0.009533 951237.000000 0 0 1
-27.287953 7.646153 -30.473596 41.614134 -0.273196 2.392474 -0.016671 -0.006325 -268146.000000 0 0 1
-27.508713 8.486753 -29.160966 40.977021 -0.299247 2.362629 -0.022118 -0.005067 -503349.000000 0 0 1
-28.798003 8.644753 -28.641666 41.525917 -0.291627 2.331912 -0.009397 -0.005530 -282124.000000 0 0 1
-29.094313 7.674153 -27.696196 40.895611 -0.257894 2.314803 -0.007443 0.002322 878664.000000 0 0 1
-30.402823 8.105953 -26.878826 41.382477 -0.260557 2.277752 -0.014284 0.001103 1053990.000000 0 0 1
-30.180163 9.076153 -25.899176 40.791986 -0.292129 2.258686 -0.030893 0.010068 3029.750000 0 0 1
-29.866673 8.484253 -24.668806 39.655400 -0.276780 2.242192 -0.025709 0.011337 -199678.000000 0 0 1
-29.280393 9.430353 -23.628006 38.788602 -0.311580 2.225782 -0.029983 0.011115 -355582.000000 0 0 1
-30.220023 10.271153 -22.904006 39.285365 -0.327630 2.193233 -0.025818 0.009070 741677.000000 0 0 1
-29.595233 11.354453 -22.177906 38.686703 -0.366340 2.181287 -0.018677 0.004569 -302773.000000 0 0 1
-30.590603 12.323353 -21.533106 39.386860 -0.382959 2.149224 -0.019884 0.007879 -458137.000000 0 0 1
-31.277143 11.672253 -20.503506 39.177735 -0.357181 2.121569 -0.028756 0.003102 -44232.800000 0 0 1
-31.741203 12.570753 -19.497606 39.315194 -0.377087 2.089702 -0.024013 0.002628 -154126.000000 0 0 1
-30.717783 13.087253 -18.458406 38.151948 -0.402758 2.075803 -0.024018 0.007201 -334596.000000 0 0 1
-30.357703 12.175753 -17.422906 37.059368 -0.381434 2.060240 -0.011126 0.007804 613597.000000 0 0 1
-31.367753 11.813353 -16.445106 37.335409 -0.360180 2.026918 -0.009987 0.002774 262961.000000 0 0 1
-31.735483 12.845553 -15.407006 37.543641 -0.384611 1.993663 -0.014102 0.001441 -313248.000000 0 0 1
-32.327083 13.987653 -15.945806 38.664758 -0.408367 1.995896 -0.010118 -0.001525 -15979.600000 0 0 1
-33.050513 14.710053 -14.996506 39.161426 -0.418753 1.963774 -0.012733 -0.005469 -123070.000000 0 0 1
-33.496753 16.066253 -15.523606 40.263374 -0.447224 1.966602 -0.009509 0.002000 -62530.600000 0 0 1
-34.182373 15.910953 -16.735706 41.251387 -0.435646 1.988541 -0.010977 -0.002664 186451.000000 0 0 1
-34.994254 17.000153 -17.118706 42.504743 -0.452222 1.985314 -0.019369 -0.002701 -400540.000000 0 0 1
35.092052 16.891153 -18.582106 43.151568 0.448607 2.015981 -0.018232 -0.006998 18089.500000 0 0 1
34.079369 15.982853 -18.942106 42.138561 0.438533 2.037024 0.011541 -0.016585 -1176040.000000 0 0 1
32.841799 16.506053 -18.710606 41.244640 0.465720 2.041652 0.053403 -0.021830 -1493430.000000 0 0 1
31.657329 15.568253 -19.076806 40.105879 0.457045 2.066512 0.063098 -0.029186 -22631.900000 0 0 1
31.277199 15.473653 -20.428106 40.435190 0.459420 2.100417 0.061024 -0.026920 109374.000000 0 0 1
30.319479 14.489453 -20.727806 39.482363 0.445806 2.123499 0.031227 -0.018276 -195589.000000 0 0 1
30.807389 13.033853 -20.566306 39.267665 0.400240 2.122039 0.032102 0.008276 -220747.000000 0 0 1
30.949599 12.606653 -19.217506 38.550200 0.386808 2.092671 0.045032 0.001997 -58895.500000 0 0 1
31.304389 11.224253 -19.134906 38.367867 0.344273 2.092920 0.036199 0.003187 -326515.000000 0 0 1
31.493869 10.746853 -17.679906 37.682061 0.328846 2.059165 0.030808 0.002687 -1092570.000000 0 0 1
30.365689 10.777553 -16.906006 36.387412 0.341056 2.053992 0.036843 0.002654 -1132820.000000 0 0 1
30.629579 10.389853 -15.555106 35.889852 0.327030 2.019072 0.004611 0.006730 -270273.000000 0 0 1
30.132089 11.317853 -14.452006 35.283099 0.359304 1.992813 0.020106 -0.001649 -246125.000000 0 0 1
28.759149 11.627053 -14.557906 34.266742 0.384200 2.009582 0.012440 0.006208 7716.700000 0 0 1
28.385919 12.544753 -13.582906 33.876637 0.416128 1.983352 0.015592 0.004972 -96850.800000 0 0 1
26.881229 12.921053 -13.569106 32.766976 0.448066 1.997760 0.029376 0.004631 163828.000000 0 0 1
26.137919 11.953853 -12.796806 31.461781 0.428939 1.989680 0.020547 0.011738 1711220.000000 0 0 1
24.756539 11.771553 -13.259206 30.450981 0.443850 2.021310 0.017281 0.006116 1436540.000000 0 0 1
24.547639 10.930653 -14.607606 30.585093 0.418925 2.068723 0.011692 0.006552 -666774.000000 0 0 1
24.730739 9.539053 -14.427306 30.178637 0.368133 2.069245 0.003539 0.010189 447506.000000 0 0 1
26.051449 9.123953 -14.725006 31.284985 0.336878 2.060850 0.006471 0.005837 -109958.000000 0 0 1
26.527489 7.864253 -13.981606 31.000636 0.288203 2.038693 -0.002819 0.012044 -247369.000000 0 0 1
25.831339 6.687253 -14.353706 30.298619 0.253320 2.064331 0.007039 0.012114 665738.000000 0 0 1
25.325439 6.029053 -13.149806 29.165814 0.233713 2.038529 0.001053 0.010406 92771.400000 0 0 1
24.756539 4.573453 -13.303006 28.474070 0.182678 2.056914 -0.008664 0.016957 -92934.100000 0 0 1
24.416939 4.018253 -12.088806 27.540379 0.163106 2.025224 -0.016696 0.015586 236386.000000 0 0 1
23.828839 2.710353 -12.221906 26.917180 0.113256 2.042109 -0.025229 0.009899 150294.000000 0 0 1
23.062139 2.262353 -10.971606 25.638967 0.097785 2.012994 -0.035684 0.015776 104507.000000 0 0 1
24.016339 1.987353 -9.933006 26.065278 0.082562 1.961763 -0.031199 0.023661 762437.000000 0 0 1
23.403539 1.572653 -8.734806 25.029896 0.067096 1.927273 -0.030624 0.031506 -819699.000000 0 0 1
24.272439 1.078753 -7.549106 25.442170 0.044414 1.872049 -0.019988 0.029490 -721808.000000 0 0 1
24.271539 -0.316447 -7.218806 25.324275 -0.013037 1.859860 -0.034112 0.021827 779864.000000 0 0 1
25.007239 -1.147647 -8.137406 26.322926 -0.045860 1.885082 -0.024889 0.021728 -651467.000000 0 0 1
24.927939 -2.622947 -7.666306 26.211719 -0.104835 1.867612 -0.013743 0.015675 -494950.000000 0 0 1
25.757679 -2.922847 -6.567306 26.741925 -0.112991 1.818915 -0.004024 0.009707 373279.000000 0 0 1
25.968529 -4.326847 -6.378806 27.088286 -0.165102 1.808511 0.001662 0.006484 -469731.000000 0 0 1
27.197139 -4.695147 -5.495506 28.141239 -0.170949 1.767342 0.026037 0.001151 -619231.000000 0 0 1
28.266749 -4.558747 -6.391706 29.336754 -0.159899 1.790432 0.028087 0.003025 -730927.000000 0 0 1
29.463279 -4.738847 -5.657606 30.373508 -0.159473 1.758158 0.039552 0.002904 355955.000000 0 0 1
30.702719 -4.877147 -6.613006 31.783256 -0.157534 1.780393 0.046102 -0.011070 245481.000000 0 0 1
30.468559 -6.004747 -7.418506 31.928424 -0.194586 1.805287 0.039319 -0.013159 -307855.000000 0 0 1
31.315379 -6.165647 -8.489906 33.026454 -0.194402 1.830779 0.039103 -0.015160 -1334450.000000 0 0 1
30.947979 -7.395747 -9.377706 33.172516 -0.234574 1.857399 0.030477 -0.016147 406195.000000 0 0 1
29.693279 -7.398347 -10.063606 32.213390 -0.244187 1.888519 0.041807 -0.017286 424860.000000 0 0 1
28.605529 -7.679447 -9.226906 31.022346 -0.262276 1.872794 0.044778 -0.006858 -1168820.000000 0 0 1
27.529539 -6.590647 -9.129506 29.743235 -0.234980 1.882777 0.032221 -0.005411 -852606.000000 0 0 1
26.630409 -6.776547 -10.215806 29.316598 -0.249178 1.926729 0.010309 0.000002 -331116.000000 0 0 1
25.645979 -5.810347 -10.109306 28.172228 -0.222799 1.937821 0.006850 0.010823 -215541.000000 0 0 1
24.221539 -6.270347 -9.693606 26.832186 -0.253314 1.940424 0.013424 0.012471 -612385.000000 0 0 1
24.090939 -6.704647 -8.382006 26.373920 -0.271437 1.894220 0.010828 0.005227 280930.000000 0 0 1
22.815139 -7.170847 -7.993806 25.216116 -0.304526 1.893373 0.001104 -0.000597 -339519.000000 0 0 1
21.989139 -6.024847 -7.383006 23.965178 -0.267429 1.883962 -0.004756 0.009689 -630176.000000 0 1 0
21.623739 -5.103347 -8.361906 23.739244 -0.231766 1.930760 -0.006440 0.012051 274760.000000 0 1 0
21.323339 -3.875147 -7.775706 23.025272 -0.179771 1.915272 -0.017348 0.010494 -468680.000000 0 1 0
21.026239 -2.883047 -8.935106 23.027175 -0.136267 1.969283 -0.029928 0.018426 -625901.000000 0 1 0
22.180939 -2.551147 -9.635206 24.317475 -0.114512 1.978199 -0.032669 0.024376 475725.000000 0 1 0
21.836939 -1.860147 -10.884806 24.470207 -0.084978 2.031768 -0.038452 0.023416 -787182.000000 0 1 0
23.073039 -1.839947 -11.749606 25.957730 -0.079576 2.040524 -0.017751 0.017578 -808349.000000 0 0 1
24.120739 -1.051147 -11.233006 26.628845 -0.043551 2.006266 -0.027597 0.018770 371382.000000 0 0 1
25.246139 -1.244147 -12.077206 28.013824 -0.049241 2.016526 -0.014355 0.014156 -653188.000000 0 0 1
26.397899 -0.353747 -11.618006 28.843583 -0.013400 1.985363 -0.007133 0.022730 -971634.000000 0 0 1
27.591069 -0.687547 -12.312006 30.221272 -0.024914 1.990397 0.000911 0.008601 700061.000000 0 0 1
28.625849 0.289853 -12.077606 31.070755 0.010125 1.970031 0.017181 0.009888 378774.000000 0 0 1
28.483489 1.636553 -12.845706 31.288969 0.057393 1.993854 0.019224 0.006060 -523086.000000 0 0 1
28.673369 1.374253 -14.241606 32.044875 0.047891 2.031331 0.000486 0.004511 343425.000000 0 0 1
28.740309 2.633253 -14.916706 32.487651 0.091367 2.047835 0.011301 0.008376 -193614.000000 0 0 1
29.147109 2.412953 -16.392306 33.527362 0.082597 2.081651 0.010828 0.008772 144710.000000 0 0 1
28.185559 1.710053 -17.176406 33.051156 0.060597 2.117286 0.003377 0.006899 102809.000000 0 0 1
28.676039 1.623353 -18.500106 34.164373 0.056550 2.143020 -0.002922 0.007104 -808055.000000 0 0 1
27.787859 0.924653 -19.485406 33.951452 0.033263 2.182081 -0.005212 0.009072 -488970.000000 0 0 1
27.679759 -0.474747 -19.283906 33.738160 -0.017150 2.179221 -0.000112 0.007629 141781.000000 0 0 1
27.298519 -1.171447 -20.464706 34.137745 -0.042886 2.213641 0.001993 0.003597 -84452.600000 0 0 1
27.021759 -2.669047 -20.164606 33.821747 -0.098455 2.209559 -0.001228 -0.001458 1014210.000000 0 0 1
25.754109 -2.940247 -19.498906 32.436500 -0.113674 2.215724 -0.000352 -0.002670 1337690.000000 0 0 1
25.427539 -4.318447 -19.375106 32.258386 -0.168228 2.215076 0.007475 -0.006764 128990.000000 0 0 1
26.284139 -5.077547 -18.306506 32.430936 -0.190828 2.170595 0.000243 -0.003327 1299.030000 0 0 1
27.641649 -5.252347 -18.637606 33.749196 -0.187777 2.155843 -0.008983 -0.000724 -56344.100000 0 0 1
28.363269 -5.544947 -17.452606 33.761145 -0.193062 2.114073 -0.007459 0.002478 336778.000000 0 0 1
29.912359 -5.434447 -17.511306 35.084587 -0.179719 2.093376 -0.004223 0.004919 167320.000000 0 0 1
30.461969 -6.378147 -18.390006 36.149753 -0.206399 2.104491 -0.006603 0.006955 502728.000000 0 0 1
31.823859 -5.994147 -18.627706 37.358790 -0.186173 2.092798 -0.007735 0.009006 506138.000000 0 0 1
32.635239 -6.976847 -19.493906 38.649031 -0.210612 2.099463 -0.007698 0.013094 -304335.000000 0 0 1
33.070919 -8.100347 -18.710506 38.850796 -0.240209 2.073275 -0.003006 0.008925 -27053.000000 0 0 1
33.595729 -9.081947 -19.534106 39.909097 -0.264020 2.082272 -0.002756 0.015895 -224299.000000 0 0 1
34.305519 -10.187747 -18.694606 40.375080 -0.288676 2.052200 0.002442 0.008165 -34403.200000 0 0 1
33.356059 -10.711147 -17.738406 39.268389 -0.310714 2.039491 0.002115 0.001227 794518.000000 0 0 1
33.901379 -11.503247 -16.698106 39.502594 -0.327124 2.007229 0.029936 -0.007218 -146014.000000 0 0 1
34.903943 -10.839747 -15.701706 39.778498 -0.301116 1.976569 0.031859 -0.006274 -66550.300000 0 0 1
-35.284594 -11.605847 -14.537306 39.887737 0.317774 1.943844 0.025573 -0.012707 444806.000000 0 0 1
-34.497865 -12.795847 -14.635706 39.598488 0.355186 1.949378 0.028947 -0.013625 191049.000000 0 0 1
-33.080263 -12.822647 -15.265606 38.623345 0.369791 1.977129 0.021723 -0.016762 -64550.400000 0 0 1
-33.016053 -12.464447 -16.627406 39.011445 0.360984 2.011105 0.015403 -0.002056 419772.000000 0 0 1
-31.670593 -12.424047 -17.119406 38.084872 0.373842 2.037009 0.024833 -0.009409 633115.000000 0 0 1
-31.414823 -11.467347 -18.317706 38.130428 0.350001 2.071903 0.024236 -0.002270 110251.000000 0 0 1
-31.576373 -10.121547 -17.899706 37.681727 0.310194 2.065787 0.030221 -0.004420 857464.000000 0 0 1
-32.693033 -9.448247 -18.534006 38.750654 0.281334 2.069502 0.019368 0.003257 328817.000000 0 0 1
-33.078863 -8.156847 -17.821706 38.449428 0.241765 2.052749 0.022847 0.002080 -403463.000000 0 0 1
-34.120724 -7.479547 -18.448706 39.503445 0.215795 2.056708 0.009505 0.001063 -750619.000000 0 0 1
-34.708799 -6.466847 -17.737706 39.511354 0.184205 2.036360 0.006321 0.001192 -522130.000000 0 0 1
23.383237 28.102353 -27.274736 45.611723 0.876802 2.211770 0.005064 0.011888 -81690.700000 0 0 1
23.856737 26.927553 -26.570426 44.723870 0.845792 2.206942 0.010264 0.007332 822908.000000 0 0 1
25.155337 26.618053 -27.131246 45.578682 0.813643 2.208388 0.014941 0.001112 680302.000000 0 0 1
25.949437 25.570653 -26.316996 44.942362 0.778046 2.196382 0.008868 -0.005182 -556687.000000 0 0 1
26.487537 26.149553 -25.137506 44.914173 0.778977 2.164794 0.014930 -0.001756 56529.900000 0 0 1
26.789937 25.159453 -24.201806 44.004843 0.754022 2.153137 0.013146 -0.004376 47375.500000 0 0 1
27.602337 25.704253 -22.964206 44.158266 0.749806 2.117698 0.003317 0.001911 232538.000000 0 0 1
26.843037 26.639153 -22.181406 43.842992 0.781586 2.101254 0.004292 0.011170 312323.000000 0 0 1
27.624637 27.117053 -21.099506 44.086782 0.776126 2.069845 -0.002825 0.015766 53544.900000 0 0 1
26.981437 28.243253 -20.278806 44.010332 0.808243 2.049663 0.004326 0.013169 -344332.000000 0 0 1
26.073837 27.787153 -19.302406 42.714795 0.817197 2.039680 0.003595 0.012848 -164245.000000 0 0 1
25.444137 28.868853 -18.692406 42.781081 0.848370 2.022981 0.018035 0.007780 -24986.700000 0 0 1
24.369837 28.502053 -17.650106 41.446137 0.863395 2.010705 0.025171 0.003271 -93404.500000 0 0 1
23.176137 27.976253 -18.181406 40.624717 0.878964 2.034815 0.017967 0.004273 216649.000000 0 0 1
22.182137 27.892653 -17.158906 39.553450 0.898947 2.019520 0.022182 -0.002589 264340.000000 0 0 1
21.091037 26.832953 -17.419406 38.318076 0.904643 2.042720 0.022359 0.008081 -328905.000000 0 0 1
20.234737 27.262553 -18.439306 38.635468 0.932295 2.068335 0.016337 0.009047 -486396.000000 0 0 1
19.395037 26.172053 -18.755506 37.588733 0.933042 2.093202 0.013799 0.005769 -294791.000000 0 0 1
18.790837 26.234653 -20.156406 38.047777 0.949241 2.129121 0.007608 0.008965 102971.000000 0 0 1
17.842337 27.288053 -20.347206 38.431701 0.991718 2.128734 -0.002871 0.006018 -319312.000000 0 0 1
17.088837 27.050453 -21.477606 38.536255 1.007365 2.161969 -0.000935 0.015875 -338218.000000 0 0 1
15.890837 28.038353 -21.543906 38.766066 1.055182 2.160051 -0.009877 0.013322 121247.000000 0 0 1
15.006337 27.779553 -20.463506 37.625109 1.075513 2.145849 -0.004431 0.012007 -103784.000000 0 0 1
14.023637 28.776553 -20.264106 37.886494 1.117337 2.135143 -0.009509 0.007228 316660.000000 0 0 1
13.373937 28.744053 -18.869106 36.893441 1.135311 2.107666 -0.008876 0.003053 -117331.000000 0 0 1
12.572037 27.608453 -18.596306 35.582375 1.143486 2.120726 -0.001676 0.001607 -83770.200000 0 0 1
11.879637 27.772753 -17.365106 34.842482 1.166604 2.092536 -0.003931 0.000759 115522.000000 0 0 1
11.135237 26.445553 -16.979306 33.341530 1.172265 2.105114 0.012366 0.003590 89590.900000 0 0 1
11.983937 25.384253 -16.551906 32.587431 1.129716 2.103568 0.001655 0.008658 -4951.570000 0 0 1
11.248737 24.234753 -16.211006 31.251465 1.136232 2.116159 0.012477 0.007788 355110.000000 0 0 1
12.143537 23.012853 -16.521106 30.822133 1.085247 2.136505 0.000787 0.011982 412455.000000 0 0 1
12.528137 22.879853 -17.934606 31.655837 1.069827 2.173109 0.010403 0.009942 -366601.000000 0 0 1
13.418037 21.855253 -18.202106 31.448569 1.020182 2.188040 0.018235 0.008406 -289190.000000 0 0 1
12.712037 20.451953 -18.320106 30.257306 1.014677 2.221162 0.016674 0.007839 448716.000000 0 0 1
12.085237 19.945153 -17.127906 28.934880 1.026033 2.204268 0.018068 0.007790 -22621.400000 0 0 1
11.599237 18.629753 -17.234506 27.904090 1.013911 2.236527 0.016904 0.005870 101093.000000 0 0 1
12.656337 17.480753 -17.402106 27.723508 0.944134 2.249394 0.007849 0.004686 44515.900000 0 0 1
13.303537 17.228353 -16.184406 27.124440 0.913245 2.210144 -0.003148 0.007113 -349353.000000 0 0 1
14.242537 16.211953 -16.347206 27.072282 0.849976 2.219101 0.004761 0.006364 -1066360.000000 0 0 1
14.728737 15.640353 -15.044706 26.227839 0.815407 2.181710 0.016384 0.013137 -1255370.000000 0 0 1
15.390637 16.515253 -14.144906 26.640264 0.820632 2.130529 0.005334 0.012523 1162150.000000 0 0 1
16.714737 16.972753 -14.494006 27.884279 0.793057 2.117403 0.004401 0.010458 603893.000000 0 0 1
17.774837 15.883453 -14.795006 28.055679 0.729264 2.126268 0.012113 0.001085 -1258500.000000 0 0 1
18.056337 14.888853 -13.806406 27.172157 0.689549 2.103784 0.015355 -0.001824 321996.000000 0 0 1
18.731037 15.324653 -12.657706 27.311431 0.685706 2.052690 0.015676 0.001519 -441343.000000 0 0 1
19.374837 14.246853 -11.786506 26.782062 0.634044 2.026495 0.022582 -0.001351 -270441.000000 0 0 1
18.426937 13.387453 -11.183006 25.373915 0.628301 2.027206 0.021805 -0.002562 365112.000000 0 0 1
18.999937 12.346753 -10.415106 24.938211 0.576257 2.001639 0.027889 0.003934 -163018.000000 0 1 0
19.590037 11.119453 -11.141006 25.130336 0.516261 2.030105 0.027999 0.001490 -1220060.000000 0 0 1
20.771537 11.400653 -11.813606 26.476271 0.501967 2.033307 0.026694 0.003918 -86556.600000 0 0 1
21.193237 10.315053 -12.681506 26.765168 0.452963 2.064404 0.013546 0.008641 -69694.000000 0 0 1
21.958937 9.118353 -12.093006 26.675458 0.393580 2.041303 0.006391 0.015105 -512796.000000 0 0 1
21.144337 8.475253 -11.115206 25.346809 0.381220 2.024753 0.006990 0.008634 484087.000000 0 0 1
21.692437 7.392153 -10.417306 25.173915 0.328429 1.997435 -0.005816 0.019377 -779617.000000 0 0 1
22.102337 6.082153 -11.205706 25.516147 0.268535 2.025461 -0.006454 0.017008 -87004.300000 0 0 1
21.071837 5.195153 -11.655706 24.634679 0.241724 2.063650 0.005126 0.014146 899158.000000 0 1 0
20.198137 5.658853 -12.704106 24.523084 0.273164 2.115362 -0.020587 0.007005 -197283.000000 0 1 0
19.296337 4.552753 -13.185906 23.810592 0.231701 2.157697 -0.014323 -0.004692 -668835.000000 0 1 0
19.947937 3.562853 -13.872706 24.557404 0.176744 2.171120 -0.016942 0.002026 117654.000000 0 1 0
19.075137 2.468053 -14.020506 23.801822 0.128671 2.200681 -0.007336 0.006385 79919.200000 0 1 0
19.769037 1.289453 -14.796806 24.726969 0.065134 2.212308 0.003948 0.003474 154841.000000 0 1 0
20.699537 0.566553 -14.029106 25.012150 0.027364 2.166259 0.000629 0.005440 3771.570000 0 0 1
21.855937 0.182753 -14.725606 26.354485 0.008362 2.163676 -0.018227 -0.003354 -434163.000000 0 0 1
21.929737 -1.175147 -15.434806 26.842645 -0.053536 2.183413 -0.008140 0.003793 -1148110.000000 0 0 1
21.055937 -1.271747 -16.498206 26.779855 -0.060325 2.234537 -0.010482 0.008055 -10780.500000 0 0 1
21.501537 -2.312647 -17.390106 27.750319 -0.107145 2.248060 0.000750 0.002805 28356.300000 0 0 1
20.279637 -2.971747 -18.075906 27.328252 -0.145503 2.293529 0.001230 -0.004359 -666644.000000 0 0 1
19.573437 -3.737747 -17.202706 26.325335 -0.188688 2.282950 0.004622 -0.005468 -319823.000000 0 0 1
18.664637 -4.453647 -18.042906 26.339136 -0.234234 2.325431 0.010301 -0.009217 -332434.000000 0 0 1
18.148137 -5.720047 -17.288406 25.709197 -0.305330 2.308324 0.015266 -0.014607 -352118.000000 0 0 1
19.038537 -6.775647 -16.996106 26.405357 -0.341913 2.270069 0.008703 -0.006332 223360.000000 0 0 1
18.354737 -7.787247 -16.299306 25.752766 -0.401247 2.256109 0.012675 0.004012 -143526.000000 0 0 1
19.320537 -8.840247 -15.749706 26.447804 -0.429121 2.208686 0.019733 0.008823 -130941.000000 0 0 1
19.816937 -9.697347 -16.759606 27.706207 -0.455088 2.220442 0.021379 -0.003526 506406.000000 0 0 1
20.639137 -10.712647 -16.151706 28.312760 -0.478767 2.177880 0.011309 -0.011523 -116759.000000 0 0 1
21.289637 -11.577147 -17.261706 29.753075 -0.498065 2.189728 0.011186 -0.011642 -454191.000000 0 0 1
22.194237 -10.864447 -18.039206 30.594661 -0.455226 2.201384 0.006694 -0.010618 -216177.000000 0 0 1
22.612937 -11.697647 -19.130106 31.845578 -0.477391 2.215191 0.012919 -0.013507 -681463.000000 0 0 1
21.698237 -11.438447 -20.407306 31.907831 -0.485139 2.264736 0.024018 -0.011626 519969.000000 0 0 1
20.379737 -11.903247 -20.253706 31.100379 -0.528626 2.280009 0.023229 -0.029622 -277951.000000 0 0 1
20.269637 -13.325447 -20.218806 31.578883 -0.581566 2.265638 0.016304 -0.019475 -1122790.000000 0 0 1
18.826837 -13.765947 -19.950606 30.691656 -0.631352 2.278425 0.015206 -0.009253 -520255.000000 0 0 1
18.043637 -13.462747 -21.044806 30.817239 -0.641014 2.322509 0.017005 -0.006529 -858351.000000 0 0 1
16.678337 -13.667847 -20.809506 29.966857 -0.686517 2.338406 0.023151 0.000207 -103091.000000 0 0 1
15.751337 -13.177947 -21.955706 30.063531 -0.696677 2.389572 0.025071 -0.005290 -196731.000000 0 0 1
16.095237 -13.754247 -23.242506 31.439625 -0.707132 2.402788 0.012261 0.003827 365865.000000 0 0 1
15.722437 -12.914647 -24.283806 31.681009 -0.687663 2.444185 0.022196 0.001928 -194441.000000 0 0 1
15.800137 -13.741947 -25.604116 33.076520 -0.715841 2.456069 0.012795 0.005051 -10760.700000 0 0 1
14.823037 -14.792247 -25.710056 33.159312 -0.784358 2.458065 0.021717 0.000854 433809.000000 0 0 1
14.830137 -15.540747 -26.977926 34.485595 -0.808792 2.469139 0.014787 0.005116 -639226.000000 0 0 1
15.776037 -16.721247 -26.964386 35.433904 -0.814476 2.435614 0.015924 0.006017 -733163.000000 0 0 1
17.145337 -16.447547 -26.937426 35.918091 -0.764629 2.418810 0.019739 0.011053 -632757.000000 0 0 1
17.809237 -17.610847 -27.354146 37.088545 -0.779797 2.400211 0.016355 0.007906 -475820.000000 0 0 1
19.331537 -17.446447 -27.334246 37.752455 -0.734187 2.380436 0.002686 0.009556 -471786.000000 0 0 1
19.738637 -17.155447 -26.040116 36.905430 -0.715496 2.354052 0.006756 0.005337 15574.600000 0 0 1
21.119737 -16.820247 -25.992216 37.477450 -0.672556 2.337192 0.005427 0.008750 187521.000000 0 0 1
21.622937 -16.162747 -24.688306 36.582759 -0.641887 2.311574 0.004476 0.004326 -162569.000000 0 0 1
21.400337 -14.771147 -24.506106 35.731085 -0.604139 2.326565 0.018494 -0.005641 69239.100000 0 0 1
20.006137 -14.509847 -24.363906 34.704194 -0.627485 2.349061 0.021463 -0.004091 350759.000000 0 0 1
19.673137 -13.110447 -23.793606 33.541792 -0.587827 2.359403 0.025424 -0.003901 -131880.000000 0 0 1
19.939437 -12.055947 -24.645706 33.916631 -0.543816 2.384237 0.029215 -0.009880 157028.000000 0 0 1
19.987737 -10.834247 -23.936106 33.012539 -0.496715 2.381919 0.034254 -0.013153 43393.700000 0 0 1
20.040937 -9.572847 -24.828306 33.312510 -0.445620 2.411803 0.043346 -0.016076 12368.000000 0 0 1
19.601037 -8.395847 -24.120406 32.194485 -0.404694 2.417664 0.055526 -0.020419 143041.000000 0 0 1
19.341337 -7.400547 -25.059356 32.508872 -0.365442 2.450966 0.043876 -0.020389 -208907.000000 0 0 1
18.730237 -6.186347 -24.309606 31.305744 -0.319006 2.459924 0.045565 -0.024950 166002.000000 0 0 1
17.434837 -6.392747 -23.772906 30.166071 -0.351443 2.478460 0.041681 -0.021434 189450.000000 0 0 1
17.008337 -5.406447 -22.777106 28.936305 -0.307770 2.476965 0.020375 -0.018207 75337.400000 0 0 1
17.856837 -5.412147 -21.456406 28.434756 -0.294285 2.425816 0.027328 -0.021702 -183497.000000 0 0 1
17.673237 -6.500847 -20.575406 27.891785 -0.352475 2.400434 0.033133 -0.024709 242477.000000 0 0 1
18.182937 -7.751147 -21.008406 28.845322 -0.402960 2.386652 0.039258 -0.023769 -344233.000000 0 0 1
17.960437 -8.871247 -19.990806 28.300329 -0.458782 2.355168 0.042869 -0.026039 553874.000000 0 0 1
16.595737 -9.205747 -19.720206 27.368792 -0.506449 2.375372 0.046442 -0.019930 192934.000000 0 0 1
16.436337 -10.401447 -18.929906 27.141935 -0.564212 2.342617 0.037793 -0.017226 -206949.000000 0 0 1
14.944037 -10.609647 -18.564706 26.087107 -0.617378 2.362630 0.031850 -0.012463 60624.400000 0 0 1
14.405437 -9.758247 -17.579606 24.734238 -0.595397 2.361346 0.043455 -0.011798 60060.700000 0 1 0
14.230337 -8.451847 -18.032606 24.476746 -0.535945 2.399009 0.049861 -0.020728 -1279070.000000 0 1 0
13.207637 -7.532747 -17.362506 23.079007 -0.518320 2.422354 0.059193 -0.005989 -405661.000000 0 1 0
11.921837 -7.756047 -17.877706 22.845105 -0.576779 2.469566 0.044079 -0.015529 -233780.000000 0 1 0
10.990137 -6.805947 -17.406006 21.681169 -0.554474 2.502801 0.036625 -0.017553 216085.000000 0 1 0
9.520037 -6.997747 -17.853706 21.409213 -0.633867 2.556981 0.035906 -0.014335 298245.000000 0 1 0
9.211937 -6.653247 -19.203206 22.313418 -0.625498 2.607268 0.026405 -0.015553 448222.000000 0 1 0
7.797337 -6.510147 -19.383206 21.883536 -0.695673 2.658890 0.020041 -0.021703 664738.000000 0 1 0
7.344937 -6.107847 -20.793606 22.882918 -0.693698 2.710945 0.015059 -0.025626 -212655.000000 0 1 0
7.357737 -7.100147 -21.812406 24.090028 -0.767583 2.703244 0.019483 -0.020735 -816480.000000 0 1 0
6.521837 -6.769247 -22.821206 24.681258 -0.804011 2.750878 0.016396 -0.020299 -750440.000000 0 1 0
6.466637 -7.708347 -24.085706 26.102821 -0.872774 2.745886 0.016143 -0.013438 -288479.000000 0 0 1
5.786537 -8.881847 -23.758006 26.015650 -0.993366 2.721914 0.013579 -0.016565 -65101.200000 0 0 1
5.897837 -9.699347 -24.872006 27.340053 -1.024467 2.713424 0.020120 -0.003298 -263514.000000 0 0 1
5.031437 -10.942347 -24.880606 27.642266 -1.139812 2.690779 0.015452 -0.006747 -125552.000000 0 0 1
5.600237 -12.034047 -24.162206 27.567973 -1.135238 2.639255 0.017288 -0.019019 143417.000000 0 0 1
4.617637 -13.027147 -23.837106 27.554251 -1.230151 2.616141 0.022355 -0.026537 -380345.000000 0 0 1
5.004937 -14.231647 -22.969506 27.480673 -1.232629 2.560461 0.031913 -0.024585 -268765.000000 0 0 1
5.902537 -15.199247 -23.539106 28.634709 -1.200378 2.535795 0.055974 -0.015576 -444321.000000 0 0 1
7.184837 -14.880647 -23.964606 29.109412 -1.120978 2.537926 0.040791 -0.008593 -615282.000000 0 0 1
8.144537 -14.380947 -22.888606 28.231780 -1.055493 2.516210 0.045073 0.000228 -1110820.000000 0 0 1
8.686437 -15.280447 -21.961106 28.128925 -1.053885 2.466630 0.044799 0.007210 -157022.000000 0 0 1
7.957237 -15.391047 -20.773006 27.050318 -1.093638 2.446414 0.029620 -0.002188 46484.700000 0 0 1
8.859637 -15.436547 -19.493806 26.396754 -1.049760 2.401628 0.031947 -0.009691 172570.000000 0 0 1
9.753837 -16.522747 -19.483206 27.344722 -1.037519 2.363856 0.038795 -0.010254 -377491.000000 0 0 1
10.215137 -16.818047 -18.151906 26.771018 -1.024960 2.315893 0.016342 -0.005324 175234.000000 0 0 1
9.171737 -17.531547 -17.200806 26.217239 -1.088796 2.286419 0.014211 0.002115 -58504.000000 0 0 1
8.935737 -18.943147 -17.336206 27.188862 -1.130033 2.262203 0.000960 -0.000408 28684.300000 0 0 1
8.092637 -19.376347 -18.390806 27.913354 -1.175163 2.290090 0.029610 -0.002201 887334.000000 0 0 1
6.545537 -19.170947 -18.198306 27.231372 -1.241777 2.302697 0.035378 -0.001175 602015.000000 0 0 1
6.181737 -17.799647 -18.208806 26.203090 -1.236533 2.339092 0.024984 -0.000911 557365.000000 0 0 1
4.766837 -17.598947 -18.386106 25.893910 -1.306284 2.360373 0.031497 0.001040 960873.000000 0 0 1
4.345637 -16.196147 -17.924506 24.545624 -1.308658 2.389488 0.012242 0.009029 -46274.000000 0 1 0
4.430637 -16.000247 -16.566306 23.453804 -1.300655 2.355107 -0.004194 0.010480 69561.200000 0 1 0
4.361737 -14.640147 -16.286906 22.329844 -1.281240 2.388209 0.001382 0.012003 102784.000000 0 1 0
10.728237 30.916953 -18.363706 37.525708 1.236795 2.082156 0.008389 -0.001590 39307.000000 0 0 1
9.660537 30.499753 -19.229006 37.327143 1.264052 2.111977 0.019781 0.000382 1013820.000000 0 0 1
8.736537 29.617353 -18.519506 36.006761 1.283951 2.111027 0.017958 0.002874 24899.400000 0 0 1
7.809737 28.866653 -19.424106 35.659102 1.306576 2.146848 0.032107 -0.003571 -1290730.000000 0 0 1
6.793737 29.683753 -19.872606 36.362076 1.345801 2.149000 0.038658 -0.015854 -896319.000000 0 0 1
6.094437 29.011453 -20.893506 36.267688 1.363737 2.184735 0.050285 -0.028760 -490034.000000 0 0 1
4.941937 29.855753 -21.399806 37.064005 1.406757 2.186306 0.056143 -0.030953 -691838.000000 0 0 1
3.819437 29.906853 -20.569606 36.498174 1.443773 2.169508 0.060296 -0.030128 -124678.000000 0 0 1
2.787737 30.682953 -21.212306 37.405575 1.480189 2.173764 0.051692 -0.025311 -544201.000000 0 0 1
1.427637 30.381153 -20.604906 36.737104 1.523840 2.166238 0.062137 -0.022108 -633938.000000 0 0 1
0.719037 29.176953 -20.879706 35.885565 1.546157 2.191787 0.059989 -0.040021 61607.200000 0 0 1
0.170937 29.163653 -22.180806 36.640634 1.564935 2.221016 0.057225 -0.036526 -489349.000000 0 0 1
-0.340063 27.723053 -22.572806 35.752132 -1.558531 2.254114 0.056363 -0.031974 165252.000000 0 0 1
-1.422663 27.332953 -21.758906 34.965187 -1.518794 2.242476 0.055252 -0.031036 52569.200000 0 0 1
-1.960463 26.059853 -22.105306 34.228701 -1.495709 2.272883 0.062282 -0.033611 -145938.000000 0 0 1
-3.052263 25.499853 -21.191906 33.296482 -1.451666 2.260697 0.054944 -0.027685 377520.000000 0 0 1
-4.248563 26.296653 -21.223006 34.058483 -1.410618 2.243540 0.037278 -0.022468 259703.000000 0 0 1
-5.192163 25.910353 -20.276806 33.308465 -1.373026 2.225291 0.038352 -0.021218 -378678.000000 0 0 1
-6.543363 26.611453 -20.463406 34.201404 -1.329694 2.212200 0.027525 -0.021236 641641.000000 0 0 1
-7.617163 26.163153 -19.601606 33.567168 -1.287487 2.194384 0.041664 -0.023241 764108.000000 0 0 1
-8.389663 27.232953 -19.001106 34.249996 -1.271952 2.158891 0.039036 -0.021650 1293200.000000 0 0 1
-9.593863 26.726653 -18.098606 33.673666 -1.226160 2.138231 0.036839 -0.017381 875270.000000 0 0 1
-9.246663 25.860753 -17.007006 32.303523 -1.227406 2.125246 0.053916 -0.016913 183041.000000 0 0 1
-10.444963 25.176653 -16.642206 31.936252 -1.177540 2.118944 0.030656 -0.020642 613920.000000 0 0 1
-10.196263 24.425853 -15.275306 30.560122 -1.175349 2.094215 0.039651 -0.013152 385722.000000 0 0 1
-9.399663 23.238153 -15.408806 29.424424 -1.186423 2.121954 0.045305 -0.013934 85033.400000 0 0 1
-9.340163 22.586453 -14.163806 28.248893 -1.178681 2.096005 0.054978 -0.011628 -106750.000000 0 0 1
-8.960063 21.112053 -14.242906 26.997443 -1.169430 2.126528 0.074048 -0.007327 818372.000000 0 0 1
-10.038863 20.198653 -14.601406 26.869415 -1.109546 2.145303 0.045944 -0.006869 454124.000000 0 0 1
-10.514563 20.156553 -15.956606 27.775096 -1.089983 2.182781 0.066460 -0.004590 409512.000000 0 0 1
-9.397063 20.061353 -17.074006 27.969347 -1.132733 2.227430 0.056716 -0.005577 387011.000000 0 0 1
-8.737363 18.823353 -17.107306 26.894611 -1.136216 2.260212 0.041414 -0.003676 -225606.000000 0 0 1
-7.811463 18.772653 -18.167806 27.267208 -1.176481 2.300016 0.051758 -0.001595 -119570.000000 0 0 1
-7.331263 17.320853 -18.396606 26.309590 -1.170399 2.345124 0.051561 -0.007212 -302677.000000 0 0 1
-8.196663 16.419153 -19.060706 26.459108 -1.107778 2.375151 0.036926 -0.008625 -558894.000000 0 0 1
-7.686963 15.524353 -20.011606 26.468081 -1.111032 2.428077 0.028339 -0.008770 365885.000000 0 0 1
-6.491563 14.556253 -19.653506 25.303858 -1.151304 2.460206 0.026102 -0.011105 335475.000000 0 0 1
-6.723063 13.488553 -18.730106 24.040747 -1.108408 2.464023 0.008422 -0.008911 567443.000000 0 1 0
-5.510763 12.757053 -18.464206 23.109259 -1.163030 2.496420 0.010589 -0.006677 809662.000000 0 1 0
-4.679263 13.235353 -17.259106 22.247401 -1.230969 2.458748 0.019231 -0.004918 -284940.000000 0 1 0
-4.155263 14.507553 -17.434106 23.058261 -1.291844 2.428113 0.025835 -0.010441 -656403.000000 0 1 0
-3.534963 14.900453 -16.258006 22.334777 -1.337864 2.386085 0.025917 -0.001706 -285543.000000 0 1 0
-2.663863 16.150453 -16.428406 23.191073 -1.407328 2.358016 0.034762 0.001049 337773.000000 0 1 0
-3.373263 17.378853 -16.711106 24.344702 -1.379079 2.327374 0.039248 0.002071 425786.000000 0 1 0
-2.403563 18.421253 -16.870606 25.094562 -1.441052 2.308082 0.050305 0.000120 398459.000000 0 0 1
-2.982863 19.714553 -17.385606 26.454119 -1.420633 2.287892 0.056390 -0.007483 112860.000000 0 0 1
-3.300563 19.667653 -18.760506 27.380046 -1.404529 2.325659 0.070033 -0.013317 -105293.000000 0 0 1
-3.867063 20.807453 -19.385506 28.700212 -1.387043 2.312369 0.077775 -0.008968 46938.600000 0 0 1
-2.868163 21.949953 -19.580306 29.553599 -1.440864 2.294995 0.063323 -0.008056 -752239.000000 0 0 1
-1.817763 21.693653 -20.485506 29.892722 -1.487199 2.325813 0.079177 -0.008478 -330448.000000 0 0 1
-0.844863 22.689453 -20.357806 30.495334 -1.533578 2.301738 0.066044 -0.012053 -97359.600000 0 0 1
0.262037 22.554853 -19.287206 29.678046 1.559179 2.278225 0.061093 -0.006823 -304613.000000 0 0 1
-0.244363 22.493653 -17.953606 28.781177 -1.559933 2.244387 0.055079 -0.003797 -534309.000000 0 0 1
0.856437 22.349053 -17.104006 28.156007 1.532494 2.223671 0.039351 -0.000769 -271212.000000 0 0 1
0.618237 22.276453 -15.619206 27.213640 1.543051 2.182115 0.043990 -0.000023 -796658.000000 0 0 1
-0.105663 21.191253 -15.223106 26.092592 -1.565810 2.193737 0.040971 0.007527 -449629.000000 0 0 1
0.092137 20.882853 -13.828406 25.046494 1.566384 2.155688 0.033318 0.002958 -626817.000000 0 0 1
-0.936563 19.891953 -13.347806 23.973546 -1.523749 2.161291 0.033657 0.004927 -524959.000000 0 1 0
-0.684763 18.507753 -13.456006 22.892574 -1.533814 2.199120 0.024767 0.002649 -294319.000000 0 1 0
-1.669863 17.778653 -12.775606 21.956436 -1.477146 2.191812 0.020165 0.002040 -94150.500000 0 1 0
-1.524863 16.217153 -12.891406 20.772810 -1.477044 2.240292 0.018923 0.000775 57457.700000 0 1 0
-0.493263 15.617653 -12.079806 19.750345 -1.539223 2.228909 0.009341 -0.006287 579532.000000 0 1 0
-0.127963 14.298353 -12.308806 18.867061 -1.561847 2.281539 0.012966 -0.002454 -12929.500000 0 1 0
0.553237 13.927553 -13.656106 19.513381 1.531095 2.345960 0.022373 -0.004297 -221130.000000 0 1 0
-0.259263 13.680853 -14.796406 20.153576 -1.551848 2.395258 0.019503 -0.007495 116951.000000 0 1 0
0.425237 12.805353 -15.649706 20.225509 1.537601 2.455553 0.025025 -0.012311 120350.000000 0 1 0
-0.276763 12.677453 -17.069806 21.264353 -1.548969 2.502677 0.025068 -0.007245 290300.000000 0 1 0
-0.299863 13.953153 -17.717306 22.554010 -1.549309 2.474381 0.035748 -0.006174 64493.700000 0 1 0
-0.875963 13.852153 -18.994606 23.525402 -1.507644 2.510542 0.046084 -0.010310 -285596.000000 0 1 0
-1.239563 15.210253 -19.598406 24.839200 -1.489481 2.479994 0.045782 -0.003390 -760058.000000 0 1 0
-0.210163 16.068553 -19.871306 25.556044 -1.557718 2.461569 0.043636 -0.008225 -402313.000000 0 0 1
-0.797763 17.377953 -20.073306 26.562517 -1.524922 2.427519 0.061112 -0.007540 662470.000000 0 0 1
0.305337 18.420553 -20.399506 27.487268 1.554222 2.407060 0.077790 -0.004719 335687.000000 0 0 1
0.907737 18.351253 -21.679406 28.418113 1.521372 2.438541 0.061110 -0.006467 -124237.000000 0 0 1
1.737437 19.454653 -21.914706 29.355691 1.481726 2.413618 0.057716 -0.006854 -188887.000000 0 0 1
2.281437 19.431753 -23.325106 30.444352 1.453924 2.443634 0.065586 -0.009260 -203553.000000 0 0 1
3.096437 18.311953 -23.531006 29.977055 1.403287 2.473440 0.048254 -0.008292 -414163.000000 0 0 1
3.190737 18.117053 -24.896806 30.955765 1.396466 2.505243 0.049258 -0.019032 103395.000000 0 0 1
4.112937 16.968553 -25.365056 30.793411 1.332997 2.538732 0.037341 -0.008498 119157.000000 0 0 1
5.467337 17.109253 -24.915006 30.714424 1.261498 2.516968 0.027400 -0.001180 548054.000000 0 0 1
6.222937 15.966653 -25.335356 30.586586 1.199161 2.546891 0.030768 -0.009627 88452.000000 0 0 1
6.779037 16.039953 -26.746796 31.915930 1.170931 2.564476 0.024876 -0.010776 -1117580.000000 0 0 1
7.814137 17.012753 -26.908686 32.780664 1.140227 2.533730 0.010964 -0.006262 289195.000000 0 0 1
8.201837 17.354353 -28.245926 34.150784 1.129300 2.544715 0.015755 -0.011308 29971.500000 0 0 1
8.895837 16.160053 -28.948096 34.326018 1.067582 2.574243 0.022190 -0.017089 219895.000000 0 0 1
10.229337 15.877753 -28.476406 34.170866 0.998470 2.555943 0.024534 -0.016619 727660.000000 0 0 1
10.697137 14.549553 -28.786836 33.982351 0.936821 2.581322 0.023107 -0.012098 -145655.000000 0 0 1
10.332837 13.449953 -27.771716 32.541312 0.915721 2.593327 0.021105 -0.016197 65656.700000 0 0 1
8.952337 13.135553 -27.743616 31.974917 0.972571 2.621289 0.015570 -0.013157 56717.800000 0 0 1
8.510237 12.601353 -26.531616 30.580139 0.976811 2.621171 0.026753 -0.011214 -1013430.000000 0 0 1
7.159137 11.981353 -26.536466 29.983164 1.032200 2.657388 0.044467 -0.018949 -273208.000000 0 0 1
6.019637 12.820853 -26.799006 30.311665 1.131829 2.655394 0.048960 -0.018621 659148.000000 0 0 1
4.837637 12.052353 -26.937976 29.905125 1.189096 2.692361 0.059033 -0.016603 566165.000000 0 0 1
3.506437 12.835153 -27.062426 30.156445 1.304114 2.684640 0.069324 -0.022795 330530.000000 0 0 1
3.050237 13.184953 -28.389246 31.449901 1.343453 2.696757 0.071725 -0.031874 568219.000000 0 0 1
3.664437 14.429753 -28.814196 32.433066 1.322103 2.664689 0.071151 -0.033165 236463.000000 0 0 1
3.733437 14.616653 -30.356176 33.898120 1.320720 2.680377 0.081111 -0.034182 158196.000000 0 0 1
4.605237 13.648553 -30.949416 34.137334 1.245376 2.705988 0.079175 -0.034836 -32512.400000 0 0 1
4.577237 13.684653 -32.400376 35.468369 1.248015 2.722603 0.071341 -0.031308 -913436.000000 0 0 1
5.655037 12.763353 -32.981036 35.813843 1.153722 2.741184 0.074772 -0.029813 862197.000000 0 0 1
7.038537 13.078753 -32.726306 35.938919 1.077084 2.715552 0.078926 -0.025722 950108.000000 0 0 1
7.510637 13.029353 -31.384166 34.801431 1.047881 2.694729 0.064846 -0.023054 -1024620.000000 0 0 1
7.512137 11.605653 -30.692736 33.662553 0.996334 2.718386 0.065995 -0.019625 321740.000000 0 0 1
8.630537 10.719653 -30.914436 33.839319 0.892945 2.722763 0.043951 -0.012778 292671.000000 0 0 1
8.588537 9.596053 -30.063406 32.705590 0.840747 2.736874 0.047115 -0.012825 -218366.000000 0 0 1
9.694937 8.577453 -30.303286 32.952294 0.724317 2.737885 0.022054 -0.004025 -1016700.000000 0 0 1
10.891537 8.865253 -29.685416 32.839644 0.683194 2.699716 0.026117 -0.008943 -1034790.000000 0 0 1
11.692837 7.712553 -29.795896 32.924176 0.583092 2.702142 0.000637 0.007173 -229496.000000 0 0 1
12.946937 7.736053 -28.853926 32.557929 0.538594 2.659946 0.000381 0.009413 1039250.000000 0 0 1
13.674137 6.471353 -28.658716 32.406519 0.442024 2.655897 -0.004730 0.007521 392413.000000 0 0 1
14.417137 6.078053 -29.788736 33.647665 0.398975 2.657964 -0.013131 0.010041 -745136.000000 0 0 1
15.230437 4.797653 -29.459386 33.508792 0.305165 2.644880 -0.007875 0.004084 33961.100000 0 0 1
16.085437 4.982353 -28.362096 32.984445 0.300371 2.605797 -0.013293 -0.004013 381137.000000 0 0 1
16.967037 3.864553 -28.146496 33.091394 0.223948 2.587862 -0.011023 -0.002811 213249.000000 0 0 1
17.629237 3.854353 -26.778086 32.291050 0.215247 2.548601 -0.013596 -0.002958 -5212.700000 0 0 1
18.444237 5.020153 -26.686966 32.826605 0.265743 2.520027 0.005377 -0.008875 202936.000000 0 0 1
19.021237 5.232653 -25.401416 32.162401 0.268455 2.481256 0.005362 -0.005701 -119837.000000 0 0 1
20.026637 6.405853 -25.331326 32.920772 0.309582 2.448797 -0.006390 -0.004125 -401500.000000 0 0 1
19.587237 7.704053 -25.698926 33.218174 0.374735 2.455363 0.006570 -0.004874 -104275.000000 0 0 1
20.606337 8.532153 -26.208116 34.413429 0.392564 2.436523 0.020753 -0.012114 -485997.000000 0 0 1
20.689937 8.497753 -27.730596 35.626834 0.389713 2.462850 0.016676 -0.008832 213205.000000 0 0 1
19.517337 8.856153 -28.459566 35.627304 0.425975 2.496116 0.020150 -0.004227 649319.000000 0 0 1
18.564237 7.811053 -28.681976 35.047100 0.398272 2.529389 0.011155 0.000438 162462.000000 0 0 1
17.212537 8.311953 -29.235516 34.929578 0.449875 2.562546 0.007688 0.011582 -251674.000000 0 0 1
17.168637 8.494753 -30.606756 36.106737 0.459465 2.582382 0.003473 0.016268 139825.000000 0 0 1
16.069037 9.351753 -30.825106 35.998006 0.527059 2.598860 -0.007523 0.014160 -313879.000000 0 0 1
15.608737 9.210653 -32.257106 36.999861 0.533105 2.629696 -0.014301 0.017687 -285661.000000 0 0 1
14.920437 8.038053 -32.523266 36.674141 0.494148 2.661208 -0.008725 0.018375 -168637.000000 0 0 1
13.784637 8.226353 -33.334226 36.998105 0.538046 2.692799 -0.020336 0.014690 5717.950000 0 0 1
13.171437 6.910553 -33.796926 36.925259 0.483182 2.726997 -0.021370 0.016184 60247.200000 0 0 1
12.493237 6.159753 -32.794246 35.629849 0.458070 2.739937 0.000741 0.008428 381773.000000 0 0 1
11.921837 4.942053 -33.352336 35.762165 0.392976 2.772389 0.007235 -0.000268 210024.000000 0 0 1
11.632637 3.856653 -32.268496 34.517356 0.320133 2.778628 0.017588 -0.003951 876720.000000 0 0 1
12.735437 3.018153 -31.784426 34.373687 0.232696 2.750973 0.007191 -0.009865 912606.000000 0 0 1
12.306037 2.136653 -30.803006 33.238968 0.171913 2.756367 0.009467 -0.010998 -159979.000000 0 0 1
11.642337 0.792853 -31.356566 33.457538 0.067996 2.785324 0.008524 -0.005138 165537.000000 0 0 1
12.407437 -0.163047 -32.088836 34.404425 -0.013140 2.772611 0.002805 -0.004252 131587.000000 0 0 1
13.500737 -0.690047 -31.332176 34.124058 -0.051067 2.734269 -0.004136 -0.006184 372463.000000 0 0 1
14.030137 -2.006747 -31.960036 34.961632 -0.142068 2.724193 0.003782 -0.011812 302624.000000 0 0 1
13.088237 -3.094747 -31.865516 34.587433 -0.232188 2.742215 0.010119 -0.009680 336020.000000 0 0 1
13.460737 -4.254147 -32.601596 35.526797 -0.306108 2.732953 0.005061 -0.009064 -288456.000000 0 0 1
12.573937 -5.500747 -32.531676 35.308244 -0.412387 2.742366 0.020790 -0.009924 -390506.000000 0 0 1
12.933437 -6.347947 -31.428916 34.573791 -0.456274 2.711768 0.012907 -0.006781 133064.000000 0 0 1
12.403437 -7.681547 -31.506446 34.720420 -0.554496 2.707930 0.016819 -0.006359 39792.400000 0 0 1
12.689937 -8.381447 -30.161646 33.778811 -0.583707 2.674578 -0.000983 -0.001624 168188.000000 0 0 1
14.043237 -8.617447 -29.778336 34.032664 -0.550386 2.636217 0.017316 -0.002396 428071.000000 0 0 1
14.250537 -9.526047 -28.689816 33.420487 -0.589250 2.603036 0.022559 -0.004484 -160617.000000 0 0 1
14.002537 -11.064147 -28.869676 33.940309 -0.668708 2.587924 0.005956 0.002401 -178006.000000 0 0 1
12.651137 -11.434247 -28.964826 33.611820 -0.734917 2.609496 -0.001015 0.005108 -172229.000000 0 0 1
12.506637 -12.768647 -29.465466 34.462559 -0.795764 2.596346 0.003433 0.006098 145128.000000 0 0 1
-10.209663 -3.192347 -17.764406 20.736500 0.303048 2.599582 0.007521 0.003748 282199.000000 0 1 0
-10.858963 -2.765447 -18.975506 22.037119 0.249369 2.608167 0.008875 0.001746 28097.700000 0 1 0
-11.967763 -3.571747 -19.290006 22.980189 0.290032 2.567010 0.017524 -0.000267 -560676.000000 0 1 0
-12.708863 -3.042247 -20.579506 24.377993 0.234959 2.575837 0.012641 -0.010505 207553.000000 0 1 0
-13.566163 -1.938747 -20.223706 24.429446 0.141949 2.546045 0.005742 -0.008424 25637.200000 0 1 0
-14.444163 -1.547747 -21.226106 25.721138 0.106746 2.541423 0.009346 -0.008351 -214629.000000 0 0 1
-14.963763 -0.166147 -20.885406 25.693229 0.011103 2.519869 0.017904 -0.003240 -415416.000000 0 0 1
-14.084163 0.881353 -21.108606 25.391213 -0.062496 2.552302 0.014610 -0.006526 -370786.000000 0 0 1
-14.750363 2.105753 -20.897906 25.665734 -0.141801 2.522204 0.009572 0.006107 -71928.700000 0 0 1
-14.182063 3.284853 -21.691906 26.123935 -0.227607 2.550525 0.018723 0.002490 -460083.000000 0 0 1
-13.081963 3.890753 -21.081006 25.113434 -0.289082 2.567033 0.020916 -0.000834 -132473.000000 0 0 1
-12.778863 5.089153 -21.820506 25.794056 -0.378995 2.579142 0.024213 -0.003649 -607308.000000 0 0 1
-11.646263 5.844653 -21.134406 24.828583 -0.465125 2.589088 0.006539 -0.004123 -280787.000000 0 1 0
-11.999363 6.482653 -19.907206 24.131025 -0.495327 2.540933 0.017358 -0.011315 293670.000000 0 1 0
-10.859163 6.541653 -19.083006 22.910168 -0.542189 2.555213 -0.000313 -0.005877 -105252.000000 0 1 0
-11.195463 7.072453 -17.635806 22.054017 -0.563421 2.497532 0.007119 -0.007638 -22278.000000 0 1 0
-11.673663 8.391453 -17.682706 22.789669 -0.623256 2.458951 -0.002532 -0.009490 -39711.100000 0 1 0
-12.666563 8.505953 -16.699706 22.620196 -0.591361 2.401291 0.013662 -0.011137 -438523.000000 0 1 0
-13.487563 9.772353 -16.751106 23.622295 -0.627010 2.359050 0.019415 -0.011471 -597619.000000 0 1 0
-12.801863 10.840253 -16.176006 23.303690 -0.702617 2.338020 -0.007333 0.001106 202619.000000 0 1 0
-13.606763 11.986453 -16.214106 24.325220 -0.722172 2.300375 0.000674 -0.012911 -7532.230000 0 1 0
-12.872763 13.204853 -15.574206 24.137773 -0.798132 2.272109 -0.000636 -0.006289 -250604.000000 0 1 0
-12.910163 13.186453 -14.186406 23.276791 -0.795985 2.226183 0.018495 -0.011457 42790.800000 0 1 0
-12.261163 14.299653 -13.634306 23.253183 -0.861996 2.197331 0.017328 -0.015066 -646702.000000 0 1 0
-12.771263 14.673953 -12.227206 22.976828 -0.854614 2.131939 0.015591 -0.012910 378593.000000 0 1 0
-14.087463 15.198753 -12.103506 23.999033 -0.823326 2.099406 0.017303 -0.010345 817250.000000 0 1 0
-15.070563 14.121353 -12.077406 23.924846 -0.752893 2.099954 0.018966 -0.017572 -882950.000000 0 1 0
-16.462063 14.687553 -11.875606 25.055015 -0.728492 2.064603 0.005789 -0.008740 -269006.000000 0 0 1
-17.477863 13.661553 -11.984706 25.214022 -0.663451 2.066123 0.010019 -0.016481 476926.000000 0 0 1
-18.683963 14.045953 -11.356606 25.987531 -0.644630 2.023059 0.038441 -0.012985 -390852.000000 0 0 1
-19.884463 13.617053 -12.199006 27.011697 -0.600458 2.039376 0.031537 -0.018741 -746264.000000 0 0 1
-20.118463 12.254953 -12.391606 26.617444 -0.547113 2.055046 0.038152 -0.019231 630079.000000 0 0 1
-21.359963 12.018453 -13.061406 27.772137 -0.512513 2.060434 0.049781 -0.021648 214762.000000 0 0 1
-22.099763 10.809353 -12.494906 27.592831 -0.454903 2.040735 0.041062 -0.020920 -805247.000000 0 0 1
-21.370863 9.661153 -12.614406 26.630338 -0.424575 2.064267 0.055011 -0.024271 -371608.000000 0 0 1
-21.724963 8.601153 -11.769906 26.162656 -0.376976 2.037421 0.045431 -0.024882 -675185.000000 0 0 1
-20.641363 7.546853 -11.566606 24.835604 -0.350520 2.055252 0.048278 -0.020261 -446864.000000 0 1 0
-20.367563 6.781553 -12.748906 24.967213 -0.321413 2.106709 0.049674 -0.022026 44862.800000 0 1 0
-19.257363 5.975053 -12.515006 23.731260 -0.300855 2.126291 0.050026 -0.023026 -567249.000000 0 1 0
-19.082863 4.790753 -13.453406 23.834872 -0.245967 2.170554 0.052537 -0.022668 77479.200000 0 1 0
-20.103663 3.785853 -13.321806 24.412302 -0.186137 2.148021 0.044092 -0.023315 710983.000000 0 1 0
-19.941963 2.603253 -14.132006 24.579919 -0.129807 2.183329 0.043344 -0.030331 -384641.000000 0 1 0
-20.699163 1.308253 -13.771306 24.896099 -0.063119 2.156938 0.033654 -0.025564 -442080.000000 0 1 0
-21.990863 1.157053 -14.279806 26.245946 -0.052567 2.146085 0.029780 -0.025788 -91187.200000 0 0 1
-22.431463 -0.160147 -14.147906 26.520924 0.007139 2.133485 0.027711 -0.027463 -1279510.000000 0 0 1
-23.684463 -0.535547 -14.880506 27.976241 0.022608 2.131637 0.034781 -0.017469 -1380250.000000 0 0 1
-24.749363 0.144153 -14.312106 28.590001 -0.005824 2.095086 0.059764 -0.029232 -132810.000000 0 0 1
-25.969713 -0.061247 -15.028606 30.004812 0.002358 2.095404 0.062492 -0.019113 664529.000000 0 0 1
-27.257293 0.297253 -14.249406 30.758641 -0.010905 2.052472 0.061383 -0.016043 -65579.900000 0 0 1
-27.680583 -0.742547 -13.407006 30.765466 0.026819 2.021702 0.069341 -0.022903 -150055.000000 0 0 1
-28.728613 -0.308647 -12.584106 31.365398 0.010743 1.983634 0.079482 -0.022202 -176874.000000 0 0 1
-28.637273 -0.931647 -11.163206 30.750261 0.032521 1.942312 0.075560 -0.025011 -411158.000000 0 0 1
-28.975733 -2.301147 -11.023506 31.087072 0.079250 1.933284 0.077577 -0.026696 256197.000000 0 0 1
-28.293983 -3.234447 -11.817606 30.832887 0.113822 1.964140 0.083874 -0.029310 -355691.000000 0 0 1
-28.511843 -4.686147 -11.309206 31.028750 0.162901 1.943865 0.069656 -0.028075 386087.000000 0 0 1
-29.804563 -5.257247 -11.578806 32.404003 0.174595 1.936200 0.071443 -0.029290 774790.000000 0 0 1
-30.038643 -6.573947 -11.106506 32.693904 0.215453 1.917407 0.060772 -0.027165 -87511.900000 0 0 1
-29.270943 -7.750247 -11.793406 32.495213 0.258837 1.942204 0.049864 -0.027693 -600152.000000 0 0 1
-27.943163 -7.845147 -11.413106 31.186947 0.273707 1.945458 0.045192 -0.026363 -951015.000000 0 0 1
-27.288613 -8.924247 -12.016906 31.124213 0.316069 1.967191 0.048358 -0.024384 -145698.000000 0 0 1
-25.790553 -8.985547 -11.660606 29.696168 0.335253 1.974322 0.037879 -0.025846 -706038.000000 0 0 1
-25.128573 -7.838547 -12.110206 28.974905 0.302372 2.001989 0.030979 -0.020352 1099960.000000 0 0 1
-23.711763 -7.746447 -11.834706 27.610060 0.315762 2.013780 0.030391 -0.018705 1019300.000000 0 0 1
-23.321763 -7.580347 -10.313606 26.603322 0.314262 1.968911 0.021358 -0.019961 -794790.000000 0 0 1
-23.642063 -6.355247 -9.650306 26.314724 0.262603 1.946284 0.025566 -0.022177 -308454.000000 0 0 1
-25.018663 -6.169347 -9.550406 27.480986 0.241766 1.925730 0.029500 -0.028395 -1038020.000000 0 0 1
-25.478353 -4.760047 -9.105706 27.472139 0.184698 1.908639 0.042859 -0.033297 -534506.000000 0 0 1
-25.276883 -4.491447 -7.753906 26.818221 0.175854 1.864112 0.031370 -0.030035 271269.000000 0 0 1
-25.603293 -3.131347 -7.576806 26.883860 0.121698 1.856502 0.049955 -0.025838 -53444.100000 0 0 1
-25.532123 -2.801647 -6.102806 26.400431 0.109293 1.804069 0.041796 -0.021069 -408245.000000 0 0 1
-24.298263 -3.096847 -5.515206 25.108038 0.126768 1.792261 0.036598 -0.015726 -482845.000000 0 0 1
-24.169063 -2.824047 -4.177306 24.689446 0.116318 1.740808 0.028496 -0.008947 764118.000000 0 1 0
-22.797663 -3.299647 -3.550206 23.307189 0.143738 1.723714 0.015021 -0.007433 759110.000000 0 1 0
-22.697263 -4.697447 -3.341706 23.417915 0.204080 1.713984 0.019906 -0.006703 -96086.600000 0 1 0
-21.434463 -5.009647 -2.827506 22.192962 0.229598 1.698549 0.015835 -0.009297 -448282.000000 0 1 0
-21.188563 -6.508547 -2.753306 22.336004 0.298024 1.694378 0.011063 -0.004723 -325782.000000 0 1 0
-21.903363 -7.094547 -1.725506 23.088250 0.313239 1.645601 0.020119 -0.003089 113350.000000 0 1 0
-22.271163 -8.444947 -2.090306 23.910065 0.362437 1.658332 0.004832 -0.003535 199762.000000 0 1 0
-22.845563 -9.199347 -0.890606 24.644288 0.382811 1.606943 0.002210 -0.003991 -347713.000000 0 1 0
-21.812963 -9.629447 -0.092206 23.844079 0.415725 1.574663 -0.009627 0.002828 -16648.700000 0 1 0
-22.345963 -10.570447 0.831294 24.733933 0.441845 1.537181 -0.011295 0.012786 507855.000000 0 1 0
-21.226463 -11.195847 1.724194 24.059978 0.485364 1.499073 -0.005458 0.007878 155458.000000 0 1 0
-20.314963 -11.969147 1.013394 23.600533 0.532425 1.527844 -0.008957 0.011146 589842.000000 0 1 0
-19.329063 -12.565947 1.885594 23.131605 0.576450 1.489190 -0.012633 0.009869 348195.000000 0 1 0
-18.540663 -13.701647 1.250394 23.087979 0.636427 1.516612 -0.004479 0.009157 -661922.000000 0 1 0
-19.268863 -14.911547 1.198394 24.394250 0.658602 1.521650 -0.005280 0.010208 320168.000000 0 1 0
-18.657763 -16.077847 0.612394 24.637051 0.711261 1.545937 -0.012588 0.005371 -10731.800000 0 1 0
-17.399663 -16.659147 1.304994 24.124229 0.763659 1.516675 -0.007661 0.002981 -637654.000000 0 1 0
-16.241963 -15.883847 1.225894 22.750841 0.774251 1.516887 -0.001265 0.001289 163304.000000 0 1 0
-15.148263 -16.438747 1.973094 22.440931 0.826230 1.482759 0.002041 -0.007448 425205.000000 0 1 0
-15.229363 -16.488847 3.547794 22.724489 0.825086 1.414033 0.015614 -0.005616 -867935.000000 0 1 0
-14.917263 -15.198647 4.023494 21.672842 0.794741 1.384066 0.007784 -0.002182 -179364.000000 0 1 0
-14.014663 -15.059947 5.089294 21.192302 0.821334 1.328278 -0.004434 -0.001168 -504256.000000 0 1 0
-14.403663 -15.559747 6.505494 22.178654 0.823962 1.273096 0.010479 -0.000277 -1046290.000000 0 1 0
-15.369463 -14.700747 7.082994 22.416537 0.763163 1.249316 0.002967 0.005268 143227.000000 0 1 0
-15.583363 -15.056247 8.442894 23.255413 0.768196 1.199256 0.005138 0.000994 34676.200000 0 1 0
-16.565863 -16.258247 8.770394 24.812864 0.776027 1.209527 0.002423 0.000484 -73058.000000 0 1 0
-16.211063 -17.555247 8.287594 25.291688 0.825186 1.236949 0.005313 0.000845 -61476.300000 0 0 1
-16.877263 -18.698347 8.841894 26.695491 0.836543 1.233207 0.008134 -0.003182 -130438.000000 0 0 1
-16.643363 -19.065247 10.314294 27.328919 0.853118 1.183795 0.001944 -0.001494 -206401.000000 0 0 1
-15.316563 -19.470147 10.545994 26.923999 0.904237 1.168323 0.021028 -0.001397 -204018.000000 0 0 1
-15.121863 -19.846147 11.895094 27.641156 0.919688 1.125927 0.015252 -0.001108 -386764.000000 0 0 1
-13.779163 -20.544547 12.130494 27.551635 0.980009 1.114883 0.016119 0.002425 10178.100000 0 0 1
-12.683263 -19.684247 11.864194 26.250597 0.998413 1.101836 0.010419 0.000899 498510.000000 0 0 1
-11.452663 -20.283847 12.296894 26.340302 1.056798 1.085074 -0.008000 0.009127 1020420.000000 0 0 1
-10.231363 -19.380847 12.575994 25.267640 1.085070 1.049838 -0.003828 0.005818 555656.000000 0 0 1
-9.537563 -18.821147 11.467594 24.014712 1.101766 1.072962 -0.003345 0.005714 -318540.000000 0 1 0
-8.479463 -18.037147 11.939394 23.233361 1.131344 1.031083 0.002571 0.006676 -559947.000000 0 1 0
-7.595563 -17.505547 10.848494 21.950548 1.161416 1.053854 -0.002263 0.004780 28797.800000 0 1 0
-6.824563 -18.484647 10.095194 22.139778 1.217119 1.097328 0.000574 0.004557 825022.000000 0 1 0
-6.055763 -17.818047 9.060294 20.886454 1.243177 1.122104 0.001291 0.007255 385848.000000 0 1 0
-4.893863 -18.571847 8.328494 20.933877 1.313144 1.161627 -0.001309 0.002403 993872.000000 0 1 0
-3.723463 -18.672447 9.142894 21.121481 1.373969 1.123120 0.001878 0.006512 176367.000000 0 1 0
-2.628063 -19.281247 8.520094 21.243003 1.435330 1.158103 0.007277 0.002050 -558386.000000 0 1 0
-1.406263 -19.497447 9.384394 21.683977 1.498796 1.123222 0.008648 0.003510 -769807.000000 0 1 0
-0.397963 -20.012147 8.570194 21.773668 1.550913 1.166248 0.029039 0.006471 -120865.000000 0 1 0
0.841037 -20.168547 9.267494 22.211800 -1.529120 1.140398 0.036691 -0.000320 318299.000000 0 1 0
1.992337 -20.666447 8.393894 22.394840 -1.474689 1.186600 0.044085 -0.014261 -554505.000000 0 1 0
1.921437 -21.995547 8.010294 23.487460 -1.483662 1.222767 0.028297 -0.007294 -110053.000000 0 1 0
2.137437 -23.018247 8.963794 24.794312 -1.478203 1.200892 0.029787 -0.001328 -117317.000000 0 1 0
1.852437 -24.413547 8.387694 25.880614 -1.495064 1.240745 0.017437 -0.005760 -34559.800000 0 0 1
1.945037 -25.489317 9.299594 27.202406 -1.494636 1.221894 0.013819 -0.005630 -218756.000000 0 0 1
1.253637 -26.582247 8.782194 28.023461 -1.523671 1.252039 0.023519 -0.008109 -669813.000000 0 0 1
1.357737 -27.855007 9.632894 29.504872 -1.522092 1.238214 0.029570 -0.006282 284954.000000 0 0 1
0.702037 -27.871997 10.896394 29.934469 -1.545614 1.198229 0.020048 -0.012678 1029580.000000 0 0 1
-0.740863 -27.848947 10.869694 29.904230 1.544200 1.198792 0.008987 -0.009938 839992.000000 0 0 1
-1.387663 -27.828527 12.248894 30.436621 1.520973 1.156616 0.010516 -0.011654 -366654.000000 0 0 1
-1.029863 -28.951317 13.031494 31.765692 1.535239 1.148081 0.004351 -0.012189 -26298.300000 0 0 1
-1.019163 -28.701517 14.418594 32.135830 1.535302 1.105512 -0.001579 -0.004914 -282254.000000 0 0 1
-0.497563 -29.904637 15.274694 33.583495 1.554160 1.098618 -0.002967 -0.002040 -87919.800000 0 0 1
-0.617063 -29.648387 16.668894 34.018519 1.549987 1.058713 -0.001442 0.000910 -164435.000000 0 0 1
-0.450263 -30.821227 17.426294 35.409412 1.556189 1.056253 -0.001965 0.003025 -89205.300000 0 0 1
-0.713463 -30.720297 18.924194 36.088374 1.547576 1.018804 -0.001545 0.001596 393191.000000 0 0 1
-2.103763 -30.639207 19.212294 36.225668 1.502241 1.011783 -0.009313 0.006114 331599.000000 0 0 1
-2.340563 -30.346607 20.609794 36.758106 1.493821 0.975581 -0.002772 0.000322 -295583.000000 0 0 1
-3.844063 -30.411017 20.884594 37.091414 1.445060 0.972716 0.007929 -0.006148 -774114.000000 0 0 1
-4.568463 -29.358817 20.311594 35.991274 1.416426 0.971153 0.008606 -0.003653 145480.000000 0 0 1
-5.899463 -29.299347 20.805094 36.415756 1.372102 0.962682 0.006707 -0.008884 367575.000000 0 0 1
-6.087863 -28.409597 22.082494 36.493887 1.359700 0.920903 0.013024 -0.018105 -588004.000000 0 0 1
-5.288163 -28.890937 23.138794 37.390569 1.389761 0.903531 0.012687 -0.017017 70693.700000 0 0 1
-5.302963 -27.900607 24.128194 37.265735 1.382970 0.866545 0.019044 -0.016796 -86846.400000 0 0 1
-4.134463 -28.072457 25.141394 37.911031 1.424569 0.845752 0.031964 -0.020685 99049.300000 0 0 1
-4.190263 -29.303437 25.881494 39.320496 1.428764 0.852346 0.028790 -0.021720 450268.000000 0 0 1
-3.415763 -30.383807 25.327194 39.702769 1.458846 0.879002 0.028179 -0.020486 132791.000000 0 0 1
-3.802363 -31.729327 25.938094 41.158144 1.451528 0.888978 0.022172 -0.015625 -189756.000000 0 0 1
-3.408163 -31.850827 27.288294 42.080182 1.464198 0.865206 0.022894 -0.018560 -6062.010000 0 0 1
-4.104263 -32.772437 28.054694 43.335244 1.446210 0.866645 0.025444 -0.020039 -725448.000000 0 0 1
-3.790263 -32.618527 29.574094 44.192323 1.455115 0.837647 0.021414 -0.012127 -20900.600000 0 0 1
-2.437563 -32.965087 29.835594 44.528657 1.496987 0.836545 0.009469 -0.015624 550657.000000 0 0 1
-2.183963 -32.873797 31.246794 45.407250 1.504459 0.811866 0.015730 -0.017197 -193672.000000 0 0 1
-28.028723 3.337853 -10.347106 30.063486 -0.118529 1.922156 0.053176 -0.018521 357996.000000 0 0 1
-28.863833 2.975353 -11.466106 31.200083 -0.102720 1.947118 0.046459 -0.028372 623915.000000 0 0 1
-29.754173 4.037053 -11.802606 32.263139 -0.134857 1.945314 0.022689 -0.017776 -83931.100000 0 0 1
-30.548243 3.809153 -13.072406 33.445368 -0.124053 1.972360 0.035469 -0.009844 94817.900000 0 0 1
-31.601383 2.853753 -12.943306 34.268360 -0.090060 1.958112 0.049819 -0.009878 88128.600000 0 0 1
-32.461483 2.718453 -14.016506 35.462661 -0.083549 1.977133 0.055976 -0.011088 162687.000000 0 0 1
-33.575813 1.707553 -13.555806 36.249288 -0.050813 1.954072 0.046522 -0.008650 407307.000000 0 0 1
-33.060413 0.398253 -13.547106 35.730570 -0.012046 1.959670 0.064743 -0.008476 529199.000000 0 0 1
-33.959043 -0.488547 -12.873106 36.320410 0.014385 1.933103 0.051183 -0.012381 470683.000000 0 0 1
-33.196333 -1.823047 -12.541106 35.533074 0.054862 1.931510 0.049228 -0.016278 322483.000000 0 0 1
-33.081353 -2.724747 -13.650806 35.890732 0.082180 1.960964 0.047856 -0.009462 442101.000000 0 0 1
-32.400853 -3.922947 -13.260806 35.228593 0.120489 1.956727 0.056475 -0.017921 -36910.600000 0 0 1
-33.217033 -5.116647 -13.744606 36.310681 0.152836 1.959002 0.044677 -0.009614 96175.100000 0 0 1
-32.944923 -6.387247 -13.111206 36.028719 0.191501 1.943258 0.040815 -0.019846 -22503.200000 0 0 1
-33.591903 -7.369647 -13.870706 37.082666 0.215966 1.954167 0.041762 -0.016884 -659615.000000 0 0 1
-33.275653 -8.801747 -13.344306 36.916261 0.258588 1.940646 0.038757 -0.017728 -850645.000000 0 0 1
-31.943563 -9.204447 -13.286706 35.800134 0.280547 1.951028 0.030030 -0.019634 -357941.000000 0 0 1
-31.389443 -9.535447 -14.525706 35.877821 0.294920 1.987628 0.018578 -0.013828 127510.000000 0 0 1
-30.010293 -10.274547 -14.536406 34.892565 0.329859 2.000504 0.019073 -0.013037 501944.000000 0 0 1
-30.165833 -11.589547 -13.971206 35.206387 0.366807 1.978865 0.016813 -0.016187 1633700.000000 0 0 1
-28.886173 -12.307547 -13.886806 34.332639 0.402777 1.987205 0.018115 -0.022443 1172390.000000 0 0 1
-29.075153 -13.814047 -14.182606 35.175826 0.443542 1.985798 0.023372 -0.031259 -181935.000000 0 0 1
-29.338803 -14.108147 -15.515006 36.062731 0.448227 2.015536 0.027449 -0.025135 -65618.100000 0 0 1
-29.486793 -15.484047 -15.855406 36.886591 0.483540 2.015114 0.035425 -0.024906 605068.000000 0 0 1
-28.301223 -16.550147 -15.625506 36.318357 0.529157 2.015552 0.007591 -0.018206 1736740.000000 0 0 1
-27.093663 -16.022847 -16.229506 35.414617 0.534063 2.046846 0.005479 -0.020137 289018.000000 0 0 1
-26.185083 -17.055347 -16.561706 35.367125 0.577315 2.058139 -0.002428 -0.019641 522775.000000 0 0 1
-24.889963 -16.428447 -17.184106 34.419437 0.583403 2.093536 -0.013013 -0.020166 245811.000000 0 0 1
-25.018963 -15.958647 -18.495106 34.967068 0.567795 2.128135 0.005738 -0.025784 -786396.000000 0 0 1
-23.812263 -15.686647 -19.136806 34.341114 0.582511 2.161874 0.008311 -0.019036 -881472.000000 0 0 1
-23.815363 -15.386447 -20.620506 35.058801 0.573609 2.199589 0.020456 -0.018712 -217129.000000 0 0 1
-24.193763 -16.427247 -21.475506 36.282089 0.596484 2.204215 0.016305 -0.020556 1115540.000000 0 0 1
-25.619853 -16.399447 -21.697506 37.364428 0.569389 2.190384 0.026580 -0.022144 675379.000000 0 0 1
-26.194373 -17.588047 -22.497106 38.750540 0.591302 2.190216 0.026100 -0.019307 -173916.000000 0 0 1
-25.700083 -17.690847 -23.788206 39.234412 0.602869 2.222208 0.023381 -0.006536 57941.200000 0 0 1
-26.191143 -18.918947 -24.270806 40.410080 0.625563 2.215064 0.025837 0.001442 -971174.000000 0 0 1
-25.598403 -19.225647 -25.688796 41.046534 0.644172 2.247012 0.012979 0.002879 813402.000000 0 0 1
-24.266463 -19.741347 -25.696766 40.483401 0.682933 2.258479 0.009774 -0.007480 394378.000000 0 0 1
-24.220963 -20.998447 -25.078976 40.700674 0.714254 2.234681 0.012514 -0.006729 58453.700000 0 0 1
-22.748163 -21.534547 -24.911506 40.022478 0.757999 2.242650 0.007118 0.002997 1254550.000000 0 0 1
-22.070163 -21.595447 -26.162076 40.471096 0.774527 2.273704 0.003924 -0.002672 1585640.000000 0 0 1
-20.629963 -21.839047 -26.099896 39.796280 0.813860 2.286088 0.010976 -0.009254 1707030.000000 0 0 1
-19.892163 -21.780647 -27.486886 40.319023 0.830684 2.320928 0.011701 -0.010852 -443707.000000 0 0 1
-20.124863 -22.943747 -28.294306 41.617225 0.850756 2.318382 0.036444 -0.016656 -672572.000000 0 0 1
-20.799663 -22.568647 -29.477316 42.554459 0.826165 2.336017 0.031989 -0.007352 -646430.000000 0 0 1
-19.978463 -22.272747 -30.760276 42.911640 0.839646 2.370039 0.040177 -0.013954 -36635.400000 0 0 1
-19.540763 -23.516847 -31.255286 43.723865 0.877480 2.367182 0.047454 -0.020206 -87638.400000 0 0 1
-18.885263 -23.444647 -32.509596 44.307770 0.892695 2.394581 0.051863 -0.020340 -23512.500000 0 0 1
-18.368363 -24.785947 -32.936326 45.128057 0.933029 2.388886 0.051815 -0.022654 -227782.000000 0 0 1
-17.694563 -24.771147 -34.199595 45.785583 0.950523 2.414261 0.056311 -0.019903 36277.500000 0 0 1
-18.472363 -24.834547 33.624175 45.700854 0.931264 0.744030 0.053011 -0.011509 80871.300000 0 0 1
-17.562663 -24.754647 32.337376 44.350260 0.953743 0.753738 0.048225 -0.008780 44991.900000 0 0 1
-16.972463 -23.507747 32.133226 43.280745 0.945461 0.734096 0.035952 -0.008898 -208818.000000 0 0 1
-16.507963 -23.434147 30.766856 42.050821 0.957096 0.750044 0.035264 -0.006360 479600.000000 0 0 1
-15.528663 -22.250147 30.446606 40.782401 0.961473 0.727916 0.021837 -0.006284 39482.800000 0 0 1
-16.187063 -21.011747 30.446786 40.379714 0.914378 0.716648 0.036214 -0.007929 -381132.000000 0 0 1
-15.464663 -19.851147 30.163856 39.282083 0.908973 0.695274 0.032126 -0.006707 -377320.000000 0 0 1
-15.220963 -19.023547 31.453276 39.785445 0.895987 0.659053 0.024115 -0.010455 -48395.200000 0 0 1
-14.729863 -17.723247 31.226036 38.809118 0.877375 0.635785 0.025100 -0.008216 -832655.000000 0 0 1
-13.743363 -17.427147 32.140106 39.058570 0.903034 0.604354 0.026213 -0.016797 -807395.000000 0 0 1
-13.166763 -16.048647 31.849706 38.017450 0.883723 0.577618 0.019663 -0.012997 -45414.800000 0 0 1
-12.053563 -16.003247 30.956676 36.874220 0.925254 0.574396 0.021729 -0.011724 288741.000000 0 0 1
-11.755663 -14.686947 30.512906 35.846052 0.895802 0.552489 0.016402 -0.008427 -45694.700000 0 0 1
-10.242263 -14.431447 30.377156 35.155970 0.953578 0.527500 0.037073 -0.014520 54022.900000 0 0 1
-10.041763 -13.061847 30.273556 34.466463 0.915380 0.498401 0.046790 -0.018792 787022.000000 0 0 1
-8.643563 -12.781647 30.490576 34.172458 0.976190 0.468480 0.039790 -0.018728 936536.000000 0 0 1
-8.322663 -11.261947 30.553406 33.609653 0.934368 0.429759 0.032372 -0.013523 -296123.000000 0 0 1
-8.995563 -10.556247 31.592676 34.502923 0.865052 0.413669 0.031420 -0.016332 213811.000000 0 0 1
-8.668363 -9.176747 31.633316 34.059065 0.813879 0.379694 0.030116 -0.014043 -204045.000000 0 0 1
-9.596263 -8.504747 32.638686 35.067119 0.725170 0.374340 0.006417 -0.015588 135323.000000 0 0 1
-10.885063 -8.121947 32.169536 34.918901 0.641036 0.399478 0.009745 -0.021127 -46098.600000 0 0 1
-11.680063 -7.596047 33.177845 35.984625 0.576616 0.397580 -0.004031 -0.012729 -333910.000000 0 0 1
-11.441663 -6.093747 33.534486 35.952846 0.489381 0.368870 -0.014102 0.005046 -383378.000000 0 0 1
-11.612263 -5.202947 32.449156 34.854886 0.421236 0.373712 -0.000349 0.001272 199220.000000 0 0 1
-11.894463 -3.892547 32.876106 35.177671 0.316272 0.363739 -0.005239 0.004177 -526607.000000 0 0 1
-11.506063 -2.842647 31.853706 33.987185 0.242206 0.356205 -0.007546 0.009661 -147368.000000 0 0 1
-10.162463 -2.503347 32.113046 33.775585 0.241524 0.315063 -0.004803 0.003796 62557.200000 0 0 1
-9.714263 -1.360347 31.384616 32.881782 0.139131 0.302924 -0.005743 0.008329 332961.000000 0 0 1
-8.199563 -1.047547 31.542506 32.607666 0.127068 0.256302 -0.007078 0.010207 310864.000000 0 0 1
-7.874863 -0.390947 32.784756 33.719528 0.049604 0.236013 -0.007290 -0.002432 270280.000000 0 0 1
-6.537563 0.073153 32.618196 33.266978 -0.011189 0.197818 -0.001735 0.001358 315670.000000 0 0 1
-6.080463 0.934553 33.858332 34.412673 -0.152504 0.179734 0.012530 -0.006595 -98540.600000 0 0 1
-6.856463 2.106453 34.041396 34.788862 -0.298069 0.207669 0.024885 -0.013777 57705.300000 0 0 1
-6.471263 3.128653 33.180078 33.949717 -0.450335 0.213336 0.033638 -0.010767 -195951.000000 0 0 1
-7.383063 4.343153 33.265876 34.350999 -0.531742 0.252020 0.041106 -0.013366 220757.000000 0 0 1
-8.756463 4.194753 32.947746 34.348589 -0.446745 0.286578 0.009827 -0.002850 508636.000000 0 0 1
-9.396863 5.469053 32.895656 34.645862 -0.527085 0.319212 0.008011 -0.003816 535366.000000 0 0 1
-10.778563 5.460953 32.164766 34.359447 -0.468953 0.359349 -0.012335 0.005032 827962.000000 0 0 1
-11.610863 6.560353 32.562316 35.187424 -0.514301 0.388716 -0.020418 0.005101 -96283.300000 0 0 1
-12.759463 6.653753 31.766436 34.873813 -0.480680 0.425345 -0.033727 0.008483 -402788.000000 0 0 1
-13.494263 7.961953 32.037146 35.663238 -0.533053 0.454856 -0.026166 0.006984 -724955.000000 0 0 1
-14.046463 8.084553 33.284606 37.020645 -0.522253 0.453128 -0.019854 0.010716 -109477.000000 0 0 1
-14.475863 9.389653 33.573718 37.747990 -0.575420 0.474727 -0.014800 0.010970 -396601.000000 0 0 1
-15.188263 9.527553 -34.100251 38.526416 -0.560249 2.657534 -0.009816 0.018676 -460213.000000 0 0 1
-14.413763 9.530753 -32.928416 37.186993 -0.584226 2.658327 -0.010441 0.008845 -261347.000000 0 0 1
-15.137263 9.929353 -31.745416 36.544497 -0.580550 2.623325 -0.002255 0.007549 -1110110.000000 0 0 1
-14.352163 9.868053 -30.407526 35.042556 -0.602332 2.621416 0.003387 -0.003284 634516.000000 0 0 1
-13.456363 11.002853 -30.300146 34.931867 -0.685422 2.620764 0.017440 -0.004802 1322170.000000 0 0 1
-12.227763 10.918553 -31.070636 35.130008 -0.728896 2.656104 0.014776 -0.010487 13294.800000 0 0 1
-11.502563 12.237853 -31.301856 35.522953 -0.816360 2.649133 0.008225 -0.012551 -834318.000000 0 0 1
-12.029463 13.305953 -32.057676 36.734874 -0.835739 2.631454 0.003893 -0.018419 508878.000000 0 0 1
-11.070163 14.343253 -32.488866 37.199514 -0.913487 2.632871 -0.005413 -0.011865 716037.000000 0 0 1
-11.234563 15.570953 -31.605686 36.980933 -0.945781 2.595669 -0.000029 -0.010251 -764124.000000 0 0 1
-12.433163 16.219853 -31.793866 37.795729 -0.916794 2.570300 0.004061 -0.012372 -704736.000000 0 0 1
-12.792063 17.082253 -30.708006 37.395480 -0.928031 2.534253 -0.002208 -0.012306 344695.000000 0 0 1
-14.247763 17.637453 -30.598306 38.083262 -0.891310 2.503877 -0.010650 -0.018930 401432.000000 0 0 1
-14.474163 18.530953 -31.679276 39.452176 -0.907699 2.503073 -0.013402 -0.017025 973696.000000 0 0 1
-15.841163 18.965053 -31.893546 40.346177 -0.874909 2.482417 -0.011365 -0.017693 1293800.000000 0 0 1
-16.340763 20.247053 -31.180186 40.609946 -0.891760 2.446192 -0.028428 -0.014119 -115374.000000 0 0 1
-15.655763 21.434553 -31.652346 41.308764 -0.939959 2.443762 -0.033732 -0.005232 181548.000000 0 0 1
-15.995663 22.661553 -31.064816 41.646489 -0.956155 2.412707 -0.031720 -0.001139 423561.000000 0 0 1
-17.383663 23.223453 -31.538716 42.851034 -0.928231 2.397951 -0.021782 -0.000508 679458.000000 0 0 1
-18.469663 22.437053 -31.096386 42.562132 -0.882082 2.390014 -0.012930 -0.008548 -367707.000000 0 0 1
-19.588663 22.591453 -31.923806 43.740358 -0.856468 2.388896 0.004929 -0.010066 -194468.000000 0 0 1
-20.850163 21.738853 -31.566696 43.632137 -0.806262 2.379617 0.015086 -0.021921 631623.000000 0 0 1
-21.710163 22.302753 -30.531486 43.599491 -0.798861 2.346574 0.038312 -0.017554 790464.000000 0 0 1
-22.639363 23.287553 -30.945766 44.860800 -0.799511 2.332033 0.048524 -0.013743 925994.000000 0 0 1
-23.935363 22.854953 -31.776946 45.880549 -0.762312 2.335886 0.056168 -0.029269 368149.000000 0 0 1
-23.664263 22.227153 -32.971576 46.272762 -0.754093 2.363920 0.067372 -0.019663 262422.000000 0 0 1
-24.827363 21.852553 -33.719356 47.232690 -0.721756 2.365846 0.081407 -0.019758 243579.000000 0 0 1
-24.513763 20.945453 34.143244 46.961662 -0.707064 0.756788 0.075663 -0.012409 -45953.200000 0 0 1
-24.170363 19.602453 -34.486588 46.451990 -0.681420 2.407462 0.070619 -0.019483 229802.000000 0 0 1
-23.780863 18.867453 33.415313 45.145248 -0.670696 0.737468 0.063653 -0.023228 -231643.000000 0 0 1
-23.318263 17.467553 33.923295 44.717410 -0.642921 0.709612 0.043963 -0.012388 -354433.000000 0 0 1
-24.405263 16.551653 34.138256 45.110915 -0.595945 0.712450 0.045952 -0.007593 915457.000000 0 0 1
-24.756963 15.796453 32.998556 44.173973 -0.567936 0.727238 0.051901 -0.007579 -674800.000000 0 0 1
-25.619483 14.567653 33.138588 44.347948 -0.517023 0.726896 0.040131 -0.000702 -286221.000000 0 0 1
-26.943253 14.883753 33.547059 45.528784 -0.504692 0.742424 0.047651 0.000649 115555.000000 0 0 1
-27.924693 13.892253 33.383111 45.686052 -0.461638 0.751440 0.041022 0.009058 118890.000000 0 0 1
-27.974983 12.751453 34.417087 46.149053 -0.427680 0.729090 0.018267 0.003154 -489679.000000 0 0 1
-26.826873 11.942353 34.307947 45.159010 -0.418825 0.707923 0.010861 0.005538 -359640.000000 0 0 1
-27.025323 10.680253 -34.158143 44.846568 -0.376357 2.436678 0.019535 0.002815 149887.000000 0 0 1
-25.775893 9.725553 -34.066367 43.812104 -0.360796 2.461566 0.012020 0.000862 396380.000000 0 0 1
-25.106733 9.343153 33.787023 43.118505 -0.356259 0.670381 0.015422 0.007105 -33810.300000 0 0 1
-24.127863 10.304653 33.444514 42.507355 -0.403636 0.665200 0.013545 0.006186 -592744.000000 0 0 1
-23.003463 9.755753 32.549956 41.034543 -0.401108 0.654696 0.018418 0.005330 -73000.600000 0 0 1
-23.334863 9.548053 31.172406 40.092394 -0.388391 0.680093 0.019636 0.010173 54060.000000 0 0 1
-22.150663 9.153653 30.510836 38.798871 -0.391872 0.665862 0.008248 0.012217 189322.000000 0 0 1
-22.115063 9.175953 28.981986 37.592947 -0.393301 0.690477 0.020094 0.005173 -227453.000000 0 0 1
-22.286763 10.494653 28.488146 37.661811 -0.440091 0.712974 0.024741 0.001117 252088.000000 0 0 1
-22.275663 10.476553 27.080616 36.596764 -0.439618 0.737766 0.023156 -0.003861 -1006140.000000 0 0 1
-22.602763 11.851753 26.470976 36.770389 -0.482937 0.767139 0.023083 -0.005665 57904.100000 0 0 1
-23.868863 12.429653 26.649446 37.873631 -0.480108 0.790287 0.036705 -0.011071 -451478.000000 0 0 1
-24.925163 11.840653 25.947146 37.877688 -0.443488 0.816159 0.033312 -0.010007 -172213.000000 0 0 1
-26.278583 12.548053 26.243576 39.201312 -0.445487 0.837319 0.033386 -0.010390 190961.000000 0 0 1
-26.301623 13.811653 25.653616 39.251053 -0.483545 0.858494 0.044433 -0.017318 109528.000000 0 0 1
-27.559383 14.434253 25.849706 40.448419 -0.482467 0.877497 0.034106 -0.015483 230472.000000 0 0 1
-27.658473 15.757653 25.093896 40.533917 -0.517859 0.903221 0.037561 -0.020204 445958.000000 0 0 1
-26.867803 16.805453 25.723136 40.816441 -0.558949 0.888966 0.046451 -0.019283 409506.000000 0 0 1
-26.922253 17.921453 24.853706 40.788392 -0.587315 0.915577 0.037227 -0.018158 -360278.000000 0 0 1
-22.068163 -9.655047 32.087906 40.123029 0.412419 0.643938 0.015588 -0.011271 -460501.000000 0 0 1
-21.100263 -9.386447 31.131856 38.762339 0.418563 0.638238 0.006057 -0.004808 -218140.000000 0 0 1
-21.617963 -9.407647 29.799366 37.997926 0.410459 0.669331 0.017224 -0.004181 41538.500000 0 0 1
-20.568063 -8.880447 28.814126 36.498787 0.407582 0.660877 0.016616 -0.009342 -965905.000000 0 0 1
-20.409763 -7.489147 28.897966 36.162663 0.351685 0.644982 0.016371 -0.006247 -271211.000000 0 0 1
-19.289463 -6.894047 29.509176 35.922176 0.343252 0.606803 0.013991 -0.004800 21623.200000 0 0 1
-17.930963 -7.069747 28.755206 34.617375 0.375562 0.590508 0.020850 -0.008470 -532089.000000 0 0 1
-17.487163 -8.397047 28.641126 34.592273 0.447669 0.595331 0.011772 -0.016602 -189383.000000 0 0 1
-17.144263 -9.197547 29.731876 35.531748 0.492404 0.579440 0.018709 -0.015238 -900509.000000 0 0 1
-15.832563 -8.760047 30.414506 35.389980 0.505368 0.536682 0.025365 -0.015299 148426.000000 0 0 1
-14.662763 -9.082647 29.636836 34.290424 0.554588 0.527061 0.011485 -0.014409 612762.000000 0 0 1
-13.459663 -8.737347 30.333466 34.316511 0.575778 0.486591 0.013703 -0.016967 299731.000000 0 0 1
-12.293163 -9.566147 29.785296 33.612451 0.661286 0.481851 0.027029 -0.022079 -292891.000000 0 0 1
-11.804463 -9.257247 28.474856 32.184770 0.665042 0.484880 0.043017 -0.022091 -20542.900000 0 0 1
-10.765863 -10.158647 28.151376 31.805690 0.756387 0.484077 0.048263 -0.013302 -284502.000000 0 0 1
-10.204463 -10.014447 26.733326 30.316513 0.776000 0.491115 0.046651 -0.011389 -224698.000000 0 0 1
-11.106863 -10.377547 25.717246 29.873611 0.751465 0.533823 0.034878 -0.006888 -240676.000000 0 0 1
-10.609763 -10.067147 24.452916 28.493150 0.759162 0.539037 0.021623 -0.002599 143832.000000 0 0 1
-11.571563 -10.484047 23.275396 28.027850 0.736130 0.590903 0.017284 0.003364 -76468.100000 0 0 1
-11.631963 -11.902847 23.097496 28.468836 0.796908 0.624380 0.020354 0.006096 123189.000000 0 0 1
-12.843463 -12.380847 22.565996 28.765676 0.767060 0.668945 0.014114 0.010367 -18831.500000 0 0 1
-14.051563 -12.437047 23.515896 30.085278 0.724522 0.673503 0.010302 0.008921 -960097.000000 0 0 1
-15.227463 -12.886347 22.925896 30.389641 0.702317 0.716059 0.009594 0.019693 -450160.000000 0 0 1
-16.242763 -12.923347 23.911596 31.663933 0.672075 0.714886 0.008409 0.016076 12446.300000 0 0 1
-17.536163 -13.596447 23.378296 32.232361 0.659521 0.759319 0.028252 0.011395 -522609.000000 0 0 1
-17.381063 -14.994347 23.256596 32.677225 0.711811 0.778872 0.030048 0.007885 185672.000000 0 0 1
-18.484963 -15.849047 22.994396 33.490721 0.708776 0.814008 0.037921 0.001618 72690.600000 0 0 1
-19.518263 -15.922147 24.158446 34.901402 0.684275 0.806275 0.033046 0.000160 -315254.000000 0 0 1
-18.980763 -16.474647 25.350206 35.697567 0.714832 0.781102 0.031375 0.004335 240853.000000 0 0 1
-19.949763 -16.510947 26.398146 36.979272 0.691361 0.775797 0.035516 -0.000313 -202666.000000 0 0 1
-19.614463 -17.195247 27.705036 38.052236 0.719770 0.755281 0.041013 -0.003614 -502513.000000 0 0 1
-19.741263 -18.609747 27.540476 38.658996 0.755903 0.777891 0.040864 0.001999 168385.000000 0 0 1
-19.426963 -19.279847 28.703286 39.661039 0.781597 0.761626 0.033185 -0.003420 -354980.000000 0 0 1
-19.354763 -20.781547 28.531266 40.255592 0.820932 0.783068 0.043782 0.000704 152571.000000 0 0 1
-20.572963 -21.400947 28.150136 40.910604 0.805122 0.811944 0.048034 0.001197 107094.000000 0 0 1
-20.378363 -22.785647 27.915156 41.397093 0.841111 0.830744 0.051459 -0.000389 112441.000000 0 0 1
-21.571063 -23.576947 27.285246 42.019850 0.829798 0.864078 0.046591 0.010488 126849.000000 0 0 1
-22.329963 -24.101947 28.372366 43.411084 0.823543 0.858499 0.046029 0.012746 -396278.000000 0 0 1
-23.447263 -24.738147 27.816956 43.994694 0.812182 0.886304 0.025253 0.014831 -346729.000000 0 0 1
-24.220363 -25.623647 28.790156 45.519999 0.813544 0.886055 0.009214 0.018137 -442715.000000 0 0 1
-24.769263 -24.956747 29.871746 46.137586 0.789168 0.866564 0.008283 0.020626 -94334.900000 0 0 1
-25.635503 -25.776037 30.592346 47.512890 0.788132 0.871245 0.001307 0.015439 -556237.000000 0 0 1
-26.558393 -25.144407 31.587096 48.325294 0.758057 0.858419 0.011062 0.014600 82197.600000 0 0 1
-27.601313 -24.391147 30.970986 48.124448 0.723734 0.871655 0.009183 0.016685 83819.400000 0 0 1
-28.787353 -24.329747 31.713426 49.258397 0.701674 0.871319 0.015318 0.005546 -504661.000000 0 0 1
-29.924713 -23.602147 30.970726 49.109425 0.667823 0.888409 0.020073 0.004104 -819200.000000 0 0 1
-30.330763 -24.493347 29.999176 49.191765 0.679322 0.914936 0.007827 0.009873 -549231.000000 0 0 1
-31.593353 -24.225947 29.480026 49.538958 0.654170 0.933422 0.000779 0.004770 334012.000000 0 0 1
-32.782263 -24.918547 30.260766 51.101122 0.649948 0.937042 -0.003414 0.001822 112278.000000 0 0 1
-32.708833 -26.301537 30.386566 51.816812 0.677243 0.944161 0.003305 -0.006013 345894.000000 0 0 1
-33.728153 -26.833227 31.250416 53.237194 0.672036 0.943444 0.001810 -0.002588 392593.000000 0 0 1
-33.697343 -28.395957 31.427816 54.125307 0.700227 0.951270 0.011249 -0.005135 -67285.200000 0 0 1
-32.800833 -28.833167 32.431036 54.396859 0.721112 0.932045 0.010758 0.005208 -199868.000000 0 0 1
-32.739643 -30.188017 32.554906 55.163598 0.744872 0.939549 0.006387 0.002206 131018.000000 0 0 1
-31.786683 -30.642017 33.674583 55.527506 0.767065 0.919210 0.011622 0.000871 63875.400000 0 0 1
-32.262963 -30.236237 -34.092519 55.833938 0.752981 2.227621 0.013912 0.001604 -29536.400000 0 0 1
-31.347103 -30.536117 -33.028716 54.826922 0.772294 2.217323 0.007560 0.001624 264299.000000 0 0 1
-31.850113 -30.067057 -31.613476 54.017307 0.756609 2.195981 0.017541 -0.002790 -95389.600000 0 0 1
-31.976223 -28.665137 -31.398106 53.197838 0.730851 2.202120 0.015431 -0.000605 479591.000000 0 0 1
-30.715513 -27.958517 -31.357026 52.042141 0.738444 2.217466 0.019865 0.003613 625591.000000 0 0 1
-30.783033 -26.419747 -31.052636 51.086832 0.709268 2.224134 0.019855 0.006854 -97329.200000 0 0 1
-31.296123 -26.011877 -29.756126 50.413213 0.693450 2.202158 0.017859 -0.002770 59279.800000 0 0 1
-31.342383 -24.580547 -29.584136 49.616221 0.665069 2.209630 0.013035 -0.000394 144064.000000 0 0 1
-29.970623 -23.918047 -29.280326 48.245712 0.673551 2.222951 0.022622 -0.000597 -23916.900000 0 0 1
-30.052013 -22.517847 -29.159816 47.544419 0.643050 2.231050 0.016713 0.000829 306889.000000 0 0 1
-28.833323 -22.095447 -28.566266 46.212562 0.653862 2.237183 0.028268 -0.002856 293204.000000 0 0 1
-28.511913 -20.569447 -28.695796 45.381495 0.624966 2.255345 0.031529 -0.012908 -20001.700000 0 0 1
-28.020253 -20.252547 -30.002006 45.775764 0.625853 2.285525 0.028348 -0.003104 338251.000000 0 0 1
-27.554613 -18.933147 -30.085196 44.975991 0.602025 2.303547 0.020908 -0.003707 -178290.000000 0 0 1
-27.061323 -18.526347 -31.529686 45.493536 0.600320 2.336520 0.014449 -0.006222 103217.000000 0 0 1
-28.058713 -18.424847 -32.528256 46.742420 0.581038 2.340475 0.012400 -0.012547 -18460.700000 0 0 1
-28.933763 -17.341447 -32.385416 46.762203 0.539941 2.335822 0.011155 -0.011360 -692490.000000 0 0 1
-29.508423 -16.594847 -33.605326 47.701718 0.512296 2.352499 0.008362 -0.015787 234710.000000 0 0 1
-30.471413 -17.288047 -34.388985 49.091607 0.516068 2.346903 0.005622 -0.021769 246795.000000 0 0 1
-31.803923 -17.064947 -33.981006 49.572278 0.492472 2.326065 0.003391 -0.014178 442522.000000 0 0 1
-32.861233 -17.702547 34.041853 50.518200 0.494131 0.831385 0.008488 -0.019736 293877.000000 0 0 1
-33.051293 -19.130847 33.997753 51.129487 0.524703 0.843390 0.001776 -0.014740 89496.200000 0 0 1
-33.928413 -19.508347 32.945316 51.157665 0.521823 0.871087 0.005394 -0.011935 -324877.000000 0 0 1
-34.514384 -20.911747 33.146779 52.223106 0.544735 0.883157 0.011793 -0.016612 177741.000000 0 0 1
-33.457093 -21.828847 33.294670 52.003949 0.578091 0.875994 0.008774 -0.012460 236573.000000 0 0 1
-34.047443 -23.030947 33.784711 53.207702 0.594736 0.882841 0.010519 -0.009202 -10774.400000 0 0 1
-33.047753 -24.234747 33.933425 53.206713 0.632743 0.879202 0.004160 -0.003279 1301370.000000 0 0 1
-31.983473 -24.078347 -34.135623 52.611312 0.645314 2.276838 0.001192 -0.005920 1410080.000000 0 0 1
-30.977933 -23.059547 -34.338695 51.677084 0.639899 2.297602 0.005635 -0.011207 169999.000000 0 0 1
-29.758023 -22.971647 -33.376436 50.271493 0.657400 2.296850 0.010529 -0.004545 260369.000000 0 0 1
-28.709943 -23.832847 -33.789606 50.338881 0.692842 2.306680 0.014524 0.005495 -246767.000000 0 0 1
-27.471233 -23.779747 -33.159066 49.190128 0.713495 2.310542 0.017567 0.002281 -245128.000000 0 0 1
-27.355343 -24.245047 -31.677546 48.369453 0.725194 2.284857 0.024217 0.010643 -954690.000000 0 0 1
-27.327353 -25.632357 -31.549486 48.981344 0.753404 2.270659 0.019411 0.004483 -22314.300000 0 0 1
-27.066123 -25.993597 -30.223486 48.184035 0.765187 2.248815 0.018252 -0.005899 -284703.000000 0 0 1
-26.631983 -27.471227 -30.029206 48.638298 0.800909 2.236228 0.014113 -0.009423 -94460.400000 0 0 1
-27.598833 -28.441277 -30.346386 49.914977 0.800430 2.224287 0.018412 -0.000505 -29536.200000 0 0 1
-27.178323 -29.726357 -29.918466 50.174019 0.830145 2.209673 0.012542 -0.006790 -154927.000000 0 0 1
-28.192153 -30.812147 -30.285996 51.589024 0.829772 2.198222 0.027379 0.005636 -314990.000000 0 0 1
-28.076423 -31.162197 -31.636826 52.538146 0.837442 2.217011 0.028287 -0.011690 262656.000000 0 0 1
-28.382923 -32.471247 -31.970626 53.685129 0.852480 2.208710 0.055066 -0.004265 -447339.000000 0 0 1
-27.739263 -32.730067 -33.344696 54.337765 0.867746 2.231479 0.020510 -0.010471 359222.000000 0 0 1
-26.327113 -32.907807 -33.335206 53.733384 0.896039 2.240026 0.036309 -0.019991 109579.000000 0 0 1
-25.933593 -33.355527 34.428137 54.501734 0.909932 0.887067 0.046550 -0.026486 -388687.000000 0 0 1
-24.422763 -33.549067 34.268519 53.817680 0.941543 0.880518 0.049145 -0.027477 -269626.000000 0 0 1
-24.157163 -34.142466 33.032158 53.295403 0.955028 0.902316 0.037719 -0.022267 -308111.000000 0 0 1
-22.997763 34.200732 33.153846 52.893900 -0.978811 0.893358 0.032933 -0.010297 -144616.000000 0 0 1
-22.753763 33.275186 31.953646 51.439355 -0.971022 0.900535 0.038354 -0.011585 477713.000000 0 0 1
-23.892163 32.375025 31.868876 51.328383 -0.935032 0.900929 0.057621 -0.028331 570036.000000 0 0 1
-24.003663 31.716035 30.624896 50.199273 -0.922938 0.914652 0.039135 -0.015289 -349763.000000 0 0 1
-25.357713 31.165045 30.117526 50.212937 -0.887782 0.927550 0.038958 -0.012651 -192019.000000 0 0 1
-25.895133 30.186235 31.031806 50.445413 -0.861765 0.908212 0.047441 -0.019437 -132103.000000 0 0 1
-26.845293 29.372135 30.427746 50.092313 -0.830316 0.917971 0.032581 -0.016679 -410825.000000 0 0 1
-27.394163 28.298655 31.296976 50.306607 -0.801637 0.899343 0.038632 -0.034002 -316322.000000 0 0 1
-26.562763 27.158785 31.324286 49.238104 -0.796492 0.881260 0.041645 -0.029476 -14586.800000 0 0 1
-27.139553 25.938095 31.761656 49.174616 -0.762766 0.868601 0.040314 -0.020957 458442.000000 0 0 1
-28.129813 25.186595 30.793246 48.722428 -0.730251 0.886647 0.036619 -0.012605 788247.000000 0 0 1
-27.505173 24.981105 29.550356 47.474348 -0.737345 0.898929 0.033754 -0.012825 140077.000000 0 0 1
-28.483793 24.458465 28.676816 47.243018 -0.709512 0.918508 0.036967 -0.010245 420536.000000 0 0 1
-27.838973 24.152325 27.330236 45.883385 -0.714608 0.932727 0.043888 -0.012319 290570.000000 0 0 1
-26.787483 23.192025 27.318836 44.741011 -0.713583 0.913979 0.046135 -0.011677 414692.000000 0 0 1
-26.285333 22.723025 26.052926 43.428211 -0.712838 0.927410 0.039098 -0.005220 213237.000000 0 0 1
-24.879963 22.121525 26.332116 42.447082 -0.726777 0.901605 0.031446 -0.012058 3499.730000 0 0 1
-24.984063 20.910625 27.109366 42.383669 -0.696874 0.876795 0.056006 -0.020546 1669140.000000 0 0 1
-23.659663 20.321325 27.277026 41.433948 -0.709639 0.852204 0.046038 -0.010245 1217640.000000 0 0 1
-23.658663 19.052125 28.218456 41.460789 -0.677959 0.822207 0.064484 -0.013602 -472248.000000 0 0 1
-22.412763 18.442525 28.395306 40.604828 -0.688524 0.796367 0.050072 -0.008285 -246774.000000 0 0 1
-22.506163 17.202825 29.024016 40.556850 -0.652629 0.773259 0.050587 -0.007171 102117.000000 0 0 1
-21.157063 16.447525 29.170006 39.611004 -0.660808 0.743045 0.052804 -0.007841 294027.000000 0 0 1
-20.258663 16.923825 30.171516 40.089271 -0.695949 0.718782 0.064142 -0.004588 452111.000000 0 0 1
-19.132463 16.034125 30.142986 39.137500 -0.697520 0.691670 0.045870 -0.007751 -104142.000000 0 0 1
-18.015563 16.504725 31.054646 39.514016 -0.741659 0.666622 0.026632 -0.009658 -690380.000000 0 0 1
-18.181163 16.089825 32.411486 40.496192 -0.724450 0.642903 0.008361 -0.001594 468111.000000 0 0 1
-17.151963 16.684725 33.183193 40.910808 -0.771590 0.624748 0.008402 -0.004437 -780931.000000 0 0 1
-17.294663 16.317825 -34.360282 41.785234 -0.756345 2.536249 0.002520 -0.018055 -364862.000000 0 0 1
-18.256163 16.923625 -33.586086 41.805762 -0.747538 2.503753 0.014674 -0.023088 359606.000000 0 0 1
-19.618363 16.720625 -33.976216 42.647892 -0.705825 2.492559 0.016997 -0.018140 -64407.500000 0 0 1
-20.673063 17.489425 -33.144436 42.799640 -0.702168 2.456577 0.015164 -0.034290 -645224.000000 0 0 1
-20.869563 17.030425 -31.799266 41.674541 -0.684446 2.438797 0.013939 -0.039555 -41601.300000 0 0 1
-21.799963 17.807625 -31.101906 41.948522 -0.684940 2.405996 0.007779 -0.029775 -830518.000000 0 0 1
-21.863563 17.550625 -29.579036 40.754867 -0.676406 2.382963 0.009676 -0.024975 -169199.000000 0 0 1
-22.474663 16.368425 -29.097996 40.245859 -0.629472 2.378940 0.009008 -0.030315 -993392.000000 0 0 1
-23.849563 16.369325 -29.251736 41.139039 -0.601511 2.361781 0.026531 -0.030083 -1450600.000000 0 0 1
-24.617863 15.535025 -28.270796 40.578493 -0.562936 2.341575 0.026471 -0.018384 -327595.000000 0 0 1
-24.374663 14.163025 -28.493656 40.082464 -0.526373 2.361539 -0.005137 -0.009981 -75438.500000 0 0 1
-25.327883 13.412025 -27.789396 39.920353 -0.486996 2.340776 -0.021478 -0.004992 -28041.000000 0 0 1
-25.009463 11.858725 -27.848336 39.263627 -0.442771 2.359252 -0.006751 -0.010255 157530.000000 0 0 1
-23.894063 11.430125 -27.112046 37.902995 -0.446192 2.367851 -0.006706 -0.008469 -254048.000000 0 0 1
-23.290663 10.256325 -27.554196 37.508411 -0.414810 2.395894 -0.013213 -0.003956 -454916.000000 0 0 1
-22.228063 9.660725 -26.665756 36.034413 -0.409989 2.403879 0.019257 -0.005857 -635529.000000 0 0 1
-22.724863 8.800225 -25.646166 35.377807 -0.369468 2.381718 0.007742 -0.002143 -738687.000000 0 0 1
-21.769163 8.438625 -24.719906 34.002656 -0.369807 2.384738 0.041946 0.007244 -630867.000000 0 0 1
-22.134563 7.182225 -23.940806 33.386905 -0.313762 2.370388 0.039452 0.005896 -18891.500000 0 0 1
-22.120663 6.018525 -24.742206 33.730152 -0.265647 2.394303 0.043906 0.001190 335152.000000 0 0 1
-22.792963 4.926725 -24.147306 33.569096 -0.212876 2.373636 0.037566 0.018064 -159943.000000 0 0 1
33.869539 24.775653 -10.738906 43.316311 0.631557 1.821327 -0.012488 0.002723 -20457.600000 0 0 1
34.812826 24.325253 -9.794606 43.584230 0.609883 1.797460 -0.003811 -0.005862 82389.100000 0 0 1
-34.860075 23.380353 -10.354206 43.232804 -0.590784 1.812646 0.005364 -0.006642 -509166.000000 0 0 1
-33.921093 22.764953 -9.387906 41.916780 -0.591076 1.796678 0.008897 -0.008534 -821481.000000 0 0 1
-34.468959 21.807753 -8.498606 41.664296 -0.564102 1.776216 0.008073 -0.012997 -527541.000000 0 0 1
-33.519163 21.275053 -7.611406 40.423950 -0.565554 1.760217 0.015098 -0.012327 -653290.000000 0 0 1
-33.990413 20.362053 -6.494306 40.151431 -0.539723 1.733255 0.004162 -0.008873 -296838.000000 0 0 1
-34.592302 19.140153 -6.982506 40.146335 -0.505378 1.745612 0.000482 -0.019004 263983.000000 0 0 1
-34.879214 18.327553 -5.944706 39.847187 -0.483806 1.720543 -0.005523 -0.028955 -457747.000000 0 0 1
34.857595 17.143253 -6.434306 39.374400 0.457073 1.734946 0.003487 -0.018738 -671365.000000 0 0 1
33.668589 17.548653 -7.033006 38.613369 0.480477 1.753958 0.016305 -0.017363 -977714.000000 0 0 1
33.125159 16.433653 -7.597706 37.750050 0.460529 1.773444 0.028273 -0.007614 360907.000000 0 0 1
31.996749 16.697653 -8.672206 37.118873 0.480978 1.806609 0.035989 -0.012545 506656.000000 0 0 1
31.586309 15.569653 -9.410906 36.450983 0.457971 1.831934 0.044212 -0.017815 151621.000000 0 0 1
30.887949 15.997353 -10.589806 36.361032 0.477877 1.866320 0.038115 -0.007339 117202.000000 0 0 1
30.193559 14.808453 -11.373806 35.500771 0.455979 1.896929 0.030201 -0.006493 461860.000000 0 0 1
28.975899 14.244253 -10.889106 34.074537 0.456897 1.896069 0.016945 0.005351 540855.000000 0 0 1
28.938229 13.649453 -9.610706 33.407998 0.440732 1.862597 0.039913 -0.000278 -454153.000000 0 0 1
27.852099 12.573553 -9.397106 31.970913 0.424051 1.869129 0.033991 0.002478 80112.000000 0 0 1
28.121249 11.386053 -10.153406 31.992788 0.384716 1.893746 0.028551 0.004175 62018.700000 0 0 1
27.148289 10.447053 -9.881706 30.721631 0.367347 1.898271 0.025489 0.011928 -530970.000000 0 0 1
27.602569 8.996353 -10.414306 30.843053 0.315068 1.915221 0.023995 0.016682 -20004.000000 0 0 1
28.699169 8.588953 -9.622906 31.464468 0.290792 1.881611 0.035592 0.010804 353243.000000 0 0 1
28.888249 7.185853 -9.600706 31.278442 0.243799 1.882776 0.031538 0.008080 -801081.000000 0 0 1
29.945329 6.716853 -8.616106 31.875949 0.220652 1.844502 0.052773 0.006536 337526.000000 0 0 1
31.277659 6.984853 -9.062506 33.304791 0.219713 1.846380 0.050257 0.001578 105700.000000 0 0 1
32.247519 6.509053 -8.186006 33.901046 0.199171 1.814674 0.052280 -0.007539 353919.000000 0 0 1
33.692269 6.977653 -8.582706 35.461521 0.204213 1.815253 0.040574 -0.007733 538015.000000 0 0 1
34.104599 6.327653 -9.760506 36.033739 0.183451 1.845094 0.038188 -0.002488 -918604.000000 0 0 1
-35.141011 6.601453 -10.006606 37.129530 -0.185692 1.843676 0.033824 -0.001992 -1353760.000000 0 0 1
-34.437952 5.668453 -11.086206 36.619774 -0.163136 1.878361 0.039153 -0.008092 481424.000000 0 0 1
-33.059133 5.816453 -11.387906 35.446041 -0.174158 1.897871 0.035234 -0.002137 651516.000000 0 0 1
-32.731133 6.908353 -12.184706 35.602240 -0.208011 1.920102 0.015981 -0.005028 -459584.000000 0 0 1
-32.155523 8.187453 -11.518406 35.123863 -0.249323 1.904915 0.017020 0.005162 -455927.000000 0 0 1
-33.061493 8.878753 -10.686106 35.862062 -0.262362 1.873370 0.024281 0.002930 -136942.000000 0 0 1
-33.655543 10.003453 -11.217606 36.859183 -0.288914 1.880038 0.021027 0.001843 98629.100000 0 0 1
-34.386446 10.865353 -10.167806 37.468225 -0.306050 1.845614 0.026841 0.004499 298507.000000 0 0 1
-33.480353 11.535553 -9.290406 36.610308 -0.331809 1.827367 0.020117 -0.001262 352035.000000 0 0 1
-34.140449 12.403853 -8.369406 37.275633 -0.348490 1.797254 0.032705 -0.003806 279418.000000 0 0 1
-33.137473 13.322853 -7.632806 36.521915 -0.382271 1.781341 0.033420 0.000191 462928.000000 0 0 1
-32.437383 14.329153 -8.363206 36.434210 -0.415971 1.802404 0.022319 -0.009617 -373961.000000 0 0 1
-31.450493 14.915153 -7.584706 35.624754 -0.442830 1.785344 0.024734 -0.006917 -520666.000000 0 0 1
-30.679343 15.947353 -8.431706 35.589800 -0.479368 1.809984 0.013289 -0.006576 -180859.000000 0 0 1
-31.470013 17.007153 -9.004806 36.887553 -0.495462 1.817403 0.020578 -0.010006 -214251.000000 0 0 1
-30.733293 18.123953 -9.355006 36.885351 -0.532824 1.827221 0.018957 -0.007745 -103097.000000 0 0 1
-31.531613 19.169353 -10.209306 38.287552 -0.546238 1.840710 0.004102 -0.011190 355913.000000 0 0 1
-31.461553 18.817653 -11.564106 38.440369 -0.539033 1.876362 -0.001963 -0.009157 -29640.500000 0 0 1
-32.510533 19.429053 -12.276606 39.813791 -0.538670 1.884255 -0.005742 -0.015211 -92297.400000 0 0 1
-32.174463 19.415553 -13.799606 40.032348 -0.542950 1.922728 -0.010876 -0.000176 -101028.000000 0 0 1
-31.191043 20.364753 -14.114406 39.834920 -0.578414 1.932986 -0.008783 0.000795 -40863.900000 0 0 1
-31.071453 20.542753 -15.536606 40.358717 -0.584171 1.965964 -0.020204 0.008371 -309364.000000 0 0 1
-30.281643 21.839553 -15.957906 40.602940 -0.624822 1.974714 0.001168 0.001863 316846.000000 0 0 1
-28.976113 21.801053 -15.390106 39.392340 -0.645023 1.972175 -0.005607 0.002986 393103.000000 0 0 1
-28.190783 22.978853 -15.353606 39.477604 -0.683892 1.970255 -0.000441 0.003377 129265.000000 0 0 1
-27.686903 23.642853 -16.622906 40.023370 -0.706775 1.999102 -0.000225 0.003712 -312610.000000 0 0 1
-28.707843 24.182853 -17.472706 41.403455 -0.700052 2.006459 0.005333 0.012151 301995.000000 0 0 1
-28.163633 24.856353 -18.597106 41.915163 -0.723101 2.030502 -0.007412 0.012416 -686658.000000 0 0 1
-27.502003 26.233353 -18.396706 42.225440 -0.761793 2.021588 -0.003029 0.014596 450825.000000 0 0 1
-28.361263 27.356553 -18.115106 43.369336 -0.767368 2.001702 0.000764 0.020394 411121.000000 0 0 1
-27.554683 28.536453 -18.009006 43.565055 -0.802900 1.996961 0.007215 0.014832 515724.000000 0 0 1
-28.206123 29.759553 -17.251806 44.484168 -0.812191 1.969061 0.011134 0.013689 -115205.000000 0 0 1
-28.281623 29.634953 -15.842306 43.921058 -0.808761 1.939814 0.014449 0.007405 917681.000000 0 0 1
-27.005293 29.760553 -15.168606 42.954197 -0.833897 1.931716 0.019478 0.000586 852196.000000 0 0 1
-27.069903 30.475453 -13.809506 43.037604 -0.844509 1.897445 0.024891 -0.001865 -279244.000000 0 0 1
-26.801733 31.871153 -13.912506 43.905138 -0.871586 1.893231 0.041101 0.002315 -28617.800000 0 0 1
-27.039713 32.587153 -12.677306 44.201615 -0.878167 1.861688 0.041907 -0.003369 -318576.000000 0 0 1
-26.504853 33.999653 -12.626606 44.921207 -0.908642 1.855719 0.021070 -0.000870 -492150.000000 0 0 1
-27.081743 -34.267318 -13.605706 45.746968 0.901993 1.872777 0.005107 -0.008402 -18858.700000 0 0 1
-26.429183 -33.007818 -13.750606 44.464558 0.895632 1.885199 0.006493 -0.005445 -116105.000000 0 0 1
-26.718293 -32.325418 -15.113906 44.578358 0.880080 1.916694 0.001411 -0.002613 -76008.900000 0 0 1
-26.098543 -32.998218 -16.203306 45.083960 0.901624 1.938424 -0.000027 -0.005588 -98262.500000 0 0 1
-26.306143 -32.378518 -17.458606 45.223716 0.888506 1.967142 0.000720 0.007194 -178860.000000 0 0 1
-25.564663 -33.012318 -18.641906 45.726205 0.911863 1.990714 0.003216 0.002800 -658978.000000 0 0 1
-25.942053 -34.290518 -19.111206 47.053883 0.923125 1.989040 0.004911 0.005716 -295010.000000 0 0 1
-25.634363 33.760353 -18.339006 46.186591 -0.921367 1.979111 -0.006189 -0.007595 -814178.000000 0 0 1
-25.699543 32.407553 -19.070906 45.545752 -0.900332 2.002831 0.009184 -0.018886 835302.000000 0 0 1
-26.952533 31.786953 -19.433606 45.983850 -0.867516 2.007128 0.006761 -0.004422 1046130.000000 0 0 1
-27.766613 32.550653 -20.355706 47.380213 -0.864547 2.014873 0.008056 0.002121 780847.000000 0 0 1
-29.310173 32.298753 -20.386106 48.144460 -0.833869 2.008031 0.007922 0.003788 762564.000000 0 0 1
-29.571683 30.923653 -20.690806 47.527531 -0.807743 2.021216 -0.003377 0.001784 -456189.000000 0 0 1
-30.910953 30.747253 -21.026206 48.404359 -0.782743 2.020154 -0.001629 0.002245 -752813.000000 0 0 1
-31.132873 29.414553 -21.745806 48.034902 -0.757026 2.040597 -0.006747 0.004381 141626.000000 0 0 1
-32.517493 29.113353 -21.919806 48.841096 -0.730220 2.036217 -0.002066 0.007093 511431.000000 0 0 1
-32.642583 27.848153 -22.459506 48.430231 -0.706305 2.053019 0.000135 0.006980 671731.000000 0 0 1
-34.084565 27.266453 -22.709406 49.202990 -0.674719 2.050533 0.004778 0.007223 717677.000000 0 0 1
-34.811550 27.911753 -23.698306 50.522467 -0.675835 2.059028 -0.005606 0.009527 36281.700000 0 0 1
34.493199 27.295753 -23.960606 50.089416 0.669436 2.069579 -0.000429 0.015688 843103.000000 0 0 1
33.803509 27.963853 -25.175346 50.581146 0.691136 2.091767 0.004428 0.011901 140926.000000 0 0 1
34.571369 27.813653 -26.336976 51.598597 0.677496 2.106470 0.015429 -0.000177 -155213.000000 0 0 1
33.743029 28.222453 -27.384046 51.816839 0.696542 2.127603 0.020546 0.005054 -28800.100000 0 0 1
34.481119 28.191153 -28.704686 52.987241 0.685370 2.143288 0.021231 0.004797 -58051.600000 0 0 1
35.012519 26.925953 -29.086066 52.885562 0.655574 2.153138 0.014043 0.006347 57869.200000 0 0 1
-35.047913 27.048253 -30.398276 53.703067 -0.657277 2.172495 0.004267 0.004370 -994427.000000 0 0 1
-34.612600 25.674353 -31.139826 53.168537 -0.638209 2.196517 0.001522 0.002306 1013430.000000 0 0 1
-33.529193 24.927853 -30.564956 51.766990 -0.639307 2.202392 0.025976 -0.000656 163645.000000 0 0 1
-32.312903 25.608853 -30.430816 51.244235 -0.670168 2.206618 0.021919 -0.002143 -817941.000000 0 0 1
-31.355423 24.847153 -29.496696 49.705117 -0.670111 2.206115 0.015970 -0.000211 -59961.800000 0 0 1
-30.847713 23.573753 -29.988176 49.057048 -0.652526 2.228488 0.041109 -0.009005 266983.000000 0 0 1
-31.217673 22.459153 -29.177986 48.273301 -0.623652 2.219851 0.050718 -0.003939 -107452.000000 0 0 1
-30.843133 21.203153 -29.923516 47.919614 -0.602254 2.245227 0.054158 -0.010094 1781260.000000 0 0 1
-29.393393 20.988353 -29.839726 46.849672 -0.620093 2.261299 0.058898 -0.017621 1678270.000000 0 0 1
-29.009053 19.708453 -30.294766 46.343513 -0.596759 2.283260 0.052842 -0.020633 -678725.000000 0 0 1
-27.507163 19.512053 -30.121986 45.218340 -0.616970 2.299825 0.071454 -0.022176 -783062.000000 0 0 1
-26.715603 20.031353 -31.183376 45.687871 -0.643373 2.322016 0.077190 -0.021043 581538.000000 0 0 1
-25.558383 19.177953 -31.345726 44.761361 -0.643731 2.346594 0.063197 -0.032038 308394.000000 0 0 1
-25.683963 17.776853 -32.074916 44.771450 -0.605430 2.369446 0.050300 -0.023615 -527193.000000 0 0 1
-26.338093 16.761753 -31.303886 44.210687 -0.566760 2.357546 0.030203 -0.021902 375679.000000 0 0 1
-26.510043 15.527253 -32.085226 44.422289 -0.529847 2.377886 0.011557 -0.007765 -70525.500000 0 0 1
-27.083813 14.323553 -31.333576 43.823397 -0.486468 2.367415 0.011089 -0.007553 329979.000000 0 0 1
-28.490093 14.286053 -31.098416 44.529633 -0.464798 2.343922 0.016964 -0.011055 711270.000000 0 0 1
-29.109183 12.990953 -30.930136 44.416019 -0.419759 2.341128 0.014205 -0.003150 86248.600000 0 0 1
-28.751903 12.111953 -29.711086 43.082711 -0.398696 2.331773 -0.005796 -0.013683 -456645.000000 0 0 1
-28.991883 12.883153 -28.529966 42.666895 -0.418163 2.303212 -0.011943 -0.011033 258654.000000 0 0 1
-29.173083 11.997253 -27.484806 41.837990 -0.390162 2.287542 -0.011137 -0.007204 -78456.100000 0 0 1
-29.080923 12.563453 -26.022506 40.996479 -0.407799 2.258481 -0.021862 -0.002235 -503933.000000 0 0 1
-27.799773 13.002353 -25.719486 40.042235 -0.437487 2.268303 -0.024883 -0.003282 -811031.000000 0 0 1
-27.784803 13.737453 -24.480106 39.496690 -0.459176 2.239286 -0.024997 0.003276 117625.000000 0 0 1
-26.366213 13.827853 -23.853006 38.149084 -0.483019 2.246258 -0.014979 0.008576 -229939.000000 0 0 1
-25.535813 14.604053 -24.722306 38.425884 -0.519505 2.269697 0.003309 0.001005 655065.000000 0 0 1
-24.155363 14.723653 -24.375506 37.342106 -0.547404 2.282021 0.001087 -0.000527 695016.000000 0 0 1
-23.832463 15.420853 -23.032306 36.555111 -0.574300 2.252441 -0.000543 0.008458 -1174740.000000 0 0 1
-23.988063 16.839253 -23.007206 37.260155 -0.612057 2.236325 0.012810 0.003626 186632.000000 0 0 1
-24.242563 17.306153 -21.672206 36.835979 -0.619977 2.199805 0.009679 0.015610 152066.000000 0 0 1
-25.732813 17.621753 -21.374006 37.809417 -0.600450 2.171604 0.004377 0.012362 356626.000000 0 0 1
-26.562053 16.459553 -21.342106 37.841050 -0.554753 2.170010 0.011370 0.010839 -671394.000000 0 0 1
-27.647883 16.680253 -20.530806 38.264217 -0.542850 2.137144 0.007722 0.014243 -1292860.000000 0 0 1
-28.717403 15.567953 -20.675306 38.659005 -0.496764 2.135082 -0.019217 0.010185 26634.000000 0 0 1
-29.397763 15.400953 -21.899106 39.761649 -0.482570 2.154070 -0.016992 0.009727 482875.000000 0 0 1
-30.130653 16.492253 -22.456906 41.038559 -0.500813 2.149829 -0.020401 0.008433 -194440.000000 0 0 1
-30.634563 16.451153 -23.923706 42.207353 -0.492818 2.173429 -0.014403 0.002944 -707471.000000 0 0 1
-31.672313 15.575553 -24.125506 42.752466 -0.457043 2.170390 -0.004762 0.002595 -730522.000000 0 0 1
-32.153973 15.734853 -25.410776 43.899558 -0.455099 2.188101 0.014672 -0.011494 -781217.000000 0 0 1
-33.290183 14.815553 -25.784786 44.638460 -0.418724 2.186626 0.007924 -0.008204 -689107.000000 0 0 1
-33.060723 13.409553 -25.822466 44.041200 -0.385328 2.197311 0.007935 -0.010703 -3449.660000 0 0 1
-33.089193 12.783453 -24.585206 43.159515 -0.368669 2.176859 -0.006758 -0.002467 -259971.000000 0 0 1
-33.066073 11.248353 -24.774406 42.821278 -0.327898 2.187751 0.001587 -0.006384 250645.000000 0 0 1
-34.192828 10.826653 -25.538146 44.029113 -0.306648 2.189560 0.017390 -0.016599 29422.300000 0 0 1
-34.015283 9.558353 -26.144056 43.953536 -0.273937 2.207827 0.010031 -0.006043 -1103680.000000 0 0 1
-35.213010 8.995553 -26.858716 45.191445 -0.250112 2.207231 0.019098 -0.000076 -1265350.000000 0 0 1
34.536585 8.404353 -25.908956 43.985030 0.238707 2.200667 0.013015 0.005269 -787200.000000 0 0 1
33.721319 7.487053 -26.594006 43.593858 0.218483 2.226908 0.006682 0.001825 -161055.000000 0 0 1
32.596179 6.877853 -25.723206 42.089180 0.207952 2.228321 0.006878 0.002364 56494.800000 0 0 1
33.083289 5.823553 -24.942606 41.839591 0.174242 2.209492 0.011661 -0.007984 -486990.000000 0 0 1
32.076199 4.973453 -24.523606 40.681999 0.153826 2.217817 0.015476 0.000116 -627707.000000 0 0 1
32.565039 3.928753 -23.511706 40.357368 0.120063 2.192705 0.002906 0.002512 266734.000000 0 0 1
33.412209 2.927653 -24.080206 41.289262 0.087399 2.193468 -0.005373 -0.003812 70645.700000 0 0 1
34.170829 2.253853 -23.117606 41.317661 0.065863 2.164590 0.004794 0.000740 681015.000000 0 0 1
-35.214868 1.448753 -23.793606 42.524364 -0.041117 2.164613 0.019800 0.004867 901554.000000 0 0 1
34.935890 0.118053 -23.999106 42.384990 0.003379 2.172705 0.005770 0.010594 268249.000000 0 0 1
-34.494623 -0.610347 -24.391406 42.251535 0.017692 2.186203 0.020397 0.001852 100553.000000 0 0 1
-22.127063 29.949653 28.278836 46.757686 -0.934496 0.921287 0.037380 -0.003758 -1029400.000000 0 0 1
-23.498063 30.043153 28.000336 47.315630 -0.907039 0.937534 0.022234 -0.002202 -30973.300000 0 0 1
-23.859563 29.902053 26.636776 46.614691 -0.897323 0.962556 0.014070 -0.009705 -325483.000000 0 0 1
-24.015563 28.548653 25.920896 45.427588 -0.871424 0.963562 0.014839 -0.006148 643318.000000 0 0 1
-25.175653 27.719153 26.197506 45.699828 -0.833447 0.960327 0.015579 -0.003400 932742.000000 0 0 1
-25.320443 27.234053 27.549316 46.279405 -0.821794 0.933179 0.022988 -0.006416 -662607.000000 0 0 1
-24.475463 25.940853 27.883596 45.271085 -0.814456 0.907237 0.023493 -0.004527 391897.000000 0 0 1
-23.142763 26.180653 28.291096 44.959985 -0.846912 0.890208 0.017303 -0.003247 23566.100000 0 0 1
-23.056263 26.668253 29.666476 46.074796 -0.857911 0.871242 0.021364 -0.007559 -591314.000000 0 0 1
-21.762263 26.349153 30.409356 45.744977 -0.880450 0.843626 0.024232 0.000020 -71003.500000 0 0 1
-20.556863 26.947053 29.908036 45.201979 -0.919115 0.847775 0.023776 -0.004377 837981.000000 0 0 1
-19.398463 26.534553 30.617936 44.920384 -0.939525 0.820843 0.024884 0.003343 116964.000000 0 0 1
-18.767863 25.159353 30.223446 43.573873 -0.929886 0.804302 0.019574 0.007774 -667265.000000 0 0 1
-18.008063 25.165553 29.061106 42.451659 -0.949688 0.816784 0.022380 0.005980 -96789.600000 0 0 1
-18.636863 24.491253 27.956236 41.577702 -0.920318 0.833370 0.025463 -0.000071 -299268.000000 0 0 1
-18.525663 22.937353 27.974076 40.643220 -0.891400 0.811675 0.017206 0.006187 -56676.800000 0 0 1
-19.206363 22.339253 29.051666 41.375427 -0.860664 0.792387 0.018635 0.008111 8158.150000 0 0 1
-19.107463 20.993153 28.990936 40.574401 -0.832388 0.774869 0.027966 0.008596 349176.000000 0 0 1
-19.926363 20.320853 30.128216 41.445222 -0.795200 0.756940 0.038124 0.000198 377060.000000 0 0 1
-19.136263 20.405253 31.308076 41.985314 -0.817480 0.729225 0.024389 -0.001622 409384.000000 0 0 1
-19.747863 19.806553 32.443606 42.835327 -0.786882 0.711470 0.024928 -0.003536 43964.900000 0 0 1
-19.074063 20.286453 33.773805 43.772480 -0.816191 0.689481 0.006090 -0.003128 -293202.000000 0 0 1
-19.082563 21.635853 34.157789 44.710278 -0.848022 0.701336 0.001069 0.002225 613056.000000 0 0 1
-18.065363 22.437053 33.505369 44.185840 -0.892918 0.710121 0.011268 0.013133 -142631.000000 0 0 1
-16.629463 22.314753 33.965278 43.910448 -0.930360 0.686432 -0.004142 0.027387 -704107.000000 0 0 1
-15.919663 21.131753 33.591326 42.759372 -0.925153 0.667148 -0.012201 0.006267 -544080.000000 0 0 1
-14.642063 21.170953 34.138038 42.755174 -0.965723 0.646073 -0.024328 0.010540 -1195310.000000 0 0 1
-13.774663 19.932953 33.780207 41.571220 -0.966103 0.622220 -0.027904 0.004959 1226090.000000 0 0 1
-12.390563 19.966953 34.214361 41.506961 -1.015401 0.601824 -0.027221 -0.008607 1319380.000000 0 0 1
-12.281263 19.874753 -33.407326 40.766220 -1.017295 2.531309 -0.017915 -0.007617 -1164770.000000 0 0 1
-10.805963 19.892353 -33.009626 40.026366 -1.073172 2.540463 -0.017134 -0.013874 -43575.300000 0 0 1
-10.199163 21.196953 -33.223066 40.707566 -1.122333 2.525495 -0.013411 -0.013954 -1176970.000000 0 0 1
-8.878463 21.128653 -32.859436 40.062322 -1.172990 2.532571 -0.014980 -0.010481 -1352580.000000 0 0 1
-8.218363 22.533553 -32.856186 40.679620 -1.221071 2.511006 -0.005298 -0.015516 -57325.800000 0 0 1
-8.367263 23.405353 -31.711046 40.291589 -1.227461 2.476791 -0.002961 -0.011445 247604.000000 0 0 1
-7.591163 23.004553 -30.571516 39.005805 -1.252062 2.471507 -0.000197 -0.012120 -332125.000000 0 0 1
-7.053463 24.173853 -29.741176 38.970041 -1.286897 2.439017 0.003613 -0.007328 -529015.000000 0 0 1
-6.071163 24.963453 -30.314326 39.736525 -1.332226 2.438557 0.001728 -0.011889 -452767.000000 0 0 1
-5.868563 26.053453 -29.498116 39.791473 -1.349243 2.405828 0.010264 0.000250 -721509.000000 0 0 1
-4.692363 26.878953 -29.982476 40.539429 -1.397964 2.403254 -0.006527 0.004038 -154488.000000 0 0 1
-3.483963 26.151153 -29.687346 39.715984 -1.438352 2.415073 0.004028 0.000094 727504.000000 0 0 1
-2.229163 26.697753 -30.039886 40.250888 -1.487493 2.413306 0.008041 0.000380 560438.000000 0 0 1
-1.785163 28.083353 -29.425736 40.715298 -1.507315 2.378525 0.003328 -0.011777 -689897.000000 0 0 1
-1.338563 28.034653 -28.101096 39.716560 -1.523086 2.356809 0.012504 -0.019910 217149.000000 0 0 1
-0.924963 29.332953 -27.752616 40.391650 -1.539274 2.328270 0.007332 -0.024812 -1267430.000000 0 0 1
-0.387963 29.370853 -26.271726 39.408136 -1.557588 2.300512 0.029570 -0.035374 373724.000000 0 0 1
0.883537 28.790853 -26.033216 38.825536 1.540118 2.305703 0.059874 -0.044064 -156520.000000 0 0 1
1.946737 29.380153 -26.704576 39.750693 1.504633 2.307435 0.066569 -0.042389 -999640.000000 0 0 1
3.231437 29.423953 -25.816316 39.277136 1.461411 2.288008 0.063322 -0.049916 245129.000000 0 0 1
3.611337 28.200153 -25.226816 38.008981 1.443429 2.296560 0.082065 -0.041885 -276244.000000 0 0 1
4.827437 28.345953 -24.561606 37.816263 1.402110 2.277721 0.062806 -0.032876 -362708.000000 0 0 1
5.406037 26.979053 -24.071506 36.558610 1.373036 2.289535 0.061697 -0.034892 874529.000000 0 0 1
6.694037 27.177553 -23.463006 36.523174 1.329296 2.268441 0.041446 -0.033329 300017.000000 0 0 1
7.435137 25.996853 -23.261906 35.668388 1.292231 2.281242 0.031067 -0.018738 871866.000000 0 0 1
8.887637 26.321753 -22.760806 35.914887 1.245163 2.257179 0.027250 0.000297 231161.000000 0 0 1
8.985237 26.719253 -21.420706 35.404797 1.246393 2.220591 0.028587 0.008386 295242.000000 0 0 1
10.329737 26.816653 -20.950206 35.563289 1.203115 2.200737 0.027009 0.006148 529657.000000 0 0 1
10.962337 25.454053 -20.501406 34.473023 1.164132 2.207700 0.008727 0.011023 -384605.000000 0 0 1
11.264137 24.609853 -21.548906 34.595968 1.141551 2.243207 0.007189 0.007943 -177930.000000 0 0 1
11.590137 23.331153 -21.086606 33.515951 1.109739 2.251257 0.007728 0.017037 -346831.000000 0 0 1
11.817637 22.302553 -22.155706 33.584755 1.083533 2.291210 0.014057 0.003421 497713.000000 0 0 1
10.690037 22.052253 -23.023806 33.625503 1.119415 2.325006 0.014441 -0.001056 459949.000000 0 0 1
11.025437 21.321353 -24.155606 34.053688 1.093556 2.359356 0.010985 -0.003252 -699907.000000 0 0 1
10.032437 21.280253 -25.301926 34.549768 1.130254 2.392538 0.025135 -0.004387 -744461.000000 0 0 1
8.741337 21.029253 -24.791206 33.663695 1.176850 2.398585 0.014961 -0.002733 -483778.000000 0 0 1
7.957837 20.646153 -25.923426 34.082471 1.202905 2.435047 0.014990 -0.001327 -44296.700000 0 0 1
6.477637 20.369453 -25.559226 33.318890 1.262902 2.445119 0.014635 -0.005992 265391.000000 0 0 1
5.608037 21.429653 -25.159406 33.521275 1.314841 2.419691 0.034260 -0.003096 134699.000000 0 0 1
5.943837 22.212653 -24.076106 33.292493 1.309334 2.379176 0.029237 -0.000054 -812306.000000 0 0 1
4.674737 22.720853 -23.361306 32.921740 1.367881 2.359728 0.043968 -0.002832 237365.000000 0 0 1
3.984637 23.686353 -24.132706 34.048615 1.404132 2.358552 0.048022 -0.014786 -907409.000000 0 0 1
2.626437 23.701153 -23.874906 33.743948 1.460432 2.356795 0.061384 -0.011143 -637931.000000 0 0 1
1.876237 24.836453 -24.615106 35.018183 1.495396 2.350296 0.056224 -0.012404 -955083.000000 0 0 1
0.501237 24.783853 -24.732406 35.016889 1.550575 2.355053 0.063170 -0.031515 -873819.000000 0 0 1
0.219237 25.467153 -25.881576 36.310879 1.562188 2.364247 0.043633 -0.020217 310443.000000 0 0 1
-1.253763 25.238953 -26.329606 36.494176 -1.521161 2.376725 0.045971 -0.016803 249154.000000 0 0 1
-1.535963 23.875053 -26.747196 35.885789 -1.506551 2.411844 0.063425 -0.024173 857944.000000 0 0 1
-2.778663 24.021453 -27.489766 36.611999 -1.455634 2.420130 0.055540 -0.017910 999568.000000 0 0 1
-3.404263 22.656553 -27.816266 36.036830 -1.421657 2.452596 0.045047 -0.018484 -600109.000000 0 0 1
-2.624263 21.992353 -28.770826 36.308550 -1.452032 2.485527 0.063841 -0.018609 16883.000000 0 0 1
-3.117863 20.691653 -29.176786 35.904741 -1.421239 2.519424 0.045236 -0.015860 438086.000000 0 0 1
-4.400163 20.646653 -30.100126 36.764974 -1.360820 2.529970 0.007355 -0.012835 395716.000000 0 0 1
-4.300163 21.130953 -31.407846 38.098050 -1.370037 2.539929 0.015120 -0.013871 9751.670000 0 0 1
-3.771863 22.425953 -31.763676 39.065093 -1.404164 2.520248 0.034544 -0.018674 15941.600000 0 0 1
-3.548263 22.541853 -33.275896 40.348613 -1.414670 2.540485 0.024662 -0.018864 336175.000000 0 0 1
-2.358763 21.874553 -33.698146 40.244564 -1.463380 2.563185 0.016581 -0.012411 542312.000000 0 0 1
-2.061063 22.224653 33.981168 40.655909 -1.478323 0.581165 0.015379 -0.004045 -732268.000000 0 0 1
-0.924063 21.449953 33.394261 39.700517 -1.527743 0.571382 0.025991 0.002462 -633667.000000 0 0 1
-1.299063 20.147553 32.992585 38.679738 -1.506408 0.549151 0.011542 0.004344 521266.000000 0 0 1
-0.163263 19.465453 32.470706 37.858649 -1.562409 0.540051 0.018747 0.003121 49362.600000 0 0 1
-0.430563 18.005353 32.089096 36.797938 -1.546888 0.511451 0.008949 0.008690 -142267.000000 0 0 1
-1.240563 17.934953 30.935286 35.779792 -1.501736 0.526438 -0.002827 0.006697 151358.000000 0 0 1
-1.641763 16.597853 30.698926 34.937204 -1.472203 0.497688 -0.009938 0.010835 -718740.000000 0 0 1
-2.627163 16.471853 29.492266 33.882410 -1.412634 0.514721 -0.007937 0.013227 629425.000000 0 0 1
-3.953863 16.742253 29.982286 34.566943 -1.338885 0.520906 -0.021257 0.007022 618001.000000 0 0 1
-4.324063 18.138553 30.014706 35.335354 -1.336774 0.555903 -0.016198 0.005299 419426.000000 0 0 1
-5.872563 18.393153 30.197576 35.842554 -1.261747 0.568877 -0.027646 -0.003083 902248.000000 0 0 1
-6.575263 17.790753 29.158116 34.784202 -1.216778 0.576717 -0.035700 0.005988 -431953.000000 0 0 1
-7.942563 18.138453 29.245236 35.318149 -1.158062 0.595174 -0.039605 0.006333 -153774.000000 0 0 1
-8.837663 17.286453 28.271496 34.295820 -1.098191 0.601757 -0.038576 0.010568 189286.000000 0 0 1
-9.182663 15.911253 28.647336 34.031738 -1.047372 0.570219 -0.032983 0.007793 189762.000000 0 0 1
-9.891963 15.638653 29.846416 35.117332 -1.006798 0.554990 -0.042437 0.004156 -442302.000000 0 0 1
-10.218163 14.139553 30.060326 34.755734 -0.945020 0.525840 -0.040942 0.003559 -337122.000000 0 0 1
-9.136363 13.266753 30.256116 34.276996 -0.967718 0.489231 -0.022635 0.000866 285254.000000 0 0 1
-8.447963 13.415853 31.537556 35.298310 -1.008824 0.465810 -0.023805 0.006988 201209.000000 0 0 1
-9.229063 12.738853 32.739766 36.322807 -0.943828 0.447907 0.001904 -0.006539 -99173.300000 0 0 1
-9.371263 11.317253 32.736426 35.882787 -0.879184 0.421893 0.001491 -0.009173 260165.000000 0 0 1
-9.938563 10.975453 33.945393 37.034110 -0.834936 0.411310 0.005214 -0.005051 -493767.000000 0 0 1
-10.212963 9.460953 34.001002 36.740746 -0.747193 0.388627 0.005655 0.003354 31467.700000 0 0 1
-9.044663 8.670353 34.206438 36.428854 -0.764272 0.351106 0.009826 0.004982 418684.000000 0 0 1
-8.721663 8.158053 -33.538566 35.601358 -0.752021 2.799512 0.025576 -0.007911 -45904.500000 0 0 1
-7.975763 9.072753 -32.509626 34.681457 -0.849655 2.785820 0.019197 -0.009193 -144434.000000 0 0 1
-8.720363 10.171053 -32.074056 34.759749 -0.862039 2.745915 0.014267 -0.006936 -110586.000000 0 0 1
-8.127563 10.798953 -30.972366 33.792930 -0.925617 2.730123 0.000137 -0.001964 188555.000000 0 0 1
-7.171463 12.030853 -31.292016 34.283547 -1.033257 2.720741 -0.013338 0.006130 -22001.400000 0 0 1
-7.779863 13.177053 -31.776216 35.268810 -1.037458 2.692801 -0.007181 0.005100 -503826.000000 0 0 1
-6.809063 13.940653 -32.388336 35.912525 -1.116446 2.694869 -0.021286 0.004052 -391927.000000 0 0 1
-7.235363 15.414053 -32.767746 36.927885 -1.131927 2.662350 -0.022041 -0.003197 -5296.300000 0 0 1
-8.114063 15.459553 -33.884936 38.118561 -1.087461 2.665812 -0.024173 -0.004175 283545.000000 0 0 1
-8.465863 16.793753 -34.188796 39.020184 -1.103868 2.638680 -0.017415 -0.008327 -703605.000000 0 0 1
-9.004063 17.030253 33.407108 38.563423 -1.084445 0.523069 -0.022680 -0.005738 561662.000000 0 0 1
-10.161563 16.404453 32.892996 38.135451 -1.016206 0.530547 -0.041039 0.002599 290131.000000 0 0 1
-11.391163 16.548353 33.561982 39.115384 -0.967928 0.539384 -0.028425 -0.006687 -82908.900000 0 0 1
-12.626763 16.297353 32.623356 38.591738 -0.911628 0.563585 -0.019115 -0.006645 231961.000000 0 0 1
-12.784463 15.024153 32.114816 37.689907 -0.865764 0.550850 -0.025232 -0.004063 551853.000000 0 0 1
-13.578963 14.181453 32.957966 38.363125 -0.807098 0.537277 -0.015097 -0.003599 94928.100000 0 0 1
-13.137563 12.698053 32.661486 37.424708 -0.768388 0.510040 -0.024554 0.005569 -3912.880000 0 0 1
-13.544563 12.058453 31.436446 36.292033 -0.727419 0.523234 -0.036064 0.003697 652686.000000 0 0 1
-12.476663 11.245453 30.965796 35.227942 -0.733543 0.497009 -0.035775 0.000312 188261.000000 0 0 1
-12.814963 10.856553 29.526376 33.969029 -0.702853 0.517185 -0.031908 0.000440 -570013.000000 0 0 1
-13.807563 9.888753 29.447856 33.994301 -0.621505 0.523132 -0.032794 0.001376 -225730.000000 0 0 1
-13.824963 9.358753 28.123576 32.705526 -0.595085 0.535717 -0.040679 0.006397 29056.300000 0 0 1
-14.672463 8.076253 28.023846 32.647251 -0.503178 0.538687 -0.031095 0.009436 -116273.000000 0 0 1
-14.179363 6.975253 28.777046 32.830274 -0.457171 0.502170 -0.042402 0.009931 244850.000000 0 0 1
-14.890663 5.749053 28.474916 32.643595 -0.368453 0.510916 -0.035722 0.013074 -1020.610000 0 0 1
-13.992563 4.493153 28.407136 31.983521 -0.310710 0.477426 -0.029679 0.012863 61743.200000 0 0 1
-13.031163 4.387753 27.365966 30.626128 -0.324789 0.465606 -0.028651 0.008276 -170128.000000 0 0 1
-13.533563 4.301353 26.048496 29.667880 -0.307732 0.499122 -0.012738 0.003791 -394688.000000 0 0 1
-12.561463 4.025253 24.845626 28.130022 -0.310106 0.488064 -0.011276 0.006517 -451456.000000 0 0 1
-11.866063 2.831753 25.012806 27.829171 -0.234262 0.453776 -0.016246 0.006960 -88316.600000 0 0 1
-11.256763 2.502753 23.768796 26.418444 -0.218775 0.451704 -0.007568 -0.001778 -538548.000000 0 0 1
-10.220963 1.379953 23.875196 26.007640 -0.134201 0.407771 -0.002801 -0.005596 -972748.000000 0 0 1
-8.947563 1.850153 24.148326 25.819055 -0.203904 0.361716 -0.006958 -0.012635 -697907.000000 0 0 1
-8.061863 0.825153 24.550436 25.853403 -0.101998 0.318833 -0.013319 -0.006186 319416.000000 0 0 1
-6.560163 1.216953 24.437566 25.332022 -0.183422 0.266530 -0.003511 -0.010815 -450857.000000 0 0 1
-6.168463 1.385153 23.097496 23.947086 -0.220890 0.267169 -0.002418 -0.009229 -615424.000000 0 1 0
-4.797763 1.579253 22.945496 23.494858 -0.317994 0.216675 0.001102 -0.009332 -483437.000000 0 1 0
-4.221163 2.976753 23.365396 23.929501 -0.614206 0.217563 0.008804 -0.011268 -909478.000000 0 1 0
-4.093963 2.952553 24.775256 25.284213 -0.624811 0.200984 0.012196 -0.009077 -110656.000000 0 0 1
-3.929063 4.182353 25.451296 26.090192 -0.816614 0.221759 0.020260 -0.006988 -1102.210000 0 0 1
3.720837 -23.424647 12.854894 26.977898 -1.413270 1.074130 0.041847 -0.009558 310504.000000 0 0 1
3.773437 -24.728947 13.390194 28.373525 -1.419372 1.079323 0.027943 -0.008016 356247.000000 0 0 1
2.585237 -25.423427 12.980094 28.662116 -1.469457 1.100819 0.017806 -0.007166 750160.000000 0 0 1
2.389037 -26.770647 13.750894 30.190430 -1.481791 1.097894 0.012958 -0.007063 -59233.600000 0 0 1
2.282937 -26.613197 15.144694 30.705631 -1.485224 1.055007 0.015417 -0.008185 106089.000000 0 0 1
2.385637 -27.872347 15.842094 32.148575 -1.485413 1.055518 0.004490 -0.005672 -450909.000000 0 0 1
1.861837 -27.876787 17.357794 32.891863 -1.504107 1.014879 -0.003826 -0.002744 -237771.000000 0 0 1
2.710337 -27.103747 18.167794 32.741835 -1.471129 0.982577 0.009603 -0.003937 206177.000000 0 0 1
2.410637 -27.332907 19.561594 33.697995 -1.482829 0.951457 0.001204 -0.004391 91519.600000 0 0 1
3.298737 -26.537807 20.542194 33.721189 -1.447127 0.915773 0.002632 -0.003696 -259250.000000 0 0 1
2.820937 -25.292827 20.749294 32.836229 -1.459724 0.886791 0.006735 -0.001178 127115.000000 0 0 1
3.653737 -24.534247 21.625694 32.908201 -1.422959 0.853762 0.023230 -0.006392 301273.000000 0 0 1
2.838837 -23.380247 22.324194 32.450956 -1.449967 0.812154 0.025024 -0.008956 -17421.500000 0 0 1
2.412437 -22.346247 21.473994 31.085479 -1.463256 0.808195 0.030248 -0.008608 324033.000000 0 0 1
3.408837 -21.578747 20.786094 30.155002 -1.414119 0.810262 0.038751 -0.003020 -342375.000000 0 0 1
2.783537 -20.411747 20.003794 28.714791 -1.435263 0.800097 0.018734 -0.005054 -188750.000000 0 0 1
2.313837 -19.377547 20.866294 28.570008 -1.451951 0.751952 0.008029 -0.009898 38612.200000 0 0 1
1.393737 -18.603047 20.129094 27.444421 -1.496016 0.747414 -0.000966 -0.009669 103293.000000 0 0 1
0.960737 -17.246147 20.781494 27.022640 -1.515147 0.693458 -0.006898 -0.010850 -80257.600000 0 0 1
1.961537 -16.255947 20.651894 26.355344 -1.450711 0.670366 -0.002288 -0.001257 16832.200000 0 0 1
1.542837 -15.012247 21.169094 25.997662 -1.468384 0.619327 -0.004366 0.002755 -280717.000000 0 0 1
2.464737 -13.803947 20.896994 25.165616 -1.394105 0.591009 -0.009251 0.001246 -511927.000000 0 0 1
2.726237 -13.425047 19.563494 23.882934 -1.370450 0.610884 -0.009596 -0.000043 436374.000000 0 1 0
1.551637 -13.065347 18.823094 22.965620 -1.452590 0.610048 -0.002089 0.007399 609270.000000 0 1 0
0.749537 -11.824047 19.289094 22.637116 -1.507490 0.550811 -0.021379 0.004217 -286752.000000 0 1 0
1.395537 -10.582647 19.018894 21.809591 -1.439683 0.511436 -0.016933 0.001675 -143169.000000 0 1 0
1.254737 -9.605147 20.064094 22.280060 -1.440900 0.449785 -0.015048 -0.006311 387794.000000 0 1 0
-0.141663 -8.913547 20.050394 21.942873 1.554905 0.418365 -0.015037 -0.012918 394072.000000 0 1 0
-0.258363 -7.931447 21.033594 22.480807 1.538233 0.360772 -0.019872 -0.018004 171342.000000 0 1 0
-1.628163 -7.735147 21.373594 22.788460 1.363336 0.354232 -0.023012 -0.004039 268422.000000 0 1 0
-1.927063 -7.037647 22.683694 23.828387 1.303526 0.311219 -0.023482 -0.002249 -1006420.000000 0 1 0
-1.814963 -7.869547 23.872594 25.201678 1.344129 0.326215 -0.023109 0.003427 101684.000000 0 0 1
-1.876363 -7.157947 25.068494 26.137833 1.314428 0.287032 -0.020299 0.006769 -726418.000000 0 0 1
-1.997263 -8.059147 26.320394 27.598950 1.327865 0.305576 -0.012277 0.001807 -775818.000000 0 0 1
-0.914463 -8.904847 26.409794 27.885655 1.468462 0.326800 -0.018584 -0.000277 -616107.000000 0 0 1
-1.219663 -10.012047 27.242194 29.049368 1.449574 0.354588 -0.001908 -0.009154 -40935.200000 0 0 1
-0.071363 -11.041847 27.398094 29.539516 1.564333 0.383110 -0.002133 -0.008906 560237.000000 0 0 1
1.092237 -10.596447 28.109994 30.060762 -1.468083 0.362239 -0.014414 -0.003972 715809.000000 0 0 1
2.018837 -11.634947 28.441994 30.796017 -1.398992 0.393531 -0.005249 -0.013845 108368.000000 0 0 1
3.044537 -11.066347 29.420094 31.579664 -1.302322 0.371964 -0.005189 -0.010434 -192230.000000 0 0 1
2.505237 -10.878747 30.702994 32.669514 -1.344455 0.348735 0.001880 -0.015069 155944.000000 0 0 1
3.510437 -10.339647 31.547294 33.383577 -1.243495 0.333219 0.005503 -0.004555 90126.500000 0 0 1
3.049237 -10.128347 33.047294 34.698773 -1.278368 0.309765 0.005602 -0.006447 -165879.000000 0 0 1
2.857737 -11.354447 33.713294 35.688602 -1.324233 0.334265 0.013252 -0.006205 186394.000000 0 0 1
2.404737 -11.290747 -33.959909 35.868358 -1.360949 2.813917 0.016122 -0.010830 -435830.000000 0 0 1
3.307037 -10.619347 -32.880209 34.710447 -1.268899 2.815406 0.004914 0.004056 -104047.000000 0 0 1
3.258337 -9.206247 -32.952709 34.369358 -1.230628 2.853479 0.002903 -0.002463 170220.000000 0 0 1
3.995237 -8.673847 -31.893309 33.292352 -1.139156 2.850661 0.007004 -0.000563 -224760.000000 0 0 1
3.439337 -7.272747 -31.513709 32.524386 -1.129057 2.891646 0.004792 0.006166 -65335.100000 0 0 1
3.611737 -6.255447 -32.480109 33.273604 -1.047179 2.922764 0.015275 0.001538 -52603.900000 0 0 1
3.003537 -5.079647 -32.052009 32.590724 -1.036807 2.959519 0.019341 0.005362 87335.800000 0 0 1
3.199237 -3.872547 -32.993709 33.373890 -0.880323 2.990508 0.020426 0.007218 150536.000000 0 0 1
2.191737 -3.997247 -33.964009 34.268580 -1.069250 3.008169 0.014942 0.006850 68154.900000 0 0 1
2.405637 -2.987647 34.107794 34.322802 -0.892896 0.111990 0.021837 0.012608 276941.000000 0 0 1
1.790737 -3.421047 32.720294 32.947351 -1.088567 0.117469 0.018865 0.010268 -148247.000000 0 0 1
0.419237 -3.227147 32.581994 32.744107 -1.441610 0.099549 0.017467 0.002526 -645761.000000 0 0 1
-0.046263 -3.681447 31.282594 31.498506 1.558230 0.117154 0.006765 0.003844 -2275120.000000 0 0 1
-1.483663 -3.812947 31.224194 31.491111 1.199711 0.130292 0.000644 -0.002824 -2465430.000000 0 0 1
-2.169763 -2.625947 30.867994 31.055378 0.880236 0.109909 0.003934 0.002985 -864546.000000 0 0 1
-3.525863 -2.735647 31.112094 31.430524 0.659860 0.142467 -0.009515 0.007296 -914999.000000 0 0 1
-4.439463 -1.751147 30.389594 30.762034 0.375713 0.155767 -0.002599 0.005223 -411565.000000 0 0 1
-4.381163 -2.024647 28.988294 29.387326 0.432891 0.164980 -0.009536 0.001937 -251220.000000 0 0 1
-5.404363 -1.416347 28.250294 28.797435 0.256310 0.195244 -0.012136 -0.007801 -137853.000000 0 0 1
-5.530963 0.125953 28.254394 28.790939 -0.022768 0.193360 -0.000644 -0.005753 392566.000000 0 0 1
-6.244363 0.768153 29.373594 30.039809 -0.122401 0.210999 0.002799 0.001472 174294.000000 0 0 1
-6.508363 2.117053 29.076394 29.871012 -0.314487 0.231173 0.007470 0.001200 209835.000000 0 0 1
-7.856763 2.763253 29.533994 30.685845 -0.338192 0.274860 -0.000694 -0.002237 -18213.400000 0 0 1
-8.857463 2.397853 28.635794 30.070135 -0.264379 0.310110 -0.015917 0.007869 -1515750.000000 0 0 1
-10.097663 2.730453 29.129394 30.950602 -0.264089 0.344757 -0.020975 0.013561 -647438.000000 0 0 1
-11.206563 1.865953 28.431794 30.617572 -0.164992 0.380146 -0.023770 0.017902 4313.850000 0 0 1
-11.241863 0.486153 28.788894 30.909808 -0.043218 0.372601 -0.018391 0.019433 197293.000000 0 0 1
-11.665563 -0.318347 27.662894 30.023697 0.027283 0.399209 -0.013453 0.017761 -896402.000000 0 0 1
-11.427163 -1.809547 27.888294 30.192904 0.157051 0.393245 -0.000844 0.007568 -537828.000000 0 0 1
-10.133563 -2.277547 28.126994 29.983397 0.221079 0.353734 0.001803 0.004306 -158312.000000 0 0 1
-9.141663 -2.047947 27.143494 28.714689 0.220385 0.332337 0.016246 -0.002675 -695800.000000 0 0 1
-9.290363 -2.762047 25.730594 27.495512 0.288980 0.360244 0.001534 -0.000437 -815858.000000 0 0 1
-10.250763 -2.190347 24.867794 26.986718 0.210511 0.398916 -0.009224 -0.001981 165102.000000 0 0 1
-10.279263 -2.749447 23.553694 25.845680 0.261357 0.424317 -0.003471 -0.002972 -54678.400000 0 0 1
-9.075963 -2.498447 22.580794 24.464415 0.268628 0.394976 -0.001967 -0.004442 893574.000000 0 1 0
-7.794363 -2.704547 23.142594 24.569215 0.333989 0.342451 -0.007834 -0.002545 279948.000000 0 1 0
-6.717163 -2.265247 22.320994 23.419615 0.325256 0.307512 -0.012113 -0.004472 38351.200000 0 1 0
-5.333763 -2.428447 22.953094 23.689468 0.427250 0.249987 -0.016025 -0.003224 -398301.000000 0 1 0
-4.790663 -3.723447 22.791494 23.585307 0.660702 0.260183 -0.011645 -0.007860 -165709.000000 0 1 0
-5.091363 -4.585647 23.859094 24.823507 0.733186 0.279661 -0.014360 0.000795 -145938.000000 0 1 0
-5.116163 -6.033747 23.408494 24.709083 0.867508 0.325897 -0.006943 0.004296 -561258.000000 0 1 0
-6.155663 -6.349047 22.498994 24.174518 0.800862 0.374500 0.000661 -0.002651 -112931.000000 0 1 0
-5.896763 -5.987047 21.114694 22.725467 0.792995 0.378769 0.008066 -0.007414 -267756.000000 0 1 0
-7.060363 -6.151647 20.081494 22.157569 0.716727 0.436341 0.008222 -0.006177 32963.600000 0 1 0
-8.044263 -5.165847 20.290794 22.430168 0.570857 0.440307 0.014430 -0.005722 -551833.000000 0 1 0
-8.868063 -5.028047 19.177594 21.718745 0.515789 0.488586 0.005846 -0.004068 -314401.000000 0 1 0
-9.543663 -3.665747 19.242694 21.789917 0.366727 0.488366 0.003775 -0.006099 -283168.000000 0 1 0
-8.695963 -2.586947 18.953994 21.013471 0.289151 0.446434 0.003101 -0.007952 -474091.000000 0 1 0
-9.370763 -1.395547 18.836194 21.084614 0.147839 0.466024 0.001519 -0.010696 -394429.000000 0 1 0
-8.388763 -0.298047 18.352394 20.180945 0.035514 0.428976 -0.001686 -0.009451 561104.000000 0 1 0
-7.399363 -0.010547 19.388294 20.752268 0.001425 0.364580 0.005293 0.004512 845353.000000 0 1 0
-7.773063 0.781253 20.547894 21.982875 -0.100171 0.363318 0.019423 0.004252 -489672.000000 0 1 0
-7.805063 2.302653 20.320094 21.888980 -0.286882 0.380914 0.023143 -0.007517 -439152.000000 0 1 0
-8.769763 2.701253 19.403994 21.464401 -0.298797 0.441742 0.010285 -0.014440 -167305.000000 0 1 0
-8.661863 4.062653 19.113194 21.373984 -0.438564 0.464095 0.016021 -0.016219 -79398.700000 0 1 0
-9.488363 4.494353 17.891694 20.744661 -0.442363 0.530662 0.012115 -0.016577 743794.000000 0 1 0
-10.905963 4.598853 18.134394 21.655155 -0.399057 0.578256 0.017901 -0.011299 815378.000000 0 1 0
-11.631163 5.141453 17.057794 21.276438 -0.416216 0.640625 0.016936 -0.005105 -335274.000000 0 1 0
-11.664763 6.684253 16.944194 21.629879 -0.520352 0.670727 0.017350 -0.004669 -273340.000000 0 1 0
-10.448263 7.342953 16.597594 20.941950 -0.612597 0.655813 0.014240 -0.012258 454331.000000 0 1 0
-10.644763 8.738253 16.690994 21.639254 -0.687354 0.689869 0.017131 -0.015301 437241.000000 0 1 0
-9.290863 9.519653 16.720494 21.366302 -0.797560 0.672023 0.010408 -0.011485 10952.500000 0 1 0
-8.548563 9.337553 17.913394 21.935303 -0.829481 0.615220 0.017871 -0.008127 533719.000000 0 1 0
-7.384963 10.177153 17.971694 21.933853 -0.943068 0.610505 0.012808 -0.010682 172593.000000 0 1 0
-7.608663 11.739453 17.891694 22.711654 -0.995739 0.663606 -0.001852 -0.008005 -757145.000000 0 1 0
-7.898463 12.170253 16.571594 22.025406 -0.995126 0.719120 0.000090 -0.012676 -171103.000000 0 1 0
-8.496163 13.419553 16.584494 22.963332 -1.006381 0.763795 0.006849 -0.014655 -58788.800000 0 1 0
-8.471963 13.986953 15.127194 22.276468 -1.026193 0.824307 0.014154 -0.012404 649230.000000 0 1 0
-7.246863 14.654253 14.850594 22.086292 -1.111540 0.833364 0.006885 -0.005967 230794.000000 0 1 0
-7.317663 15.202753 13.496794 21.606373 -1.122189 0.896091 0.002834 -0.011929 -491328.000000 0 1 0
-6.528363 16.470253 13.222294 22.106963 -1.193421 0.929661 -0.012022 0.000462 370191.000000 0 1 0
-5.145363 16.230553 13.488094 21.721747 -1.263802 0.900844 -0.014945 -0.002355 238264.000000 0 1 0
-4.354663 17.398453 13.602694 22.510054 -1.325545 0.921917 -0.014750 -0.005421 444852.000000 0 1 0
-2.832363 17.150353 13.439394 21.972123 -1.407125 0.912643 -0.014365 -0.010221 376832.000000 0 1 0
-2.052763 16.664253 14.508494 22.190258 -1.448230 0.858171 -0.009156 -0.008383 93196.700000 0 1 0
-2.348763 15.265353 14.856694 21.430564 -1.418131 0.804810 -0.005312 -0.003536 -514301.000000 0 1 0
-1.399463 14.701453 15.915794 21.711834 -1.475890 0.748005 -0.009490 0.001275 -261580.000000 0 1 0
-0.125963 14.394553 15.356894 21.048829 -1.562046 0.753083 -0.008962 -0.008756 247370.000000 0 1 0
0.794737 13.986553 16.363394 21.541029 1.514036 0.708039 -0.002502 0.006457 343686.000000 0 1 0
1.698037 15.039053 17.032894 22.785432 1.458364 0.726454 -0.005239 0.004631 -255193.000000 0 1 0
0.928337 15.924253 17.811794 23.910325 1.512565 0.730349 -0.011945 0.007056 280754.000000 0 1 0
1.743137 16.919153 18.474194 25.111593 1.468131 0.744121 -0.009541 0.008413 187552.000000 0 0 1
0.859937 18.083453 18.988894 26.236022 1.523278 0.761543 0.002818 0.008429 442697.000000 0 0 1
0.269237 19.042853 18.099294 26.273317 1.556659 0.810847 0.002329 0.007233 -137220.000000 0 0 1
-0.792363 18.543653 17.344494 25.403275 -1.528093 0.819255 -0.001008 0.009824 -995073.000000 0 0 1
-1.326963 19.664453 16.445394 25.669097 -1.503418 0.875427 -0.011098 0.010496 -287007.000000 0 0 1
-1.926963 20.654753 17.270094 26.992372 -1.477772 0.876540 -0.013519 0.008683 -74017.700000 0 0 1
-2.495763 21.638153 16.441694 27.290434 -1.455963 0.924203 0.006190 -0.009302 -555807.000000 0 0 1
-3.197963 22.827753 17.187294 28.753024 -1.431611 0.930097 0.006734 -0.001854 339932.000000 0 0 1
-4.401863 22.351453 17.811394 28.917289 -1.376346 0.907214 0.012059 0.005272 527096.000000 0 0 1
-4.906263 23.370853 18.710394 30.337222 -1.363870 0.906193 0.013863 0.001467 -362465.000000 0 0 1
-6.075863 22.888453 19.560294 30.714858 -1.311325 0.880410 -0.003420 -0.000605 -415950.000000 0 0 1
-7.266563 22.874953 18.790694 30.482070 -1.263213 0.906569 -0.007715 -0.005747 -829140.000000 0 0 1
-8.232863 22.316353 19.596494 30.819186 -1.217370 0.881682 -0.031053 -0.005296 115240.000000 0 0 1
-9.718763 22.747353 19.340394 31.399797 -1.167023 0.907218 -0.018398 -0.016278 722348.000000 0 0 1
-9.868563 24.057353 19.793794 32.679337 -1.181519 0.920154 -0.011854 -0.007354 431278.000000 0 0 1
-11.058263 24.559153 19.181094 33.065867 -1.147717 0.951960 -0.015375 -0.007840 479020.000000 0 0 1
-11.688063 25.913053 19.701694 34.586904 -1.147070 0.964742 -0.016320 0.000182 -121825.000000 0 0 1
-12.374763 25.748153 20.902594 35.398031 -1.122782 0.939116 -0.016153 -0.004980 62317.300000 0 0 1
-12.761663 26.991053 21.378594 36.720856 -1.129136 0.949374 -0.009062 -0.009185 -717132.000000 0 0 1
-13.531963 27.004353 22.742594 37.809717 -1.106267 0.925417 0.007654 -0.010957 -396697.000000 0 0 1
-14.909363 26.948153 22.505794 38.144499 -1.065453 0.939720 0.005967 -0.016159 -575837.000000 0 0 1
-15.721563 27.080053 23.615694 39.219865 -1.044795 0.924623 -0.000293 -0.008054 -69589.300000 0 0 1
-17.111863 26.445753 23.452194 39.270843 -0.996494 0.930802 0.016388 -0.008424 -195964.000000 0 0 1
-16.997763 25.044653 23.409894 38.264628 -0.974510 0.912476 0.027280 -0.007537 495621.000000 0 0 1
-18.185963 24.313953 23.050094 38.120918 -0.928599 0.921461 0.040404 0.013447 251071.000000 0 0 1
26.497537 24.454053 23.482596 43.029670 0.745313 0.993536 0.038575 -0.014561 -116435.000000 0 0 1
26.260237 23.772753 24.699956 43.183697 0.735722 0.961886 0.042155 -0.021222 246503.000000 0 0 1
25.962337 22.402453 24.607276 42.207001 0.711926 0.948363 0.045954 -0.013817 -280355.000000 0 0 1
25.806037 21.692453 25.990726 42.567968 0.699009 0.914016 0.054324 -0.018610 641705.000000 0 0 1
24.566637 22.157953 26.552546 42.420894 0.733893 0.894472 0.059924 -0.016180 673438.000000 0 0 1
24.374737 21.784753 27.920526 42.991384 0.729347 0.863942 0.060284 -0.018136 -1225810.000000 0 0 1
23.023537 22.001253 28.510346 42.743166 0.762697 0.840601 0.060090 -0.011847 -1273560.000000 0 0 1
22.735837 23.365653 28.585496 43.358997 0.799059 0.850942 0.062521 -0.028951 -214691.000000 0 0 1
21.630037 23.545853 29.436496 43.460016 0.827781 0.826678 0.075733 -0.026146 -239311.000000 0 0 1
21.339937 24.976753 29.888016 44.413113 0.863758 0.832600 0.077057 -0.015672 -392868.000000 0 0 1
20.442637 25.620353 29.018036 43.776139 0.897333 0.846146 0.069686 -0.025651 165836.000000 0 0 1
19.993737 26.919153 29.496716 44.659228 0.931963 0.849333 0.052982 -0.030352 207604.000000 0 0 1
18.763637 26.876053 30.463276 44.748268 0.961310 0.821983 0.060490 -0.029962 104353.000000 0 0 1
17.569837 26.597753 29.704016 43.571415 0.987022 0.820669 0.077009 -0.028028 1269780.000000 0 0 1
16.341237 26.843053 30.406216 43.727835 1.023953 0.801887 0.069311 -0.021911 718983.000000 0 0 1
15.855637 25.777353 31.395236 43.606582 1.019348 0.767044 0.031136 -0.015943 -734364.000000 0 0 1
16.718937 25.601653 32.468816 44.600354 0.992286 0.755404 0.037400 -0.016634 318285.000000 0 0 1
16.056937 24.627953 33.313479 44.431399 0.993030 0.723077 0.016274 -0.017457 588174.000000 0 0 1
16.602037 24.641653 -34.295770 45.376630 0.977914 2.427675 0.026462 -0.017130 222619.000000 0 0 1
16.085037 25.727453 -33.500236 45.198408 1.012047 2.405625 0.000391 -0.011909 402140.000000 0 0 1
16.798437 25.735853 -32.287176 44.575592 0.992508 2.380850 -0.000141 0.000526 228050.000000 0 0 1
17.301437 27.175853 -31.827776 45.286577 1.003865 2.350134 -0.005264 0.001981 760954.000000 0 0 1
16.220937 28.008753 -31.298926 45.024791 1.045858 2.339423 -0.004763 0.003445 1271540.000000 0 0 1
16.733837 29.260653 -30.864766 45.703839 1.051303 2.312196 0.003922 0.003830 -267445.000000 0 0 1
16.156937 29.526753 -29.524686 44.772568 1.070108 2.290866 0.012372 -0.002168 -607545.000000 0 0 1
16.687137 28.663853 -28.551646 43.763838 1.043593 2.281547 -0.019135 0.004745 -33415.700000 0 0 1
16.128537 28.798753 -27.288496 42.827093 1.060275 2.261628 -0.016093 0.012842 -676807.000000 0 0 1
16.725437 27.718853 -26.320136 41.723191 1.027884 2.253416 -0.018449 0.028420 -347239.000000 0 0 1
18.067537 28.081553 -26.161006 42.419427 0.999078 2.235368 -0.020228 0.022586 -1039980.000000 0 0 1
18.713637 27.305153 -25.214486 41.611800 0.969969 2.221750 -0.015668 0.019194 -437275.000000 0 0 1
20.217637 27.571153 -25.169866 42.455194 0.938076 2.205398 -0.008977 0.013288 -258527.000000 0 0 1
20.777837 26.980853 -24.006906 41.665531 0.914558 2.184845 -0.001708 0.014927 -597196.000000 0 0 1
22.140837 27.210853 -23.805506 42.395157 0.887771 2.167012 -0.000309 0.012344 -295911.000000 0 0 1
22.684337 26.864453 -22.431206 41.706558 0.869563 2.138662 -0.000548 0.011699 58965.500000 0 0 1
22.623737 25.498153 -22.105206 40.627939 0.845059 2.146099 0.002609 0.008404 -64858.800000 0 0 1
23.062137 25.467153 -20.770806 40.148032 0.834916 2.114554 0.000328 0.012789 -200428.000000 0 0 1
22.475337 24.356753 -19.842306 38.627831 0.825550 2.110264 0.000125 0.012210 -463340.000000 0 0 1
22.740837 23.045553 -20.297106 38.212769 0.792053 2.130766 0.001391 0.011153 157288.000000 0 0 1
22.940137 22.106853 -19.266406 37.231133 0.766902 2.114701 0.017191 0.006999 -1205770.000000 0 0 1
23.118337 20.663753 -19.834706 36.808474 0.729393 2.139883 0.019254 0.008146 -88116.000000 0 0 1
22.139637 20.155553 -20.716306 36.408450 0.738522 2.176082 0.001797 0.009432 -221436.000000 0 0 1
20.841537 20.164553 -20.181006 35.330608 0.768890 2.178769 -0.004584 0.012787 -831806.000000 0 0 1
19.707737 20.083053 -21.244706 35.257077 0.794830 2.217508 -0.006656 0.015467 78404.300000 0 0 1
19.771737 20.904753 -22.374706 36.449386 0.813245 2.231733 -0.008398 0.017444 -58866.200000 0 0 1
19.799937 22.284853 -22.123806 37.122971 0.844375 2.209257 -0.009814 0.018862 -292576.000000 0 0 1
19.611237 23.075053 -23.405606 38.273765 0.866367 2.228791 -0.013489 0.018725 -574719.000000 0 0 1
18.242537 23.123553 -23.600006 37.741876 0.902851 2.246313 0.004289 0.016832 -1056120.000000 0 0 1
17.774537 23.274453 -24.947906 38.471189 0.918589 2.276386 -0.002115 0.021261 283528.000000 0 0 1
16.229237 23.288453 -25.034706 37.848074 0.962168 2.293550 0.003658 0.021158 66938.600000 0 0 1
15.778037 24.559253 -24.660606 38.213203 0.999749 2.272268 0.002261 0.013296 745620.000000 0 0 1
14.349937 24.458753 -24.453306 37.444833 1.040214 2.282400 0.008796 0.008553 1157350.000000 0 0 1
13.710537 25.684953 -23.771606 37.587031 1.080479 2.255498 0.009104 0.007304 129701.000000 0 0 1
13.879537 26.785353 -24.628806 38.944509 1.092714 2.255454 0.002594 0.011823 148302.000000 0 0 1
13.137737 27.918153 -24.167406 39.192945 1.130960 2.235247 0.020466 0.009345 347175.000000 0 0 1
13.220537 29.136153 -25.112566 40.673567 1.144828 2.236252 0.013344 0.005140 2728.060000 0 0 1
12.913237 28.961353 -26.484996 41.315454 1.151375 2.266653 0.020509 -0.010277 -140974.000000 0 0 1
12.479037 30.097453 -27.243336 42.470960 1.177750 2.267194 0.038392 -0.015191 -72488.100000 0 0 1
13.162137 31.499053 -27.111936 43.594602 1.174990 2.241976 0.040292 -0.019366 1677020.000000 0 0 1
14.568637 31.522653 -27.526076 44.312614 1.137873 2.241043 0.011670 -0.001655 1140950.000000 0 0 1
15.017337 32.832853 -27.552506 45.416487 1.141816 2.222653 0.015614 -0.014343 -226064.000000 0 0 1
16.547137 32.796753 -27.763506 46.046141 1.103527 2.217990 -0.003031 0.005557 -345484.000000 0 0 1
17.224637 32.399353 -26.571216 45.303816 1.082162 2.197542 -0.031869 0.010746 584036.000000 0 0 1
18.526637 32.007253 -27.067096 45.829338 1.046091 2.202606 -0.017031 0.015435 412669.000000 0 0 1
19.440537 31.447753 -25.907346 45.145169 1.017113 2.182017 -0.023201 0.014433 -802314.000000 0 0 1
19.906637 32.455353 -25.001206 45.548704 1.020615 2.151831 -0.020765 0.020697 387808.000000 0 0 1
20.812737 33.462653 -25.459516 46.915948 1.014379 2.144400 -0.013722 0.004258 57695.900000 0 0 1
22.193737 32.989153 -25.972136 47.491031 0.978588 2.149435 -0.011038 0.006785 -649727.000000 0 0 1
22.065637 32.255353 -27.184216 47.605480 0.970827 2.178558 -0.022497 0.015168 -268353.000000 0 0 1
23.240537 32.068753 -27.946826 48.472184 0.943678 2.185301 -0.017848 0.022082 -1172070.000000 0 0 1
23.025137 31.349653 -29.280926 48.686038 0.937314 2.216078 -0.017412 0.018434 30305.700000 0 0 1
22.196337 31.955053 -30.266916 49.293905 0.963696 2.231927 -0.002708 0.010724 1481760.000000 0 0 1
20.817437 31.477053 -30.153876 48.305557 0.986482 2.244944 -0.006415 0.001633 1474140.000000 0 0 1
19.818837 32.315653 -31.024186 48.985589 1.020663 2.256649 -0.016123 -0.006546 -605151.000000 0 0 1
19.421537 33.575653 -30.468646 49.324021 1.046380 2.236642 -0.002901 -0.003048 606127.000000 0 0 1
18.589837 34.339353 -31.403686 50.109527 1.074613 2.248109 0.002100 -0.004637 228268.000000 0 0 1
17.104937 33.941253 -31.381626 49.288883 1.103988 2.260992 0.005941 -0.012609 -901689.000000 0 0 1
16.701337 32.684353 -31.888106 48.621527 1.098396 2.286096 0.009737 -0.015974 -74654.800000 0 0 1
17.038937 32.218553 -33.219926 49.314542 1.084332 2.309910 0.016930 -0.012055 -705019.000000 0 0 1
16.427237 32.887353 -34.461835 50.388989 1.107549 2.323913 0.027357 -0.012323 -175976.000000 0 0 1
16.898337 34.259653 34.429423 51.426285 1.112569 0.837273 0.021334 -0.002066 302636.000000 0 0 1
16.482137 -34.116818 33.260361 50.416959 -1.120753 0.850369 0.023139 -0.002368 766074.000000 0 0 1
14.976337 -33.729818 33.027845 49.526052 -1.152936 0.840785 0.033968 0.000118 388813.000000 0 0 1
14.163037 34.350253 32.569036 49.409247 1.179721 0.851083 0.037759 -0.001208 -886634.000000 0 0 1
12.896837 -34.350618 32.234716 48.840253 -1.211634 0.849973 0.035351 0.002636 -888490.000000 0 0 1
12.613337 -33.673018 30.870186 47.391315 -1.212391 0.861383 0.024974 0.011474 -975704.000000 0 0 1
13.220337 -32.422718 30.680206 46.554108 -1.183628 0.851278 0.019874 0.004805 249609.000000 0 0 1
12.712037 -31.805518 29.532096 45.225342 -1.190566 0.859259 0.014827 0.003464 -331391.000000 0 0 1
13.032437 -30.304818 29.466326 44.232237 -1.164660 0.841731 0.016431 -0.001907 -253890.000000 0 0 1
12.551437 -29.522918 30.529896 44.285616 -1.168805 0.810155 0.005268 0.011282 94519.600000 0 0 1
12.780037 -28.110318 30.414486 43.342361 -1.144092 0.792978 0.015120 -0.000571 -843519.000000 0 0 1
12.371137 -27.279518 31.664846 43.587608 -1.145039 0.757633 -0.018816 0.003846 278618.000000 0 0 1
10.977337 -27.103618 31.874076 43.255806 -1.185975 0.742362 -0.044133 0.012349 250464.000000 0 0 1
10.219737 -26.391718 30.935506 41.928169 -1.201344 0.740959 -0.056052 0.006276 -606829.000000 0 0 1
10.443937 -24.882618 30.924966 41.043562 -1.173399 0.717477 -0.070653 0.011668 -269650.000000 0 0 1
9.954237 -24.273718 32.103716 41.460207 -1.181628 0.685147 -0.034823 0.006245 324431.000000 0 0 1
10.681537 -23.083518 32.380026 41.175358 -1.137403 0.665848 -0.037553 0.004410 232358.000000 0 0 1
10.067537 -22.340318 33.597950 41.584460 -1.147407 0.630140 -0.041056 0.001309 -241679.000000 0 0 1
10.180437 -23.003718 -34.188299 42.445873 -1.154150 2.507241 -0.036669 0.000448 -589462.000000 0 0 1
11.426437 -23.407818 -33.715056 42.605098 -1.116677 2.483792 -0.024950 -0.005281 -560015.000000 0 0 1
12.180137 -22.360618 -32.894086 41.597763 -1.072021 2.482855 -0.012927 -0.012724 -149024.000000 0 0 1
12.682037 -21.323018 -33.701276 41.848311 -1.034240 2.507011 -0.022493 -0.004434 -368082.000000 0 0 1
13.742037 -20.580418 -33.200056 41.408223 -0.982062 2.501055 -0.019877 -0.000611 -418119.000000 0 0 1
13.924237 -19.202518 -33.904536 41.377997 -0.943406 2.531135 -0.020806 0.002065 -675665.000000 0 0 1
14.411837 -19.416518 33.812570 41.569124 -0.932276 0.620813 -0.017764 0.004920 146801.000000 0 0 1
14.128837 -18.408018 32.868276 40.234348 -0.916166 0.614745 -0.028282 0.010673 -129130.000000 0 0 1
14.941437 -17.072418 32.901696 39.965430 -0.851864 0.603677 -0.010864 0.011894 -888041.000000 0 0 1
14.663737 -16.249918 34.060255 40.486862 -0.836663 0.571174 -0.019191 0.012817 296579.000000 0 0 1
15.297337 -14.990418 34.030814 40.209668 -0.775265 0.561731 0.000238 0.011084 906895.000000 0 0 1
16.864237 -14.888518 34.180541 40.919187 -0.723256 0.582085 0.016099 0.011793 788176.000000 0 0 1
17.512137 -15.704018 33.222805 40.706829 -0.731017 0.616083 0.022129 0.008446 49243.100000 0 0 1
18.931037 -15.701718 33.400607 41.479256 -0.692422 0.634722 0.045751 0.006851 643738.000000 0 0 1
19.631837 -16.518618 32.252386 41.212743 -0.699492 0.671992 0.057677 -0.000272 -280652.000000 0 0 1
19.764637 -15.803718 31.058266 40.062629 -0.674494 0.683697 0.043586 0.008909 262218.000000 0 0 1
20.346137 -16.543518 30.047036 39.880793 -0.682680 0.717547 0.046626 0.002334 -486599.000000 0 0 1
20.566237 -15.616218 28.789026 38.673562 -0.649435 0.731144 0.050024 0.006282 299095.000000 0 0 1
21.550937 -14.579718 29.042046 38.992967 -0.594796 0.730558 0.043015 0.006689 994837.000000 0 0 1
21.839837 -13.904118 27.850636 38.025793 -0.566926 0.748935 0.037261 0.007168 -212845.000000 0 0 1
22.586337 -12.599018 28.195876 38.260754 -0.508824 0.742264 0.033768 0.006334 -95106.500000 0 0 1
21.784437 -11.519318 28.692766 37.822364 -0.486411 0.709605 0.026310 0.007994 346338.000000 0 0 1
22.482337 -10.333518 29.071656 38.175886 -0.430832 0.705143 0.029407 -0.000122 -369673.000000 0 0 1
21.558337 -9.137418 29.154356 37.392924 -0.400893 0.676648 0.027367 0.000687 -404842.000000 0 0 1
20.620937 -9.107618 30.179576 37.669332 -0.415904 0.641547 0.026856 -0.002762 82282.300000 0 0 1
19.629137 -8.102718 29.855466 36.637493 -0.391484 0.618260 0.025480 -0.003590 1551740.000000 0 0 1
18.358737 -8.091118 30.833036 36.785670 -0.415112 0.576858 0.019853 0.004453 748327.000000 0 0 1
18.606637 -7.549118 32.096276 37.859834 -0.385429 0.559038 0.018661 0.003171 317196.000000 0 0 1
19.012737 -8.499418 33.110554 39.115637 -0.420388 0.561460 0.020342 0.001565 -273704.000000 0 0 1
19.248537 -7.893018 -34.508745 40.294657 -0.389147 2.599072 0.025345 -0.003171 -124518.000000 0 0 1
18.044037 -7.592318 -33.848176 39.101529 -0.398279 2.617240 0.016030 -0.011911 112025.000000 0 0 1
18.298637 -7.085018 -32.570996 38.025089 -0.369413 2.599374 0.015947 -0.017629 122677.000000 0 0 1
16.981437 -6.683818 -31.871716 36.726679 -0.374973 2.621571 0.009162 -0.018962 136340.000000 0 0 1
17.162237 -5.955618 -30.670106 35.646419 -0.334016 2.606846 0.004941 -0.019233 715351.000000 0 0 1
15.883137 -5.721118 -30.049856 34.467363 -0.345733 2.629733 -0.001510 -0.009813 507459.000000 0 0 1
15.832537 -4.630918 -28.895436 33.272524 -0.284556 2.622858 -0.010329 -0.006243 -352800.000000 0 0 1
16.531437 -4.839618 -27.672676 32.595817 -0.284794 2.584818 -0.004283 -0.012821 195424.000000 0 0 1
16.017337 -5.837618 -26.741396 31.713327 -0.349495 2.574047 0.014869 -0.020753 168770.000000 0 0 1
14.647437 -5.588818 -26.050556 30.404174 -0.364506 2.599844 0.001535 -0.013326 120272.000000 0 0 1
14.619637 -4.482118 -25.145986 29.430321 -0.297484 2.595238 -0.004659 -0.003208 -4042.440000 0 0 1
13.336637 -4.274518 -24.569806 28.280961 -0.310165 2.623521 -0.033436 -0.003671 228166.000000 0 0 1
13.123237 -2.945218 -23.772106 27.313123 -0.220770 2.626719 -0.029267 -0.001795 -289175.000000 0 0 1
13.356537 -1.738218 -24.442006 27.907529 -0.129413 2.637931 -0.038979 -0.003742 160529.000000 0 0 1
13.110837 -0.555218 -23.641706 27.039463 -0.042323 2.634872 -0.030629 0.003077 39443.000000 0 0 1
13.664737 0.698782 -24.347206 27.928476 0.051093 2.629600 -0.036386 -0.000602 -733259.000000 0 0 1
12.901437 1.021782 -25.447866 28.549694 0.079034 2.671118 -0.026766 -0.002920 -164774.000000 0 0 1
13.502637 2.158782 -25.981226 29.359933 0.158537 2.657121 -0.033729 0.012606 -178116.000000 0 0 1
12.683737 2.837782 -27.095436 30.051503 0.220109 2.694328 -0.024246 0.005865 -602481.000000 0 0 1
11.651637 3.676782 -26.678776 29.343423 0.305670 2.712133 -0.006645 -0.005306 -375096.000000 0 0 1
11.018337 4.081782 -27.888726 30.262943 0.354779 2.742843 0.016692 -0.006723 -290639.000000 0 0 1
9.694237 4.816782 -27.616996 29.662739 0.461141 2.768030 0.037469 -0.006893 -194286.000000 0 0 1
9.827837 6.119782 -27.178956 29.542068 0.556943 2.738899 0.033807 -0.020408 504713.000000 0 0 1
8.529337 6.711782 -27.138866 29.228679 0.666705 2.761153 0.051040 -0.024849 632408.000000 0 0 1
8.097437 5.330553 -31.615916 33.068859 0.582189 2.844061 0.039027 -0.014592 5167.700000 0 0 1
8.467437 4.330653 -30.712496 32.151353 0.472764 2.841291 0.036241 -0.009542 -25739.700000 0 0 1
7.894037 3.154653 -31.071966 32.213891 0.380183 2.874536 0.028929 0.002218 -612668.000000 0 0 1
7.750937 2.191353 -29.908196 30.973848 0.275530 2.878519 0.035078 -0.001146 -171155.000000 0 0 1
8.981237 1.748653 -29.351656 30.744758 0.192295 2.839407 0.033128 -0.008742 730089.000000 0 0 1
8.690737 0.758253 -28.333366 29.645969 0.087028 2.842907 0.031977 -0.014811 421065.000000 0 0 1
10.005037 0.245453 -27.666506 29.421023 0.024528 2.794499 0.019634 -0.014647 75254.200000 0 0 1
10.659637 -0.685047 -28.441926 30.381579 -0.064177 2.782332 -0.005049 -0.009356 125211.000000 0 0 1
11.727937 -1.286447 -27.700136 30.108089 -0.109254 2.738936 -0.006966 -0.010834 301206.000000 0 0 1
12.193537 -2.590647 -28.357896 30.976831 -0.209348 2.727434 -0.017648 -0.008643 -112645.000000 0 0 1
11.334937 -3.633947 -27.987656 30.413735 -0.310244 2.739466 -0.003809 -0.001372 102661.000000 0 0 1
11.846837 -4.870047 -28.406566 31.160839 -0.390025 2.717983 -0.008573 -0.000534 -264063.000000 0 0 1
11.118537 -6.043447 -27.703496 30.456999 -0.497875 2.713102 -0.014466 -0.004332 3954.070000 0 0 1
11.300937 -6.054947 -26.312066 29.269410 -0.491869 2.688189 -0.007947 -0.000462 -161981.000000 0 0 1
10.485937 -7.043747 -25.766846 28.696683 -0.591502 2.685779 -0.000788 -0.005278 -150581.000000 0 0 1
10.093337 -6.706647 -24.290006 27.145146 -0.586475 2.678823 0.010152 -0.005901 315049.000000 0 0 1
11.211937 -6.745147 -23.395106 26.805513 -0.541598 2.631649 0.005640 -0.007255 452289.000000 0 0 1
10.746037 -6.587747 -22.039106 25.388933 -0.549952 2.622077 0.010472 -0.010468 -766469.000000 0 0 1
11.791637 -6.419847 -20.959706 24.891091 -0.498565 2.571881 0.005694 -0.016828 -824887.000000 0 1 0
12.578637 -5.293847 -21.242806 25.248836 -0.398359 2.570550 -0.004263 -0.013903 -835009.000000 0 0 1
13.857137 -5.520447 -20.740106 25.546968 -0.379112 2.518097 -0.005766 -0.005705 -302097.000000 0 0 1
14.522737 -4.322647 -19.910106 25.020142 -0.289297 2.491063 0.003875 -0.008060 -195132.000000 0 0 1
15.101237 -3.340647 -20.694806 25.835678 -0.217711 2.499788 0.001052 -0.009770 22854.500000 0 0 1
15.782737 -2.398647 -19.909006 25.518950 -0.150825 2.465727 0.003045 -0.003566 -259895.000000 0 0 1
16.825137 -1.567147 -20.690706 26.714163 -0.092875 2.456755 0.007662 -0.004231 1129740.000000 0 0 1
18.062537 -2.315047 -20.916706 27.733072 -0.127473 2.425255 0.015463 -0.006392 657908.000000 0 0 1
18.832937 -1.605247 -21.835806 28.880076 -0.085031 2.428107 0.017046 -0.007405 -336135.000000 0 0 1
20.190937 -2.315647 -21.982906 29.938008 -0.114189 2.395403 0.022280 -0.008392 -1109840.000000 0 0 1
21.123237 -2.082747 -20.977106 29.842385 -0.098282 2.350305 0.008240 -0.005339 167875.000000 0 0 1
22.386537 -2.707747 -21.145406 30.913058 -0.120370 2.324067 0.009478 -0.010414 725603.000000 0 0 1
23.386737 -1.951047 -22.090606 32.229504 -0.083233 2.325971 0.015163 -0.009221 -866579.000000 0 0 1
22.911637 -1.790647 -23.428706 32.818498 -0.077996 2.365830 0.029229 -0.012156 154376.000000 0 0 1
23.810237 -1.242247 -24.400906 34.115609 -0.052126 2.367766 0.027859 -0.003646 773783.000000 0 0 1
25.052537 -2.138647 -24.775506 35.299138 -0.085160 2.348820 0.036787 -0.010939 -28609.500000 0 0 1
26.103037 -2.064347 -23.800206 35.384741 -0.078920 2.308529 0.027631 -0.008256 547154.000000 0 0 1
27.272637 -2.761947 -24.239306 36.591926 -0.100928 2.294844 0.024271 0.001758 866988.000000 0 0 1
28.224337 -1.916047 -25.155096 37.855822 -0.067782 2.297617 0.022545 -0.007738 -878163.000000 0 0 1
27.585737 -1.588047 -26.353706 38.183931 -0.057504 2.332531 0.039243 -0.013430 -83916.300000 0 0 1
28.287237 -0.620147 -27.142616 39.208086 -0.021920 2.335428 0.030889 -0.011646 -632473.000000 0 0 1
27.800737 -0.312347 -28.568216 39.863787 -0.011235 2.369777 0.039712 -0.019079 1233640.000000 0 0 1
26.410837 0.098353 -28.690036 38.995643 0.003724 2.397532 0.033562 -0.016414 1289950.000000 0 0 1
26.130037 1.426253 -28.261146 38.516301 0.054529 2.394614 0.018726 -0.012734 -424090.000000 0 0 1
24.636137 1.770953 -28.486526 37.703550 0.071761 2.427274 0.025592 -0.010230 -28564.600000 0 0 1
23.775237 1.235153 -27.511456 36.382245 0.051905 2.428249 0.033531 -0.010708 -728951.000000 0 0 1
22.490437 1.652953 -27.826546 35.817156 0.073364 2.460532 0.023442 -0.005156 -500563.000000 0 0 1
21.397437 1.334453 -26.761076 34.289740 0.062284 2.466165 0.022996 -0.003633 261873.000000 0 0 1
21.628237 2.124653 -25.629426 33.603010 0.097921 2.438293 0.020237 -0.002730 61046.200000 0 0 1
20.674437 1.787753 -24.657906 32.227950 0.086257 2.442007 0.008782 -0.000609 -267287.000000 0 0 1
20.862337 2.375553 -23.231006 31.313895 0.113380 2.406659 0.008184 0.003486 -432275.000000 0 0 1
20.773537 3.796753 -23.078706 31.282293 0.180773 2.400537 -0.000297 -0.000141 313411.000000 0 0 1
20.999337 4.126853 -21.705606 30.481739 0.194050 2.363261 -0.013621 0.002850 -369419.000000 0 0 1
20.466837 5.468553 -21.220506 29.985103 0.261092 2.357036 -0.011240 0.011890 -282146.000000 0 0 1
21.262637 6.496053 -21.768806 31.115581 0.296509 2.345649 -0.011223 0.005621 430465.000000 0 0 1
20.922737 7.758253 -21.197606 30.778075 0.355088 2.330524 -0.013155 -0.001165 -282845.000000 0 0 1
21.379237 8.145053 -19.767706 30.235342 0.364003 2.283385 -0.011415 0.007826 -971113.000000 0 0 1
22.759537 8.224453 -19.554706 31.113095 0.346762 2.250425 -0.019467 0.010302 -223336.000000 0 0 1
23.144637 8.425553 -18.203906 30.627543 0.349127 2.207271 -0.015887 0.008638 -258333.000000 0 0 1
23.117137 9.854453 -17.692806 30.733494 0.402957 2.184238 -0.007025 -0.001690 1238310.000000 0 0 1
21.776237 10.349353 -17.356706 29.708061 0.443660 2.194742 -0.000512 -0.004693 1526730.000000 0 0 1
21.731537 11.738853 -17.287206 30.148099 0.495269 2.181458 0.009896 -0.002224 -773184.000000 0 0 1
20.361637 12.386353 -16.983906 29.265527 0.546513 2.189940 0.007611 -0.007258 508459.000000 0 0 1
19.344337 12.308953 -17.986806 29.141704 0.566690 2.235999 0.008651 -0.007213 318680.000000 0 0 1
18.740537 11.076353 -18.032806 28.267922 0.533803 2.262597 0.013885 -0.014269 -1144300.000000 0 0 1
17.988937 10.762353 -19.344506 28.524376 0.539151 2.316072 0.018653 -0.001271 11409.900000 0 0 1
18.793437 10.677353 -20.505906 29.794149 0.516666 2.329874 0.023629 0.002127 -20902.900000 0 0 1
18.024337 10.297953 -21.604406 29.961224 0.519076 2.376155 0.013928 -0.007080 -265984.000000 0 0 1
18.816937 10.316553 -22.935406 31.409254 0.501506 2.389428 0.024251 -0.011048 -153515.000000 0 0 1
19.057237 11.610253 -23.380406 32.320576 0.547179 2.379497 0.018269 -0.013227 351964.000000 0 0 1
19.647937 11.797153 -24.665906 33.669291 0.540733 2.392921 0.020172 -0.011983 12205.700000 0 0 1
19.782837 13.270753 -24.984606 34.521067 0.590874 2.380017 0.024371 -0.010400 -112313.000000 0 0 1
20.517237 13.556153 -26.145246 35.892899 0.583875 2.386815 0.019249 -0.011766 128641.000000 0 0 1
20.617637 14.941953 -26.302576 36.608393 0.627123 2.372418 0.017075 -0.014801 74185.300000 0 0 1
19.459737 15.552653 -27.134506 36.835415 0.674266 2.398887 0.030184 -0.015748 1024430.000000 0 0 1
18.168337 15.410853 -26.519546 35.649252 0.703463 2.409686 0.027839 -0.013973 1006870.000000 0 0 1
17.110837 15.847353 -27.407696 35.987514 0.747081 2.436558 0.023486 -0.017284 768795.000000 0 0 1
15.694537 15.674353 -26.820416 34.804290 0.784755 2.450589 0.016384 -0.014790 -14831.000000 0 0 1
15.406837 14.256553 -26.715406 33.975475 0.746640 2.475617 0.019139 -0.013258 -507658.000000 0 0 1
14.131137 13.874153 -26.308506 32.928994 0.776222 2.496338 0.019876 -0.011612 -590540.000000 0 0 1
13.996937 12.332153 -26.097946 32.079574 0.722252 2.521007 0.013386 -0.012703 -1009310.000000 0 0 1
12.724037 11.978853 -25.714846 31.090953 0.755241 2.544697 0.025300 -0.015771 -978482.000000 0 0 1
12.636837 10.584153 -25.606646 30.453477 0.697230 2.569638 0.030145 -0.018726 83913.600000 0 0 1
11.190937 10.049553 -25.508556 29.612785 0.731714 2.608823 0.028179 -0.024303 171822.000000 0 0 1
10.630037 10.122653 -24.197406 28.301595 0.760954 2.596316 0.031369 -0.022649 493355.000000 0 0 1
9.470637 9.288553 -24.014306 27.434597 0.775692 2.636913 0.041591 -0.026608 367416.000000 0 0 1
8.541337 9.778753 -22.883906 26.310675 0.852840 2.625507 0.047317 -0.027107 -345907.000000 0 0 1
7.775337 10.867053 -23.411806 26.956658 0.949746 2.622961 0.037831 -0.028292 -6369.860000 0 0 1
7.086137 11.603453 -22.393706 26.197930 1.022552 2.595941 0.032685 -0.008766 518795.000000 0 0 1
7.957537 12.590753 -21.530006 26.179966 1.007169 2.536386 0.027246 -0.012026 -77080.300000 0 0 1
8.883537 12.011453 -20.702206 25.529857 0.933992 2.516488 0.031955 -0.017461 -1070350.000000 0 0 1
9.719637 12.892653 -19.994906 25.699964 0.924811 2.462293 0.029249 -0.012909 -806228.000000 0 0 1
10.695737 12.095153 -19.162806 25.058026 0.846724 2.441430 0.041977 -0.018256 124954.000000 0 0 1
11.807937 11.466653 -19.853006 25.788629 0.770736 2.449380 0.053265 -0.021807 920057.000000 0 0 1
11.423637 10.463653 -20.818306 25.949748 0.741566 2.501859 0.053383 -0.025615 -1658320.000000 0 0 1
12.596037 10.021653 -21.646506 26.975265 0.672064 2.502199 0.048607 -0.024378 -696622.000000 0 0 1
13.389937 9.095753 -20.925306 26.455464 0.596696 2.483178 0.050067 -0.024663 343240.000000 0 0 1
14.423637 8.663553 -21.834606 27.565349 0.540897 2.485044 0.047988 -0.025682 305794.000000 0 0 1
15.228537 7.422253 -21.405506 27.298239 0.453510 2.472097 0.054207 -0.014794 -156281.000000 0 0 1
16.001237 7.545253 -20.270106 26.904417 0.440623 2.424032 0.029880 -0.014806 -12305.400000 0 0 1
16.575537 6.348653 -19.765506 26.565562 0.365778 2.409874 0.012577 -0.007746 -29432.200000 0 0 1
17.266437 6.362353 -18.428606 26.042713 0.353043 2.356935 0.022942 -0.012478 -245219.000000 0 0 1
18.425537 7.194753 -18.464606 27.059316 0.372270 2.321803 0.005396 -0.011107 476581.000000 0 0 1
19.081937 7.384453 -17.222406 26.744378 0.369238 2.270464 0.002021 -0.007289 -149983.000000 0 0 1
19.749637 6.219653 -16.492106 26.471151 0.305093 2.243396 -0.018483 -0.001168 -1372440.000000 0 0 1
20.843237 5.719653 -17.172806 27.605438 0.267820 2.242194 -0.026764 0.002853 -154515.000000 0 0 1
21.410137 4.636753 -16.440806 27.389661 0.213275 2.214617 -0.017862 -0.003264 -284687.000000 0 0 1
22.586537 3.939553 -17.149106 28.631514 0.172683 2.212997 -0.026254 0.014111 -28702.200000 0 0 1
23.191137 2.872353 -16.425206 28.563379 0.123228 2.183455 -0.031116 0.009515 18892.800000 0 0 1
24.530237 2.726153 -16.813806 29.864168 0.110680 2.168819 -0.022647 0.010518 -399415.000000 0 0 1
25.196437 1.583753 -16.073506 29.928687 0.062774 2.137744 -0.005616 0.001042 -110474.000000 0 0 1
24.655637 0.280653 -16.342506 29.581357 0.011382 2.156109 -0.002184 0.007715 -322726.000000 0 0 1
25.787837 -0.502947 -16.407406 30.569077 -0.019501 2.137356 -0.004445 0.017210 -452091.000000 0 0 1
25.407337 -1.978447 -16.440806 30.327333 -0.077712 2.143745 -0.004263 0.000435 -228720.000000 0 0 1
24.938937 -2.589547 -15.221306 29.331629 -0.103465 2.116405 -0.000230 0.003019 511618.000000 0 0 1
24.776337 -3.975147 -15.438506 29.462114 -0.159085 2.122351 -0.007285 0.005318 -652524.000000 0 0 1
24.138137 -4.779947 -14.224906 28.422623 -0.195495 2.094947 -0.008827 0.006364 672240.000000 0 0 1
22.746737 -4.675447 -13.951106 27.090722 -0.202720 2.111777 -0.006094 0.015931 739802.000000 0 0 1
21.831437 -5.218647 -14.897606 26.940389 -0.234640 2.156738 -0.001645 0.020952 -216687.000000 0 0 1
20.431337 -5.277147 -14.244706 25.459762 -0.252763 2.164577 0.005240 0.011516 -370977.000000 0 0 1
20.275837 -6.357347 -13.368006 25.104362 -0.303835 2.132345 0.002110 0.019273 368712.000000 0 0 1
20.291837 -6.013947 -12.023506 24.341136 -0.288126 2.087433 -0.002423 0.016908 -365301.000000 0 1 0
20.260437 -7.198747 -11.054906 24.176811 -0.341398 2.045700 0.006367 0.018388 -22847.600000 0 1 0
19.072937 -7.965747 -10.919306 23.376511 -0.395626 2.056811 0.009300 0.018071 557858.000000 0 1 0
18.736637 -8.849247 -11.920306 23.905322 -0.441240 2.092833 0.000381 0.013587 -583357.000000 0 1 0
17.315637 -9.438347 -11.809606 22.986528 -0.499055 2.110360 0.018519 0.012638 -193054.000000 0 1 0
16.375037 -8.469047 -12.198106 22.105664 -0.477307 2.155328 0.019748 0.012270 -831792.000000 0 1 0
15.076037 -8.969247 -12.225306 21.382058 -0.536686 2.179440 0.025550 0.005097 -600505.000000 0 1 0
14.047137 -7.887547 -12.560006 20.427658 -0.511634 2.232996 0.025940 0.001294 -551497.000000 0 1 0
14.129037 -7.170547 -13.789206 21.004491 -0.469633 2.286950 0.021839 0.003272 -7645.800000 0 1 0
15.232537 -6.283947 -13.829106 21.511912 -0.391265 2.269020 0.016329 0.007689 -102865.000000 0 1 0
14.984237 -5.137847 -14.795906 21.675877 -0.330321 2.322108 0.002596 0.002584 -310153.000000 0 1 0
14.086437 -4.167447 -14.316606 20.512448 -0.287643 2.343323 0.015985 -0.003555 156389.000000 0 1 0
13.711437 -3.183647 -15.275606 20.772175 -0.228147 2.397035 0.005871 -0.011568 195513.000000 0 1 0
14.748837 -2.040047 -15.538506 21.520575 -0.137447 2.377529 0.009020 -0.011083 -197052.000000 0 1 0
15.789137 -2.342247 -16.469806 22.935507 -0.147271 2.371853 0.003595 -0.003999 863888.000000 0 1 0
16.964637 -1.531947 -16.331506 23.597963 -0.090058 2.335153 0.010479 0.003859 504250.000000 0 1 0
17.889137 -2.036047 -15.216906 23.573734 -0.113327 2.272477 0.003706 0.003152 -1210320.000000 0 1 0
17.431037 -1.886747 -13.877906 22.360616 -0.107821 2.240356 -0.000077 0.009214 -132405.000000 0 1 0
18.496237 -2.221647 -13.027106 22.732180 -0.119541 2.181042 -0.008837 0.015440 -156151.000000 0 1 0
18.089337 -2.417247 -11.550206 21.598020 -0.132841 2.135045 -0.008317 0.017699 -742626.000000 0 1 0
17.732137 -1.266747 -10.837006 20.820039 -0.071317 2.118243 -0.004633 0.013197 602616.000000 0 1 0
17.309137 -1.536847 -9.550806 19.828919 -0.088556 2.073345 -0.000885 0.008619 -1547490.000000 0 1 0
17.465637 -0.326047 -8.618206 19.478918 -0.018666 2.029111 0.009217 0.006768 443374.000000 0 1 0
18.792137 0.021853 -8.169706 20.491193 0.001163 1.980888 0.001924 0.009429 1310400.000000 0 1 0
19.706737 0.670753 -9.035206 21.689637 0.034024 2.000463 -0.014172 0.023222 -288621.000000 0 1 0
19.275637 1.992553 -9.728306 21.683182 0.103006 2.036058 -0.020759 0.020176 -793217.000000 0 1 0
19.197937 3.116053 -8.839006 21.363488 0.160909 1.997359 -0.011798 0.022236 572499.000000 0 1 0
18.657837 4.228253 -9.515706 21.366836 0.222857 2.032361 -0.014672 0.010062 -273411.000000 0 1 0
18.585337 5.584653 -8.802906 21.309488 0.291904 1.996650 0.016558 0.009783 -226212.000000 0 1 0
17.869437 6.459753 -9.687906 21.328402 0.346880 2.042299 0.010617 0.004962 540519.000000 0 1 0
17.956437 7.810653 -9.327706 21.689768 0.410292 2.015346 0.003187 0.004881 -232285.000000 0 1 0
-24.849263 -29.471217 5.722394 38.971583 0.870280 1.423428 0.006042 -0.014533 -149381.000000 0 0 1
-25.324503 -28.587797 6.719794 38.778192 0.845854 1.396629 0.005508 -0.007645 -594458.000000 0 0 1
-24.466163 -27.530757 7.015194 37.493315 0.844268 1.382582 0.019794 -0.010788 -821948.000000 0 0 1
-25.038163 -26.368647 7.855494 37.201128 0.811274 1.358032 0.002781 -0.002239 -122638.000000 0 0 1
-26.237443 -25.767537 7.329794 37.497936 0.776363 1.374058 -0.014327 0.000141 1420210.000000 0 0 1
-27.495213 -26.408507 7.643394 38.882097 0.765241 1.372929 0.004725 -0.000220 784728.000000 0 0 1
-27.917683 -26.445927 9.097694 39.516479 0.758332 1.338487 -0.014555 0.000880 -1013770.000000 0 0 1
-27.083133 -27.288537 9.848694 39.688249 0.789176 1.320025 -0.010733 -0.004356 -318705.000000 0 0 1
-27.411313 -27.352587 11.154394 40.298444 0.784326 1.290340 -0.006132 0.000851 300587.000000 0 0 1
-26.254103 -28.121707 11.961994 40.288927 0.819731 1.269346 -0.008375 -0.005162 1233580.000000 0 0 1
-25.077693 -27.420497 12.279494 39.135154 0.829995 1.251634 -0.006569 -0.001316 -184118.000000 0 0 1
-25.272893 -26.400697 13.280794 38.885671 0.807220 1.222247 -0.007119 0.004359 -1007070.000000 0 0 1
-24.002763 -25.811137 13.884594 37.883101 0.821685 1.195539 0.014035 -0.001177 -225711.000000 0 0 1
-23.253563 -26.792747 14.632994 38.375825 0.855999 1.179586 0.035692 -0.003400 -57747.500000 0 0 1
-22.191263 -26.249167 15.360294 37.648500 0.868974 1.150543 0.035156 -0.006318 -167327.000000 0 0 1
-21.245063 -27.327407 15.955794 38.114659 0.909972 1.138864 0.022894 -0.011763 -274997.000000 0 0 1
-21.770863 -28.079727 17.026694 39.399871 0.911284 1.123920 0.029344 -0.007539 308460.000000 0 0 1
-20.954563 -29.222737 17.363194 39.931724 0.948710 1.120956 0.026467 -0.005653 88916.300000 0 0 1
-21.718463 -30.254667 18.234294 41.467167 0.948187 1.115500 0.034175 -0.006853 48450.700000 0 0 1
-22.739163 -30.946157 17.547094 42.221258 0.937096 1.142196 0.023203 -0.005007 519268.000000 0 0 1
-23.467563 -31.863367 18.402294 43.642239 0.935987 1.135518 0.018621 0.003174 -396693.000000 0 0 1
-24.536363 -32.640667 17.627294 44.476597 0.926201 1.163283 0.011527 -0.003807 -492600.000000 0 0 1
-24.048963 -33.643117 16.817094 44.643326 0.950189 1.184566 0.019421 -0.002603 211359.000000 0 0 1
-25.058063 34.524444 16.546794 45.756312 -0.942960 1.200782 0.017455 -0.006852 -380763.000000 0 0 1
-24.714163 33.740275 15.261494 44.520885 -0.938601 1.220907 0.014911 -0.009823 553360.000000 0 0 1
-23.479263 33.031195 15.232994 43.294107 -0.952845 1.211251 0.011955 -0.010192 269467.000000 0 0 1
-22.305263 33.778387 15.101294 43.203625 -0.987186 1.213719 0.020500 -0.004699 -582478.000000 0 0 1
-21.057563 32.885285 14.839994 41.774254 -1.001246 1.207623 0.038010 -0.006720 205597.000000 0 0 1
-20.891463 32.274685 13.570394 40.770873 -0.996320 1.231477 0.039580 -0.007682 148993.000000 0 0 1
-19.746963 31.440335 13.672894 39.564949 -1.009987 1.217938 0.033684 0.002368 184241.000000 0 0 1
-19.587563 30.549395 12.424994 38.357771 -1.000649 1.240922 0.027870 0.003819 117834.000000 0 0 1
-19.211563 31.311225 11.292194 38.431635 -1.020460 1.272570 0.018481 -0.002636 -63633.900000 0 0 1
-19.200563 30.551235 10.116694 37.475152 -1.009705 1.297448 0.013014 0.000632 47398.900000 0 0 1
-18.676663 31.313735 8.883594 37.527136 -1.033001 1.331803 -0.000994 -0.003953 1387170.000000 0 0 1
-17.232263 31.305635 8.699894 36.778823 -1.067606 1.331987 0.000816 -0.010350 1014500.000000 0 0 1
-16.962163 31.717415 7.365094 36.714493 -1.079705 1.368821 0.006476 -0.011996 -128003.000000 0 0 1
-16.645563 30.638665 6.258294 35.425539 -1.073122 1.393204 -0.002031 -0.010212 95039.200000 0 0 1
-17.668063 29.658645 5.988994 35.038032 -1.033534 1.399024 -0.006622 -0.007218 202779.000000 0 0 1
-17.748163 28.583735 6.897594 34.345363 -1.015138 1.368591 -0.011205 -0.001062 121841.000000 0 0 1
-18.873063 27.595425 6.502094 34.058438 -0.970944 1.378707 -0.006030 0.001591 -30818.400000 0 0 1
-18.504863 26.857995 5.362194 33.053517 -0.967499 1.407849 0.005344 -0.005740 485692.000000 0 0 1
-19.600363 26.227965 4.703294 33.078714 -0.929020 1.428128 0.023881 -0.006839 -659315.000000 0 0 1
-19.110063 25.330055 3.501494 31.922823 -0.924458 1.460889 0.033049 -0.013851 -1122740.000000 0 0 1
-18.738763 25.985735 2.294494 32.119532 -0.946038 1.499299 0.039284 -0.017066 420089.000000 0 0 1
-17.550963 26.761255 2.246994 32.081927 -0.990330 1.500700 0.038676 -0.016963 -639592.000000 0 0 1
-16.227563 26.097005 2.621594 30.842507 -1.014489 1.485694 0.033319 -0.018198 -1230360.000000 0 0 1
-15.860263 24.916605 1.928794 29.599077 -1.003946 1.505586 0.045061 -0.016333 66861.800000 0 0 1
-15.462963 25.141825 0.557894 29.521616 -1.019399 1.551897 0.048325 -0.011496 -172262.000000 0 0 1
-15.093863 23.913925 -0.380706 28.281539 -1.007769 1.584258 0.043380 -0.007408 632574.000000 0 0 1
-16.193663 23.009325 -0.649806 28.144022 -0.957533 1.593887 0.047846 -0.010843 581769.000000 0 0 1
-15.986363 22.108025 -1.700506 27.335330 -0.944733 1.633046 0.042518 -0.008793 -63504.600000 0 0 1
-15.108863 20.887825 -1.300906 25.812232 -0.944581 1.621217 0.038341 -0.016110 109135.000000 0 0 1
-15.742663 19.965125 -0.424906 25.428688 -0.903102 1.587507 0.044508 -0.019321 443765.000000 0 0 1
-14.855263 18.904025 -0.067106 24.042577 -0.904758 1.573587 0.061853 -0.020505 97469.300000 0 1 0
-15.563363 17.928925 0.895594 23.758508 -0.855911 1.533092 0.052242 -0.016648 392269.000000 0 1 0
-16.393063 16.952925 0.280894 23.584170 -0.802186 1.558886 0.042451 -0.013993 594488.000000 0 1 0
-17.198863 16.235525 1.219694 23.682922 -0.756593 1.519273 0.044168 -0.021616 196322.000000 0 1 0
-17.781763 14.960125 0.618594 23.246055 -0.699432 1.544182 0.060962 -0.020001 14542.400000 0 1 0
-18.817463 15.233525 -0.323306 24.212842 -0.680532 1.584149 0.059875 -0.022905 528617.000000 0 1 0
-19.605063 14.093025 -0.614106 24.152618 -0.623263 1.596225 0.048224 -0.014219 -954318.000000 0 1 0
-20.731163 14.400525 -1.560806 25.290163 -0.607114 1.632552 0.061038 -0.006211 -1850970.000000 0 0 1
-21.630563 13.326925 -1.902006 25.477555 -0.552185 1.645520 0.043144 -0.005411 1384550.000000 0 0 1
-22.671263 13.042825 -0.934106 26.172008 -0.522061 1.606495 0.037269 0.004393 690652.000000 0 0 1
-23.701563 14.224825 -0.764006 27.653091 -0.540540 1.598428 0.010717 0.007264 -743077.000000 0 0 1
-23.046663 15.306025 -0.115606 27.666522 -0.586246 1.574975 -0.001763 0.000486 45003.300000 0 0 1
-23.959563 16.347625 0.137894 29.005594 -0.598748 1.566042 -0.022914 0.001107 -18763.300000 0 0 1
-23.304163 17.539225 0.904794 29.180937 -0.645177 1.539785 -0.019941 -0.009039 164618.000000 0 0 1
-22.904263 17.194025 2.230894 28.726584 -0.643943 1.493058 -0.007291 -0.010315 115539.000000 0 0 1
-22.479663 18.265625 3.006494 29.120565 -0.682341 1.467369 -0.000892 -0.019555 29688.600000 0 0 1
-23.677963 19.156225 3.454194 30.651890 -0.680224 1.457865 -0.001891 -0.024644 -1047050.000000 0 0 1
-24.409563 18.475525 4.433294 30.932602 -0.647901 1.426980 0.004342 -0.025432 -207820.000000 0 0 1
-25.733873 18.937025 4.591994 32.278933 -0.634402 1.428052 -0.001721 -0.025796 -122400.000000 0 0 1
-26.681283 18.541325 3.457694 32.674566 -0.607308 1.464776 0.014320 -0.013539 -1572620.000000 0 0 1
-27.859163 19.310325 3.403294 34.067639 -0.606108 1.470731 0.014342 -0.012099 -39632.100000 0 0 1
-28.654033 18.807025 2.320394 34.353195 -0.580825 1.503200 0.028557 -0.003090 -408942.000000 0 0 1
-29.860543 19.676525 2.006994 35.816835 -0.582639 1.514732 0.043238 -0.016969 -85927.500000 0 0 1
-30.867003 19.567225 3.016994 36.670839 -0.564988 1.488431 0.050677 -0.012899 729073.000000 0 0 1
-32.103213 20.189225 2.648694 38.016268 -0.561388 1.501067 0.032075 -0.014678 899627.000000 0 0 1
-32.753853 20.912725 3.880094 39.053964 -0.568235 1.471280 0.022891 -0.011586 -221538.000000 0 0 1
-31.881653 21.923525 4.283494 38.928512 -0.602391 1.460538 0.033297 -0.016447 76973.100000 0 0 1
-32.117663 22.393125 5.599194 39.551830 -0.608859 1.428753 0.019203 -0.012563 -333541.000000 0 0 1
-31.203123 23.532125 6.065994 39.549868 -0.646158 1.416813 0.028435 -0.018863 -228081.000000 0 0 1
-31.336663 24.740725 5.330994 40.280385 -0.668314 1.438060 0.019772 -0.010671 602068.000000 0 0 1
-30.458563 25.683035 5.962394 40.285140 -0.700540 1.422246 0.005290 -0.007728 455.381000 0 0 1
-30.873463 27.144315 5.644794 41.495159 -0.721210 1.434338 -0.003037 0.002920 16601.400000 0 0 1
-32.010683 27.458865 6.447694 42.664339 -0.709007 1.419089 0.011242 0.004595 416483.000000 0 0 1
-32.267603 28.861075 6.412294 43.763882 -0.729729 1.423747 -0.001346 0.010839 26230.200000 0 0 1
-33.198883 29.365365 7.533994 44.958331 -0.724201 1.402425 -0.000436 0.012585 -613711.000000 0 0 1
-32.653963 29.182225 8.808794 44.670778 -0.729313 1.372302 0.013307 -0.005091 -186543.000000 0 0 1
-33.392853 29.647055 9.898694 45.738546 -0.726048 1.352651 0.014783 -0.008256 -338086.000000 0 0 1
-34.662304 28.848585 10.264494 46.250146 -0.694114 1.346999 0.007238 0.002765 17257.300000 0 0 1
-34.257843 27.595085 10.814094 45.299372 -0.678093 1.329744 0.016745 -0.011281 996855.000000 0 0 1
35.261431 27.018685 11.620994 45.917593 0.653813 1.314930 0.012067 -0.005890 405884.000000 0 0 1
-34.735405 25.692575 12.211194 44.897327 -0.636854 1.295346 0.028068 -0.013390 183285.000000 0 0 1
-33.592123 26.017365 13.007294 44.435613 -0.659003 1.273724 0.033452 -0.027684 437338.000000 0 0 1
-33.183553 24.834645 13.737394 43.664903 -0.642478 1.250751 0.039555 -0.026536 -946557.000000 0 0 1
-31.986333 25.127395 14.585394 43.211632 -0.665878 1.226500 0.046435 -0.032153 -989583.000000 0 0 1
-32.251413 26.054085 15.604194 44.299660 -0.679505 1.210831 0.042032 -0.025488 439571.000000 0 0 1
-31.070373 26.703005 16.099694 44.018390 -0.709947 1.196359 0.063900 -0.023598 333753.000000 0 0 1
-31.331843 28.051325 16.842894 45.301703 -0.730211 1.189856 0.047149 -0.016018 -769421.000000 0 0 1
-31.744093 29.131345 16.055194 45.979255 -0.742505 1.214097 0.058805 -0.018541 184002.000000 0 0 1
-32.060753 30.269055 16.861994 47.206296 -0.756661 1.205530 0.046737 -0.015031 -226589.000000 0 0 1
-31.622993 31.565205 16.165994 47.515421 -0.784484 1.223639 0.030896 -0.014034 -433456.000000 0 0 1
-30.237613 31.732555 16.116594 46.701315 -0.809517 1.218452 0.026096 -0.016150 -734810.000000 0 0 1
-29.899633 32.967965 15.587494 47.157658 -0.834166 1.233921 0.014036 -0.012397 -528494.000000 0 0 1
-28.418613 32.967985 15.181494 46.097542 -0.859373 1.235198 0.022552 -0.014274 -333107.000000 0 0 1
-27.967023 32.115975 14.083194 44.854504 -0.854342 1.251419 0.016782 -0.015082 368272.000000 0 0 1
-27.627063 30.769615 14.400394 43.788071 -0.839160 1.235694 0.023674 -0.013259 -202439.000000 0 0 1
-28.748103 29.751665 14.136494 43.720195 -0.802551 1.241539 0.042828 -0.021024 -35052.200000 0 0 1
-28.980083 29.376705 12.770994 43.196461 -0.792195 1.270661 0.048426 -0.029432 -133797.000000 0 0 1
-30.063863 28.501875 12.540594 43.283475 -0.758734 1.276850 0.054294 -0.027336 73684.500000 0 0 1
-30.301813 28.240295 11.049594 42.869659 -0.750198 1.310105 0.040632 -0.017040 -619555.000000 0 0 1
-29.246533 27.583195 10.433894 41.533823 -0.756138 1.316862 0.037706 -0.010553 -523395.000000 0 0 1
-29.275323 27.789885 9.054894 41.368023 -0.759373 1.350123 0.029275 -0.009320 -59964.300000 0 0 1
-28.064583 27.141635 8.369694 39.929199 -0.768682 1.359617 0.026909 -0.005264 -33681.700000 0 0 1
-27.880063 27.552045 7.042494 39.824739 -0.779481 1.393024 0.017682 -0.003669 -327912.000000 0 0 1
-26.755163 26.892055 6.502294 38.487676 -0.787950 1.401037 0.024175 0.001483 -192146.000000 0 0 1
-26.452723 27.174415 4.992394 38.250743 -0.798855 1.439905 0.015325 0.000956 205813.000000 0 0 1
-25.572213 28.285145 4.765494 38.427821 -0.835728 1.446465 0.015375 0.005195 419422.000000 0 0 1
-25.365133 28.463425 3.394194 38.276325 -0.842893 1.482004 0.003919 0.004417 -550187.000000 0 0 1
-24.482763 29.666725 3.093794 38.588752 -0.880842 1.490537 0.002769 0.003923 -39128.700000 0 0 1
-23.179863 29.386025 3.609294 37.601483 -0.902919 1.474660 0.007553 -0.001526 -77514.600000 0 0 1
-22.291763 30.339855 3.051094 37.772194 -0.937136 1.489932 0.007216 -0.006690 -20296.900000 0 0 1
-20.841763 30.066725 3.483894 36.749483 -0.964660 1.475853 0.005344 -0.012892 497752.000000 0 0 1
-19.849963 30.898305 2.865994 36.836669 -0.999762 1.492915 0.006354 -0.010891 -76974.600000 0 0 1
-18.528263 30.464965 3.090194 35.790500 -1.024382 1.484348 0.011286 -0.012954 398263.000000 0 0 1
-17.490163 31.468765 2.495094 36.088980 -1.063515 1.501604 0.012606 -0.018555 130361.000000 0 0 1
-17.420163 32.627835 3.272394 37.131472 -1.080394 1.482552 0.009896 -0.018241 49105.000000 0 0 1
-16.331163 33.415434 2.812794 37.298926 -1.116204 1.495312 0.013311 -0.012283 213749.000000 0 0 1
-16.043563 -34.456852 3.738894 38.192275 1.135035 1.472743 0.004719 -0.016714 -407561.000000 0 0 1
-17.044763 -33.509777 3.656894 37.773032 1.100252 1.473832 0.002998 -0.022023 -635465.000000 0 0 1
-16.659563 -32.384857 4.421094 36.686047 1.095676 1.449991 0.001778 -0.020713 -257395.000000 0 0 1
-17.698463 -31.302417 4.645494 36.258206 1.056205 1.442321 0.009369 -0.015452 -417542.000000 0 0 1
-17.994063 -30.442647 3.536894 35.539424 1.036961 1.471111 0.009585 -0.015531 219302.000000 0 0 1
-19.029063 -29.579877 3.982494 35.396816 0.999138 1.458048 0.019109 -0.014910 -121068.000000 0 0 1
-19.457963 -28.527227 2.977994 34.659536 0.972196 1.484769 0.014248 -0.015072 253869.000000 0 0 1
-18.555963 -27.430547 2.857194 33.240370 0.976037 1.484735 0.011262 -0.012084 303993.000000 0 0 1
-19.137663 -26.430587 2.052494 32.696159 0.944096 1.507980 0.013692 -0.007852 470713.000000 0 0 1
-18.095963 -25.283857 2.004794 31.156965 0.949603 1.506407 0.014200 -0.005572 479028.000000 0 0 1
-16.950463 -25.629067 1.261594 30.753193 0.986465 1.529762 0.006421 -0.004671 49605.300000 0 0 1
-15.871363 -24.706947 1.482294 29.402901 0.999793 1.520362 0.009987 -0.011257 1371280.000000 0 0 1
-14.514163 -24.974347 0.731194 28.894871 1.044343 1.545488 0.016259 -0.017020 369670.000000 0 0 1
-14.466663 -24.908247 -0.691906 28.812911 1.044616 1.594812 0.009271 -0.004953 -92091.800000 0 0 1
-14.798463 -23.632047 -1.228806 27.910179 1.011332 1.614838 0.017265 -0.009982 -301019.000000 0 0 1
-14.942363 -23.669647 -2.745906 28.125902 1.007688 1.668581 0.000397 0.006196 -447148.000000 0 0 1
-13.790663 -23.946747 -3.487606 27.853051 1.048294 1.696340 0.008129 0.006199 -472557.000000 0 0 1
-14.115963 -24.159447 -4.849106 28.398118 1.042013 1.742392 0.007155 0.014813 266877.000000 0 0 1
-12.948363 -24.615447 -5.767406 28.404987 1.086545 1.775260 0.012208 0.008268 361413.000000 0 0 1
-12.630963 -25.964417 -5.617606 29.415126 1.118030 1.762953 -0.010044 0.016241 -787247.000000 0 0 1
-11.557463 -26.386407 -6.385206 29.505733 1.157959 1.788928 0.008991 0.016440 -272839.000000 0 0 1
21.956937 12.870553 28.597576 38.282889 0.530190 0.727248 -0.005702 0.014363 -746324.000000 0 0 1
22.988237 11.930653 28.766536 38.708050 0.478724 0.733006 -0.000233 0.016152 210888.000000 0 0 1
22.905237 11.027353 29.851366 39.209137 0.448685 0.705424 0.013540 0.009788 -369699.000000 0 0 1
22.856137 11.569253 31.312756 40.456635 0.468577 0.685689 0.016653 0.001287 21777.500000 0 0 1
21.765437 12.414253 31.601766 40.330132 0.518344 0.670394 0.003990 0.009386 31919.500000 0 0 1
22.041537 12.971453 32.869946 41.647585 0.531921 0.661226 0.010753 0.009378 -630245.000000 0 0 1
21.094137 13.977253 33.520471 41.999383 0.585191 0.646631 -0.001391 0.013797 -399647.000000 0 0 1
19.948337 13.285953 33.972540 41.576269 0.587553 0.614410 0.002924 0.012434 630374.000000 0 0 1
19.000237 14.210453 -34.425741 41.810019 0.642162 2.538147 0.001018 0.011898 855114.000000 0 0 1
17.758737 13.527653 -33.804736 40.510867 0.650977 2.557950 0.000069 0.013618 29349.800000 0 0 1
16.848337 12.924353 34.351169 40.384504 0.654355 0.553666 -0.000546 0.011637 -36164.200000 0 0 1
15.647837 12.625953 -34.002316 39.502241 0.678923 2.607575 -0.001845 0.012094 141454.000000 0 0 1
14.427337 12.261553 34.163681 39.059581 0.704426 0.506071 -0.000132 0.012759 225116.000000 0 0 1
14.649037 11.121153 33.383068 38.114349 0.649346 0.503568 -0.009314 0.022028 -56789.000000 0 0 1
13.415837 10.885253 32.752966 37.030126 0.681638 0.485386 0.003579 0.022266 -245014.000000 0 0 1
13.563437 9.848353 31.653146 35.817294 0.628026 0.487003 0.001361 0.025056 -70380.700000 0 0 1
13.808837 8.516253 32.100056 35.966987 0.552627 0.467968 -0.017808 0.023272 365213.000000 0 0 1
14.784437 7.850253 31.280256 35.477605 0.488124 0.491364 -0.011102 0.005017 466351.000000 0 0 1
15.176137 6.451753 31.802976 35.824148 0.401976 0.478357 0.008057 -0.003517 -427600.000000 0 0 1
14.117537 5.567653 31.666266 35.114897 0.375651 0.446903 -0.010813 0.003093 -354029.000000 0 0 1
14.549737 4.316853 32.168106 35.568485 0.288423 0.440827 -0.001362 -0.008334 435659.000000 0 0 1
13.390837 3.329253 32.449736 35.261648 0.243681 0.402063 -0.007377 -0.003201 159291.000000 0 0 1
13.902737 2.105553 32.960016 35.834092 0.150307 0.403239 0.006408 -0.006048 13044.500000 0 0 1
12.835237 1.221753 33.245181 35.657791 0.094902 0.369965 -0.000268 -0.007631 -459038.000000 0 0 1
13.225437 -0.165347 33.770466 36.268222 -0.012502 0.373294 -0.015685 -0.010818 -143394.000000 0 0 1
13.600437 -1.044247 32.710826 35.440944 -0.076630 0.395076 -0.013758 -0.008978 11483.700000 0 0 1
13.952337 -2.298847 33.188860 36.075654 -0.163297 0.402768 0.007995 -0.012945 -211153.000000 0 0 1
14.087537 -3.385547 32.034036 35.158215 -0.235850 0.424756 0.010191 -0.017077 -1598390.000000 0 0 1
14.390337 -4.773547 32.264946 35.649618 -0.320297 0.439282 0.009954 -0.013775 185806.000000 0 0 1
15.552037 -5.201747 32.976788 36.829235 -0.322776 0.461474 -0.002858 -0.012691 281572.000000 0 0 1
16.845937 -4.760347 32.263846 36.706978 -0.275401 0.497126 0.016422 -0.013960 -1217840.000000 0 0 1
16.981537 -3.346747 32.267356 36.616329 -0.194588 0.492341 0.029430 -0.022156 -566867.000000 0 0 1
18.072537 -2.771047 31.572136 36.484176 -0.152144 0.524918 0.051860 -0.028651 -107251.000000 0 0 1
18.116937 -1.247147 31.382766 36.258196 -0.068730 0.524577 0.065624 -0.032469 -332225.000000 0 0 1
18.305837 -0.540047 32.572966 37.368348 -0.029493 0.512191 0.063849 -0.028767 109537.000000 0 0 1
18.245737 0.848253 32.354866 37.154593 0.046457 0.513934 0.062262 -0.026262 645660.000000 0 0 1
19.628137 1.531753 32.020006 37.588440 0.077881 0.551274 0.071932 -0.028338 348325.000000 0 0 1
19.998437 1.347153 30.703926 36.667198 0.067261 0.578346 0.078707 -0.031518 -235903.000000 0 0 1
20.784137 2.360253 30.137116 36.685105 0.113076 0.606745 0.071282 -0.026202 39506.000000 0 0 1
20.048337 3.751253 29.976206 36.257146 0.184972 0.597461 0.055555 -0.016591 63569.100000 0 0 1
19.814537 4.410353 31.192406 37.216035 0.219011 0.576924 0.059888 -0.021905 288992.000000 0 0 1
19.123437 5.613053 31.003116 36.856552 0.285499 0.571329 0.039147 -0.013018 -197704.000000 0 0 1
19.017737 6.347353 32.344456 38.054265 0.322134 0.554894 0.042979 -0.006139 -188145.000000 0 0 1
18.028337 5.824653 33.210603 38.234692 0.312497 0.518429 0.035851 -0.009559 145786.000000 0 0 1
18.112637 6.254053 -34.465494 39.434136 0.332470 2.634173 0.030199 0.001451 403909.000000 0 0 1
17.017337 5.619153 -33.524636 38.014022 0.318929 2.650678 0.026109 0.002490 542872.000000 0 0 1
17.201037 4.214653 -33.512156 37.903873 0.240289 2.655437 0.019109 -0.005179 189464.000000 0 0 1
15.977137 3.542053 -33.292866 37.097574 0.218167 2.684729 0.013656 -0.010725 112581.000000 0 0 1
16.043237 2.007253 -33.610296 37.297004 0.124468 2.693218 0.013010 -0.014567 -293547.000000 0 0 1
16.986237 1.349953 -32.806606 36.967932 0.079307 2.662545 -0.000133 -0.010482 -5911.720000 0 0 1
17.079637 -0.004547 -33.183856 37.321339 -0.000266 2.666257 0.013145 -0.014011 -150071.000000 0 0 1
18.126037 -0.776247 -32.336336 37.078220 -0.042799 2.630297 0.020953 -0.015943 -255497.000000 0 0 1
17.800137 -1.107547 -30.978016 35.745056 -0.062141 2.619220 0.013023 -0.011994 258168.000000 0 0 1
17.796037 -0.029247 -30.052876 34.926711 -0.001643 2.606959 0.008092 -0.007220 -142050.000000 0 0 1
17.247837 -0.373547 -28.649416 33.442734 -0.021654 2.599577 0.000206 -0.003078 110199.000000 0 0 1
15.897737 -0.754547 -28.449006 32.598364 -0.047427 2.631528 0.006091 -0.004491 238526.000000 0 0 1
15.504237 -0.866847 -27.059536 31.198578 -0.055852 2.620614 -0.006258 -0.002523 -329892.000000 0 0 1
16.176137 -1.914647 -26.135926 30.796427 -0.117814 2.584257 0.011198 -0.004742 -1655590.000000 0 0 1
17.463637 -1.538647 -25.768556 31.166722 -0.087879 2.544186 0.027825 -0.006705 -830920.000000 0 0 1
18.271137 -2.688847 -25.538156 31.516056 -0.146115 2.515498 0.031503 -0.011420 203542.000000 0 0 1
18.970237 -3.074447 -26.876296 33.040239 -0.160670 2.520841 0.042539 -0.015983 -1625720.000000 0 0 1
20.121637 -2.319147 -27.042816 33.787167 -0.114750 2.498737 0.060154 -0.013952 -680985.000000 0 0 1
20.777237 -2.806047 -28.246676 35.177296 -0.134242 2.503075 0.060023 -0.020640 411831.000000 0 0 1
22.194737 -2.225747 -28.506116 36.196118 -0.099948 2.477613 0.046425 -0.020646 183870.000000 0 0 1
23.196837 -3.036147 -27.934896 36.437204 -0.130146 2.444417 0.048406 -0.026438 -597179.000000 0 0 1
24.445037 -2.641247 -28.447626 37.600578 -0.107631 2.428854 0.030851 -0.025898 -298106.000000 0 0 1
25.608337 -3.572347 -28.106506 38.190631 -0.138605 2.397869 0.040689 -0.020103 -364005.000000 0 0 1
25.437737 -4.787047 -28.815396 38.733982 -0.186011 2.409730 0.041797 -0.027407 364463.000000 0 0 1
26.567137 -5.635947 -28.721206 39.528273 -0.209041 2.384155 0.029697 -0.024209 11698.500000 0 0 1
26.560737 -6.694947 -27.555356 38.853477 -0.246918 2.359176 0.024224 -0.016051 -238460.000000 0 0 1
26.766437 -6.139347 -26.267896 38.001791 -0.225467 2.333983 0.016503 -0.007509 253849.000000 0 0 1
26.509137 -7.073147 -25.227306 37.271715 -0.260745 2.314269 -0.000867 -0.004774 -223238.000000 0 0 1
26.755137 -6.560147 -23.782806 36.393609 -0.240448 2.282980 -0.007240 0.006066 327362.000000 0 0 1
28.107637 -6.342747 -23.381406 37.107410 -0.221942 2.252479 -0.018930 0.008677 505494.000000 0 0 1
28.148937 -6.081547 -22.016406 36.250103 -0.212778 2.223514 -0.014778 0.000346 -87548.200000 0 0 1
29.510537 -5.542247 -21.532806 36.949290 -0.185643 2.192925 -0.009294 0.004385 -223410.000000 0 0 1
29.772837 -4.365147 -22.229206 37.411414 -0.145578 2.207045 -0.008195 0.004821 596674.000000 0 0 1
31.034837 -3.854747 -21.756506 38.096794 -0.123574 2.178623 -0.021965 0.011510 488063.000000 0 0 1
31.384037 -2.643647 -22.621506 38.777302 -0.084037 2.193668 -0.014415 0.003641 199935.000000 0 0 1
30.580237 -1.509147 -22.285606 37.869205 -0.049310 2.199985 -0.017919 -0.000860 571567.000000 0 0 1
31.143137 -0.364947 -22.922106 38.671063 -0.011718 2.205260 -0.005059 -0.001850 215271.000000 0 0 1
30.171337 0.830753 -22.865306 37.865841 0.027528 2.219119 -0.000241 -0.000599 459550.000000 0 0 1
29.033237 0.693353 -23.728606 37.502751 0.023877 2.255852 -0.001157 0.000409 918675.000000 0 0 1
28.030137 1.664253 -23.359306 36.525546 0.059304 2.264687 -0.001882 0.008246 642130.000000 0 0 1
26.776737 1.618753 -24.288106 36.187375 0.060380 2.306591 -0.007382 0.011402 698402.000000 0 0 1
25.850037 2.667553 -23.919306 35.319590 0.102829 2.314781 -0.006046 0.012830 -340252.000000 0 0 1
24.792237 2.792053 -24.767306 35.154943 0.112146 2.352541 0.003429 0.002422 -788233.000000 0 0 1
23.883637 4.024753 -24.475006 34.433308 0.166947 2.361423 0.004064 0.007428 -79659.500000 0 0 1
24.579837 5.281753 -24.505506 35.108192 0.211663 2.343397 -0.003526 0.013527 431496.000000 0 0 1
23.696337 6.303753 -24.053006 34.348228 0.260001 2.346571 -0.003473 0.005762 75402.400000 0 0 1
24.316137 7.618353 -23.468406 34.642170 0.303618 2.315089 0.003028 0.006306 4344.290000 0 0 1
25.097537 8.407853 -24.340206 35.958643 0.323256 2.314332 0.001569 0.007737 298179.000000 0 0 1
25.150937 9.695053 -23.807006 35.962998 0.367922 2.294262 0.008686 0.006924 -102838.000000 0 0 1
25.825737 10.814653 -24.712006 37.344460 0.396569 2.293922 0.027281 0.007688 293670.000000 0 0 1
25.180637 11.060453 -25.968266 37.825242 0.413874 2.327506 0.024610 0.001081 134915.000000 0 0 1
23.880437 11.588253 -25.935336 37.110707 0.451787 2.344604 0.023096 -0.006682 -131539.000000 0 0 1
23.312437 11.940953 -27.324076 37.850512 0.473371 2.377332 0.016967 -0.015337 -330908.000000 0 0 1
22.975837 10.892253 -28.209736 37.977882 0.442693 2.408030 0.015627 -0.010208 494921.000000 0 0 1
24.021237 10.025553 -28.724516 38.763764 0.395384 2.405376 0.013730 -0.011530 718536.000000 0 0 1
24.978937 10.691753 -29.768446 40.304110 0.404435 2.401781 0.009527 -0.009172 -754572.000000 0 0 1
26.011937 11.503853 -29.226926 40.782015 0.416393 2.369801 0.005738 -0.002637 1179670.000000 0 0 1
27.045237 11.840253 -30.194476 42.229644 0.412658 2.367430 0.009310 0.001409 765719.000000 0 0 1
28.004737 10.727053 -30.591006 42.838588 0.365804 2.366133 0.011447 0.000525 -1123290.000000 0 0 1
27.352837 9.837453 -31.474966 42.844214 0.345246 2.395929 0.003007 -0.002856 181518.000000 0 0 1
28.178037 8.781953 -31.944376 43.492156 0.302119 2.395705 0.004290 -0.003622 66213.700000 0 0 1
27.459737 7.820253 -32.965466 43.610956 0.277445 2.427822 0.005553 -0.003379 394742.000000 0 0 1
26.256937 7.300553 -32.419586 42.352738 0.271193 2.442562 0.012930 -0.005082 -82667.900000 0 0 1
25.921837 6.205053 -33.220826 42.591873 0.234954 2.465431 0.021633 -0.005851 -941497.000000 0 0 1
24.644837 5.426153 -32.879166 41.446962 0.216716 2.486978 0.030388 -0.010805 1006570.000000 0 0 1
23.375037 6.107453 -33.062236 40.948807 0.255568 2.510535 0.034021 -0.007486 1105260.000000 0 0 1
23.145437 7.106053 -32.085326 40.195465 0.297882 2.495151 0.032954 -0.004247 -1027230.000000 0 0 1
21.634837 7.397153 -32.055466 39.374319 0.329449 2.522010 0.030795 -0.007190 -210349.000000 0 0 1
21.200237 8.302853 -32.980706 40.076357 0.373278 2.537375 0.029374 0.000830 628244.000000 0 0 1
19.881537 8.766553 -32.587696 39.167409 0.415294 2.553518 0.014697 0.008881 927283.000000 0 0 1
19.408437 9.865853 -33.591436 40.030077 0.470288 2.566524 0.009832 0.012517 -323622.000000 0 0 1
18.980037 9.398353 34.197928 40.225230 0.459777 0.554505 0.017732 0.006792 -149184.000000 0 0 1
18.911237 10.426153 33.205297 39.609738 0.503857 0.576618 0.005696 0.015596 -26437.900000 0 0 1
17.936137 10.077553 32.048526 38.083725 0.511901 0.570691 -0.000403 0.013573 -57880.900000 0 0 1
18.260737 9.033853 31.105206 37.183314 0.459410 0.579865 -0.007057 0.003082 -619454.000000 0 0 1
19.263537 9.221653 30.172456 36.966199 0.446471 0.615963 0.004088 0.004593 -1161720.000000 0 0 1
18.998737 10.020553 28.894126 36.003250 0.485352 0.639252 0.014904 -0.003325 -551173.000000 0 0 1
17.994937 9.571853 28.027326 34.655002 0.488856 0.628768 0.008215 0.001995 -301767.000000 0 0 1
16.775337 10.172153 28.377586 34.498870 0.545094 0.604888 0.004584 -0.002251 137714.000000 0 0 1
15.494837 9.687553 27.583416 33.087513 0.558752 0.585112 0.019701 -0.004749 188775.000000 0 0 1
15.542237 10.000253 26.208736 32.069675 0.571739 0.614185 0.019680 -0.003106 483464.000000 0 0 1
14.399037 9.470853 25.525856 30.799329 0.581799 0.593873 0.036853 -0.000136 339003.000000 0 0 1
14.328737 7.983953 25.126466 30.006591 0.508353 0.578352 0.031334 -0.000214 -136493.000000 0 0 1
14.159737 7.061553 26.129576 30.546987 0.462612 0.544494 0.015201 -0.000017 -53121.600000 0 0 1
13.896537 5.818253 25.521056 29.635960 0.396509 0.533265 0.018594 -0.009978 -156184.000000 0 0 1
13.778137 4.673453 26.584366 30.305226 0.327015 0.500755 0.024341 -0.007704 -158.372000 0 0 1
14.948437 4.039553 27.079526 31.194142 0.263929 0.519442 0.018535 -0.009862 282288.000000 0 0 1
14.927037 4.132953 28.480566 32.419753 0.270110 0.498095 -0.003337 -0.007746 369740.000000 0 0 1
16.032937 3.176653 29.046246 33.329126 0.195600 0.512549 0.022732 -0.019668 196904.000000 0 0 1
15.854637 1.771753 29.031076 33.125700 0.111288 0.502479 0.006988 -0.011807 91781.800000 0 0 1
14.887637 1.260453 29.940366 33.461261 0.084463 0.462865 -0.003708 -0.009419 14010.100000 0 0 1
14.714637 -0.253347 29.771526 33.210367 -0.017216 0.459098 0.001000 -0.010568 -529488.000000 0 0 1
14.068137 -0.692547 28.585616 31.867374 -0.049188 0.457820 0.000408 -0.010130 130089.000000 0 0 1
14.876637 -0.840647 27.444026 31.228122 -0.056448 0.497404 0.011899 -0.000703 -941396.000000 0 0 1
16.035137 -1.888447 27.436926 31.835150 -0.117229 0.531902 0.020214 -0.005040 35306.100000 0 0 1
17.234837 -1.583047 28.082536 32.987490 -0.091595 0.552322 0.035222 -0.011455 -61234.200000 0 0 1
17.966637 -0.475347 27.557536 32.900514 -0.026451 0.577918 0.040645 -0.010729 -2117440.000000 0 0 1
19.401537 -0.468847 27.987246 34.057678 -0.024161 0.606303 0.065407 -0.016023 -1344180.000000 0 0 1
20.144837 -1.222547 27.074626 33.768987 -0.060613 0.640562 0.053259 -0.010847 -879002.000000 0 0 1
21.499037 -1.198447 27.413596 34.859003 -0.055687 0.665815 0.058744 -0.011736 -684859.000000 0 0 1
22.415837 -1.792647 26.365376 34.652798 -0.079802 0.706183 0.043009 0.003604 -423381.000000 0 0 1
22.513037 -1.165547 25.143836 33.769925 -0.051726 0.730916 0.043184 0.012250 47310.300000 0 0 1
21.674237 -1.848147 24.263146 32.586630 -0.085064 0.730900 0.038637 0.025061 -350659.000000 0 0 1
21.697737 -1.146347 22.943996 31.599571 -0.052783 0.758184 0.037079 0.010441 -19539.400000 0 0 1
21.212237 0.216753 23.118796 31.376499 0.010218 0.742443 0.033545 0.012115 348103.000000 0 0 1
21.083237 0.847853 21.820896 30.354131 0.040193 0.768610 0.026078 0.004429 -96939.200000 0 0 1
-29.521663 -28.000918 -10.449606 42.009216 0.758967 1.822181 -0.016292 0.013346 -99266.900000 0 0 1
-29.218983 -26.855718 -9.615706 40.834304 0.743278 1.808510 -0.005913 0.015552 325733.000000 0 0 1
-30.034623 -26.975418 -8.414106 41.237712 0.731789 1.776278 0.011209 0.005994 -69718.200000 0 0 1
-30.269473 -25.636018 -7.639206 40.395592 0.702707 1.761052 0.027602 0.004143 -322654.000000 0 0 1
-29.129563 -24.987618 -7.158406 39.040431 0.709010 1.755198 0.008876 0.001242 -768455.000000 0 0 1
-28.521563 -25.684618 -6.056306 38.856891 0.733110 1.727296 0.009959 0.003029 83648.000000 0 0 1
-27.331513 -24.864818 -5.478306 37.353482 0.738175 1.717988 0.004619 0.009981 -143831.000000 0 0 1
-27.503603 -23.721118 -4.682206 36.620522 0.711691 1.699005 0.010705 0.001368 -324745.000000 0 0 1
-28.147773 -22.631718 -5.311306 36.506188 0.677195 1.716805 0.019381 -0.002587 -40108.100000 0 0 1
-28.435463 -21.481018 -4.269106 35.891990 0.646968 1.690022 0.022814 -0.007959 -760548.000000 0 0 1
-27.339943 -20.653318 -4.088206 34.507180 0.646965 1.689549 0.020051 -0.011762 -484306.000000 0 0 1
-27.453333 -19.514118 -3.214006 33.835132 0.617945 1.665930 0.019182 -0.006194 -631211.000000 0 0 1
-26.243603 -18.585318 -3.245306 32.321398 0.616198 1.671373 0.010778 -0.005550 -265350.000000 0 0 1
-25.988753 -17.879018 -4.455106 31.857849 0.602594 1.711099 0.019701 -0.010106 56100.700000 0 0 1
-25.060863 -16.841518 -4.228106 30.488694 0.591703 1.709923 0.024720 -0.011648 -83344.300000 0 0 1
-25.211823 -15.755618 -5.358406 30.209072 0.558549 1.749117 0.020324 -0.022665 -690830.000000 0 0 1
-26.424523 -15.082718 -5.334906 30.890209 0.518661 1.744372 0.023394 -0.021650 -535353.000000 0 0 1
-26.477763 -14.082318 -6.327706 30.650016 0.488805 1.778742 0.031325 -0.035352 -1397590.000000 0 0 1
-27.776543 -13.382818 -6.299106 31.469269 0.448984 1.772325 0.031610 -0.027658 -827949.000000 0 0 1
-28.884943 -14.107318 -6.860906 32.869871 0.454322 1.781072 0.033013 -0.024654 1014300.000000 0 0 1
-30.058623 -13.280218 -6.750206 33.547732 0.416023 1.773391 0.028653 -0.020040 -401342.000000 0 0 1
-31.270653 -13.877018 -7.396206 35.001846 0.417662 1.783710 0.025511 -0.019297 -913360.000000 0 0 1
-31.827793 -14.955218 -6.655506 35.790539 0.439262 1.757842 0.029463 -0.021453 77119.800000 0 0 1
-31.871753 -16.090818 -7.496506 36.481785 0.467529 1.777757 0.030497 -0.023319 -249530.000000 0 0 1
-32.837183 -17.256618 -7.054006 37.760170 0.483855 1.758711 0.033044 -0.024307 1446480.000000 0 0 1
-34.247053 -16.982518 -6.875206 38.839864 0.460348 1.748748 0.054010 -0.019021 1204630.000000 0 0 1
-34.589470 -16.226718 -5.719306 38.632218 0.438642 1.719388 0.030285 -0.023581 132535.000000 0 0 1
34.423639 -16.260618 -5.607506 38.481667 -0.441298 1.717036 0.051682 -0.021483 456136.000000 0 0 1
33.725299 -15.137418 -6.174306 37.478784 -0.421893 1.736292 0.049913 -0.033726 401074.000000 0 0 1
32.335869 -15.415518 -6.224206 36.359144 -0.444860 1.742830 0.062808 -0.028985 484621.000000 0 0 1
31.425879 -14.867218 -5.073106 35.133409 -0.441887 1.715698 0.077449 -0.027461 -249680.000000 0 0 1
31.542559 -15.562218 -3.829506 35.380514 -0.458331 1.679247 0.071077 -0.031265 516279.000000 0 0 1
31.006339 -14.788718 -2.769806 34.464054 -0.445045 1.651251 0.070772 -0.030040 -836947.000000 0 0 1
30.976309 -15.560218 -1.376306 34.692165 -0.465507 1.610479 0.069775 -0.031143 1342030.000000 0 0 1
32.282369 -15.774218 -0.733406 35.937656 -0.454512 1.591205 0.077066 -0.027986 2499160.000000 0 0 1
33.296939 -16.607518 -1.368906 37.233985 -0.462663 1.607570 0.061919 -0.035802 141556.000000 0 0 1
32.815599 -17.989018 -1.911406 37.471613 -0.501449 1.621828 0.067310 -0.031101 -791116.000000 0 0 1
32.828059 -18.965718 -0.864806 37.922655 -0.523883 1.593603 0.072255 -0.030131 281270.000000 0 0 1
32.529349 -20.288018 -1.388206 38.362603 -0.557652 1.606991 0.055629 -0.025809 285339.000000 0 0 1
33.581529 -21.001518 -2.346006 39.677280 -0.558879 1.629958 0.047231 -0.022282 553018.000000 0 0 1
33.517509 -20.283418 -3.575906 39.339897 -0.544204 1.661820 0.047198 -0.027596 -234415.000000 0 0 1
34.426889 -20.813018 -4.500606 40.480215 -0.543764 1.682207 0.045464 -0.024563 -220117.000000 0 0 1
34.523979 -19.983018 -5.796406 40.309111 -0.524697 1.715095 0.052590 -0.026625 -52062.800000 0 0 1
33.404559 -20.066618 -6.657306 39.532941 -0.540945 1.740002 0.051112 -0.029346 134672.000000 0 0 1
33.520639 -19.185918 -7.749206 39.392675 -0.519849 1.768805 0.051453 -0.029430 -46007.800000 0 0 1
32.304019 -19.320118 -8.686106 38.629846 -0.539000 1.797590 0.051539 -0.034607 -35723.200000 0 0 1
32.324669 -20.492218 -9.476106 39.428565 -0.565009 1.813508 0.059848 -0.034564 265946.000000 0 0 1
31.118699 -20.727918 -10.181806 38.751634 -0.587605 1.836663 0.067202 -0.042814 -175712.000000 0 0 1
31.138139 -22.116818 -10.890606 39.715773 -0.617592 1.848568 0.054313 -0.029350 -167970.000000 0 0 1
30.914869 -23.084218 -9.919006 39.837130 -0.641388 1.822433 0.045645 -0.025159 -32025.000000 0 0 1
30.738209 -24.337218 -10.543206 40.599222 -0.669695 1.833497 0.028604 -0.017109 -467809.000000 0 0 1
30.100299 -25.347718 -9.588506 40.502768 -0.699895 1.809802 0.024968 -0.013687 27924.300000 0 0 1
28.719809 -25.066818 -9.474506 39.280263 -0.717586 1.814401 0.022496 -0.016527 101723.000000 0 0 1
27.995369 -26.049218 -8.704406 39.218224 -0.749404 1.794608 0.006140 -0.008532 595311.000000 0 0 1
26.500509 -25.651118 -8.576706 37.865772 -0.769113 1.799282 0.006999 -0.021965 261221.000000 0 0 1
25.880679 -25.448218 -9.838306 37.606031 -0.776973 1.835492 0.002209 -0.021029 -90425.700000 0 0 1
24.800239 -24.538518 -9.734306 36.220815 -0.780094 1.842890 0.012936 -0.023046 -304166.000000 0 0 1
24.036439 -24.333518 -11.028906 35.937546 -0.791540 1.882721 0.043040 -0.029183 -390567.000000 0 0 1
23.354139 -25.450118 -11.554106 36.422818 -0.828318 1.893595 0.035927 -0.020745 361860.000000 0 0 1
22.555839 -25.089118 -12.674506 36.039878 -0.838518 1.930162 0.053532 -0.010496 104129.000000 0 0 1
21.892039 -26.346818 -13.308006 36.749411 -0.877485 1.941347 0.056797 -0.012634 104439.000000 0 0 1
22.752739 -27.136618 -14.105706 38.118947 -0.873045 1.949853 0.043362 -0.011313 158422.000000 0 0 1
22.233339 -28.450918 -14.103006 38.764299 -0.907461 1.943156 0.056260 -0.006792 -330761.000000 0 0 1
23.106439 -29.516318 -14.724606 40.273249 -0.906609 1.945093 0.053906 -0.013483 -500068.000000 0 0 1
23.179539 -29.321918 -16.132406 40.710200 -0.901863 1.978252 0.058334 -0.011045 360118.000000 0 0 1
23.672239 -30.521018 -16.731706 42.093437 -0.911109 1.979576 0.056882 -0.010944 -256389.000000 0 0 1
23.472939 -30.551918 -18.246606 42.630238 -0.915688 2.013097 0.045939 -0.007305 414688.000000 0 0 1
22.086839 -30.641818 -18.568406 42.089608 -0.946242 2.027691 0.045648 -0.006042 365036.000000 0 0 1
21.896539 -30.567518 -19.973106 42.576478 -0.949192 2.059081 0.038269 -0.007867 614702.000000 0 0 1
20.405639 -30.511818 -20.460306 42.023627 -0.981333 2.079306 0.030297 -0.001190 632527.000000 0 0 1
20.342839 -30.260518 -21.838206 42.502203 -0.978934 2.110420 0.007573 0.004596 -556672.000000 0 0 1
19.070739 -30.460018 -22.351906 42.321548 -1.011413 2.127211 0.004370 0.007830 -1161850.000000 0 0 1
18.935239 -30.653818 -23.896306 43.234630 -1.017455 2.156412 0.004382 0.007966 -534629.000000 0 0 1
19.251039 -29.486718 -24.601006 42.956705 -0.992405 2.180584 0.006595 0.010595 282117.000000 0 0 1
19.281939 -29.750518 -25.997356 43.963041 -0.995743 2.203523 0.007393 0.004753 -416709.000000 0 0 1
19.929139 -28.621418 -26.869986 44.026722 -0.962557 2.227249 -0.001613 0.002340 250883.000000 0 0 1
19.169539 -27.415718 -27.073946 43.035931 -0.960596 2.251192 0.008066 -0.002352 -328654.000000 0 0 1
18.110139 -27.579418 -27.976496 43.258360 -0.989758 2.274086 0.018237 -0.003256 -240480.000000 0 0 1
17.338039 -26.280818 -28.322386 42.349103 -0.987617 2.303368 0.010538 -0.007776 -26210.900000 0 0 1
16.618939 -25.812418 -27.181146 41.003472 -0.998767 2.295480 0.007936 -0.000242 -75493.700000 0 0 1
16.096839 -24.502118 -27.377596 40.112277 -0.989546 2.322007 0.002988 0.012889 -722748.000000 0 0 1
15.116339 -24.161118 -26.281446 38.768257 -1.011732 2.315714 0.019635 0.008025 -1102230.000000 0 0 1
14.008039 -24.988518 -26.537306 39.049709 -1.059867 2.317983 0.042430 -0.004780 185754.000000 0 0 1
12.804939 -24.658518 -25.775746 37.899842 -1.091836 2.318698 0.039753 -0.004479 1311090.000000 0 0 1
12.789039 -24.747618 -24.229106 36.919557 -1.093816 2.286658 0.036767 -0.008072 -1043920.000000 0 0 1
13.735039 -23.906418 -23.686706 36.348702 -1.049313 2.280557 0.022292 -0.000324 -681585.000000 0 0 1
14.068639 -24.289418 -22.341406 35.875351 -1.045805 2.243050 0.025031 -0.001444 -261950.000000 0 0 1
15.282039 -23.511618 -21.872206 35.563047 -0.994436 2.233216 0.017164 -0.005242 -609920.000000 0 0 1
14.981339 -22.194318 -21.424206 34.293219 -0.977041 2.245590 0.011699 -0.013907 -668442.000000 0 0 1
16.034939 -21.458018 -20.911006 33.982877 -0.929045 2.233613 0.008734 -0.005899 -975797.000000 0 0 1
15.618639 -20.088318 -20.351806 32.583407 -0.909927 2.245424 0.009941 -0.001026 208075.000000 0 0 1
15.028939 -20.158518 -19.046206 31.543507 -0.930157 2.219065 0.016887 -0.007534 555186.000000 0 0 1
13.607239 -20.239118 -19.034406 30.936830 -0.978888 2.233521 0.010164 -0.006015 78090.900000 0 0 1
13.017839 -20.339118 -17.639006 29.904488 -1.001455 2.201663 0.012983 -0.007549 -414771.000000 0 0 1
13.054939 -19.147318 -16.905506 28.685316 -0.972379 2.201042 0.013105 -0.003579 -123221.000000 0 0 1
12.318139 -19.145718 -15.736706 27.675602 -0.999083 2.175615 0.009625 -0.003866 -306595.000000 0 0 1
12.593039 -17.899518 -14.891306 26.471274 -0.957698 2.168258 0.000849 -0.004484 -552684.000000 0 0 1
11.746239 -16.845918 -15.263406 25.587705 -0.961902 2.209946 -0.001478 -0.007311 14926.400000 0 0 1
12.137339 -15.550018 -14.794206 24.657384 -0.908037 2.214286 0.003297 -0.006536 469705.000000 0 1 0
10.879339 -14.618718 -14.677006 23.398321 -0.931014 2.248836 0.012164 -0.004774 196353.000000 0 1 0
10.177339 -14.382618 -15.834106 23.688749 -0.954979 2.302883 0.021720 0.011058 -824500.000000 0 1 0
8.988939 -13.799218 -15.385906 22.537647 -0.993431 2.322215 0.025257 0.002439 -422177.000000 0 1 0
8.072839 -13.138918 -16.443006 22.542722 -1.019840 2.388263 0.029910 0.001029 -202135.000000 0 1 0
8.444939 -11.927118 -17.081306 22.479861 -0.954691 2.433878 0.029362 0.003227 615647.000000 0 1 0
9.684039 -11.954118 -17.833506 23.552399 -0.889927 2.429788 0.032759 0.002090 922108.000000 0 1 0
9.690939 -10.812718 -18.817606 23.768287 -0.840055 2.484401 0.033740 -0.001599 -103393.000000 0 1 0
8.757739 -11.019718 -19.839006 24.325261 -0.899275 2.524514 0.033068 0.000362 -116527.000000 0 1 0
8.760539 -9.912618 -20.699206 24.565508 -0.847017 2.572913 0.020874 -0.002476 -80651.800000 0 1 0
8.556639 -10.251818 -22.153906 25.867188 -0.875284 2.599146 0.037129 0.002303 -40847.000000 0 0 1
9.636739 -11.003618 -22.656906 26.968161 -0.851525 2.568329 0.036447 -0.006228 -358308.000000 0 0 1
9.721139 -10.802718 -24.055606 28.104652 -0.838048 2.598142 0.019770 0.001323 -312143.000000 0 0 1
10.878939 -11.590118 -24.630106 29.314233 -0.817039 2.568466 0.045285 -0.001040 -368499.000000 0 0 1
10.590739 -12.990018 -24.855406 29.978251 -0.886797 2.548319 0.042705 -0.001382 -300092.000000 0 0 1
11.718339 -13.732218 -25.255026 31.043673 -0.864363 2.520997 0.026983 -0.011558 -273770.000000 0 0 1
11.658339 -15.210718 -24.842106 31.375357 -0.916847 2.484500 0.022873 -0.005835 -425516.000000 0 0 1
10.640339 -15.914818 -25.476126 31.867401 -0.981470 2.497161 0.031807 -0.007798 -513338.000000 0 0 1
10.575839 -17.287018 -25.132816 32.285412 -1.021761 2.463001 0.031888 -0.005056 223864.000000 0 0 1
9.385339 -18.123718 -25.680736 32.803261 -1.092972 2.470064 0.047469 -0.006832 212034.000000 0 0 1
9.473039 -18.553018 -27.030336 34.126119 -1.098710 2.484992 0.046534 -0.022822 -380713.000000 0 0 1
8.403339 -19.394718 -27.342146 34.559574 -1.161934 2.483499 0.047334 -0.020697 -483839.000000 0 0 1
8.650539 -20.345418 -28.457136 36.035766 -1.168770 2.481102 0.035052 -0.023932 -150849.000000 0 0 1
9.602939 -21.375418 -28.222096 36.682579 -1.148565 2.448634 0.031108 -0.022803 141801.000000 0 0 1
9.492639 -22.323918 -29.272666 38.017844 -1.168737 2.449593 0.030048 -0.025407 -236504.000000 0 0 1
10.322539 -23.614118 -29.184806 38.935001 -1.158693 2.418220 0.014947 -0.017383 -14901.400000 0 0 1
9.997439 -24.513018 -30.264546 40.209198 -1.183548 2.422915 0.017680 -0.018656 -87999.800000 0 0 1
10.600439 -25.794318 -30.158156 41.075912 -1.180877 2.395292 0.021464 -0.006405 -170063.000000 0 0 1
9.994639 -26.716918 -29.052666 40.715401 -1.212820 2.365355 0.025546 -0.006913 150382.000000 0 0 1
10.343539 -26.306818 -27.744426 39.607962 -1.196176 2.346861 0.031057 -0.018913 -374893.000000 0 0 1
9.639239 -26.991718 -26.722996 39.186557 -1.227794 2.321212 0.029758 -0.012718 394754.000000 0 0 1
8.657739 -26.110718 -25.910996 37.790286 -1.250626 2.326296 0.032310 -0.009832 93618.800000 0 0 1
9.396739 -25.043518 -25.359746 36.859099 -1.211836 2.329551 0.031070 -0.006630 522360.000000 0 0 1
8.476639 -23.973418 -25.049206 35.693709 -1.230931 2.348692 0.039377 -0.004504 748173.000000 0 0 1
9.185039 -22.564618 -25.009406 34.914142 -1.184223 2.369298 0.048724 -0.003501 502241.000000 0 0 1
9.895639 -22.306718 -23.797706 34.085835 -1.153263 2.343634 0.040314 0.000074 -301450.000000 0 0 1
10.877639 -21.349618 -23.983406 33.901814 -1.099577 2.356662 0.042498 -0.000605 -282596.000000 0 0 1
11.653439 -20.958118 -22.689906 33.013288 -1.063332 2.328556 0.028189 0.005814 721109.000000 0 0 1
10.838739 -20.293018 -21.649906 31.591190 -1.080233 2.325832 0.023041 0.002612 490947.000000 0 0 1
10.633739 -18.870218 -21.830206 30.752551 -1.057633 2.360105 0.023293 0.001825 178410.000000 0 0 1
11.776639 -17.934918 -21.356506 30.272939 -0.989773 2.353876 0.026809 -0.001786 1261210.000000 0 0 1
13.037039 -18.047118 -22.069306 31.348319 -0.945202 2.351814 0.026826 -0.000750 729236.000000 0 0 1
13.791639 -16.883318 -21.971806 30.951833 -0.885847 2.360111 0.025950 -0.004346 -176465.000000 0 0 1
15.090639 -16.852718 -22.775306 32.100717 -0.840505 2.359578 0.005154 0.008508 -24780.700000 0 0 1
16.298639 -17.309718 -22.187406 32.520039 -0.815473 2.321658 0.009747 0.007954 295446.000000 0 0 1
17.362739 -16.939418 -23.049306 33.461606 -0.773058 2.330668 0.006596 0.008999 120673.000000 0 0 1
18.733639 -17.404218 -22.480806 34.047653 -0.748627 2.291981 0.004779 0.002531 47538.000000 0 0 1
18.942539 -18.771218 -22.348506 34.794168 -0.780856 2.268300 0.003628 0.006135 -244481.000000 0 0 1
20.178939 -19.004418 -21.728506 35.220526 -0.755432 2.235629 0.008957 0.000819 -95650.300000 0 0 1
20.407739 -20.565918 -21.538806 36.101980 -0.789259 2.210067 -0.007236 0.004243 10835.700000 0 0 1
19.520739 -21.061218 -20.556706 35.315893 -0.823340 2.192082 0.000483 0.005447 312652.000000 0 0 1
19.784039 -22.454718 -20.382406 36.208632 -0.848542 2.168706 0.002354 0.009997 68999.900000 0 0 1
-15.793563 13.041753 28.877536 35.403899 -0.690254 0.616928 -0.013393 0.000312 125226.000000 0 0 1
-16.864963 13.880453 28.442566 35.861867 -0.688630 0.654891 0.006693 -0.006434 117254.000000 0 0 1
-17.294363 13.518953 27.170716 34.930000 -0.663481 0.679540 0.002227 -0.004750 -561334.000000 0 0 1
-18.576263 14.206753 26.736566 35.521168 -0.652893 0.718652 0.014750 -0.005900 -497018.000000 0 0 1
-18.481063 15.646953 26.817856 36.132731 -0.702545 0.734443 0.018459 -0.008104 -410565.000000 0 0 1
-19.348263 16.207553 25.908716 36.170453 -0.697295 0.772318 0.039389 -0.009820 -706031.000000 0 0 1
-19.321563 17.757553 26.134706 37.036150 -0.743243 0.787451 0.054246 -0.008157 321440.000000 0 0 1
-18.170763 18.500753 25.741926 36.539038 -0.794396 0.789071 0.016037 -0.009524 248514.000000 0 0 1
-17.130863 18.547653 26.694086 36.743110 -0.825087 0.757573 0.014663 0.000914 -129889.000000 0 0 1
-15.980763 19.514253 26.336576 36.466507 -0.884620 0.763800 0.014716 -0.005111 17327.300000 0 0 1
-16.267763 20.913153 26.377936 37.387105 -0.909694 0.787618 0.028554 -0.005404 -166904.000000 0 0 1
-15.141763 21.610153 25.914576 36.984280 -0.959615 0.794430 0.035465 -0.017138 -170196.000000 0 0 1
-15.183563 23.140553 25.899236 37.905095 -0.990113 0.818571 0.027057 -0.012756 -220900.000000 0 0 1
-15.107763 23.831153 27.171996 39.172513 -1.005787 0.804253 0.018004 -0.005443 160688.000000 0 0 1
-15.390163 25.204753 26.972126 39.995404 -1.022615 0.830671 0.015013 -0.006281 -997847.000000 0 0 1
-14.849763 26.159753 27.989646 41.088544 -1.054498 0.821391 0.003431 0.004211 -353442.000000 0 0 1
-13.452263 26.261353 27.822486 40.555059 -1.097400 0.814761 -0.001956 0.001791 -113824.000000 0 0 1
-12.817063 26.835853 28.959716 41.510304 -1.125221 0.798682 0.010016 0.005203 -843826.000000 0 0 1
-11.321263 26.956653 28.893896 41.105832 -1.173185 0.791309 0.018061 0.000550 -962399.000000 0 0 1
-10.845563 27.700753 27.761786 40.689983 -1.197616 0.819925 0.017961 -0.000263 1017940.000000 0 0 1
-9.403063 27.741853 27.822146 40.399256 -1.244001 0.811130 0.004268 0.007919 633848.000000 0 0 1
-8.767563 28.511253 26.664416 40.009409 -1.272462 0.841354 0.006989 -0.003670 908567.000000 0 0 1
-7.324363 28.367353 26.730226 39.659274 -1.318118 0.831190 -0.007187 0.004162 1465530.000000 0 0 1
-6.731563 28.950353 25.527996 39.180550 -1.342335 0.861174 0.007547 -0.004125 241744.000000 0 0 1
-5.202163 28.717553 25.516606 38.766707 -1.391590 0.852359 0.003125 0.000202 -137581.000000 0 0 1
-4.436963 29.615653 26.324376 39.871623 -1.422084 0.849674 0.011956 0.003962 89971.900000 0 0 1
-3.045363 29.456353 26.263726 39.581995 -1.467777 0.845273 0.011587 0.004234 -8543.030000 0 0 1
-2.398663 30.260453 25.080596 39.376198 -1.491694 0.880263 0.007744 0.002880 -822259.000000 0 0 1
-2.779363 29.795853 23.851696 38.267756 -1.477785 0.897861 0.011304 0.006020 -126402.000000 0 0 1
-2.440463 30.730453 22.843596 38.368562 -1.491548 0.933067 0.008260 0.007451 -476152.000000 0 0 1
-2.838963 30.237753 21.464296 37.190018 -1.477183 0.955559 0.005778 0.002572 241422.000000 0 0 1
-4.249463 30.145653 21.408596 37.217554 -1.430755 0.957913 0.001373 0.006219 76962.100000 0 0 1
-4.747563 28.842153 21.687696 36.397326 -1.407654 0.932461 0.015434 0.009334 349110.000000 0 0 1
-6.285963 28.644553 21.441496 36.328522 -1.354773 0.939476 0.006258 0.001367 -38660.800000 0 0 1
-6.617263 28.853953 20.054196 35.756252 -1.345358 0.975374 0.007863 -0.000294 234349.000000 0 0 1
-7.490663 27.906253 19.492396 34.854304 -1.308555 0.977311 0.000895 -0.005731 -1305990.000000 0 0 1
-6.854963 26.587253 19.104096 33.449052 -1.318463 0.962902 -0.004427 -0.007815 -17136.500000 0 0 1
-5.835963 26.590253 18.125396 32.705199 -1.354744 0.983388 0.005857 -0.006975 522418.000000 0 0 1
-4.557963 27.025353 18.565796 33.103377 -1.403714 0.975393 0.015017 -0.006511 -706070.000000 0 0 1
-3.602163 27.400653 17.459196 32.689370 -1.440083 1.007361 0.016138 -0.010062 -431158.000000 0 0 1
-3.200163 26.293753 16.666596 31.295015 -1.449684 1.009169 0.028882 -0.015429 32358.900000 0 0 1
-2.387863 26.765353 15.601496 31.072379 -1.481817 1.044769 0.027415 -0.018667 28762.100000 0 0 1
-1.901363 25.606553 14.679796 29.577139 -1.496679 1.051439 0.027881 -0.023008 -430685.000000 0 0 1
-0.957363 24.868053 15.373696 29.252131 -1.532318 1.017425 0.023448 -0.025046 -604149.000000 0 0 1
-0.394063 23.849453 14.591796 27.961978 -1.554275 1.021785 0.019867 -0.029704 695084.000000 0 0 1
0.956637 23.272353 15.207496 27.817001 1.529713 0.992381 0.012159 -0.028328 1108880.000000 0 0 1
1.991437 24.243853 15.252596 28.711878 1.488838 1.010745 0.020677 -0.031873 234910.000000 0 0 1
3.184037 23.671353 15.773596 28.623022 1.437089 0.987137 0.020209 -0.023482 -34629.800000 0 0 1
4.411637 24.592453 15.628296 29.470238 1.393294 1.011833 0.024772 -0.027434 -825862.000000 0 0 1
5.562037 23.823053 15.630096 29.030571 1.341432 1.002258 0.020852 -0.017662 -626133.000000 0 0 1
6.702937 24.670353 15.669596 29.984862 1.305501 1.020918 0.019623 -0.013996 783016.000000 0 0 1
8.092437 23.927853 15.715296 29.748954 1.244671 1.014242 0.020112 -0.005807 721986.000000 0 0 1
8.665937 23.361353 14.532796 28.845337 1.215579 1.042783 0.027243 -0.007703 252124.000000 0 0 1
9.399937 24.342753 13.786696 29.512734 1.202287 1.084738 0.023555 -0.005865 -19523.900000 0 0 1
10.180437 23.693053 12.593496 28.698401 1.164968 1.116509 0.027620 0.001592 -181261.000000 0 0 1
11.047037 22.636553 12.956896 28.325461 1.116780 1.095694 0.020641 0.001811 -200632.000000 0 0 1
11.521537 22.054353 11.811196 27.543505 1.089378 1.127611 0.037408 -0.001035 -437817.000000 0 0 1
12.573337 20.975653 12.024496 27.251704 1.030800 1.113818 0.018249 0.003038 -298899.000000 0 0 1
12.080337 19.727353 12.514796 26.300630 1.021335 1.074882 0.017835 0.002955 784828.000000 0 0 1
13.143737 18.779653 12.827996 26.267674 0.960143 1.060591 0.024014 -0.000757 406875.000000 0 0 1
13.803637 18.956453 14.191496 27.409598 0.941409 1.026570 0.018225 0.005143 -727624.000000 0 0 1
14.921837 18.159453 14.400196 27.564336 0.882956 1.021108 0.019971 -0.001585 -251572.000000 0 0 1
15.236737 18.054753 15.807296 28.425392 0.869844 0.981113 0.020183 -0.005767 -172010.000000 0 0 1
16.627737 17.411953 15.968396 28.890265 0.808432 0.985165 0.016954 -0.007055 -200086.000000 0 0 1
16.959437 17.276353 17.329296 29.772460 0.794655 0.949539 0.020216 -0.016002 343040.000000 0 0 1
18.172637 16.537753 17.396796 30.106321 0.738332 0.954710 0.025791 -0.020155 129042.000000 0 0 1
18.649837 16.115353 18.800396 30.999612 0.712624 0.919180 0.019827 -0.023857 -187440.000000 0 0 1
19.090237 17.212153 19.665696 32.364100 0.733710 0.917712 0.020678 -0.013723 -164084.000000 0 0 1
18.088237 17.911153 20.325496 32.574830 0.780479 0.896992 0.022414 -0.012944 -670946.000000 0 0 1
18.551137 18.920953 21.403696 34.062668 0.795267 0.891350 0.019290 -0.018661 -366977.000000 0 0 1
17.494237 19.733853 21.819896 34.228368 0.845485 0.879573 0.030757 -0.020375 -50205.600000 0 0 1
17.982537 20.942053 22.331096 35.505198 0.861284 0.890591 0.034527 -0.014188 211443.000000 0 0 1
16.812837 21.915053 22.651996 35.721898 0.916389 0.883925 0.049140 -0.020441 283816.000000 0 0 1
16.131037 21.412853 23.795796 35.846347 0.925165 0.844871 0.051556 -0.024356 -73592.300000 0 0 1
15.281637 22.374953 24.359386 36.435514 0.971585 0.838523 0.056387 -0.030635 -302596.000000 0 0 1
14.615937 22.068553 25.665056 36.869252 0.985825 0.800831 0.053036 -0.027144 -437629.000000 0 0 1
13.693437 21.052353 25.443696 35.750433 0.994107 0.778877 0.041784 -0.027669 -734927.000000 0 0 1
12.811737 20.841653 26.496296 36.063400 1.019625 0.745551 0.032477 -0.031221 -786998.000000 0 0 1
11.959137 19.600653 26.294726 34.908727 1.022955 0.717819 0.026871 -0.028561 -598114.000000 0 0 1
12.596837 18.324953 26.330536 34.464204 0.968567 0.701311 0.033860 -0.027595 -175017.000000 0 0 1
13.331737 17.948453 25.197876 33.687018 0.931933 0.725753 0.046936 -0.029348 -786551.000000 0 0 1
12.596337 17.664953 23.905296 32.282836 0.951353 0.736989 0.051055 -0.025456 -981220.000000 0 0 1
12.150237 18.840053 23.226396 32.280665 0.998004 0.767694 0.045947 -0.022914 136943.000000 0 0 1
13.070337 19.644353 22.458096 32.574536 0.983707 0.810085 0.047487 -0.021577 -13338.600000 0 0 1
13.911437 18.913353 21.385396 31.758120 0.936617 0.832020 0.052218 -0.019590 -20425.300000 0 0 1
13.134837 18.276453 20.364896 30.352622 0.947646 0.835316 0.038844 -0.018700 140446.000000 0 0 1
13.919737 17.478753 19.508996 29.662549 0.898266 0.853038 0.038132 -0.019579 -193498.000000 0 0 1
13.021737 16.513753 18.728496 28.160722 0.903083 0.843226 0.035863 -0.012876 -26674.000000 0 0 1
12.269337 17.241453 17.763996 27.629041 0.952315 0.872457 0.031893 -0.006585 -331910.000000 0 0 1
11.457237 16.342853 17.112796 26.290776 0.959363 0.862020 0.026610 -0.011166 -465899.000000 0 0 1
10.933037 16.902453 15.748396 25.558486 0.996652 0.906925 0.023504 -0.001884 -67325.300000 0 0 1
10.033137 17.980653 15.859496 25.990216 1.061835 0.914470 0.027586 -0.008964 222127.000000 0 0 1
9.785437 18.434153 14.560496 25.447610 1.082788 0.961640 0.020978 -0.006855 -397732.000000 0 0 1
8.945937 19.765453 14.558496 26.127624 1.145778 0.979778 0.025554 -0.008890 566944.000000 0 0 1
7.617837 19.511453 15.006296 25.766590 1.198568 0.949126 0.025062 -0.014030 307031.000000 0 0 1
6.799537 20.663553 14.783696 26.301593 1.252897 0.973893 0.024929 -0.013285 421403.000000 0 0 1
5.453837 20.586153 15.555696 26.372594 1.311818 0.939932 0.022718 -0.012208 -498627.000000 0 0 1
4.367737 20.176753 14.812096 25.408201 1.357612 0.948423 0.017972 -0.011968 -1030860.000000 0 0 1
3.383737 19.698553 15.700196 25.416114 1.400681 0.904949 0.007461 -0.008011 473736.000000 0 0 1
2.170037 19.081953 14.921096 24.320138 1.457561 0.910275 -0.002177 -0.009252 561087.000000 0 1 0
1.400537 20.023153 14.149496 24.558021 1.500964 0.956766 0.004601 -0.018403 559474.000000 0 1 0
0.458137 19.301153 13.328296 23.460347 1.547065 0.966577 0.001578 -0.019319 159900.000000 0 1 0
-0.314163 20.232953 12.388196 23.726325 -1.555270 1.021451 0.003144 -0.021517 266675.000000 0 1 0
-1.413663 20.880453 13.026496 24.651194 -1.503197 1.014043 0.007272 -0.018073 -308410.000000 0 1 0
-2.516063 20.991553 12.194696 24.406690 -1.451505 1.047607 0.010648 -0.021758 -775844.000000 0 1 0
-3.670163 21.733153 12.850696 25.513535 -1.403501 1.042941 0.013226 -0.016517 -316956.000000 0 0 1
-4.405863 20.954053 13.752596 25.448338 -1.363552 0.999869 0.010194 -0.021405 -476366.000000 0 0 1
-5.508963 21.596253 14.302196 26.482063 -1.321034 1.000275 0.015049 -0.014249 -666896.000000 0 0 1
-6.165463 20.787053 15.462596 26.630930 -1.282461 0.951300 -0.000473 -0.002972 -616725.000000 0 0 1
-6.916963 19.708753 14.939296 25.679990 -1.233267 0.949920 0.003471 -0.008344 121971.000000 0 0 1
-7.634163 18.929053 15.899996 25.872754 -1.187445 0.908986 0.005300 0.001148 487178.000000 0 0 1
-8.829563 19.591453 16.673596 27.199174 -1.147373 0.910921 0.000972 0.008800 133362.000000 0 0 1
-9.982363 19.859453 15.900496 27.328945 -1.105031 0.949833 -0.004671 -0.000450 538758.000000 0 0 1
-11.151263 19.396053 16.602096 27.860136 -1.049019 0.932400 -0.003333 -0.002563 510792.000000 0 0 1
-12.439463 19.538353 15.759096 28.014935 -1.003850 0.973360 0.002665 -0.004491 -103370.000000 0 0 1
-13.030163 20.855653 15.677996 29.164070 -1.012356 1.003233 -0.004362 0.005352 159986.000000 0 0 1
-13.979663 20.741253 14.640296 28.982216 -0.977732 1.041243 0.000262 -0.001030 -424916.000000 0 0 1
-14.939463 21.934253 14.491396 30.237387 -0.972867 1.070992 -0.001665 0.001254 -479479.000000 0 0 1
-15.901763 21.918653 15.512996 31.208116 -0.943167 1.050564 -0.009069 -0.001289 -57740.300000 0 0 1
-16.767463 23.047453 15.322796 32.359249 -0.941839 1.077512 0.000305 -0.002797 760953.000000 0 0 1
-18.176863 22.973053 15.998596 33.378356 -0.901429 1.070927 0.036911 -0.012374 64130.100000 0 0 1
-18.921963 21.891353 15.433196 32.794140 -0.858026 1.080816 0.033557 -0.019741 1174240.000000 0 0 1
-20.109363 21.493353 16.188296 33.591839 -0.818653 1.067961 0.038909 -0.017001 980525.000000 0 0 1
-21.302263 22.448553 16.186296 34.924492 -0.811593 1.088894 0.029502 -0.013045 -1191160.000000 0 0 1
-21.911663 22.570653 14.936696 34.823272 -0.800212 1.127490 0.032911 -0.012725 -277047.000000 0 0 1
-22.825863 23.601553 14.880696 36.048418 -0.802104 1.145273 0.047240 -0.018485 -620285.000000 0 0 1
-22.287063 24.782353 14.048196 36.169463 -0.838362 1.171902 0.036856 -0.010500 753269.000000 0 0 1
-21.244063 25.529853 14.729196 36.332256 -0.876771 1.153377 0.023843 -0.002680 610281.000000 0 0 1
-20.878963 26.667053 14.042296 36.664000 -0.906539 1.177755 0.023515 0.005279 -344106.000000 0 0 1
-19.414163 27.124553 14.209196 36.256756 -0.949584 1.168095 0.011518 0.009439 130180.000000 0 0 1
-18.537363 26.494553 13.305096 34.965995 -0.960294 1.180443 0.002916 0.015210 516493.000000 0 0 1
-17.173963 26.916753 13.480596 34.658089 -1.002875 1.171294 -0.007622 0.017458 917230.000000 0 0 1
-16.134863 26.174153 12.620796 33.237097 -1.018374 1.181303 -0.007820 0.016590 346114.000000 0 0 1
-14.800263 26.531653 12.930596 33.017825 -1.061958 1.168400 -0.013649 0.023205 35430.800000 0 0 1
-13.845463 26.007353 12.042596 31.829285 -1.081591 1.182784 -0.011415 0.019508 -914707.000000 0 0 1
-12.520463 26.690953 12.240396 31.921721 -1.132181 1.177267 -0.008012 0.019863 -610260.000000 0 0 1
-11.416863 25.843153 11.802896 30.618976 -1.154803 1.175072 -0.003263 0.019123 1088910.000000 0 0 1
-10.139963 26.382353 12.093296 30.742401 -1.203857 1.166497 0.012315 0.013031 255249.000000 0 0 1
-9.577463 27.571653 11.281796 31.292216 -1.236470 1.201960 0.008486 0.010654 -571459.000000 0 0 1
-8.537563 28.289653 11.905896 31.858199 -1.277697 1.187785 0.032799 -0.004620 5787.330000 0 0 1
-8.102563 29.345853 11.072896 32.395056 -1.301402 1.221956 0.031697 -0.004217 34453.900000 0 0 1
-6.837363 30.029453 11.664896 32.933075 -1.346924 1.208738 0.028354 -0.006287 885015.000000 0 0 1
-5.623263 29.388553 11.275196 31.975588 -1.381740 1.210428 0.051239 -0.010037 639196.000000 0 0 1
-4.445263 29.868153 11.917596 32.463765 -1.423051 1.194902 0.051151 -0.016112 1140660.000000 0 0 1
-3.110063 29.438553 11.204096 31.651741 -1.465541 1.208973 0.051421 -0.018451 485453.000000 0 0 1
-2.896663 30.203253 10.066196 31.968038 -1.475183 1.250463 0.064480 -0.023351 -828431.000000 0 0 1
-1.715163 29.858853 9.472196 31.372208 -1.513417 1.264080 0.046779 -0.022187 -874685.000000 0 0 1
-1.591563 30.654853 8.146296 31.758704 -1.518924 1.311391 0.052800 -0.023949 607647.000000 0 0 1
-2.466263 30.226753 7.060396 31.138212 -1.489385 1.342063 0.058151 -0.018932 709905.000000 0 0 1
-2.135063 30.884353 5.865796 31.508877 -1.501775 1.383541 0.052843 -0.016067 -30473.000000 0 0 1
10.952337 -34.121118 -27.339626 45.073934 -1.260201 2.222511 0.074939 -0.024591 85583.200000 0 0 1
11.185837 -33.887218 -25.952386 44.124742 -1.251967 2.199578 0.061811 -0.022608 -653012.000000 0 0 1
12.345437 -33.190718 -25.685516 43.746763 -1.214698 2.198319 0.054904 -0.018683 -570344.000000 0 0 1
12.898937 -33.385618 -24.207406 43.208570 -1.202102 2.165478 0.036661 -0.006492 -85580.700000 0 0 1
12.318637 -32.377218 -23.348406 41.775365 -1.207237 2.163859 0.033339 -0.011857 583495.000000 0 0 1
12.892537 -32.288018 -22.032506 41.160235 -1.190895 2.135643 0.006301 -0.001141 1748740.000000 0 0 1
14.468437 -32.006518 -21.877306 41.380785 -1.146242 2.127844 -0.012714 0.013005 1619350.000000 0 0 1
15.215137 -33.193118 -22.004306 42.631830 -1.140994 2.113143 0.002978 0.009370 951609.000000 0 0 1
16.629237 -32.929118 -21.901606 42.901500 -1.103156 2.106573 -0.000189 0.000930 1116160.000000 0 0 1
17.645637 -34.104818 -22.101406 44.305522 -1.093330 2.093057 -0.009396 0.013000 316993.000000 0 0 1
18.986137 -33.792918 -21.804206 44.473117 -1.058910 2.083205 -0.001579 0.010443 590120.000000 0 0 1
19.792237 34.141553 -21.760806 45.065630 1.045429 2.074725 -0.003435 0.009693 1048270.000000 0 0 1
21.307237 34.251353 -21.375906 45.651757 1.014296 2.058092 0.014846 0.004244 569198.000000 0 0 1
22.057037 -34.415918 -22.468406 46.645445 -1.000847 2.073373 0.006418 0.005112 -457274.000000 0 0 1
23.418337 -34.340418 -22.119106 47.084367 -0.972290 2.059833 0.014615 0.001186 -5103.260000 0 0 1
24.330337 -33.823018 -23.251706 47.713768 -0.947206 2.079810 0.017295 -0.002877 -25172.500000 0 0 1
24.225237 -32.405718 -23.523006 46.800902 -0.928858 2.097422 0.011410 -0.000408 146074.000000 0 0 1
22.940637 -31.981318 -23.967306 46.081550 -0.948545 2.117772 0.000029 0.001448 227303.000000 0 0 1
22.782137 -30.458818 -23.942706 44.944616 -0.928599 2.132603 -0.003616 0.002555 -447769.000000 0 0 1
23.532137 -29.736418 -24.869606 45.348796 -0.901347 2.151255 -0.012633 -0.001855 -219243.000000 0 0 1
23.384537 -28.342718 -24.618206 44.228976 -0.880959 2.161094 -0.009140 0.007131 329338.000000 0 0 1
23.942237 -27.460418 -25.776356 44.628755 -0.853735 2.186549 -0.023739 0.009488 338897.000000 0 0 1
23.063837 -27.419818 -26.881506 44.792883 -0.871470 2.214459 -0.025709 0.003647 -199859.000000 0 0 1
23.793437 -26.980618 -28.049906 45.616648 -0.848088 2.233062 -0.023494 0.005282 5831.530000 0 0 1
22.914037 -26.416318 -29.223136 45.572652 -0.856276 2.266913 -0.016069 0.002615 439188.000000 0 0 1
22.357437 -25.138218 -29.015756 44.426333 -0.843880 2.282495 -0.006061 0.001222 -265047.000000 0 0 1
21.166737 -25.144118 -28.251076 43.340290 -0.871072 2.280809 -0.014680 0.004188 -256434.000000 0 0 1
20.603637 -23.693218 -27.994496 42.066260 -0.855033 2.298941 -0.018628 0.009658 -34629.200000 0 0 1
20.028537 -23.177318 -29.159556 42.291962 -0.858148 2.331570 -0.010442 0.009388 51272.700000 0 0 1
19.432737 -21.909418 -28.793886 41.069961 -0.845234 2.347726 -0.020009 0.023161 -287544.000000 0 0 1
18.416837 -21.326418 -29.771046 40.991599 -0.858477 2.383679 -0.006725 0.012771 -586846.000000 0 0 1
17.303937 -22.179018 -29.856276 41.021120 -0.908249 2.385944 0.002149 0.004219 -805041.000000 0 0 1
16.261237 -21.411018 -30.411866 40.592378 -0.921256 2.417652 -0.000336 0.000514 -482120.000000 0 0 1
14.966637 -22.222318 -30.187746 40.362503 -0.978081 2.415713 0.008526 -0.004486 -564098.000000 0 0 1
14.981337 -23.391118 -31.016906 41.636923 -1.001149 2.411238 0.006331 -0.005502 54886.600000 0 0 1
14.193937 -24.470318 -30.550206 41.636275 -1.045177 2.394607 0.014458 -0.007185 -160018.000000 0 0 1
14.502237 -25.769018 -31.257956 43.028095 -1.058196 2.383945 0.019992 -0.008255 140801.000000 0 0 1
13.630737 -26.837718 -30.899926 43.137751 -1.100853 2.369293 0.027058 -0.011281 152349.000000 0 0 1
14.128837 -28.134018 -31.270386 44.373236 -1.105392 2.352815 0.047183 -0.015549 610367.000000 0 0 1
13.419837 -29.258318 -30.405116 44.278802 -1.140758 2.327701 0.045543 -0.029347 389759.000000 0 0 1
13.980937 -29.398418 -29.108426 43.669601 -1.126885 2.300381 0.060689 -0.035101 22589.000000 0 0 1
13.611937 -28.364218 -28.233806 42.272467 -1.123359 2.302181 0.052345 -0.028906 -139723.000000 0 0 1
14.418137 -28.411718 -26.923206 41.712917 -1.101189 2.272396 0.043225 -0.016959 -163242.000000 0 0 1
14.241237 -29.518118 -26.037986 41.858199 -1.121281 2.242157 0.050053 -0.019777 574578.000000 0 0 1
15.081937 -29.419618 -24.821906 41.341332 -1.097081 2.214815 0.046995 -0.014192 -336578.000000 0 0 1
14.692437 -28.399918 -23.714006 39.809259 -1.093372 2.208922 0.034541 -0.010406 453551.000000 0 0 1
13.566937 -28.660218 -22.885906 39.105429 -1.128677 2.195967 0.035013 -0.014417 -499161.000000 0 0 1
12.351537 -28.740918 -23.561106 39.162821 -1.164906 2.216323 0.038448 -0.017427 -1079400.000000 0 0 1
11.205237 -28.490218 -22.522606 38.006810 -1.196078 2.205072 0.026853 -0.010613 35775.000000 0 0 1
11.141337 -27.154118 -22.099606 36.740551 -1.181442 2.216179 0.018129 -0.008162 -821303.000000 0 0 1
9.847637 -26.803318 -21.769206 35.906714 -1.218702 2.222160 0.022993 -0.005213 -1065510.000000 0 0 1
9.628537 -25.291218 -21.549506 34.593867 -1.207032 2.243277 0.025702 -0.002027 -122969.000000 0 0 1
10.305837 -24.820018 -20.417506 33.750824 -1.177236 2.220497 0.019630 -0.004203 -114493.000000 0 0 1
10.164237 -23.420718 -20.397006 32.678427 -1.161340 2.244869 0.014297 -0.001473 42310.900000 0 0 1
10.580737 -22.751618 -19.033906 31.494090 -1.135494 2.219764 0.010579 -0.009067 -18110.700000 0 0 1
9.797137 -23.176518 -17.935906 30.900349 -1.170860 2.190070 0.009466 -0.008576 102927.000000 0 0 1
9.952337 -22.247318 -16.873506 29.642999 -1.150148 2.176358 0.007453 -0.009490 121073.000000 0 0 1
9.113837 -22.491518 -15.556206 28.825786 -1.185805 2.140833 -0.002100 -0.003858 599837.000000 0 0 1
9.591637 -23.717418 -15.043706 29.678755 -1.186491 2.102363 0.005047 -0.005618 206898.000000 0 0 1
8.888437 -23.906618 -13.849706 29.023181 -1.214836 2.068256 0.013203 0.000435 17200.600000 0 0 1
8.696937 -25.408518 -13.598006 30.102081 -1.241012 2.039500 0.019225 0.002739 -121487.000000 0 0 1
9.885937 -26.018918 -13.151106 30.784207 -1.207691 2.012193 0.021962 0.000228 -133008.000000 0 0 1
9.879237 -27.428118 -13.359306 32.068240 -1.225076 2.000487 0.015529 -0.008074 288649.000000 0 0 1
11.218037 -28.108818 -12.881106 32.891836 -1.191072 1.973188 0.028019 -0.008655 810701.000000 0 0 1
12.472737 -27.792018 -13.442006 33.296440 -1.148950 1.986361 0.022155 -0.001034 -14634.600000 0 0 1
12.621037 -27.901318 -14.821406 34.021290 -1.145994 2.021558 0.019044 -0.005293 -966317.000000 0 0 1
14.034637 -27.425918 -15.185806 34.347645 -1.097810 2.028758 -0.000630 0.000222 -146457.000000 0 0 1
15.067437 -28.356918 -14.995706 35.440283 -1.082385 2.007689 0.028206 0.001603 -175135.000000 0 0 1
16.195537 -28.005818 -15.764106 35.987891 -1.046492 2.024213 0.037901 0.001248 671946.000000 0 0 1
17.569637 -28.657418 -15.419606 36.982482 -1.020806 2.000876 0.024683 -0.002169 762997.000000 0 0 1
17.624737 -29.979318 -15.975006 38.269984 -1.039324 2.001411 0.017339 0.003015 -1509950.000000 0 0 1
18.892137 -30.452218 -15.833306 39.178361 -1.015522 1.986828 0.028302 0.009558 -1091540.000000 0 0 1
19.177537 -31.540618 -16.847006 40.575979 -1.024496 1.998955 0.022664 -0.000044 36181.400000 0 0 1
18.713637 -32.831118 -16.514006 41.240695 -1.052730 1.982782 0.004354 0.015646 -213425.000000 0 0 1
19.014237 -33.703118 -17.569206 42.498451 -1.057140 1.996990 0.007614 0.004027 -198598.000000 0 0 1
19.027337 33.917253 -17.206306 42.526187 1.059552 1.987343 -0.006584 0.005821 5915.750000 0 0 1
20.102837 33.440853 -16.431406 42.336814 1.029535 1.969378 0.020748 -0.004186 127302.000000 0 0 1
19.760637 32.091153 -16.159406 41.005503 1.018865 1.975862 0.019535 -0.011716 312642.000000 0 0 1
20.783637 31.371053 -15.203606 40.586355 0.985677 1.954761 0.035899 -0.015002 306281.000000 0 0 1
22.114737 31.355953 -15.749306 41.476476 0.956535 1.960286 0.041109 -0.011554 821560.000000 0 0 1
23.159137 31.157753 -14.803606 41.548742 0.931606 1.935096 0.038374 -0.020126 355625.000000 0 0 1
22.948337 30.141953 -13.575106 40.242354 0.920076 1.914880 0.033889 -0.010622 -1666340.000000 0 0 1
23.111437 28.849653 -14.066906 39.551471 0.895385 1.934417 0.027400 -0.002382 37107.400000 0 0 1
22.746037 27.781453 -13.197406 38.253926 0.884727 1.923030 0.019092 0.002425 791866.000000 0 0 1
21.210937 27.623453 -12.874506 37.131010 0.915963 1.924881 0.024046 -0.006815 121017.000000 0 0 1
20.532437 27.096753 -13.994206 36.764831 0.922357 1.961286 0.031239 -0.007446 1390580.000000 0 0 1
19.088737 27.050453 -13.774406 35.858628 0.956274 1.965063 0.035084 -0.009037 2083950.000000 0 0 1
18.241137 28.389353 -13.939906 36.510484 0.999687 1.962545 0.035583 -0.016466 369.192000 0 0 1
18.309537 28.991853 -15.199406 37.507181 1.007507 1.988038 0.027796 -0.011068 -414771.000000 0 0 1
17.702837 28.400953 -16.286306 37.218925 1.013407 2.023703 0.005992 -0.001101 -692949.000000 0 0 1
17.862437 29.207053 -17.594506 38.492665 1.021906 2.045514 0.001780 0.000087 -302460.000000 0 0 1
17.064837 30.359153 -17.721306 39.075972 1.058712 2.041495 -0.006251 0.001142 -112547.000000 0 0 1
17.263937 31.016453 -18.992806 40.259044 1.062896 2.062088 -0.015354 0.004657 -416410.000000 0 0 1
16.177637 32.051253 -19.303906 40.763214 1.103362 2.064127 -0.028219 0.011809 -118618.000000 0 0 1
16.253537 33.215253 -18.512806 41.354015 1.115713 2.034950 -0.014370 0.002989 -173906.000000 0 0 1
15.369637 34.228953 -18.996806 42.056220 1.148754 2.039467 -0.019356 0.014737 -31365.700000 0 0 1
15.404637 -33.527918 -18.168806 41.128210 -1.140106 2.028356 -0.021483 0.011391 -530654.000000 0 0 1
14.422237 -32.576518 -18.488406 40.137907 -1.154014 2.049492 -0.030298 0.014566 -176039.000000 0 0 1
14.337837 -31.601418 -17.496906 38.863413 -1.144863 2.037803 -0.011613 0.005382 807923.000000 0 0 1
13.109237 -30.599718 -17.623706 37.666827 -1.166041 2.057691 0.006935 0.005398 808849.000000 0 0 1
11.865137 -31.189618 -17.339206 37.606140 -1.207283 2.050001 -0.002791 0.005412 111737.000000 0 0 1
10.779837 -30.270518 -17.474806 36.577014 -1.228683 2.068892 -0.011973 0.013492 417611.000000 0 0 1
9.493537 -30.796018 -18.124306 36.973131 -1.271768 2.083118 0.020505 0.000790 -846328.000000 0 0 1
8.912837 -31.795618 -17.290006 37.273909 -1.297494 2.053148 0.022979 0.003899 -46193.400000 0 0 1
7.844237 -32.528618 -17.821906 37.911256 -1.334165 2.060195 0.047251 0.004069 465852.000000 0 0 1
6.525937 -31.824518 -18.294206 37.283586 -1.368540 2.083663 0.040030 0.016993 -218792.000000 0 0 1
6.527737 -31.239718 -19.592406 37.448547 -1.364804 2.121377 0.023112 0.019378 -24335.700000 0 0 1
6.456937 -32.177318 -20.648006 38.773857 -1.372759 2.132376 0.031591 0.007292 -956100.000000 0 0 1
6.548937 -31.498518 -22.053106 39.004932 -1.365804 2.171706 0.023175 0.016176 356827.000000 0 0 1
7.808437 -30.960718 -22.485406 39.052928 -1.323744 2.184339 0.025162 -0.003042 2010930.000000 0 0 1
8.973737 -31.865518 -22.498806 40.026684 -1.296293 2.167713 0.028281 -0.009887 795702.000000 0 0 1
8.972437 -33.004018 -23.578306 41.541622 -1.305353 2.174363 0.035976 -0.004294 38930.500000 0 0 1
7.892437 -33.923018 -23.315506 41.912701 -1.342206 2.160708 0.053153 -0.015090 489978.000000 0 0 1
7.659837 34.233953 -24.309606 42.680132 1.350672 2.176787 0.062557 -0.026341 -294183.000000 0 0 1
6.848737 33.007253 -23.774606 41.250647 1.366208 2.185045 0.068192 -0.033982 531189.000000 0 0 1
5.459137 33.295453 -23.711806 41.238806 1.408282 2.183385 0.062095 -0.026676 223030.000000 0 0 1
4.979337 33.983653 -22.554306 41.089892 1.425310 2.151846 0.052436 -0.021975 -232563.000000 0 0 1
3.520537 34.428853 -22.777806 41.431493 1.468895 2.152886 0.035155 -0.003868 358316.000000 0 0 1
2.509337 33.449253 -22.946606 40.641064 1.495917 2.170765 0.037602 -0.012716 231095.000000 0 0 1
1.253337 34.047453 -23.166406 41.200514 1.534001 2.167942 0.023698 0.007990 789440.000000 0 0 1
0.011537 33.302253 -22.533406 40.209385 1.570450 2.165667 0.016245 -0.007068 525335.000000 0 0 1
-0.260463 33.729753 -21.182606 39.830477 -1.563074 2.131543 0.016087 -0.001172 368562.000000 0 0 1
-1.247463 32.845953 -20.618206 38.801073 -1.532835 2.131028 0.012023 0.006644 279589.000000 0 0 1
-1.670663 33.187053 -19.172206 38.363330 -1.520498 2.094110 0.021775 0.002051 -312826.000000 0 0 1
-0.766263 32.836853 -18.177006 37.539974 -1.547465 2.076250 0.036424 -0.009486 10709.000000 0 0 1
-1.478963 32.585753 -16.940406 36.755898 -1.525441 2.049794 0.017476 -0.012714 640540.000000 0 0 1
-0.582863 31.785453 -15.925506 35.556666 -1.552461 2.035201 0.007622 -0.020266 426706.000000 0 0 1
0.414937 32.551653 -15.285506 35.964274 1.558050 2.009779 0.025070 -0.015159 -169895.000000 0 0 1
1.347837 31.606853 -14.767506 34.912592 1.528178 2.007533 0.035514 -0.009836 501944.000000 0 0 1
2.477037 32.157453 -13.863106 35.105886 1.493920 1.976749 0.033784 -0.022283 692346.000000 0 0 1
3.474737 32.975853 -14.504506 36.192008 1.465812 1.983149 0.037952 -0.020912 710592.000000 0 0 1
4.379837 33.542053 -13.521506 36.429157 1.440953 1.951068 0.033269 -0.021754 394083.000000 0 0 1
5.789037 33.818253 -14.075506 37.085133 1.401259 1.960102 0.052062 -0.026243 176932.000000 0 0 1
6.460037 32.609253 -14.489206 36.263378 1.375224 1.981827 0.037070 -0.011328 -631296.000000 0 0 1
7.522737 32.960653 -15.333906 37.123105 1.346406 1.996603 0.026815 0.003383 -248622.000000 0 0 1
8.491837 31.779953 -15.479306 36.354995 1.309689 2.010622 0.009863 -0.001575 72522.800000 0 0 1
9.169137 31.513653 -14.223406 35.769941 1.287656 1.979735 0.003445 -0.003110 -762.854000 0 0 1
10.021837 30.377553 -14.330206 35.051217 1.252131 1.991975 0.000089 -0.001476 290721.000000 0 0 1
9.334937 28.976553 -14.207106 33.594993 1.259140 2.007432 0.002769 -0.001843 123297.000000 0 0 1
8.639337 28.567253 -15.398106 33.583147 1.277120 2.047111 0.002266 -0.017699 103182.000000 0 0 1
7.978237 27.358353 -15.084106 32.243791 1.287045 2.057612 0.003317 -0.008385 94016.000000 0 0 1
7.121837 26.652353 -16.180906 31.982655 1.309685 2.101253 -0.003819 -0.001186 559636.000000 0 0 1
7.975237 26.001053 -17.103006 32.127434 1.273179 2.132169 0.003411 0.004307 -172345.000000 0 0 1
7.218137 25.096753 -17.869206 31.642646 1.290743 2.170889 0.001338 0.010254 58398.100000 0 0 1
8.059337 24.213053 -18.843606 31.722332 1.249480 2.206840 0.008256 0.012697 -346085.000000 0 0 1
7.422237 23.304253 -19.730106 31.423795 1.262461 2.249612 0.010100 0.012666 -525986.000000 0 0 1
8.270637 22.230253 -20.056706 31.062181 1.214620 2.272730 0.013403 0.014340 -495648.000000 0 0 1
7.691537 21.218153 -21.080006 30.882624 1.223031 2.322090 0.011686 0.000329 63389.300000 0 0 1
6.857237 20.246053 -20.462706 29.591329 1.244228 2.334374 0.002739 0.013490 404135.000000 0 0 1
6.015537 19.538053 -21.386806 29.585769 1.272118 2.378750 0.003020 0.010743 363593.000000 0 0 1
24.184137 -12.763847 -9.539506 28.961879 -0.485622 1.906445 0.037931 -0.011275 39048.100000 0 0 1
24.824937 -12.023047 -8.528206 28.871464 -0.451020 1.870655 0.053355 -0.018510 185726.000000 0 0 1
24.041137 -12.178047 -7.398206 27.946637 -0.468874 1.838716 0.045990 -0.015175 -798886.000000 0 0 1
24.678937 -11.710847 -6.101706 27.989724 -0.443063 1.790559 0.035406 -0.010398 -460477.000000 0 0 1
24.730937 -10.279347 -5.905506 27.425521 -0.393922 1.787825 0.040655 -0.011555 406708.000000 0 0 1
25.845937 -9.639647 -6.505906 28.341878 -0.356986 1.802413 0.039966 -0.010790 -1021830.000000 0 0 1
26.071337 -8.182047 -6.128006 28.003802 -0.304099 1.791409 0.052185 -0.001673 -275735.000000 0 0 1
26.632537 -7.903347 -4.861706 28.202679 -0.288477 1.744046 0.052368 -0.011844 -108042.000000 0 0 1
27.979437 -8.285747 -4.812806 29.574746 -0.287909 1.734257 0.052531 -0.012129 -939703.000000 0 0 1
28.610337 -8.203447 -3.397106 29.956439 -0.279239 1.684442 0.054505 -0.012878 -139212.000000 0 0 1
28.739437 -6.905347 -2.851306 29.694595 -0.235804 1.666966 0.052826 -0.008323 330847.000000 0 0 1
29.117837 -6.938347 -1.490306 29.970153 -0.233923 1.620543 0.055170 -0.010290 -347214.000000 0 0 1
29.485837 -5.582847 -0.880206 30.022617 -0.187125 1.600119 0.051438 -0.024349 379788.000000 0 0 1
28.348937 -4.666047 -0.853906 28.743058 -0.163131 1.600509 0.034684 -0.013201 802744.000000 0 0 1
28.689537 -3.304247 -0.589106 28.885197 -0.114667 1.591192 0.042547 -0.014147 -102975.000000 0 0 1
29.326037 -3.131247 0.825994 29.504295 -0.106371 1.542797 0.040123 -0.017691 -26335.000000 0 0 1
28.519137 -3.552447 1.903594 28.802512 -0.123925 1.504657 0.026398 -0.016991 391295.000000 0 0 1
29.269937 -3.311847 3.107494 29.620163 -0.112669 1.465691 0.029494 -0.013807 203483.000000 0 0 1
28.778437 -4.084247 4.390594 29.396544 -0.140979 1.420878 0.029780 -0.019092 -567993.000000 0 0 1
29.152437 -5.439147 4.284794 29.963450 -0.184455 1.427304 0.034740 -0.024576 222679.000000 0 0 1
28.977737 -6.055647 5.526794 30.115204 -0.206011 1.386229 0.031468 -0.021952 -256611.000000 0 0 1
29.757137 -7.401647 5.587994 31.168850 -0.243788 1.390540 0.021889 -0.021121 -1105360.000000 0 0 1
31.101037 -7.158647 5.449094 32.376123 -0.226234 1.401685 0.018310 -0.013439 -1425760.000000 0 0 1
31.892337 -8.239547 5.833994 33.452156 -0.252827 1.395502 0.021081 -0.012420 -349064.000000 0 0 1
33.400237 -8.007147 5.714794 34.818804 -0.235293 1.405921 0.034761 -0.007073 -291913.000000 0 0 1
33.824337 -7.870347 4.381494 35.003223 -0.228615 1.445293 0.041980 -0.010047 -517194.000000 0 0 1
35.151137 -7.430147 4.310094 36.185445 -0.208311 1.451402 0.051571 -0.009334 -264395.000000 0 0 1
-34.831265 -7.289347 2.914194 35.704959 0.206299 1.489087 0.050710 -0.006349 -218732.000000 0 0 1
-34.569365 -8.545947 2.300594 35.684267 0.242353 1.506281 0.065137 -0.009728 380377.000000 0 0 1
-33.528865 -8.410647 1.340394 34.593647 0.245777 1.532040 0.083941 -0.015364 151642.000000 0 0 1
-33.195365 -9.741347 0.634694 34.600996 0.285441 1.552452 0.074229 -0.013052 -182700.000000 0 0 1
-32.642465 -10.663747 1.522594 34.373890 0.315754 1.526487 0.074096 -0.011073 132013.000000 0 0 1
-32.785165 -11.997347 1.031594 34.926602 0.350803 1.541256 0.065081 -0.016438 -705738.000000 0 0 1
-32.326965 -13.051847 2.067994 34.923630 0.383731 1.511547 0.057751 -0.029187 100490.000000 0 0 1
-31.003665 -13.091047 2.547294 33.750429 0.399532 1.495250 0.046830 -0.023477 -149312.000000 0 0 1
-30.116465 -13.655547 1.609194 33.106871 0.425698 1.522171 0.037493 -0.006541 -1191300.000000 0 0 1
-28.768865 -13.957747 2.235894 32.054103 0.451712 1.500986 0.026738 -0.004062 -814998.000000 0 0 1
-27.939465 -12.822747 2.384894 30.833817 0.430270 1.493372 0.016519 -0.005396 421370.000000 0 0 1
-26.745065 -13.253047 3.041694 30.003227 0.460067 1.469243 0.005291 0.003401 82409.700000 0 0 1
-25.786565 -12.083947 3.372194 28.676478 0.438225 1.452929 -0.010106 0.008893 -887134.000000 0 0 1
-24.754465 -12.591647 4.122394 28.077165 0.470553 1.423440 -0.015738 0.013653 -702897.000000 0 0 1
-23.906365 -11.574647 4.629094 26.961366 0.450900 1.398248 -0.014642 0.018684 91846.900000 0 0 1
-22.659765 -12.104347 5.369094 26.245139 0.490615 1.364767 -0.016389 0.024583 -153358.000000 0 0 1
-22.944265 -12.956547 6.452394 27.128302 0.514056 1.330647 -0.005197 0.016326 -20000.800000 0 0 1
-21.772265 -13.360047 7.147194 26.525549 0.550379 1.297979 -0.003959 0.019202 251417.000000 0 0 1
-21.638765 -12.729147 8.531194 26.515063 0.531740 1.243220 0.016216 0.013090 -121132.000000 0 0 1
-21.104165 -11.398947 8.577794 25.473522 0.495232 1.227350 0.010768 0.011783 432607.000000 0 0 1
-21.986665 -10.415947 9.091494 25.972305 0.442419 1.213176 0.008918 0.014831 -421418.000000 0 0 1
-22.376065 -10.342147 10.610994 26.837315 0.432950 1.164313 0.019199 0.007030 103824.000000 0 0 1
-23.073465 -11.493847 11.130394 28.078087 0.462160 1.163195 0.014663 -0.002462 604388.000000 0 0 1
-24.483165 -11.460047 10.977694 29.176494 0.437786 1.185049 0.016897 -0.001888 118180.000000 0 0 1
-25.321965 -11.117847 12.201994 30.227422 0.413719 1.155268 0.020222 -0.008075 -322072.000000 0 0 1
-25.346565 -12.149447 13.192394 31.049906 0.446978 1.131970 0.030361 -0.011170 -159773.000000 0 0 1
-26.326465 -11.860747 14.145194 32.153484 0.423291 1.115279 0.015823 -0.014984 -188028.000000 0 0 1
-26.324365 -12.728947 15.405694 33.050471 0.450395 1.085889 0.020403 -0.017007 -82200.800000 0 0 1
-26.638565 -14.058847 15.047094 33.670155 0.485610 1.107503 0.015338 -0.013479 441288.000000 0 0 1
-26.039965 -14.999947 15.967194 34.029832 0.522612 1.082398 0.005215 -0.004109 -265127.000000 0 0 1
-26.138165 -16.416347 15.495494 34.537088 0.560797 1.105528 0.009701 -0.006636 -144876.000000 0 0 1
-27.363565 -17.074447 15.733894 35.886722 0.557869 1.116943 -0.002579 -0.001858 -61977.400000 0 0 1
-27.051165 -18.416647 15.840194 36.357257 0.597729 1.120001 0.000125 0.006419 -347388.000000 0 0 1
-28.083065 -19.380447 16.411894 37.863049 0.604059 1.122474 -0.017270 0.017942 -418520.000000 0 0 1
-28.150765 -19.221347 17.839694 38.473113 0.599089 1.088638 0.000664 0.021130 -54237.100000 0 0 1
-28.693165 -20.347747 18.503594 39.745584 0.616840 1.086539 -0.001395 0.028171 -371587.000000 0 0 1
-27.748965 -21.541047 18.683594 39.788169 0.660111 1.081985 -0.004840 0.027614 234969.000000 0 0 1
-26.602465 -21.209147 19.477194 39.203062 0.673069 1.050856 0.006895 0.028252 496278.000000 0 0 1
-25.867665 -22.377847 19.814494 39.528702 0.713189 1.045732 0.007540 0.027811 -126508.000000 0 0 1
-24.485265 -22.040847 20.400794 38.749445 0.732908 1.016342 0.028659 0.023520 -366299.000000 0 0 1
-23.464565 -21.901047 19.445394 37.528189 0.750947 1.026105 0.033908 0.013732 712620.000000 0 0 1
-22.193365 -21.972747 20.135594 37.158972 0.780403 0.998127 0.042796 0.017006 723427.000000 0 0 1
-20.965765 -21.783547 19.229494 35.830987 0.804526 1.004308 0.050780 0.008001 -275723.000000 0 0 1
-20.695765 -22.848847 18.393694 35.898641 0.834803 1.032844 0.048307 0.007763 354611.000000 0 0 1
-19.462065 -22.640447 17.723894 34.720285 0.860747 1.035057 0.043099 -0.004409 123697.000000 0 0 1
-19.173265 -23.808847 16.720394 34.843175 0.892832 1.070283 0.028472 0.004216 -483194.000000 0 0 1
-19.007165 -25.158397 17.159694 35.898082 0.923785 1.072407 0.030805 -0.003645 539207.000000 0 0 1
-17.721765 -25.396507 17.740094 35.689696 0.961546 1.050583 0.035738 -0.003345 843389.000000 0 0 1
-16.455265 -25.483007 16.853994 34.701822 0.997425 1.063655 0.039315 -0.001900 -69377.100000 0 0 1
-15.972265 -24.200047 16.511894 33.367621 0.987417 1.053137 0.035345 -0.005108 -183751.000000 0 0 1
-14.789565 -24.263947 15.748994 32.488477 1.023400 1.064712 0.026474 0.001003 32318.900000 0 0 1
-13.980465 -22.917947 15.605094 31.051644 1.023040 1.044247 0.030995 0.001150 -73481.000000 0 0 1
-14.630365 -21.819047 14.931894 30.217211 0.980123 1.053937 0.018062 0.004029 158778.000000 0 0 1
-15.682165 -21.153347 15.598694 30.605777 0.932850 1.036001 0.026939 0.002028 -2482.900000 0 0 1
-15.239365 -20.031047 16.598394 30.149424 0.920427 0.987788 0.028673 -0.001773 -125258.000000 0 0 1
-14.534965 -18.986547 15.885894 28.707417 0.917423 0.984389 0.019002 0.000583 241106.000000 0 0 1
-14.495565 -17.785747 16.592894 28.315690 0.886970 0.944687 0.005626 0.003626 -775027.000000 0 0 1
-13.862365 -16.604447 15.868294 26.826769 0.875159 0.937866 0.010746 -0.001607 92083.400000 0 0 1
-14.569765 -15.803347 14.866294 26.134852 0.825990 0.965713 0.009195 -0.006509 212393.000000 0 0 1
-14.803765 -16.483647 13.653494 26.024603 0.839039 1.018507 0.011451 -0.005955 -337246.000000 0 0 1
-15.772865 -15.807047 12.695594 25.687041 0.786481 1.053835 0.013940 -0.006078 -297367.000000 0 0 1
-17.139365 -15.886747 13.049394 26.766270 0.747488 1.061536 0.008929 -0.012659 217511.000000 0 0 1
-17.840965 -14.749647 12.493494 26.304743 0.690828 1.075887 0.014142 -0.008518 -30870.400000 0 0 1
-19.388565 -14.769647 12.659494 27.464917 0.650992 1.091750 0.013838 -0.014088 518281.000000 0 0 1
-20.052665 -15.852847 12.007894 28.242019 0.668959 1.131637 0.021648 -0.013557 35487.100000 0 0 1
-20.153465 -15.635847 10.611994 27.627093 0.659834 1.176547 0.014293 -0.005197 -278841.000000 0 0 1
-20.975565 -16.704047 9.776494 28.540836 0.672516 1.221173 0.011084 -0.001204 740013.000000 0 0 1
-20.323665 -17.954947 9.829494 28.845284 0.723596 1.223065 0.009642 0.002656 125486.000000 0 0 1
-21.234265 -18.869047 9.293894 29.888315 0.726488 1.254600 0.010165 -0.001159 -33415.200000 0 0 1
-20.819565 -20.370447 9.521394 30.644189 0.774495 1.254859 0.018382 0.005563 -589768.000000 0 0 1
-19.611165 -20.620847 8.893894 29.814735 0.810489 1.267880 0.020947 0.003466 -1030450.000000 0 0 1
-19.284865 -21.953947 9.088294 30.601942 0.850031 1.269264 0.015044 -0.000617 277009.000000 0 0 1
-18.108765 -22.354047 8.162294 29.904077 0.889934 1.294339 0.020366 -0.002310 1255100.000000 0 0 1
-16.812165 -21.802547 8.466194 28.804103 0.913921 1.272468 0.005151 -0.010003 1036520.000000 0 0 1
-15.742565 -22.281447 7.661394 28.337046 0.955700 1.297022 0.010101 -0.002491 210069.000000 0 0 1
-14.384365 -21.801947 8.154094 27.362823 0.987581 1.268201 -0.017601 0.000570 -556474.000000 0 0 1
-13.238965 -22.082847 7.415594 26.793905 1.030735 1.290371 -0.005728 0.003164 -232722.000000 0 0 1
-12.034565 -21.807847 8.104994 26.193584 1.066537 1.256206 0.002775 0.003826 167310.000000 0 0 1
-10.808265 -22.252047 7.304694 25.794005 1.118638 1.283674 0.013523 0.005010 -317955.000000 0 0 1
-10.589765 -23.637147 7.327494 26.917466 1.149595 1.295096 0.010157 0.005850 -907799.000000 0 0 1
-9.291565 -23.951747 6.968894 26.619257 1.200740 1.305911 0.013638 0.000010 -671304.000000 0 0 1
-8.990165 -25.459817 7.091194 27.916131 1.231352 1.313964 0.011984 -0.003814 -183734.000000 0 0 1
-9.874465 -26.245267 6.295594 28.739408 1.210941 1.349948 0.003183 -0.014007 -1481.550000 0 0 1
-9.872165 -27.640737 6.634294 30.091258 1.227757 1.348498 0.010241 -0.013564 39151.400000 0 0 1
-8.919965 -28.586627 5.835394 30.509225 1.268337 1.378344 0.004130 -0.012043 106472.000000 0 0 1
-7.546965 -28.259107 5.945394 29.847638 1.309824 1.370264 0.001471 -0.010466 767939.000000 0 0 1
-6.501165 -29.120617 5.433194 30.328123 1.351149 1.390677 0.000317 -0.002475 1236170.000000 0 0 1
-6.439965 -30.491457 6.104094 31.756291 1.362650 1.377376 0.004348 -0.013118 -537670.000000 0 0 1
-6.402265 -30.519637 7.496594 32.072358 1.364019 1.334874 0.004094 -0.009269 7641.740000 0 0 1
-6.491065 -31.858307 7.936694 33.467547 1.369800 1.331369 0.032380 -0.012424 -267163.000000 0 0 1
-6.714765 -32.023257 9.420194 34.048746 1.364107 1.290471 0.016429 -0.014461 -326323.000000 0 0 1
-5.672065 -31.718657 10.335094 33.838730 1.393842 1.260415 0.008473 -0.007174 -70603.700000 0 0 1
-6.089565 -31.809367 11.688694 34.431732 1.381646 1.224438 0.000651 -0.009429 -534553.000000 0 0 1
-5.206265 -31.103417 12.723094 34.005953 1.404948 1.187324 -0.002671 0.001055 -152067.000000 0 0 1
-5.274265 -29.663727 12.552494 32.639235 1.394833 1.176040 -0.003632 -0.000597 -224491.000000 0 0 1
-4.577265 -28.887407 13.448194 32.191420 1.413651 1.139821 -0.016470 0.002649 -838735.000000 0 0 1
-5.335265 -28.620897 14.760794 32.642025 1.386500 1.101564 -0.002029 0.001203 -18947.100000 0 0 1
-5.736165 -29.654317 15.637794 34.012096 1.379722 1.093058 0.008958 -0.007419 32227.600000 0 0 1
-4.725265 -30.225907 16.432794 34.727083 1.415720 1.077879 0.000868 -0.011035 -179638.000000 0 0 1
-5.153265 -31.518107 17.154694 36.252320 1.408729 1.077874 0.005186 -0.004396 -129752.000000 0 0 1
-5.366265 -32.631757 16.319694 36.877645 1.407806 1.112371 -0.005255 0.003197 676183.000000 0 0 1
-6.325465 -33.618007 16.722794 38.076682 1.384814 1.116103 -0.002111 0.005499 298191.000000 0 0 1
-5.977265 34.180928 15.906694 38.171801 -1.397675 1.140970 -0.005240 0.002231 -102462.000000 0 0 1
-6.203465 34.255274 14.500894 37.711838 -1.391643 1.176110 -0.009767 0.003174 375283.000000 0 0 1
-5.505265 33.234476 13.776494 36.395468 -1.406638 1.182597 -0.001645 -0.006606 -302649.000000 0 0 1
-4.241265 33.640471 13.051794 36.332065 -1.445382 1.203347 0.030787 -0.012717 -799756.000000 0 0 1
-4.534265 34.145285 11.771594 36.400968 -1.438775 1.241490 0.024713 -0.013551 61885.000000 0 0 1
-3.443265 -34.430648 11.079794 36.333007 1.471122 1.260909 0.033032 -0.021237 -791539.000000 0 0 1
-3.842265 -34.190621 9.615794 35.724292 1.458888 1.298269 0.031056 -0.022698 -964933.000000 0 0 1
-3.952265 33.811678 8.732794 35.144155 -1.454434 1.319680 0.047421 -0.032737 377805.000000 0 0 1
-4.918265 32.798245 8.997994 34.363907 -1.421950 1.305864 0.054697 -0.031568 -785772.000000 0 0 1
-6.334665 33.135275 9.360494 35.009902 -1.381900 1.300137 0.033754 -0.018084 -1523530.000000 0 0 1
-7.014565 33.774253 8.309994 35.481830 -1.366018 1.334396 0.035039 -0.014657 233659.000000 0 0 1
-8.425165 33.903421 8.559594 35.967930 -1.327225 1.330512 0.021316 -0.011164 658383.000000 0 0 1
-9.180865 34.156546 7.283494 36.111040 -1.308215 1.367706 0.026770 -0.015230 -503206.000000 0 0 1
-9.164165 -33.632437 6.818694 35.519252 1.304774 1.377625 0.027065 -0.013253 60919.700000 0 0 1
-9.718665 -33.606647 5.514694 35.415688 1.289287 1.414447 0.027662 -0.006779 -214745.000000 0 0 1
-9.675965 -32.206977 4.919794 33.987027 1.278944 1.425531 0.018650 -0.007879 392771.000000 0 0 1
-10.454965 -31.191247 5.607494 33.371307 1.247377 1.401962 0.032598 -0.014271 224570.000000 0 0 1
-11.686265 -30.866357 4.985194 33.378929 1.208866 1.420884 0.022961 -0.013709 -79662.700000 0 0 1
-12.610765 -30.039787 5.895894 33.108635 1.173337 1.391764 0.029066 -0.022591 -596668.000000 0 0 1
-13.378365 -30.884527 6.670894 34.312322 1.162023 1.375133 0.030430 -0.011368 -374782.000000 0 0 1
-14.368265 -30.259727 7.444394 34.314969 1.127486 1.352114 0.027510 -0.016080 15081.700000 0 0 1
32.692059 -12.752147 -12.836506 37.365276 -0.371916 1.921481 0.032901 -0.019450 -692671.000000 0 0 1
31.527859 -12.906347 -12.089706 36.148868 -0.388552 1.911810 0.055950 -0.025022 -494318.000000 0 0 1
31.435229 -14.250147 -11.619606 36.417791 -0.425610 1.895538 0.060335 -0.032567 154443.000000 0 0 1
32.357169 -14.807647 -10.462106 37.090544 -0.429182 1.856747 0.052823 -0.027425 540440.000000 0 0 1
33.647619 -15.121847 -10.932106 38.475231 -0.422370 1.858899 0.062839 -0.031263 -162063.000000 0 0 1
34.584967 -15.571347 -9.966406 39.216272 -0.423049 1.827754 0.043409 -0.028307 343129.000000 0 0 1
-34.579936 -15.798447 -10.553506 39.455537 0.428550 1.841572 0.030537 -0.030967 -201178.000000 0 0 1
-33.915443 -14.627347 -10.984406 38.534059 0.407185 1.859862 0.031608 -0.032418 -952027.000000 0 0 1
-32.583553 -14.965647 -11.161406 37.553102 0.430561 1.872573 0.033132 -0.030618 -970855.000000 0 0 1
-31.816143 -13.715447 -11.600706 36.537061 0.407013 1.893894 0.026697 -0.034284 -437156.000000 0 0 1
-31.892343 -12.759047 -10.577606 35.941627 0.380563 1.869519 0.033448 -0.029892 192578.000000 0 0 1
-31.394953 -11.527747 -10.993006 35.204804 0.351901 1.888366 0.029997 -0.021418 -369973.000000 0 0 1
-31.836613 -10.378247 -10.082106 34.970370 0.315122 1.863252 0.030884 -0.021853 -36816.200000 0 0 1
-31.245533 -10.459247 -8.774006 34.097835 0.323019 1.831043 0.037292 -0.021971 627604.000000 0 0 1
-32.012483 -9.671047 -7.845306 34.349338 0.293384 1.801228 0.041156 -0.016334 206861.000000 0 0 1
-31.411813 -9.603647 -6.412206 33.467124 0.296709 1.763586 0.034298 -0.009301 155863.000000 0 0 1
-30.243943 -8.759247 -6.295906 32.110106 0.281907 1.768147 0.041430 -0.022991 912526.000000 0 0 1
-29.603743 -8.750447 -5.009306 31.273712 0.287402 1.731666 0.050110 -0.022676 -237038.000000 0 0 1
-28.976493 -10.092147 -4.490206 31.010491 0.335148 1.716103 0.046161 -0.014073 -1371660.000000 0 0 1
-29.768853 -11.162347 -4.224706 32.072274 0.358742 1.702905 0.062473 -0.011829 -603732.000000 0 0 1
-30.285023 -11.077147 -2.923706 32.379528 0.350648 1.661214 0.046741 -0.015780 -249905.000000 0 0 1
-30.894223 -12.402047 -2.470706 33.382153 0.381744 1.644877 0.046141 -0.012152 -871995.000000 0 0 1
-32.137103 -12.675347 -3.026806 34.678803 0.375682 1.658189 0.053731 -0.021549 -502341.000000 0 0 1
-32.566483 -13.896447 -2.478806 35.494106 0.403318 1.640690 0.064586 -0.026563 -783929.000000 0 0 1
-34.071218 -14.122647 -2.443406 36.963053 0.392947 1.636949 0.039845 -0.024318 -664684.000000 0 0 1
-34.685734 -13.201747 -1.596406 37.147473 0.363680 1.613784 0.056476 -0.024029 411198.000000 0 0 1
34.486669 -13.380047 -1.375306 37.016853 -0.370099 1.607958 0.064642 -0.022889 111532.000000 0 0 1
34.010079 -12.252647 -0.521006 36.153620 -0.345790 1.585208 0.063234 -0.027814 -506126.000000 0 0 1
34.329839 -12.433647 0.871494 36.522498 -0.347486 1.546932 0.070627 -0.019967 261301.000000 0 0 1
33.872969 -11.321247 1.602894 35.750775 -0.322554 1.525946 0.075210 -0.018015 15901.400000 0 0 1
34.412339 -11.230447 3.068194 36.328306 -0.315452 1.486238 0.066670 -0.018728 402946.000000 0 0 1
33.574089 -12.044247 3.904594 35.882156 -0.344436 1.461763 0.058211 -0.020617 322534.000000 0 0 1
34.220169 -12.386347 5.092394 36.747435 -0.347290 1.431771 0.055815 -0.019012 -30900.900000 0 0 1
33.209399 -12.673047 6.245094 36.089769 -0.364553 1.396878 0.044797 -0.010995 602276.000000 0 0 1
32.477279 -11.506647 6.721494 35.104914 -0.340499 1.378138 0.043784 -0.015044 366189.000000 0 0 1
32.497409 -11.455547 8.122094 35.401688 -0.338906 1.339308 0.007880 0.000720 -151482.000000 0 0 1
31.824919 -10.137747 8.618694 34.494655 -0.308385 1.318265 -0.000027 -0.010966 1705340.000000 0 0 1
30.367879 -10.081947 8.503294 33.108303 -0.320544 1.311053 0.006935 -0.007557 1552540.000000 0 0 1
29.860899 -9.091447 9.319194 32.575682 -0.295543 1.280665 0.007297 -0.004533 -153646.000000 0 0 1
28.331359 -8.801047 9.269494 31.081310 -0.301196 1.267955 0.003107 -0.011011 364065.000000 0 0 1
27.903259 -8.443047 7.984294 30.226244 -0.293825 1.303473 0.013333 -0.016544 30538.000000 0 0 1
27.267849 -9.586847 7.409094 29.838530 -0.338082 1.319865 0.029518 -0.027391 -509772.000000 0 0 1
26.078979 -9.256747 6.485694 28.422961 -0.341078 1.340583 0.045488 -0.025685 -415236.000000 0 0 1
25.002039 -8.658047 7.181994 27.416140 -0.333369 1.305741 0.056997 -0.023117 773728.000000 0 0 1
23.951339 -8.204247 6.284294 26.085794 -0.330012 1.327494 0.060625 -0.024433 620111.000000 0 0 1
24.203039 -6.814347 5.719794 25.786400 -0.274445 1.347122 0.050952 -0.014619 -428946.000000 0 0 1
25.084639 -6.853747 4.587594 26.405661 -0.266715 1.396175 0.040112 -0.021457 547565.000000 0 0 1
25.470239 -5.584447 4.094294 26.394741 -0.215838 1.415050 0.042254 -0.027684 -261320.000000 0 0 1
26.126949 -5.695147 2.693994 26.875821 -0.214623 1.470389 0.045996 -0.024950 418336.000000 0 0 1
25.198839 -6.065347 1.642894 25.970541 -0.236206 1.507494 0.035264 -0.016898 763598.000000 0 0 1
25.925729 -6.047847 0.419994 26.625106 -0.229177 1.555021 0.030272 -0.015859 143824.000000 0 0 1
25.019139 -6.341147 -0.837506 25.823804 -0.248225 1.603234 0.030262 -0.018650 219628.000000 0 0 1
23.995439 -5.393547 -1.018006 24.615194 -0.221099 1.612165 0.027765 -0.017716 -289945.000000 0 1 0
23.457239 -5.549547 -2.304806 24.214699 -0.232310 1.666123 0.015597 -0.014326 -321854.000000 0 1 0
22.277539 -4.627347 -2.679306 22.910254 -0.204801 1.688012 -0.005346 -0.005695 -424422.000000 0 1 0
22.518439 -3.245447 -2.580706 22.897010 -0.143138 1.683746 -0.015316 -0.008173 79844.700000 0 1 0
23.337439 -2.600247 -3.520606 23.744304 -0.110962 1.719617 -0.008166 -0.004312 -451607.000000 0 1 0
22.541139 -1.790347 -4.493406 23.054261 -0.079259 1.766958 0.000880 0.005654 -335228.000000 0 1 0
22.068739 -0.562747 -3.977306 22.431337 -0.025494 1.749049 -0.011081 0.009708 437077.000000 0 1 0
21.359639 0.178053 -4.949306 21.926274 0.008336 1.798483 0.013748 0.014866 -673482.000000 0 1 0
21.019239 1.616153 -4.548606 21.566413 0.076738 1.783304 0.013139 0.017011 88951.600000 0 1 0
22.060039 2.613253 -4.412106 22.648203 0.117911 1.766861 0.015050 0.014631 635395.000000 0 1 0
22.778339 2.462953 -3.207906 23.134596 0.107709 1.709907 0.022710 0.007880 -159969.000000 0 1 0
23.954939 3.458653 -3.100806 24.401155 0.143391 1.698217 0.003660 0.002454 -958069.000000 0 1 0
23.499339 4.823653 -3.031106 24.180036 0.202455 1.696483 0.007408 0.003604 693746.000000 0 1 0
24.489239 5.799453 -2.674006 25.308235 0.232533 1.676651 0.005623 -0.002797 -155080.000000 0 0 1
24.049639 7.259853 -2.759306 25.272601 0.293171 1.680196 0.009612 -0.007018 -593911.000000 0 0 1
23.215939 7.720953 -1.764206 24.529683 0.321065 1.642780 0.028767 -0.007127 -52737.200000 0 1 0
22.475139 8.831953 -2.241206 24.251974 0.374427 1.663342 0.026800 -0.002307 -330052.000000 0 1 0
21.449039 9.349553 -1.224906 23.430233 0.411063 1.623099 0.024276 0.004855 -385217.000000 0 1 0
22.073439 9.876153 -0.056406 24.182189 0.420708 1.573129 0.025478 0.001945 1091270.000000 0 1 0
21.126339 10.351053 0.955494 23.545264 0.455583 1.530204 0.031643 0.000875 462621.000000 0 1 0
21.776039 10.747453 2.333094 24.395634 0.458470 1.475014 0.064934 -0.003652 -76484.600000 0 1 0
22.543039 12.003253 2.427194 25.654589 0.489277 1.476044 0.064340 -0.017790 1079720.000000 0 0 1
21.890839 13.235753 2.032394 25.661734 0.543813 1.491514 0.064454 -0.014374 -547442.000000 0 0 1
20.650939 13.667753 2.824894 24.924863 0.584658 1.457216 0.050498 -0.008970 128132.000000 0 1 0
19.431739 12.990953 2.431594 23.500425 0.589301 1.467141 0.079728 -0.005258 1646050.000000 0 1 0
18.245239 13.544353 3.036394 22.925050 0.638587 1.437957 0.057757 -0.011365 289491.000000 0 1 0
18.047239 13.515853 4.620394 23.015846 0.642807 1.368675 0.031946 -0.008101 -836050.000000 0 1 0
17.902339 12.252253 5.156494 22.298001 0.600175 1.337430 0.032861 -0.002059 464941.000000 0 1 0
17.987639 12.341453 6.562194 22.780013 0.601341 1.278588 0.020628 -0.009853 -240710.000000 0 1 0
18.089439 11.025853 7.267094 22.396604 0.547389 1.240342 -0.006826 -0.012302 -271931.000000 0 1 0
19.160039 10.206853 6.847394 22.763430 0.489476 1.265258 -0.014868 -0.012066 300064.000000 0 1 0
19.269039 8.967553 7.465794 22.526672 0.435576 1.232988 -0.010241 -0.002357 231244.000000 0 1 0
20.360339 8.058553 6.818494 22.934156 0.376878 1.268925 0.002859 -0.001830 258551.000000 0 1 0
19.884339 7.513453 5.589694 21.979162 0.361274 1.313654 -0.003524 -0.011916 511180.000000 0 1 0
20.880739 6.851753 4.809594 22.496310 0.317067 1.355338 0.002229 -0.012667 -196394.000000 0 1 0
20.456639 6.447853 3.416794 21.719193 0.305339 1.412823 0.004679 -0.008910 -792183.000000 0 1 0
21.451539 5.868353 2.645794 22.396569 0.267030 1.452386 0.003190 -0.009863 -11815.500000 0 1 0
21.088039 5.779953 1.269094 21.902599 0.267517 1.512821 0.000895 0.001024 -354923.000000 0 1 0
22.242639 5.182453 0.488794 22.843636 0.228912 1.549397 0.012921 0.001007 -195656.000000 0 1 0
22.170039 3.790653 0.750094 22.504273 0.169343 1.537459 0.012572 -0.000637 216537.000000 0 1 0
23.356239 3.138553 0.402094 23.569601 0.133577 1.553736 0.016763 -0.005304 -345251.000000 0 1 0
23.264239 1.564053 0.488094 23.321863 0.067129 1.549866 0.027839 -0.012945 -252698.000000 0 1 0
22.435239 1.010153 -0.486106 22.463229 0.044995 1.592438 0.029875 -0.010082 522784.000000 0 1 0
22.822439 -0.337247 -0.807706 22.839217 -0.014776 1.606169 0.034778 -0.010842 -807671.000000 0 1 0
22.444739 -1.493147 0.189594 22.495149 -0.066428 1.562368 0.043253 -0.015231 146633.000000 0 1 0
23.276639 -1.701747 1.361194 23.378424 -0.072980 1.512539 0.046084 -0.016146 -28584.500000 0 1 0
24.479039 -2.311847 0.969494 24.607070 -0.094163 1.531387 0.034295 -0.011534 -525430.000000 0 1 0
25.560489 -1.939447 2.018394 25.713303 -0.075732 1.492219 0.045562 -0.015222 -368266.000000 0 0 1
25.590279 -0.511347 2.125494 25.683488 -0.019979 1.487944 0.040906 -0.018254 587789.000000 0 0 1
26.447829 -0.077947 3.197294 26.640503 -0.002947 1.450490 0.042653 -0.012777 219121.000000 0 0 1
26.018799 1.305853 3.803794 26.327780 0.050147 1.425811 0.040697 -0.008877 -185427.000000 0 0 1
26.122089 2.472253 2.954394 26.404621 0.094361 1.458672 0.043362 -0.013030 206557.000000 0 0 1
27.433119 2.767853 2.507494 27.686179 0.100554 1.480104 0.051361 -0.019902 98241.800000 0 0 1
27.413199 3.774653 1.345394 27.704540 0.136834 1.522215 0.049467 -0.027647 -259114.000000 0 0 1
26.843339 3.288853 0.144594 27.044450 0.121913 1.565450 0.036277 -0.016602 104576.000000 0 0 1
27.123619 3.970953 -1.018806 27.431681 0.145369 1.607945 0.039225 -0.015109 -166851.000000 0 0 1
28.552269 3.842653 -1.624406 28.855445 0.133779 1.627121 0.049147 -0.011196 193953.000000 0 0 1
29.608909 4.188253 -0.767506 29.913509 0.140520 1.596457 0.078150 -0.023587 699862.000000 0 0 1
30.897319 3.890753 -1.346306 31.170415 0.125266 1.614002 0.061770 -0.019729 1162350.000000 0 0 1
32.154309 4.199653 -0.501506 32.431284 0.129874 1.586261 0.033026 -0.014884 130764.000000 0 0 1
32.355199 3.329853 0.603994 32.531702 0.102555 1.552229 0.025089 -0.017331 204297.000000 0 0 1
31.839969 3.809353 1.850994 32.120413 0.119075 1.513138 0.042091 -0.006781 77557.800000 0 0 1
31.812559 2.709453 2.947694 32.063514 0.084964 1.478733 0.024554 -0.001746 274803.000000 0 0 1
30.791869 1.710253 2.799594 30.966141 0.055485 1.480264 0.033683 -0.011575 483543.000000 0 0 1
30.810249 0.776253 3.842194 31.058597 0.025189 1.446771 0.024974 -0.004885 -81561.300000 0 0 1
31.972189 -0.256147 3.891294 32.209139 -0.008011 1.449687 0.031172 0.000293 477633.000000 0 0 1
33.226909 0.341153 4.218994 33.495429 0.010267 1.444504 0.021555 0.003406 370092.000000 0 0 1
34.284819 -0.546447 3.904994 34.510815 -0.015937 1.457401 0.016813 -0.000207 -364313.000000 0 0 1
-34.901286 0.059253 4.318894 35.167544 -0.001698 1.447676 0.031582 -0.008300 402507.000000 0 0 1
-34.485298 1.094453 3.408694 34.670633 -0.031726 1.472321 0.023557 -0.007458 188274.000000 0 0 1
-34.132972 0.700453 2.140994 34.207225 -0.020518 1.508166 0.013115 -0.011727 -1054150.000000 0 0 1
-34.248666 2.011553 1.255994 34.330671 -0.058666 1.534203 0.007557 -0.012983 538347.000000 0 0 1
-33.271763 3.041853 1.474294 33.443036 -0.091171 1.526698 0.004055 -0.016190 334295.000000 0 0 1
-32.037423 2.813953 0.837994 32.171681 -0.087608 1.544746 0.013205 -0.000689 -18797.200000 0 0 1
-30.893983 3.745353 1.414194 31.152300 -0.120644 1.525385 0.007727 -0.002080 455237.000000 0 0 1
-30.635023 3.404353 2.781094 30.948808 -0.110672 1.480814 0.014780 -0.004680 -88409.900000 0 0 1
-29.755143 4.318453 3.372594 30.255445 -0.144127 1.459094 0.019418 -0.005522 -657107.000000 0 0 1
-29.765633 4.187153 4.906494 30.456508 -0.139754 1.408993 0.025128 -0.010937 583699.000000 0 0 1
-31.057473 4.405953 5.489094 31.845081 -0.140924 1.397563 0.033077 -0.006367 161755.000000 0 0 1
-31.913053 3.341253 5.505494 32.556373 -0.104319 1.400873 0.027694 -0.007720 -990377.000000 0 0 1
-31.993543 2.671953 6.892894 32.836536 -0.083322 1.359308 0.037287 -0.011098 -540935.000000 0 0 1
-32.606663 3.498553 7.912994 33.734994 -0.106887 1.334027 0.042780 -0.005901 496513.000000 0 0 1
-32.700863 2.910853 9.208394 34.097126 -0.088781 1.297337 0.049840 -0.002438 -252150.000000 0 0 1
-33.959193 2.028953 9.314294 35.271795 -0.059676 1.303555 0.042417 0.001287 -469291.000000 0 0 1
-33.824023 0.894853 8.555294 34.900693 -0.026450 1.323140 0.043044 -0.002648 402255.000000 0 0 1
-34.792753 -0.139247 8.807494 35.890486 0.004002 1.322865 0.046972 -0.001209 411467.000000 0 0 1
-34.409413 -1.039847 10.088094 35.872812 0.030211 1.285733 0.042237 0.001695 46474.600000 0 0 1
-33.216653 -1.772147 9.865394 34.696002 0.053301 1.282480 0.046170 -0.002391 286621.000000 0 0 1
-33.087533 -2.635647 10.995394 34.966129 0.079489 1.250910 0.034922 0.002244 267231.000000 0 0 1
-31.731153 -3.391347 10.959594 33.741369 0.106473 1.239984 0.036577 0.000979 203662.000000 0 0 1
-31.756973 -4.477147 10.070694 33.615012 0.140058 1.266534 0.037591 0.002608 444484.000000 0 0 1
-30.439383 -5.012547 10.039294 32.441780 0.163208 1.256176 0.033277 -0.008391 439378.000000 0 0 1
-30.372723 -6.136647 8.976294 32.260418 0.199361 1.288830 0.036330 -0.000930 -32026.400000 0 0 1
-31.115043 -7.292847 9.235294 33.265931 0.230227 1.289480 0.036304 -0.003433 -256485.000000 0 0 1
-31.183763 -8.141447 8.074494 33.225106 0.255379 1.325314 0.043506 -0.000916 -392541.000000 0 0 1
-32.223313 -9.213047 8.282394 34.522749 0.278483 1.328522 0.041781 -0.003835 -578762.000000 0 0 1
-33.520863 -8.746247 8.512594 35.673651 0.255229 1.329848 0.050066 -0.004513 -539332.000000 0 0 1
-34.399680 -9.825747 8.700194 36.818157 0.278226 1.332238 0.045546 -0.011942 -98044.200000 0 0 1
7.333537 -24.133047 10.887994 27.472406 -1.275784 1.163286 0.055455 -0.011728 74108.900000 0 0 1
6.743637 -24.579847 9.711194 27.275498 -1.303029 1.206769 0.039452 -0.008678 -93886.500000 0 0 1
5.526037 -25.286987 9.908494 27.715465 -1.355646 1.205198 0.047188 -0.012133 475860.000000 0 0 1
5.214037 -26.156327 8.708594 28.056714 -1.374034 1.255190 0.031841 -0.005941 -267998.000000 0 0 1
4.855637 -25.477957 7.546494 27.012091 -1.382473 1.287654 0.036452 -0.005632 -339223.000000 0 0 1
4.605937 -26.503057 6.629594 27.705201 -1.398726 1.329161 0.032729 -0.003274 -316140.000000 0 0 1
3.953437 -26.101017 5.269094 26.919437 -1.420472 1.373789 0.028986 -0.002399 172648.000000 0 0 1
2.555437 -25.947327 5.308594 26.607803 -1.472627 1.369936 0.020153 -0.007418 -412122.000000 0 0 1
1.824037 -27.054707 4.854394 27.547221 -1.503478 1.393650 0.015738 -0.011266 -385942.000000 0 0 1
0.309137 -26.827237 4.893194 27.271588 -1.559274 1.390395 0.020573 -0.011165 -201873.000000 0 0 1
-0.254163 -26.909987 6.191494 27.614246 1.561352 1.344660 0.024814 -0.009929 245253.000000 0 0 1
-1.678363 -27.026997 6.250894 27.791170 1.508776 1.343932 0.005831 -0.007729 699769.000000 0 0 1
-2.179763 -28.463407 6.406094 29.256707 1.494364 1.350046 0.003389 -0.008742 -605072.000000 0 0 1
-1.853863 -29.062507 7.615894 30.100962 1.507094 1.315004 0.011565 -0.011855 464790.000000 0 0 1
-2.700263 -30.209287 7.889994 31.339183 1.481648 1.316297 0.007909 -0.014496 421070.000000 0 0 1
-2.587763 -30.764447 9.338794 32.254624 1.486878 1.277057 0.014676 -0.014524 -187696.000000 0 0 1
-1.323063 -31.333607 9.536394 32.779387 1.528596 1.275601 0.020384 -0.015998 -480623.000000 0 0 1
-0.948663 -31.416387 10.839894 33.247445 1.540609 1.238688 0.017726 -0.009990 1245910.000000 0 0 1
0.583237 -31.639847 11.211394 33.572539 -1.552365 1.230310 0.020334 -0.003671 1111060.000000 0 0 1
1.031237 -32.896747 10.768394 34.629723 -1.539459 1.254595 0.018151 -0.006635 -769094.000000 0 0 1
2.411037 -33.061957 10.795594 34.863318 -1.498000 1.255966 0.017807 0.002618 -247239.000000 0 0 1
3.074337 -33.538517 12.129894 35.796899 -1.479386 1.225099 0.013701 0.003251 -209516.000000 0 0 1
2.922337 -32.696547 13.240394 35.396500 -1.481656 1.187414 0.011509 0.009823 -1299.310000 0 0 1
3.550337 -33.154557 14.415894 36.326953 -1.464118 1.162728 0.001725 0.010049 -523250.000000 0 0 1
3.207037 -32.317507 15.682994 36.064700 -1.471885 1.120917 0.000584 0.011038 -30298.300000 0 0 1
3.550337 -30.933827 15.746494 34.892099 -1.456524 1.102585 0.001788 0.002487 595147.000000 0 0 1
4.956037 -30.706147 15.844594 34.906746 -1.410774 1.099645 0.006784 0.010528 218259.000000 0 0 1
5.505337 -29.537167 15.046494 33.602826 -1.386524 1.106521 0.016879 0.000012 -569536.000000 0 0 1
5.702637 -29.611637 13.612894 33.085948 -1.380545 1.146763 0.020037 0.003464 -320245.000000 0 0 1
4.564337 -29.688107 12.782494 32.643667 -1.418248 1.168452 0.001116 0.009811 -565677.000000 0 0 1
4.864137 -29.808567 11.252394 32.230837 -1.409043 1.214166 0.005975 0.001193 237083.000000 0 0 1
5.357037 -31.086357 10.768894 33.332094 -1.400145 1.241815 0.011443 0.002178 1624040.000000 0 0 1
6.776937 -31.351317 10.986894 33.904922 -1.357911 1.240789 0.018004 0.003638 1362160.000000 0 0 1
7.126237 -32.820697 10.551894 35.204032 -1.356989 1.266381 0.005442 0.011711 -113172.000000 0 0 1
6.469437 -33.787667 11.353194 36.226441 -1.381613 1.252030 -0.008053 0.005060 266874.000000 0 0 1
6.636437 34.066860 10.717094 36.324225 1.378400 1.271299 -0.008520 0.006283 14817.400000 0 0 1
6.387137 32.820035 11.652094 35.407930 1.378588 1.235466 -0.002958 0.005386 456074.000000 0 0 1
5.033837 32.551435 12.020494 35.063196 1.417369 1.220875 0.001331 0.010267 516129.000000 0 0 1
4.855737 31.269745 12.729794 34.108984 1.416741 1.188330 0.006691 0.017172 451343.000000 0 0 1
3.672437 31.157025 13.725794 34.243896 1.453469 1.158380 0.011243 0.014393 318375.000000 0 0 1
4.073237 31.699825 14.980194 35.296974 1.443003 1.132492 0.011518 0.008640 -501957.000000 0 0 1
3.037737 31.814565 15.870294 35.682777 1.475602 1.109889 0.015573 0.006397 -778013.000000 0 0 1
3.510537 32.243535 17.260194 36.740763 1.462348 1.081751 0.007719 0.010580 -258857.000000 0 0 1
3.752137 33.612902 17.377694 38.024859 1.459629 1.096167 0.004404 0.012924 25525.200000 0 0 1
4.227337 33.920825 18.644294 38.937160 1.446812 1.071474 0.003134 0.013975 -374136.000000 0 0 1
4.395937 -33.804497 19.086594 39.068738 -1.441482 1.060382 -0.002655 0.007986 -542229.000000 0 0 1
3.297537 -33.275997 19.744094 38.832910 -1.472022 1.037427 -0.012089 0.007969 -407967.000000 0 0 1
3.734637 -32.233877 20.626294 38.450153 -1.455450 1.004580 -0.011371 0.006583 750842.000000 0 0 1
2.544037 -31.477527 21.328494 38.107892 -1.490151 0.976788 -0.011859 0.009152 678082.000000 0 0 1
1.850537 -32.329767 22.234294 39.281066 -1.513619 0.969113 -0.007855 0.007398 399753.000000 0 0 1
0.764337 -31.725907 22.944094 39.160552 -1.546709 0.944808 0.002036 -0.000347 -5604.250000 0 0 1
-0.386763 -32.677797 23.269194 40.117868 1.558961 0.952042 0.006473 -0.001388 -1494630.000000 0 0 1
-1.195463 -32.790397 22.188694 39.610319 1.534355 0.976200 0.007332 -0.000457 -650103.000000 0 0 1
-1.986563 -33.961597 22.090194 40.562460 1.512369 0.994888 0.004998 -0.001687 269188.000000 0 0 1
-3.279463 -34.019366 22.933794 41.158608 1.474693 0.979780 0.004339 -0.007108 131449.000000 0 0 1
-4.367963 -33.244527 22.392994 40.320266 1.440156 0.981979 0.000520 -0.005426 -183179.000000 0 0 1
-5.475563 -33.426577 23.236894 41.076405 1.408430 0.969515 0.005569 -0.013658 -650713.000000 0 0 1
-6.749563 -32.946927 22.541994 40.487011 1.368730 0.980303 -0.004175 -0.005770 -714834.000000 0 0 1
-6.987363 -33.731847 21.407594 40.557931 1.366541 1.014756 -0.009713 -0.001874 -246215.000000 0 0 1
-8.127363 -33.261717 20.724694 40.023852 1.331146 1.026509 0.000263 0.003026 351682.000000 0 0 1
-9.338463 -34.239983 20.899594 41.187089 1.304537 1.038596 0.000393 0.000397 23657.900000 0 0 1
-9.826363 -34.294553 22.192194 42.013893 1.291744 1.014304 0.005150 -0.005627 244914.000000 0 0 1
-11.067763 34.131759 22.248594 42.219335 -1.257229 1.015757 0.007843 -0.003589 649258.000000 0 0 1
-11.546563 33.952742 23.717894 42.995933 -1.242988 0.986478 0.012349 -0.004578 65726.300000 0 0 1
-11.952063 -34.021862 24.483094 43.586245 1.232959 0.974338 0.012021 0.000157 533005.000000 0 0 1
-10.853763 -33.330497 25.092094 43.108460 1.255985 0.949526 0.004248 0.001191 220541.000000 0 0 1
-11.286563 -32.129697 25.947194 42.813091 1.232980 0.919702 -0.001625 -0.000627 -231332.000000 0 0 1
-11.995763 -32.309747 27.171594 43.887510 1.215296 0.903176 -0.003775 0.006684 196170.000000 0 0 1
-12.595563 -31.084187 27.520694 43.385060 1.185808 0.883647 -0.003382 0.004905 -175466.000000 0 0 1
-13.293363 -31.134557 28.864594 44.488638 1.167263 0.864779 -0.001818 0.005896 -369428.000000 0 0 1
-12.471163 -30.773377 29.964794 44.726049 1.185765 0.836638 -0.013365 0.018144 416859.000000 0 0 1
-13.275063 -30.568147 31.097894 45.581991 1.161094 0.819973 -0.007073 0.016822 -280861.000000 0 0 1
-12.590063 -29.684097 32.093094 45.493098 1.169659 0.787739 -0.005966 0.010427 -378604.000000 0 0 1
-13.534363 -29.331367 33.086094 46.240649 1.138478 0.773429 0.005284 0.005349 264132.000000 0 0 1
-13.034063 -28.801717 34.309194 46.653472 1.145828 0.744532 0.001503 0.004955 -315617.000000 0 0 1
-12.282563 -29.882617 -33.867309 46.806268 1.180820 2.379747 0.002919 0.008601 233684.000000 0 0 1
-11.001063 -30.201757 -34.404809 47.083546 1.221481 2.390170 0.004821 0.005964 33384.600000 0 0 1
-10.521463 -31.333087 -33.736209 47.229178 1.246833 2.366432 0.006285 0.012080 165509.000000 0 0 1
-9.028963 -31.701967 -33.991409 47.349263 1.293335 2.371558 -0.000688 0.010276 400195.000000 0 0 1
-8.201963 -30.913777 -33.131409 46.050234 1.311454 2.373824 0.004373 0.005415 -768807.000000 0 0 1
-6.929763 -31.493937 -33.154709 46.250669 1.354213 2.370068 0.010913 0.005236 -288344.000000 0 0 1
-5.932163 -30.713897 -32.273909 44.945958 1.380003 2.371808 0.003178 0.013903 -64552.300000 0 0 1
-6.436563 -30.786817 -30.950809 44.127202 1.364696 2.348156 0.009929 -0.000053 41346.100000 0 0 1
-5.779563 -29.908897 -30.077309 42.808760 1.379910 2.349837 0.002253 0.002404 -133413.000000 0 0 1
-6.376863 -29.970997 -28.640209 41.942658 1.361155 2.322442 0.002958 0.001262 -45547.400000 0 0 1
-6.112463 -31.153957 -27.964709 42.307873 1.377056 2.292922 -0.003834 0.004501 99931.600000 0 0 1
-7.005963 -31.427297 -26.874509 41.940407 1.351457 2.266308 0.002993 -0.000223 245456.000000 0 0 1
-6.707463 -32.787677 -26.153809 42.474033 1.369008 2.234146 0.007906 -0.001085 152360.000000 0 0 1
-5.637563 -32.597537 -25.254809 41.619549 1.399546 2.222827 0.002292 -0.000585 -260034.000000 0 0 1
-5.289563 -33.789707 -24.646109 42.156309 1.415513 2.195228 -0.000375 -0.005820 13738.300000 0 0 1
-4.369463 -33.616057 -23.388409 41.184331 1.441540 2.174743 0.011705 -0.011797 248156.000000 0 0 1
-4.945163 -33.115437 -22.184309 40.165039 1.422561 2.155952 0.016278 -0.004965 -120257.000000 0 0 1
-5.063363 -31.710607 -22.246409 39.065367 1.412459 2.176653 0.005446 0.004434 -390811.000000 0 0 1
-5.348563 -31.060207 -20.873009 37.802461 1.400269 2.155749 0.019222 0.000992 1089480.000000 0 0 1
-6.728663 -31.300527 -20.410209 37.968072 1.359049 2.138340 0.020767 -0.005342 2078180.000000 0 0 1
-7.510763 -30.143617 -20.054509 36.976107 1.326603 2.144045 0.031078 -0.007619 150181.000000 0 0 1
-7.864763 -29.183247 -21.235009 36.938354 1.307554 2.183250 0.028598 -0.015263 -832741.000000 0 0 1
-6.731863 -28.660507 -21.876209 36.678483 1.340095 2.209844 0.029195 -0.006839 -462642.000000 0 0 1
-6.996863 -27.493007 -22.694209 36.329721 1.321591 2.245509 0.037989 -0.014519 -696185.000000 0 0 1
-6.118163 -27.484237 -23.971909 36.979286 1.351761 2.276083 0.028701 -0.012052 2087400.000000 0 0 1
-4.737663 -26.992067 -23.943409 36.390987 1.397046 2.288888 0.032602 -0.003267 2526330.000000 0 0 1
-3.858263 -27.515927 -22.857909 35.979111 1.431485 2.259207 0.010779 0.000334 -416392.000000 0 0 1
-2.388463 -27.217387 -23.173009 35.825678 1.483266 2.274213 0.018617 -0.000708 -219630.000000 0 0 1
-1.872363 -25.855217 -23.229909 34.808427 1.498505 2.301461 0.018783 -0.000262 282143.000000 0 0 1
-2.232663 -24.986777 -22.130009 33.452370 1.481679 2.293664 0.032671 0.001636 -577318.000000 0 0 1
-2.219963 -23.498847 -22.527409 32.628334 1.476605 2.332872 0.033495 0.002631 405817.000000 0 0 1
-3.062463 -23.244947 -23.674909 33.319777 1.439803 2.361056 0.031263 -0.000056 539356.000000 0 0 1
-4.414263 -22.964147 -23.354809 33.049733 1.380889 2.355558 0.032333 -0.004265 65666.900000 0 0 1
-5.372263 -23.056447 -24.570409 34.119876 1.341876 2.374772 0.021327 -0.000961 52455.800000 0 0 1
-5.420663 -21.850247 -25.351109 33.904212 1.327623 2.415429 0.028419 0.001892 49682.100000 0 0 1
-5.929063 -22.141547 -26.625809 35.133112 1.309155 2.430816 0.034253 0.002014 -232909.000000 0 0 1
-5.686763 -20.990047 -27.597709 35.136233 1.306221 2.474217 0.041772 0.008206 57790.000000 0 0 1
-5.750263 -21.263747 -28.972809 36.395550 1.306688 2.491543 0.030509 -0.002470 -454126.000000 0 0 1
-4.510663 -21.657947 -29.456409 36.838740 1.365463 2.497432 0.027938 -0.004879 -598746.000000 0 0 1
-4.638563 -22.164947 -30.941909 38.343224 1.364499 2.509803 0.039153 -0.015033 44660.700000 0 0 1
-5.097963 -21.219347 -31.824209 38.587953 1.335014 2.540501 0.070332 -0.021560 -682027.000000 0 0 1
-6.079463 -21.667347 -32.686009 39.683862 1.297248 2.538631 0.053887 -0.024551 -411943.000000 0 0 1
-6.304763 -20.703947 -33.945509 40.257931 1.275198 2.574005 0.038847 -0.015818 1116670.000000 0 0 1
-5.201963 -20.949547 34.159994 40.408527 1.327410 0.563546 0.049877 -0.016549 632509.000000 0 0 1
-5.448663 -20.347147 32.924894 39.086352 1.309150 0.569143 0.046068 -0.016197 259868.000000 0 0 1
-4.271563 -20.455247 31.928794 38.159026 1.364930 0.579512 0.038545 -0.009168 -815530.000000 0 0 1
-4.163463 -21.803547 31.510394 38.543923 1.382114 0.613706 0.038339 -0.010718 367307.000000 0 0 1
-3.108963 -22.078747 30.600694 37.862107 1.430904 0.629683 0.025182 -0.005017 1281570.000000 0 0 1
-1.606363 -21.798547 30.996694 37.928249 1.497238 0.614181 0.027907 -0.008506 236322.000000 0 0 1
-1.204763 -20.450047 30.871394 37.049950 1.511952 0.585860 0.024183 -0.010038 369549.000000 0 0 1
-0.125263 -19.952847 31.660594 37.423588 1.564518 0.562346 0.024272 -0.005995 161063.000000 0 0 1
-0.476863 -19.692247 33.153594 38.563879 1.546585 0.536103 0.019160 -0.004668 -716352.000000 0 0 1
-1.408063 -18.695147 33.248694 38.170234 1.495621 0.513433 0.018826 -0.007971 -553632.000000 0 0 1
-1.882563 -18.621947 -34.426409 39.185438 1.470045 2.643617 0.027777 -0.009511 775295.000000 0 0 1
-3.005263 -17.546247 -34.118009 38.482995 1.401166 2.660681 0.034306 -0.014976 723483.000000 0 0 1
-2.533263 -16.231847 -34.142709 37.889508 1.415978 2.693125 0.031734 -0.021146 -272526.000000 0 0 1
-3.533863 -15.324347 -33.771009 37.253252 1.344154 2.705775 0.037459 -0.028796 -5741.240000 0 0 1
-3.133963 -13.848447 -34.059009 36.900098 1.348241 2.746617 0.032651 -0.031190 783292.000000 0 0 1
-2.124163 -13.308547 -33.139709 35.775268 1.412522 2.755348 0.037459 -0.028241 839595.000000 0 0 1
-1.918163 -11.920347 -33.279309 35.401785 1.411249 2.793562 0.032376 -0.029373 199852.000000 0 0 1
-1.197263 -11.329247 34.429094 36.264966 1.465508 0.319552 0.028139 -0.026840 32182.500000 0 0 1
-1.985763 -11.352447 33.215894 35.158454 1.397629 0.333970 0.019333 -0.021546 43304.900000 0 0 1
-1.316663 -10.877347 32.101894 33.920228 1.450336 0.328914 0.014048 -0.015654 -586518.000000 0 0 1
-0.405863 -11.927547 31.416594 33.607045 1.536782 0.363040 0.007024 -0.017924 -537343.000000 0 0 1
-1.039963 -13.059447 30.878594 33.542782 1.491331 0.401250 0.021254 -0.018697 -489520.000000 0 0 1
-0.146563 -13.956947 30.276694 33.339106 1.560296 0.431968 0.031154 -0.025419 -664009.000000 0 0 1
-0.430163 -15.433647 30.397994 34.094289 1.542932 0.469961 0.038686 -0.013148 55514.500000 0 0 1
-1.484963 -15.936447 29.589194 33.640687 1.477884 0.495848 0.034280 -0.009405 501423.000000 0 0 1
-2.160563 -16.982147 30.332894 34.830242 1.444251 0.513810 0.030080 -0.003263 247288.000000 0 0 1
-2.865463 -18.035147 29.384994 34.597041 1.413231 0.556044 0.017692 -0.001778 -295644.000000 0 0 1
-4.047663 -17.627247 28.766694 33.979789 1.345084 0.561265 0.015234 -0.000984 -497480.000000 0 0 1
-4.580963 -18.626747 27.908894 33.865133 1.329647 0.602152 0.013414 0.000493 153780.000000 0 0 1
-3.716263 -19.147347 26.700394 33.065730 1.379092 0.630904 0.015822 -0.008451 194051.000000 0 0 1
-4.510663 -20.068847 25.907294 33.080093 1.349711 0.671051 0.016045 -0.007095 251028.000000 0 0 1
-4.349263 -21.408047 26.360494 34.235890 1.370364 0.692007 0.012507 -0.007711 -182334.000000 0 0 1
-28.570933 -34.184718 -0.590806 44.556057 0.874615 1.584057 -0.009145 -0.002882 -358409.000000 0 0 1
-27.726183 -33.100218 -0.305406 43.179381 0.873520 1.577869 0.003820 -0.004927 -140455.000000 0 0 1
-28.100623 -32.542818 0.913594 43.005984 0.858519 1.549551 -0.015721 0.002478 -253021.000000 0 0 1
-27.301153 -31.283918 1.315594 41.542355 0.853276 1.539122 0.003624 -0.008011 994618.000000 0 0 1
-25.882083 -31.500818 1.504894 40.797652 0.883004 1.533901 0.012575 -0.011741 574364.000000 0 0 1
-25.330363 -30.381618 2.120294 39.612695 0.875818 1.517245 0.013299 -0.016193 144339.000000 0 0 1
-23.785563 -30.409618 2.213894 38.670392 0.907021 1.513515 0.014330 -0.008933 45951.100000 0 0 1
-23.562563 -31.303218 3.275794 39.316875 0.925557 1.487382 0.010846 -0.010763 -735436.000000 0 0 1
-22.207163 -31.510318 3.529194 38.710637 0.956884 1.479501 0.021792 -0.009047 -544818.000000 0 0 1
-21.857763 -32.115718 4.887494 39.154422 0.973214 1.445644 0.023894 -0.015920 -37971.100000 0 0 1
-22.184763 -31.204118 5.941294 38.744802 0.952755 1.416845 0.030109 -0.020108 -19980.900000 0 0 1
-21.737263 -31.757718 7.178494 39.148334 0.970568 1.386386 0.025958 -0.021691 -621857.000000 0 0 1
-22.318063 -31.006018 8.363394 39.107741 0.946906 1.355277 0.027806 -0.009455 -410177.000000 0 0 1
-21.787263 -29.780218 8.730794 37.917977 0.939174 1.338457 0.035164 -0.010863 -380000.000000 0 0 1
-22.465163 -29.226618 9.837994 38.153176 0.915463 1.309995 0.024827 -0.009622 -70999.400000 0 0 1
-21.719663 -28.032118 10.459194 36.972126 0.911603 1.283986 0.038626 -0.008861 380327.000000 0 0 1
-20.487363 -28.336818 11.089494 36.683568 0.944804 1.263690 0.028696 -0.014958 -10481.600000 0 0 1
-20.088563 -27.346418 12.019394 35.997816 0.937227 1.230366 0.037760 -0.011589 291087.000000 0 0 1
-18.751963 -27.725818 12.696894 35.798997 0.976130 1.208233 0.024617 -0.010276 149564.000000 0 0 1
-18.974263 -28.697918 13.733294 37.043171 0.986607 1.190993 0.024496 -0.009988 329783.000000 0 0 1
-17.913863 -28.670518 14.699594 36.864388 1.012328 1.160645 0.018182 -0.011091 308504.000000 0 0 1
-17.792263 -29.930918 15.589994 38.150654 1.034472 1.149830 0.042728 -0.020657 -171346.000000 0 0 1
-17.408063 -31.031318 14.801294 38.536497 1.059559 1.176580 0.047105 -0.015962 25140.700000 0 0 1
-17.272663 -32.189418 15.615994 39.728614 1.078304 1.166832 0.055781 -0.013975 147739.000000 0 0 1
-17.178063 -33.582318 14.993494 40.591413 1.097974 1.192459 0.046703 -0.013948 162644.000000 0 0 1
-16.981763 34.563453 16.042794 41.717908 -1.114116 1.176072 0.061495 0.000350 91128.300000 0 0 1
-16.726263 33.291553 15.520294 40.360562 -1.105216 1.176086 0.040081 0.000795 -267522.000000 0 0 1
-16.572063 32.183453 16.551994 39.804227 -1.095280 1.141935 0.054739 0.001524 611000.000000 0 0 1
-17.816063 31.904453 17.215394 40.394010 -1.061512 1.130523 0.052901 -0.000812 832676.000000 0 0 1
-17.663263 30.896953 18.191994 39.969504 -1.051458 1.098259 0.032847 0.004506 -199217.000000 0 0 1
-18.498663 31.139153 19.433594 41.103674 -1.034753 1.078337 0.036921 -0.000380 -35147.300000 0 0 1
-17.824663 31.924453 20.404394 41.871573 -1.061573 1.061791 0.039498 0.001190 698144.000000 0 0 1
-18.682263 32.188253 21.533194 42.997547 -1.044909 1.046273 0.034327 0.007529 541948.000000 0 0 1
-18.047163 33.313353 22.384794 44.006347 -1.074317 1.037155 0.022507 0.012711 589976.000000 0 0 1
-16.953663 32.908853 23.219394 43.698508 -1.095086 1.010598 0.016826 0.007345 300106.000000 0 0 1
-16.678463 33.524453 24.495994 44.744987 -1.109150 0.991473 0.015653 0.004360 115581.000000 0 0 1
-17.678563 33.157653 25.627494 45.483294 -1.080969 0.972242 0.009298 0.005468 68090.700000 0 0 1
-19.021163 33.560653 25.562294 46.276916 -1.055169 0.985584 0.013277 -0.001702 -432380.000000 0 0 1
-19.826163 32.700653 26.290794 46.407061 -1.025763 0.968513 0.017650 -0.000553 -957500.000000 0 0 1
-21.299663 32.989353 26.063294 47.130334 -0.997483 0.984830 0.035390 -0.005202 -846323.000000 0 0 1
-21.725963 32.483953 24.787394 46.277852 -0.981303 1.005553 0.036507 -0.000136 427515.000000 0 0 1
-23.063663 32.806653 24.466894 46.976994 -0.958048 1.022977 0.026992 -0.004880 -94321.200000 0 0 1
-23.449863 32.338053 23.062994 46.125345 -0.943391 1.047190 0.016577 -0.005234 -262180.000000 0 0 1
-22.996963 33.197253 22.057794 46.015913 -0.964962 1.070881 0.025025 -0.004832 48959.500000 0 0 1
-23.028463 32.615453 20.769194 45.004859 -0.956015 1.091125 0.017955 0.001393 -82175.600000 0 0 1
-22.659163 33.598853 19.625394 45.027511 -0.977457 1.119810 0.025431 0.000907 663357.000000 0 0 1
-21.285363 34.008753 19.619494 44.660794 -1.011565 1.115977 0.039974 0.004647 593231.000000 0 0 1
-21.043763 -34.327218 18.529294 44.323048 1.020848 1.139498 0.042185 0.006744 -1019010.000000 0 0 1
-19.621563 -33.810618 18.555294 43.271960 1.044960 1.127625 0.046179 0.004819 -688158.000000 0 0 1
-19.421363 -32.947418 19.662894 43.004082 1.038159 1.095915 0.039563 -0.002187 -346781.000000 0 0 1
-18.190563 -32.305818 19.665994 41.968009 1.057971 1.083097 0.045296 -0.002180 -705868.000000 0 0 1
-18.160863 -31.198018 20.765694 41.645496 1.043631 1.048779 0.040677 -0.001305 -201173.000000 0 0 1
-19.115663 -30.190818 20.581094 41.236822 1.006350 1.048242 0.047824 -0.004377 134623.000000 0 0 1
-19.300863 -29.295018 21.682894 41.241596 0.988229 1.017196 0.052416 -0.002822 166725.000000 0 0 1
-20.224863 -28.078718 21.365994 40.668971 0.946581 1.017654 0.044698 -0.011765 -205181.000000 0 0 1
-19.507963 -26.884218 21.099394 39.351064 0.943076 1.004887 0.043449 -0.007776 343187.000000 0 0 1
-20.274363 -25.673518 21.031594 38.890966 0.902368 0.999428 0.042035 0.002402 121589.000000 0 0 1
-21.302263 -25.608618 19.843994 38.773339 0.876940 1.033524 0.034730 0.007883 545673.000000 0 0 1
-22.547063 -26.263118 20.071394 40.012276 0.861384 1.045313 0.025178 0.006189 -80238.500000 0 0 1
-23.461563 -25.944218 19.076294 39.842846 0.835606 1.071522 0.018968 0.012655 264084.000000 0 0 1
-24.944763 -26.238818 19.527194 41.134269 0.810675 1.076152 0.010020 0.011187 722976.000000 0 0 1
-25.293223 -27.578918 19.718194 42.298357 0.828602 1.085841 0.007335 0.010169 -277895.000000 0 0 1
-25.442473 -28.335918 18.516694 42.345149 0.839149 1.118224 0.005543 0.001108 -290183.000000 0 0 1
-26.269913 -29.637718 18.878094 43.873512 0.845564 1.125988 0.002858 -0.001823 159796.000000 0 0 1
-27.652033 -29.408418 19.016094 44.621764 0.816170 1.130551 -0.003933 0.003182 -247829.000000 0 0 1
-28.379593 -29.785818 17.854194 44.848283 0.809570 1.161349 -0.005042 0.007387 -497798.000000 0 0 1
-29.875433 -29.523418 18.030094 45.708402 0.779472 1.165317 -0.005118 0.009715 -373969.000000 0 0 1
-30.148953 -28.157718 18.004694 45.010948 0.751260 1.159272 -0.003931 0.013233 228668.000000 0 0 1
-31.536503 -27.872318 18.177994 45.846009 0.723799 1.163094 0.004430 0.028343 424145.000000 0 0 1
-32.089433 -26.521218 17.641094 45.214101 0.690679 1.169982 -0.004056 0.020926 -156641.000000 0 0 1
-32.310343 -26.566118 16.259494 44.878592 0.688142 1.200062 0.010168 0.004458 -145885.000000 0 0 1
-32.990193 -25.410618 15.905794 44.576301 0.656334 1.205933 0.013257 0.008650 -60734.800000 0 0 1
-32.134913 -24.197618 15.285694 43.032892 0.645419 1.207658 -0.011328 0.008424 73986.800000 0 0 1
-31.284243 -23.641118 16.226894 42.437229 0.647131 1.178432 -0.019974 0.014439 -185336.000000 0 0 1
-30.820483 -22.329918 15.848794 41.227560 0.626991 1.176214 -0.017262 0.014527 -5290.160000 0 0 1
-31.788773 -21.145818 16.141894 41.451567 0.586985 1.170799 -0.010938 0.010107 56069.500000 0 0 1
-31.912123 -20.801818 17.537894 41.936582 0.577672 1.139333 -0.009808 0.015780 -219724.000000 0 0 1
-32.953823 -19.885218 17.586694 42.316287 0.542935 1.142193 -0.000135 0.008102 -462935.000000 0 0 1
-33.384563 -19.481018 19.012594 43.075722 0.528224 1.113665 0.003925 0.006835 386993.000000 0 0 1
-34.327786 -20.366218 19.680194 44.502694 0.535469 1.112719 0.007834 0.006267 923183.000000 0 0 1
-34.774850 -19.823918 20.896394 45.154592 0.518117 1.089674 0.013964 0.009980 166756.000000 0 0 1
34.314449 -20.097518 21.325694 45.124016 -0.529829 1.078556 0.004396 0.014781 407676.000000 0 0 1
34.058379 -21.525418 21.612394 45.721027 -0.563628 1.078443 0.004510 0.009731 -143648.000000 0 0 1
34.687713 -22.050118 22.724894 46.966647 -0.566239 1.065746 0.008510 0.017994 -569573.000000 0 0 1
34.137549 -23.402718 23.204394 47.450009 -0.600956 1.059821 0.012593 0.017901 144622.000000 0 0 1
33.296089 -23.292418 24.352594 47.373147 -0.610427 1.030886 0.012451 0.005132 456570.000000 0 0 1
32.793679 -24.607318 24.783294 47.907798 -0.643736 1.027089 0.025809 -0.005919 -352269.000000 0 0 1
32.019869 -24.381618 26.085194 47.960115 -0.650791 0.995726 0.028492 -0.007724 76408.700000 0 0 1
30.650249 -24.108418 25.829394 46.774043 -0.666495 0.985776 0.020793 -0.003884 235725.000000 0 0 1
29.840299 -24.186018 26.991294 46.946105 -0.681120 0.958263 0.017908 -0.001471 138025.000000 0 0 1
28.392919 -24.621318 26.738094 46.122584 -0.714375 0.952414 0.015502 -0.000905 -533125.000000 0 0 1
27.512269 -23.734818 26.145994 44.764712 -0.711821 0.947055 0.009974 0.002196 -234592.000000 0 0 1
26.269889 -24.409518 25.979294 44.281546 -0.748706 0.943838 0.007477 0.012226 660214.000000 0 0 1
25.138539 -23.546518 25.328994 42.754445 -0.752709 0.936725 -0.005731 0.011151 -202297.000000 0 0 1
25.320339 -23.304718 23.948894 41.925874 -0.743970 0.962805 0.006502 -0.001851 232483.000000 0 0 1
26.349749 -22.352418 23.688094 41.893503 -0.703505 0.969835 0.002913 0.003919 166208.000000 0 0 1
26.414419 -21.873618 22.244394 40.877741 -0.691638 0.995398 0.006024 0.005408 13252.200000 0 0 1
25.603049 -20.717418 22.090894 39.657724 -0.680312 0.979980 0.001951 0.008709 155745.000000 0 0 1
25.635479 -20.227918 20.777294 38.704552 -0.668034 1.004135 -0.001239 0.002327 58649.000000 0 0 1
24.686839 -19.009618 20.573994 37.337579 -0.656198 0.987203 0.016141 0.002226 -6234.250000 0 0 1
25.062839 -17.827918 21.247094 37.382075 -0.618289 0.966265 0.012887 -0.002090 60442.500000 0 0 1
24.820539 -17.794618 22.668494 38.033777 -0.621999 0.932274 0.014547 0.002001 -151165.000000 0 0 1
25.089039 -16.370918 23.222494 37.904499 -0.578140 0.911377 0.013644 0.009023 -248819.000000 0 0 1
24.079739 -15.430918 22.986094 36.692064 -0.569899 0.893794 0.023373 0.002673 -146652.000000 0 0 1
24.258339 -14.274818 23.828094 36.878387 -0.531884 0.868298 0.030111 0.006390 363585.000000 0 0 1
23.002739 -13.344918 23.767094 35.666336 -0.525692 0.841462 0.036205 0.002152 1231840.000000 0 0 1
21.821639 -13.945118 24.316994 35.524166 -0.568639 0.816852 0.037348 -0.000029 268568.000000 0 0 1
20.671939 -13.140018 24.276894 34.487051 -0.566218 0.789863 0.030271 -0.001875 384371.000000 0 0 1
19.417139 -13.914418 24.800494 34.434006 -0.621784 0.766659 0.031689 0.000035 91594.900000 0 0 1
18.865239 -14.803618 23.856594 33.825750 -0.665344 0.787980 0.038466 -0.008392 -690987.000000 0 0 1
17.690139 -15.288918 24.392494 33.788841 -0.712716 0.764238 0.028191 -0.004113 -990389.000000 0 0 1
16.947039 -16.341918 23.612794 33.344031 -0.767222 0.783912 0.024463 -0.006127 -231651.000000 0 0 1
17.581839 -17.610918 23.749294 34.399047 -0.786224 0.808747 0.025936 -0.008404 242957.000000 0 0 1
17.181039 -18.567418 22.777194 34.040236 -0.824160 0.837765 0.024956 -0.003064 -142144.000000 0 0 1
17.800039 -19.970018 22.992494 35.274605 -0.842787 0.860822 0.019427 0.000488 -48368.300000 0 0 1
17.206239 -20.464618 24.165394 36.039166 -0.871679 0.835871 0.021585 0.001473 173167.000000 0 0 1
17.509939 -21.853518 24.389994 37.135508 -0.895299 0.854251 0.024572 -0.000964 -251556.000000 0 0 1
16.943039 -22.974918 23.502494 36.976758 -0.935370 0.882009 0.022024 -0.000726 263457.000000 0 0 1
17.755439 -23.248418 22.343594 36.810063 -0.918568 0.918520 0.026949 -0.002659 600160.000000 0 0 1
18.822439 -24.188818 22.570094 38.063003 -0.909524 0.936058 0.026790 -0.003078 276608.000000 0 0 1
19.782439 -24.308518 21.396294 37.947995 -0.887693 0.971778 0.029463 -0.001602 -345482.000000 0 0 1
19.246039 -25.053218 20.331694 37.569289 -0.915745 0.998958 0.040040 -0.009263 168063.000000 0 0 1
20.249739 -25.388018 19.396594 37.826330 -0.897514 1.032376 0.033585 -0.011226 139166.000000 0 0 1
19.638439 -25.953318 18.112694 37.246646 -0.923032 1.062957 0.037119 -0.013835 273725.000000 0 0 1
19.112339 -27.251118 18.406394 38.035513 -0.959171 1.065660 0.042152 -0.017600 -160561.000000 0 0 1
18.311039 -27.874618 17.448494 37.639585 -0.989581 1.088779 0.036340 -0.017136 -120737.000000 0 0 1
17.555239 -29.119618 18.096994 38.518044 -1.028272 1.081696 0.040116 -0.019112 803243.000000 0 0 1
16.395439 -28.734018 18.859494 38.080634 -1.052280 1.052672 0.047095 -0.017379 428305.000000 0 0 1
15.869039 -29.887818 19.483394 39.047544 -1.082694 1.048391 0.053751 -0.016521 158659.000000 0 0 1
14.467039 -29.666218 20.119994 38.654803 -1.117069 1.023355 0.049156 -0.005495 281609.000000 0 0 1
13.498639 -29.385418 19.130294 37.572386 -1.140182 1.036590 0.048535 -0.009955 -734703.000000 0 0 1
12.234339 -29.197018 19.675394 37.272859 -1.173996 1.014700 0.025403 -0.006906 -692292.000000 0 0 1
11.218939 -28.645918 18.700994 36.002505 -1.197516 1.024606 0.020641 -0.011009 -432275.000000 0 0 1
10.863039 -29.479218 17.628794 36.025050 -1.217738 1.059454 0.015831 -0.012794 -38835.200000 0 0 1
10.062539 -28.785518 16.711794 34.772759 -1.234505 1.069457 0.032464 -0.012707 -153148.000000 0 0 1
9.749739 -29.482018 15.351194 34.639658 -1.251417 1.111667 0.028772 -0.011130 327886.000000 0 0 1
8.838539 -30.597718 15.458194 35.401919 -1.289588 1.118926 0.014358 -0.003930 417407.000000 0 0 1
8.921939 -31.508318 14.408594 35.776845 -1.294858 1.156293 0.022613 -0.004070 260553.000000 0 0 1
7.781439 -32.589618 14.368594 36.456693 -1.336414 1.165678 0.004955 -0.004491 138096.000000 0 0 1
7.682639 -33.494318 15.445894 37.675826 -1.345325 1.148377 0.005038 -0.002478 -305660.000000 0 0 1
6.830439 -34.523518 15.054394 38.277447 -1.375470 1.166582 0.002834 0.004574 -491529.000000 0 0 1
6.891039 33.471753 16.044994 37.752967 1.367757 1.131835 0.000825 0.004734 -905610.000000 0 0 1
8.048839 32.723853 16.068994 37.334260 1.329621 1.125851 -0.002560 0.000301 -996162.000000 0 0 1
8.006639 31.647653 16.984694 36.798914 1.323003 1.091050 0.000472 -0.000368 808290.000000 0 0 1
9.326439 30.772853 17.078294 36.409052 1.276522 1.082562 -0.000179 -0.004640 805451.000000 0 0 1
9.688539 30.025253 15.890094 35.325327 1.258665 1.104231 0.018830 -0.006273 -1344120.000000 0 0 1
10.876239 29.407453 16.177394 35.281708 1.216552 1.094466 0.003968 -0.005849 -1078210.000000 0 0 1
11.649639 28.830653 14.951694 34.503243 1.186785 1.122599 0.012061 -0.000894 469696.000000 0 0 1
10.859939 27.974753 14.083894 33.149376 1.200499 1.131987 0.014581 -0.000850 902057.000000 0 0 1
11.735439 27.412753 13.067894 32.556864 1.166302 1.157766 0.017135 0.001623 605030.000000 0 0 1
-9.405763 -9.507647 19.429896 23.587806 0.790785 0.602844 0.016129 0.004509 -81944.900000 0 1 0
-9.250363 -9.405247 18.000696 22.317100 0.793700 0.632440 0.001949 -0.002182 -20735.800000 0 1 0
-9.098663 -10.723647 17.453496 22.414433 0.867193 0.678250 -0.000062 -0.007780 -37401.600000 0 1 0
-9.383863 -10.764047 15.927796 21.391968 0.853794 0.730907 0.003499 -0.015437 1129120.000000 0 1 0
-10.810863 -10.529547 15.748096 21.811663 0.772217 0.764103 0.012374 -0.016225 1362090.000000 0 1 0
-11.436163 -10.974947 14.566196 21.526945 0.764821 0.827594 0.019355 -0.018524 228339.000000 0 1 0
-11.431763 -12.531147 14.381696 22.238436 0.831245 0.867540 0.009030 -0.015924 -663987.000000 0 1 0
-10.145363 -13.008347 14.077296 21.686764 0.908425 0.864370 0.013905 -0.010622 -209000.000000 0 1 0
-10.092063 -14.421747 14.023096 22.505194 0.960217 0.898090 0.016443 -0.006949 -29118.400000 0 1 0
-9.514863 -15.098347 15.263196 23.483140 1.008472 0.863259 0.008380 -0.004501 27445.900000 0 1 0
-10.437563 -14.896347 16.316996 24.435389 0.959615 0.839600 0.020026 0.003842 187540.000000 0 1 0
-9.933563 -15.511247 17.539496 25.434393 1.001192 0.809863 0.015753 0.006324 -139758.000000 0 0 1
-10.871263 -15.280147 18.741396 26.512397 0.952418 0.785702 0.012225 0.005382 -499552.000000 0 0 1
-11.164663 -13.895447 18.924396 25.997421 0.893939 0.755493 0.013311 0.002880 212664.000000 0 0 1
-12.375763 -13.499047 18.307996 25.895299 0.828783 0.785548 0.011060 0.002467 -348241.000000 0 0 1
-13.683463 -13.804047 19.026396 27.199129 0.789785 0.796068 -0.002031 0.004211 -653739.000000 0 0 1
-14.168663 -15.151247 18.979196 28.116208 0.818898 0.829795 0.009857 0.002260 -172814.000000 0 0 1
-15.004763 -15.374747 20.089696 29.412950 0.797576 0.818904 0.018523 0.008700 -78808.300000 0 0 1
-15.502163 -16.829247 20.292496 30.583100 0.826421 0.845283 0.038038 -0.000007 -140792.000000 0 0 1
-16.637463 -17.091947 19.493896 30.805061 0.798872 0.885613 0.040141 0.003990 -19391.500000 0 0 1
-16.895363 -18.450947 19.523196 31.733987 0.829380 0.908139 0.033597 -0.002289 -743787.000000 0 0 1
-18.179063 -18.832847 18.803796 32.229446 0.803060 0.947844 0.045275 -0.003268 -654897.000000 0 0 1
-18.224363 -18.977947 17.418096 31.554397 0.805652 0.986033 0.041289 -0.000018 -8923.980000 0 0 1
-18.416863 -17.667147 16.836496 30.574115 0.764624 0.987620 0.042886 0.001372 -434136.000000 0 0 1
-18.370363 -17.709147 15.285196 29.744266 0.767074 1.031086 0.028563 -0.003761 287749.000000 0 0 1
-19.322563 -18.609747 14.691296 30.586244 0.766609 1.069773 0.027568 -0.010669 349637.000000 0 0 1
-19.119863 -18.641547 13.309396 29.836495 0.772732 1.108418 0.023013 -0.010093 -46021.200000 0 0 1
-19.196963 -20.059747 12.705196 30.534224 0.807373 1.141648 0.016774 -0.008440 -1020560.000000 0 0 1
-18.166863 -20.870247 13.119796 30.622396 0.854539 1.128033 0.018823 -0.000206 -607275.000000 0 0 1
-18.248563 -22.122947 12.490796 31.280262 0.881073 1.160023 0.009088 -0.001137 -661230.000000 0 0 1
-17.315363 -23.270547 13.032496 31.799152 0.931089 1.148520 0.012253 -0.002710 149576.000000 0 0 1
-17.253063 -24.477847 12.235696 32.350354 0.956827 1.182919 0.011560 -0.008096 -108092.000000 0 0 1
-16.508263 -24.350947 11.069796 31.432972 0.975036 1.210906 0.006054 -0.002186 -537166.000000 0 0 1
-16.632863 -25.550887 10.117996 32.122792 0.993739 1.250362 0.013761 -0.006391 184075.000000 0 0 1
-17.921163 -25.684597 9.553696 32.743544 0.961589 1.274716 0.020261 -0.005825 -49049.200000 0 0 1
-17.809963 -26.614317 8.484596 33.128613 0.981051 1.311800 0.018962 -0.006490 2408.410000 0 0 1
-19.012863 -26.639987 7.539296 33.585992 0.950937 1.344390 0.024109 -0.009109 -179298.000000 0 0 1
-18.985863 -25.449847 6.784996 32.468352 0.929853 1.360272 0.022580 -0.006797 -52724.800000 0 0 1
-20.016363 -25.217977 5.847396 32.722976 0.899888 1.391138 0.028670 -0.006675 -95793.900000 0 0 1
-19.974863 -23.909147 4.991296 31.552424 0.874811 1.411938 0.029631 -0.005214 329905.000000 0 0 1
-21.089963 -23.871747 4.101096 32.116442 0.847189 1.442752 0.028527 -0.001918 406867.000000 0 0 1
-21.008563 -22.712247 3.304396 31.114706 0.824346 1.464395 0.031299 -0.008122 191991.000000 0 0 1
-21.656463 -22.678647 1.920096 31.416718 0.808450 1.509641 0.010594 -0.004999 132985.000000 0 0 1
-20.916163 -23.469647 1.012596 31.453705 0.842864 1.538598 0.010140 -0.012857 213045.000000 0 0 1
-21.490763 -23.355047 -0.281904 31.739417 0.826945 1.579678 0.012850 -0.003696 -151368.000000 0 0 1
-20.825663 -24.304747 -1.347404 32.035050 0.862336 1.612869 0.020756 -0.006598 136708.000000 0 0 1
-19.477763 -23.873547 -1.517704 30.848548 0.886452 1.620015 0.015542 -0.004051 278856.000000 0 0 1
-18.751863 -24.357947 -2.629004 30.852125 0.914714 1.656113 0.009500 0.003679 149380.000000 0 0 1
-18.433863 -25.874587 -2.774704 31.890446 0.951776 1.657914 0.020598 0.001906 -479491.000000 0 0 1
-19.553063 -26.664997 -3.091104 33.209927 0.938078 1.664009 0.029832 -0.000808 -130191.000000 0 0 1
-19.113563 -27.980667 -3.303404 34.046416 0.971504 1.667976 0.029731 0.002909 638099.000000 0 0 1
-20.177363 -28.785147 -4.163704 35.398405 0.959423 1.688693 0.031931 0.005392 676174.000000 0 0 1
-20.410963 -28.330087 -5.486804 35.345526 0.946464 1.726660 0.022255 0.008716 -137509.000000 0 0 1
-21.535863 -29.016057 -5.975504 36.625559 0.932303 1.734680 0.025920 0.000948 -177182.000000 0 0 1
-22.091163 -28.481747 -7.282304 36.773106 0.911096 1.770148 0.019183 0.015958 210877.000000 0 0 1
-21.089463 -28.573517 -8.323904 36.476001 0.934970 1.801027 0.038605 0.021084 495051.000000 0 0 1
-21.486363 -28.503897 -9.688804 36.986603 0.924865 1.835843 0.032364 0.019638 39949.600000 0 0 1
-22.286363 -27.227777 -10.172604 36.626707 0.884867 1.852234 0.019655 0.024377 -95961.500000 0 0 1
-21.561463 -26.032427 -10.317504 35.341687 0.879063 1.867047 0.017651 0.021758 -144190.000000 0 0 1
-21.386163 -25.206577 -9.200504 34.313099 0.867211 1.842252 0.009026 0.023707 -231926.000000 0 0 1
-21.063363 -23.758547 -9.646504 33.184165 0.845457 1.865750 0.003549 0.024807 -45682.500000 0 0 1
-22.103163 -23.055747 -10.304704 33.560456 0.806489 1.882887 -0.005401 0.028460 -248756.000000 0 0 1
-21.789563 -21.740647 -10.707204 32.589645 0.784274 1.905560 -0.009890 0.027630 125709.000000 0 0 1
-22.962463 -20.716247 -10.869404 32.780810 0.734018 1.908772 -0.015309 0.029402 37344.800000 0 0 1
-23.826763 -21.019347 -11.947904 33.945250 0.722879 1.930477 -0.026069 0.025870 368442.000000 0 0 1
-25.009963 -20.228147 -11.984604 34.326475 0.680086 1.927445 -0.023575 0.019271 254844.000000 0 0 1
-24.933163 -18.760847 -12.339604 33.554401 0.645064 1.947384 -0.019481 0.006640 -1729120.000000 0 0 1
-24.214463 -18.386747 -13.456904 33.249074 0.649445 1.987480 -0.017052 0.010508 -237853.000000 0 0 1
-24.068463 -16.931947 -13.642904 32.436254 0.613065 2.004910 -0.017697 0.004286 158212.000000 0 0 1
-23.134963 -16.265247 -12.555804 30.942414 0.612776 1.988628 -0.033072 0.007141 -349159.000000 0 0 1
-23.697763 -16.327347 -11.285004 30.911447 0.603293 1.944510 -0.016947 -0.002263 231827.000000 0 0 1
-22.700363 -16.209347 -10.296004 29.733098 0.620098 1.924400 -0.026471 0.009058 -129932.000000 0 0 1
-23.180563 -16.762547 -8.959804 29.976650 0.626081 1.874328 -0.027920 0.004285 130379.000000 0 0 1
-23.564963 -18.130847 -8.919504 31.041788 0.655801 1.862243 -0.028264 0.011994 146275.000000 0 0 1
-24.136063 -18.443347 -7.640104 31.322161 0.652490 1.817202 -0.008312 0.007096 118771.000000 0 0 1
-24.381663 -19.931547 -7.420204 32.354157 0.685310 1.802199 0.001417 0.009655 95641.700000 0 0 1
-25.277243 -20.575747 -8.321904 33.638586 0.683221 1.820784 -0.010306 0.003079 253419.000000 0 0 1
-25.581773 -21.870647 -7.834404 34.556189 0.707350 1.799500 -0.001169 0.012094 -17063.700000 0 0 1
-25.288663 -23.054247 -8.779204 35.328306 0.739211 1.821931 -0.016412 0.024354 -22622.000000 0 0 1
-25.846013 -24.266647 -8.416904 36.438041 0.753892 1.803894 -0.005809 0.021466 -853716.000000 0 0 1
-25.112413 -25.332037 -8.881204 36.758960 0.789752 1.814817 -0.014801 0.026260 -365191.000000 0 0 1
-25.785063 -26.717757 -8.649204 38.125014 0.803161 1.799653 -0.003240 0.011786 4869.820000 0 0 1
-25.454243 -27.217357 -7.384704 37.989957 0.818859 1.766427 0.008826 -0.001189 52504.200000 0 0 1
-26.173783 -28.374077 -7.000004 39.232068 0.825713 1.750182 0.010467 -0.006383 39724.700000 0 0 1
-25.678233 -28.996327 -5.631504 39.139142 0.846012 1.715182 0.021971 -0.016642 82229.300000 0 0 1
-25.954763 -28.097247 -4.539704 38.519007 0.825015 1.688927 0.012148 -0.018771 219691.000000 0 0 1
-25.355883 -28.501197 -3.314004 38.291274 0.843733 1.657452 0.010194 -0.016481 -272749.000000 0 0 1
-25.816513 -29.862417 -2.732104 39.569188 0.857936 1.639898 0.007562 -0.009995 -490345.000000 0 0 1
-25.303923 -31.049417 -3.358504 40.194954 0.887002 1.654449 0.027653 -0.013331 -81211.100000 0 0 1
-25.396993 -32.229107 -2.562004 41.113093 0.903407 1.633153 0.026174 -0.017644 -375270.000000 0 0 1
-24.448863 -32.270247 -1.377604 40.509425 0.922431 1.604810 0.030096 -0.014862 623437.000000 0 0 1
-23.063763 -32.118827 -1.762104 39.581071 0.948041 1.615330 0.035860 -0.024624 1172740.000000 0 0 1
-22.189163 -32.314527 -0.605104 39.204002 0.969078 1.586232 0.025700 -0.012304 1264870.000000 0 0 1
-21.088763 -31.200107 -0.420504 37.661113 0.976415 1.581962 0.024340 -0.009704 347180.000000 0 0 1
-21.566963 -29.918417 -0.036104 36.881525 0.946208 1.571775 0.025669 -0.009276 -235249.000000 0 0 1
-22.021263 -29.170457 -1.170104 36.568028 0.924156 1.602800 0.034687 -0.017072 -324340.000000 0 0 1
-22.774863 -27.890427 -0.765304 36.016052 0.886025 1.592047 0.008474 -0.010037 -16702.000000 0 0 1
-24.033863 -28.226967 -0.194504 37.073252 0.865461 1.576043 0.015637 -0.012477 -57811.700000 0 0 1
-24.803663 -27.059037 0.124896 36.707339 0.828858 1.567394 0.006678 -0.006006 134672.000000 0 0 1
-24.414563 -26.140147 1.324496 35.792911 0.819518 1.533783 0.005620 -0.004726 -399532.000000 0 0 1
-24.554063 -26.778607 2.554596 36.421446 0.828707 1.500599 -0.000792 -0.006139 -267992.000000 0 0 1
-23.997863 -26.042567 3.616596 35.597647 0.826236 1.469024 0.014177 -0.005655 -191156.000000 0 0 1
-24.779263 -24.888747 4.258496 35.377908 0.787602 1.450132 0.008332 -0.000229 -225039.000000 0 0 1
-24.834363 -23.798247 3.344896 34.558508 0.764096 1.473855 0.011647 0.002021 -30719.700000 0 0 1
-25.681383 -22.775347 3.825396 34.538146 0.725498 1.459810 -0.002811 0.006013 -238494.000000 0 0 1
-25.839433 -21.619847 2.912496 33.816811 0.696722 1.484564 -0.006034 0.005989 -471902.000000 0 0 1
-24.730563 -20.779147 2.877196 32.429183 0.698790 1.481957 -0.007702 0.009518 -413075.000000 0 0 1
-24.854063 -19.858047 1.844696 31.866430 0.674122 1.512876 -0.015749 0.004817 -291838.000000 0 0 1
-23.712163 -18.861747 1.744196 30.349207 0.671958 1.513294 -0.008057 0.003356 149158.000000 0 0 1
-22.449963 -19.426847 1.376996 29.720352 0.713332 1.524448 -0.005072 0.005899 -407825.000000 0 0 1
-21.441863 -18.579147 1.740596 28.424775 0.713989 1.509523 -0.000957 0.003705 -1141000.000000 0 0 1
-20.069663 -19.240347 1.614696 27.849409 0.764304 1.512784 0.003806 -0.000724 -497206.000000 0 0 1
-19.556263 -19.457747 0.291096 27.588695 0.782873 1.560245 -0.014140 -0.002488 -262179.000000 0 0 1
-18.493563 -20.353047 0.326096 27.502086 0.833229 1.558939 -0.003945 -0.000281 -421578.000000 0 0 1
-18.126963 -20.811647 -1.060204 27.619476 0.854236 1.609192 -0.000488 -0.000539 17854.200000 0 0 1
-17.492363 -19.907147 -1.967804 26.573474 0.849876 1.644916 -0.012472 -0.002052 4422.120000 0 0 1
-17.393963 -20.472547 -3.239204 27.058595 0.866521 1.690795 -0.001751 0.002868 39923.700000 0 0 1
-16.858163 -19.498147 -4.324704 26.135769 0.857885 1.737032 0.005799 0.006974 -19623.500000 0 0 1
-15.453963 -19.438047 -4.286804 25.199986 0.899089 1.741739 0.020838 0.001365 -416835.000000 0 0 1
-15.029263 -18.525347 -5.222504 24.420110 0.889214 1.786322 0.035295 -0.005309 -129421.000000 0 1 0
-13.508763 -18.220447 -5.205204 23.271560 0.932818 1.796377 0.047805 -0.018236 423228.000000 0 1 0
-12.759263 -19.354747 -5.724004 23.878217 0.987959 1.812870 0.034870 -0.018794 253571.000000 0 1 0
-11.388163 -19.054447 -5.911204 22.971820 1.032096 1.831048 0.032474 -0.026792 214446.000000 0 1 0
-10.466363 -20.278047 -5.895404 23.569041 1.094318 1.823614 0.027512 -0.024464 -22099.500000 0 1 0
-10.632663 -21.050647 -7.043804 24.612973 1.103078 1.861037 0.020361 -0.017377 -449054.000000 0 1 0
-9.666163 -22.064347 -7.071604 25.105332 1.157891 1.856338 0.025638 -0.009541 -316286.000000 0 0 1
-9.996363 -23.160847 -8.107004 26.496709 1.163344 1.881746 0.023251 0.008325 -108229.000000 0 0 1
-9.960063 -22.781747 -9.424204 26.589969 1.158642 1.933098 0.029253 0.004017 -382167.000000 0 0 1
-10.514663 -23.740747 -10.237904 27.910497 1.153866 1.946376 0.026253 0.009835 -656299.000000 0 0 1
-11.186963 -23.281047 -11.487604 28.268716 1.122855 1.989276 0.046732 0.003189 -592347.000000 0 0 1
-10.485163 -22.599747 -12.480904 27.865035 1.136402 2.035218 0.033449 0.006370 -309518.000000 0 0 1
-11.426763 -22.097947 -13.437104 28.274475 1.093566 2.066031 0.035682 -0.002711 -97505.000000 0 0 1
-10.943363 -20.955047 -14.345904 27.652778 1.089523 2.116228 0.028718 -0.001809 -365415.000000 0 0 1
-10.843663 -19.741147 -13.608904 26.315398 1.068496 2.114309 0.038394 -0.000027 -368604.000000 0 0 1
-10.597763 -18.611447 -14.343704 25.776741 1.053164 2.160914 0.036802 0.007608 -263011.000000 0 0 1
-10.288963 -17.437247 -13.409204 24.284297 1.037720 2.155768 0.048190 -0.007707 -527730.000000 0 1 0
-11.335263 -17.051547 -12.525804 24.002900 0.984112 2.119809 0.050917 -0.012475 -71089.300000 0 1 0
-10.999063 -16.078947 -11.563304 22.654401 0.970844 2.106472 0.049797 -0.022846 49494.800000 0 1 0
-10.437263 -14.707947 -12.058704 21.694988 0.953634 2.160156 0.046029 -0.010659 -64788.700000 0 1 0
-11.413463 -13.883447 -12.634604 21.969307 0.882729 2.183526 0.034514 -0.002995 -180335.000000 0 1 0
-11.547063 -14.100347 -14.071604 23.025301 0.884624 2.228292 0.042317 -0.001539 706443.000000 0 1 0
-12.930363 -13.467747 -14.505004 23.642538 0.805752 2.231298 0.040780 -0.004746 630963.000000 0 1 0
-13.037263 -12.102847 -14.192504 22.756895 0.748247 2.244209 0.036894 0.009993 -635643.000000 0 1 0
-13.975563 -11.504447 -15.009704 23.515099 0.688718 2.263085 0.003459 0.012996 -525302.000000 0 1 0
-14.237263 -10.026847 -14.541804 22.687031 0.613585 2.266563 0.009986 0.010036 473417.000000 0 1 0
-13.097163 -9.177947 -14.751604 21.757302 0.611235 2.315844 0.020519 0.013483 551803.000000 0 1 0
-13.169463 -8.262647 -15.814604 22.176740 0.560330 2.364730 0.017745 0.003708 -80416.200000 0 1 0
-11.930163 -7.348947 -15.894304 21.188787 0.552099 2.419052 0.007294 0.007378 -665227.000000 0 1 0
-10.726263 -7.987047 -15.942904 20.809176 0.640052 2.443622 0.010961 0.010122 -891765.000000 0 1 0
-9.590263 -7.160547 -15.769904 19.797385 0.641352 2.492388 0.000199 0.016440 353558.000000 0 1 0
11.388937 22.318953 15.951896 29.703646 1.098958 1.003878 0.027532 0.005734 -449874.000000 0 0 1
12.276937 22.235153 17.043896 30.587900 1.066311 0.979774 0.031209 -0.000263 -74379.300000 0 0 1
12.615137 20.875153 17.298396 29.902311 1.027211 0.953912 0.029016 0.000294 188580.000000 0 0 1
13.808537 20.731753 18.294196 30.905645 0.983216 0.937336 0.036705 -0.013067 -112086.000000 0 0 1
15.010137 21.150853 17.748296 31.427135 0.953610 0.970673 0.024979 -0.003135 -736813.000000 0 0 1
16.153437 20.705653 18.457596 32.098917 0.908279 0.958165 0.028027 -0.000343 317763.000000 0 0 1
17.435937 21.361753 17.894596 32.871766 0.886242 0.995151 0.023339 -0.004353 -1179930.000000 0 0 1
17.527237 22.785053 18.177496 34.011528 0.915093 1.006938 0.028508 -0.009175 -766831.000000 0 0 1
18.743037 23.369153 17.901096 34.897966 0.894812 1.032172 0.018036 -0.009654 -1025690.000000 0 0 1
19.944337 23.000953 18.758296 35.758833 0.856453 1.018577 0.018688 -0.015219 -914995.000000 0 0 1
20.319037 21.607853 18.498496 34.956501 0.816128 1.013155 0.019005 -0.012409 -202513.000000 0 0 1
21.471437 21.219853 19.219096 35.786568 0.779505 1.003863 0.026029 -0.020759 -304198.000000 0 0 1
21.746837 19.734253 19.077896 35.019020 0.736918 0.994662 0.015075 -0.017252 -178190.000000 0 0 1
22.175537 19.414553 17.752596 34.406889 0.719110 1.028668 0.006626 -0.014263 -12008.800000 0 0 1
21.865137 18.141253 17.304496 33.266122 0.692583 1.023730 -0.003858 -0.007271 -448860.000000 0 0 1
22.698237 16.927653 17.787196 33.438597 0.640788 1.009911 -0.009720 0.001183 525821.000000 0 0 1
24.032137 16.906153 17.271496 34.083225 0.613058 1.039392 0.002511 -0.003841 398551.000000 0 0 1
24.855037 16.077553 18.005196 34.647477 0.574160 1.024334 0.005530 -0.012035 -984029.000000 0 0 1
26.178837 15.686853 17.381896 35.121777 0.539845 1.053072 0.028005 -0.014619 -2013780.000000 0 0 1
27.003437 16.792553 17.230696 36.167283 0.556343 1.074222 0.019931 -0.015059 145504.000000 0 0 1
28.382037 16.480353 17.366696 37.131445 0.526079 1.084100 0.025490 -0.019602 527770.000000 0 0 1
29.059837 15.465753 16.402896 36.779324 0.489077 1.108526 0.017964 -0.018647 -1102460.000000 0 0 1
28.923737 15.941553 15.114596 36.320335 0.503732 1.141593 0.029271 -0.016623 111352.000000 0 0 1
29.258737 14.960953 14.144496 35.776677 0.472673 1.164342 0.050775 -0.020660 154434.000000 0 0 1
28.541237 15.174353 12.743896 34.745792 0.488657 1.195256 0.028982 -0.001761 -10193.100000 0 0 1
29.127637 16.269153 12.061396 35.476497 0.509381 1.223898 0.020670 0.000497 147476.000000 0 0 1
28.465437 16.653153 10.853496 34.718972 0.529340 1.252857 -0.001272 0.010143 610560.000000 0 0 1
27.198837 17.574453 11.065296 34.221030 0.573662 1.241531 -0.000509 0.012743 249370.000000 0 0 1
27.340437 18.855453 11.700696 35.212695 0.603749 1.232070 -0.010320 0.011692 -208823.000000 0 0 1
27.718137 18.902253 13.052796 35.999525 0.598506 1.199759 -0.007120 0.009038 -366046.000000 0 0 1
26.706337 18.555053 14.177396 35.475583 0.607215 1.159674 -0.010355 0.005509 284606.000000 0 0 1
25.650037 19.524353 14.343696 35.282664 0.650619 1.152136 -0.007490 0.007668 427080.000000 0 0 1
24.970237 19.345653 15.549796 35.207431 0.659153 1.113346 0.000132 0.003323 -564127.000000 0 0 1
25.535837 20.123253 16.768996 36.581738 0.667405 1.094604 0.005900 -0.012273 -359465.000000 0 0 1
25.454737 21.553453 16.775396 37.335089 0.702596 1.104792 0.001025 -0.013646 -47051.900000 0 0 1
24.184437 22.096753 17.048896 36.929911 0.740320 1.090936 0.006648 -0.014065 -426906.000000 0 0 1
24.105937 23.615253 16.699896 37.651865 0.775116 1.111258 0.012117 -0.007918 -136236.000000 0 0 1
23.990937 23.907153 15.313596 37.170193 0.783649 1.146164 0.018538 -0.014800 85751.900000 0 0 1
24.230837 25.305953 15.012696 38.117001 0.807098 1.165971 0.033382 -0.013570 -380240.000000 0 0 1
24.029737 25.572353 13.463296 37.585022 0.816488 1.204447 0.017415 -0.005644 573698.000000 0 0 1
22.657037 25.739653 13.081896 36.701595 0.849007 1.206342 0.014601 -0.003514 611037.000000 0 0 1
22.458037 25.948653 11.725796 36.265553 0.857384 1.241548 0.006422 -0.013264 -185817.000000 0 0 1
21.936937 24.710853 10.953496 34.811414 0.844793 1.250706 0.020349 -0.011443 311183.000000 0 0 1
20.581337 24.386253 11.326096 33.860910 0.869812 1.229734 0.019096 -0.010054 778722.000000 0 0 1
20.149637 23.055753 11.076996 32.561872 0.852560 1.223685 0.022948 -0.005036 -239449.000000 0 0 1
20.018237 22.665153 9.575796 31.719629 0.847332 1.264123 0.030849 0.001736 -769820.000000 0 0 1
19.129537 23.489853 8.882596 31.569177 0.887352 1.285576 0.035063 -0.000509 265064.000000 0 0 1
19.668837 23.600653 7.589196 31.645693 0.876017 1.328618 0.035068 -0.014430 258872.000000 0 0 1
18.549437 24.080453 6.645896 31.114591 0.914422 1.355544 0.022965 -0.008662 -427848.000000 0 0 1
17.742537 23.056853 6.171696 29.740645 0.914924 1.361760 0.030359 0.001184 483724.000000 0 0 1
16.882637 23.372453 5.032496 29.268089 0.945240 1.397993 0.050283 -0.013563 868104.000000 0 0 1
15.540037 24.123453 5.249996 29.171839 0.998518 1.389842 0.037441 -0.015841 13107.300000 0 0 1
15.543637 25.538353 5.076596 30.324643 1.024049 1.402596 0.048661 -0.022626 135448.000000 0 0 1
14.268437 26.004953 5.460096 30.160546 1.068966 1.388758 0.030293 -0.023005 -103440.000000 0 0 1
13.924737 27.374553 4.854796 31.093947 1.100233 1.414022 0.037608 -0.023006 -415029.000000 0 0 1
13.567137 27.347353 3.462596 30.723517 1.110270 1.457855 0.032128 -0.019433 304433.000000 0 0 1
13.610637 28.694953 2.970196 31.897835 1.127902 1.477545 0.023793 -0.013279 -158797.000000 0 0 1
13.082937 28.838153 1.519396 31.703484 1.144897 1.522853 0.036983 -0.013058 417683.000000 0 0 1
14.068937 28.445253 0.548296 31.739062 1.111480 1.553520 0.055094 -0.014240 289925.000000 0 0 1
14.201937 27.084253 0.356996 30.583970 1.087850 1.559123 0.046935 -0.012751 261777.000000 0 0 1
15.137137 26.778853 -0.862404 30.773099 1.056309 1.598825 0.061229 -0.014323 219718.000000 0 0 1
14.737137 27.251953 -2.076804 31.051011 1.075064 1.637730 0.051804 -0.013602 -566527.000000 0 0 1
15.714037 27.053853 -3.075204 31.437220 1.044582 1.668773 0.046404 -0.011445 -191407.000000 0 0 1
15.376537 27.629353 -4.433304 31.929191 1.062954 1.710094 0.049773 -0.005223 -1178260.000000 0 0 1
14.359237 26.910553 -5.060404 30.918817 1.080638 1.735203 0.061859 -0.014987 -577278.000000 0 0 1
14.169337 27.409153 -6.402604 31.512301 1.093676 1.775399 0.050416 -0.006384 33873.700000 0 0 1
12.974837 26.815653 -7.133104 30.631794 1.120149 1.805820 0.051171 -0.012114 -84996.700000 0 0 1
13.197637 25.467953 -7.458704 29.638261 1.092691 1.825189 0.046819 -0.015972 315470.000000 0 0 1
11.939037 24.870453 -7.785404 28.665180 1.123237 1.845849 0.032878 0.000907 571367.000000 0 0 1
11.999437 23.420453 -8.250004 27.578374 1.097319 1.874596 0.029116 -0.008137 -356909.000000 0 0 1
12.304537 23.199953 -9.583604 27.955052 1.083150 1.920716 0.022386 -0.005796 10360.300000 0 0 1
12.236437 21.828853 -9.960604 26.934046 1.059880 1.949606 0.019525 -0.003864 -373124.000000 0 0 1
12.599037 21.540253 -11.414504 27.441012 1.041549 1.999800 0.020607 0.005181 -51080.100000 0 0 1
11.788637 20.556453 -12.075704 26.596285 1.050108 2.042088 0.020827 0.007010 -164652.000000 0 0 1
11.999037 20.274653 -13.494704 27.150423 1.036410 2.090974 0.019677 0.011244 -548008.000000 0 0 1
13.394337 19.796953 -13.886604 27.643542 0.975958 2.097105 -0.002561 0.005872 -462769.000000 0 0 1
14.357437 20.767153 -13.675204 28.712747 0.965897 2.067211 0.000803 0.009163 -631881.000000 0 0 1
15.679437 20.455953 -14.083904 29.370855 0.916820 2.070904 0.008895 0.015993 1111790.000000 0 0 1
16.739237 21.520153 -13.587804 30.462230 0.909714 2.033148 0.008418 0.019267 231318.000000 0 0 1
16.785137 22.718953 -14.351504 31.683708 0.934491 2.040881 0.009806 0.012779 -146410.000000 0 0 1
15.665837 23.588753 -14.408504 31.771886 0.984557 2.041483 0.007304 0.006098 128492.000000 0 0 1
16.056737 24.965953 -14.980404 33.249513 0.999255 2.038172 0.016582 0.004406 17223.100000 0 0 1
16.375437 25.030453 -16.364604 34.095143 0.991460 2.071415 0.011280 -0.000516 487558.000000 0 0 1
15.257637 25.368853 -17.218704 34.247014 1.029325 2.097608 0.016665 0.006645 687797.000000 0 0 1
15.564737 25.205253 -18.731004 35.048771 1.017594 2.134626 0.005017 0.010204 -180885.000000 0 0 1
15.767937 23.846053 -19.156704 34.412809 0.986561 2.161173 0.008131 0.016891 -150125.000000 0 0 1
15.811537 23.846953 -20.569004 35.238698 0.985307 2.194081 0.002985 0.022334 -220539.000000 0 0 1
16.197537 22.497553 -21.163704 34.876962 0.946794 2.222838 0.008791 0.021554 -72700.000000 0 0 1
15.171037 21.513153 -21.092404 33.732264 0.956590 2.246298 0.026962 0.013185 239496.000000 0 0 1
15.571637 20.371353 -21.832004 33.676465 0.918150 2.276128 0.012873 0.014886 107358.000000 0 0 1
14.448337 19.332653 -22.057804 32.696370 0.928991 2.311254 0.015522 0.011474 -774168.000000 0 0 1
14.184037 18.569053 -20.911304 31.357284 0.918488 2.300800 0.014883 0.009928 85353.700000 0 0 1
13.393037 17.424453 -21.223304 30.551819 0.915475 2.338752 0.019223 0.002775 505667.000000 0 0 1
11.895237 17.674053 -21.565904 30.314304 0.978399 2.362299 0.025403 0.005473 -512473.000000 0 0 1
11.039637 17.601553 -20.429304 29.138372 1.010619 2.347754 0.016970 0.008586 -27559.600000 0 0 1
9.704237 17.812053 -20.851604 29.090047 1.071944 2.369991 0.015697 0.011111 73965.600000 0 0 1
8.691137 17.323753 -19.808804 27.713481 1.105798 2.367094 0.011633 0.000493 -320371.000000 0 0 1
8.613537 15.938053 -19.708804 26.770348 1.075324 2.398261 0.010151 0.004081 240334.000000 0 0 1
7.420337 15.530153 -19.034504 25.662412 1.125064 2.406438 0.017204 0.002788 353857.000000 0 0 1
7.161537 15.696453 -17.521304 24.589883 1.142755 2.363910 0.010969 0.000339 -166876.000000 0 1 0
6.965337 17.052053 -17.215004 25.211997 1.183005 2.322398 0.017804 0.005665 -104837.000000 0 0 1
6.599037 17.205953 -15.834804 24.296772 1.204566 2.280652 0.013145 -0.002409 -53107.700000 0 1 0
6.282737 18.648053 -15.350104 24.956930 1.245829 2.233263 0.008760 -0.000912 433075.000000 0 1 0
7.391137 19.551753 -15.189904 25.838598 1.209372 2.199228 0.005609 0.004921 321073.000000 0 0 1
7.830437 20.301353 -16.302804 27.189007 1.202669 2.213810 0.006783 0.010099 -486433.000000 0 0 1
9.025137 21.190553 -15.988604 28.037976 1.168160 2.177604 0.007012 0.013001 -591145.000000 0 0 1
8.778437 22.268053 -15.102604 28.302223 1.195286 2.133670 0.011390 0.010191 -77883.000000 0 0 1
8.486737 22.042553 -13.704504 27.307733 1.203274 2.096538 0.007863 0.001579 -81721.500000 0 0 1
8.211937 23.340553 -12.932804 27.919075 1.232491 2.052427 0.014484 -0.003121 -631395.000000 0 0 1
7.018237 23.952553 -13.347504 28.304352 1.285769 2.061867 0.011660 -0.001081 -346797.000000 0 0 1
6.649537 25.131053 -12.557304 28.869916 1.312130 2.020792 0.001375 -0.002918 116492.000000 0 0 1
5.921637 24.860453 -11.183004 27.895654 1.336959 1.983281 -0.012913 -0.001031 -220487.000000 0 0 1
6.691737 24.151453 -10.229004 27.068516 1.300503 1.958316 -0.008763 -0.003031 -200680.000000 0 0 1
5.913637 23.781453 -9.108404 26.143673 1.327074 1.926658 0.003239 -0.000918 -198841.000000 0 0 1
6.713037 23.508753 -7.831004 25.671988 1.292644 1.880778 -0.004315 0.002367 -340958.000000 0 0 1
7.255537 24.658353 -7.340604 26.731286 1.284630 1.848978 -0.001341 0.000983 -77418.400000 0 0 1
8.216937 24.450453 -6.324904 26.558372 1.246589 1.811258 0.015282 0.001439 111498.000000 0 0 1
8.591537 25.751253 -5.581604 27.714542 1.248774 1.773579 0.011119 -0.001490 49114.400000 0 0 1
9.102437 26.726353 -6.455104 28.962401 1.242539 1.795563 0.024797 -0.008689 -21922.200000 0 0 1
9.113937 28.031453 -5.838304 30.048494 1.256445 1.766336 0.028722 -0.004870 102414.000000 0 0 1
9.372937 29.135853 -6.866004 31.367051 1.259554 1.791475 0.027696 0.005262 -397743.000000 0 0 1
10.595637 29.067853 -7.532204 31.842452 1.221250 1.809606 0.030316 -0.001071 -553473.000000 0 0 1
10.842937 30.237653 -8.337104 33.187230 1.226489 1.824731 0.027678 -0.003600 485767.000000 0 0 1
12.228637 30.288053 -9.058504 33.896345 1.187066 1.841325 0.030787 -0.005405 1082950.000000 0 0 1
13.333337 30.431853 -8.173104 34.215131 1.157851 1.812002 0.028136 -0.004454 -101434.000000 0 0 1
14.491237 30.959753 -8.802804 35.298607 1.133020 1.822837 0.025315 -0.011061 757095.000000 0 0 1
15.655937 31.300453 -7.817904 35.860094 1.107003 1.790573 0.024412 -0.009615 216758.000000 0 0 1
16.362837 30.157053 -7.367904 35.092397 1.073662 1.782328 0.029784 -0.007252 -917067.000000 0 0 1
17.305537 30.587353 -6.453904 35.731228 1.055923 1.752417 0.024790 -0.002961 -156346.000000 0 0 1
18.386837 29.475553 -6.245704 35.297207 1.013061 1.748679 0.018466 -0.000698 -53416.500000 0 0 1
17.998937 28.416253 -5.408904 34.069069 1.006177 1.730234 0.041534 -0.010346 -609058.000000 0 0 1
18.972137 27.391353 -5.222904 33.726947 0.965032 1.726281 0.026524 -0.005492 -203915.000000 0 0 1
19.023237 26.437553 -6.412504 33.195602 0.947067 1.765192 0.025157 -0.007177 -97262.800000 0 0 1
19.669137 26.915753 -7.550404 34.181008 0.939719 1.793528 0.020208 0.002887 114417.000000 0 0 1
19.373137 26.064353 -8.590104 33.592541 0.931609 1.829383 0.017259 -0.001077 -1014020.000000 0 0 1
20.078737 26.614953 -9.862104 34.767406 0.924475 1.858405 0.021915 0.000450 186754.000000 0 0 1
21.484837 26.607253 -9.961404 35.619850 0.891511 1.854235 0.023349 0.001536 114259.000000 0 0 1
22.106837 25.308753 -9.780404 34.998593 0.852825 1.854019 0.027316 0.005105 -148195.000000 0 0 1
23.648537 25.541753 -9.656404 36.123131 0.823867 1.841406 0.018689 0.002187 695858.000000 0 0 1
24.305437 25.921053 -10.897404 37.167307 0.817554 1.868367 0.016934 0.002847 737769.000000 0 0 1
25.712837 25.730253 -10.696204 37.915758 0.785737 1.856783 0.007480 0.015182 851945.000000 0 0 1
26.554037 25.904753 -11.988204 38.985769 0.773022 1.883363 0.001950 0.008561 21224.500000 0 0 1
26.527437 27.184253 -12.602204 40.018797 0.797626 1.891155 0.009873 0.006720 -132885.000000 0 0 1
27.379637 27.332653 -13.727504 41.050735 0.784539 1.911768 0.001248 0.011899 2161.560000 0 0 1
26.900137 28.423253 -14.684904 41.798865 0.812922 1.929780 0.001549 0.009070 -209485.000000 0 0 1
27.298137 29.740753 -14.370204 42.850945 0.828196 1.912777 -0.001802 0.005844 -120852.000000 0 0 1
27.057037 30.590353 -15.491904 43.678966 0.846613 1.933364 0.000224 0.010067 -6247.130000 0 0 1
27.546937 32.070553 -15.332004 44.971374 0.861130 1.918700 -0.005695 0.007371 -205977.000000 0 0 1
28.906737 32.333453 -15.146404 45.939800 0.841295 1.906783 -0.007527 0.006236 -380716.000000 0 0 1
29.144337 33.677353 -15.394604 47.122716 0.857430 1.903597 -0.003324 -0.001431 -360622.000000 0 0 1
14.566237 -32.631818 -28.961576 45.997649 -1.150956 2.251875 0.040382 -0.029774 294511.000000 0 0 1
15.603137 -33.215518 -28.171686 46.264159 -1.131637 2.225509 0.031724 -0.023738 532288.000000 0 0 1
16.174237 -32.262618 -27.295136 45.249386 -1.106085 2.218323 0.028438 -0.026902 -672253.000000 0 0 1
17.285637 -32.793218 -26.371896 45.493574 -1.085697 2.189137 -0.001050 -0.014651 -317425.000000 0 0 1
18.602237 -32.600518 -26.805526 46.123456 -1.052266 2.190961 0.000656 -0.013076 -72033.000000 0 0 1
19.088237 -33.428918 -27.846646 47.510936 -1.051966 2.197046 -0.002322 -0.012086 -1186410.000000 0 0 1
20.566737 -33.263318 -28.166496 48.195337 -1.017029 2.194966 0.007408 -0.001166 -534903.000000 0 0 1
20.761837 -32.042818 -28.778966 47.812393 -0.995870 2.216693 0.011002 -0.013883 948634.000000 0 0 1
22.048837 -31.519418 -28.365026 47.793301 -0.960385 2.206189 -0.010442 -0.007456 733902.000000 0 0 1
22.601037 -30.319918 -29.140066 47.741468 -0.930234 2.227327 -0.020099 0.001171 16317.500000 0 0 1
23.116537 -30.667418 -30.426766 48.996458 -0.924879 2.240813 -0.012416 -0.004830 8099.460000 0 0 1
23.407737 -29.464118 -31.178126 48.868517 -0.899449 2.262695 -0.010091 -0.010886 148509.000000 0 0 1
23.750537 -29.778618 -32.646926 50.166482 -0.897539 2.279397 -0.002397 0.006315 861878.000000 0 0 1
25.052337 -30.362218 -32.821266 51.251530 -0.880928 2.265810 0.007911 -0.013248 389572.000000 0 0 1
25.157037 -31.041518 -34.083426 52.517923 -0.889727 2.277048 0.006466 -0.009514 343727.000000 0 0 1
26.585837 -31.631518 -34.303099 53.703466 -0.871852 2.263669 0.011714 -0.021627 147752.000000 0 0 1
27.594537 -30.665918 -34.373917 53.697515 -0.838068 2.265477 0.025367 -0.026434 -688676.000000 0 0 1
28.798137 -31.386118 -34.473639 54.798293 -0.828373 2.251192 0.015071 -0.016481 -105655.000000 0 0 1
30.066737 -30.525918 34.330025 54.903469 -0.792976 0.895306 0.017573 -0.018988 80765.600000 0 0 1
30.086837 -29.738518 33.150877 53.745491 -0.779576 0.906110 0.013092 -0.011864 -477014.000000 0 0 1
31.192137 -28.898518 33.146502 53.914417 -0.747247 0.908666 0.014319 -0.015076 -466871.000000 0 0 1
31.400537 -28.068718 31.839576 52.797777 -0.729431 0.923480 0.021124 -0.015697 -375397.000000 0 0 1
32.592137 -27.325118 31.838796 53.128320 -0.697719 0.928194 -0.007469 -0.015246 77496.500000 0 0 1
32.705037 -26.454918 30.735166 52.097337 -0.680141 0.939791 0.028747 -0.010064 -384739.000000 0 0 1
33.407637 -27.016318 29.485886 52.109204 -0.680015 0.969335 0.016357 -0.006948 -261171.000000 0 0 1
32.727837 -27.937818 28.590906 51.663071 -0.706604 0.984342 0.021939 -0.011116 189310.000000 0 0 1
31.576937 -27.475818 27.949716 50.331006 -0.716061 0.982051 0.029119 -0.011274 -232751.000000 0 0 1
30.920637 -28.405618 26.901426 49.866338 -0.743031 1.000988 0.019312 -0.003934 367917.000000 0 0 1
29.687437 -27.911818 26.388756 48.546678 -0.754581 0.996106 0.016470 0.004942 290378.000000 0 0 1
29.077437 -28.963218 25.618266 48.380377 -0.783430 1.012764 0.013775 0.009697 312752.000000 0 0 1
27.777637 -28.435518 24.940356 46.927573 -0.797101 1.010467 0.016217 0.019420 920360.000000 0 0 1
26.688537 -28.377118 25.893646 46.776273 -0.816053 0.984159 0.017001 0.018022 1065560.000000 0 0 1
25.442737 -28.038918 25.266076 45.518001 -0.833903 0.982339 0.008982 0.026378 761453.000000 0 0 1
24.222437 -28.047418 26.197946 45.384099 -0.858446 0.955440 0.013427 0.022735 -104109.000000 0 0 1
24.137037 -26.813218 26.887016 44.993964 -0.837875 0.930330 0.009925 0.020762 -346697.000000 0 0 1
23.077237 -26.815718 27.781916 44.983068 -0.860188 0.905098 0.017986 0.012002 -408991.000000 0 0 1
23.046537 -25.578618 28.687306 44.814842 -0.837425 0.876129 0.018379 0.023861 344960.000000 0 0 1
21.841437 -25.598718 29.473506 44.732877 -0.864434 0.851470 0.032314 0.016872 826056.000000 0 0 1
21.781837 -24.578718 30.426456 44.769756 -0.845654 0.823551 0.037755 0.010593 -201162.000000 0 0 1
21.172337 -23.208118 29.987306 43.429519 -0.831237 0.808641 0.029350 0.000198 45816.700000 0 0 1
21.976737 -22.533818 29.000706 42.799426 -0.797913 0.826308 0.027415 0.004457 637707.000000 0 0 1
21.469637 -21.236718 28.800516 41.730243 -0.779944 0.809087 0.035358 0.000390 92486.100000 0 0 1
22.244437 -20.169118 29.605276 42.167294 -0.736507 0.792467 0.040326 -0.001069 -52130.700000 0 0 1
21.980437 -20.231718 30.985446 43.041374 -0.743995 0.767139 0.040665 -0.000441 268085.000000 0 0 1
22.889937 -19.420718 31.728506 43.678503 -0.703587 0.757712 0.035354 -0.000667 -150191.000000 0 0 1
22.445137 -18.911918 33.086261 44.228333 -0.700173 0.725635 0.057661 0.001071 -346565.000000 0 0 1
22.433037 -19.998218 34.007474 45.383677 -0.728078 0.723743 0.037412 0.004108 140732.000000 0 0 1
21.762937 -19.677018 -33.827206 44.778235 -0.735105 2.427120 0.029141 0.005796 -439826.000000 0 0 1
21.558937 -20.797218 -32.813676 44.430275 -0.767416 2.401703 0.016628 0.015555 45598.200000 0 0 1
22.689137 -21.193018 -32.051576 44.623362 -0.751317 2.372107 0.013931 0.019861 -21289.500000 0 0 1
22.443937 -22.338418 -31.277866 44.508877 -0.783042 2.350028 -0.011074 0.013870 -486420.000000 0 0 1
23.570237 -22.685818 -30.324176 44.606704 -0.766280 2.318303 -0.019949 0.018159 252572.000000 0 0 1
24.744037 -23.244618 -30.924036 45.922496 -0.754163 2.309590 0.003415 0.015133 105699.000000 0 0 1
25.590837 -23.803018 -29.953066 46.028912 -0.749219 2.279361 -0.007840 0.008770 207928.000000 0 0 1
26.676637 -24.764518 -30.531616 47.508987 -0.748244 2.268747 0.002552 0.004104 252459.000000 0 0 1
27.712137 -24.094218 -31.248256 48.217708 -0.715676 2.275839 0.014653 0.001228 -32671.600000 0 0 1
27.604437 -23.974818 -32.679166 49.037993 -0.715144 2.300173 0.013324 -0.001917 150884.000000 0 0 1
28.166837 -25.234418 -33.439336 50.481043 -0.730540 2.294833 0.017418 -0.008311 200044.000000 0 0 1
27.304437 -26.326818 -33.152826 50.376021 -0.767172 2.289098 0.030671 -0.006235 146765.000000 0 0 1
27.497937 -27.476318 -33.994536 51.640227 -0.785005 2.289349 0.029439 -0.016501 46665.500000 0 0 1
26.924137 -27.473818 33.588733 51.067826 -0.795503 0.852998 0.036771 -0.007765 -78975.000000 0 0 1
27.613637 -26.606818 32.726206 50.412699 -0.766831 0.864309 0.026906 -0.008701 50882.100000 0 0 1
27.052437 -26.561818 31.430886 49.246981 -0.776248 0.878600 0.035648 -0.003907 212642.000000 0 0 1
28.054737 -25.803718 30.482706 48.806716 -0.743627 0.896229 0.027260 -0.007708 415219.000000 0 0 1
28.239637 -24.387418 30.562006 48.231312 -0.712330 0.884528 0.003960 -0.008763 106879.000000 0 0 1
28.634537 -23.784918 31.790826 48.952177 -0.693145 0.863967 -0.001480 -0.005756 -1537010.000000 0 0 1
29.249037 -22.385118 31.617296 48.541251 -0.653239 0.861435 -0.000915 -0.006602 712704.000000 0 0 1
30.559637 -22.272818 31.073256 48.944020 -0.629815 0.882952 -0.004151 -0.009502 435418.000000 0 0 1
31.609937 -22.892318 31.766676 50.322639 -0.626792 0.887619 -0.001379 -0.011897 -1141560.000000 0 0 1
32.989037 -22.446718 31.266506 50.692466 -0.597470 0.906141 0.013740 -0.021087 -287384.000000 0 0 1
33.465037 -23.076318 30.065676 50.560558 -0.603688 0.933970 0.013734 -0.019502 425442.000000 0 0 1
34.527237 -22.319318 29.483036 50.591812 -0.573859 0.948672 0.010553 -0.018522 254518.000000 0 0 1
34.847037 -22.704618 28.059686 50.171323 -0.577465 0.977282 0.019307 -0.015636 -193417.000000 0 0 1
-35.279565 -24.022018 27.954876 51.021369 0.597795 0.990938 0.019095 -0.011858 264547.000000 0 0 1
-34.713265 -24.316618 26.684516 50.083651 0.611061 1.008892 0.013859 -0.002537 -297654.000000 0 0 1
-34.494165 -25.815518 26.469016 50.565771 0.642478 1.019893 0.009153 -0.007063 -616503.000000 0 0 1
34.884037 -26.531118 26.457536 51.193725 -0.650220 1.027673 0.012889 -0.003341 -422932.000000 0 0 1
35.069337 -27.845118 26.002236 51.781515 -0.671073 1.044710 0.004981 0.001484 211166.000000 0 0 1
-34.652865 -28.774618 26.947166 52.487612 0.692985 1.031654 0.000714 -0.008700 -230884.000000 0 0 1
-34.483765 -30.082018 26.357966 52.809092 0.717329 1.048216 0.001866 -0.003755 684557.000000 0 0 1
-33.387965 -30.900518 26.821406 52.810851 0.746725 1.038078 -0.001841 -0.009801 936659.000000 0 0 1
-31.941965 -30.379718 26.637526 51.505089 0.760336 1.027241 0.013286 -0.009918 -837279.000000 0 0 1
-31.558565 -30.241018 25.281716 50.493835 0.764082 1.046402 0.013314 -0.007152 -118837.000000 0 0 1
-30.342465 -29.542018 25.220056 49.289423 0.772032 1.033666 0.007631 -0.003520 -338945.000000 0 0 1
-29.656265 -29.557718 23.870096 48.196828 0.783734 1.052659 0.002292 -0.004400 -426976.000000 0 0 1
-29.251965 -30.797918 23.332996 48.462541 0.811137 1.068471 0.008809 -0.008064 339081.000000 0 0 1
-28.911165 -30.727218 21.966496 47.566210 0.815840 1.090763 0.006288 -0.004647 -644422.000000 0 0 1
-29.044065 -32.013318 21.169496 48.130632 0.833990 1.115382 0.007494 -0.000799 65368.200000 0 0 1
-28.254965 -33.127718 21.552696 48.582995 0.864615 1.111155 0.008534 -0.015468 705472.000000 0 0 1
-26.858565 -32.951118 21.279396 47.539156 0.886914 1.106696 0.014869 -0.013667 817306.000000 0 0 1
-26.014265 -34.294918 21.270796 48.013853 0.921848 1.111839 0.017548 -0.004145 114265.000000 0 0 1
-26.418165 34.017053 20.176996 47.562491 -0.910478 1.132695 0.005136 -0.004840 955093.000000 0 0 1
-27.640465 33.252153 20.281696 47.760320 -0.877296 1.132215 0.009046 -0.004650 733153.000000 0 0 1
-27.621965 32.083353 21.310696 47.396838 -0.859983 1.104453 0.011550 0.002972 -327135.000000 0 0 1
-26.660365 31.090653 21.062396 46.054623 -0.861962 1.095800 0.005285 0.004487 -184488.000000 0 0 1
-26.690665 30.040553 21.976596 45.801716 -0.844378 1.070346 0.011259 0.001468 337914.000000 0 0 1
-25.646265 28.933753 21.570096 44.273717 -0.845558 1.061917 0.010497 0.005891 1135900.000000 0 0 1
-24.308665 29.410753 21.794696 43.942148 -0.880091 1.051826 0.025934 0.003312 164369.000000 0 0 1
-23.412765 28.405353 21.461296 42.609962 -0.881450 1.042956 0.018353 0.000586 238394.000000 0 0 1
-21.888165 28.731953 21.578496 42.074320 -0.919782 1.032276 0.017046 0.007972 454702.000000 0 0 1
-21.502365 28.754053 22.919796 42.596530 -0.928703 1.002654 0.017346 0.001956 950516.000000 0 0 1
-20.116765 29.098153 23.076796 42.236540 -0.965905 0.992772 0.026668 -0.000813 677963.000000 0 0 1
-19.806565 29.174453 24.586256 42.987588 -0.974372 0.961929 0.026689 -0.002547 -543705.000000 0 0 1
-19.868165 27.873953 25.216086 42.515318 -0.951541 0.935885 0.035203 -0.006931 364022.000000 0 0 1
-19.505365 27.796853 26.596286 43.133360 -0.958923 0.906372 0.025174 -0.008885 250656.000000 0 0 1
-18.030665 28.059353 27.037406 42.935458 -0.999648 0.889601 0.028408 -0.008911 -19007.900000 0 0 1
-17.654265 29.431153 26.808006 43.549226 -1.030487 0.907675 0.009795 -0.005811 341488.000000 0 0 1
-16.256865 29.677853 26.885096 43.218850 -1.069661 0.899414 0.011722 0.002813 360355.000000 0 0 1
-15.679465 29.986453 28.301306 44.113455 -1.089009 0.874270 0.006496 0.010978 -231985.000000 0 0 1
-15.750965 28.834053 29.075446 43.873421 -1.070827 0.846362 -0.002526 0.013279 313576.000000 0 0 1
-16.304365 29.201053 30.368896 45.175255 -1.061566 0.833558 -0.006762 0.019359 30485.800000 0 0 1
-16.234265 27.946653 31.324746 45.008960 -1.044538 0.801031 -0.010915 0.020079 -847581.000000 0 0 1
-14.932765 27.545653 31.649786 44.536047 -1.074031 0.780367 -0.006333 0.024547 -210537.000000 0 0 1
-14.786365 26.302553 32.286256 44.191212 -1.058662 0.751591 -0.002476 0.020173 -278876.000000 0 0 1
-14.855565 26.252853 33.799593 45.302457 -1.055855 0.728630 0.002231 0.021724 -4052.500000 0 0 1
-16.173965 26.163453 34.342265 46.103304 -1.017110 0.730414 0.009673 0.018978 161147.000000 0 0 1
-16.478465 27.186953 -33.765746 46.376674 -1.025891 2.386307 0.009071 0.013549 157676.000000 0 0 1
-17.858465 26.862153 -33.130356 46.239816 -0.984074 2.369554 -0.005974 0.013995 7122.490000 0 0 1
-18.910065 26.795453 -34.061883 47.284234 -0.956242 2.375124 -0.006682 0.016192 -757465.000000 0 0 1
-19.993265 26.255653 -33.369026 46.931673 -0.919986 2.361734 0.002723 0.010285 -1327870.000000 0 0 1
-21.337665 26.261453 -34.036926 47.994502 -0.888474 2.359136 0.033452 -0.000378 -1130910.000000 0 0 1
-21.567765 25.463153 33.783389 47.485346 -0.868036 0.779239 0.034421 -0.000692 -9700.240000 0 0 1
-21.470365 24.069153 33.832861 46.743590 -0.842403 0.761507 0.029882 -0.004206 -266903.000000 0 0 1
-21.767465 23.450353 32.434696 45.560412 -0.822598 0.778589 0.032404 0.000626 173715.000000 0 0 1
-23.124265 23.628953 32.077396 46.065371 -0.796192 0.800504 0.042375 -0.009384 -32602.900000 0 0 1
-23.395765 23.190753 30.767676 45.075745 -0.780998 0.819513 0.052783 -0.002224 -657345.000000 0 0 1
-24.852465 22.893753 30.480166 45.506148 -0.744398 0.836853 0.052721 -0.007121 -663579.000000 0 0 1
-25.241565 21.619153 31.080216 45.502794 -0.708250 0.818880 0.058016 -0.009094 379947.000000 0 0 1
-26.525065 21.302953 30.552376 45.725732 -0.676644 0.839055 0.052964 -0.007233 142150.000000 0 0 1
-27.149365 19.994453 31.007936 45.807841 -0.634780 0.827235 0.072681 -0.009522 -199350.000000 0 0 1
-27.664465 20.014553 32.377506 47.055370 -0.626308 0.811967 0.068598 -0.004905 103259.000000 0 0 1
-27.770265 18.733853 32.928366 46.972568 -0.593476 0.793980 0.061920 -0.005073 -160827.000000 0 0 1
-28.626065 17.617653 32.340476 46.644825 -0.551696 0.804690 0.049073 -0.004194 919614.000000 0 0 1
-30.067865 17.680653 32.293316 47.534622 -0.531568 0.823901 0.049113 -0.007639 1216250.000000 0 0 1
-30.631165 16.465653 31.771956 47.104599 -0.493231 0.830512 0.031391 0.000314 177840.000000 0 0 1
-32.167765 16.573553 31.665346 48.084737 -0.475751 0.851930 0.023261 -0.002530 -64990.400000 0 0 1
-32.788665 16.626353 32.946496 49.366018 -0.469293 0.840095 0.032217 -0.001103 231422.000000 0 0 1
-34.194565 16.684753 32.829086 50.253340 -0.453950 0.858899 0.029880 -0.007793 -151316.000000 0 0 1
-34.691965 17.088553 34.260323 51.665470 -0.457694 0.845819 0.042568 -0.006911 412657.000000 0 0 1
34.463737 17.254153 34.394321 51.656793 0.464165 0.842199 0.031704 -0.015610 520604.000000 0 0 1
34.321437 17.769853 -33.327816 51.034028 0.477745 2.282402 0.029640 -0.018884 1020180.000000 0 0 1
32.804037 17.860853 -32.922516 49.789627 0.498589 2.293257 0.014462 -0.016056 1060420.000000 0 0 1
32.004337 16.692653 -33.001306 48.908164 0.480758 2.311437 0.020602 -0.012519 367391.000000 0 0 1
30.750937 16.905953 -32.375346 47.745098 0.502667 2.315953 0.011001 -0.011652 374493.000000 0 0 1
29.717237 15.736753 -32.486386 46.756014 0.487007 2.338947 0.008594 -0.009651 -122919.000000 0 0 1
29.251237 15.647053 -33.791856 47.353508 0.491191 2.365432 0.014074 -0.009511 -182476.000000 0 0 1
28.596837 14.420253 -34.086542 46.771948 0.467050 2.387337 0.008549 -0.004223 -484179.000000 0 0 1
29.535737 13.178453 -34.268150 47.120457 0.419678 2.385097 0.012779 -0.000454 513278.000000 0 0 1
30.080937 12.546553 -33.069246 46.431173 0.395154 2.363453 0.022543 -0.001898 194270.000000 0 0 1
30.840737 11.419753 -33.371606 46.853238 0.354627 2.363507 0.035417 -0.009703 -234868.000000 0 0 1
18.591937 -21.918547 9.200594 30.178365 -0.867332 1.260990 0.021291 -0.015024 -162692.000000 0 0 1
17.767337 -22.937547 9.792294 30.621860 -0.911739 1.245298 0.002355 -0.017176 -99589.300000 0 0 1
18.324937 -23.752647 10.744394 31.865868 -0.913683 1.226881 0.008722 -0.017122 -414599.000000 0 0 1
17.341737 -24.739347 11.398794 32.290921 -0.959414 1.210017 0.008844 -0.010944 36949.900000 0 0 1
16.714337 -25.700497 10.591194 32.435443 -0.994175 1.238165 0.010280 -0.018076 893262.000000 0 0 1
15.444537 -26.102167 11.178894 32.323745 -1.036505 1.217661 0.025931 -0.014504 1102700.000000 0 0 1
14.676337 -27.107347 10.260794 32.488259 -1.074568 1.249464 0.033072 -0.015359 -25022.700000 0 0 1
14.291837 -26.375217 9.103294 31.349300 -1.074219 1.276170 0.027917 -0.018484 108123.000000 0 0 1
13.739537 -27.226887 8.100394 31.554629 -1.103451 1.311180 0.040193 -0.006701 -26848.100000 0 0 1
13.538137 -26.531117 6.738394 30.538291 -1.098963 1.348311 0.036820 -0.013038 126660.000000 0 0 1
12.695837 -25.369287 6.845694 29.183017 -1.106796 1.334012 0.044187 -0.016477 322356.000000 0 0 1
12.519037 -24.595347 5.643694 28.169285 -1.099974 1.369082 0.041048 -0.008740 -135819.000000 0 0 1
11.796437 -23.267347 5.864194 26.737878 -1.101568 1.349677 0.041897 -0.007139 -117431.000000 0 0 1
11.449337 -22.540547 4.723394 25.719137 -1.100814 1.386095 0.039287 -0.003955 406925.000000 0 0 1
10.582937 -21.431447 5.033194 24.426185 -1.112118 1.363252 0.039951 0.002957 567546.000000 0 1 0
9.807937 -20.809747 3.832494 23.322289 -1.130359 1.405720 0.032386 -0.001766 -169177.000000 0 1 0
10.567537 -20.030147 2.977494 22.841740 -1.085328 1.440071 0.024356 0.005446 85168.100000 0 1 0
9.779037 -19.695747 1.823694 22.065309 -1.109949 1.488052 0.018852 0.010977 692186.000000 0 1 0
10.726337 -19.353347 0.653094 22.136686 -1.064706 1.541289 0.016054 0.014965 550612.000000 0 1 0
11.625437 -18.268747 0.768594 21.667686 -1.004072 1.535317 0.007681 0.017167 160476.000000 0 1 0
12.371037 -18.090947 -0.441506 21.920762 -0.971009 1.590939 0.011484 0.014948 -103471.000000 0 1 0
13.563637 -17.135447 -0.380806 21.857282 -0.901226 1.588220 0.012586 0.016049 904219.000000 0 1 0
14.654737 -17.677847 0.430394 22.966341 -0.878628 1.552055 0.018043 0.011572 411557.000000 0 1 0
15.838537 -16.939547 0.258994 23.192123 -0.818975 1.559629 0.013770 0.005641 843796.000000 0 1 0
17.027937 -17.638247 1.069294 24.539800 -0.803002 1.527209 0.010628 0.011981 703207.000000 0 1 0
17.324037 -18.903547 0.492394 25.645834 -0.828970 1.551595 -0.001340 0.007871 575860.000000 0 0 1
18.520637 -19.397247 1.113394 26.842258 -0.808513 1.529305 -0.006858 0.014853 543831.000000 0 0 1
18.747837 -20.845847 0.593594 28.042522 -0.838337 1.549627 -0.021696 0.014341 -208153.000000 0 0 1
17.859537 -21.889347 0.949994 28.266748 -0.886435 1.537182 -0.012630 0.011431 -46178.900000 0 0 1
17.962237 -23.121247 0.173694 29.279074 -0.910318 1.564864 -0.007197 0.008124 -941608.000000 0 0 1
16.784437 -24.021447 0.432694 29.307583 -0.960925 1.556032 -0.004227 0.003293 -1108510.000000 0 0 1
16.840937 -24.635647 1.678994 29.888982 -0.971162 1.514592 -0.009856 0.005056 127323.000000 0 0 1
15.652237 -25.356537 1.958594 29.862729 -1.017763 1.505163 -0.003951 0.001967 -341557.000000 0 0 1
15.746837 -26.132017 3.295794 30.687252 -1.028476 1.463189 0.011935 -0.013501 289860.000000 0 0 1
16.757337 -27.121087 3.495494 32.071485 -1.017340 1.461589 -0.004575 -0.006012 478400.000000 0 0 1
18.030937 -26.523447 3.754394 32.290918 -0.973749 1.454265 -0.002844 -0.009573 -538119.000000 0 0 1
19.118537 -27.578227 3.827194 33.774612 -0.964617 1.457237 0.003573 -0.001965 -683294.000000 0 0 1
19.567837 -28.072457 2.546694 34.313972 -0.962055 1.496511 0.007823 0.006217 -4024.590000 0 0 1
20.578037 -29.061787 2.584794 35.703280 -0.954669 1.498336 0.028864 0.008049 -204611.000000 0 0 1
20.176937 -30.540537 2.895494 36.718075 -0.986963 1.491857 0.019994 0.010691 -165320.000000 0 0 1
20.114437 -30.831477 4.298194 37.062717 -0.992736 1.454564 0.024650 0.004614 -227603.000000 0 0 1
19.550037 -32.108097 4.340394 37.841417 -1.023872 1.455844 0.013814 -0.004400 -347993.000000 0 0 1
19.144837 -32.599607 5.683194 38.230326 -1.039788 1.421587 0.018707 -0.005431 -443304.000000 0 0 1
20.179637 -33.069397 6.502794 39.282172 -1.022895 1.404490 0.013136 -0.013231 413036.000000 0 0 1
19.596337 -33.681607 7.731394 39.727088 -1.043858 1.374934 0.012154 -0.009283 1077790.000000 0 0 1
20.726237 -34.411328 8.536994 41.068195 -1.028681 1.361396 0.009511 -0.012686 319511.000000 0 0 1
21.646437 -33.599417 9.179094 41.009082 -0.998474 1.345053 0.020777 -0.012927 -665404.000000 0 0 1
22.658737 -34.376523 9.740094 42.308783 -0.988027 1.338498 0.026833 -0.017983 -413244.000000 0 0 1
23.531837 -33.480327 10.649194 42.285753 -0.958156 1.316216 0.032217 -0.020982 -817273.000000 0 0 1
24.281737 -32.622187 9.896094 41.853823 -0.930933 1.332092 0.039726 -0.019419 -296009.000000 0 0 1
25.175337 -31.839057 10.664194 41.967227 -0.901748 1.313871 0.041175 -0.012790 272754.000000 0 0 1
26.039637 -30.937047 9.771494 41.601029 -0.871142 1.333695 0.041677 -0.012169 -121829.000000 0 0 1
25.319637 -29.759197 9.555894 40.224481 -0.865828 1.330939 0.035370 -0.009694 215143.000000 0 0 1
25.659037 -29.116057 8.336794 39.694245 -0.848428 1.359196 0.045664 -0.016307 95902.900000 0 0 1
25.169137 -27.615427 8.419694 38.301286 -0.831710 1.349158 0.047826 -0.009078 171150.000000 0 0 1
25.838737 -26.960837 9.477194 38.527188 -0.806647 1.322258 0.033797 -0.009531 117381.000000 0 0 1
25.463937 -25.589737 9.529694 37.337136 -0.787862 1.312707 0.031281 -0.010345 -422078.000000 0 0 1
26.317437 -24.814647 10.488594 37.661449 -0.756016 1.288568 0.032524 -0.017669 -86791.800000 0 0 1
27.650837 -24.654347 10.039894 38.382353 -0.728172 1.306142 0.040557 -0.013634 -283539.000000 0 0 1
28.316737 -23.643547 10.764494 38.428234 -0.695702 1.286878 0.030010 -0.020470 200792.000000 0 0 1
29.753737 -23.385147 10.262394 39.210543 -0.666119 1.305987 0.049121 -0.016928 284244.000000 0 0 1
29.638337 -22.798847 8.987594 38.457707 -0.655698 1.334914 0.058975 -0.019984 -772308.000000 0 0 1
30.820437 -22.820747 8.269294 39.230945 -0.637356 1.358418 0.054591 -0.022729 -771437.000000 0 0 1
30.752337 -22.082547 6.924294 38.487543 -0.622755 1.389901 0.054868 -0.006220 -266659.000000 0 0 1
30.487937 -20.727347 7.123494 37.548387 -0.597077 1.379924 0.046959 0.000077 -19721.900000 0 0 1
30.460237 -19.989247 5.913494 36.910235 -0.580750 1.409890 0.030426 0.000544 -140961.000000 0 0 1
30.000137 -18.492747 6.190794 35.781501 -0.552407 1.396905 0.035974 0.000746 154283.000000 0 0 1
30.873637 -17.770147 7.065194 36.316340 -0.522268 1.375002 0.036073 0.005793 213461.000000 0 0 1
30.529337 -16.380247 7.178694 35.382009 -0.492451 1.366487 0.033661 0.005380 281893.000000 0 0 1
31.124637 -15.753547 8.501594 35.905353 -0.468551 1.331748 0.028827 -0.013058 33742.800000 0 0 1
32.519737 -15.614947 8.583794 37.081550 -0.447657 1.337193 0.034026 -0.003027 -358020.000000 0 0 1
32.850737 -15.024347 9.834494 37.438205 -0.428951 1.304991 0.035974 -0.012589 1084690.000000 0 0 1
34.404837 -14.850947 10.030594 38.792476 -0.407492 1.309254 0.024767 -0.015285 1001440.000000 0 0 1
34.977337 -13.843447 9.193594 38.724376 -0.376866 1.331097 0.036302 -0.004902 312091.000000 0 0 1
-34.202665 -14.110847 9.069794 38.094612 0.391292 1.330402 0.037775 -0.007124 429660.000000 0 0 1
-33.308565 -13.230047 8.201694 36.766322 0.378087 1.345827 0.036263 -0.010591 -271224.000000 0 0 1
-33.667065 -13.291847 6.818194 36.832488 0.376018 1.384609 0.049771 -0.012440 -8527.930000 0 0 1
-32.717965 -12.723047 5.928594 35.601817 0.370875 1.403492 0.040824 -0.005927 613694.000000 0 0 1
-31.633665 -13.815447 5.513294 34.956426 0.411766 1.412416 0.018621 -0.001169 90099.200000 0 0 1
-30.890565 -14.285647 6.570994 34.662439 0.433167 1.380071 0.023943 -0.002020 -821579.000000 0 0 1
-30.075765 -15.314147 6.132694 34.302837 0.470969 1.391049 0.011036 0.009124 -726612.000000 0 0 1
-29.339965 -16.073747 7.208094 34.222149 0.501187 1.358580 -0.003395 -0.004255 -72347.400000 0 0 1
-30.221665 -16.754947 8.121994 35.497099 0.506216 1.339944 0.011784 -0.006537 217294.000000 0 0 1
-30.180065 -16.194047 9.460794 35.532944 0.492482 1.301292 -0.006976 -0.009803 -393536.000000 0 0 1
-31.070765 -16.897047 10.460894 36.882691 0.498090 1.283223 -0.019238 -0.004347 -1187830.000000 0 0 1
-32.424165 -16.659647 10.203194 37.854662 0.474629 1.297885 0.010501 -0.004697 -577291.000000 0 0 1
-33.205065 -17.496247 11.059094 39.127976 0.484947 1.284252 0.029347 -0.005013 -116928.000000 0 0 1
-33.752365 -18.853347 10.427594 40.042546 0.509406 1.307347 0.036143 -0.008272 -456551.000000 0 0 1
-32.820065 -19.898247 10.181094 39.708331 0.545027 1.311504 0.033331 -0.011950 -267801.000000 0 0 1
-32.087365 -20.413447 11.303594 39.674665 0.566601 1.281887 0.007753 -0.015266 -884362.000000 0 0 1
-32.819765 -21.109547 12.467194 40.965606 0.571577 1.261558 0.049775 -0.018132 -165423.000000 0 0 1
-33.297865 -22.447047 12.234894 41.979880 0.593151 1.275058 0.019183 -0.016672 -396079.000000 0 0 1
-34.549465 -22.344747 11.605394 42.750887 0.574085 1.295881 0.035381 -0.017152 -816830.000000 0 0 1
-35.072265 -23.763047 11.336794 43.855091 0.595496 1.309321 0.028508 -0.009504 -144399.000000 0 0 1
-35.211965 -24.423247 12.551494 44.653303 0.606422 1.285869 0.048285 -0.004047 59927.900000 0 0 1
34.804137 -25.707227 12.315494 44.987341 -0.636182 1.293502 0.027452 0.005481 279330.000000 0 0 1
33.661237 -26.060437 13.325394 44.607077 -0.658808 1.267437 0.040578 -0.013428 401188.000000 0 0 1
32.517937 -25.247127 13.154794 43.219003 -0.660188 1.261514 0.033390 -0.007337 -243912.000000 0 0 1
31.674637 -25.203177 14.273794 42.921136 -0.672107 1.231781 0.020073 0.013556 -717844.000000 0 0 1
31.606837 -23.786947 14.941694 42.285520 -0.645156 1.209644 0.021816 0.005002 -806942.000000 0 0 1
32.756137 -23.389947 15.604394 43.168868 -0.620102 1.200949 0.026144 -0.000496 -732641.000000 0 0 1
33.573237 -22.650447 14.734594 43.096557 -0.593515 1.221861 0.032594 -0.005444 -91163.000000 0 0 1
34.776437 -21.916647 15.409294 43.899730 -0.562341 1.212146 0.034178 -0.006676 57530.900000 0 0 1
34.596137 -20.734047 16.119994 43.435557 -0.539917 1.190577 0.025040 0.007969 -138252.000000 0 0 1
33.507237 -20.566647 17.003894 42.835199 -0.550503 1.162593 0.018355 0.007734 -69702.400000 0 0 1
33.464737 -19.226947 17.826794 42.513041 -0.521491 1.138094 0.005308 0.013700 -270763.000000 0 0 1
33.174437 -18.064947 17.055594 41.446096 -0.498645 1.146683 0.011253 0.004360 159761.000000 0 0 1
32.870837 -16.920947 17.874494 41.064679 -0.475394 1.120451 0.000652 0.009797 -568757.000000 0 0 1
33.994337 -16.077747 18.438694 41.881909 -0.441777 1.114914 -0.003538 0.004442 -805098.000000 0 0 1
34.711137 -16.636147 19.501594 43.150163 -0.446930 1.101849 -0.014624 0.015515 433273.000000 0 0 1
-34.904465 -15.699347 20.008394 43.187116 0.422671 1.089086 -0.003831 0.011338 37661.100000 0 0 1
-34.595965 -15.814447 21.488694 43.689146 0.428758 1.056578 0.000401 0.007877 -421471.000000 0 0 1
-33.709665 -16.830747 21.885694 43.572917 0.463076 1.044566 0.006301 0.006721 273672.000000 0 0 1
-33.570565 -16.844447 23.302094 44.200744 0.465057 1.015509 0.010534 0.008418 153018.000000 0 0 1
-32.697265 -18.043447 23.811194 44.290519 0.504250 1.003192 0.017094 0.009039 -533689.000000 0 0 1
-33.293465 -19.291047 23.705294 45.194471 0.525153 1.018648 0.015667 0.009392 -370100.000000 0 0 1
-32.428965 -20.312447 23.991894 45.164635 0.559582 1.010769 0.022837 0.010426 -757300.000000 0 0 1
-31.298665 -20.665047 22.994594 43.993203 0.583549 1.020799 0.011840 0.019930 1323470.000000 0 0 1
-30.120965 -19.819347 23.208494 42.880219 0.581973 0.998885 0.016932 0.023183 1297010.000000 0 0 1
-28.939265 -20.169047 22.515994 41.847837 0.608672 1.002681 0.009192 0.018484 638868.000000 0 0 1
-27.767665 -19.156047 22.655594 40.635862 0.603894 0.979392 0.012545 0.028935 374325.000000 0 0 1
-27.051565 -19.273347 23.880294 40.908648 0.619044 0.947461 0.019086 0.019283 502416.000000 0 0 1
-26.044565 -18.273047 23.991394 39.847341 0.611804 0.924689 0.029795 0.011298 181233.000000 0 0 1
-25.391965 -18.058747 25.406194 40.203792 0.618203 0.886749 0.027674 -0.005729 -104505.000000 0 0 1
-24.482065 -16.922947 25.496594 39.189717 0.604822 0.862430 0.034126 -0.009384 772447.000000 0 0 1
-24.235365 -16.563447 26.855794 39.786107 0.599526 0.829826 0.029555 -0.013359 250387.000000 0 0 1
-23.247365 -17.435847 27.660494 40.119218 0.643510 0.810057 0.026041 -0.008243 -705858.000000 0 0 1
-23.889165 -18.610547 28.031894 41.265381 0.661827 0.823977 0.031659 -0.005582 -21256.300000 0 0 1
-23.091565 -19.287947 28.993494 41.783584 0.695887 0.803910 0.029360 -0.008856 -74219.500000 0 0 1
-23.733665 -20.615547 29.607794 43.184593 0.715205 0.815355 0.035082 0.004780 -317247.000000 0 0 1
-24.872865 -20.342147 30.381994 44.221351 0.685528 0.813384 0.017352 -0.001683 32806.100000 0 0 1
-25.325865 -21.543947 31.002494 45.460925 0.704883 0.820358 0.004051 0.004090 -226963.000000 0 0 1
-26.532765 -21.362847 31.944694 46.699275 0.677873 0.817494 0.013780 -0.003532 -1056380.000000 0 0 1
-26.219265 -20.703647 33.191994 47.093516 0.668389 0.788641 0.012947 -0.004208 301185.000000 0 0 1
-27.311765 -20.599547 34.095094 48.298543 0.646207 0.787070 0.015941 -0.010782 482737.000000 0 0 1
-28.485165 -19.658747 33.617994 48.249771 0.604078 0.799941 0.020431 -0.015063 -168560.000000 0 0 1
-29.262765 -20.322847 32.688894 48.351745 0.607022 0.828388 0.027611 -0.012978 99956.500000 0 0 1
-30.358265 -19.553147 32.134594 48.338203 0.572202 0.843588 0.014272 -0.024026 363447.000000 0 0 1
-30.848765 -20.188447 30.806994 48.044672 0.579485 0.874715 0.022307 -0.007381 231602.000000 0 0 1
-31.722965 -19.424847 29.960094 47.762730 0.549435 0.892754 0.022495 -0.019969 670047.000000 0 0 1
-32.453565 -20.175447 29.027994 47.988613 0.556202 0.921164 0.022249 -0.012017 -134294.000000 0 0 1
-33.200565 -19.283847 28.047494 47.547935 0.526204 0.939888 0.016707 -0.009525 89220.400000 0 0 1
-34.152765 -20.024847 27.266394 48.071427 0.530309 0.967687 0.022547 -0.009111 223706.000000 0 0 1
-34.821065 -19.144047 26.436494 47.727238 0.502677 0.983746 0.010956 -0.005431 -477269.000000 0 0 1
34.436637 -19.642947 25.769694 47.284294 -0.518377 0.994413 0.011719 0.001441 204554.000000 0 0 1
33.365337 -19.672347 26.686494 47.036325 -0.532741 0.967501 -0.001307 -0.004088 27216.900000 0 0 1
32.189337 -20.208447 26.084894 46.097249 -0.560610 0.969312 0.000035 0.006265 855961.000000 0 0 1
31.085237 -20.368647 27.220094 46.066335 -0.580058 0.938636 -0.006283 0.005253 392914.000000 0 0 1
30.427137 -19.202247 27.631694 45.365708 -0.562966 0.915887 -0.014741 -0.005087 131040.000000 0 0 1
29.533637 -19.400347 28.691294 45.517024 -0.581203 0.888803 -0.010406 0.001727 -424651.000000 0 0 1
-29.108703 -5.648447 34.463759 45.463966 0.191665 0.710485 -0.004985 -0.014539 336513.000000 0 0 1
-30.137323 -5.593647 33.491309 45.400605 0.183517 0.741162 0.000536 -0.012109 584331.000000 0 0 1
-29.748553 -4.555947 32.615156 44.378840 0.151968 0.745239 0.012738 -0.012557 210313.000000 0 0 1
-30.536773 -4.554547 31.257606 43.934910 0.148058 0.779233 0.022746 -0.015795 202012.000000 0 0 1
-30.095283 -5.531947 30.299816 43.062830 0.181785 0.790319 0.009912 -0.011538 1183450.000000 0 0 1
-28.714923 -5.440847 29.853376 41.777670 0.187258 0.774777 0.014351 -0.013046 1154760.000000 0 0 1
-28.379013 -6.331247 28.664686 40.830348 0.219502 0.792533 0.014567 -0.013938 -128913.000000 0 0 1
-29.037493 -6.058447 27.448406 40.414054 0.205691 0.824152 0.005634 -0.009203 -284596.000000 0 0 1
-28.613903 -6.963747 26.529176 39.636428 0.238728 0.837513 0.028419 -0.011404 -205603.000000 0 0 1
-29.290333 -6.743747 25.160716 39.197747 0.226294 0.873833 0.017057 -0.007359 -201201.000000 0 0 1
-28.896193 -5.594647 24.445556 38.260623 0.191246 0.877700 0.026080 -0.004797 -269479.000000 0 0 1
-29.607513 -5.420147 23.259896 38.039527 0.181062 0.912884 0.029970 -0.003310 -237339.000000 0 0 1
-29.273273 -4.121947 22.473796 37.134707 0.139890 0.920784 0.027237 -0.002245 706715.000000 0 0 1
-27.936383 -4.156147 21.961296 35.777277 0.147689 0.909889 0.027923 -0.000240 438788.000000 0 0 1
-27.632913 -2.885547 21.368796 35.050388 0.104047 0.915166 0.029950 0.003660 -580856.000000 0 0 1
-26.236763 -2.749247 20.802096 33.595436 0.104405 0.903080 0.026271 0.008156 -629264.000000 0 0 1
-25.928103 -3.405947 19.585996 32.672286 0.130613 0.927960 0.031872 0.000351 -625273.000000 0 0 1
-24.699563 -3.125247 19.000096 31.318353 0.125862 0.918924 0.034191 -0.001039 -898819.000000 0 0 1
-24.473663 -4.091547 17.831696 30.556020 0.165650 0.947674 0.031547 0.000493 -802325.000000 0 0 1
-25.315223 -3.790647 16.774096 30.603918 0.148634 0.990702 0.029239 0.005093 -15571.600000 0 0 1
-25.024563 -4.564747 15.572696 29.825736 0.180427 1.021458 0.029038 -0.000422 -130925.000000 0 0 1
-26.220763 -4.429447 14.617696 30.345106 0.167349 1.068186 0.034686 -0.012556 37411.000000 0 0 1
-26.496583 -3.141547 14.040996 30.151083 0.118013 1.086384 0.039071 -0.012458 -138235.000000 0 0 1
-27.619203 -3.341247 13.216296 30.800240 0.120390 1.127303 0.040504 -0.018994 -44109.500000 0 0 1
-28.150293 -2.149347 12.342996 30.812469 0.076205 1.158642 0.043183 -0.006850 -372403.000000 0 0 1
-27.391203 -1.868947 11.205096 29.653417 0.068126 1.183303 0.038866 -0.005616 -190167.000000 0 0 1
-27.695683 -0.637347 10.563696 29.648756 0.023008 1.206497 0.033534 0.001252 -90129.800000 0 0 1
-29.101623 -0.578047 9.877196 30.737560 0.019860 1.243653 0.024670 0.002085 627453.000000 0 0 1
-29.037203 -1.369247 8.692596 30.341312 0.047120 1.280231 0.020327 -0.000651 -835818.000000 0 0 1
-30.305083 -1.504047 8.165896 31.422000 0.049589 1.307900 0.034747 -0.005784 -819816.000000 0 0 1
-30.486673 -2.256147 6.796496 31.316446 0.073870 1.352029 0.030182 -0.005671 -203229.000000 0 0 1
-29.897663 -1.579047 5.665496 30.470666 0.052766 1.383775 0.033903 -0.005463 169489.000000 0 0 1
-30.822623 -0.720447 5.064796 31.244284 0.023370 1.407975 0.032288 0.000679 -462161.000000 0 0 1
-30.393613 0.045653 3.833596 30.634462 -0.001502 1.445327 0.020592 0.000181 -233932.000000 0 0 1
-30.480953 -0.822947 2.725596 30.613635 0.026992 1.481646 0.015246 -0.006333 491984.000000 0 0 1
-29.801363 -0.347347 1.565296 29.844464 0.011655 1.518324 0.000256 -0.008058 -76538.900000 0 0 1
-30.356733 -1.030647 0.312596 30.375832 0.033938 1.560505 -0.002913 -0.010337 -299050.000000 0 0 1
-31.708593 -0.668747 0.115996 31.715857 0.021087 1.567139 0.011814 -0.011487 75103.200000 0 0 1
-32.232753 -1.241147 -1.050304 32.273735 0.038487 1.603346 0.022163 -0.015242 415665.000000 0 0 1
-33.730933 -0.878047 -1.332304 33.768652 0.026025 1.610260 0.038650 -0.018891 104763.000000 0 0 1
-34.550912 -1.670547 -0.539904 34.595487 0.048313 1.586403 0.037331 -0.018043 878412.000000 0 0 1
34.619418 -1.324247 -0.718404 34.652183 -0.038233 1.591530 0.057026 -0.026565 1255510.000000 0 0 1
33.651559 -2.434647 -0.234704 33.740332 -0.072223 1.577753 0.052709 -0.026603 -314451.000000 0 0 1
33.755919 -2.782447 1.136096 33.889449 -0.082242 1.537266 0.045001 -0.025930 115886.000000 0 0 1
33.024909 -3.944547 1.461396 33.291736 -0.118878 1.526886 0.043031 -0.019996 -444600.000000 0 0 1
33.146359 -4.411147 2.892196 33.563434 -0.132303 1.484518 0.047582 -0.011743 -58487.700000 0 0 1
32.533679 -3.487547 3.772696 32.936856 -0.106790 1.456001 0.030234 -0.011953 237220.000000 0 0 1
32.583449 -3.994647 5.087596 33.219301 -0.121989 1.417039 0.027357 -0.006961 -260148.000000 0 0 1
32.391259 -2.962647 6.133296 33.099671 -0.091211 1.384421 0.011015 0.000483 1230750.000000 0 0 1
30.976089 -2.678547 6.301396 31.723812 -0.086257 1.370833 0.022292 -0.003513 1353470.000000 0 0 1
30.710489 -1.573547 7.152296 31.571593 -0.051193 1.342270 0.012477 0.003448 290034.000000 0 0 1
29.316749 -1.471247 7.828896 30.379729 -0.050142 1.310154 0.020713 0.001347 123255.000000 0 0 1
28.246659 -1.067447 6.985796 29.117255 -0.037772 1.328513 0.023998 -0.000786 1268620.000000 0 0 1
26.967649 -0.920347 7.655096 28.048201 -0.034115 1.294363 0.021630 0.005233 1350530.000000 0 0 1
26.145069 -2.279247 7.662196 27.339876 -0.086957 1.286734 0.048709 -0.006934 -682185.000000 0 0 1
26.605789 -3.261947 8.490896 28.117674 -0.121994 1.264030 0.032499 -0.014031 231065.000000 0 0 1
25.944579 -4.501247 8.264096 27.598508 -0.171785 1.266691 0.048337 -0.021855 -166258.000000 0 0 1
26.319389 -5.567547 9.325796 28.472412 -0.208465 1.237100 0.025686 -0.016125 -543486.000000 0 0 1
25.696259 -5.218347 10.527396 28.255175 -0.200353 1.189006 0.021669 -0.015066 589180.000000 0 0 1
26.142239 -6.071047 11.565096 29.223718 -0.228187 1.163919 0.009873 -0.011541 56235.900000 0 0 1
25.042239 -6.174847 12.682096 28.741573 -0.241755 1.113810 0.015406 -0.015568 580237.000000 0 0 1
23.981739 -7.007947 12.245296 27.824133 -0.284304 1.115090 0.033963 -0.026332 -115228.000000 0 0 1
22.877239 -6.875547 13.103496 27.245968 -0.291953 1.069077 0.047700 -0.027514 -412392.000000 0 0 1
21.849639 -7.973847 13.006496 26.648788 -0.349924 1.060918 0.063247 -0.024735 -87067.000000 0 0 1
22.287339 -9.122947 13.764296 27.738231 -0.388526 1.051556 0.051551 -0.023527 137589.000000 0 0 1
21.263339 -10.071647 13.740496 27.246447 -0.442357 1.042220 0.077590 -0.036704 -282248.000000 0 0 1
21.453939 -11.227347 14.719596 28.337101 -0.482132 1.024594 0.062067 -0.038485 -146798.000000 0 0 1
21.418639 -10.818547 16.071996 28.880930 -0.467719 0.980639 0.052537 -0.032420 320608.000000 0 0 1
21.893039 -11.968447 16.789796 30.074010 -0.500289 0.978482 0.053721 -0.034930 -113175.000000 0 0 1
21.548139 -12.095247 18.311196 30.755766 -0.511487 0.933065 0.060664 -0.029030 809859.000000 0 0 1
20.143639 -12.260647 18.598296 30.033086 -0.546764 0.902996 0.049403 -0.020364 814393.000000 0 0 1
19.910739 -12.595147 19.963396 30.880616 -0.564032 0.867848 0.056254 -0.014116 136849.000000 0 0 1
20.081339 -11.516447 21.076396 31.306600 -0.520699 0.832234 0.031645 -0.012057 262658.000000 0 0 1
19.182439 -10.376547 21.101396 30.346459 -0.495861 0.801890 0.028616 -0.015405 105582.000000 0 0 1
19.420239 -9.381847 20.121696 29.496565 -0.450033 0.820069 0.038444 -0.005432 -990570.000000 0 0 1
20.384839 -8.293447 20.619896 30.157968 -0.386392 0.817935 0.037388 0.011208 1493930.000000 0 0 1
21.764739 -8.698547 20.844396 31.366501 -0.380215 0.843914 0.040743 0.003547 1309380.000000 0 0 1
22.531239 -8.793447 19.649196 31.162033 -0.372097 0.888536 0.036770 0.001258 -222658.000000 0 0 1
23.996839 -9.249847 19.900996 32.518573 -0.367910 0.912224 0.030136 -0.007364 413778.000000 0 0 1
24.007639 -10.460047 20.619996 33.331119 -0.410896 0.903785 0.028411 -0.015895 96876.600000 0 0 1
25.287039 -11.046247 20.443296 34.342135 -0.411852 0.933178 0.016218 -0.016687 272362.000000 0 0 1
25.364239 -12.605247 20.533896 34.983964 -0.461220 0.943508 -0.002149 -0.016571 -261676.000000 0 0 1
24.518039 -13.238147 19.574896 34.052302 -0.495083 0.958378 0.025780 -0.018696 287619.000000 0 0 1
24.622739 -14.662547 19.674796 34.761575 -0.537095 0.969159 0.021623 -0.017016 -362805.000000 0 0 1
23.511039 -15.394147 18.910496 33.872637 -0.579716 0.978482 0.049684 -0.027447 -480550.000000 0 0 1
23.635139 -15.142247 17.520496 33.088898 -0.569786 1.012788 0.034721 -0.030701 93664.200000 0 0 1
22.729539 -15.712947 16.594896 32.232269 -0.604864 1.029960 0.010045 -0.024302 -547362.000000 0 0 1
22.617539 -17.291347 16.667896 32.990339 -0.652723 1.041141 0.017521 -0.032834 538484.000000 0 0 1
23.874539 -17.955247 16.414896 34.085676 -0.644823 1.068342 0.012348 -0.027393 761448.000000 0 0 1
23.765539 -19.322147 16.727596 34.899264 -0.682637 1.070927 0.018515 -0.022294 -905687.000000 0 0 1
24.992139 -20.152947 16.490196 36.092587 -0.678614 1.096305 0.015223 -0.015977 -908843.000000 0 0 1
25.135139 -20.337147 15.085296 35.678297 -0.680272 1.134248 0.016329 -0.026758 -285899.000000 0 0 1
25.942249 -21.406547 14.793796 36.743665 -0.689896 1.156417 0.000583 -0.017065 -578639.000000 0 0 1
26.235289 -21.517147 13.290096 36.440426 -0.686914 1.197478 0.002135 -0.023221 -317788.000000 0 0 1
25.082139 -21.845047 12.557196 35.552819 -0.716526 1.209809 -0.005515 -0.016004 14087.200000 0 0 1
25.186339 -21.446147 11.215796 34.929686 -0.705364 1.243909 0.007645 -0.010594 163108.000000 0 0 1
23.867339 -21.595247 10.405496 33.827191 -0.735463 1.258119 -0.001294 -0.015053 -118256.000000 0 0 1
23.563939 -22.860947 9.909596 34.294055 -0.770257 1.277656 -0.001828 -0.014241 1005190.000000 0 0 1
22.180639 -22.883247 9.483396 33.249940 -0.800988 1.281565 -0.014217 -0.009232 930853.000000 0 0 1
21.770439 -24.080247 8.607396 33.584186 -0.835732 1.311611 -0.006394 -0.004825 -331920.000000 0 0 1
21.743839 -25.395357 9.134596 34.657748 -0.862706 1.304080 -0.005913 -0.003262 -5474.090000 0 0 1
21.491739 -26.362457 8.136396 34.972488 -0.886831 1.335993 -0.002597 -0.007127 670221.000000 0 0 1
20.005239 -26.808107 7.888696 34.367364 -0.929707 1.339191 -0.005322 -0.002691 800762.000000 0 0 1
19.168739 -25.759927 7.490396 32.971509 -0.931063 1.341618 -0.005289 0.005420 59808.600000 0 0 1
17.783339 -26.098947 7.513596 32.463152 -0.972676 1.337228 -0.003909 -0.009774 717090.000000 0 0 1
16.810339 -24.904847 7.391296 30.943014 -0.977059 1.329596 0.004281 -0.012781 -248127.000000 0 0 1
16.666739 -24.247447 6.170296 30.063123 -0.968604 1.364083 0.008097 -0.015147 223269.000000 0 0 1
15.825639 -23.099147 6.240796 28.687435 -0.970128 1.351498 0.020203 -0.009718 -152630.000000 0 0 1
15.669439 -22.284647 4.909696 27.681075 -0.957960 1.392486 0.030107 -0.006458 -372531.000000 0 0 1
15.150939 -20.988547 5.096696 26.382690 -0.945545 1.376391 0.051754 -0.003583 198974.000000 0 0 1
14.677139 -20.368047 3.862296 25.400651 -0.946381 1.418149 0.028033 0.000304 578806.000000 0 0 1
14.020739 -18.971047 4.091196 23.942005 -0.934334 1.399074 0.032998 0.008278 512385.000000 0 1 0
15.032639 -18.052747 4.437896 23.907672 -0.876428 1.384087 0.029785 0.006741 327869.000000 0 1 0
14.449139 -16.762747 4.519596 22.587475 -0.859389 1.369343 0.017558 0.010966 601263.000000 0 1 0
15.516039 -15.620547 4.618796 22.496271 -0.788755 1.364012 0.019469 0.008930 434095.000000 0 1 0
16.334139 -15.637747 5.824396 23.350948 -0.763620 1.318706 0.041068 0.002821 455954.000000 0 1 0
17.347739 -14.676547 5.908196 23.478753 -0.702179 1.316422 0.035326 -0.000204 418176.000000 0 1 0
18.681639 -15.044247 5.181396 24.539353 -0.677962 1.358049 0.046941 -0.010462 179985.000000 0 1 0
19.623039 -14.002147 5.298096 24.681847 -0.619766 1.354457 0.052886 -0.015221 652665.000000 0 1 0
20.997239 -14.245447 5.011396 25.863698 -0.596112 1.375801 0.050665 -0.018166 868578.000000 0 0 1
21.921539 -13.064047 5.391396 26.082376 -0.537433 1.362589 0.050757 -0.020891 -152381.000000 0 0 1
21.987739 -12.783647 6.790296 26.324711 -0.526630 1.309903 0.072642 -0.024679 13718.200000 0 0 1
22.902039 -11.736947 6.907096 26.645211 -0.473585 1.308577 0.069832 -0.022113 -178669.000000 0 0 1
22.897339 -11.060747 8.302896 26.750071 -0.450003 1.255195 0.069073 -0.022490 -157647.000000 0 0 1
23.325739 -11.926947 9.325996 27.808566 -0.472664 1.228805 0.054015 -0.023446 268010.000000 0 0 1
23.563639 -11.276847 10.506496 28.156683 -0.446357 1.188401 0.064031 -0.023239 -152207.000000 0 0 1
23.904939 -12.224247 11.652096 29.268578 -0.472701 1.161341 0.040652 -0.018128 -260836.000000 0 0 1
22.876739 -13.170447 11.883796 28.948755 -0.522370 1.147781 0.046566 -0.019504 312625.000000 0 0 1
23.223939 -14.219547 12.758896 30.072184 -0.549400 1.132634 0.035391 -0.025104 -21058.000000 0 0 1
22.063239 -15.204847 12.909396 29.742669 -0.603406 1.121828 0.034088 -0.026382 100829.000000 0 0 1
20.911839 -14.977147 13.679596 29.133336 -0.621519 1.082014 0.036239 -0.030343 -92758.900000 0 0 1
19.950439 -15.992147 13.584596 28.953584 -0.675712 1.082428 0.021876 -0.027261 146925.000000 0 0 1
18.554839 -15.606847 14.135396 28.065372 -0.699316 1.042967 0.039838 -0.028766 -179669.000000 0 0 1
18.429639 -15.224947 15.507296 28.494329 -0.690461 0.995333 0.035436 -0.034852 61844.800000 0 0 1
18.464439 -13.855847 15.731096 27.935414 -0.643762 0.972635 0.042217 -0.030517 -1916550.000000 0 0 1
17.172339 -13.166947 15.754596 26.766864 -0.654137 0.941488 0.051437 -0.029559 -1357630.000000 0 0 1
16.434639 -13.389047 14.513296 25.690459 -0.683631 0.970449 0.050740 -0.033838 2117730.000000 0 0 1
14.985939 -13.200547 14.638196 24.761049 -0.722141 0.938277 0.058236 -0.029306 1764610.000000 0 1 0
14.388739 -11.822747 14.366296 23.520281 -0.687813 0.913720 0.040855 -0.022160 -281582.000000 0 1 0
14.762739 -10.744047 15.255996 23.793243 -0.629129 0.874748 0.032988 -0.016320 245153.000000 0 1 0
14.267739 -9.525247 14.800096 22.657042 -0.588654 0.858963 0.032786 -0.011964 -532805.000000 0 1 0
14.923139 -8.495147 15.744696 23.297275 -0.517510 0.828724 0.038944 -0.012150 638529.000000 0 1 0
16.330739 -8.247647 15.732596 24.129469 -0.467670 0.860567 0.038569 -0.018628 900888.000000 0 1 0
17.004839 -9.151347 16.656196 25.501775 -0.493709 0.859074 0.043323 -0.016268 -595903.000000 0 0 1
18.524139 -9.044347 16.551796 26.436828 -0.454201 0.894270 0.048036 -0.017597 -571484.000000 0 0 1
18.988239 -7.772747 16.902196 26.582946 -0.388537 0.881715 0.041294 -0.013138 -184672.000000 0 0 1
20.213939 -7.485847 16.287196 27.016920 -0.354671 0.923726 0.041279 -0.012567 -445004.000000 0 0 1
20.917639 -6.193447 16.680596 27.461767 -0.287863 0.917998 0.045355 -0.001388 -190326.000000 0 0 1
21.220439 -6.213047 18.075596 28.559344 -0.284825 0.885486 0.042314 0.000048 393150.000000 0 0 1
21.785639 -4.995047 18.604096 29.080525 -0.225386 0.876631 0.037446 -0.001684 201754.000000 0 0 1
-5.508863 -33.264418 -5.573106 34.174970 1.406678 1.734604 0.000671 0.004145 -130496.000000 0 0 1
-6.017763 -32.058218 -6.023106 33.169573 1.385242 1.753395 0.004319 -0.000067 -105379.000000 0 0 1
-5.732063 -30.961518 -5.197806 31.913779 1.387734 1.734395 0.011335 -0.002957 -870510.000000 0 0 1
-6.434763 -29.651818 -5.563606 30.847855 1.357099 1.752145 0.015276 -0.004901 -293098.000000 0 0 1
-7.770063 -29.463018 -5.203206 30.911432 1.312945 1.739928 0.010218 -0.001187 -32531.700000 0 0 1
-8.695863 -30.193818 -6.030906 31.994632 1.290383 1.760428 0.006003 0.001174 -201385.000000 0 0 1
-10.171363 -29.777018 -5.819506 31.999907 1.241638 1.753674 0.000688 0.017708 -78691.500000 0 0 1
-10.992463 -30.550418 -6.641806 33.140245 1.225406 1.772578 -0.002231 0.009838 -34226.400000 0 0 1
-12.366163 -30.302518 -6.347506 33.338497 1.183335 1.762362 0.000947 0.015654 884823.000000 0 0 1
-13.400263 -31.041618 -7.249606 34.578980 1.163275 1.782017 0.013830 0.009649 428850.000000 0 0 1
-13.332063 -30.547918 -8.564106 34.413124 1.159283 1.822301 0.031147 0.003566 -391930.000000 0 0 1
-14.372463 -31.025418 -9.349806 35.448034 1.136980 1.837715 0.028479 0.005211 -476265.000000 0 0 1
-14.287563 -30.199218 -10.669106 35.070743 1.128891 1.879912 0.035160 0.010233 -226381.000000 0 0 1
-14.699763 -28.834518 -10.663206 34.076626 1.099342 1.889061 0.038389 0.002653 -127083.000000 0 0 1
-13.826163 -27.998418 -9.957706 32.775450 1.112105 1.879492 0.037449 0.002489 -399119.000000 0 0 1
-14.395763 -26.656618 -9.500606 31.750193 1.075629 1.874682 0.027467 0.016805 -92577.100000 0 0 1
-14.478163 -25.694418 -10.509206 31.309164 1.057666 1.913101 0.043292 0.007515 -46697.500000 0 0 1
-14.923963 -24.483118 -10.005506 30.368699 1.023376 1.906536 0.047115 0.012447 -142610.000000 0 0 1
-15.468263 -23.531518 -11.134106 30.281476 0.989277 1.947317 0.041190 0.005056 7414.890000 0 0 1
-16.779163 -23.858218 -11.535306 31.365876 0.957868 1.947402 0.049226 0.007725 -242043.000000 0 0 1
-17.315163 -22.976918 -12.548106 31.388033 0.925002 1.982066 0.057137 0.006215 212231.000000 0 0 1
-18.804163 -23.281818 -12.839506 32.565204 0.891392 1.976070 0.044874 0.011933 -80296.300000 0 0 1
-19.146363 -24.549718 -13.349206 33.874373 0.908431 1.975863 0.061230 0.010082 -248617.000000 0 0 1
-19.042363 -25.657518 -12.399106 34.273279 0.932322 1.940964 0.068184 0.004095 -937357.000000 0 0 1
-19.259563 -27.101818 -13.008806 35.702498 0.952967 1.943749 0.056567 0.003426 450238.000000 0 0 1
-18.285363 -27.496118 -13.985806 35.860755 0.983937 1.971431 0.064111 -0.003828 955756.000000 0 0 1
-16.944663 -27.667218 -13.502006 35.141154 1.021276 1.965161 0.062088 -0.007394 571892.000000 0 0 1
-16.320863 -29.022118 -13.921606 36.089680 1.058514 1.966817 0.048017 -0.012186 -58775.600000 0 0 1
-16.206863 -29.224118 -15.294006 36.750756 1.064450 2.000009 0.053443 -0.018803 -546363.000000 0 0 1
-15.549763 -30.402918 -15.603606 37.544708 1.098026 1.999399 0.060472 -0.020288 -397928.000000 0 0 1
-16.282363 -31.789618 -15.494106 38.932794 1.097443 1.980100 0.054794 -0.024322 -205983.000000 0 0 1
-16.513063 -32.148618 -14.143906 38.810629 1.096290 1.943821 0.059488 -0.019028 -167419.000000 0 0 1
-16.737363 -33.535118 -14.048206 40.026186 1.107869 1.929409 0.026519 -0.012033 -1016720.000000 0 0 1
-17.260363 -33.877218 -12.627506 40.062950 1.099579 1.891455 0.040772 -0.012065 67451.800000 0 0 1
-18.555363 -33.435618 -12.270206 40.159681 1.064155 1.881297 0.041053 -0.003541 4843.030000 0 0 1
-18.887663 -32.068218 -12.240606 39.178398 1.038516 1.888549 0.049899 -0.003739 -527191.000000 0 0 1
-18.081163 -31.134418 -11.284706 37.730956 1.044655 1.874528 0.054639 0.000844 -173692.000000 0 0 1
-18.321063 -31.337818 -9.936706 37.635865 1.041754 1.837986 0.041945 0.000803 -26786.000000 0 0 1
-17.920363 -30.218018 -9.212806 36.320019 1.035513 1.827255 0.036970 0.012228 -314071.000000 0 0 1
-18.216963 -30.398518 -7.714106 36.268927 1.030913 1.785125 0.049736 0.010591 -73144.800000 0 0 1
-17.462163 -31.412118 -7.124106 36.638793 1.063431 1.766484 0.034294 0.005228 -208923.000000 0 0 1
-17.870063 -31.687718 -5.803106 36.839200 1.057311 1.728980 0.038829 -0.006699 -235418.000000 0 0 1
-17.054863 -32.831918 -5.181106 37.358360 1.091702 1.709931 0.032113 -0.002228 852408.000000 0 0 1
-15.725763 -32.520218 -4.749306 36.433777 1.120380 1.701523 0.017821 0.004116 674532.000000 0 0 1
-15.775863 -31.960418 -3.445206 35.808038 1.112277 1.667159 0.010809 0.000318 -283694.000000 0 0 1
-14.480263 -31.221518 -3.055706 34.551390 1.136533 1.659351 0.008479 -0.000108 166273.000000 0 0 1
-13.300063 -31.999318 -3.146406 34.795803 1.176884 1.661345 -0.000012 0.003373 -366093.000000 0 0 1
-12.258863 -31.278018 -2.529706 33.689665 1.197264 1.645956 0.000296 0.004838 649800.000000 0 0 1
-10.878863 -32.034518 -2.564206 33.928383 1.243418 1.646445 -0.001914 0.000999 70819.300000 0 0 1
-10.779163 -33.228618 -1.839006 34.981614 1.257113 1.623391 -0.000312 0.003485 -200269.000000 0 0 1
-9.476763 -33.776118 -1.957706 35.134994 1.297254 1.626545 0.006528 0.003679 731411.000000 0 0 1
-8.445363 -33.152618 -0.955406 34.224743 1.321360 1.598716 0.009048 0.002812 -302958.000000 0 0 1
-8.785963 -33.390418 0.375994 34.529039 1.313500 1.559907 0.013758 -0.003565 33497.200000 0 0 1
-7.771263 -32.931518 1.267594 33.859772 1.339053 1.533351 0.015650 -0.010589 728099.000000 0 0 1
-6.868363 -34.022518 1.896594 34.760656 1.371597 1.516208 0.018926 -0.012060 386387.000000 0 0 1
-7.642163 34.364053 2.867494 35.320155 -1.351969 1.489521 0.028537 -0.015431 446902.000000 0 0 1
-6.927763 33.427253 3.702594 34.337798 -1.366440 1.462758 0.026718 -0.013281 -116722.000000 0 0 1
-6.222463 34.016553 4.919694 34.929190 -1.389872 1.429479 0.031433 -0.013109 -1045340.000000 0 0 1
-5.027863 -34.529018 4.597394 35.194723 1.426200 1.439795 0.031637 -0.015764 -931263.000000 0 0 1
-4.420863 -33.969018 5.754494 34.735463 1.441380 1.404363 0.024524 -0.018618 -136575.000000 0 0 1
-3.215763 -33.051818 5.528194 33.664888 1.473807 1.405837 0.035038 -0.015191 -250830.000000 0 0 1
-3.472163 -31.844818 4.815694 32.393506 1.462191 1.421581 0.022073 -0.013615 45591.700000 0 0 1
-3.332363 -32.011018 3.428194 32.366069 1.467069 1.464678 0.023237 -0.014965 -421495.000000 0 0 1
-3.848763 -30.776318 2.656194 31.129569 1.446386 1.485365 0.005596 -0.012436 110414.000000 0 0 1
-3.134863 -29.535718 2.768494 29.830363 1.465054 1.477855 0.007244 -0.005030 -224862.000000 0 0 1
-3.695363 -28.539518 2.008694 28.847784 1.442030 1.501109 0.007054 -0.004938 25590.800000 0 0 1
-3.201663 -27.182318 2.501794 27.484323 1.453552 1.479644 0.019965 -0.007973 20757.000000 0 0 1
-3.504363 -26.129018 1.634894 26.413614 1.437474 1.508861 0.025683 -0.010708 -562783.000000 0 0 1
-3.262163 -24.844818 2.140694 25.149339 1.440242 1.485574 0.025554 -0.008877 95633.500000 0 0 1
-4.079463 -24.199018 3.316494 24.763554 1.403787 1.436466 0.007528 -0.008199 68170.900000 0 1 0
-3.995463 -24.995818 4.503294 25.710587 1.412292 1.394735 0.006272 -0.007163 291519.000000 0 0 1
-4.932963 -24.426718 5.429594 25.504493 1.371527 1.356267 -0.004714 -0.001320 123061.000000 0 0 1
-5.486663 -25.434918 6.380994 26.790961 1.358338 1.330308 -0.002707 -0.005626 86101.200000 0 0 1
-4.558763 -26.028818 7.339194 27.425270 1.397412 1.299888 -0.012057 -0.005747 468970.000000 0 0 1
-5.347163 -26.772518 8.288194 28.531632 1.373664 1.276056 -0.013797 0.000586 118470.000000 0 0 1
-4.649963 -27.472018 9.455694 29.423529 1.403124 1.243626 -0.009848 0.003315 -408979.000000 0 0 1
-4.277763 -26.653718 10.541094 28.979900 1.411659 1.198519 -0.013470 0.003272 291588.000000 0 0 1
-5.331663 -26.269118 11.425594 29.138246 1.370553 1.167865 -0.009070 0.003153 134539.000000 0 0 1
-4.840763 -25.268018 12.489994 28.599050 1.381513 1.118839 -0.014023 0.007866 343469.000000 0 0 1
-3.842663 -25.801518 13.352994 29.305065 1.422951 1.097689 -0.024503 0.013493 27494.200000 0 0 1
-3.369163 -24.729218 14.144594 28.687192 1.435388 1.055189 -0.018107 0.010454 -810809.000000 0 0 1
-2.370863 -25.258418 15.120894 29.533880 1.477206 1.033303 -0.008946 0.009751 -482772.000000 0 0 1
-2.902063 -26.062318 16.172194 30.809191 1.459902 1.018182 -0.017380 0.014556 195852.000000 0 0 1
-1.817563 -26.475118 17.002194 31.516821 1.502252 1.000996 -0.018586 0.015239 297689.000000 0 0 1
-2.289863 -27.083718 18.330494 32.783811 1.486449 0.977457 -0.011751 0.004603 -204779.000000 0 0 1
-2.716963 -26.077618 19.198894 32.496485 1.466983 0.938747 -0.006309 0.009005 -272329.000000 0 0 1
-2.776463 -26.380218 20.567594 33.565616 1.465934 0.911251 0.017482 0.001002 38906.800000 0 0 1
-3.079963 -25.179418 21.516694 33.263454 1.449080 0.867341 0.015027 0.000002 -26094.300000 0 0 1
-2.819363 -25.569818 22.868194 34.419742 1.460979 0.844117 0.030221 -0.009071 240332.000000 0 0 1
-3.076163 -24.630318 23.946394 34.489783 1.446546 0.803344 0.029107 -0.009464 473843.000000 0 0 1
-2.100163 -23.370718 23.929994 33.514858 1.481174 0.775585 0.025025 -0.001897 493649.000000 0 0 1
-2.306663 -22.437318 22.820994 32.086628 1.468351 0.779549 0.022525 0.001017 -75737.400000 0 0 1
-1.218763 -21.544318 22.742394 31.350590 1.514287 0.759150 0.016259 -0.003332 -379286.000000 0 0 1
-1.519763 -20.315118 21.852194 29.875275 1.496126 0.750354 0.019757 0.000377 718919.000000 0 0 1
-2.498563 -19.355818 22.362194 29.680940 1.442420 0.717549 0.025328 -0.008672 736406.000000 0 0 1
-3.837263 -19.776318 22.518394 30.214324 1.379145 0.729829 0.012177 -0.007456 -462836.000000 0 0 1
-4.716763 -19.570518 21.240194 29.264293 1.334293 0.758591 -0.002174 -0.006104 -433699.000000 0 0 1
-4.525663 -20.469918 20.122194 29.058593 1.353208 0.805890 -0.000642 -0.002970 95099.900000 0 0 1
-5.045963 -21.810018 20.244494 30.182414 1.343437 0.835593 0.007790 -0.000467 -76809.900000 0 0 1
-4.813963 -22.764118 19.059794 30.077484 1.362395 0.884483 -0.007817 0.013375 161077.000000 0 0 1
-5.590463 -23.968418 19.146194 31.181967 1.341650 0.909659 -0.006102 0.005251 -72071.600000 0 0 1
-5.301463 -24.767618 18.033794 31.092734 1.359930 0.952067 -0.006767 0.006364 -417906.000000 0 0 1
-6.051163 -26.095318 18.110094 32.335084 1.342937 0.976319 -0.002202 -0.003467 872264.000000 0 0 1
-7.473263 -25.852018 18.118194 32.441415 1.289389 0.978232 0.022000 -0.008177 232338.000000 0 0 1
-8.107363 -27.101918 17.931194 33.492850 1.280125 1.005846 0.027621 -0.013729 -239049.000000 0 0 1
-9.611763 -27.040418 18.229394 33.998250 1.229266 1.004884 0.029252 -0.014018 -1483040.000000 0 0 1
-10.253763 -26.385918 17.144594 33.095217 1.200150 1.026240 0.033428 -0.010453 719673.000000 0 0 1
-11.686363 -26.315118 17.281794 33.581496 1.152865 1.030229 0.043089 -0.014599 1107730.000000 0 0 1
-12.174263 -25.504718 18.485494 33.770058 1.125446 0.991550 0.037747 -0.017082 -1488370.000000 0 0 1
-12.344563 -24.134418 18.210094 32.656789 1.097997 0.979280 0.036999 -0.015782 -48214.500000 0 0 1
-12.308263 -23.217518 19.303994 32.606604 1.083338 0.937225 0.024026 -0.011640 -330463.000000 0 0 1
-10.903763 -22.680518 19.600894 31.898166 1.122663 0.909065 0.019728 -0.010572 -342687.000000 0 0 1
-10.146463 -23.654118 20.260594 32.756063 1.165584 0.903926 0.030801 -0.008546 -454923.000000 0 0 1
-8.771763 -23.339418 20.273794 32.135634 1.211294 0.888107 0.009271 -0.011415 208140.000000 0 0 1
-7.985463 -24.345618 21.183694 33.244934 1.253850 0.879936 0.005019 -0.006343 6220.700000 0 0 1
-8.147963 -24.142818 22.581494 34.046862 1.245309 0.845647 0.003705 -0.007332 487421.000000 0 0 1
-7.120463 -24.770118 23.361294 34.785195 1.290882 0.834447 0.000979 -0.006175 528809.000000 0 0 1
-7.317263 -24.414718 24.881794 35.619158 1.279608 0.797426 -0.002326 -0.004449 -132576.000000 0 0 1
-6.173963 -24.711318 25.642194 36.142622 1.325965 0.782047 0.007649 -0.007300 -218686.000000 0 0 1
-6.309563 -24.531818 27.040994 37.051802 1.319054 0.752744 0.015138 -0.005543 -261952.000000 0 0 1
-5.097963 -25.070018 27.812494 37.789282 1.370183 0.743670 0.027059 -0.009582 -395261.000000 0 0 1
-3.899763 -24.462618 27.454594 36.978136 1.412709 0.734069 0.027429 -0.013849 -91481.100000 0 0 1
-2.810863 -24.690218 28.390894 37.729970 1.457439 0.718983 0.039105 -0.011153 644847.000000 0 0 1
-1.553763 -24.042718 27.786294 36.776957 1.506261 0.714325 0.033040 -0.010807 -1410970.000000 0 0 1
-1.689163 -22.643118 27.462194 35.633357 1.496335 0.690876 0.029155 -0.011217 251871.000000 0 0 1
-0.556263 -21.955818 26.902794 34.729349 1.545466 0.684648 0.032710 -0.017002 832813.000000 0 0 1
0.628337 -21.722118 27.916594 35.377697 -1.541878 0.661451 0.031106 -0.012575 -9887.830000 0 0 1
1.205337 -22.941418 28.320994 36.466974 -1.518305 0.681513 0.029977 -0.009632 -267644.000000 0 0 1
2.011837 -22.714118 29.447894 37.244558 -1.482455 0.658905 0.026335 -0.009476 -31096.000000 0 0 1
2.491837 -24.036118 30.187094 38.667879 -1.467495 0.675049 0.032845 -0.010616 -391392.000000 0 0 1
3.251737 -24.930618 29.387694 38.674876 -1.441097 0.707691 0.014353 -0.014346 594599.000000 0 0 1
4.045237 -25.875918 30.146794 39.934399 -1.415719 0.715283 -0.012106 -0.002579 -418962.000000 0 0 1
5.386437 -25.282418 30.625794 40.076846 -1.360884 0.701032 -0.024082 -0.007006 -384813.000000 0 0 1
6.309037 -24.855918 29.623194 39.181044 -1.322222 0.713525 -0.039225 0.003509 408125.000000 0 0 1
6.801637 -25.876618 28.763094 39.283294 -1.313762 0.749255 -0.042283 0.006351 -414561.000000 0 0 1
8.018437 -25.443818 27.865894 38.577082 -1.265506 0.763612 -0.040937 0.003846 220474.000000 0 0 1
7.757837 -24.398918 26.981294 37.195180 -1.262947 0.759185 -0.030621 0.006502 659786.000000 0 0 1
8.912337 -23.970918 26.222494 36.628593 -1.214836 0.772881 -0.037260 0.003767 554669.000000 0 0 1
8.561737 -22.763818 25.309194 35.100570 -1.211051 0.765483 -0.019773 0.003005 124895.000000 0 0 1
7.623237 -22.990818 24.277294 34.294000 -1.250627 0.784252 -0.015157 0.000576 52958.400000 0 0 1
7.362537 -21.768018 23.498794 32.867109 -1.244648 0.774224 -0.008194 0.013482 229340.000000 0 0 1
6.591737 -22.073718 22.191294 31.986771 -1.280603 0.804093 0.014055 0.009843 -546596.000000 0 0 1
7.343137 -22.946318 21.402994 32.226438 -1.261081 0.844448 0.009735 0.009809 -211929.000000 0 0 1
6.871637 -23.075418 20.125794 31.380597 -1.281368 0.874546 0.021380 0.001462 -190758.000000 0 0 1
7.770637 -23.946218 19.185194 31.652422 -1.257013 0.919622 0.035508 -0.007340 390337.000000 0 0 1
9.090837 -23.460618 19.013594 31.536656 -1.201118 0.923660 0.033188 -0.010748 -354499.000000 0 0 1
9.737137 -24.406018 18.178794 31.952059 -1.191183 0.965580 0.045642 -0.015844 353796.000000 0 0 1
11.119737 -23.813418 17.772894 31.727010 -1.133934 0.976191 0.043792 -0.017454 338380.000000 0 0 1
10.967137 -22.886818 16.699894 30.380437 -1.123935 0.988800 0.052575 -0.014527 -139836.000000 0 0 1
12.130337 -22.770118 15.913694 30.312852 -1.081308 1.018103 0.049249 -0.015510 -176315.000000 0 0 1
-12.208263 22.572053 11.737294 28.218847 -1.074999 1.141822 0.007253 0.004300 -199343.000000 0 0 1
-13.168563 21.746153 11.132594 27.753214 -1.026300 1.158048 -0.009791 0.002004 -190874.000000 0 0 1
-12.618763 20.501353 10.754894 26.366767 -1.019051 1.150648 0.015908 -0.002450 -268665.000000 0 0 1
-13.395863 19.752853 9.696994 25.761523 -0.974870 1.184874 0.013855 -0.000900 -1317780.000000 0 0 1
-13.370863 20.462253 8.457494 25.865286 -0.992006 1.237688 0.016771 -0.001345 75529.900000 0 0 1
-14.272463 19.958753 7.490294 25.654620 -0.950009 1.274514 0.025182 -0.001886 1427920.000000 0 0 1
-15.818463 19.869653 7.833494 26.578008 -0.898431 1.271617 0.024874 -0.006669 471043.000000 0 0 1
-16.238663 18.923553 8.817994 26.449047 -0.861608 1.230893 0.017802 -0.010293 811337.000000 0 0 1
-17.640563 19.134453 9.079294 27.563569 -0.825998 1.235134 0.024232 -0.011568 950252.000000 0 0 1
-18.277463 18.073953 10.038994 27.595558 -0.779800 1.198463 0.018611 -0.015043 -99367.700000 0 0 1
-18.290363 16.793653 9.449994 26.568149 -0.742763 1.207145 0.019121 -0.013229 -45679.300000 0 0 1
-18.763863 15.845553 10.386594 26.665436 -0.701276 1.170691 0.030380 -0.022915 -321700.000000 0 0 1
-17.752063 15.067553 11.263994 25.865894 -0.703784 1.120229 0.026414 -0.015589 37224.200000 0 0 1
-16.931063 14.136153 10.585194 24.465037 -0.695676 1.123348 0.014068 -0.003081 228480.000000 0 1 0
-16.244163 13.200153 11.445094 23.855965 -0.682382 1.070417 0.002622 -0.003078 487941.000000 0 1 0
-17.099363 12.073853 12.156894 24.206533 -0.614808 1.044638 0.017333 -0.013535 154795.000000 0 1 0
-17.878663 11.324153 11.245794 23.965620 -0.564609 1.082359 0.001459 -0.008358 -139009.000000 0 1 0
-18.930363 10.682753 11.934694 24.797516 -0.513770 1.068675 0.018771 -0.010583 -446114.000000 0 1 0
-19.779963 9.908353 10.914494 24.668777 -0.464390 1.112477 0.019665 -0.011903 -635843.000000 0 1 0
-19.189663 8.857353 10.193894 23.465109 -0.432433 1.121394 0.004386 -0.006569 450145.000000 0 1 0
-18.586563 9.222053 8.889594 22.572804 -0.460577 1.166014 0.017650 -0.004473 -378642.000000 0 1 0
-19.546763 9.396353 7.714794 23.019241 -0.448098 1.229037 0.021259 -0.008843 -195743.000000 0 1 0
-20.232663 8.198053 7.355494 23.036320 -0.384972 1.245806 0.014434 -0.004130 321179.000000 0 1 0
-21.217363 8.506353 6.410694 23.740925 -0.381295 1.297375 0.025102 0.005610 -295991.000000 0 1 0
-21.554963 7.305853 5.444094 23.401498 -0.326789 1.336006 0.036872 0.006175 -318833.000000 0 1 0
-22.354463 6.350153 6.073094 24.019345 -0.276776 1.315180 0.024511 0.014371 591592.000000 0 1 0
-21.871363 5.028953 5.760694 23.169646 -0.226005 1.319530 0.018546 0.004834 222756.000000 0 1 0
-23.059963 4.000053 5.787994 24.109401 -0.171754 1.328356 0.050429 0.006581 674870.000000 0 1 0
-23.915863 4.052253 4.645394 24.697549 -0.167844 1.381578 0.025335 0.007546 88830.800000 0 1 0
-24.870963 3.033153 4.684494 25.489396 -0.121356 1.385964 0.034917 0.002421 -356532.000000 0 0 1
-25.913683 3.144853 3.554394 26.344692 -0.120768 1.435465 0.034276 -0.001596 224848.000000 0 0 1
-25.331053 2.931253 2.261094 25.600138 -0.115205 1.482358 0.027990 0.001915 938568.000000 0 0 1
-26.442153 2.909453 1.357794 26.636366 -0.109590 1.519799 0.030857 -0.002970 521961.000000 0 0 1
-26.155813 2.989153 -0.155006 26.326519 -0.113789 1.576684 0.048592 -0.003142 -321248.000000 0 0 1
-25.556543 4.224253 -0.510306 25.908331 -0.163809 1.590494 0.053827 -0.005537 373713.000000 0 0 1
-25.518413 4.444353 -1.917706 25.973434 -0.172433 1.644697 0.077333 -0.003586 201914.000000 0 0 1
-26.864533 4.933253 -2.546006 27.432139 -0.181611 1.663741 0.074261 -0.013946 314825.000000 0 0 1
-27.877353 3.969853 -2.566106 28.275280 -0.141453 1.661676 0.041929 -0.011831 -1584280.000000 0 0 1
-29.106443 4.554253 -2.488706 29.565519 -0.155210 1.655072 0.026401 0.002165 -737028.000000 0 0 1
-30.277933 3.504353 -2.551906 30.586696 -0.115227 1.654325 0.010889 0.004716 197084.000000 0 0 1
-30.376683 2.874953 -3.793206 30.747303 -0.094362 1.694479 0.006704 0.003132 189045.000000 0 0 1
-31.224743 1.746953 -3.793006 31.502751 -0.055889 1.691492 0.024301 -0.006927 -48392.800000 0 0 1
-31.236973 1.116953 -5.175806 31.682567 -0.035742 1.734896 0.023357 -0.009347 -133264.000000 0 0 1
-30.045703 0.401053 -5.455206 30.539555 -0.013347 1.750388 0.031275 -0.011777 306556.000000 0 0 1
-30.082323 -0.312347 -6.671006 30.814705 0.010383 1.789012 0.044623 -0.007378 -273754.000000 0 0 1
-30.273673 0.345253 -8.048706 31.327243 -0.011404 1.830634 0.049573 -0.005680 -454853.000000 0 0 1
-31.594233 0.740153 -8.319306 32.679569 -0.023423 1.828202 0.038670 -0.007027 154325.000000 0 0 1
-31.637583 1.732453 -9.320506 33.027411 -0.054705 1.856888 0.072029 -0.009494 251087.000000 0 0 1
-33.112633 2.213653 -9.457706 34.507897 -0.066753 1.848423 0.091507 -0.009990 564140.000000 0 0 1
-33.604283 2.808853 -8.239506 34.713498 -0.083392 1.810441 0.051295 -0.006372 -43347.700000 0 0 1
-35.001450 2.896053 -8.211106 36.068142 -0.082553 1.800465 0.051530 -0.009399 -583263.000000 0 0 1
34.995179 3.393753 -6.900106 35.830037 0.096675 1.764586 0.052710 -0.004721 -749173.000000 0 0 1
33.604209 3.526653 -6.890606 34.484208 0.104564 1.771970 0.064752 -0.017330 -178919.000000 0 0 1
33.260759 4.193053 -5.678706 34.001580 0.125405 1.738596 0.056738 -0.027058 729705.000000 0 0 1
31.815729 3.925153 -5.114306 32.462340 0.122751 1.729001 0.048240 -0.025745 882559.000000 0 0 1
31.751829 2.753853 -4.320906 32.162596 0.086514 1.705549 0.074486 -0.026074 2882.100000 0 0 1
30.472979 2.199953 -4.549006 30.889087 0.072069 1.718603 0.072642 -0.029249 -149037.000000 0 0 1
30.250239 0.799853 -3.903706 30.511565 0.026435 1.699090 0.071032 -0.022258 -414914.000000 0 0 1
31.039339 -0.144847 -4.553106 31.371839 -0.004667 1.716444 0.075592 -0.030591 49117.400000 0 0 1
31.052389 -1.374347 -3.850106 31.320329 -0.044230 1.694035 0.074904 -0.024178 -769218.000000 0 0 1
32.260149 -2.225747 -4.118706 32.598081 -0.068885 1.697483 0.072933 -0.031805 -819775.000000 0 0 1
32.082529 -3.537547 -3.619306 32.479259 -0.109820 1.682463 0.056774 -0.019427 210342.000000 0 0 1
33.249859 -4.356847 -3.694506 33.736991 -0.130291 1.680525 0.063922 -0.022094 33734.500000 0 0 1
33.153419 -5.809947 -3.097706 33.800894 -0.173483 1.662571 0.059051 -0.015330 -78228.500000 0 0 1
33.059809 -5.830847 -1.690206 33.612595 -0.174577 1.621102 0.055890 -0.016134 -51521.100000 0 0 1
33.049229 -7.203547 -1.373806 33.853064 -0.214608 1.611389 0.057439 -0.014839 -224825.000000 0 0 1
32.848739 -7.462147 0.136594 33.685931 -0.223376 1.566741 0.052208 -0.014743 211874.000000 0 0 1
31.518949 -7.172847 0.569494 32.329834 -0.223762 1.553180 0.041758 -0.023826 199556.000000 0 0 1
31.272639 -7.493947 1.933994 32.216106 -0.235198 1.510728 0.019303 -0.015435 -544514.000000 0 0 1
31.094229 -9.016847 2.234894 32.452262 -0.282243 1.501875 0.027073 -0.017295 946700.000000 0 0 1
29.897089 -9.683447 1.703794 31.472336 -0.313230 1.516634 0.033700 -0.030351 783568.000000 0 0 1
28.729759 -9.387647 2.385894 30.318632 -0.315820 1.492021 0.034331 -0.032078 -1536870.000000 0 0 1
27.656059 -10.447347 2.214194 29.646370 -0.361188 1.496040 0.043252 -0.031242 -852255.000000 0 0 1
26.415059 -10.294047 2.863894 28.494291 -0.371599 1.470119 0.053248 -0.033563 1180140.000000 0 0 1
25.429039 -9.408147 2.260194 27.207677 -0.354359 1.487629 0.052444 -0.027812 254988.000000 0 0 1
24.872039 -9.730747 0.850594 26.721326 -0.372925 1.538959 0.048291 -0.022755 -604280.000000 0 0 1
25.849999 -9.788447 -0.206706 27.641976 -0.361978 1.578274 0.046650 -0.023227 600893.000000 0 0 1
25.345739 -9.958047 -1.530806 27.274760 -0.374361 1.626951 0.052349 -0.009403 96349.400000 0 0 1
24.577239 -11.266547 -1.995906 27.110134 -0.429829 1.644485 0.051600 -0.004016 287780.000000 0 0 1
23.250139 -11.380247 -1.535506 25.931385 -0.455188 1.630045 0.027064 -0.000469 18728.500000 0 0 1
22.781239 -12.704447 -1.595606 26.133001 -0.508714 1.631891 0.017386 0.001376 -1262.020000 0 0 1
21.249339 -12.864747 -1.445106 24.882211 -0.544394 1.628907 0.003914 0.000688 -86104.800000 0 1 0
20.562839 -12.329547 -2.585106 24.114950 -0.540128 1.678202 0.002782 0.004200 845960.000000 0 1 0
19.160439 -12.402547 -2.290106 22.938835 -0.574475 1.670798 0.000163 0.001518 371120.000000 0 1 0
18.222539 -12.031047 -3.425106 22.102904 -0.583532 1.726385 -0.007922 0.007736 -332722.000000 0 1 0
18.238339 -12.928647 -4.487206 22.801796 -0.616656 1.768881 -0.017631 0.005946 318559.000000 0 1 0
17.482539 -12.351247 -5.539406 22.110574 -0.615069 1.824026 -0.011937 0.007662 -435720.000000 0 1 0
17.479939 -13.207047 -6.814806 22.943755 -0.647047 1.872369 -0.021740 0.009764 -490042.000000 0 1 0
16.858839 -14.483347 -6.710506 23.216775 -0.709751 1.864017 -0.013419 0.007107 337382.000000 0 1 0
16.940739 -15.054847 -7.989306 24.030523 -0.726524 1.909712 -0.012612 0.005346 -103597.000000 0 1 0
15.947139 -16.215647 -8.259506 24.196650 -0.793746 1.919148 -0.008668 -0.000458 -830572.000000 0 1 0
14.599239 -15.878847 -8.229006 23.086621 -0.827358 1.935252 0.000651 0.001080 -554378.000000 0 1 0
13.767539 -16.686547 -9.018706 23.437641 -0.880956 1.965783 0.003550 0.000280 -315957.000000 0 1 0
13.882439 -16.607047 -10.582506 24.093682 -0.874524 2.025530 0.003958 0.002231 -852045.000000 0 1 0
13.362039 -15.457947 -11.233206 23.316885 -0.857994 2.073461 0.011417 0.008556 83943.400000 0 1 0
13.829039 -14.178447 -10.879306 22.597123 -0.797873 2.073101 0.018295 0.011221 -238626.000000 0 1 0
13.512739 -13.090347 -11.909406 22.266235 -0.769522 2.135143 0.027805 0.015666 217092.000000 0 1 0
14.508839 -13.121447 -12.920706 23.444048 -0.735228 2.154514 0.021639 0.014137 292525.000000 0 1 0
14.196239 -12.229747 -13.970306 23.372406 -0.711120 2.211459 0.032349 0.002255 -1353850.000000 0 1 0
15.377639 -11.825847 -14.809306 24.405695 -0.655569 2.222821 0.032589 -0.005030 -625511.000000 0 1 0
15.867839 -12.970747 -15.532306 25.715387 -0.685275 2.219317 0.025846 0.001566 -538730.000000 0 0 1
16.977139 -12.607147 -16.281306 26.687906 -0.638745 2.226937 0.024602 -0.006436 -947051.000000 0 0 1
17.792039 -13.877947 -16.627206 28.028878 -0.662432 2.205845 0.012764 -0.010532 -331180.000000 0 0 1
18.616639 -13.973047 -15.474806 27.951653 -0.643864 2.157510 0.004153 -0.007496 -145320.000000 0 0 1
19.705639 -14.857247 -15.658806 29.227524 -0.646030 2.136199 0.005897 -0.008912 -497156.000000 0 0 1
20.747439 -14.792247 -14.558406 29.346447 -0.619376 2.089883 -0.002628 -0.006923 -638160.000000 0 0 1
21.343739 -13.520047 -14.685206 29.223315 -0.564648 2.097304 -0.014254 -0.005671 263386.000000 0 0 1
22.323239 -13.343647 -13.637906 29.366177 -0.538761 2.053763 -0.002336 -0.008687 680243.000000 0 0 1
23.097739 -12.018047 -13.532306 29.343863 -0.479765 2.050102 0.010226 -0.009215 -55348.900000 0 0 1
22.299939 -10.954147 -13.024106 28.051879 -0.456598 2.053625 -0.001856 0.006035 232787.000000 0 0 1
22.927539 -9.685847 -13.134106 28.142359 -0.399713 2.056355 0.004029 0.006010 -55050.500000 0 0 1
23.877439 -9.412947 -11.935006 28.305123 -0.375513 2.006066 0.014377 0.005622 -885709.000000 0 0 1
25.089639 -10.021847 -12.104006 29.604634 -0.380025 1.991996 0.023441 -0.002979 -1546650.000000 0 0 1
25.981609 -9.799547 -11.064106 29.891295 -0.360674 1.949961 0.031671 -0.005404 -207911.000000 0 0 1
27.217409 -10.731247 -11.287606 31.358524 -0.375565 1.939014 0.053466 -0.010539 232681.000000 0 0 1
27.867689 -10.322347 -12.488306 32.235333 -0.354737 1.968617 0.039886 -0.009425 411878.000000 0 0 1
29.127219 -10.979247 -12.667106 33.606462 -0.360471 1.957270 0.035881 -0.012823 337651.000000 0 0 1
29.908739 -10.535247 -13.916306 34.629289 -0.338675 1.984349 0.015869 -0.008816 -199298.000000 0 0 1
29.235219 -10.747047 -15.133106 34.629582 -0.352273 2.023056 0.009221 -0.004226 192846.000000 0 0 1
29.979189 -10.131947 -16.168606 35.536346 -0.325914 2.043155 0.005019 0.002137 -128878.000000 0 0 1
29.758339 -10.702347 -17.626406 36.204822 -0.345239 2.079279 -0.011512 0.010089 109607.000000 0 0 1
28.481059 -10.524547 -18.204406 35.402503 -0.353965 2.110885 -0.013290 0.007702 68624.500000 0 0 1
28.188669 -9.233047 -18.644406 35.035183 -0.316532 2.131949 -0.021013 0.011067 -594637.000000 0 0 1
26.800059 -9.025447 -19.248506 34.208286 -0.324840 2.168427 -0.027530 0.005780 -252924.000000 0 0 1
26.486769 -9.665547 -20.473906 34.844692 -0.349904 2.198856 -0.024620 0.014099 -147255.000000 0 0 1
25.211039 -9.325247 -20.950206 34.080314 -0.354281 2.232840 -0.009009 0.013990 -268352.000000 0 0 1
24.822439 -9.922447 -22.332006 34.832842 -0.380280 2.266752 0.003166 0.003764 -20876.400000 0 0 1
24.471639 -11.303247 -22.437506 35.072299 -0.432699 2.264969 -0.003393 0.004358 149811.000000 0 0 1
23.993939 -11.626647 -23.725206 35.689962 -0.451224 2.297967 0.008761 -0.002812 -825680.000000 0 0 1
24.146339 -13.148947 -24.097706 36.560086 -0.498651 2.290452 0.002786 0.007007 584592.000000 0 0 1
25.279139 -13.525147 -24.882706 37.962001 -0.491279 2.285593 -0.000353 0.014284 666604.000000 0 0 1
26.545209 -13.299747 -24.277306 38.352561 -0.464465 2.256223 -0.019728 0.022602 -52617.700000 0 0 1
27.825679 -13.894047 -24.887906 39.833664 -0.463107 2.245666 -0.012497 0.034078 229701.000000 0 0 1
28.218359 -13.266447 -26.088656 40.655779 -0.439472 2.267504 -0.009756 0.025003 19815.200000 0 0 1
29.618829 -13.235047 -26.260876 41.738173 -0.420228 2.251296 -0.018439 0.023470 -50861.000000 0 0 1
30.104539 -12.736647 -27.645896 42.811225 -0.400244 2.272818 -0.003745 0.004393 -25213.400000 0 0 1
29.825459 -13.638147 -28.730346 43.600342 -0.428879 2.290215 0.007613 0.004160 308033.000000 0 0 1
30.601959 -13.379747 -29.908356 44.833105 -0.412174 2.301111 0.007540 -0.008804 177868.000000 0 0 1
30.489159 -14.352547 -31.063916 45.831771 -0.439969 2.315537 0.014969 -0.011721 -366911.000000 0 0 1
31.016299 -15.620347 -30.798546 46.417200 -0.466537 2.296305 0.024200 -0.006075 -156657.000000 0 0 1
30.951189 -16.590947 -31.861966 47.417512 -0.492059 2.307628 0.018472 -0.009388 254345.000000 0 0 1
29.534869 -16.998847 -32.358546 46.993029 -0.522249 2.330328 0.018128 -0.000719 123317.000000 0 0 1
29.022259 -16.024247 -33.232676 46.941226 -0.504482 2.357407 0.005101 -0.010607 -408281.000000 0 0 1
27.840699 -16.415847 -33.866206 46.813507 -0.532763 2.379551 0.003108 -0.011257 -364753.000000 0 0 1
27.377019 -15.455047 34.042450 46.338407 -0.513927 0.745648 0.016968 -0.009111 -374421.000000 0 0 1
26.732989 -14.245547 34.410796 45.844205 -0.489606 0.721822 0.019555 -0.005525 623561.000000 0 0 1
27.538779 -13.286547 -33.911506 45.660781 -0.449523 2.407865 0.024058 -0.021115 320447.000000 0 0 1
26.608929 -12.097447 -33.484396 44.447588 -0.426705 2.423931 0.036770 -0.021748 812379.000000 0 0 1
25.814849 -11.554747 34.477104 44.593601 -0.420857 0.687019 0.048328 -0.019309 336668.000000 0 0 1
25.081439 -10.401147 -34.140289 43.621345 -0.393110 2.469710 0.026388 -0.019210 127959.000000 0 0 1
20.565737 -30.432018 8.978294 37.810938 -0.976502 1.331054 0.009361 -0.008985 -265690.000000 0 0 1
21.013037 -29.712518 7.866494 37.232555 -0.955247 1.357912 0.018288 -0.003658 -234315.000000 0 0 1
22.179137 -30.303618 7.368894 38.269099 -0.938982 1.377031 0.019623 -0.000229 -385568.000000 0 0 1
22.557237 -29.689118 5.977394 37.762440 -0.921065 1.411838 0.017076 -0.003968 -225164.000000 0 0 1
22.959737 -28.366518 5.961894 36.977737 -0.890353 1.408860 0.027025 -0.000530 101006.000000 0 0 1
23.299337 -27.970118 4.642594 36.697960 -0.876250 1.443948 0.023525 0.002589 -223066.000000 0 0 1
23.188437 -26.466618 4.508194 35.475474 -0.851322 1.443373 0.038423 -0.004518 -160483.000000 0 0 1
24.060437 -25.797618 5.369494 35.682673 -0.820227 1.419744 0.038911 -0.004745 -68287.400000 0 0 1
23.718237 -24.419818 5.431294 34.472905 -0.799971 1.412585 0.043809 -0.006821 185829.000000 0 0 1
24.761537 -23.524218 6.161794 34.705767 -0.759779 1.392306 0.024553 -0.008816 -49027.500000 0 0 1
26.027437 -23.462018 5.544394 35.477233 -0.733607 1.413873 0.033951 -0.007529 668442.000000 0 0 1
27.087137 -22.743218 6.206394 35.909417 -0.698444 1.397089 0.035213 -0.014443 660680.000000 0 0 1
26.837537 -21.245218 6.582294 34.855979 -0.669612 1.380813 0.025315 -0.007538 -594680.000000 0 0 1
26.869837 -20.452518 5.427194 34.201580 -0.650612 1.411440 0.031169 0.004952 147869.000000 0 0 1
26.348537 -19.156618 5.643494 33.061616 -0.628648 1.399260 0.024147 -0.000385 -208772.000000 0 0 1
26.387537 -18.416318 4.222894 32.454517 -0.609327 1.440309 0.035351 0.005727 71341.400000 0 0 1
27.707837 -18.081018 3.822294 33.305515 -0.578173 1.455778 0.056042 -0.002109 223345.000000 0 0 1
27.808837 -17.585418 2.509894 32.998150 -0.563880 1.494661 0.053761 0.001020 -482001.000000 0 0 1
29.039137 -16.725918 2.356394 33.594351 -0.522569 1.500596 0.056035 -0.017382 -275718.000000 0 0 1
28.826337 -15.571918 3.148094 32.914325 -0.495286 1.475005 0.058954 -0.021266 1307250.000000 0 0 1
30.099737 -14.918218 3.372694 33.762738 -0.460142 1.470735 0.055247 -0.017277 1184100.000000 0 0 1
29.833437 -13.668518 4.180594 33.080806 -0.429620 1.444082 0.049359 -0.016852 343924.000000 0 0 1
29.328937 -13.900018 5.502894 32.919278 -0.442579 1.402845 0.036152 -0.005984 96822.100000 0 0 1
29.477837 -12.721218 6.293794 32.716725 -0.407407 1.377217 0.014481 -0.016153 -310324.000000 0 0 1
28.885737 -12.864718 7.726794 32.551346 -0.418993 1.331136 0.017865 -0.005787 -843834.000000 0 0 1
27.526537 -13.162518 7.760094 31.483030 -0.446036 1.321745 -0.001379 -0.003350 -552551.000000 0 0 1
26.910537 -13.117818 9.056994 31.277520 -0.453566 1.277020 0.002453 0.006162 318033.000000 0 0 1
27.209037 -14.372618 9.924394 32.332606 -0.485975 1.258813 0.003531 -0.001490 255286.000000 0 0 1
28.364137 -14.271518 10.758094 33.525171 -0.466167 1.244121 0.003638 0.005093 430482.000000 0 0 1
28.714537 -15.524318 11.390494 34.572712 -0.495631 1.235060 -0.002446 0.006093 117748.000000 0 0 1
29.411237 -15.366318 12.748894 35.548261 -0.481457 1.203990 -0.006223 0.011102 1759980.000000 0 0 1
30.735837 -14.729618 12.849794 36.424861 -0.446896 1.210261 0.002599 0.009736 1562550.000000 0 0 1
31.177337 -14.693518 14.189594 37.272917 -0.440416 1.180249 0.018112 0.005400 -54692.600000 0 0 1
32.705737 -14.692618 14.332894 38.613082 -0.422219 1.190503 0.016336 0.002870 55289.200000 0 0 1
33.399937 -13.546918 13.825094 38.603212 -0.385322 1.204529 0.020516 -0.002915 728097.000000 0 0 1
34.633637 -13.349818 14.525694 39.858528 -0.367908 1.197774 0.023709 -0.007396 343031.000000 0 0 1
-35.220565 -12.000718 14.293594 39.859908 0.328393 1.204033 0.028677 -0.010332 -475087.000000 0 0 1
-34.450265 -11.985418 13.111694 38.760644 0.334807 1.225715 0.035093 -0.018174 -115066.000000 0 0 1
-33.853265 -10.713618 12.930794 37.789292 0.306500 1.221559 0.037905 -0.020066 552810.000000 0 0 1
-32.555865 -10.768418 12.017994 36.335593 0.319439 1.233698 0.029378 -0.013989 942156.000000 0 0 1
-31.489365 -11.559718 12.504094 35.798876 0.351826 1.213986 0.018237 -0.015215 131734.000000 0 0 1
-31.596565 -12.932118 12.150094 36.238203 0.388488 1.228890 0.004059 -0.014675 -166776.000000 0 0 1
-30.460365 -13.799318 12.784494 35.800814 0.425367 1.205634 -0.005684 -0.004024 435027.000000 0 0 1
-29.292365 -13.781818 11.986294 34.520318 0.439764 1.216187 0.003157 -0.005141 -369032.000000 0 0 1
-28.489265 -14.885518 12.315294 34.422134 0.481482 1.204915 0.001326 -0.006180 80791.600000 0 0 1
-27.040065 -14.829818 11.750894 33.002608 0.501644 1.206749 0.009567 -0.004465 327751.000000 0 0 1
-27.039065 -15.033018 10.371594 32.629321 0.507418 1.247324 -0.005824 0.008624 1087870.000000 0 0 1
-25.676665 -14.950218 9.900694 31.318108 0.527265 1.249145 -0.006925 0.006768 1053050.000000 0 0 1
-25.622565 -14.520718 8.433894 30.634909 0.515586 1.291891 0.000688 0.018647 -90766.500000 0 0 1
-25.982565 -15.507218 7.529294 31.181048 0.538087 1.326916 -0.001536 0.015567 100546.000000 0 0 1
-25.861965 -14.937518 6.258894 30.514659 0.523776 1.364219 -0.000437 0.017783 -250853.000000 0 0 1
-25.972165 -15.920018 5.080994 30.883925 0.549898 1.405526 -0.008608 0.013265 341928.000000 0 0 1
-27.319965 -16.303518 4.786194 32.172858 0.538035 1.421477 -0.010434 0.012601 492683.000000 0 0 1
-27.321465 -17.366718 3.830894 32.599710 0.566217 1.453011 0.001927 0.006808 10188.900000 0 0 1
-28.584565 -18.253718 3.846294 34.133115 0.568310 1.457871 0.006292 0.007055 982413.000000 0 0 1
-29.777565 -17.557018 3.433494 34.738180 0.532741 1.471795 0.004815 0.003524 187596.000000 0 0 1
-30.992965 -18.179818 3.677794 36.119189 0.530493 1.468796 0.021896 0.000041 -1045720.000000 0 0 1
-32.135465 -17.353218 3.179494 36.659671 0.495135 1.483957 0.038648 -0.009421 -839138.000000 0 0 1
-32.327565 -17.457818 1.782694 36.783486 0.495156 1.522313 0.038657 -0.011446 -351765.000000 0 0 1
-33.312465 -16.556518 1.381794 37.225636 0.461250 1.533668 0.052843 -0.020772 -432651.000000 0 0 1
-34.014565 -16.979518 0.062994 38.017083 0.462994 1.569139 0.060225 -0.017559 -165650.000000 0 0 1
-33.086465 -17.179318 -1.004006 37.294117 0.478909 1.597721 0.053158 -0.011744 766094.000000 0 0 1
-33.654765 -18.016418 -2.017006 38.226991 0.491511 1.623585 0.051098 -0.005716 542823.000000 0 0 1
-32.495365 -18.480918 -2.968206 37.500711 0.517105 1.650030 0.041722 -0.010141 59725.100000 0 0 1
-32.849765 -19.466918 -3.911006 38.384423 0.534964 1.672864 0.041076 -0.010205 -614156.000000 0 0 1
-31.858065 -20.013018 -4.708906 37.916104 0.560892 1.695311 0.038373 -0.008949 -837750.000000 0 0 1
-32.351165 -21.168518 -5.650306 39.072112 0.579417 1.715917 0.046910 -0.008269 -163484.000000 0 0 1
-32.683265 -22.383818 -5.024206 39.930862 0.600500 1.696953 0.055541 -0.017027 181284.000000 0 0 1
-33.161465 -23.323418 -6.031006 40.988262 0.612957 1.718472 0.058922 -0.007087 262427.000000 0 0 1
-33.687065 -24.663918 -5.488206 42.109946 0.631978 1.701499 0.055732 -0.008843 -228237.000000 0 0 1
-32.691965 -25.547918 -5.030306 41.794314 0.663342 1.691447 0.060535 -0.007579 -554745.000000 0 0 1
-33.126265 -26.843018 -4.660806 42.890793 0.681005 1.679678 0.055097 -0.007774 -333377.000000 0 0 1
-32.032965 -27.798318 -4.214306 42.621798 0.714740 1.669835 0.039054 -0.002681 -1641540.000000 0 0 1
-31.098865 -28.158718 -5.185906 42.272289 0.735822 1.693785 0.040664 -0.000644 245194.000000 0 0 1
-30.160965 -29.174818 -4.817206 42.238126 0.768780 1.685094 0.037943 -0.003147 410870.000000 0 0 1
-29.239565 -28.897218 -3.608506 41.267695 0.779510 1.658350 0.025596 -0.010205 -1610700.000000 0 0 1
-29.881965 -28.733518 -2.363506 41.522681 0.765808 1.627748 0.025605 -0.005425 -596768.000000 0 0 1
-28.990265 -28.581718 -1.280506 40.730698 0.778302 1.602240 0.012489 -0.010339 -500840.000000 0 0 1
-29.583465 -28.490918 0.114094 41.072214 0.766587 1.568018 0.015134 -0.004786 -252099.000000 0 0 1
-29.942365 -29.756718 0.632194 42.218564 0.782288 1.555821 0.018844 -0.001191 -188257.000000 0 0 1
-30.616065 -29.594818 1.865894 42.622508 0.768439 1.527005 0.013525 0.002491 -308923.000000 0 0 1
-31.232265 -30.876818 2.377694 43.982788 0.779675 1.516710 0.018034 0.003794 453505.000000 0 0 1
-32.195165 -30.694818 3.489994 44.619284 0.761546 1.492499 0.014861 0.003502 1240040.000000 0 0 1
-32.894465 -31.818218 3.952994 45.935509 0.768769 1.484634 0.000344 0.008380 -216525.000000 0 0 1
-33.992965 -32.456518 3.103194 47.101773 0.762280 1.504866 0.004597 0.008801 -370850.000000 0 0 1
-34.482265 -33.678918 3.653494 48.338847 0.773613 1.495143 0.001660 0.008529 -364978.000000 0 0 1
35.045937 -34.193118 2.886994 49.048157 -0.773082 1.511902 0.010326 0.012160 -630529.000000 0 0 1
33.893537 34.282853 3.687794 48.349620 0.791109 1.494449 0.011433 0.004455 121964.000000 0 0 1
33.083537 -34.109518 4.624094 47.742663 -0.800666 1.473790 0.007905 0.000373 881566.000000 0 0 1
32.504137 -32.834018 4.240494 46.395834 -0.790447 1.479270 0.006034 -0.000027 -10063.000000 0 0 1
31.396737 -32.889218 3.166994 45.579443 -0.808610 1.501257 0.022566 0.000676 -263543.000000 0 0 1
31.934537 -33.389718 1.919794 46.242551 -0.807671 1.529269 0.024725 0.001904 -78474.300000 0 0 1
31.034537 -33.156818 0.855994 45.423009 -0.818448 1.551950 0.022217 0.006490 -533125.000000 0 0 1
31.434737 -34.020518 -0.435906 46.322007 -0.824882 1.580207 0.027527 0.006611 662806.000000 0 0 1
32.483437 -33.520418 -1.259506 46.694523 -0.801108 1.597773 0.019975 0.012573 303111.000000 0 0 1
33.766937 -33.534018 -0.623606 47.593332 -0.781937 1.583900 0.019269 0.013696 73408.800000 0 0 1
34.882237 -33.553018 -1.721206 48.430755 -0.765978 1.606343 0.009812 0.016402 -61289.400000 0 0 1
35.081337 34.379253 -2.439906 49.179126 0.775291 1.620429 0.007811 0.005997 48224.700000 0 0 1
-34.693265 -34.476618 -3.557306 49.039925 0.782266 1.643399 0.007838 0.007137 -435385.000000 0 0 1
-34.144265 33.451753 -4.332606 47.996063 -0.775154 1.661189 -0.008928 0.006492 712818.000000 0 0 1
-32.837265 33.077753 -3.867806 46.769474 -0.789047 1.653590 -0.003473 0.010398 261278.000000 0 0 1
-32.133065 32.256753 -4.680506 45.770505 -0.787319 1.673236 -0.002747 -0.000789 -297525.000000 0 0 1
-30.821465 31.709153 -4.104006 44.410314 -0.799593 1.663339 0.003635 -0.001275 -458118.000000 0 0 1
-29.777565 32.631853 -3.855506 44.344178 -0.831101 1.657851 -0.004225 -0.007578 167619.000000 0 0 1
-28.564965 31.904853 -3.652606 42.979279 -0.840574 1.655884 0.011034 -0.011437 528451.000000 0 0 1
-28.285765 31.605253 -2.167906 42.469711 -0.840767 1.621864 -0.003580 -0.010156 -506151.000000 0 0 1
-29.319565 30.823353 -1.602006 42.570911 -0.810397 1.608437 -0.021453 -0.000802 -211381.000000 0 0 1
-29.172665 30.580753 -0.231206 42.264410 -0.808959 1.576267 -0.018605 0.008444 43756.600000 0 0 1
-30.459965 30.010853 0.413494 42.762504 -0.777971 1.561127 -0.021783 0.006467 -136786.000000 0 0 1
-30.867765 28.742053 -0.021806 42.177305 -0.749753 1.571313 -0.013528 0.003275 -490772.000000 0 0 1
-31.975465 28.643353 -0.848206 42.937064 -0.730485 1.590552 -0.003596 0.000384 -575345.000000 0 0 1
-32.250765 27.208053 -1.283506 42.214185 -0.700790 1.601206 0.003703 -0.003397 -444780.000000 0 0 1
-32.556765 26.267553 -0.330906 41.833441 -0.678888 1.578706 0.014033 0.001687 -123690.000000 0 0 1
-32.884665 25.087953 -0.951806 41.372848 -0.651711 1.593804 0.018795 0.001350 -183274.000000 0 0 1
-33.083365 23.988753 0.131694 40.865470 -0.627374 1.567574 0.025497 -0.000473 -437428.000000 0 0 1
-31.891765 23.498453 0.648794 39.619224 -0.635012 1.554420 0.032570 -0.009151 -541731.000000 0 0 1
-31.503265 24.056153 1.872794 39.682006 -0.652154 1.523584 0.026838 -0.009565 -585903.000000 0 0 1
-29.995865 23.834353 2.143094 38.372140 -0.671432 1.514917 0.035179 -0.022000 579142.000000 0 0 1
-29.078765 24.673153 1.403094 38.161600 -0.703619 1.534021 0.037287 -0.019832 391837.000000 0 0 1
-29.040365 26.038553 1.793694 39.045696 -0.730952 1.524842 -0.002490 -0.009708 -634389.000000 0 0 1
-28.261265 26.866353 0.789194 39.001575 -0.760100 1.550560 -0.007466 -0.008237 -329969.000000 0 0 1
-26.926765 26.499153 0.607694 37.783926 -0.777395 1.554712 0.001013 -0.010594 -934458.000000 0 0 1
-26.278265 27.327453 -0.252706 37.913069 -0.804968 1.577462 0.008838 -0.012153 159127.000000 0 0 1
-25.013865 26.736353 -0.934906 36.625129 -0.818671 1.596325 0.008246 -0.009164 -432845.000000 0 0 1
-25.351965 25.845653 -1.961206 36.256948 -0.795041 1.624915 0.030710 -0.016726 20241.800000 0 0 1
-24.272265 25.204153 -2.653906 35.091814 -0.804231 1.646496 0.018150 -0.010823 647113.000000 0 0 1
-23.381465 24.277153 -1.780206 33.752662 -0.804190 1.623564 0.007437 -0.015836 424195.000000 0 0 1
-24.077665 23.071153 -1.343906 33.373914 -0.764054 1.611075 0.002626 -0.019145 -94648.200000 0 0 1
-23.124665 22.255853 -0.740006 32.103282 -0.766255 1.593849 0.003701 -0.023974 -850134.000000 0 0 1
-23.585765 20.847253 -0.293106 31.479870 -0.723844 1.580107 -0.001062 -0.018824 594304.000000 0 0 1
-24.580365 20.690253 0.793994 32.138938 -0.699679 1.546089 -0.017622 -0.016179 2037490.000000 0 0 1
-25.883365 21.308253 0.668294 33.532624 -0.688753 1.550865 -0.005443 -0.014634 955899.000000 0 0 1
-26.756665 20.743953 -0.480206 33.859435 -0.659486 1.584979 -0.001434 -0.021682 -735848.000000 0 0 1
-27.166265 19.401053 -0.377606 33.384868 -0.620166 1.582107 -0.010157 -0.012937 318660.000000 0 0 1
-28.031365 18.958853 -1.406606 33.869958 -0.594673 1.612338 0.013532 -0.012980 55778.600000 0 0 1
-28.276965 17.424153 -1.431506 33.245106 -0.552243 1.613869 -0.017182 0.005408 114050.000000 0 0 1
-29.066765 16.928753 -0.334306 33.638836 -0.527385 1.580735 -0.006221 -0.005741 443807.000000 0 0 1
-29.221565 15.530953 -0.312506 33.093927 -0.488521 1.580239 -0.008272 -0.005551 67910.400000 0 0 1
-28.017865 14.637253 0.128494 31.611176 -0.481427 1.566731 -0.015138 0.002036 32140.800000 0 0 1
-27.785165 14.641553 1.536294 31.444406 -0.484979 1.521919 -0.011739 0.006207 674431.000000 0 0 1
-26.457965 14.286953 1.936394 30.131222 -0.495123 1.506487 -0.016023 0.005290 476331.000000 0 0 1
-26.252165 12.737753 2.020794 29.249105 -0.451744 1.501652 -0.002366 0.013286 -289060.000000 0 0 1
-26.149065 12.092153 0.756294 28.819538 -0.433144 1.544551 -0.008215 0.011638 224130.000000 0 0 1
-25.438965 10.888653 0.877394 27.685258 -0.404435 1.539099 0.000169 0.012033 -325024.000000 0 0 1
-25.395965 10.148653 -0.445406 27.352305 -0.380176 1.587081 0.005705 0.005383 -491999.000000 0 0 1
-26.679565 9.730153 -0.796206 28.409664 -0.349714 1.598826 0.006694 -0.008116 -511770.000000 0 0 1
-26.661465 8.983453 -1.975906 28.203552 -0.324998 1.640913 0.023066 -0.017854 -71686.100000 0 0 1
-28.015465 8.585753 -2.574106 29.414409 -0.297377 1.658420 0.028569 -0.023563 -47311.300000 0 0 1
-27.800465 8.208053 -3.934406 29.252650 -0.287092 1.705703 0.039485 -0.020886 1694270.000000 0 0 1
-29.102465 7.968553 -4.563506 30.516830 -0.267260 1.720900 0.033846 -0.016817 1520330.000000 0 0 1
-11.414263 18.238953 -19.864706 29.283978 -1.011609 2.316307 0.037719 0.002376 324593.000000 0 0 1
-11.802063 17.373753 -20.932306 29.652950 -0.974096 2.354503 0.006654 -0.001457 -184414.000000 0 0 1
-10.775463 17.280253 -21.886506 29.895433 -1.013225 2.392199 0.015115 -0.004559 -61515.100000 0 0 1
-10.968863 16.119753 -22.932006 30.100487 -0.973305 2.436958 0.001038 -0.000240 -185146.000000 0 0 1
-10.531263 14.887253 -22.458506 28.929610 -0.955120 2.459596 -0.003646 -0.006646 -91243.200000 0 0 1
-10.647063 13.881853 -23.378206 29.199424 -0.916518 2.499158 -0.010687 -0.006109 -522274.000000 0 0 1
-9.886463 12.621253 -23.048806 28.076425 -0.906310 2.533836 -0.018196 -0.003981 356324.000000 0 0 1
-8.462263 12.783953 -23.151006 27.767039 -0.986070 2.556677 -0.003059 -0.006620 333538.000000 0 0 1
-7.848363 11.678753 -22.589706 26.613623 -0.979096 2.584512 -0.010159 -0.002644 24466.800000 0 0 1
-6.307063 11.791253 -22.626106 26.282188 -1.079625 2.607815 0.007183 -0.001721 285258.000000 0 0 1
-5.694763 11.547253 -23.879506 27.129324 -1.112627 2.647101 0.005038 -0.005382 981154.000000 0 0 1
-4.249263 11.515553 -23.776606 26.758012 -1.217294 2.665034 0.021439 -0.004109 1376190.000000 0 0 1
-3.528163 10.959553 -25.007706 27.530803 -1.259347 2.710127 0.035405 -0.014295 -429683.000000 0 0 1
-3.541363 9.551153 -25.107546 27.095289 -1.215732 2.756168 0.027727 -0.016914 -75895.600000 0 0 1
-3.221063 9.180553 -26.460126 28.192128 -1.233358 2.789243 0.024401 -0.020502 -170101.000000 0 0 1
-2.690163 7.658353 -26.578266 27.790135 -1.232989 2.845186 0.029238 -0.009086 434972.000000 0 0 1
-1.364963 7.522653 -26.033576 27.133016 -1.391302 2.855946 0.037241 -0.011836 709367.000000 0 0 1
-1.206563 6.201253 -25.579426 26.348024 -1.378630 2.899461 0.038125 -0.013604 -448159.000000 0 0 1
0.195237 5.818453 -25.113216 25.779181 1.537254 2.913797 0.015748 -0.010961 -406071.000000 0 0 1
0.449037 6.350753 -23.865306 24.699930 1.500208 2.880891 0.021591 -0.013194 -671596.000000 0 1 0
1.459737 5.702853 -23.174706 23.910675 1.320210 2.892839 0.028189 -0.006816 -471477.000000 0 1 0
1.731637 6.282853 -21.721806 22.678397 1.301860 2.850112 0.033749 -0.005874 268309.000000 0 1 0
2.453637 7.503353 -21.759706 23.147472 1.254752 2.793564 0.022725 -0.011713 36067.100000 0 1 0
2.437737 8.076153 -20.492306 22.160808 1.277649 2.751068 0.030832 -0.013916 23724.000000 0 1 0
2.923237 9.556653 -20.504606 22.810388 1.273949 2.688084 0.019734 -0.013747 -138544.000000 0 1 0
2.733037 10.341753 -19.366806 22.124523 1.312431 2.636965 0.024113 -0.020331 -34913.000000 0 1 0
3.153737 11.718253 -19.462606 22.935923 1.307895 2.584062 0.032428 -0.013242 516195.000000 0 1 0
4.483337 11.987953 -18.700306 22.660821 1.212914 2.541399 0.019459 -0.013482 1053780.000000 0 1 0
5.672637 11.329053 -19.153506 22.964822 1.106576 2.557181 0.032513 -0.008265 602766.000000 0 1 0
6.588037 11.024353 -18.095406 22.189690 1.032151 2.524367 0.026900 -0.012421 665672.000000 0 1 0
7.638237 9.925953 -18.552106 22.384098 0.914918 2.547769 0.035918 -0.016840 42421.100000 0 1 0
7.318737 8.558953 -18.791806 21.907797 0.863351 2.601708 0.037039 -0.007228 -287806.000000 0 1 0
6.602337 8.317553 -19.993206 22.638481 0.899857 2.653335 0.030590 -0.006166 9783.160000 0 1 0
6.351837 6.860153 -20.376606 22.419046 0.823853 2.711428 0.034655 0.001187 622196.000000 0 1 0
7.587037 6.214553 -20.716406 22.920587 0.686280 2.699443 0.035147 0.009964 683434.000000 0 1 0
7.408837 4.788753 -20.931606 22.714646 0.573810 2.742728 0.036315 0.012806 -255095.000000 0 1 0
7.420937 4.364553 -22.403806 24.001045 0.531654 2.774713 0.046623 0.002419 -19666.100000 0 1 0
6.338137 4.919153 -23.143106 24.494355 0.660009 2.807885 0.056102 0.004544 19976.800000 0 1 0
6.414037 4.614853 -24.554706 25.794774 0.623689 2.830258 0.057256 -0.000043 -312420.000000 0 0 1
5.302237 5.169653 -25.457556 26.512755 0.772738 2.858515 0.046753 -0.015771 -198981.000000 0 0 1
5.231137 6.586753 -25.661996 27.005336 0.899608 2.824855 0.053106 -0.020328 168592.000000 0 0 1
4.980837 7.395253 -24.505506 26.077161 0.978065 2.792638 0.056026 -0.015920 -1287630.000000 0 0 1
4.943837 8.904253 -24.815806 26.824457 1.063953 2.752144 0.064836 -0.025471 217583.000000 0 0 1
3.793637 9.448453 -25.443726 27.405258 1.188990 2.760947 0.062843 -0.021252 685058.000000 0 0 1
2.592737 9.278253 -24.673906 26.487920 1.298305 2.769354 0.043651 -0.015098 -207510.000000 0 0 1
1.287937 9.748153 -25.333046 27.174409 1.439436 2.771349 0.043937 -0.012283 -182553.000000 0 0 1
1.098337 11.101253 -25.585026 27.911248 1.472179 2.730429 0.052347 -0.021329 149321.000000 0 0 1
-0.129563 11.151653 -26.295756 28.562965 -1.559179 2.740472 0.059655 -0.028415 -179513.000000 0 0 1
-0.404363 12.608653 -26.766776 29.590572 -1.538737 2.701169 0.057931 -0.027451 -41073.300000 0 0 1
-0.541863 13.546853 -25.714896 29.070032 -1.530818 2.656398 0.064863 -0.022828 97510.600000 0 0 1
-0.869963 14.863053 -26.136916 30.079986 -1.512331 2.623800 0.051531 -0.025439 -187409.000000 0 0 1
-1.221363 15.725453 -24.940006 29.509075 -1.493284 2.577668 0.057236 -0.020262 -544430.000000 0 0 1
-2.447963 15.283453 -24.464506 28.949759 -1.411975 2.577488 0.046962 -0.014098 -832918.000000 0 0 1
-2.681363 15.749553 -23.157906 28.134085 -1.402163 2.537691 0.048154 -0.019078 94799.000000 0 0 1
-3.879563 15.027953 -22.404706 27.255481 -1.318156 2.535756 0.045583 -0.016415 821784.000000 0 0 1
-5.150163 15.403653 -22.876406 28.055778 -1.248134 2.524199 0.033915 -0.008999 -378853.000000 0 0 1
-5.587163 14.859553 -24.086506 28.847574 -1.211151 2.558852 0.028389 -0.009789 -485063.000000 0 0 1
-7.070163 15.108353 -24.456306 29.603386 -1.133104 2.543005 0.004145 -0.008783 21295.700000 0 0 1
-7.386563 16.388453 -24.877406 30.692476 -1.147346 2.515866 -0.000710 -0.005569 -359878.000000 0 0 1
-8.620863 16.332653 -25.550896 31.526547 -1.085133 2.515727 -0.006180 -0.003416 -335965.000000 0 0 1
-9.178963 17.717353 -26.008046 32.780733 -1.092791 2.487161 -0.005364 -0.002812 -131888.000000 0 0 1
-9.658763 18.588953 -25.040006 32.647248 -1.091594 2.444928 -0.001993 0.006501 -115369.000000 0 0 1
-10.389363 19.599753 -25.675696 33.931263 -1.083378 2.429043 0.006691 0.004011 86281.800000 0 0 1
-10.952463 20.737653 -24.771306 34.111938 -1.084888 2.383541 0.002871 0.009191 -207773.000000 0 0 1
-10.016663 21.728553 -24.423806 34.190436 -1.138840 2.366486 0.012331 0.015425 107179.000000 0 0 1
-10.374263 23.026253 -24.897206 35.464131 -1.147493 2.349053 0.022264 0.001977 -56041.600000 0 0 1
-9.979963 23.352153 -26.382656 36.619220 -1.166922 2.375261 0.006135 0.005531 -118971.000000 0 0 1
-10.784663 22.754853 -27.403706 37.216333 -1.128205 2.398435 0.001012 0.009293 271398.000000 0 0 1
-10.539663 23.302853 -28.704426 38.445436 -1.146039 2.413775 0.005440 0.000334 -625405.000000 0 0 1
-11.298263 22.522853 -29.808476 39.031717 -1.105841 2.439820 -0.001302 -0.008006 -82550.300000 0 0 1
-10.786163 21.250953 -30.220706 38.486821 -1.101118 2.473851 0.004651 -0.008695 -107466.000000 0 0 1
-10.659963 20.237453 -29.276896 37.152739 -1.085983 2.478374 -0.001879 -0.002101 -342901.000000 0 0 1
-9.722863 19.105953 -29.706536 36.633998 -1.100061 2.516486 -0.012489 -0.006599 -1436470.000000 0 0 1
-8.410963 19.583453 -29.798856 36.636427 -1.165126 2.520713 -0.017574 -0.007094 -1152170.000000 0 0 1
-7.523463 18.729053 -30.385236 36.477973 -1.188825 2.555259 -0.023057 -0.004069 -425100.000000 0 0 1
-7.147963 17.404053 -29.581236 35.057724 -1.181094 2.575096 -0.012628 -0.015418 -986140.000000 0 0 1
-8.191563 16.457353 -29.579946 34.826993 -1.108954 2.585529 -0.019565 -0.013230 96421.200000 0 0 1
-7.864863 15.288053 -28.823046 33.561118 -1.095660 2.603763 -0.022617 -0.008338 -372859.000000 0 0 1
-9.073963 14.356953 -28.817166 33.449783 -1.007161 2.609023 -0.017659 -0.002711 -334785.000000 0 0 1
-9.926463 14.670553 -27.745666 32.917804 -0.975931 2.573404 -0.009878 -0.012219 -575896.000000 0 0 1
-11.090863 13.886753 -27.735286 32.940784 -0.896870 2.571728 0.012043 -0.014257 206302.000000 0 0 1
-12.185363 14.501253 -26.804096 32.821167 -0.871962 2.526415 0.005449 -0.010127 162646.000000 0 0 1
-12.705863 15.742753 -27.230156 33.922775 -0.891745 2.502622 0.006077 -0.006528 -513322.000000 0 0 1
-13.606863 16.161153 -26.246676 33.692991 -0.870995 2.463858 -0.007060 -0.000634 -281849.000000 0 0 1
-14.426863 17.411253 -26.660156 34.957833 -0.878861 2.438177 -0.013281 -0.001093 376655.000000 0 0 1
-13.720663 18.667053 -26.574506 35.255069 -0.936951 2.424589 -0.009639 0.001079 690484.000000 0 0 1
-14.595963 19.652453 -27.113956 36.529819 -0.931981 2.407206 -0.024319 0.003931 184503.000000 0 0 1
-14.013563 21.088353 -26.915396 36.953175 -0.984284 2.386729 -0.018857 0.004556 -264730.000000 0 0 1
-14.801463 22.102153 -27.509626 38.267062 -0.980708 2.372994 -0.030762 0.004264 -101929.000000 0 0 1
-14.401163 23.491553 -27.507656 38.934788 -1.020847 2.355345 -0.030327 0.008939 -148519.000000 0 0 1
-14.093563 24.244053 -26.161126 38.351104 -1.044225 2.321492 -0.032714 0.011168 19197.500000 0 0 1
-13.752463 25.601653 -26.325016 39.212006 -1.077856 2.306826 -0.007671 0.001404 91852.300000 0 0 1
-13.403863 26.206553 -25.100016 38.684077 -1.098015 2.276863 0.013579 -0.007282 -355080.000000 0 0 1
-13.258763 27.759053 -25.122616 39.717826 -1.125198 2.255608 0.017582 -0.006859 341746.000000 0 0 1
-14.403763 28.491853 -25.565596 40.900536 -1.102727 2.246014 0.022184 -0.016041 93720.300000 0 0 1
-14.783563 29.523853 -24.690906 41.229268 -1.106563 2.212884 0.025625 -0.015136 -229624.000000 0 0 1
-16.182963 30.053953 -25.050406 42.339713 -1.076853 2.203904 0.031720 -0.021029 -354287.000000 0 0 1
-17.159263 29.155253 -24.671106 41.870426 -1.038840 2.200896 0.022329 -0.017952 -994455.000000 0 0 1
-18.317663 29.180653 -25.453586 42.836111 -1.010234 2.207078 0.030104 -0.013011 406021.000000 0 0 1
-19.355463 28.014853 -25.241776 42.386475 -0.966204 2.208703 0.029407 -0.005804 563263.000000 0 0 1
-20.053663 28.083553 -24.015206 42.042425 -0.950689 2.178780 0.034871 -0.012444 -158078.000000 0 0 1
-20.816663 26.946453 -23.701606 41.487480 -0.913038 2.178880 0.047055 -0.025764 64342.400000 0 0 1
-21.610163 27.080753 -22.389706 41.251246 -0.897282 2.144521 0.038917 -0.014489 -188711.000000 0 0 1
-22.681863 27.983153 -22.433506 42.435669 -0.889653 2.127803 0.044325 -0.014007 -444234.000000 0 0 1
-23.067863 28.281153 -21.150006 42.181426 -0.886578 2.096019 0.030785 -0.012788 -484184.000000 0 0 1
-24.370363 29.100453 -21.089606 43.422603 -0.873630 2.077940 0.029176 -0.010241 -158279.000000 0 0 1
-25.480583 28.247853 -21.299606 43.599020 -0.836857 2.081205 0.010361 -0.006693 -916308.000000 0 0 1
-26.625463 29.004153 -21.531206 44.874815 -0.828132 2.071230 0.015003 -0.005282 -704430.000000 0 0 1
-27.781473 28.070753 -21.869406 45.144749 -0.790578 2.076506 -0.004606 -0.002302 -800438.000000 0 0 1
-27.724283 27.731953 -23.272306 45.599313 -0.785536 2.106406 -0.009596 -0.003058 -626923.000000 0 0 1
-28.915573 27.397853 -23.914506 46.461343 -0.758453 2.111475 -0.018397 -0.005530 -500086.000000 0 0 1
-28.737143 27.006653 -25.364356 46.888520 -0.754365 2.142363 -0.008506 0.008655 -22034.400000 0 0 1
-28.488243 25.597153 -25.395316 45.953415 -0.731995 2.156315 -0.003717 0.009552 -65156.800000 0 0 1
-28.424583 25.288053 -26.759186 46.513403 -0.727070 2.183768 0.029182 0.001305 -128843.000000 0 0 1
-28.510213 23.769753 -27.036896 45.921968 -0.694971 2.200317 0.034405 -0.004080 25747.700000 0 0 1
-27.304863 23.088653 -26.728306 44.643519 -0.701927 2.212680 0.026979 -0.003155 47411.400000 0 0 1
-27.396563 21.767453 -27.092756 44.253939 -0.671398 2.229650 0.056234 -0.018579 -1071430.000000 0 0 1
-26.344923 20.777853 -26.748546 42.909893 -0.667804 2.243836 0.048277 -0.024756 -1037290.000000 0 0 1
-26.384723 20.317553 -25.404386 41.884835 -0.656210 2.222484 0.046670 -0.011768 -134027.000000 0 0 1
-25.776833 19.085853 -25.182056 40.778069 -0.637346 2.236407 0.024713 -0.005498 -134095.000000 0 0 1
-26.632953 17.792253 -25.425616 40.894259 -0.588963 2.241759 0.028287 -0.007846 219546.000000 0 0 1
-27.297013 17.753253 -26.694686 42.105952 -0.576638 2.257496 0.030211 -0.011078 443538.000000 0 0 1
-27.995853 16.514653 -26.807776 42.132629 -0.532957 2.260451 0.017274 -0.013589 -177508.000000 0 0 1
-28.935703 16.345953 -27.998326 43.455395 -0.514215 2.270904 0.015818 -0.015646 -189726.000000 0 0 1
-30.119643 17.125853 -27.989766 44.541158 -0.517007 2.250294 0.026336 -0.021380 -78803.300000 0 0 1
-30.726943 16.735553 -29.207606 45.577495 -0.498730 2.266380 0.033206 -0.017168 -220500.000000 0 0 1
-32.122883 17.349253 -29.433696 46.895828 -0.495203 2.249314 0.039318 -0.017325 37883.100000 0 0 1
-33.139383 16.865353 -28.571336 46.893284 -0.470760 2.225954 0.024756 -0.020031 186582.000000 0 0 1
-34.401990 17.065353 -29.176846 48.228742 -0.460488 2.220522 0.032941 -0.021967 374891.000000 0 0 1
34.936421 16.568453 -28.368896 47.956870 0.442833 2.203777 0.032309 -0.019169 273594.000000 0 0 1
34.591287 17.413353 -27.229106 47.341380 0.466366 2.183602 0.026505 -0.021802 -429984.000000 0 0 1
33.492329 16.955253 -26.528716 45.967265 0.468629 2.185996 0.029204 -0.019625 -578956.000000 0 0 1
32.955439 18.020953 -25.548966 45.426483 0.500405 2.168111 0.023478 -0.014661 -100277.000000 0 0 1
32.409739 19.158753 -26.216076 45.877354 0.533881 2.179054 0.027639 -0.029547 204741.000000 0 0 1
32.195739 20.215953 -25.304366 45.667946 0.560688 2.158071 0.024681 -0.019886 -431081.000000 0 0 1
31.558879 21.404653 -26.062876 46.188695 0.595976 2.170345 0.023152 -0.023584 92734.500000 0 0 1
30.267909 21.235653 -26.614326 45.556796 0.611792 2.194692 0.016743 -0.026879 182981.000000 0 0 1
29.220659 21.825553 -25.837656 44.696601 0.641528 2.187155 0.029979 -0.023976 579062.000000 0 0 1
27.823899 21.622353 -26.478066 44.077018 0.660630 2.215201 0.004136 -0.024315 338248.000000 0 0 1
27.270269 20.327253 -26.370286 43.037853 0.640550 2.230298 0.013634 -0.033702 -518628.000000 0 0 1
26.051129 20.241453 -27.043996 42.658592 0.660552 2.257464 0.010105 -0.030781 -458800.000000 0 0 1
25.526449 18.782753 -27.188816 41.756714 0.634361 2.279861 0.017577 -0.020925 13296.300000 0 0 1
26.375509 17.902253 -27.914486 42.371885 0.596318 2.290015 0.017404 -0.022634 -73764.400000 0 0 1
27.443539 17.335053 -27.218926 42.361797 0.563376 2.268598 0.020397 -0.019349 -348270.000000 0 0 1
28.284489 16.266253 -27.904596 42.933318 0.521905 2.278318 0.017040 -0.014740 107948.000000 0 0 1
27.536279 15.096353 -28.292396 42.268265 0.501487 2.304134 0.020291 -0.018235 377140.000000 0 0 1
26.892399 14.308553 -27.307816 40.910300 0.488971 2.301649 0.026367 -0.017618 -287861.000000 0 0 1
27.825429 13.417553 -26.474656 40.684059 0.449310 2.279352 0.022408 -0.010266 -295236.000000 0 0 1
28.607809 14.207453 -25.634216 40.955726 0.460947 2.247082 0.029852 -0.016270 -275020.000000 0 0 1
29.455089 13.520153 -24.743906 40.775700 0.430321 2.222862 0.032298 -0.010062 -37323.900000 0 0 1
-13.899763 -31.213818 -24.562506 42.081142 1.151851 2.194067 0.050947 0.002413 -22782.300000 0 0 1
-13.385663 -30.068618 -25.201986 41.454045 1.151966 2.224272 0.030106 -0.001592 108945.000000 0 0 1
-13.909263 -29.857918 -26.537076 42.298691 1.134841 2.248972 0.021704 0.002332 80774.400000 0 0 1
-13.296063 -28.578418 -27.167046 41.612013 1.135334 2.282158 0.029377 0.003733 -423463.000000 0 0 1
-13.558863 -27.427318 -26.421026 40.424883 1.111674 2.283106 0.036295 0.002919 -320535.000000 0 0 1
-12.816063 -26.352118 -26.848266 39.743112 1.118137 2.312500 0.026054 -0.004667 -580034.000000 0 0 1
-13.280263 -24.965218 -26.356286 38.655935 1.081916 2.321040 0.027695 -0.009089 -383345.000000 0 0 1
-13.048563 -24.660318 -25.022006 37.476620 1.084116 2.301871 0.007518 -0.011618 166564.000000 0 0 1
-13.576663 -23.400718 -24.624706 36.582722 1.045077 2.309221 0.008272 -0.010699 -191257.000000 0 0 1
-13.176263 -23.004718 -23.162106 35.203893 1.050644 2.288878 0.001904 -0.007974 544708.000000 0 0 1
-11.752663 -22.849118 -23.147606 34.583507 1.095727 2.304096 -0.002661 -0.013222 509853.000000 0 0 1
-11.323663 -22.033718 -22.040206 33.158419 1.096071 2.297881 -0.010296 -0.003961 -1012030.000000 0 0 1
-9.854063 -21.774018 -21.944506 32.446445 1.145815 2.313565 -0.000236 -0.004510 -1111380.000000 0 0 1
-9.452963 -20.789718 -22.921306 32.356717 1.144046 2.358017 0.012413 -0.009406 337786.000000 0 0 1
-8.102863 -20.369018 -22.765206 31.603922 1.192185 2.375072 0.029709 -0.005656 289982.000000 0 0 1
-7.875663 -19.197418 -23.771206 31.553719 1.181489 2.423948 0.043623 0.004204 -325247.000000 0 0 1
-8.327663 -17.937018 -23.322306 30.578040 1.136137 2.438296 0.029550 0.000762 -79970.900000 0 0 1
-8.314563 -16.875518 -24.264606 30.703195 1.113006 2.482088 0.027102 -0.003392 -629699.000000 0 0 1
-6.992663 -16.428318 -24.915006 30.651990 1.168378 2.519799 0.033876 -0.009558 -262530.000000 0 0 1
-6.697663 -17.215318 -26.018836 31.909336 1.199763 2.524214 0.026628 -0.007791 283581.000000 0 0 1
-5.614963 -16.630118 -26.749026 31.993734 1.245176 2.560878 0.022145 -0.012775 189816.000000 0 0 1
-5.338463 -17.467718 -28.003456 33.433724 1.274193 2.563637 0.019220 -0.004479 70691.300000 0 0 1
-6.293763 -17.171618 -29.021386 34.303306 1.219480 2.579277 0.035305 -0.012995 297799.000000 0 0 1
-6.200363 -18.024118 -30.138866 35.660406 1.239473 2.577667 0.031903 -0.013789 184664.000000 0 0 1
-7.161363 -17.600818 -31.322396 36.635589 1.184376 2.596293 0.037415 -0.019136 370459.000000 0 0 1
-6.863763 -16.468118 -32.112406 36.735770 1.175899 2.634470 0.032854 -0.020534 -167340.000000 0 0 1
-6.861063 -15.172318 -31.404366 35.545853 1.146107 2.654055 0.021097 -0.019798 -138623.000000 0 0 1
-7.379163 -14.005018 -32.248816 35.924626 1.085866 2.685272 0.011654 -0.016082 280120.000000 0 0 1
-6.549463 -13.784418 -33.447796 36.764939 1.127238 2.713536 0.028521 -0.023054 642036.000000 0 0 1
-7.224363 -13.062018 -34.469726 37.562877 1.065590 2.732932 0.033296 -0.022575 -599171.000000 0 0 1
-7.490063 -11.545718 -34.249477 36.911128 0.995314 2.759510 0.014280 -0.018684 72586.600000 0 0 1
-6.400363 -10.646718 -34.296900 36.477316 1.029526 2.794088 0.004782 -0.020728 -337664.000000 0 0 1
-5.752663 -10.515118 33.512514 35.591424 1.070194 0.343477 0.012732 -0.024758 -424654.000000 0 0 1
-4.618163 -9.491818 33.611076 35.229625 1.117973 0.304299 0.015865 -0.021881 -319392.000000 0 0 1
-4.641063 -8.692818 32.449326 33.912583 1.080401 0.294828 0.016674 -0.023564 740465.000000 0 0 1
-3.436863 -7.900818 32.314476 33.443390 1.160485 0.260567 0.008781 -0.025038 88962.900000 0 0 1
-3.539763 -6.733418 31.273246 32.185164 1.086800 0.238614 0.005502 -0.020497 509499.000000 0 0 1
-4.667163 -5.879118 31.613236 32.492201 0.899814 0.233128 0.001495 -0.019751 -78354.800000 0 0 1
-5.698363 -6.323618 30.808406 31.962750 0.837361 0.269573 0.008600 -0.015770 -1783680.000000 0 0 1
-6.982063 -5.518918 30.964546 32.218175 0.668886 0.279877 0.004456 -0.013306 -830178.000000 0 0 1
-8.028063 -6.177418 30.322336 31.969585 0.655851 0.322410 0.013553 -0.009817 -811199.000000 0 0 1
-9.154163 -5.317618 30.264706 32.062879 0.526254 0.336496 0.006248 -0.005686 704301.000000 0 0 1
-10.256563 -5.982018 29.292566 31.607532 0.528003 0.385105 0.013800 -0.005787 726514.000000 0 0 1
-9.891363 -6.058718 27.903146 30.218085 0.549579 0.393970 0.012228 -0.005805 -21791.200000 0 0 1
-10.956863 -6.565318 27.164846 30.018080 0.539829 0.439535 0.028486 -0.011682 -285236.000000 0 0 1
-10.735463 -6.305418 25.636106 28.499446 0.531062 0.452104 0.017644 -0.009175 204071.000000 0 0 1
-9.645263 -7.031618 25.082476 27.777785 0.629940 0.444167 0.013814 -0.003476 350066.000000 0 0 1
-9.037563 -6.484918 23.910196 26.370991 0.622409 0.435438 0.006319 -0.003187 -123644.000000 0 0 1
-9.791763 -6.605018 22.538596 25.445888 0.593439 0.482697 0.006623 -0.003644 313128.000000 0 0 1
-10.973363 -5.808718 22.540096 25.733477 0.486849 0.503487 0.006448 -0.002958 61375.200000 0 0 1
-11.766363 -5.857718 21.395696 25.110475 0.461915 0.550883 0.008375 -0.000977 101558.000000 0 0 1
-12.998863 -4.918218 21.377196 25.497918 0.361711 0.576474 0.004131 0.004840 51974.700000 0 0 1
-12.714763 -3.619218 20.942396 24.765861 0.277313 0.563079 0.001318 0.002608 67726.900000 0 1 0
-13.845063 -2.758218 20.851696 25.181080 0.196646 0.595140 0.008478 0.001709 242669.000000 0 0 1
-13.513063 -1.303218 20.421796 24.522459 0.096144 0.586687 0.000481 -0.005990 -693079.000000 0 1 0
-12.589963 -0.542218 21.091296 24.569167 0.043041 0.538565 -0.001114 -0.004399 -594982.000000 0 1 0
-12.570963 0.860782 20.804696 24.322941 -0.068367 0.544565 0.004743 -0.014497 -399027.000000 0 1 0
-12.126763 1.285782 19.385396 22.902079 -0.105634 0.561519 0.008579 -0.024179 -119869.000000 0 1 0
-12.944163 0.973782 18.255096 22.399735 -0.075088 0.618120 0.016837 -0.017829 -9952.970000 0 1 0
-14.161463 1.679782 18.171996 23.099570 -0.118065 0.665382 0.009857 -0.017964 -199641.000000 0 1 0
-15.254463 0.991782 17.350496 23.124057 -0.064924 0.722247 0.017312 -0.005976 -254900.000000 0 1 0
-15.560463 -0.235218 17.903696 23.721840 0.015115 0.715547 0.009967 -0.002969 873710.000000 0 1 0
-16.740263 -0.853218 17.356796 24.129293 0.050924 0.767967 0.013593 0.006176 732027.000000 0 1 0
-16.632263 -2.393218 17.545996 24.294478 0.142909 0.763787 0.013873 0.008594 -186145.000000 0 1 0
-17.080163 -2.884218 18.798796 25.562579 0.167285 0.744535 0.015110 0.012558 152475.000000 0 0 1
-16.937463 -4.273218 18.915196 25.747285 0.247136 0.745648 0.016554 0.016572 -115170.000000 0 0 1
-17.575663 -4.857418 20.229096 27.234441 0.269641 0.733589 0.013030 0.019835 -211613.000000 0 0 1
-16.952163 -4.413418 21.400896 27.655966 0.254692 0.685937 0.016833 0.009833 255107.000000 0 0 1
-17.699363 -4.590018 22.625696 29.090511 0.253743 0.679688 0.019679 0.006018 -330957.000000 0 0 1
-17.869763 -6.036918 23.198396 29.898803 0.325791 0.682660 0.026640 0.006913 -401238.000000 0 0 1
-16.818963 -6.602618 23.890096 29.953443 0.374085 0.647533 0.012537 -0.003873 -897850.000000 0 0 1
-15.656663 -6.898318 23.179196 28.809599 0.415009 0.635854 0.028715 -0.004572 -808307.000000 0 0 1
-14.545163 -7.348818 24.137486 29.123618 0.467832 0.593847 0.033501 -0.008850 -290434.000000 0 0 1
-14.805563 -8.672618 24.589926 29.984721 0.529889 0.609242 0.019501 -0.004374 220591.000000 0 0 1
-14.041063 -9.049518 25.741196 30.686388 0.572502 0.575634 0.032414 0.000416 -370516.000000 0 0 1
-14.783463 -9.858818 26.780756 32.139632 0.588151 0.585813 0.016209 -0.009762 -588016.000000 0 0 1
-14.921763 -11.252618 26.498516 32.426097 0.646125 0.614265 0.017321 -0.009832 328988.000000 0 0 1
-14.086263 -12.069218 27.364146 33.058816 0.708433 0.595726 0.020169 -0.015636 256246.000000 0 0 1
-14.194563 -13.575218 27.201556 33.551406 0.763099 0.625377 0.004595 -0.011335 35528.200000 0 0 1
-15.356063 -14.122918 27.814466 34.769383 0.743591 0.643551 0.005183 -0.009207 180621.000000 0 0 1
-15.591563 -15.548918 27.649346 35.346174 0.784029 0.672536 0.018489 0.003416 -317793.000000 0 0 1
-14.616263 -16.492318 28.358846 35.914563 0.845632 0.660607 0.013890 0.000440 -317191.000000 0 0 1
-13.375263 -16.517618 27.691306 34.907561 0.890134 0.654627 0.026704 -0.000661 -113178.000000 0 0 1
-12.484063 -17.392718 28.353336 35.528441 0.948240 0.646750 0.033932 -0.001811 -520094.000000 0 0 1
-11.159263 -17.653818 27.646936 34.648802 1.007096 0.646962 0.028997 -0.007344 -371929.000000 0 0 1
-10.353563 -18.528018 28.449826 35.494736 1.061218 0.640959 0.024240 -0.012879 355730.000000 0 0 1
-9.220163 -18.901918 27.679676 34.762888 1.116964 0.649738 0.020924 -0.014000 213316.000000 0 0 1
-8.116263 -19.681718 28.459916 35.541674 1.179667 0.642254 0.032568 -0.014865 130878.000000 0 0 1
-8.466263 -21.015618 28.836526 36.672593 1.187830 0.665961 0.027238 -0.008006 267654.000000 0 0 1
-7.504763 -21.444218 29.788646 37.463841 1.234151 0.651573 0.038042 -0.008822 298139.000000 0 0 1
-7.943263 -22.745418 30.507916 38.873930 1.234812 0.668437 0.029158 -0.013946 -136077.000000 0 0 1
-8.115663 -23.846318 29.625486 38.886762 1.242760 0.704648 0.030646 -0.009919 -55360.400000 0 0 1
-8.302763 -24.972118 30.412346 40.217575 1.249813 0.713317 0.022884 -0.008134 -645884.000000 0 0 1
-8.321863 -26.281018 29.570326 40.427089 1.264136 0.750353 0.015230 -0.001508 22141.100000 0 0 1
-9.449863 -26.320818 28.698536 40.071079 1.226103 0.772468 0.002291 0.001761 431393.000000 0 0 1
-9.552363 -27.543518 28.014326 40.431368 1.236966 0.805312 -0.006466 0.009315 -39000.000000 0 0 1
-10.841863 -27.679418 27.155296 40.262964 1.197471 0.830579 -0.003593 0.006627 89149.800000 0 0 1
-10.911863 -26.934518 25.923286 38.942955 1.185879 0.842401 -0.004482 0.010390 148670.000000 0 0 1
-11.070963 -25.526918 26.077666 38.134426 1.161582 0.817790 -0.003051 0.009740 -511283.000000 0 0 1
-11.292263 -24.849718 24.714226 36.821416 1.144271 0.834981 0.004134 -0.005197 -59465.600000 0 0 1
-12.516563 -25.137818 24.074146 36.988360 1.108816 0.862083 0.009233 -0.001777 73207.300000 0 0 1
-12.485163 -24.499718 22.831396 35.740567 1.099495 0.877847 0.015463 -0.006505 -68285.800000 0 0 1
-13.867763 -24.684518 22.197796 35.977527 1.058939 0.905883 0.026352 -0.009527 -349260.000000 0 0 1
-14.061763 -26.019618 21.812396 36.749617 1.075331 0.935345 0.030590 -0.009830 658693.000000 0 0 1
-15.232563 -26.025118 20.971596 36.730717 1.041254 0.963127 0.039678 -0.015598 671252.000000 0 0 1
-15.776963 -27.392918 20.450096 37.649581 1.048248 0.996589 0.037400 -0.013228 187262.000000 0 0 1
-14.989863 -27.912018 19.390796 37.145386 1.077958 1.021574 0.031634 -0.015386 121049.000000 0 0 1
-15.293263 -29.249518 19.185596 38.177288 1.089032 1.044263 0.031694 -0.007067 -86347.200000 0 0 1
-14.444663 -29.866018 18.081296 37.783073 1.120315 1.071787 0.032994 -0.010392 -29933.100000 0 0 1
-14.707163 -29.264218 16.791496 36.805562 1.105099 1.097052 0.027188 -0.016458 -68949.700000 0 0 1
-13.687963 -29.566018 15.888396 36.248460 1.137215 1.117069 0.035423 -0.015009 -98081.500000 0 0 1
-14.113563 -29.012218 14.485896 35.365840 1.118031 1.148779 0.011377 -0.015577 -101324.000000 0 0 1
-14.039363 -27.590318 14.296396 34.098626 1.100093 1.138160 0.025186 -0.016605 -91857.100000 0 0 1
-14.262663 -27.184418 12.974496 33.327971 1.087613 1.170928 0.022334 -0.005261 219481.000000 0 0 1
-13.108463 -27.421218 11.955196 32.660093 1.124870 1.196036 0.017994 -0.001234 -36929.800000 0 0 1
-13.381663 -26.835218 10.684396 31.833224 1.108221 1.228515 0.011733 -0.000412 -520872.000000 0 0 1
-12.450163 -27.028218 9.682196 31.293386 1.139133 1.256234 0.014996 -0.010020 -562088.000000 0 0 1
-12.833763 -26.263918 8.394496 30.413261 1.116273 1.291151 0.005565 -0.003857 74660.600000 0 0 1
-14.012563 -26.735518 7.763196 31.167404 1.088041 1.319065 0.022583 -0.014220 130008.000000 0 0 1
-14.352063 -25.755218 6.796396 30.257296 1.062405 1.344243 0.021928 -0.017114 -307313.000000 0 0 1
-15.311163 -26.298018 5.761796 30.971208 1.043555 1.383669 0.012760 -0.009353 -515462.000000 0 0 1
-14.730363 -27.306918 4.965196 31.421402 1.076099 1.412112 0.025800 -0.022674 -346927.000000 0 0 1
-15.517363 -27.758218 3.907196 32.040184 1.061055 1.448545 0.022160 -0.006339 -631188.000000 0 0 1
-14.918163 -28.928918 3.162996 32.702269 1.094681 1.473924 0.019985 -0.005831 -462651.000000 0 0 1
-13.710263 -28.725418 2.483396 31.926293 1.125484 1.492932 0.017163 -0.008014 -415245.000000 0 0 1
-13.498563 -29.916518 1.742596 32.867094 1.146939 1.517752 0.015222 -0.004383 7573.610000 0 0 1
-12.141863 -29.852018 0.974096 32.241536 1.184497 1.540579 -0.001307 -0.003935 454575.000000 0 0 1
-12.149363 -29.019718 -0.162104 31.460727 1.174309 1.575949 0.001575 -0.000605 -139555.000000 0 0 1
-12.083063 -27.629118 0.076896 30.155836 1.158528 1.568246 -0.002231 -0.005402 -616985.000000 0 0 1
-11.660763 -26.826118 -1.221404 29.276370 1.160756 1.612528 -0.000806 0.001243 -275096.000000 0 0 1
-10.338863 -26.886318 -1.673404 28.854228 1.203688 1.628824 0.002421 -0.004606 -712953.000000 0 0 1
-10.170463 -26.254218 -2.943504 28.308770 1.201213 1.674963 0.013288 -0.005963 1182860.000000 0 0 1
-8.660963 -26.373418 -3.393504 27.965788 1.253495 1.692441 0.017185 -0.011645 922956.000000 0 0 1
-8.389863 -25.721118 -4.570704 27.438240 1.255492 1.738158 0.021552 -0.006121 -982339.000000 0 0 1
-7.117563 -26.165118 -4.921004 27.558835 1.305198 1.750323 0.026155 -0.002038 -531401.000000 0 0 1
-6.475963 -25.138518 -5.880904 26.617066 1.318667 1.793579 0.021732 -0.001255 -315042.000000 0 0 1
-7.000063 -24.987518 -7.211304 26.932876 1.297656 1.841854 0.019955 0.002905 -104108.000000 0 0 1
-6.216363 -24.061418 -7.921404 26.083398 1.317971 1.879365 0.016709 0.008456 -262410.000000 0 0 1
-6.490563 -24.004218 -9.400704 26.583888 1.306719 1.932239 0.020011 0.006173 848.634000 0 0 1
-5.891263 -25.114118 -10.101204 27.703072 1.340383 1.944025 0.009464 0.007593 14273.700000 0 0 1
-5.999663 -25.110118 -11.540504 28.278918 1.336259 1.991163 0.004152 0.016245 -832094.000000 0 0 1
-7.386263 -25.359718 -12.086204 29.047349 1.287377 1.999933 0.001167 0.008879 -800111.000000 0 0 1
-7.412663 -25.689218 -13.470904 29.939084 1.289876 2.037499 0.003905 0.011898 -299934.000000 0 0 1
-8.548163 -26.418418 -13.851904 31.030294 1.257860 2.033534 0.009190 0.008300 -722558.000000 0 0 1
-8.877163 -26.294018 -15.353004 31.715834 1.245200 2.076108 0.010837 0.001165 103634.000000 0 0 1
-8.038063 -26.927918 -16.292604 32.483413 1.280714 2.096205 0.006731 -0.004466 1222130.000000 0 0 1
-6.637063 -26.581018 -16.356804 31.908402 1.326108 2.109027 0.012326 0.000286 907391.000000 0 0 1
-5.673063 -27.487418 -17.121704 32.876960 1.367266 2.118562 0.006248 -0.003320 -137829.000000 0 0 1
-5.720063 -27.276418 -18.510104 33.456629 1.364085 2.157065 0.028402 -0.006597 311785.000000 0 0 1
-4.721663 -28.053018 -19.170904 34.304365 1.404047 2.163792 0.021937 -0.003830 150185.000000 0 0 1
-24.585263 14.928553 -5.211906 29.231162 -0.545708 1.750054 -0.001517 -0.007246 -327428.000000 0 0 1
-24.586763 13.635453 -4.603606 28.489080 -0.506357 1.733100 -0.011434 -0.008230 481201.000000 0 0 1
-23.375763 12.916953 -4.782506 27.132017 -0.504821 1.747990 0.006221 -0.010705 -254047.000000 0 0 1
-23.577263 11.467353 -4.304106 26.569021 -0.452687 1.733511 0.012639 -0.016352 -147217.000000 0 0 1
-24.057063 10.640853 -5.340206 26.841905 -0.416447 1.771083 0.015661 -0.015160 439540.000000 0 0 1
-25.470883 10.556253 -5.480806 28.111201 -0.392896 1.767022 0.013160 -0.016393 119688.000000 0 0 1
-25.778533 9.702653 -6.719706 28.351873 -0.359984 1.810084 0.029133 -0.016079 -191019.000000 0 0 1
-25.455033 10.429753 -7.885706 28.616828 -0.388868 1.849970 0.044179 -0.015246 -147035.000000 0 0 1
-25.723173 9.550653 -8.992706 28.874996 -0.355511 1.887500 0.053426 -0.021297 -222491.000000 0 0 1
-26.322463 10.516453 -10.084406 30.085929 -0.380096 1.912600 0.026859 -0.013898 157668.000000 0 0 1
-25.379463 11.478653 -10.528306 29.777875 -0.424749 1.932172 0.034279 -0.010500 18418.500000 0 0 1
-25.977533 12.469753 -11.356806 30.972634 -0.447537 1.946226 0.023600 -0.010647 -597508.000000 0 0 1
-25.067913 13.417953 -12.092606 30.897781 -0.491459 1.972921 0.025956 -0.008968 -536466.000000 0 0 1
-24.554563 14.494153 -11.323006 30.679269 -0.533244 1.948812 0.019975 -0.005980 304130.000000 0 0 1
-23.790563 15.409153 -12.093706 30.817051 -0.574757 1.974074 0.015487 -0.005680 16556.200000 0 0 1
-23.727363 16.790153 -11.412506 31.227269 -0.615827 1.944930 0.009328 0.004346 72942.000000 0 0 1
-22.747763 16.989253 -10.393906 30.234562 -0.641485 1.921731 0.010378 0.004573 75388.900000 0 0 1
-22.775363 18.370753 -10.037106 30.934532 -0.678756 1.901240 -0.002957 0.010379 -212256.000000 0 0 1
-21.721163 18.738453 -8.985906 30.061355 -0.711811 1.874356 0.009446 0.008277 -489102.000000 0 0 1
-21.871063 18.357053 -7.587906 29.544900 -0.698267 1.830533 0.011778 0.007226 33276.100000 0 0 1
-22.906663 19.037153 -6.895206 30.572411 -0.693404 1.798290 0.002328 0.004995 44657.900000 0 0 1
-23.339363 18.402753 -5.583306 30.241702 -0.667680 1.756484 -0.010758 0.005618 -51878.400000 0 0 1
-22.343863 18.521553 -4.588306 29.382796 -0.692135 1.727594 0.005959 -0.006739 280836.000000 0 0 1
-22.815863 18.154853 -3.308906 29.344696 -0.672121 1.683797 -0.011131 -0.003861 34878.600000 0 0 1
-21.606163 17.856753 -2.412806 28.133815 -0.690672 1.656664 -0.003808 -0.018905 -28220.300000 0 0 1
-20.819463 18.949853 -1.940906 28.219038 -0.738421 1.639631 0.001260 -0.022309 588702.000000 0 0 1
-19.869763 18.519453 -0.965606 27.179221 -0.750238 1.606331 0.026606 -0.026725 -86126.600000 0 0 1
-19.273663 19.707053 -0.240406 27.566281 -0.796516 1.579517 0.032008 -0.030318 -230518.000000 0 0 1
-20.225663 20.454153 0.488394 28.769574 -0.791015 1.553819 0.027316 -0.024338 201712.000000 0 0 1
-19.714563 21.711553 0.918194 29.341074 -0.833567 1.539497 0.034398 -0.029916 217745.000000 0 0 1
-20.702363 22.418753 1.885594 30.573580 -0.825181 1.509083 0.015266 -0.029135 30752.100000 0 0 1
-20.616763 21.755053 3.123594 30.134534 -0.812256 1.466955 0.035867 -0.020757 298426.000000 0 0 1
-21.665563 22.129353 3.992894 31.225760 -0.795988 1.442573 0.010576 -0.022433 -181452.000000 0 0 1
-21.416663 21.593953 5.441694 30.896348 -0.789520 1.393745 0.016231 -0.015587 -208754.000000 0 0 1
-20.558263 22.552453 6.049394 31.110296 -0.831623 1.375100 0.027952 -0.015853 45171.400000 0 0 1
-19.882463 21.969753 7.147594 30.480658 -0.835230 1.334096 0.020535 -0.006522 221511.000000 0 0 1
-20.702263 21.784153 8.511394 31.234226 -0.810857 1.294804 0.012460 -0.021610 -717350.000000 0 0 1
-21.695763 20.808153 8.380594 31.207687 -0.764518 1.298917 0.016763 -0.015187 195463.000000 0 0 1
-22.309963 20.376653 9.595294 31.701926 -0.740138 1.263301 0.032978 -0.013081 2554.920000 0 0 1
-22.799563 21.394853 10.629694 33.023480 -0.753624 1.243079 0.034410 -0.020779 -552066.000000 0 0 1
-24.074063 21.931653 10.263594 34.145268 -0.738863 1.265489 0.041473 -0.024103 758412.000000 0 0 1
-24.477263 22.753653 11.358794 35.297129 -0.748921 1.243161 0.044060 -0.018870 73016.300000 0 0 1
-25.621443 23.756353 11.093094 36.658961 -0.747644 1.263374 0.038197 -0.020642 39813.900000 0 0 1
-26.176663 24.309853 12.274094 37.773536 -0.748439 1.239849 0.033789 -0.022171 12860.100000 0 0 1
-26.586053 25.630653 12.010094 38.832859 -0.767103 1.256364 0.033201 -0.018001 9824.260000 0 0 1
-27.058313 26.248253 13.341294 39.988914 -0.770203 1.230650 0.036000 -0.026430 76071.300000 0 0 1
-26.027113 26.298553 14.317494 39.673860 -0.790586 1.201585 0.022575 -0.019343 -122116.000000 0 0 1
-26.497173 26.665753 15.587094 40.695455 -0.788569 1.177735 0.020975 -0.017238 -335963.000000 0 0 1
-25.548133 26.714353 16.788894 40.598408 -0.807709 1.144462 0.014142 -0.013259 -256179.000000 0 0 1
-25.010763 25.455953 17.177194 39.605553 -0.794219 1.122194 0.023524 -0.015373 -133706.000000 0 0 1
-23.985463 25.632153 18.098594 39.495175 -0.818574 1.094773 0.023845 -0.011142 -731716.000000 0 0 1
-23.525263 24.320053 18.745194 38.681847 -0.802008 1.064891 0.030419 -0.010995 -434983.000000 0 0 1
-22.487163 24.506553 19.676394 38.644587 -0.828343 1.036584 0.033265 -0.015956 337122.000000 0 0 1
-22.353863 23.257953 20.340994 38.136382 -0.805217 1.008211 0.027341 -0.018831 -1164260.000000 0 0 1
-20.936163 22.847253 20.683694 37.257685 -0.829019 0.982250 0.047532 -0.016322 -757142.000000 0 0 1
-20.209463 22.413953 19.529994 35.947578 -0.837072 0.996444 0.049850 -0.011392 96835.700000 0 0 1
-18.842163 22.198453 19.761694 35.189814 -0.866996 0.974509 0.030951 -0.009045 -165579.000000 0 0 1
-18.389663 20.699253 19.802794 34.040997 -0.844415 0.949938 0.045447 -0.022189 -50226.900000 0 0 1
-18.656563 19.936953 20.980394 34.434378 -0.818562 0.915636 0.055596 -0.028802 138602.000000 0 0 1
-17.876563 20.449453 22.039594 34.978498 -0.852429 0.889128 0.062634 -0.031585 -156655.000000 0 0 1
-18.665063 20.467053 23.373594 36.243755 -0.831415 0.869904 0.044401 -0.020342 17171.200000 0 0 1
-19.621463 21.508353 23.364894 37.330006 -0.831242 0.894510 0.034948 -0.015709 1232.130000 0 0 1
-20.223863 21.628353 24.628994 38.514642 -0.818944 0.876986 0.032495 -0.013854 -246254.000000 0 0 1
-21.345763 22.665453 24.762494 39.781220 -0.815374 0.898906 0.030449 -0.007891 -629167.000000 0 0 1
-20.857363 23.993453 24.794994 40.317578 -0.855207 0.908420 0.025531 -0.005691 810403.000000 0 0 1
-21.818963 25.010453 25.231194 41.691763 -0.853444 0.920799 0.021623 -0.001549 42569.500000 0 0 1
-22.775763 25.464153 24.158094 41.842227 -0.841070 0.955303 0.015580 -0.010863 6330.050000 0 0 1
-23.721363 24.395853 23.877794 41.569337 -0.799415 0.958915 0.015916 -0.009877 358929.000000 0 0 1
-24.585763 24.831253 22.836294 41.743828 -0.790366 0.991951 0.009942 -0.010842 -221860.000000 0 0 1
-25.401753 23.657653 22.286894 41.250930 -0.749862 1.000031 0.011731 -0.009238 269207.000000 0 0 1
-26.600913 23.458753 23.058194 42.303688 -0.722712 0.994332 0.016986 -0.013317 988039.000000 0 0 1
-27.554263 22.647453 22.346994 42.089579 -0.687966 1.011088 0.022802 -0.016704 314220.000000 0 0 1
-29.006673 22.866253 22.802294 43.407341 -0.667572 1.017717 0.031720 -0.009901 -1185430.000000 0 0 1
-29.524603 23.976553 22.176794 44.027122 -0.682068 1.042911 0.026164 -0.008646 -55851.900000 0 0 1
-30.917833 24.162753 22.298594 45.132896 -0.663368 1.054037 0.025315 -0.003254 -158259.000000 0 0 1
-31.815343 23.267453 21.430694 44.864965 -0.631444 1.072794 0.024949 -0.011459 -1349940.000000 0 0 1
-31.791563 21.885353 21.817894 44.336133 -0.602899 1.056294 0.021487 -0.011231 76144.800000 0 0 1
-32.429513 21.040053 20.901394 43.945710 -0.575527 1.075129 0.012199 -0.005746 -249320.000000 0 0 1
-33.957493 21.080253 20.734494 45.026744 -0.555562 1.092246 0.007049 -0.003457 -415801.000000 0 0 1
-34.374823 20.271653 19.624594 44.471261 -0.532829 1.113764 0.010990 -0.000683 -703383.000000 0 0 1
34.813323 20.324553 19.495294 44.778582 0.528434 1.120346 0.014662 0.006361 -654662.000000 0 0 1
34.324419 19.506753 18.207794 43.476464 0.516789 1.138677 0.013672 0.014416 -171220.000000 0 0 1
34.534512 18.146853 18.407494 43.136720 0.483815 1.129929 0.019127 0.003244 421246.000000 0 0 1
34.132969 17.405953 17.256094 42.021418 0.471572 1.147630 0.020260 -0.003354 -138813.000000 0 0 1
34.273399 15.872353 17.488594 41.622691 0.433703 1.137164 0.024327 -0.008254 -527550.000000 0 0 1
33.422969 15.003753 16.764794 40.289772 0.421943 1.141638 0.033724 -0.015293 38664.300000 0 0 1
33.650389 13.615353 16.870294 40.029156 0.384476 1.135752 0.024281 -0.017459 -587036.000000 0 0 1
32.717979 12.828853 16.003794 38.615632 0.373681 1.143471 0.025975 -0.025054 -505047.000000 0 0 1
32.838129 13.107853 14.619094 38.260638 0.379787 1.178737 0.021612 -0.018522 -60551.500000 0 0 1
31.928959 12.372853 13.855194 36.939306 0.369695 1.186313 0.027617 -0.008051 -537052.000000 0 0 1
32.064799 12.700353 12.314594 36.621025 0.377126 1.227842 0.027433 -0.010990 537980.000000 0 0 1
33.306099 12.385753 11.652594 37.396337 0.356029 1.253923 0.030668 -0.009109 960331.000000 0 0 1
33.087719 12.451553 10.252194 36.809588 0.359927 1.288544 0.028495 -0.003020 406566.000000 0 0 1
34.429919 12.360753 9.442894 37.780627 0.344681 1.318178 0.013405 0.004712 241979.000000 0 0 1
35.044343 11.129653 9.501894 37.977113 0.307513 1.317909 0.014642 0.007533 -454759.000000 0 0 1
-34.231506 11.121553 8.980194 37.096211 -0.314135 1.326289 0.003044 0.020032 -436579.000000 0 0 1
-34.104116 10.695953 7.474394 36.515212 -0.303911 1.364647 -0.003559 0.018454 -170017.000000 0 0 1
-34.453764 11.743653 6.586494 36.991312 -0.328503 1.391787 -0.010028 0.012715 124403.000000 0 0 1
-33.702453 11.616353 5.405894 36.055772 -0.331922 1.420297 -0.002900 0.001164 -170162.000000 0 0 1
-33.987233 12.767053 4.412794 36.573247 -0.359334 1.449845 0.017405 0.010346 -600398.000000 0 0 1
-35.252108 12.551353 3.863994 37.618852 -0.342050 1.467901 0.028301 0.007698 341109.000000 0 0 1
34.347059 13.621253 4.068294 37.172705 0.377552 1.461134 0.009429 -0.004110 844400.000000 0 0 1
33.726339 13.940953 5.449294 36.898657 0.391966 1.422571 0.032458 -0.003149 -729080.000000 0 0 1
33.279579 15.327053 5.504394 37.050604 0.431596 1.421680 0.025185 -0.000734 433577.000000 0 0 1
32.735079 15.797153 6.773794 36.973230 0.449611 1.386548 -0.000770 0.002809 -262975.000000 0 0 1
31.402789 15.242653 7.286394 35.659012 0.451893 1.365012 0.014364 -0.003478 -650461.000000 0 0 1
31.489589 13.991753 7.913794 35.355219 0.418128 1.345047 0.034854 -0.005610 252623.000000 0 0 1
30.235899 13.340553 8.061694 34.017214 0.415525 1.331531 0.034144 -0.001950 -104430.000000 0 0 1
30.168409 12.032353 7.243394 33.277277 0.379506 1.351372 0.049557 -0.002202 -184535.000000 0 0 1
30.304769 12.283953 5.820094 33.213672 0.385108 1.394655 0.048223 -0.005376 64132.600000 0 0 1
30.628949 11.141453 5.180794 33.001592 0.348876 1.413158 0.060063 -0.009716 -175155.000000 0 0 1
30.342219 11.078053 3.653894 32.507298 0.350066 1.458156 0.046308 -0.014563 -209410.000000 0 0 1
28.996459 11.129253 3.267494 31.230296 0.366476 1.465979 0.055870 -0.011339 -152414.000000 0 0 1
28.858089 11.283853 1.849594 31.040870 0.372734 1.511175 0.061598 -0.015303 4564.200000 0 0 1
27.374299 11.249153 1.417594 29.629466 0.389900 1.522934 0.064093 -0.010156 60074.500000 0 0 1
26.809469 9.950653 1.425194 28.632050 0.355402 1.521000 0.049197 -0.009348 731678.000000 0 0 1
25.402539 9.963453 1.691694 27.339005 0.373784 1.508878 0.045133 -0.009514 430950.000000 0 0 1
24.767339 8.560753 1.849794 26.270312 0.332792 1.500324 0.043893 -0.012695 -301162.000000 0 0 1
25.155339 7.728953 2.906994 26.475997 0.298094 1.460777 0.043904 -0.010478 69820.800000 0 0 1
26.468709 7.221153 2.814794 27.580077 0.266337 1.468559 0.068018 -0.013872 -120998.000000 0 0 1
26.941409 6.478553 4.091494 28.009846 0.235988 1.424198 0.070801 -0.022624 -863228.000000 0 0 1
28.337929 6.434353 4.175794 29.357731 0.223272 1.428074 0.078937 -0.016659 -159907.000000 0 0 1
28.731789 5.823653 5.391694 29.807734 0.199981 1.388913 0.062715 -0.007760 -402578.000000 0 0 1
30.222899 5.911653 5.707694 31.320106 0.193163 1.387535 0.059852 -0.005385 -453190.000000 0 0 1
30.630119 7.109753 6.274894 32.064420 0.228078 1.373829 0.061774 -0.013954 -156833.000000 0 0 1
32.003809 7.095553 6.597294 33.438226 0.218180 1.372195 0.027586 -0.001672 203857.000000 0 0 1
32.302289 8.264353 7.597094 34.197269 0.250471 1.346772 0.029657 -0.011600 323586.000000 0 0 1
31.620069 7.941953 8.819294 33.774003 0.246078 1.306607 0.046952 -0.009269 344517.000000 0 0 1
32.019429 8.905353 9.806094 34.651242 0.271268 1.283882 0.047836 -0.002609 -421380.000000 0 0 1
31.330899 8.836253 11.165994 34.414880 0.274890 1.240363 0.044101 -0.008612 -822190.000000 0 0 1
30.069159 9.433653 11.116994 33.417595 0.304007 1.231664 0.032779 -0.008974 -603062.000000 0 0 1
29.468999 9.412553 12.371194 33.317630 0.309163 1.190376 0.027698 -0.008715 -825271.000000 0 0 1
28.151389 10.157953 12.442394 32.411385 0.346293 1.176791 0.027947 -0.012064 -803578.000000 0 0 1
28.211409 11.574153 12.129494 32.817209 0.389324 1.192210 0.024918 -0.012702 122013.000000 0 0 1
28.370879 12.010953 10.791094 32.643797 0.400476 1.233888 0.030783 -0.014960 -162903.000000 0 0 1
27.095039 11.923653 9.912794 31.218234 0.414564 1.247670 0.019167 -0.008589 17148.400000 0 0 1
27.144989 12.924853 8.961494 31.372131 0.444379 1.281110 0.008284 0.003137 206535.000000 0 0 1
25.952439 12.912153 8.189994 30.121899 0.461671 1.295435 0.017852 0.008490 178185.000000 0 0 1
25.960969 14.149553 7.250794 30.442664 0.499021 1.330306 0.017159 0.006461 49253.900000 0 0 1
25.749229 15.356153 7.914994 31.007763 0.537749 1.312681 0.016709 0.010828 199740.000000 0 0 1
26.060899 16.411753 7.060794 31.597008 0.562005 1.345429 0.013842 0.010331 -603062.000000 0 0 1
25.886049 17.799253 7.673894 32.338670 0.602355 1.331213 0.021915 0.008798 742237.000000 0 0 1
24.607839 18.412653 7.988994 31.755244 0.642376 1.316484 0.021523 0.008422 1051330.000000 0 0 1
23.815139 17.717753 8.971094 31.009033 0.639631 1.277295 0.033318 0.002684 -73742.900000 0 0 1
22.543339 18.585853 9.172094 30.622922 0.689473 1.266610 0.034700 0.004457 150883.000000 0 0 1
21.658839 18.601953 8.036394 29.660101 0.709616 1.296417 0.045423 -0.001556 -421687.000000 0 0 1
20.528539 19.335553 8.316494 29.401507 0.755481 1.284022 0.059839 -0.006624 -912182.000000 0 0 1
19.760239 19.586853 7.029894 28.697234 0.780992 1.323310 0.053272 -0.009256 -352191.000000 0 0 1
20.489539 20.440953 6.167694 29.592131 0.784211 1.360834 0.040679 0.005902 356426.000000 0 0 1
19.821939 20.666153 4.909494 29.053438 0.806246 1.401000 0.037189 -0.004028 151299.000000 0 0 1
18.085737 17.556753 32.503266 41.131445 0.770558 0.659614 0.004241 -0.012021 105509.000000 0 0 1
17.081237 18.295353 31.829776 40.492262 0.819704 0.666370 0.017375 -0.013132 331511.000000 0 0 1
16.123837 17.516853 31.161536 39.215553 0.826783 0.652412 0.027013 -0.013061 -439215.000000 0 0 1
15.520537 18.185253 29.933696 38.309485 0.864292 0.673946 0.030921 -0.017859 -646848.000000 0 0 1
16.411337 18.429753 28.843626 37.959749 0.843266 0.707718 0.030308 -0.014470 -102974.000000 0 0 1
15.881737 19.033453 27.738856 37.201425 0.875422 0.729302 0.044969 -0.036661 -225464.000000 0 0 1
17.055837 19.287253 26.755476 37.131593 0.846720 0.766189 0.043561 -0.024336 258574.000000 0 0 1
17.742837 20.513253 27.025476 38.288095 0.857690 0.787180 0.048426 -0.025404 9461.700000 0 0 1
18.799337 20.538953 26.095516 38.160708 0.829591 0.817795 0.045325 -0.021688 -826563.000000 0 0 1
19.629337 21.800853 26.197966 39.330923 0.837764 0.841841 0.058810 -0.017630 -394971.000000 0 0 1
18.941037 23.032953 25.916256 39.508634 0.882578 0.855337 0.055411 -0.029203 294621.000000 0 0 1
19.649937 24.167853 26.343506 40.794429 0.888142 0.868775 0.062452 -0.028204 -193775.000000 0 0 1
18.787937 25.419653 26.071246 40.973836 0.934301 0.881117 0.067317 -0.034231 79359.300000 0 0 1
18.788937 25.984453 24.783266 40.526858 0.944745 0.912807 0.073568 -0.029398 -21331.500000 0 0 1
18.031437 27.155153 24.786296 40.949915 0.984632 0.920675 0.073464 -0.030754 -431696.000000 0 0 1
18.030037 27.883653 23.444296 40.647452 0.996803 0.956025 0.067562 -0.027869 -666498.000000 0 0 1
19.161337 28.650653 23.265496 41.584854 0.981324 0.977050 0.070122 -0.025532 -705084.000000 0 0 1
18.976537 29.537853 22.166796 41.520604 0.999748 1.007620 0.063609 -0.025190 -178587.000000 0 0 1
20.251537 30.373253 21.922296 42.582230 0.982732 1.029996 0.063671 -0.019735 -650202.000000 0 0 1
21.231937 29.521553 21.411596 42.199215 0.947300 1.038639 0.067941 -0.018545 -470132.000000 0 0 1
22.329637 30.251353 20.883196 43.010056 0.934931 1.063813 0.066466 -0.023290 135729.000000 0 0 1
22.265837 30.467753 19.342996 42.405224 0.939697 1.097136 0.060622 -0.021938 -133076.000000 0 0 1
21.192037 31.318153 18.999996 42.319369 0.975901 1.105187 0.046934 -0.008659 250231.000000 0 0 1
21.410937 31.729653 17.635096 42.144937 0.977189 1.139070 0.043057 -0.008861 158284.000000 0 0 1
20.870837 33.138353 17.197696 42.772691 1.008746 1.157018 0.052722 -0.002528 -5365.890000 0 0 1
21.792637 34.181953 17.616796 44.200413 1.003225 1.160843 0.046683 -0.001067 875893.000000 0 0 1
22.203637 -34.127418 16.537696 43.945165 -0.993992 1.184969 0.036649 -0.001100 -205193.000000 0 0 1
23.329537 34.403453 15.664896 44.421322 0.974909 1.210402 0.035772 -0.004984 -887332.000000 0 0 1
23.096437 33.448953 14.641396 43.204726 0.966476 1.225066 0.044104 -0.006681 478947.000000 0 0 1
22.038337 33.697353 13.686896 42.526827 0.991609 1.243123 0.029387 -0.009897 431232.000000 0 0 1
21.622837 32.509353 12.842296 41.101456 0.983861 1.253022 0.024471 -0.014847 -478878.000000 0 0 1
22.504137 32.211653 11.804496 41.028928 0.960988 1.278960 0.037867 -0.025751 -242502.000000 0 0 1
22.015337 31.172653 10.967496 39.707623 0.955896 1.290952 0.035719 -0.026721 -883351.000000 0 0 1
23.177337 30.511453 10.261496 39.666561 0.921162 1.309127 0.034700 -0.021904 287000.000000 0 0 1
24.118537 29.724753 11.004096 39.829071 0.889145 1.290872 0.037260 -0.016496 762376.000000 0 0 1
25.014437 30.426253 11.866996 41.137629 0.882704 1.278167 0.038532 -0.018709 895191.000000 0 0 1
26.421737 29.773653 12.232096 41.643761 0.844975 1.272668 0.038495 -0.009230 1583690.000000 0 0 1
26.283237 28.667453 13.065696 41.028574 0.828759 1.246699 0.036161 -0.010132 1023070.000000 0 0 1
27.622637 28.403353 13.553696 41.874374 0.799332 1.241185 0.026276 -0.003523 1265050.000000 0 0 1
27.740337 27.170753 14.491796 41.446210 0.775026 1.213596 0.009658 -0.007894 449287.000000 0 0 1
28.928437 27.247853 15.290496 42.580503 0.755491 1.203497 -0.003170 -0.006402 379094.000000 0 0 1
29.223837 25.992353 15.853296 42.201446 0.726941 1.185690 0.003202 -0.008264 -356037.000000 0 0 1
30.363437 26.037053 16.873296 43.411687 0.708840 1.171597 0.009763 -0.004690 143018.000000 0 0 1
31.582937 26.383853 16.208196 44.230027 0.695947 1.195603 0.014618 -0.009042 42709.000000 0 0 1
32.594737 26.607253 17.168896 45.443743 0.684604 1.183371 0.003372 -0.008256 46433.100000 0 0 1
33.971437 26.950253 16.572496 46.422218 0.670655 1.205747 0.012128 -0.019326 -91638.100000 0 0 1
34.079837 28.144153 15.813596 46.942502 0.690294 1.227204 0.023118 -0.013284 -993865.000000 0 0 1
-35.162865 28.462953 15.553496 47.838040 -0.680483 1.239649 0.034832 -0.018270 -435699.000000 0 0 1
-34.966065 29.574453 14.458196 48.024092 -0.702053 1.264991 0.024532 -0.019557 99288.200000 0 0 1
34.914637 30.735853 14.892796 48.841785 0.721832 1.260943 0.039721 -0.019176 125049.000000 0 0 1
34.998937 31.797153 13.997296 49.314388 0.737501 1.283002 0.020258 -0.000129 58976.700000 0 0 1
34.182437 32.990953 14.533596 49.679648 0.767663 1.273908 0.014192 -0.001239 -556790.000000 0 0 1
34.307837 34.126553 13.624996 50.272158 0.782749 1.296339 -0.006462 -0.010129 300545.000000 0 0 1
33.368637 -33.976518 13.844296 49.593691 -0.794424 1.287883 -0.006639 -0.000831 263245.000000 0 0 1
31.880837 -34.218518 13.495596 48.676748 -0.820750 1.289866 0.013843 0.000141 107720.000000 0 0 1
31.279237 33.869553 14.256996 48.257634 0.825137 1.270885 0.011755 -0.001574 -560347.000000 0 0 1
30.098337 33.429153 13.652996 47.008749 0.837781 1.276115 0.017250 0.005402 -984224.000000 0 0 1
29.700237 32.076753 14.198396 45.963210 0.823848 1.256752 0.022138 0.000806 -328752.000000 0 0 1
29.264437 32.183553 15.505296 46.180110 0.832868 1.228388 0.031017 0.002396 -39864.900000 0 0 1
28.770537 30.984453 16.070296 45.233114 0.822431 1.207586 0.028237 -0.007163 20976.000000 0 0 1
27.904437 31.253253 17.332396 45.341321 0.841946 1.178550 0.024854 -0.003702 -302551.000000 0 0 1
27.549237 30.184053 18.129896 44.707166 0.831004 1.153243 0.019129 -0.000933 1783.100000 0 0 1
28.373537 30.119453 19.288196 45.653845 0.815238 1.134608 0.019376 0.001884 -51802.900000 0 0 1
28.056637 29.058153 20.341296 45.225209 0.802932 1.104280 0.017487 0.001000 449594.000000 0 0 1
26.936737 29.330553 21.217496 45.122625 0.827916 1.081258 0.027094 -0.004149 741989.000000 0 0 1
27.047237 28.465053 22.338196 45.175295 0.810933 1.053562 0.020645 -0.003054 98894.400000 0 0 1
25.827637 28.390653 23.312796 44.906375 0.832635 1.024949 0.032401 -0.009920 -421545.000000 0 0 1
24.779337 27.699553 22.692096 43.545517 0.840986 1.022643 0.066893 -0.018442 -1154670.000000 0 0 1
23.597037 27.823553 23.386296 43.334618 0.867409 1.000754 0.076852 -0.024813 -645668.000000 0 0 1
23.344737 26.653953 24.371196 43.004246 0.851488 0.968282 0.052925 -0.030001 -567611.000000 0 0 1
24.247137 26.703553 25.443766 44.140556 0.833573 0.956448 0.039894 -0.025679 43384.800000 0 0 1
23.779237 25.876853 26.516016 44.024570 0.827616 0.924417 0.059249 -0.023060 133121.000000 0 0 1
24.880137 25.501053 27.606436 45.071502 0.797722 0.911573 0.057960 -0.025083 677385.000000 0 0 1
25.331937 26.563853 28.473346 46.455105 0.809132 0.911043 0.064209 -0.028773 554730.000000 0 0 1
26.038637 27.589553 27.778726 47.019695 0.814310 0.938760 0.046487 -0.014641 -830582.000000 0 0 1
26.465537 28.742153 28.739586 48.502576 0.826612 0.936591 0.015669 -0.010037 -697284.000000 0 0 1
27.526837 28.530453 29.623336 49.489954 0.803300 0.929078 0.008920 -0.001759 -180335.000000 0 0 1
27.900437 29.725653 30.282466 50.784610 0.817061 0.931922 0.010146 -0.003819 -963308.000000 0 0 1
29.397537 29.839553 30.376916 51.743320 0.792860 0.943362 -0.007260 -0.000934 -984434.000000 0 0 1
29.994937 29.949953 29.100856 51.415521 0.784648 0.969158 -0.012728 -0.000440 -277761.000000 0 0 1
31.404437 29.902053 29.123746 52.235659 0.760897 0.979370 -0.000987 -0.003495 32541.600000 0 0 1
31.944837 30.558753 27.818536 52.231992 0.763226 1.009132 -0.005262 0.002186 -558403.000000 0 0 1
31.620537 31.900953 27.765336 52.805711 0.789813 1.017139 -0.002331 0.000651 102605.000000 0 0 1
32.086937 32.513753 26.590826 52.856293 0.792005 1.043640 0.000936 0.002319 -180222.000000 0 0 1
31.664337 34.030353 26.447556 53.480542 0.821398 1.053506 0.008119 0.000890 -61860.900000 0 0 1
32.468237 -34.202418 27.171416 54.426810 -0.811403 1.048088 0.007427 -0.002053 228853.000000 0 0 1
32.045537 -32.875818 26.838416 53.179286 -0.798186 1.041787 0.010154 0.001908 -242327.000000 0 0 1
32.950237 -31.809418 27.419346 53.379563 -0.767784 1.031342 0.003229 0.006018 -197402.000000 0 0 1
32.873137 -31.666618 28.818276 53.980653 -0.766706 1.007634 0.010167 0.004404 441356.000000 0 0 1
34.084537 -31.069318 29.245696 54.611069 -0.739153 1.005665 0.000467 -0.007163 38759.800000 0 0 1
34.085037 -30.667018 30.777906 55.222597 -0.732661 0.979615 0.010409 -0.004193 -383944.000000 0 0 1
34.073137 -31.757018 31.691556 56.336858 -0.750229 0.973345 0.007890 -0.001090 61879.000000 0 0 1
32.859137 -32.458418 31.869776 56.115545 -0.779263 0.966806 0.011128 -0.005514 -341546.000000 0 0 1
32.872137 -33.433818 33.063607 57.372464 -0.793869 0.956605 0.017832 -0.003248 -785419.000000 0 0 1
32.554537 -32.799418 34.281110 57.539501 -0.789145 0.932555 0.002339 -0.009683 256159.000000 0 0 1
32.678837 -33.501418 -33.501966 57.555479 -0.797827 2.192082 0.005627 -0.006587 -51348.800000 0 0 1
31.605837 34.541853 -33.298216 57.452935 0.829755 2.189002 0.011398 -0.002749 -85666.400000 0 0 1
31.871637 33.474553 -34.186429 57.489642 0.809923 2.207631 0.012010 -0.003077 600740.000000 0 0 1
31.095237 32.257653 -33.906016 56.187969 0.803744 2.218603 0.011756 0.001151 444262.000000 0 0 1
31.326337 31.210253 34.022833 55.794018 0.783542 0.914996 0.011514 0.004081 313443.000000 0 0 1
32.594337 30.578453 33.924681 56.109862 0.753498 0.921518 0.003103 -0.001728 183298.000000 0 0 1
32.617237 29.787653 32.796606 55.016414 0.740087 0.932131 -0.004515 -0.009330 87940.700000 0 0 1
33.951237 29.026153 32.639736 55.322296 0.707353 0.939747 -0.000847 -0.010834 50681.600000 0 0 1
34.078237 27.871453 33.516527 55.330839 0.685541 0.920091 -0.005271 -0.004051 910969.000000 0 0 1
-35.129965 27.405253 33.534842 55.765114 -0.662495 0.925596 -0.007905 -0.008364 723838.000000 0 0 1
-34.937665 26.014453 34.171391 55.363130 -0.640034 0.905588 -0.005168 -0.004441 -132571.000000 0 0 1
35.263637 24.979653 33.334247 54.577277 0.616320 0.913762 -0.005394 -0.004807 118738.000000 0 0 1
34.864637 23.882053 34.143817 54.329510 0.600583 0.891227 0.003723 -0.006904 -42275.500000 0 0 1
34.354037 22.723253 33.306209 52.970272 0.584378 0.890824 -0.004145 -0.016759 -368536.000000 0 0 1
-35.089665 22.112253 32.711866 52.823314 -0.562304 0.902984 0.008848 -0.008416 247953.000000 0 0 1
35.158237 20.956453 32.050586 51.985716 0.537518 0.906473 0.009836 -0.006784 -549820.000000 0 0 1
-34.272565 20.229953 31.344216 50.658855 -0.533232 0.903670 0.003643 -0.012085 -459090.000000 0 0 1
-33.789365 20.912253 30.174296 49.895207 -0.554201 0.921340 0.001156 -0.010957 -358603.000000 0 0 1
-32.700565 20.170553 29.717636 48.572791 -0.552700 0.912441 0.018354 -0.008496 -743370.000000 0 0 1
-32.847965 19.077053 28.604986 47.551740 -0.526158 0.925350 0.021823 -0.008931 -573492.000000 0 0 1
-33.682965 18.018953 29.062666 47.998577 -0.491221 0.920415 0.010929 -0.009631 410342.000000 0 0 1
-34.335165 17.337453 28.018516 47.587058 -0.467598 0.941242 0.015161 -0.021363 -159271.000000 0 0 1
-35.026965 16.049853 28.521536 47.937085 -0.429664 0.933557 0.015661 -0.026719 -217364.000000 0 0 1
-34.131165 15.091053 29.038766 47.285582 -0.416306 0.909533 0.021986 -0.021842 274754.000000 0 0 1
-34.804265 13.893053 29.365646 47.609820 -0.379796 0.906128 0.033080 -0.025141 -207860.000000 0 0 1
-33.798665 12.858053 29.851816 46.891473 -0.363523 0.880695 0.032925 -0.014771 -214872.000000 0 0 1
-33.130865 13.323953 31.034366 47.310821 -0.382368 0.855332 0.031552 -0.009891 725348.000000 0 0 1
-32.232665 12.334153 31.582686 46.781856 -0.365469 0.829689 0.034972 -0.009589 854528.000000 0 0 1
-30.736465 12.681353 31.308786 45.670418 -0.391307 0.815455 0.036065 -0.007509 -685641.000000 0 0 1
-30.351365 12.659353 29.917696 44.458218 -0.395155 0.832621 0.034774 -0.001844 201495.000000 0 0 1
-28.988965 12.994153 29.707276 43.494027 -0.421393 0.818907 0.037426 0.001925 754278.000000 0 0 1
-27.938465 11.906253 30.152166 42.795675 -0.402853 0.788992 0.032011 0.000727 -263493.000000 0 0 1
-27.664265 10.848953 29.218316 41.673989 -0.373734 0.793834 0.026798 -0.005326 369187.000000 0 0 1
-26.503265 10.179253 29.716836 41.099034 -0.366703 0.762583 0.022426 0.003931 349987.000000 0 0 1
-26.007365 8.996253 28.776296 39.816967 -0.333028 0.763075 0.011676 0.008218 336797.000000 0 0 1
-26.808365 7.805453 28.844006 40.144616 -0.283325 0.769149 0.016340 0.006758 788861.000000 0 0 1
-28.134965 7.934853 28.316576 40.698484 -0.274888 0.801312 0.029039 0.004414 235357.000000 0 0 1
-29.033265 6.724253 28.603956 41.307776 -0.227592 0.805904 0.030133 0.003973 -180445.000000 0 0 1
-29.472365 6.501453 29.941516 42.513334 -0.217118 0.789380 0.033539 0.006177 145755.000000 0 0 1
-29.947265 5.195453 30.124536 42.793914 -0.171777 0.789861 0.032250 0.009937 17151.100000 0 0 1
-30.757065 4.936953 31.439286 44.258324 -0.159157 0.780789 0.018480 0.008036 518244.000000 0 0 1
-31.925565 5.753853 31.547956 45.250658 -0.178313 0.799337 0.020111 0.006671 413594.000000 0 0 1
-32.647365 5.372253 32.730066 46.539970 -0.163092 0.790813 0.025483 0.005708 128638.000000 0 0 1
-34.102365 5.874553 32.721566 47.625440 -0.170588 0.813360 0.022941 0.011016 -33347.400000 0 0 1
-34.231665 7.246553 33.178831 48.219853 -0.208612 0.811965 0.027918 -0.004249 682015.000000 0 0 1
34.995437 7.684453 32.907736 48.648233 0.216154 0.827875 0.026731 -0.006540 609289.000000 0 0 1
34.753837 9.103753 33.494799 49.118317 0.256193 0.820411 0.030827 0.004572 -183256.000000 0 0 1
34.736837 9.144653 -34.100592 49.529011 0.257415 2.330211 0.036757 0.000069 204620.000000 0 0 1
34.801737 10.413753 -33.682006 49.538719 0.290751 2.318440 0.039858 -0.010396 -226393.000000 0 0 1
34.708537 10.500353 -32.154976 48.465271 0.293776 2.296236 0.039283 -0.019777 -277465.000000 0 0 1
33.465337 10.016053 -31.714916 47.181416 0.290811 2.307960 0.042828 -0.018085 -162809.000000 0 0 1
33.397037 9.934353 -30.302506 46.176784 0.289127 2.286605 0.031817 -0.006005 -458963.000000 0 0 1
32.210537 9.246853 -29.657196 44.750109 0.279558 2.295253 0.027817 -0.005403 -642144.000000 0 0 1
32.207437 7.831053 -29.963306 44.681586 0.238516 2.305809 0.020473 0.001092 32157.700000 0 0 1
31.081937 7.180553 -29.430066 43.402488 0.227037 2.315934 0.008041 0.005360 -489008.000000 0 0 1
34.313589 6.163053 -19.701706 40.044510 0.177715 2.085176 0.013252 -0.000612 -641971.000000 0 0 1
33.758489 7.234353 -19.058806 39.436145 0.211104 2.075197 0.009151 0.004130 174810.000000 0 0 1
34.399769 8.493953 -19.269506 40.333673 0.242077 2.068891 0.000735 -0.001760 -345382.000000 0 0 1
-34.768563 8.845853 -18.761206 40.485614 -0.249135 2.052629 0.008868 -0.004801 1284870.000000 0 0 1
-33.595323 8.179453 -19.345206 39.620527 -0.238823 2.080894 0.020828 -0.011209 1584170.000000 0 0 1
-33.073273 8.800153 -20.518106 39.903343 -0.260055 2.110865 0.002045 -0.007436 -393737.000000 0 0 1
-32.621463 7.713753 -21.475506 39.810290 -0.232197 2.140575 -0.001125 -0.000688 -191488.000000 0 0 1
-33.651103 6.868853 -21.947006 40.758422 -0.201354 2.139411 0.003865 0.005462 203725.000000 0 0 1
-34.238131 7.221653 -23.198906 41.983225 -0.207877 2.156248 0.005349 0.006320 183289.000000 0 0 1
-34.255104 6.110153 -24.250306 42.412539 -0.176516 2.179461 0.007067 0.000685 1129170.000000 0 0 1
-32.906543 5.901153 -24.749006 41.595402 -0.177445 2.208054 0.004813 0.001579 1141220.000000 0 0 1
-32.803183 4.626753 -25.333376 41.704144 -0.140122 2.223649 0.007469 0.011964 249176.000000 0 0 1
-31.477363 4.552253 -26.127666 41.160689 -0.143624 2.258510 0.009416 0.011049 1333110.000000 0 0 1
-30.243323 4.735753 -25.400936 39.778053 -0.155327 2.263431 0.009487 0.009807 957760.000000 0 0 1
-29.084633 4.322053 -26.098736 39.315901 -0.147523 2.296713 0.016157 0.010423 -9094.150000 0 0 1
-27.767083 4.690853 -25.422816 37.938563 -0.167356 2.305146 0.015392 -0.001018 -388887.000000 0 0 1
-27.501373 6.060553 -25.569746 38.037715 -0.216906 2.308001 0.005529 0.004422 903805.000000 0 0 1
-26.173243 6.420453 -25.114306 36.837335 -0.240556 2.320965 0.008635 0.014503 902942.000000 0 0 1
-25.783473 7.848453 -25.377196 37.018749 -0.295487 2.326118 0.003236 0.007496 -268208.000000 0 0 1
-26.398803 8.762253 -24.473006 37.048643 -0.320477 2.292366 0.003578 0.000927 -272552.000000 0 0 1
-26.031773 10.118153 -24.724106 37.300290 -0.370714 2.295401 -0.016771 0.001768 602895.000000 0 0 1
-24.691863 10.628753 -24.042906 36.065494 -0.406483 2.300496 0.011422 -0.005370 649681.000000 0 0 1
-24.864363 10.922353 -22.641606 35.357838 -0.413901 2.265758 -0.003517 -0.000918 -577258.000000 0 0 1
-23.621263 10.981753 -22.047206 34.126856 -0.435183 2.273177 0.023065 -0.010972 -1085930.000000 0 0 1
-23.658963 11.263053 -20.551706 33.301284 -0.444312 2.235905 0.035826 -0.015455 -1306620.000000 0 0 1
-23.877963 12.598053 -20.183706 33.708309 -0.485484 2.212768 0.022183 -0.017013 166668.000000 0 0 1
-25.153303 13.160453 -20.357406 34.932938 -0.482043 2.192913 0.010318 -0.004292 -391057.000000 0 0 1
-26.362633 12.507653 -19.649406 35.178530 -0.442996 2.163448 0.008629 -0.006798 -847127.000000 0 0 1
-26.211933 12.295853 -18.219106 34.208030 -0.438618 2.132463 0.018616 -0.014124 -169642.000000 0 0 1
-27.172943 11.426353 -17.707406 34.387245 -0.398057 2.111735 -0.001164 -0.015053 -1205070.000000 0 0 1
-26.898463 11.149053 -16.230806 33.335683 -0.392932 2.079322 0.021717 -0.016770 730800.000000 0 0 1
-25.866983 10.213853 -15.882606 32.026252 -0.376068 2.089696 0.029973 -0.019445 1148500.000000 0 0 1
-24.570863 10.328653 -16.452806 31.322567 -0.397936 2.123829 0.041826 -0.020072 -104218.000000 0 0 1
-23.492863 9.421953 -15.756106 29.815142 -0.381416 2.127582 0.044822 -0.027007 840474.000000 0 0 1
-22.209163 9.427853 -16.410106 29.179152 -0.401449 2.168071 0.054083 -0.025067 535113.000000 0 0 1
-21.441163 8.421053 -15.844606 27.958705 -0.374242 2.173309 0.051116 -0.023905 -1476000.000000 0 0 1
-20.010063 8.800053 -15.559106 26.831499 -0.414324 2.189380 0.063926 -0.027603 -1172340.000000 0 0 1
-19.348263 8.948853 -16.789706 27.135429 -0.433212 2.237931 0.063067 -0.034445 -372350.000000 0 0 1
-17.957663 9.006453 -16.585806 26.051542 -0.464877 2.260947 0.055060 -0.033798 -604882.000000 0 0 1
-17.190663 9.604553 -17.801206 26.545231 -0.509504 2.305812 0.040866 -0.027548 -246797.000000 0 0 1
-17.051263 8.802553 -18.951306 26.970030 -0.476555 2.349954 0.063271 -0.030294 238073.000000 0 0 1
-16.076763 7.780653 -18.809706 25.938503 -0.450741 2.382071 0.059064 -0.023630 -552520.000000 0 0 1
-15.741263 7.036553 -20.122806 26.499581 -0.420367 2.433130 0.045867 -0.019292 176841.000000 0 0 1
-16.752563 6.180353 -20.610406 27.269653 -0.353430 2.427671 0.050289 -0.009982 -77974.000000 0 0 1
-17.895463 6.796853 -21.154406 28.529874 -0.362980 2.406074 0.050886 -0.018662 -435927.000000 0 0 1
-18.853663 5.801753 -21.806606 29.404915 -0.298529 2.406245 0.045487 -0.007124 -440136.000000 0 0 1
-19.706363 5.093453 -20.956906 29.214310 -0.252932 2.370789 0.049278 -0.007377 221254.000000 0 0 1
-20.207163 3.885253 -21.485706 29.749961 -0.189953 2.377788 0.042555 0.011371 -130993.000000 0 0 1
-21.178963 3.154953 -20.545906 29.675520 -0.147879 2.335540 0.052912 0.007229 -216541.000000 0 0 1
-21.854663 2.053053 -21.065006 30.423278 -0.093666 2.335603 0.053443 0.007345 93523.600000 0 0 1
-22.631163 1.506853 -20.026106 30.256984 -0.066485 2.294103 0.062832 0.000778 -479704.000000 0 0 1
-23.255663 0.136453 -20.447706 30.966969 -0.005867 2.292024 0.048518 0.009413 -475492.000000 0 0 1
-22.359363 -0.922447 -20.534006 30.371655 0.041232 2.313241 0.048156 0.000110 -394841.000000 0 0 1
-22.901863 -2.188947 -20.855406 31.052130 0.095290 2.307197 0.043507 -0.007381 -473159.000000 0 0 1
-23.394563 -2.439147 -22.298506 32.411085 0.103886 2.329512 0.062665 -0.012653 -174535.000000 0 0 1
-22.483463 -2.536547 -23.360706 32.521728 0.112343 2.372168 0.043582 -0.010140 -392592.000000 0 0 1
-21.729663 -3.726547 -23.387106 32.140662 0.169844 2.385684 0.036815 -0.018100 269874.000000 0 0 1
-20.492563 -3.664047 -24.339306 32.027679 0.176929 2.434026 0.031711 -0.008328 94028.700000 0 0 1
-20.854363 -3.685647 -25.683396 33.288516 0.174926 2.452053 0.029547 -0.005462 456483.000000 0 0 1
-19.773063 -3.736547 -26.627326 33.375894 0.186769 2.494436 0.029258 -0.011164 313497.000000 0 0 1
-20.281563 -3.667847 -28.097606 34.846383 0.178913 2.508713 0.015211 -0.011311 411075.000000 0 0 1
-21.033463 -4.842747 -28.450486 35.711188 0.226296 2.492583 0.019128 -0.009690 475985.000000 0 0 1
-21.732763 -4.861647 -29.694806 37.117787 0.220078 2.498117 0.007408 -0.007803 -26979.500000 0 0 1
-21.438563 -6.149947 -30.441246 37.737293 0.279362 2.509279 0.009298 -0.004948 23687.600000 0 0 1
-20.148163 -6.141047 -31.017626 37.493387 0.295849 2.545050 0.003496 -0.002252 -89176.400000 0 0 1
-19.847163 -7.382047 -31.558596 38.004598 0.356089 2.550602 -0.008982 -0.001968 -272835.000000 0 0 1
-18.394463 -7.413047 -32.078556 37.713967 0.383094 2.587874 0.004799 -0.010052 -453962.000000 0 0 1
-18.146263 -6.900047 -33.357646 38.595726 0.363362 2.614520 -0.000562 -0.011057 270847.000000 0 0 1
-18.367763 -7.928147 -34.307333 39.714271 0.407476 2.613667 -0.003601 -0.010819 -584253.000000 0 0 1
-18.225463 -7.498347 33.222321 38.627909 0.390314 0.535409 -0.007957 -0.008006 -423262.000000 0 0 1
-16.996963 -7.081447 32.699146 37.527028 0.394760 0.512851 0.006043 -0.010817 -235597.000000 0 0 1
-16.625963 -5.721347 33.001306 37.393083 0.331428 0.489536 0.002274 -0.009613 -568230.000000 0 0 1
-15.433463 -5.183247 32.236616 36.114502 0.324009 0.467667 0.003419 -0.007575 -606013.000000 0 0 1
-15.664063 -5.196547 30.854536 34.990990 0.320325 0.491162 0.012188 -0.008730 690905.000000 0 0 1
-14.477163 -5.029747 30.074696 33.754614 0.334380 0.471297 0.011636 -0.005450 461721.000000 0 0 1
-14.860563 -5.163647 28.578886 32.622880 0.334422 0.503212 0.022562 -0.004689 114348.000000 0 0 1
-15.548063 -4.007747 28.097036 32.361207 0.252273 0.519169 0.010786 -0.007018 220040.000000 0 0 1
-16.022463 -4.085747 26.750406 31.448321 0.249680 0.553643 0.021498 -0.008672 107457.000000 0 0 1
-14.966763 -3.841347 25.628236 29.926016 0.251236 0.542566 0.030871 -0.006236 428515.000000 0 0 1
-14.388863 -2.519247 25.730716 29.588101 0.173326 0.516343 0.026771 -0.001015 330175.000000 0 0 1
-13.673263 -2.117447 24.558536 28.188001 0.153640 0.513072 0.026814 0.001591 -83688.000000 0 0 1
-13.504063 -0.597247 24.377646 27.874470 0.044198 0.506287 0.027266 -0.004143 -418409.000000 0 0 1
-14.622863 -0.047547 23.748496 27.889451 0.003252 0.551914 0.019561 -0.013550 -156389.000000 0 0 1
-14.806763 1.286653 24.147186 28.354582 -0.086679 0.551738 0.003049 -0.008909 -509953.000000 0 0 1
-15.876463 2.023453 23.339896 28.300304 -0.126766 0.601085 0.006213 -0.008359 -462556.000000 0 0 1
-15.319863 2.691453 22.243396 27.142417 -0.173909 0.610246 -0.001321 -0.000516 -39081.200000 0 0 1
-16.143063 3.666953 21.694396 27.289043 -0.223363 0.651812 -0.008946 0.001615 -723239.000000 0 0 1
-15.394563 4.440453 20.565696 26.070252 -0.280821 0.661850 -0.009466 -0.002460 354602.000000 0 0 1
-14.426963 5.351553 21.086896 26.104283 -0.355207 0.630395 -0.000171 0.002576 470805.000000 0 0 1
-13.281863 5.351953 20.245896 24.798137 -0.383049 0.615598 0.006638 -0.005376 322377.000000 0 1 0
-12.259563 6.486353 20.568796 24.808165 -0.486644 0.593275 0.008864 -0.005181 215920.000000 0 1 0
-12.707663 7.785953 20.195096 25.098759 -0.549704 0.635752 0.009361 -0.004043 485995.000000 0 0 1
-11.647863 8.755453 20.235596 24.936119 -0.644575 0.624086 0.023789 -0.008945 237453.000000 0 1 0
-11.980463 10.274753 20.319896 25.729365 -0.708905 0.660387 0.022968 -0.004712 -365267.000000 0 0 1
-12.501563 10.815053 19.126596 25.280054 -0.713193 0.712716 0.021640 -0.001820 428327.000000 0 0 1
-12.965163 12.143553 19.322896 26.247584 -0.752688 0.743391 0.012426 0.000082 -298572.000000 0 0 1
-13.119263 12.922953 17.994996 25.747576 -0.777860 0.796937 0.012808 -0.009309 -224944.000000 0 0 1
-11.942763 13.533453 17.472496 25.121148 -0.847755 0.801640 0.018272 -0.012368 351933.000000 0 0 1
-11.773563 14.878953 17.917196 26.096474 -0.901389 0.814028 0.020571 -0.010989 -424965.000000 0 0 1
-12.782563 15.979553 17.506696 26.929992 -0.896097 0.863104 0.019235 -0.014430 -278923.000000 0 0 1
-12.821863 16.436953 16.191096 26.395553 -0.908331 0.910435 0.019867 -0.018882 62545.700000 0 0 1
-13.153363 15.544453 15.161696 25.387360 -0.868526 0.930773 0.019284 -0.019425 -363633.000000 0 0 1
-13.744863 16.310353 13.947096 25.484709 -0.870551 0.991694 0.022254 -0.022544 960489.000000 0 0 1
-15.093263 16.822753 14.095896 26.636552 -0.839534 1.013146 0.026927 -0.021059 1005570.000000 0 0 1
-15.405763 17.575453 12.932796 26.711258 -0.851089 1.065382 0.020437 -0.016828 -116376.000000 0 0 1
-16.612763 18.490053 13.178796 28.134439 -0.838827 1.083292 0.020812 -0.019061 -1180120.000000 0 0 1
-17.797863 17.862153 13.444096 28.575587 -0.787201 1.080967 0.027205 -0.019267 -551652.000000 0 0 1
-18.833763 18.842853 13.645896 29.932829 -0.785639 1.097431 0.035337 -0.026163 906123.000000 0 0 1
-20.289763 18.315953 13.752096 30.598510 -0.734315 1.104662 0.047866 -0.026707 716167.000000 0 0 1
-20.785563 17.627753 12.561696 30.009557 -0.703376 1.138904 0.052859 -0.026665 -112777.000000 0 0 1
-22.022863 16.997353 12.773396 30.611700 -0.657311 1.140355 0.059160 -0.025813 73330.500000 0 0 1
-22.672563 16.352253 11.476596 30.218431 -0.624836 1.181229 0.058172 -0.027840 559305.000000 0 0 1
-21.906363 15.193553 11.133996 28.891152 -0.606396 1.175180 0.056900 -0.019291 498428.000000 0 0 1
-22.340063 14.708053 9.847496 28.502253 -0.582238 1.218026 0.054577 -0.012083 -173945.000000 0 0 1
-21.876063 13.274453 9.599396 27.329868 -0.545406 1.211899 0.061912 -0.005718 -723029.000000 0 0 1
-22.219963 12.170153 10.451896 27.405867 -0.501085 1.179514 0.066741 -0.008981 1205280.000000 0 0 1
-23.614363 11.798453 10.592696 28.443749 -0.463352 1.189193 0.062686 -0.004457 1606930.000000 0 0 1
-24.411563 11.316753 9.298496 28.468498 -0.434091 1.238067 0.062181 0.007243 30268.100000 0 0 1
-24.497663 12.363853 8.344396 28.681515 -0.467397 1.275595 0.060647 0.014640 -131045.000000 0 0 1
-25.708903 12.257053 7.633396 29.486468 -0.444886 1.308936 0.047058 0.015941 -349374.000000 0 0 1
-26.023823 13.601053 6.942496 30.173271 -0.481594 1.338629 0.031753 0.021968 -46841.600000 0 0 1
-25.283623 14.044653 5.756396 29.489829 -0.507044 1.374336 0.019885 0.029160 641610.000000 0 0 1
-23.969463 14.533853 5.959096 28.657964 -0.545075 1.361329 0.028523 0.030683 -283806.000000 0 0 1
-23.761663 15.989453 6.488296 29.366260 -0.592312 1.348014 0.033402 0.003330 -1255590.000000 0 0 1
-22.436363 16.328253 6.718896 28.550759 -0.629114 1.333237 0.021846 -0.005998 -354551.000000 0 0 1
-22.293163 17.694053 7.048196 29.321353 -0.670887 1.328041 0.024405 -0.019173 70241.900000 0 0 1
-20.792363 18.073853 7.028896 28.432234 -0.715567 1.320991 0.021973 -0.016948 31256.400000 0 0 1
-20.344763 18.259053 5.713096 27.927440 -0.731422 1.364773 0.013244 -0.013796 -30161.400000 0 0 1
-18.948363 18.288253 5.541296 26.911088 -0.767673 1.363401 0.009143 -0.013423 -139488.000000 0 0 1
-18.507863 19.400553 4.552296 27.196431 -0.808942 1.402619 0.023563 -0.012975 1150320.000000 0 0 1
-17.057563 19.531153 4.410496 26.303591 -0.852901 1.402324 0.019372 -0.013594 1662240.000000 0 0 1
-16.708363 20.594053 3.544496 26.755334 -0.889191 1.437928 0.030622 -0.002009 -71364.800000 0 0 1
-17.004263 22.011753 4.042596 28.107025 -0.913045 1.426467 0.027772 -0.008870 -228684.000000 0 0 1
-16.319663 22.429753 5.224796 28.226295 -0.941793 1.384619 0.028265 -0.003741 272551.000000 0 0 1
-16.694163 23.749753 5.613496 29.567841 -0.958114 1.379786 0.021873 -0.002023 -153.830000 0 0 1
-15.868763 24.159553 6.861796 29.708348 -0.989633 1.337720 0.008977 0.007337 -3605.820000 0 0 1
-16.317063 23.500853 8.000696 29.707706 -0.963894 1.298116 0.005332 0.009632 258797.000000 0 0 1
-15.523563 23.685253 9.175196 29.768380 -0.990627 1.257475 0.006015 0.009504 34012.400000 0 0 1
-16.043163 22.812853 10.330396 29.740989 -0.957892 1.216058 -0.002229 0.008387 127493.000000 0 0 1
-17.212863 23.373653 10.889696 31.003158 -0.936042 1.211896 -0.010711 0.012921 -304022.000000 0 0 1
-18.086463 22.432253 11.513196 31.030305 -0.892244 1.190678 -0.008601 0.001090 442109.000000 0 0 1
-19.358363 23.175353 12.000596 32.493962 -0.874899 1.192522 0.003861 0.001100 135122.000000 0 0 1
-20.171263 23.829453 11.030996 33.112016 -0.868347 1.231163 0.017584 -0.001144 407614.000000 0 0 1
-19.643363 25.069953 10.560696 33.554323 -0.906172 1.250620 -0.006361 0.006934 -754769.000000 0 0 1
-20.731363 25.850753 9.849996 34.569832 -0.894859 1.281863 0.006810 0.006803 111331.000000 0 0 1
-21.719963 26.392653 10.727796 35.824776 -0.882214 1.266678 0.024450 -0.000331 38025.500000 0 0 1
-22.414663 27.437653 10.122596 36.847102 -0.885817 1.292499 0.020221 -0.005230 429901.000000 0 0 1
-23.455563 28.069753 11.140896 38.238646 -0.874712 1.275157 0.022095 -0.000138 288693.000000 0 0 1
-22.756863 28.595353 12.260796 38.547324 -0.898607 1.247102 0.032798 -0.005402 51965.300000 0 0 1
-23.543263 29.075853 13.299796 39.706109 -0.890157 1.229238 0.027218 -0.010049 -462585.000000 0 0 1
8.344937 -32.894518 28.098636 44.059285 -1.322350 0.879228 -0.008920 -0.005805 -311097.000000 0 0 1
9.696637 -32.812718 27.738276 44.046693 -1.283460 0.889569 -0.002981 -0.001329 -39410.800000 0 0 1
9.816137 -32.892718 26.346986 43.271828 -1.280782 0.916159 -0.003173 -0.000294 -482376.000000 0 0 1
11.253737 -33.018818 25.840976 43.412498 -1.242316 0.933229 0.002017 0.009255 -313346.000000 0 0 1
11.823337 -34.290318 25.985526 44.619108 -1.238761 0.949136 0.010285 -0.003001 436406.000000 0 0 1
13.241837 -34.258618 25.956426 44.974828 -1.201959 0.955584 0.029891 0.001048 526072.000000 0 0 1
14.053837 33.565353 25.823506 44.620587 1.174273 0.953619 0.054044 0.005097 19877.300000 0 0 1
14.063537 33.037253 24.513986 43.476185 1.168344 0.971758 0.044687 0.002215 189469.000000 0 0 1
14.862037 31.876253 24.482836 42.853062 1.134518 0.962682 0.055464 -0.005130 -526747.000000 0 0 1
15.031637 31.140853 23.051996 41.558361 1.121086 0.982806 0.054939 -0.007754 53020.500000 0 0 1
13.922237 30.429453 22.494496 40.320995 1.141702 0.978961 0.042314 -0.003592 269542.000000 0 0 1
13.909737 28.991153 22.750996 39.390044 1.123445 0.955032 0.045363 -0.001064 -160992.000000 0 0 1
13.794937 28.442353 24.200076 39.810946 1.119209 0.917415 0.047732 -0.016338 -236542.000000 0 0 1
14.928737 28.600753 25.017696 40.825916 1.089728 0.911211 0.061856 -0.007252 228005.000000 0 0 1
14.671337 28.022953 26.308006 41.141770 1.088489 0.877017 0.050987 -0.013474 281764.000000 0 0 1
15.712737 28.557153 27.350256 42.549238 1.067784 0.872661 0.071291 -0.014596 350847.000000 0 0 1
15.514537 29.905753 27.632806 43.573236 1.092237 0.883863 0.066054 -0.003910 -28976.700000 0 0 1
16.301737 30.285353 28.715356 44.805367 1.077002 0.875138 0.066182 -0.009403 -204138.000000 0 0 1
16.080637 31.754653 29.150356 46.007479 1.102040 0.884598 0.065268 -0.015025 -122376.000000 0 0 1
16.536237 32.689353 28.222766 46.244627 1.102472 0.914366 0.066774 -0.010632 -45192.400000 0 0 1
16.266437 34.050053 28.682386 47.399181 1.125130 0.920875 0.074209 0.000726 29919.100000 0 0 1
17.114237 -33.945118 28.051216 47.244458 -1.103815 0.935090 0.066759 0.000378 -238631.000000 0 0 1
16.845037 -33.793318 26.632336 46.206330 -1.108372 0.956506 0.069826 0.000667 -89321.100000 0 0 1
16.943537 -32.424818 26.231426 45.017107 -1.089273 0.948750 0.065999 -0.003581 1279050.000000 0 0 1
18.378737 -31.705418 26.227066 45.065180 -1.045458 0.949634 0.056003 0.003758 1145210.000000 0 0 1
18.840837 -31.375818 27.481696 45.767485 -1.030017 0.926716 0.046314 0.006283 -32483.100000 0 0 1
19.862137 -30.387418 27.331886 45.441519 -0.991873 0.925452 0.048043 0.009623 276095.000000 0 0 1
20.112937 -29.490118 28.578706 45.726794 -0.972238 0.895680 0.050437 0.011097 51288.200000 0 0 1
18.965237 -28.698818 28.809766 44.869867 -0.986841 0.873596 0.042745 0.011089 168392.000000 0 0 1
19.189537 -27.849218 29.872726 45.124240 -0.967456 0.847298 0.055438 0.008824 32741.200000 0 0 1
17.885937 -27.193118 30.357246 44.507694 -0.989001 0.820210 0.049619 0.006337 -93122.000000 0 0 1
17.233237 -26.344418 29.416546 43.085334 -0.991508 0.819275 0.054654 0.001341 -277869.000000 0 0 1
16.014637 -25.912818 29.942566 42.714166 -1.017232 0.794000 0.035759 -0.003581 -525328.000000 0 0 1
15.101637 -25.264418 28.874566 41.232157 -1.032038 0.794989 0.027691 0.001903 -744075.000000 0 0 1
14.637037 -26.205818 27.911556 40.988324 -1.061419 0.821719 0.030182 0.004964 309927.000000 0 0 1
14.044637 -25.505318 26.757436 39.544070 -1.067450 0.827595 0.037946 -0.009071 503865.000000 0 0 1
12.522337 -25.203118 27.059726 39.041450 -1.109667 0.805012 0.001107 0.004810 402962.000000 0 0 1
11.723537 -26.373418 27.156386 39.629128 -1.152508 0.815831 -0.010420 0.009897 160907.000000 0 0 1
11.513337 -27.103518 25.915056 39.226875 -1.169103 0.849118 -0.000131 0.003400 -965703.000000 0 0 1
10.696837 -28.427318 26.125956 40.063703 -1.210898 0.860432 -0.004135 0.011325 -490617.000000 0 0 1
9.342437 -28.075418 26.310426 39.594807 -1.249560 0.843983 -0.031115 0.007474 -525687.000000 0 0 1
8.635637 -29.284918 26.534966 40.451021 -1.284040 0.855319 -0.030612 0.000235 -895810.000000 0 0 1
7.213737 -29.007518 26.994926 40.276546 -1.327056 0.836265 -0.025763 0.001668 -296845.000000 0 0 1
6.206437 -28.548418 26.078936 39.161753 -1.356727 0.842058 -0.013232 -0.002609 335720.000000 0 0 1
6.481137 -27.418518 25.257076 37.837814 -1.338679 0.839938 -0.007241 -0.009641 -693182.000000 0 0 1
5.368237 -27.041118 24.192736 36.678720 -1.374823 0.850530 -0.002884 -0.005200 -350926.000000 0 0 1
5.131337 -28.073918 23.216896 36.789941 -1.390012 0.887869 -0.006580 -0.003424 -231949.000000 0 0 1
4.367137 -29.167418 23.625496 37.788546 -1.422174 0.895405 -0.004179 0.000665 804633.000000 0 0 1
2.870637 -28.814018 24.077776 37.659361 -1.471498 0.877135 0.000873 -0.009876 232029.000000 0 0 1
2.028037 -28.466118 22.987596 36.645087 -1.499673 0.892710 0.001339 -0.002154 660609.000000 0 0 1
0.776337 -27.876218 23.371496 36.385616 -1.542954 0.873265 0.010138 -0.010562 508014.000000 0 0 1
0.799037 -26.498618 24.047866 35.792668 -1.540652 0.834071 0.012004 -0.014312 -630319.000000 0 0 1
1.141937 -26.608518 25.407046 36.808086 -1.527906 0.808952 0.010920 -0.020289 77210.500000 0 0 1
1.387537 -25.372218 26.082156 36.413645 -1.516163 0.772348 0.013550 -0.014285 -364678.000000 0 0 1
2.852537 -25.021818 26.379296 36.470476 -1.457284 0.762219 0.010410 -0.008511 -577782.000000 0 0 1
3.595137 -24.538218 25.281726 35.414895 -1.425320 0.775783 0.012296 -0.010830 249702.000000 0 0 1
4.734737 -23.824418 25.770426 35.413775 -1.374618 0.755841 0.013589 -0.009435 286083.000000 0 0 1
4.359937 -22.321018 26.168766 34.670466 -1.377896 0.715469 0.020476 -0.007141 -433780.000000 0 0 1
4.359137 -21.456618 25.055946 33.274449 -1.370364 0.718174 0.024747 -0.009575 122666.000000 0 0 1
3.603937 -20.287018 25.287886 32.619452 -1.394983 0.683702 0.029702 -0.013541 -128771.000000 0 0 1
3.599737 -19.416218 24.043666 31.113430 -1.387479 0.687595 0.027064 -0.012287 423713.000000 0 0 1
4.877837 -18.881318 23.699296 30.691271 -1.317982 0.688526 0.032728 -0.006205 239802.000000 0 0 1
4.812737 -18.051218 22.554696 29.286912 -1.310242 0.691753 0.041715 -0.012670 158502.000000 0 0 1
6.218737 -17.506518 22.216096 28.960417 -1.229475 0.696458 0.028560 -0.008092 763012.000000 0 0 1
7.087837 -18.521718 21.634896 29.348939 -1.205312 0.741937 0.011462 -0.009381 615358.000000 0 0 1
8.418937 -18.163618 21.320196 29.246304 -1.136768 0.753954 0.010096 -0.005573 665496.000000 0 0 1
9.522837 -18.157318 22.411496 30.375118 -1.087771 0.740955 -0.006003 0.001467 -133432.000000 0 0 1
9.319237 -17.258218 23.458596 30.577770 -1.075672 0.696366 -0.019022 0.016485 -177431.000000 0 0 1
10.296137 -17.344318 24.460196 31.703895 -1.035073 0.689569 -0.018786 0.024166 -358677.000000 0 0 1
10.121237 -16.332018 25.597916 32.006680 -1.016005 0.643888 -0.014274 0.013910 -342812.000000 0 0 1
10.317637 -14.928818 25.311926 31.145093 -0.966054 0.622008 -0.005619 0.016489 271682.000000 0 0 1
10.455937 -14.173418 26.530886 31.844942 -0.935204 0.586058 -0.012058 0.017339 -124161.000000 0 0 1
10.785237 -12.707418 26.311466 31.146317 -0.867037 0.564662 -0.001338 0.009747 243392.000000 0 0 1
9.672337 -11.960518 25.829756 30.063007 -0.890780 0.537117 0.015966 0.006536 344524.000000 0 0 1
10.041737 -10.577318 25.629936 29.489146 -0.811367 0.517353 0.018175 0.004151 -138366.000000 0 0 1
9.045237 -9.715318 24.834926 28.159852 -0.821101 0.490862 0.024194 0.001076 657088.000000 0 0 1
7.822637 -9.524718 25.584346 28.398462 -0.883203 0.448944 0.002095 0.004927 413585.000000 0 0 1
6.744537 -9.312218 24.694626 27.240241 -0.943968 0.435760 0.009494 0.006317 -558485.000000 0 0 1
5.408337 -9.581918 25.358056 27.642255 -1.056941 0.409385 0.000405 -0.001598 -1660890.000000 0 0 1
4.978937 -8.530518 26.224696 28.023102 -1.042477 0.360206 -0.010490 -0.000738 -813183.000000 0 0 1
3.685237 -8.639018 26.691756 28.295997 -1.167588 0.338346 -0.016254 0.001905 -598441.000000 0 0 1
2.518337 -8.608818 25.704446 27.224480 -1.286207 0.335740 -0.009333 -0.001183 -1153340.000000 0 0 1
2.410037 -7.301018 25.200596 26.347356 -1.251962 0.296122 -0.015830 0.003587 -156652.000000 0 0 1
1.453437 -7.215318 24.157656 25.254022 -1.372019 0.295741 -0.015625 -0.002633 -582313.000000 0 0 1
1.636537 -5.961418 23.294996 24.101319 -1.302875 0.259399 -0.014279 -0.006387 -314063.000000 0 1 0
1.445037 -4.813618 24.063976 24.583206 -1.279158 0.205894 -0.017228 -0.002573 -48456.400000 0 1 0
1.997737 -3.693218 23.443396 23.816457 -1.074951 0.177229 -0.012131 -0.008284 -897298.000000 0 1 0
1.154037 -2.931218 22.384396 22.604978 -1.195728 0.139814 -0.009354 -0.012952 456424.000000 0 1 0
0.192737 -1.985218 22.890996 22.977727 -1.474014 0.086913 -0.004470 -0.011050 -52225.100000 0 1 0
-0.998663 -2.579218 23.323296 23.486716 1.201376 0.118034 -0.003182 -0.014227 -1048940.000000 0 1 0
-1.898363 -1.494218 23.928896 24.050541 0.666831 0.100620 0.001372 -0.026011 -654089.000000 0 1 0
-1.470163 -0.868218 25.117676 25.175640 0.533448 0.067871 -0.002815 -0.012917 -48421.000000 0 0 1
-2.297563 0.209782 25.520476 25.624549 -0.091054 0.090158 0.005838 -0.012328 -284856.000000 0 0 1
-1.913963 1.046782 26.816036 26.904624 -0.500474 0.081172 0.022092 -0.007474 -352048.000000 0 0 1
-1.958563 0.421782 28.058886 28.130321 -0.212113 0.071281 0.032774 -0.001631 441743.000000 0 0 1
-1.011463 -0.621218 28.344856 28.369699 0.550779 0.041853 0.021215 -0.000246 677371.000000 0 0 1
0.375637 -0.132218 28.930426 28.933167 -0.338440 0.013764 0.035090 0.000701 220233.000000 0 0 1
1.245437 0.538782 28.001386 28.034247 0.408295 0.048423 0.023778 0.005977 758515.000000 0 0 1
1.999837 -0.379218 27.150286 27.226480 -0.187399 0.074831 0.020235 0.002245 403116.000000 0 0 1
3.184037 -1.101218 27.845756 28.048831 -0.332978 0.120406 0.015116 0.000615 -572812.000000 0 0 1
2.636837 -2.004218 28.790346 28.980232 -0.649924 0.114537 0.010839 -0.001151 -25605.300000 0 0 1
3.577137 -2.917218 29.361266 29.721878 -0.684131 0.155933 0.003881 0.014241 162880.000000 0 0 1
4.133837 -4.055218 28.495586 29.078030 -0.775798 0.200487 0.005484 -0.001502 -350197.000000 0 0 1
4.977137 -3.619218 27.468186 28.149101 -0.628728 0.220398 0.005875 -0.000696 -390456.000000 0 0 1
5.146237 -4.693018 26.612126 27.508425 -0.739368 0.255973 0.009182 -0.006690 -248894.000000 0 0 1
6.289037 -4.307118 25.639756 26.748838 -0.600493 0.288972 0.013808 -0.003522 -1092070.000000 0 0 1
7.549037 -4.109218 26.188016 27.562399 -0.498485 0.317126 0.017908 -0.007818 -670868.000000 0 0 1
8.323337 -5.291818 26.080666 27.883372 -0.566314 0.361554 0.030951 0.000158 -428919.000000 0 0 1
9.137837 -5.328118 24.778286 26.941647 -0.527888 0.403476 0.030352 0.006236 -890449.000000 0 0 1
8.401937 -5.742118 23.635996 25.733728 -0.599517 0.406569 0.027638 0.004584 -222736.000000 0 0 1
9.115137 -5.727718 22.436196 24.885244 -0.561022 0.447374 0.031582 0.003739 -93983.300000 0 1 0
9.332037 -4.340118 21.813396 24.119448 -0.435321 0.440848 0.035573 0.001549 209373.000000 0 1 0
8.100237 -3.830218 21.349596 23.153610 -0.441695 0.397362 0.028872 -0.004270 -284307.000000 0 1 0
8.200037 -2.804218 20.357796 22.125644 -0.329509 0.402462 0.021212 -0.011153 -963254.000000 0 1 0
6.835037 -2.231218 20.129996 21.375519 -0.315532 0.343055 0.009149 -0.009376 -613369.000000 0 1 0
6.404037 -1.392218 21.226696 22.215368 -0.214066 0.299460 0.009339 -0.009317 -359187.000000 0 1 0
5.016637 -1.188218 21.197896 21.815804 -0.232570 0.238573 -0.004635 -0.001728 -330764.000000 0 1 0
4.596837 -0.413218 22.464396 22.933616 -0.089651 0.202633 0.006350 -0.005037 -772127.000000 0 1 0
3.237337 -0.128218 22.435796 22.668519 -0.039585 0.143415 0.002634 -0.004786 -921529.000000 0 1 0
2.832637 0.401782 23.625796 23.798393 0.140900 0.120509 0.012079 -0.007604 -1035860.000000 0 1 0
1.367537 0.753782 23.634696 23.686224 0.503762 0.065973 0.008107 -0.011914 -1119450.000000 0 1 0
1.077037 1.986782 23.029196 23.139818 1.074038 0.097820 0.016782 -0.015105 398737.000000 0 1 0
-0.315963 2.246782 23.046196 23.157613 -1.431083 0.098133 0.006760 -0.006614 68159.200000 0 1 0
-0.710763 3.638782 22.577196 22.879592 -1.377895 0.162764 0.008473 -0.005069 -462478.000000 0 1 0
-0.588763 4.678782 23.459796 23.929055 -1.445617 0.198368 0.018430 -0.006873 143250.000000 0 1 0
-1.453963 5.770782 23.160096 23.912465 -1.323981 0.251515 0.011070 -0.006273 -140327.000000 0 1 0
-1.460363 7.015782 24.052296 25.097147 -1.365573 0.289567 0.018926 0.001819 -459074.000000 0 0 1
-0.418763 7.930782 23.901796 25.186674 -1.518043 0.320793 0.013374 0.006795 -361838.000000 0 0 1
-0.512463 9.160782 24.512726 26.173580 -1.514914 0.358157 0.017100 0.011351 -498793.000000 0 0 1
0.296337 10.235782 23.783996 25.894739 1.541853 0.406558 0.011009 0.012510 1063770.000000 0 0 1
1.725337 10.429782 23.817696 26.058392 1.406857 0.417729 0.003937 0.016116 892033.000000 0 0 1
2.293037 10.734782 25.124396 27.417674 1.360351 0.411910 0.014530 0.013982 281786.000000 0 0 1
3.695137 11.407782 24.960326 27.691324 1.257547 0.447857 0.004783 0.012237 327273.000000 0 0 1
4.720137 10.660782 24.358316 27.004806 1.153982 0.446418 0.002907 0.011071 -66708.500000 0 0 1
4.579637 10.410782 22.960996 25.623521 1.156379 0.459914 -0.004093 0.006892 -954923.000000 0 0 1
5.878237 10.014782 22.216196 25.068085 1.040023 0.481645 0.004964 0.008561 152135.000000 0 0 1
6.686037 11.127782 21.894596 25.453958 1.029758 0.535204 -0.000431 0.003957 -154861.000000 0 0 1
7.957637 10.756782 21.439596 25.272290 0.933869 0.557947 0.004866 0.002922 -386930.000000 0 0 1
8.787137 11.909782 20.969696 25.666804 0.935144 0.614613 0.007063 -0.010454 -808283.000000 0 0 1
8.211637 12.464782 19.747496 24.754098 0.988269 0.647248 0.004914 -0.011000 380559.000000 0 1 0
8.915937 13.418782 18.941396 24.866325 0.984339 0.704819 0.009779 -0.013809 -374051.000000 0 1 0
10.353637 13.056782 18.513696 24.908519 0.900357 0.732855 0.013977 -0.015265 -54673.500000 0 1 0
11.345737 13.205782 19.521396 26.157281 0.861015 0.728298 0.014629 -0.014183 181787.000000 0 0 1
12.594737 12.817782 18.971696 26.131364 0.794175 0.758291 0.015079 -0.015345 143970.000000 0 0 1
13.696337 12.654782 20.045896 27.378296 0.745893 0.749276 0.042144 -0.014418 83049.000000 0 0 1
14.211237 13.881782 20.525696 28.565142 0.773671 0.769070 0.039025 -0.019537 -98258.400000 0 0 1
15.337037 13.647782 21.336396 29.609601 0.727183 0.766143 0.041242 -0.011544 236734.000000 0 0 1
16.014737 14.943782 21.916496 30.985823 0.750819 0.785115 0.037219 -0.009983 36579.200000 0 0 1
15.423137 15.509782 23.067096 31.788637 0.788199 0.758833 0.045971 -0.010942 356322.000000 0 0 1
16.281937 16.488782 23.637496 33.101550 0.791710 0.775473 0.043627 -0.014352 -210221.000000 0 0 1
-20.503063 12.531253 -25.386696 34.955575 -0.548606 2.383656 -0.000514 -0.016892 65956.400000 0 0 1
-20.291563 12.611053 -26.781606 35.889283 -0.556073 2.413175 0.002960 -0.024508 289135.000000 0 0 1
-21.142363 13.638953 -27.289356 37.117779 -0.572923 2.396773 -0.001104 -0.019346 160608.000000 0 0 1
-21.013563 13.751953 -28.812526 38.221038 -0.579485 2.424682 -0.003062 -0.020135 -235051.000000 0 0 1
-19.691163 14.082153 -29.165096 37.903190 -0.620822 2.448796 0.005437 -0.019721 -266755.000000 0 0 1
-19.568763 14.702553 -30.433266 39.054901 -0.644350 2.464254 0.009250 -0.023308 829315.000000 0 0 1
-18.063163 15.061753 -30.774146 38.732188 -0.695036 2.489041 0.009065 -0.019449 890675.000000 0 0 1
-17.305363 13.884753 -31.052126 38.164074 -0.676165 2.521196 0.004410 -0.020871 -306086.000000 0 0 1
-15.930863 14.210053 -31.084766 37.709160 -0.728368 2.539813 -0.003440 -0.012450 310172.000000 0 0 1
-15.052963 13.899953 -29.841956 36.198657 -0.745596 2.539927 0.010904 -0.007680 -284718.000000 0 0 1
-15.425863 14.496353 -28.647956 35.620316 -0.754344 2.505224 0.002115 -0.008443 -522067.000000 0 0 1
-16.359163 13.651353 -28.033686 35.211777 -0.695413 2.491694 0.019933 -0.009789 -285020.000000 0 0 1
-17.049763 14.222053 -26.745876 34.760655 -0.695220 2.448744 0.014795 -0.022794 -466651.000000 0 0 1
-16.286563 14.394353 -25.557926 33.550814 -0.723802 2.436834 0.031571 -0.011480 141769.000000 0 0 1
-17.069763 14.693353 -24.391106 33.199360 -0.710721 2.396000 0.014906 -0.006805 76821.300000 0 0 1
-16.206963 15.277053 -23.234906 32.185632 -0.755871 2.377345 0.018136 -0.002069 108887.000000 0 0 1
-15.762963 16.601153 -23.497806 32.805734 -0.811291 2.369241 0.000427 0.002943 -450632.000000 0 0 1
-15.173063 17.162353 -22.409706 32.046266 -0.846841 2.345203 -0.001997 0.005449 -499149.000000 0 0 1
-14.766163 18.603353 -22.726306 32.872623 -0.899886 2.334145 -0.002997 0.005716 98389.600000 0 0 1
-15.837563 19.518353 -22.845706 33.966466 -0.889131 2.308507 -0.017488 0.010100 -35213.900000 0 0 1
-16.567163 19.432053 -24.032506 35.066180 -0.864813 2.325877 -0.024663 0.015703 437011.000000 0 0 1
-17.906263 20.241253 -24.151606 36.244209 -0.846531 2.300109 -0.029334 0.013869 755644.000000 0 0 1
-17.660863 21.623353 -24.321206 37.026971 -0.885925 2.287431 -0.019251 0.010856 81269.200000 0 0 1
-18.884463 22.321953 -24.411106 38.089299 -0.868627 2.266455 -0.003116 0.000730 -71266.600000 0 0 1
-18.589963 23.847353 -24.561706 38.955878 -0.908656 2.252994 0.001449 -0.007260 304561.000000 0 0 1
-17.950063 24.431953 -23.435406 38.318969 -0.937162 2.228862 -0.004832 0.001817 -14756.100000 0 0 1
-17.002463 25.412853 -23.812506 38.754772 -0.981146 2.232473 -0.008706 0.002319 -99220.500000 0 0 1
-15.956663 25.711453 -22.682706 37.817973 -1.015364 2.214030 -0.010122 -0.004182 -267236.000000 0 0 1
-14.904263 24.777353 -22.563306 36.676383 -1.029254 2.233436 -0.001377 -0.007039 -64032.800000 0 0 1
-15.282563 23.465853 -22.148306 35.703648 -0.993530 2.239969 -0.015702 0.010787 -687275.000000 0 0 1
-14.066963 22.578653 -21.845806 34.422584 -1.013622 2.258334 0.010383 0.006216 330750.000000 0 0 1
-13.204963 23.031253 -20.798006 33.724868 -1.050203 2.235336 0.016272 -0.003847 541081.000000 0 0 1
-12.290063 22.010453 -20.354306 32.400671 -1.061547 2.250042 0.022893 -0.001108 10891.200000 0 0 1
-11.604863 22.498753 -19.098506 31.711507 -1.094589 2.217123 0.023278 -0.007396 -85569.300000 0 0 1
-12.366363 22.372753 -17.897106 31.205343 -1.065850 2.181601 0.021591 -0.004286 204160.000000 0 0 1
-13.469163 23.236653 -17.731706 32.183440 -1.045473 2.154307 0.012631 -0.009709 -315016.000000 0 0 1
-14.200163 23.098953 -16.405906 31.691640 -1.019599 2.114925 0.018746 -0.008535 -103904.000000 0 0 1
-13.481063 23.673753 -15.339506 31.264774 -1.053142 2.083612 0.037026 -0.028657 101930.000000 0 0 1
-14.185163 23.550353 -14.136906 30.914238 -1.028663 2.045747 0.041436 -0.012170 5337.710000 0 0 1
-13.228763 23.841753 -12.954706 30.186981 -1.064232 2.014346 0.042662 -0.009265 192698.000000 0 0 1
-12.729163 25.192853 -12.944806 31.052850 -1.102943 2.000789 0.038436 -0.010585 316667.000000 0 0 1
-11.767163 25.376553 -11.926206 30.408387 -1.136606 1.973820 0.026399 -0.013096 -21831.000000 0 0 1
-11.359563 26.851353 -11.646006 31.395291 -1.170575 1.950825 0.026159 -0.001831 38832.900000 0 0 1
-10.787463 27.373453 -12.840606 32.102282 -1.195400 1.982303 0.029167 -0.010028 -47534.800000 0 0 1
-10.414863 28.672553 -12.641006 33.020898 -1.222380 1.963641 0.014959 -0.003291 -937681.000000 0 0 1
-9.840963 29.247953 -13.931206 33.858025 -1.246228 1.994851 0.036015 -0.014208 470300.000000 0 0 1
-8.508863 28.954253 -14.357006 33.419652 -1.284970 2.014844 0.026503 -0.012338 187503.000000 0 0 1
-8.022163 27.632053 -14.370406 32.161997 -1.288243 2.033996 0.036916 -0.013405 -591484.000000 0 0 1
-6.675763 27.746853 -15.126806 32.299752 -1.334689 2.058191 0.037752 -0.014618 445182.000000 0 0 1
-5.758663 28.550353 -14.388606 32.485641 -1.371765 2.029652 0.022818 -0.016060 306120.000000 0 0 1
-4.505963 28.722953 -15.084906 32.754636 -1.415188 2.049403 0.030202 -0.017379 1063590.000000 0 0 1
-3.475263 29.601253 -14.321806 33.066989 -1.453929 2.018742 0.019883 -0.018641 -94826.500000 0 0 1
-3.574463 31.019753 -14.349106 34.364207 -1.456070 2.001554 0.011719 -0.016323 -341398.000000 0 0 1
-4.568763 31.595953 -13.537806 34.676362 -1.427192 1.971867 0.001176 -0.016296 -233741.000000 0 0 1
-4.586163 33.075053 -13.657106 36.076427 -1.433016 1.959037 0.000739 -0.021054 -155408.000000 0 0 1
-3.507163 33.777753 -13.087406 36.393915 -1.467336 1.938640 -0.010504 -0.022664 -302783.000000 0 0 1
-3.572963 -33.953518 -13.463506 36.699774 1.465951 1.946423 -0.007717 -0.015371 -131764.000000 0 0 1
-2.633063 -33.073618 -12.680406 35.518867 1.491352 1.935856 -0.010596 -0.014545 -545934.000000 0 0 1
-2.948263 -33.107718 -11.289906 35.103778 1.481980 1.898231 -0.011761 -0.016960 531503.000000 0 0 1
-2.086063 -32.198118 -10.553206 33.947616 1.506098 1.886902 -0.017656 -0.011060 412863.000000 0 0 1
-2.573863 -32.181018 -9.075206 33.535087 1.490985 1.844832 -0.018901 -0.001933 -166946.000000 0 0 1
-1.768963 -31.433718 -8.205406 32.535158 1.514580 1.825751 -0.023538 -0.003096 -244844.000000 0 0 1
-2.070363 -31.661518 -6.808606 32.451429 1.505499 1.782176 -0.021235 -0.006365 1517.870000 0 0 1
-1.151263 -30.842018 -5.906506 31.423594 1.533486 1.759885 -0.007021 -0.005294 1346.690000 0 0 1
-1.350463 -31.092118 -4.529706 31.449353 1.527389 1.715331 0.003271 -0.002914 356488.000000 0 0 1
-0.224663 -30.553418 -3.830506 30.793418 1.563443 1.695513 -0.000053 0.001261 399902.000000 0 0 1
-0.248563 -30.707318 -2.239606 30.789884 1.562702 1.643599 0.005596 0.003651 -293625.000000 0 0 1
-0.266563 -32.028618 -1.657306 32.072575 1.562474 1.622493 0.017375 -0.002433 1051190.000000 0 0 1
0.753337 -32.978518 -2.132006 33.055946 -1.547957 1.635338 0.013245 -0.004548 521572.000000 0 0 1
2.213037 -32.776518 -1.744506 32.897431 -1.503380 1.623850 0.030500 0.003006 -1027970.000000 0 0 1
2.515837 -33.073618 -0.392706 33.171491 -1.494875 1.582635 0.024229 -0.002918 -278935.000000 0 0 1
3.787437 -32.658318 0.025194 32.877211 -1.455341 1.570030 0.031307 -0.002260 -225458.000000 0 0 1
3.926637 -31.136718 0.294494 31.384716 -1.445349 1.561413 0.028271 -0.006971 -438469.000000 0 0 1
3.957037 -30.270318 -0.879206 30.540519 -1.440810 1.599588 0.042662 -0.011531 230603.000000 0 0 1
3.990337 -28.894818 -0.527806 29.173821 -1.433566 1.588889 0.034095 -0.005795 -395270.000000 0 0 1
3.564737 -28.008818 -1.725706 28.287440 -1.444205 1.631840 0.039983 -0.008807 -52154.900000 0 0 1
2.171837 -28.179418 -1.957106 28.330668 -1.493877 1.639932 0.024036 -0.003210 286905.000000 0 0 1
1.637237 -27.189318 -2.813706 27.383508 -1.510653 1.673730 0.009484 0.009897 -191355.000000 0 0 1
2.119137 -27.132518 -4.287306 27.550776 -1.492851 1.727046 0.001152 0.002477 -321664.000000 0 0 1
1.579237 -28.110418 -5.184106 28.628038 -1.514676 1.752886 -0.002528 -0.000955 400711.000000 0 0 1
2.228537 -27.885218 -6.453306 28.708830 -1.491048 1.797518 0.002443 0.004789 268771.000000 0 0 1
1.867437 -28.973518 -7.514106 29.990229 -1.506432 1.824047 -0.022156 0.003294 -824538.000000 0 0 1
0.554337 -28.868818 -7.924006 29.941707 -1.551597 1.838635 -0.018332 0.003264 -1124830.000000 0 0 1
0.337637 -29.138718 -9.309206 30.591505 -1.559210 1.880007 -0.019142 0.012310 -26075.600000 0 0 1
-0.893063 -28.348318 -9.816406 30.013106 1.539304 1.903998 -0.019360 0.003220 -553173.000000 0 0 1
-0.815463 -26.924618 -9.581206 28.590200 1.540519 1.912531 -0.027707 0.006931 -682476.000000 0 0 1
-2.014163 -26.234518 -9.755406 28.061980 1.494171 1.925847 -0.007535 0.002017 -311597.000000 0 0 1
-3.115063 -26.502018 -8.724506 28.074500 1.453793 1.886792 -0.000198 -0.004126 -675433.000000 0 0 1
-2.821963 -26.279818 -7.305606 27.421965 1.463825 1.840467 0.002131 -0.005442 -17025.400000 0 0 1
-2.071763 -27.340118 -6.667906 28.217640 1.495163 1.809355 -0.007480 -0.002178 484386.000000 0 0 1
-1.582263 -27.100418 -5.213806 27.642720 1.512477 1.760547 0.005523 0.002032 -391496.000000 0 0 1
-2.666563 -27.164618 -4.354506 27.640346 1.472947 1.728997 0.009710 -0.006632 -156137.000000 0 0 1
-2.265663 -26.770418 -3.028906 27.036323 1.486364 1.683063 0.011301 -0.004483 783909.000000 0 0 1
-3.469663 -26.959918 -2.027006 27.257742 1.442803 1.645229 0.009241 -0.008223 794121.000000 0 0 1
-4.505863 -25.998218 -2.111406 26.470137 1.399187 1.650647 0.017738 -0.009786 394144.000000 0 0 1
-5.314863 -26.163918 -0.903506 26.713567 1.370386 1.604625 0.027857 -0.010194 313564.000000 0 0 1
-6.365763 -25.072518 -0.584306 25.874611 1.322156 1.593380 0.021460 -0.014031 -70105.300000 0 0 1
-5.866963 -23.766518 -0.529406 24.485687 1.328777 1.592419 0.015214 -0.008117 -1075510.000000 0 1 0
-6.811663 -22.851718 -0.175306 23.845974 1.281101 1.578148 0.018467 -0.023088 -1130130.000000 0 1 0
-6.258563 -21.525218 0.178794 22.417328 1.287843 1.562821 0.010270 -0.021972 -309705.000000 0 1 0
-5.487563 -21.575018 1.369394 22.304035 1.321730 1.509361 0.012746 -0.020442 -294737.000000 0 1 0
-4.541663 -20.555418 1.368394 21.095602 1.353343 1.505884 0.002989 -0.009743 -962785.000000 0 1 0
-3.565363 -20.563318 2.490194 21.018157 1.399118 1.452039 0.007283 -0.002985 -827828.000000 0 1 0
-4.077963 -20.146418 3.769194 20.897721 1.371078 1.389440 0.000068 -0.009552 -75579.100000 0 1 0
-3.075163 -19.843118 4.715194 20.626173 1.417046 1.340154 0.016208 -0.016372 -298106.000000 0 1 0
-2.285363 -21.024318 5.321094 21.807312 1.462521 1.324303 0.011962 -0.013806 -103154.000000 0 1 0
-1.385963 -21.527018 4.388594 22.013476 1.506503 1.370092 0.016947 -0.016098 -995028.000000 0 1 0
-0.695663 -22.656918 4.747994 23.159519 1.540102 1.364320 0.018538 -0.016257 -1328530.000000 0 1 0
0.270237 -23.107718 3.627694 23.392302 -1.559102 1.415087 0.025347 -0.018342 444078.000000 0 1 0
1.532737 -22.444218 3.596794 22.782211 -1.502611 1.412256 0.012569 -0.016669 196516.000000 0 1 0
2.365237 -22.963818 4.615894 23.542254 -1.468160 1.373449 0.024067 -0.013871 -1179310.000000 0 1 0
3.710037 -22.192018 4.650394 22.975556 -1.405149 1.366982 0.031845 -0.011222 142546.000000 0 1 0
4.540137 -22.336318 3.500194 23.060253 -1.370266 1.418423 0.017214 0.006030 218557.000000 0 1 0
5.635237 -21.420418 3.562894 22.434001 -1.313547 1.411304 0.026120 0.004889 457914.000000 0 1 0
6.011637 -20.897418 2.190894 21.855019 -1.290686 1.470381 0.021273 0.009074 199105.000000 0 1 0
6.946337 -21.767218 1.557994 22.901762 -1.261893 1.502714 0.029393 0.007169 40428.700000 0 1 0
6.744437 -21.839418 0.174194 22.857776 -1.271268 1.563175 0.030241 -0.000283 -249292.000000 0 1 0
7.743737 -22.813318 -0.436706 24.095718 -1.243560 1.588921 0.032250 0.004425 201353.000000 0 1 0
8.945437 -22.141818 -0.777206 23.893200 -1.186841 1.603330 0.028166 0.006796 -711122.000000 0 1 0
9.808437 -22.909118 -1.536206 24.967840 -1.166264 1.632363 0.025155 0.000944 1232010.000000 0 1 0
11.169137 -22.127718 -1.894606 24.859104 -1.103350 1.647084 0.018852 -0.000096 1468550.000000 0 1 0
11.063137 -21.162718 -2.924706 24.058419 -1.089103 1.692665 0.018973 0.008115 -473923.000000 0 1 0
12.389537 -20.987218 -3.315006 24.595796 -1.037512 1.705987 0.012838 -0.000046 -523393.000000 0 1 0
12.421037 -19.922118 -4.449106 23.894926 -1.013291 1.758084 0.012840 -0.007244 -150123.000000 0 1 0
12.296837 -18.663418 -3.939106 22.694755 -0.988208 1.745249 0.016926 0.003121 173595.000000 0 1 0
12.547137 -17.681218 -4.919706 22.231950 -0.953636 1.793933 0.016281 -0.001343 -716634.000000 0 1 0
12.896137 -16.278818 -4.374406 21.223706 -0.900827 1.778394 0.028023 0.000190 558773.000000 0 1 0
14.131637 -16.219818 -3.660706 21.821696 -0.854090 1.739349 0.010443 0.003086 695234.000000 0 1 0
15.287037 -16.148418 -4.461006 22.679627 -0.812793 1.768784 0.003575 -0.003193 114756.000000 0 1 0
16.716837 -15.891218 -3.913706 23.394455 -0.760084 1.738879 -0.003901 0.000480 697444.000000 0 1 0
17.370137 -17.007718 -3.335606 24.537938 -0.774856 1.707155 -0.002735 0.003058 300912.000000 0 1 0
18.752337 -16.748218 -3.239706 25.350515 -0.729005 1.698943 -0.014604 0.011110 -225661.000000 0 0 1
19.552237 -17.630818 -2.278906 26.425917 -0.733769 1.657141 -0.006149 0.005010 -712115.000000 0 0 1
20.914637 -17.325818 -2.315606 27.257440 -0.691823 1.655852 -0.010222 0.005157 -419851.000000 0 0 1
21.482137 -18.121818 -1.256906 28.132940 -0.700753 1.615489 -0.009070 0.008867 104604.000000 0 0 1
23.027637 -17.991318 -1.168406 29.245936 -0.663229 1.610758 0.013149 -0.003464 98973.700000 0 0 1
23.475037 -16.688918 -0.908706 28.817062 -0.618019 1.602335 0.007782 -0.003815 -767094.000000 0 0 1
24.828837 -16.785418 -0.619906 29.976752 -0.594467 1.591477 0.038701 -0.003661 -723528.000000 0 0 1
25.479137 -15.491418 -0.145506 29.819316 -0.546284 1.575676 0.034564 -0.008031 -115145.000000 0 0 1
24.867737 -14.987618 1.031594 29.053351 -0.542397 1.535282 0.021330 -0.002089 79382.000000 0 0 1
25.678137 -14.032618 1.653194 29.308943 -0.500138 1.514361 0.023971 -0.010148 -197887.000000 0 0 1
25.008737 -13.315218 2.809594 28.471490 -0.489248 1.471955 0.025789 -0.013077 -370480.000000 0 0 1
24.613937 -14.149518 3.907594 28.658751 -0.521728 1.434021 0.026085 -0.009374 385812.000000 0 0 1
25.641937 -14.754118 4.726894 29.958913 -0.522127 1.412355 0.046625 -0.008595 269688.000000 0 0 1
25.154837 -15.317318 6.043394 30.065074 -0.546954 1.368407 0.032747 0.001655 26635.800000 0 0 1
24.351637 -16.449918 5.867094 29.967062 -0.594104 1.373739 0.027900 -0.002210 250981.000000 0 0 1
23.407437 -16.654318 6.931094 29.551894 -0.618400 1.334051 0.013509 0.004666 498751.000000 0 0 1
22.522437 -17.917118 6.945594 29.606157 -0.672005 1.333990 0.014664 0.007456 59318.500000 0 0 1
23.348337 -19.058418 7.008694 30.943334 -0.684580 1.342313 0.035053 0.001232 158795.000000 0 0 1
22.584137 -20.253818 6.930394 31.117370 -0.731053 1.346195 0.010552 0.008813 144303.000000 0 0 1
1.757837 23.192653 -2.919706 23.441712 1.495148 1.695672 0.000743 -0.007545 182713.000000 0 1 0
2.481937 24.345453 -2.530206 24.602095 1.469201 1.673824 0.011904 -0.006109 -53796.300000 0 1 0
3.191337 24.924053 -3.598906 25.383956 1.443447 1.713054 0.020542 -0.002841 46077.100000 0 0 1
4.161937 26.063053 -3.163806 26.582215 1.412446 1.690099 0.015801 0.002466 205427.000000 0 0 1
5.266937 25.474053 -2.482706 26.131052 1.366912 1.665950 0.010808 0.007491 -414235.000000 0 0 1
5.918637 26.526953 -1.819506 27.240046 1.351274 1.637641 0.013636 0.002864 -566899.000000 0 0 1
7.034637 25.930253 -0.986506 26.885635 1.305882 1.607497 0.014403 -0.012592 62347.100000 0 0 1
7.993437 25.129053 -1.696106 26.424253 1.262822 1.635028 0.017223 -0.007035 64776.000000 0 0 1
9.005337 24.573753 -0.889806 26.186966 1.219532 1.604782 0.008679 -0.013670 127315.000000 0 0 1
10.233037 24.132653 -1.733606 26.269857 1.169745 1.636837 0.022180 -0.020302 -149873.000000 0 0 1
11.132637 25.222653 -2.008406 27.643291 1.155138 1.643515 0.031075 -0.014154 437926.000000 0 0 1
12.086537 25.061953 -3.043106 27.990112 1.121436 1.679732 0.046477 -0.017717 612094.000000 0 0 1
13.103937 23.869453 -3.047606 27.399852 1.068734 1.682254 0.049266 -0.021379 -522706.000000 0 0 1
12.626137 22.542253 -3.112706 26.024248 1.060224 1.690691 0.051408 -0.029102 -447376.000000 0 0 1
12.436837 22.179953 -4.509306 25.825551 1.059757 1.746302 0.048591 -0.024921 486110.000000 0 0 1
11.367637 21.064053 -4.860506 24.424210 1.075919 1.771137 0.041504 -0.022134 1392990.000000 0 1 0
10.014537 21.446153 -4.586206 24.109370 1.133927 1.762188 0.034307 -0.015266 371470.000000 0 1 0
9.065437 20.474253 -4.949906 22.932047 1.153969 1.788360 0.006991 -0.003976 -77969.100000 0 1 0
7.625137 20.880253 -4.615506 22.703097 1.220659 1.775522 0.006138 -0.001499 -169964.000000 0 1 0
7.407637 21.100653 -3.216006 22.593215 1.233176 1.713625 0.006823 -0.008413 128549.000000 0 1 0
6.445637 22.139653 -3.045906 23.259149 1.287492 1.702129 0.005831 0.023658 314339.000000 0 1 0
6.012637 22.429153 -1.630206 23.278237 1.308882 1.640885 0.009462 0.005172 -74482.300000 0 1 0
5.064637 21.527053 -1.097506 22.142021 1.339730 1.620383 -0.003889 -0.001328 -526641.000000 0 1 0
4.445537 22.174053 -0.043406 22.615334 1.372936 1.572716 0.004844 -0.004590 -125004.000000 0 1 0
3.986637 21.101653 1.016094 21.498965 1.384072 1.523516 0.009543 -0.015766 -15002.400000 0 1 0
3.647337 21.671553 2.253294 22.091551 1.404058 1.468621 0.021080 -0.018486 156179.000000 0 1 0
3.090637 20.744253 3.166494 21.210912 1.422897 1.420950 0.016891 -0.017884 -410053.000000 0 1 0
2.151937 21.346153 4.208394 21.863204 1.470324 1.377100 0.020564 -0.014415 -228257.000000 0 1 0
0.898637 21.592453 3.599694 21.908888 1.529202 1.405745 0.017238 -0.009511 15128.100000 0 1 0
-0.063163 22.097853 4.520794 22.555636 -1.567938 1.369001 0.011437 -0.012234 -297192.000000 0 1 0
-1.437763 22.397053 3.962494 22.790273 -1.506690 1.396040 -0.004433 -0.004104 -697993.000000 0 1 0
-2.335663 22.744853 4.998994 23.404564 -1.468465 1.355547 0.003335 -0.007396 231780.000000 0 1 0
-3.651163 22.653553 4.427094 23.369074 -1.410997 1.380202 0.005843 -0.007435 865807.000000 0 1 0
-4.814963 22.996953 5.418994 24.112429 -1.364404 1.344122 0.015303 -0.011243 194854.000000 0 1 0
-4.859663 24.353553 5.795794 25.501041 -1.373837 1.341516 0.023299 -0.004008 348448.000000 0 0 1
-5.895063 24.555953 6.765194 26.144110 -1.335188 1.309052 0.032370 -0.004962 375499.000000 0 0 1
-6.185363 25.995653 7.100394 27.648658 -1.337202 1.311078 0.039892 -0.000434 33388.500000 0 0 1
-5.138163 26.723153 7.727494 28.288546 -1.380841 1.294113 0.041580 -0.010178 119555.000000 0 0 1
-5.555463 27.956153 8.246994 29.671916 -1.374631 1.289148 0.065439 -0.013993 69176.000000 0 0 1
-5.933563 29.191053 7.364894 30.684955 -1.370262 1.328414 0.062949 -0.019257 715554.000000 0 0 1
-7.098163 29.050753 6.531694 30.610345 -1.331155 1.355761 0.049091 -0.019697 112099.000000 0 0 1
-7.382463 30.259553 5.888994 31.698921 -1.331500 1.383932 0.056983 -0.022522 -452607.000000 0 0 1
-8.851663 30.512553 5.479194 32.239563 -1.288448 1.400015 0.046420 -0.017610 552791.000000 0 0 1
-9.706063 31.011753 6.526894 33.144183 -1.267474 1.372577 0.039641 -0.007811 191426.000000 0 0 1
-10.160063 30.012053 7.450594 32.549371 -1.244374 1.339847 0.021104 0.000570 -741551.000000 0 0 1
-11.058663 30.693653 8.492794 33.712341 -1.224983 1.316133 0.007857 0.000610 133245.000000 0 0 1
-10.391763 31.289753 9.614894 34.343611 -1.250144 1.287042 0.010492 -0.004659 535843.000000 0 0 1
-11.392863 31.666253 10.554794 35.269712 -1.225436 1.266880 0.016106 0.007693 478212.000000 0 0 1
-10.659363 32.086053 11.852994 35.827787 -1.250056 1.233611 0.009500 0.001389 81566.000000 0 0 1
-10.174863 33.420253 11.694494 36.840228 -1.275260 1.247770 0.004056 0.001649 176941.000000 0 0 1
-9.249963 33.749453 12.712994 37.231809 -1.303288 1.222332 0.000772 -0.002730 144343.000000 0 0 1
-8.843663 -33.912718 12.735194 37.288979 1.315700 1.222255 -0.005573 -0.003997 674288.000000 0 0 1
-9.902463 -33.115418 13.324494 37.043647 1.280231 1.202853 -0.001809 0.003516 716777.000000 0 0 1
-9.586163 -31.769618 13.249594 35.731707 1.277744 1.190918 -0.000059 -0.002702 -221098.000000 0 0 1
-10.523863 -30.869318 14.078794 35.522935 1.242236 1.163281 0.008077 0.003498 -183762.000000 0 0 1
-10.576563 -31.008418 15.468694 36.230735 1.242084 1.129680 0.011342 0.000777 706740.000000 0 0 1
-9.461763 -30.370318 16.127494 35.664790 1.268780 1.101570 0.009412 0.007677 791077.000000 0 0 1
-9.394063 -30.970218 17.555494 36.818449 1.276291 1.073772 -0.003657 -0.002603 311814.000000 0 0 1
-10.335863 -30.338418 18.426194 36.969910 1.242443 1.049032 0.019383 -0.003521 537917.000000 0 0 1
-10.927763 -31.224818 19.351994 38.326295 1.234148 1.041499 0.014239 -0.001143 -244153.000000 0 0 1
-11.213463 -30.502518 20.666994 38.513244 1.218508 1.004369 0.030683 -0.004918 -438097.000000 0 0 1
-10.082163 -30.278218 21.462394 38.458482 1.249360 0.978742 0.017866 -0.006173 -297370.000000 0 0 1
-10.283763 -29.486818 22.641594 38.572918 1.235228 0.943471 0.009341 -0.010808 252016.000000 0 0 1
-9.115163 -29.452118 23.696594 38.884984 1.270655 0.915490 0.009556 -0.006298 277959.000000 0 0 1
-8.993563 -30.609518 24.494494 40.221971 1.285023 0.916019 0.008039 -0.000569 783195.000000 0 0 1
-7.809563 -30.473518 25.333894 40.390973 1.319922 0.892822 0.010966 -0.001634 950073.000000 0 0 1
-7.704863 -31.522918 26.452994 41.866695 1.331075 0.886873 0.011132 -0.002157 -368768.000000 0 0 1
-7.351363 -32.822418 25.950194 42.482540 1.350459 0.913671 0.018695 -0.010230 266539.000000 0 0 1
-7.596363 -33.902518 26.854894 43.912080 1.350372 0.912765 0.019082 -0.006303 -520484.000000 0 0 1
-7.476663 33.893053 26.129494 43.444102 -1.353678 0.925480 0.013577 -0.009064 -588048.000000 0 0 1
-6.173863 33.748153 25.651994 42.837825 -1.389858 0.928774 0.010242 -0.004892 -242579.000000 0 0 1
-5.799863 32.529153 24.998694 41.433307 -1.394353 0.923104 0.012961 0.001338 -170216.000000 0 0 1
-6.433763 32.199953 23.608694 40.442561 -1.373587 0.947446 0.010048 0.000494 434499.000000 0 0 1
-7.758663 31.690353 23.744994 40.352200 -1.330692 0.941664 0.004528 0.000192 588816.000000 0 0 1
-8.446363 31.502753 22.532794 39.642040 -1.308842 0.966229 0.005437 0.002704 99808.600000 0 0 1
-9.486063 30.351353 22.518694 38.965133 -1.267873 0.954620 0.005024 -0.007483 233449.000000 0 0 1
-8.875563 29.085553 22.781294 37.996479 -1.274618 0.927841 -0.000654 -0.006532 -270893.000000 0 0 1
-9.792763 28.123753 23.228594 37.767860 -1.235724 0.908365 -0.006759 -0.005716 -551618.000000 0 0 1
-9.325063 26.651553 22.970694 36.399380 -1.234221 0.887860 -0.013331 -0.006437 444596.000000 0 0 1
-7.993363 26.350053 23.417794 36.147092 -1.276266 0.866041 -0.010401 -0.008176 888435.000000 0 0 1
-7.682063 25.013353 23.221994 34.984896 -1.272822 0.844946 -0.003110 -0.009599 -386868.000000 0 0 1
-6.305763 24.610953 23.748994 34.777527 -1.319974 0.819094 -0.005540 -0.004976 469782.000000 0 0 1
-5.198863 25.173753 23.011394 34.500294 -1.367140 0.840633 -0.005340 -0.002480 675909.000000 0 0 1
-3.957563 24.917753 23.636394 34.572183 -1.413287 0.818000 0.023302 0.004757 750703.000000 0 0 1
-2.726363 25.618053 22.951394 34.503394 -1.464772 0.843045 0.021341 0.007163 287863.000000 0 0 1
-2.384663 25.032553 21.735294 33.237604 -1.475820 0.858020 0.019811 0.005037 152064.000000 0 0 1
-1.482063 25.772553 20.923894 33.229962 -1.513354 0.889669 0.026841 0.006166 222818.000000 0 0 1
-0.991863 25.065453 19.628094 31.851575 -1.531246 0.906842 0.024002 -0.002304 -182575.000000 0 0 1
-0.188363 23.940053 19.945494 31.160622 -1.562928 0.876185 0.019484 0.002750 19284.600000 0 0 1
0.008437 23.122953 18.838494 29.825491 1.570431 0.887150 0.008091 0.002958 -668311.000000 0 0 1
1.046237 22.000253 19.040594 29.114429 1.523276 0.857947 0.012577 0.014575 420298.000000 0 0 1
2.377737 22.515453 19.003094 29.558702 1.465582 0.872527 0.010184 -0.001438 27257.800000 0 0 1
3.293937 21.485253 19.284594 29.057902 1.418669 0.845094 0.015706 0.009167 300929.000000 0 0 1
4.760437 21.915153 19.054694 29.428168 1.356898 0.866499 0.011869 -0.000420 344655.000000 0 0 1
5.766637 20.923153 19.073694 28.893568 1.301863 0.849796 0.023730 -0.001006 -62278.700000 0 0 1
7.047537 21.472853 18.862894 29.437391 1.253667 0.875282 0.026142 -0.004146 -203229.000000 0 0 1
8.061637 20.379053 18.423794 28.630962 1.194102 0.871745 0.033260 -0.002866 15625.000000 0 0 1
8.536337 19.709553 19.645394 29.108024 1.162079 0.829949 0.032148 -0.007063 155691.000000 0 0 1
9.489437 18.718553 19.312794 28.520478 1.101601 0.826906 0.026679 -0.013044 -38548.700000 0 0 1
9.933537 17.861053 20.480994 28.933778 1.063239 0.784336 0.029950 -0.013777 87907.800000 0 0 1
8.863737 17.118653 21.088794 28.571863 1.093024 0.740552 0.021718 -0.008949 338359.000000 0 0 1
9.342037 16.230353 22.077294 28.950042 1.048518 0.703474 0.019200 -0.010331 -173823.000000 0 0 1
8.277237 15.221253 22.538594 28.428637 1.072730 0.655386 0.011141 -0.003366 -201999.000000 0 0 1
7.245537 15.838753 23.283694 29.077385 1.141759 0.642251 0.007898 0.010127 17257.500000 0 0 1
6.150837 15.029753 23.655494 28.693356 1.182346 0.601612 0.004313 0.013388 222634.000000 0 0 1
6.430937 13.898253 24.676494 29.042172 1.137419 0.555422 0.010042 0.011435 -320943.000000 0 0 1
7.024037 14.402353 25.894994 30.451857 1.117037 0.554130 0.024812 0.004106 235310.000000 0 0 1
7.428137 13.338053 26.699994 30.756634 1.062661 0.519424 0.037762 -0.000740 -735491.000000 0 0 1
8.111337 13.860853 27.992394 32.272142 1.041332 0.520872 0.030941 0.002645 -57923.300000 0 0 1
9.485637 14.164453 27.905294 32.700374 0.980711 0.548393 0.048500 0.002678 112721.000000 0 0 1
9.809437 15.296653 27.179894 32.694943 1.000576 0.589321 0.037553 -0.002082 -43195.200000 0 0 1
11.098337 15.111053 26.288294 32.289184 0.937321 0.619530 0.047787 -0.007087 529181.000000 0 0 1
10.870637 14.193553 25.257194 30.944362 0.917206 0.615971 0.044510 -0.007799 883441.000000 0 0 1
12.069937 13.779853 24.555694 30.635761 0.851450 0.640935 0.053654 -0.011450 480097.000000 0 0 1
11.834737 12.628953 23.549194 29.225263 0.817852 0.633801 0.046178 -0.014359 20288.300000 0 0 1
11.536737 11.314253 24.088894 29.006610 0.775662 0.590859 0.040788 -0.000560 -123057.000000 0 0 1
10.275537 11.199253 24.678494 28.983409 0.828386 0.552015 0.036800 0.002479 -848258.000000 0 0 1
10.092637 9.757553 25.149294 28.802051 0.768519 0.509113 0.024299 0.012048 -59355.000000 0 0 1
10.233237 8.845553 24.058694 27.600429 0.712792 0.512180 0.022926 0.009264 431925.000000 0 0 1
9.874637 7.531553 24.539194 27.502814 0.651590 0.468508 0.025403 0.004152 -907.579000 0 0 1
10.035937 6.417453 23.475494 26.324941 0.568921 0.469580 0.033246 -0.010871 561950.000000 0 0 1
11.432237 6.164053 23.207694 26.594899 0.494500 0.510220 0.033057 -0.008805 1192150.000000 0 0 1
11.708437 5.134653 22.263694 25.673415 0.413286 0.521268 0.039230 -0.019316 1305.770000 0 0 1
11.411437 3.651653 22.656694 25.629694 0.309702 0.486442 0.031301 -0.023527 -544180.000000 0 0 1
12.390537 3.332453 23.597594 26.860325 0.262734 0.498021 0.034393 -0.013178 -28398.900000 0 0 1
12.234337 2.102553 24.196494 27.195037 0.170194 0.474023 0.022973 -0.008236 -69990.800000 0 0 1
13.508137 1.600653 24.932494 28.401780 0.117946 0.499443 0.015921 0.000375 799661.000000 0 0 1
14.519137 0.943953 24.149094 28.193530 0.064923 0.542255 0.032614 -0.005557 505095.000000 0 0 1
15.809137 1.492953 24.362294 29.080562 0.094157 0.577643 0.029213 -0.005568 -337250.000000 0 0 1
16.790737 0.552253 23.678794 29.033069 0.032879 0.617065 0.037688 -0.011858 -561408.000000 0 0 1
16.879137 -0.656847 24.396194 29.673405 -0.038895 0.605607 0.032249 -0.006491 63056.900000 0 0 1
17.936137 -1.413347 23.838994 29.866372 -0.078636 0.646514 0.034405 0.008445 -140470.000000 0 0 1
17.950437 -2.972247 24.202594 30.279002 -0.164092 0.644635 0.029570 0.017785 91549.400000 0 0 1
17.000837 -3.813347 23.542294 29.288388 -0.220651 0.637124 0.014526 0.018522 322870.000000 0 0 1
17.293537 -5.181847 23.757194 29.838267 -0.291127 0.649810 0.020420 0.018620 5492.290000 0 0 1
16.365137 -6.166647 23.035394 28.921871 -0.360362 0.649362 0.010988 0.013028 -101792.000000 0 0 1
16.561837 -6.181047 21.590194 27.904054 -0.357201 0.686089 0.012194 0.013076 362468.000000 0 0 1
15.606537 -7.050047 20.979294 27.081320 -0.424297 0.684591 0.024290 0.008635 75652.900000 0 0 1
15.839437 -8.618147 21.071294 27.733727 -0.498298 0.707835 0.024922 -0.002783 -326668.000000 0 0 1
15.715337 -9.175447 22.374894 28.840882 -0.528462 0.682807 0.015165 0.002621 295865.000000 0 0 1
16.400537 -10.455447 22.372994 29.645317 -0.567542 0.715616 0.017024 -0.003607 -167749.000000 0 0 1
16.070937 -11.329847 23.541694 30.673307 -0.614067 0.695868 0.018344 -0.003316 -2303.290000 0 0 1
14.815737 -11.955547 23.351694 30.128770 -0.678964 0.683982 0.030118 -0.008109 148143.000000 0 0 1
14.728437 -13.010747 24.296894 31.249727 -0.723554 0.680104 0.024675 0.003306 354285.000000 0 0 1
13.555437 -13.997747 23.934994 30.863744 -0.801450 0.683281 0.008915 0.000379 169413.000000 0 0 1
13.756637 -14.794247 22.807394 30.467885 -0.821725 0.724891 0.026243 0.000187 -124465.000000 0 0 1
12.743937 -15.709647 22.466494 30.231511 -0.889253 0.733033 0.012377 0.009093 -448313.000000 0 0 1
13.120337 -16.736047 21.334094 30.122783 -0.905915 0.783797 0.026984 -0.004256 -431325.000000 0 0 1
14.175237 -17.607747 21.582594 31.253455 -0.892980 0.808524 0.023117 -0.005304 -194289.000000 0 0 1
14.601537 -18.296947 20.419794 31.063662 -0.897257 0.853495 0.019815 -0.004964 -189154.000000 0 0 1
-22.788663 -32.570818 26.610096 47.835955 0.960295 0.980896 0.035066 -0.015678 -226171.000000 0 0 1
-23.362363 -33.555218 27.425156 49.233036 0.962601 0.979970 0.034707 -0.018226 -657817.000000 0 0 1
-24.580063 -33.918718 26.879006 49.770874 0.943701 1.000294 0.033247 -0.022447 -698866.000000 0 0 1
-25.544423 34.445253 27.753366 51.080744 -0.932696 0.996406 0.023975 -0.022870 -403954.000000 0 0 1
-26.225243 -34.164918 28.879766 51.856011 0.916121 0.980121 0.036268 -0.024147 -15839.700000 0 0 1
-25.440433 -33.651918 29.921666 51.720144 0.923474 0.953871 0.043168 -0.025213 -497470.000000 0 0 1
-26.256903 -33.025318 31.075786 52.400392 0.899079 0.935961 0.034664 -0.023990 -170715.000000 0 0 1
-26.801363 -31.794418 30.661166 51.665319 0.870405 0.935449 0.021923 -0.016000 61433.300000 0 0 1
-27.442573 -31.073718 31.689886 52.181602 0.847372 0.918139 0.007311 0.001659 -157079.000000 0 0 1
-27.898353 -29.673518 31.363256 51.405151 0.816222 0.914586 0.010492 -0.003610 111002.000000 0 0 1
-28.794423 -29.611518 30.263486 51.203900 0.799387 0.938450 0.006842 0.008029 377074.000000 0 0 1
-29.465613 -28.374818 30.148676 50.816290 0.766542 0.935660 0.013682 0.009007 -245891.000000 0 0 1
-29.933283 -28.166318 28.740426 50.153315 0.754995 0.960572 0.016477 -0.009586 -610053.000000 0 0 1
-28.981413 -27.907518 27.750076 48.875542 0.766523 0.967002 0.016788 -0.005329 -250117.000000 0 0 1
-28.527693 -26.607718 27.687156 47.837000 0.750589 0.953563 0.001808 0.005012 -583617.000000 0 0 1
-27.426743 -26.491218 26.652156 46.522557 0.768049 0.960773 0.003640 0.015930 -568186.000000 0 0 1
-27.908113 -26.527318 25.329226 46.088296 0.760038 0.988934 -0.000842 0.011894 802741.000000 0 0 1
-26.825703 -26.600118 24.377156 44.960320 0.781176 0.997752 0.003978 0.028650 403795.000000 0 0 1
-27.296313 -26.924218 22.942696 44.680751 0.778536 1.031560 0.002343 0.028901 -312881.000000 0 0 1
-27.989563 -25.831118 22.393296 44.182825 0.745315 1.039290 0.000230 0.019574 20404.800000 0 0 1
-28.478183 -26.146218 21.137996 44.061849 0.742733 1.070444 -0.008725 0.025930 -309248.000000 0 0 1
-29.100323 -24.983018 20.393396 43.438124 0.709416 1.082093 -0.011045 0.017273 895032.000000 0 0 1
-30.471433 -24.679318 20.735596 44.356983 0.680758 1.084369 -0.002939 0.021454 1005810.000000 0 0 1
-30.930573 -23.560218 19.990796 43.719745 0.650955 1.095897 -0.005910 0.022713 -864233.000000 0 0 1
-32.407863 -23.249218 20.133696 44.678423 0.622305 1.103319 0.008976 0.019037 -939852.000000 0 0 1
-33.243553 -24.167018 19.488496 45.486042 0.628597 1.128020 -0.001308 0.021084 -670656.000000 0 0 1
-34.449703 -23.516118 19.203496 45.919104 0.598967 1.139330 0.002449 0.019259 -325940.000000 0 0 1
35.158732 -24.436618 18.410396 46.607160 -0.607387 1.164715 0.012107 0.018238 -38442.400000 0 0 1
34.768094 -25.632618 19.086296 47.224338 -0.635288 1.154734 0.011335 0.014778 243201.000000 0 0 1
34.152879 -26.681618 18.303596 47.046248 -0.663197 1.171190 0.014688 0.025065 472212.000000 0 0 1
33.692789 -28.030318 19.038396 47.784550 -0.693914 1.161001 0.011605 0.024043 275548.000000 0 0 1
32.661239 -28.005218 20.013396 47.450867 -0.708800 1.135399 0.010863 0.016794 -99577.900000 0 0 1
32.796559 -27.161718 21.176596 47.558610 -0.691694 1.109316 0.011570 0.010924 39680.700000 0 0 1
31.535939 -27.271418 22.126196 47.199727 -0.713008 1.082889 0.009376 0.004882 1225540.000000 0 0 1
30.362609 -26.747418 21.524796 45.832622 -0.722180 1.081914 0.007851 0.008912 -202931.000000 0 0 1
29.347229 -26.343418 22.396096 45.352184 -0.731513 1.054312 0.012617 0.009754 -2772.180000 0 0 1
28.458499 -25.183818 21.820796 43.820748 -0.724427 1.049556 0.008752 0.009441 102099.000000 0 0 1
29.114319 -24.001018 21.312596 43.334965 -0.689426 1.056628 0.006795 0.012571 130572.000000 0 0 1
29.922149 -23.328718 22.283896 44.001546 -0.662207 1.039752 0.014361 0.005190 380677.000000 0 0 1
30.650649 -22.054918 21.650396 43.527248 -0.623732 1.050199 -0.006200 0.018085 16983.100000 0 0 1
29.794819 -20.984718 21.461296 42.292751 -0.613611 1.038578 -0.007641 0.012036 -48656.000000 0 0 1
30.489309 -19.908018 20.801896 41.936213 -0.578447 1.051768 -0.011636 0.015429 -356932.000000 0 0 1
29.741219 -18.623318 20.963196 40.875710 -0.559446 1.032292 -0.034726 0.023644 -215152.000000 0 0 1
29.731079 -18.083618 22.278996 41.319583 -0.546456 1.001324 -0.021336 0.011710 371474.000000 0 0 1
28.811819 -18.744918 23.159496 41.447015 -0.576796 0.977890 -0.010260 0.009520 -78359.500000 0 0 1
28.867839 -18.238018 24.588866 42.078376 -0.563457 0.946707 -0.012808 0.013768 -76755.800000 0 0 1
28.593919 -16.887518 24.775476 41.432169 -0.533478 0.929822 -0.014928 0.010392 236719.000000 0 0 1
28.975699 -16.471618 26.062086 42.310018 -0.516908 0.907168 -0.013815 0.011059 -203296.000000 0 0 1
28.701859 -14.999518 26.349376 41.750112 -0.481562 0.887799 -0.003621 0.001275 -39910.600000 0 0 1
27.320689 -14.729518 26.551376 40.845493 -0.494463 0.863154 0.002552 0.002246 483706.000000 0 0 1
27.021609 -13.443018 27.151756 40.596797 -0.461639 0.838182 0.006076 -0.005382 -27862.800000 0 0 1
27.301049 -12.227018 26.255316 39.801870 -0.421072 0.850443 0.012582 -0.011590 -542143.000000 0 0 1
26.569249 -12.199018 25.058256 38.505288 -0.430429 0.862192 0.014640 -0.004159 141180.000000 0 0 1
26.945279 -11.145518 24.120096 37.842432 -0.392205 0.879700 0.017802 -0.001620 -183479.000000 0 0 1
28.169719 -11.323318 23.175096 38.194707 -0.382202 0.918816 0.019667 -0.012235 -92227.400000 0 0 1
28.044849 -12.300018 22.099096 37.764719 -0.413320 0.945696 0.000409 -0.009039 -77496.500000 0 0 1
28.417109 -13.597418 22.531096 38.730765 -0.446295 0.949934 -0.007134 -0.011082 -416305.000000 0 0 1
28.095859 -14.776518 21.593696 38.392844 -0.484178 0.973462 -0.003774 -0.004212 -439200.000000 0 0 1
28.553159 -14.492718 20.287896 37.906734 -0.469685 1.006045 -0.013061 -0.002330 -139186.000000 0 0 1
28.218949 -15.568418 19.426496 37.630751 -0.504148 1.028342 -0.012772 -0.008142 -422586.000000 0 0 1
28.589049 -15.299718 17.922396 37.048986 -0.491378 1.065864 -0.014876 -0.004512 -5636.820000 0 0 1
28.202159 -16.221518 16.904096 36.663986 -0.521975 1.091613 -0.014036 -0.010979 563016.000000 0 0 1
26.785829 -16.331818 16.745496 35.561503 -0.547535 1.080499 0.007412 -0.015165 237612.000000 0 0 1
26.173959 -15.627518 15.508496 34.202469 -0.538258 1.100184 0.003877 -0.014927 -494881.000000 0 0 1
26.497249 -16.107218 14.168696 34.092501 -0.546195 1.142199 -0.000215 -0.014265 -9801.530000 0 0 1
25.593139 -17.127018 13.875896 33.776974 -0.589757 1.147455 0.001903 -0.024621 -435712.000000 0 0 1
25.658819 -17.775618 12.481196 33.617374 -0.605856 1.190418 -0.001165 -0.005164 -196021.000000 0 0 1
25.101939 -16.976618 11.424296 32.385605 -0.594647 1.210279 -0.003026 -0.010016 -28620.300000 0 0 1
24.978839 -17.652618 10.147996 32.226373 -0.615210 1.250448 0.002742 -0.012111 -550513.000000 0 0 1
26.250039 -17.888918 9.326696 33.106875 -0.598189 1.285216 0.008859 -0.006331 -15642.200000 0 0 1
27.041549 -18.821718 10.060096 34.448628 -0.608056 1.274446 0.003678 0.002464 -1743170.000000 0 0 1
28.340139 -18.957718 9.673896 35.442105 -0.589572 1.294339 0.012107 0.010484 -1208810.000000 0 0 1
29.115699 -19.780918 10.728196 36.798136 -0.596759 1.274958 0.033785 -0.004538 -138982.000000 0 0 1
29.237329 -19.058518 11.964096 36.894282 -0.577679 1.240545 0.028033 -0.020233 98279.700000 0 0 1
29.681539 -19.860818 13.048096 38.022344 -0.589706 1.220507 0.005815 -0.008868 -32959.000000 0 0 1
29.583389 -19.140518 14.432396 38.076638 -0.574265 1.182043 0.007019 0.005361 165490.000000 0 0 1
29.716839 -20.076918 15.473996 39.059156 -0.594167 1.163457 0.011992 0.003311 109129.000000 0 0 1
29.263039 -19.540818 16.741096 38.967080 -0.588762 1.126723 0.008356 -0.003605 162307.000000 0 0 1
29.128239 -20.726318 17.693196 39.888391 -0.618438 1.111221 0.001091 0.002160 -187946.000000 0 0 1
27.932669 -21.441918 17.536896 39.338690 -0.654688 1.108737 -0.009428 0.000633 -247439.000000 0 0 1
27.785529 -22.412518 18.583696 40.245625 -0.678768 1.090821 0.000194 0.002616 -454757.000000 0 0 1
26.536739 -23.265718 18.379296 39.790585 -0.719812 1.090659 -0.001892 0.006817 -992966.000000 0 0 1
25.411739 -22.526318 18.639396 38.737818 -0.725280 1.068810 0.002806 -0.000813 -727017.000000 0 0 1
24.207239 -23.254218 18.468796 38.312472 -0.765321 1.067795 0.004764 -0.005365 502163.000000 0 0 1
22.946439 -22.685018 19.166996 37.530292 -0.779669 1.034789 0.020765 -0.014484 -113442.000000 0 0 1
22.558439 -21.401118 18.688996 36.279051 -0.759077 1.029619 0.023356 -0.015938 579492.000000 0 0 1
21.239539 -21.028018 19.104796 35.472366 -0.780394 1.002042 0.031668 -0.010142 670259.000000 0 0 1
21.050339 -20.507318 20.506296 35.835388 -0.772332 0.961567 0.030078 -0.003020 -530924.000000 0 0 1
21.297139 -21.481718 21.479196 37.099706 -0.789713 0.953345 0.024586 -0.006339 -196573.000000 0 0 1
21.597839 -20.840018 22.697696 37.629222 -0.767543 0.923298 0.021552 0.003074 75617.500000 0 0 1
22.197739 -21.776318 23.747496 39.126605 -0.775815 0.918592 0.015230 -0.000183 -601985.000000 0 0 1
21.206139 -22.565618 24.291096 39.356890 -0.816447 0.905617 0.031471 0.003691 -525038.000000 0 0 1
21.580139 -23.180518 25.456206 40.633203 -0.821137 0.893757 0.031127 -0.004816 -871331.000000 0 0 1
20.406139 -23.715318 26.275386 40.856122 -0.860260 0.872231 0.027510 -0.004170 -499560.000000 0 0 1
19.832739 -24.861518 25.693676 40.885176 -0.897442 0.891257 0.040162 0.007357 591089.000000 0 0 1
18.789939 -25.368818 26.557106 41.254316 -0.933293 0.871419 0.051740 0.002503 988534.000000 0 0 1
17.932639 -26.568018 25.955356 41.244631 -0.977067 0.890141 0.053215 0.008372 485127.000000 0 0 1
17.170639 -26.195418 24.817786 39.961897 -0.990577 0.900732 0.042968 0.002276 307490.000000 0 0 1
16.591239 -27.271118 24.119856 40.009380 -1.024237 0.923722 0.053793 -0.003311 40892.100000 0 0 1
15.717239 -26.915018 22.867996 38.657406 -1.042256 0.937810 0.043654 -0.004803 -22832.700000 0 0 1
14.410239 -26.534718 23.196296 38.076428 -1.073288 0.915740 0.029147 -0.001628 -255033.000000 0 0 1
13.721539 -26.076818 22.050396 36.803546 -1.086412 0.928373 0.018656 -0.004652 -1190970.000000 0 0 1
12.352539 -25.549718 22.205296 36.033990 -1.120459 0.906847 0.020733 -0.005638 -1775180.000000 0 0 1
11.285239 -26.390218 22.451596 36.440011 -1.166700 0.906983 0.014170 -0.010016 -639736.000000 0 0 1
10.099439 -25.634718 22.322596 35.460340 -1.195495 0.889875 0.011412 -0.007609 -389267.000000 0 0 1
8.826739 -26.466918 22.320096 35.729480 -1.248895 0.896053 0.008617 -0.005021 -507030.000000 0 0 1
8.639839 -27.125918 21.090196 35.429629 -1.262447 0.933195 0.022769 -0.008140 -657967.000000 0 0 1
7.436039 -27.797818 21.122096 35.695326 -1.309412 0.937590 0.004348 -0.001645 -837070.000000 0 0 1
7.214039 -28.597918 19.820296 35.534876 -1.323694 0.979099 0.017572 -0.001890 406933.000000 0 0 1
8.012739 -29.782018 19.720296 36.606866 -1.307974 1.001897 0.015511 -0.007099 534781.000000 0 0 1
7.376239 -30.573218 18.731396 36.605952 -1.334056 1.033630 -0.006310 -0.000545 37660.300000 0 0 1
7.928839 -32.019518 18.507596 37.823896 -1.328054 1.059498 -0.001484 0.002992 -72864.800000 0 0 1
7.584539 -33.056618 19.495796 39.119704 -1.345259 1.049087 -0.007424 0.004339 57336.300000 0 0 1
8.319239 -34.218018 19.265796 40.140421 -1.332299 1.070187 -0.009443 0.001671 -458908.000000 0 0 1
8.243139 33.782353 20.337396 40.284072 1.331466 1.041589 -0.005986 -0.003804 271277.000000 0 0 1
7.228039 32.806053 20.081096 39.137349 1.353935 1.032012 -0.008000 -0.004576 342236.000000 0 0 1
7.244539 31.856653 21.126696 38.905874 1.347189 0.996766 -0.013783 -0.007684 -137136.000000 0 0 1
6.275939 30.690853 20.846196 37.628178 1.369088 0.983629 -0.010156 -0.012403 599023.000000 0 0 1
4.884439 30.874953 21.067796 37.695789 1.413896 0.977750 -0.002475 -0.013926 267766.000000 0 0 1
4.153839 29.727053 20.773596 36.503348 1.431963 0.965401 0.005187 -0.007937 155447.000000 0 0 1
2.727139 29.632053 21.361696 36.630833 1.479021 0.948181 0.006072 -0.001017 143897.000000 0 0 1
2.746539 29.161553 22.715596 37.066669 1.476890 0.911158 0.001205 -0.010858 588593.000000 0 0 1
1.390539 29.030653 23.149796 37.156769 1.522934 0.898185 0.006605 -0.004091 483378.000000 0 0 1
1.261039 28.429253 24.540206 37.577046 1.526468 0.859173 0.013358 -0.000955 -243643.000000 0 0 1
1.503139 29.304353 25.613356 38.949308 1.519547 0.853158 0.006309 -0.000358 274700.000000 0 0 1
1.119239 28.678853 26.819276 39.281076 1.531790 0.819272 0.004072 -0.000107 147572.000000 0 0 1
2.282439 28.002553 27.619736 39.397999 1.489468 0.793936 -0.007474 -0.002101 13306.600000 0 0 1
2.851839 26.907153 26.944806 38.185736 1.465202 0.787492 0.002595 -0.005118 312043.000000 0 0 1
3.724439 26.244453 27.859216 38.454892 1.429824 0.760539 -0.011364 -0.001797 -110998.000000 0 0 1
4.166739 24.953053 27.187996 37.137632 1.405340 0.749415 -0.012955 0.004943 -536423.000000 0 0 1
3.149739 23.992453 27.111196 36.339725 1.440262 0.728688 0.001358 0.005726 91152.900000 0 0 1
3.700239 22.709153 26.760726 35.292122 1.409275 0.710151 0.007281 0.011891 402032.000000 0 0 1
2.524539 21.721453 26.587046 34.424786 1.455092 0.688307 0.000962 0.013031 22813.500000 0 0 1
2.816939 20.353453 26.745416 33.727074 1.433269 0.655086 0.007561 0.013431 9638.160000 0 0 1
3.477839 19.766653 25.621986 32.546922 1.396634 0.664489 0.008164 0.018192 -405458.000000 0 0 1
3.908839 18.293053 25.893476 31.943496 1.360283 0.625616 0.009529 0.016618 640947.000000 0 0 1
5.096639 18.165253 26.723246 32.712139 1.297258 0.614744 0.002489 0.009979 -285532.000000 0 0 1
6.217839 18.165353 25.958316 32.287393 1.241006 0.636843 -0.000020 0.007927 -2245000.000000 0 0 1
7.514139 18.101453 26.789516 33.193419 1.177330 0.631618 0.003832 -0.004011 -258070.000000 0 0 1
7.762639 19.291153 27.539106 34.508108 1.188228 0.646748 0.000235 -0.007684 189507.000000 0 0 1
8.262739 20.344253 26.696756 34.567012 1.185003 0.688313 -0.009941 -0.011018 -533242.000000 0 0 1
8.787539 21.508853 27.647376 36.114111 1.182937 0.698891 -0.016988 -0.010703 24720.400000 0 0 1
9.920039 21.148153 28.418036 36.786361 1.132195 0.688003 -0.002841 -0.025358 903.348000 0 0 1
10.115739 22.131953 29.397366 38.162241 1.142083 0.691444 -0.001420 -0.029690 -563196.000000 0 0 1
11.369139 21.826353 30.204106 38.960686 1.090576 0.683692 0.008477 -0.030955 -393322.000000 0 0 1
12.579739 21.934953 29.468806 38.830433 1.050089 0.709159 0.015791 -0.036142 -404416.000000 0 0 1
13.635539 21.861253 30.367926 39.825284 1.013110 0.703583 0.011680 -0.021058 -309270.000000 0 0 1
15.069839 21.963853 29.813906 39.979744 0.969447 0.729174 0.016923 -0.025321 167314.000000 0 0 1
15.370539 23.241153 29.311916 40.442467 0.986483 0.760080 0.020422 -0.034095 66792.000000 0 0 1
16.656739 23.262553 28.718466 40.538175 0.949391 0.783525 0.055140 -0.027142 126148.000000 0 0 1
-8.608063 16.586453 4.385394 19.194814 -1.092079 1.340293 0.009994 -0.013859 -299478.000000 0 1 0
-8.314463 17.923253 4.599394 20.286146 -1.136450 1.342082 0.006982 -0.014467 -275495.000000 0 1 0
-7.086063 18.161253 5.217094 20.180721 -1.198789 1.309308 0.002422 -0.010414 -560294.000000 0 1 0
-6.869163 19.602953 5.789594 21.563408 -1.233752 1.298970 0.005093 -0.008912 -124110.000000 0 1 0
-6.878663 20.689453 4.875994 22.341549 -1.249821 1.350778 0.000948 -0.010270 -66665.100000 0 1 0
-8.188363 21.114853 4.580194 23.105508 -1.200850 1.371245 -0.003445 -0.012012 -9023.050000 0 1 0
-8.337763 22.264153 3.531594 24.035036 -1.212470 1.423327 0.017599 -0.011720 137821.000000 0 1 0
-7.753363 22.005753 2.235094 23.438504 -1.232044 1.475291 -0.001154 -0.013913 2744.950000 0 1 0
-8.356763 20.946953 1.518394 22.603448 -1.191196 1.503570 0.016976 -0.011454 -822286.000000 0 1 0
-7.794063 20.889353 0.076994 22.296153 -1.213682 1.567343 0.005102 -0.011632 968179.000000 0 1 0
-6.434263 20.435153 -0.024606 21.424188 -1.265761 1.571945 0.001238 -0.005889 434940.000000 0 1 0
-5.518763 21.460253 0.300594 22.160541 -1.319088 1.557232 0.008227 -0.007996 -714520.000000 0 1 0
-4.111963 21.161753 -0.275906 21.559318 -1.378877 1.583594 0.006817 -0.007122 -151311.000000 0 1 0
-3.900663 21.585553 -1.644006 21.996683 -1.392019 1.645605 0.002496 -0.007516 -517451.000000 0 1 0
-2.589163 21.533753 -2.102306 21.790502 -1.451133 1.667425 -0.000003 -0.000679 -618158.000000 0 1 0
-2.533263 21.829253 -3.610606 22.270389 -1.455264 1.733641 0.009297 -0.000009 235453.000000 0 1 0
-1.241763 22.148153 -4.102606 22.559124 -1.514789 1.753674 0.010875 0.002082 134171.000000 0 1 0
-1.259163 22.441353 -5.519806 23.144505 -1.514746 1.811610 0.017763 -0.004184 -503757.000000 0 1 0
-0.023963 23.130053 -6.069906 23.913254 -1.569760 1.827434 0.010087 -0.003140 -172007.000000 0 1 0
1.133837 22.315653 -5.978406 23.130398 1.520031 1.832230 -0.004905 0.005789 137357.000000 0 1 0
2.189137 22.729453 -6.836606 23.836098 1.474780 1.861699 -0.006956 0.003766 557019.000000 0 1 0
3.284737 21.625953 -6.961106 22.954920 1.420060 1.878899 -0.005755 0.002964 20224.300000 0 1 0
2.819737 20.533353 -7.665606 22.098213 1.434325 1.925047 -0.006544 -0.006447 -131367.000000 0 1 0
3.716937 19.432953 -7.667606 21.219036 1.381809 1.940517 -0.006359 -0.004623 275429.000000 0 1 0
3.665237 18.583853 -8.975706 20.960841 1.376069 2.013311 -0.006039 0.001034 -200430.000000 0 1 0
4.013037 19.239053 -10.170506 22.128824 1.365157 2.048346 -0.001261 -0.000594 -8479.580000 0 1 0
3.100837 18.846053 -11.158506 22.120153 1.407722 2.099541 0.002856 -0.001437 -165034.000000 0 1 0
3.474837 19.395153 -12.565306 23.369497 1.393517 2.138479 0.004046 0.002713 -19677.800000 0 1 0
3.486937 20.779353 -12.679206 24.590700 1.404538 2.112516 0.009743 -0.000361 65487.800000 0 1 0
3.970437 21.232453 -13.937506 25.706721 1.385933 2.143818 0.020472 0.004902 -151821.000000 0 0 1
4.215737 22.744253 -14.027006 27.052364 1.387522 2.115907 0.012598 -0.005252 235057.000000 0 0 1
3.107337 23.640553 -14.237706 27.771273 1.440105 2.109097 0.017339 -0.002482 208877.000000 0 0 1
3.560137 24.962653 -14.620606 29.147397 1.429133 2.096254 0.018173 -0.010452 -541906.000000 0 0 1
2.466837 25.823153 -15.227806 30.080004 1.475557 2.101620 0.037675 -0.000769 -90754.700000 0 0 1
1.560737 26.237953 -14.199706 29.874701 1.511382 2.066111 0.035874 -0.011330 -229162.000000 0 0 1
1.290037 27.589053 -14.326706 31.113897 1.524071 2.049310 0.031118 -0.015121 -871242.000000 0 0 1
0.310637 28.056953 -13.225606 31.019442 1.559725 2.011267 0.036133 -0.015740 388958.000000 0 0 1
-1.069563 27.755353 -13.345606 30.815724 -1.532280 2.018701 0.031847 -0.024261 118466.000000 0 0 1
-1.512263 26.401653 -13.502106 29.692442 -1.513580 2.042868 0.028380 -0.020844 -692855.000000 0 0 1
-1.202463 25.348653 -12.369406 28.231230 -1.523395 2.024332 0.035611 -0.019485 -618253.000000 0 0 1
-2.008763 25.539253 -11.259406 27.983260 -1.492304 1.984892 0.024866 -0.017568 -387400.000000 0 0 1
-1.764463 24.499953 -10.286606 26.630346 -1.498901 1.967385 0.022852 -0.008692 -818626.000000 0 0 1
-2.839063 24.207453 -9.257406 26.072220 -1.454049 1.933783 0.025381 -0.008125 -533660.000000 0 0 1
-2.617963 24.667253 -7.936406 26.044456 -1.465061 1.880446 0.021014 -0.009164 -82749.000000 0 0 1
-2.657463 26.095453 -7.788806 27.362388 -1.469310 1.859442 0.028510 -0.008808 -370950.000000 0 0 1
-2.375363 26.472453 -6.301006 27.315487 -1.481306 1.803568 0.018229 -0.006729 223455.000000 0 0 1
-1.158363 26.014553 -5.725206 26.662273 -1.526298 1.787212 0.023413 -0.006780 -95531.600000 0 0 1
-0.984363 26.364453 -4.362306 26.741038 -1.533477 1.734660 0.026404 -0.007752 30079.300000 0 0 1
-1.871963 25.800953 -3.195306 26.065368 -1.498369 1.693694 0.025087 -0.007702 -193422.000000 0 0 1
-3.243763 26.001653 -3.303906 26.410675 -1.446685 1.696222 0.015864 -0.002640 -260120.000000 0 0 1
-4.005063 25.225253 -2.358106 25.649846 -1.413339 1.662861 0.008926 -0.004607 187131.000000 0 0 1
-5.308263 24.595753 -2.878506 25.326163 -1.358236 1.684700 0.006695 -0.004308 -178715.000000 0 0 1
-6.155363 25.630553 -3.335306 26.569494 -1.335103 1.696660 -0.005388 0.001923 -241736.000000 0 0 1
-7.273663 25.058553 -4.022606 26.401111 -1.288293 1.723757 -0.000957 0.004491 966677.000000 0 0 1
-8.517663 26.023753 -3.950406 27.665720 -1.254482 1.714077 -0.006615 0.009520 288159.000000 0 0 1
-9.154963 26.024753 -2.710006 27.720846 -1.232537 1.668713 -0.005100 0.002549 -1212150.000000 0 0 1
-10.336763 26.738053 -2.655906 28.789339 -1.201900 1.663181 0.003839 0.003809 -526369.000000 0 0 1
-11.016063 26.821953 -1.282606 29.024402 -1.181091 1.615001 0.009592 0.002252 -323737.000000 0 0 1
-11.510363 25.669453 -0.734306 28.141580 -1.149268 1.596893 0.014591 0.000360 -178434.000000 0 0 1
-10.557663 24.700153 -0.366606 26.864405 -1.166867 1.584443 0.015785 -0.001322 -322654.000000 0 0 1
-11.174263 23.338053 -0.103306 25.875463 -1.124252 1.574789 0.024218 -0.005908 -194589.000000 0 0 1
-12.007863 23.238753 1.020494 26.177659 -1.093865 1.531803 0.038215 -0.004568 -143958.000000 0 0 1
-12.251363 21.880653 1.270494 25.109222 -1.060371 1.520176 0.044221 -0.010411 48225.800000 0 0 1
-13.132963 21.631253 2.559294 25.434933 -1.025151 1.470005 0.046428 -0.009069 35958.000000 0 0 1
-12.549663 21.735953 3.822394 25.388116 -1.047184 1.419663 0.058660 -0.015879 -134809.000000 0 0 1
-12.097763 23.049053 4.170694 26.363031 -1.087451 1.411927 0.046675 -0.007501 85993.600000 0 0 1
-12.098663 23.262453 5.708094 26.834711 -1.091203 1.356446 0.039270 -0.004873 208114.000000 0 0 1
-10.888463 22.794353 6.278594 26.030020 -1.125162 1.327188 0.028335 -0.002900 271526.000000 0 0 1
-11.126763 22.343553 7.588794 26.088868 -1.108762 1.275647 0.022580 -0.000126 -52415.700000 0 0 1
-9.827563 21.983653 8.348594 25.486487 -1.150407 1.237066 0.019216 0.001296 -159181.000000 0 0 1
-8.971563 23.069753 8.595794 26.202865 -1.199905 1.236560 0.019434 -0.003229 -346661.000000 0 0 1
-7.928963 22.718653 9.466994 25.857874 -1.235007 1.195964 0.023192 -0.004222 -471832.000000 0 0 1
-8.168063 22.486353 10.989594 26.327258 -1.222371 1.140189 0.021169 -0.007232 -375252.000000 0 0 1
-8.932163 21.304853 11.239394 25.690549 -1.173802 1.117989 0.024079 -0.007493 72609.400000 0 0 1
-8.493263 20.626053 12.367994 25.505624 -1.180182 1.064533 0.018046 -0.013543 -873139.000000 0 0 1
-9.426763 19.571053 12.853094 25.240682 -1.121921 1.036517 0.013291 -0.016044 -868483.000000 0 0 1
-9.659263 18.528553 11.996694 24.094176 -1.090240 1.049611 0.024758 -0.021238 186940.000000 0 1 0
-10.335063 17.420453 12.625794 23.868314 -1.035339 1.013401 0.022607 -0.019990 -185116.000000 0 1 0
-10.455063 16.202153 11.693894 22.551392 -0.997740 1.025649 0.021700 -0.027331 -274638.000000 0 1 0
-10.833863 15.016653 12.399394 22.284915 -0.945815 0.980746 0.015011 -0.025403 115916.000000 0 1 0
-11.091963 13.924453 11.595794 21.245811 -0.898143 0.993462 0.015138 -0.016284 -51141.300000 0 1 0
-11.431063 12.628853 12.308994 21.015910 -0.835141 0.945054 0.009972 -0.027199 -497459.000000 0 1 0
-12.455963 12.744553 13.255094 22.209731 -0.796849 0.931271 0.011060 -0.015289 -330947.000000 0 1 0
-12.967063 11.497753 13.653694 22.062783 -0.725412 0.903510 0.011179 -0.009448 359395.000000 0 1 0
-13.943663 11.725553 14.859794 23.510164 -0.699201 0.886590 0.012562 -0.014991 127532.000000 0 1 0
-14.975263 12.635453 14.610294 24.441233 -0.700857 0.930077 0.015864 -0.019325 -187193.000000 0 1 0
-15.752563 12.944553 15.766594 25.773828 -0.687859 0.912552 0.021625 -0.013938 -213239.000000 0 0 1
-16.791563 14.054353 15.517094 26.837691 -0.696892 0.954296 0.031871 -0.019901 172830.000000 0 0 1
-17.915863 13.656053 14.735394 26.918354 -0.651284 0.991529 0.028650 -0.020864 -28080.700000 0 0 1
-18.914663 14.634753 14.934794 28.195541 -0.658513 1.012566 0.048997 -0.027430 -217007.000000 0 0 1
-20.214663 14.306553 14.189194 28.541957 -0.615896 1.050503 0.052705 -0.019739 -756912.000000 0 0 1
-20.988563 13.330653 14.758294 28.914241 -0.565857 1.035128 0.043922 -0.014410 -541632.000000 0 0 1
-22.095963 13.080853 13.929494 29.212516 -0.534518 1.073748 0.042384 -0.010447 171049.000000 0 0 1
-23.068963 11.995353 14.521694 29.781624 -0.479502 1.061451 0.041515 -0.005482 359185.000000 0 0 1
-23.687763 12.443453 15.725594 31.036172 -0.483691 1.039460 0.042801 -0.002254 689461.000000 0 0 1
-24.697463 11.570453 16.267294 31.756337 -0.438121 1.032990 0.036994 -0.004351 -5140.930000 0 0 1
-25.420863 12.178453 17.438694 33.145785 -0.446766 1.016764 0.040307 -0.010038 27710.600000 0 0 1
-26.264143 13.297553 17.030794 34.009970 -0.468675 1.046321 0.039619 -0.008188 1124370.000000 0 0 1
-27.093063 13.671053 18.194394 35.383156 -0.467318 1.030709 0.031743 0.006629 195520.000000 0 0 1
-28.123223 14.719053 17.773194 36.379288 -0.482174 1.060366 0.019299 0.000754 -405794.000000 0 0 1
-27.741133 16.114453 17.539794 36.563512 -0.526247 1.070475 0.020611 0.003229 126461.000000 0 0 1
-28.831453 17.049153 17.566994 37.822290 -0.534027 1.087770 0.008791 0.010839 192571.000000 0 0 1
-28.404743 18.515453 17.428594 38.123580 -0.577670 1.095996 0.035774 0.000129 -75082.500000 0 0 1
-27.725973 19.143953 18.529394 38.452035 -0.604301 1.067994 0.026734 -0.001627 132433.000000 0 0 1
-28.394323 19.196553 19.774494 39.569886 -0.594484 1.047502 0.018683 0.001414 -700107.000000 0 0 1
-27.434393 19.383753 20.964894 39.596750 -0.615108 1.012832 0.020940 -0.014270 556671.000000 0 0 1
-26.833893 18.180353 21.531094 38.912351 -0.595475 0.984448 0.028464 -0.011416 912442.000000 0 0 1
-25.985103 17.341853 20.663794 37.456079 -0.588494 0.986418 0.039947 -0.007405 190183.000000 0 0 1
-25.499843 16.083353 21.395194 36.968508 -0.562705 0.953612 0.040055 -0.011764 -415166.000000 0 0 1
-26.581303 15.272453 21.766894 37.598021 -0.521501 0.953372 0.020356 -0.000797 -157350.000000 0 0 1
-26.282783 13.969953 22.133194 37.092082 -0.488548 0.931402 0.019783 -0.000329 174317.000000 0 0 1
-27.588473 13.159553 22.429794 37.912971 -0.445075 0.937739 0.014032 -0.006617 212931.000000 0 0 1
-28.488483 12.968353 21.393194 37.913594 -0.427181 0.971257 0.015987 -0.005246 167085.000000 0 0 1
-29.475663 11.983653 21.758694 38.546899 -0.386150 0.971001 0.031668 -0.006861 442517.000000 0 0 1
-30.392513 11.643253 20.541394 38.486609 -0.365850 1.007793 0.036373 -0.008272 -360660.000000 0 0 1
-29.791353 10.994153 19.458094 37.242631 -0.353534 1.021053 0.038268 -0.010217 136035.000000 0 0 1
-29.308623 9.661453 19.584694 36.549956 -0.318428 1.005302 0.039944 -0.011182 9984.620000 0 0 1
-28.490973 9.238053 18.319394 35.109505 -0.313549 1.021862 0.033504 -0.011983 75908.600000 0 0 1
-29.240643 8.943153 17.149794 35.058674 -0.296812 1.059654 0.028281 -0.007150 176115.000000 0 0 1
-29.830143 10.029853 16.481194 35.525556 -0.324357 1.088376 0.022839 -0.008855 -642039.000000 0 0 1
-28.890803 11.018353 15.765894 34.708011 -0.364352 1.099273 0.030807 -0.008614 -270962.000000 0 0 1
-28.380563 10.609853 14.511294 33.594687 -0.357755 1.124140 0.026927 -0.002050 293748.000000 0 0 1
-27.409533 11.532253 14.064694 32.895151 -0.398256 1.129003 0.030764 0.007907 -324971.000000 0 0 1
-27.024483 11.451053 12.573394 31.930229 -0.400793 1.166059 0.039173 0.005598 111123.000000 0 0 1
-26.287253 10.318353 12.088594 30.718434 -0.374044 1.166329 0.050572 0.006666 500944.000000 0 0 1
-27.106193 9.209153 11.903694 31.004066 -0.327509 1.176737 0.042018 0.012955 -523964.000000 0 0 1
-26.446693 8.140353 11.042994 29.793299 -0.298599 1.191084 0.041123 0.015784 -518040.000000 0 0 1
-26.185983 8.507153 9.713494 29.196392 -0.314118 1.231636 0.045861 0.011729 331358.000000 0 0 1
-25.829983 7.325453 8.995194 28.315434 -0.276346 1.247517 0.044906 0.007394 -424467.000000 0 0 1
-25.285483 7.666153 7.617394 27.498186 -0.294375 1.290111 0.039520 0.020013 563525.000000 0 0 1
-26.315243 8.116253 6.711794 28.344554 -0.299167 1.331733 0.035926 0.022966 470297.000000 0 0 1
-25.691953 8.418453 5.510894 27.591969 -0.316644 1.369716 0.032648 0.022688 168538.000000 0 0 1
-26.582273 8.667353 4.229094 28.277650 -0.315188 1.420677 0.018031 0.019572 260557.000000 0 0 1
-27.262063 7.523953 3.653894 28.516327 -0.269283 1.442310 0.022487 0.015308 485083.000000 0 0 1
-26.434833 6.503053 3.102594 27.399201 -0.241213 1.457316 0.032919 0.009929 177511.000000 0 0 1
-25.382663 6.719753 1.995494 26.332806 -0.258801 1.494944 0.051678 0.006364 154449.000000 0 0 1
-24.277163 7.535253 2.267294 25.520606 -0.300956 1.481837 0.045348 0.008791 332809.000000 0 0 1
-23.322563 7.591753 1.235894 24.558178 -0.314694 1.520450 0.054485 0.005836 213512.000000 0 1 0
-22.108863 8.539653 1.453094 23.745294 -0.368601 1.509563 0.051195 0.006956 229965.000000 0 1 0
-22.495963 9.886653 1.508994 24.618922 -0.414076 1.509464 0.037610 0.014370 568893.000000 0 1 0
-21.407363 10.658553 1.995894 23.997157 -0.461960 1.487528 0.047997 0.014532 84765.000000 0 1 0
-21.894763 12.034153 2.544694 25.113283 -0.502564 1.469294 0.051636 0.012273 103159.000000 0 0 1
-20.774263 12.835953 2.820294 24.582225 -0.553461 1.455814 0.036451 0.007302 501301.000000 0 1 0
-21.197163 13.807853 3.674794 25.563268 -0.577359 1.426544 0.032908 -0.001920 -93476.700000 0 0 1
-20.095463 14.377653 4.617794 25.136996 -0.621032 1.386042 0.016543 0.000066 -91792.900000 0 0 1
-19.628863 13.494953 5.584494 24.466152 -0.602291 1.340513 0.023522 -0.004035 -55474.000000 0 1 0
-18.937063 14.234553 6.521694 24.571678 -0.644573 1.302162 0.028424 -0.008976 -192698.000000 0 1 0
-18.203163 13.420353 7.636894 23.870132 -0.635294 1.245135 0.010799 -0.006159 484206.000000 0 1 0
-17.098263 12.677153 7.122094 22.445156 -0.637993 1.247904 0.015887 0.006563 1002420.000000 0 1 0
-16.280663 12.075053 8.177894 21.857375 -0.638155 1.187318 0.000765 0.002516 359044.000000 0 1 0
10.233937 -32.925018 -14.560906 37.427400 -1.269438 1.970390 0.006770 0.010595 34906.400000 0 0 1
11.319437 -32.931318 -13.637406 37.397596 -1.239719 1.944064 -0.010936 0.011391 67369.400000 0 0 1
12.115037 -31.817118 -13.931406 36.785693 -1.206976 1.959207 -0.012589 -0.002936 225794.000000 0 0 1
13.563637 -31.852518 -13.374206 37.113670 -1.168226 1.939448 0.007136 -0.002185 139895.000000 0 0 1
14.536437 -32.593318 -14.050406 38.354221 -1.151278 1.945861 -0.006220 0.001236 -279093.000000 0 0 1
15.831437 -32.237218 -13.613906 38.408476 -1.114301 1.933123 0.011720 0.001851 272740.000000 0 0 1
16.889037 -33.340518 -13.816906 39.846412 -1.101913 1.924905 0.014799 -0.008874 245287.000000 0 0 1
16.525637 34.544853 -13.194506 40.503562 1.124592 1.902614 0.010285 -0.011195 -116399.000000 0 0 1
17.337337 33.547753 -13.827206 40.214757 1.093803 1.921793 0.013674 -0.004001 312647.000000 0 0 1
17.432337 32.153453 -13.057306 38.835862 1.073992 1.913694 0.009240 -0.007964 71477.000000 0 0 1
18.195637 32.236553 -11.877306 38.876046 1.056934 1.881278 0.008920 -0.011838 -310012.000000 0 0 1
18.104037 30.988753 -11.194006 37.594744 1.042066 1.873136 0.004000 -0.014174 613105.000000 0 0 1
19.078737 30.727353 -9.955606 37.513765 1.015148 1.839400 0.008424 -0.006209 1782720.000000 0 0 1
20.429237 30.391653 -10.361906 38.057528 0.978973 1.846547 0.018706 -0.007748 1446990.000000 0 0 1
21.326637 30.337153 -9.226106 38.213733 0.958068 1.814640 0.011796 -0.008253 566673.000000 0 0 1
22.670337 29.643853 -9.502606 38.509762 0.917918 1.820130 0.009021 -0.003866 74506.400000 0 0 1
23.561537 30.301853 -10.373106 39.761158 0.909888 1.834736 0.009243 -0.008304 192799.000000 0 0 1
24.863237 29.744353 -10.408406 40.140279 0.874547 1.833094 0.006012 0.007503 720177.000000 0 0 1
25.870537 30.392153 -11.409306 41.510721 0.865592 1.849232 0.010595 0.002108 171047.000000 0 0 1
26.242237 31.695153 -11.026106 42.600619 0.879239 1.832602 0.003428 -0.008393 -95759.200000 0 0 1
27.240037 32.166553 -11.909806 43.801259 0.868138 1.846169 0.003418 0.004265 182460.000000 0 0 1
27.690437 33.603353 -11.708006 45.089057 0.881569 1.833471 0.007994 -0.002656 -676142.000000 0 0 1
26.808737 34.499353 -12.244606 45.374488 0.910188 1.844040 0.007002 -0.003041 -784888.000000 0 0 1
27.110337 -33.300018 -11.792006 44.529911 -0.887502 1.838804 0.016143 -0.005912 57654.600000 0 0 1
26.046737 -32.163318 -11.909206 43.066701 -0.890092 1.850977 0.017420 -0.016210 -695381.000000 0 0 1
25.049837 -32.280618 -10.966206 42.305913 -0.910860 1.833003 0.011818 -0.005077 226946.000000 0 0 1
23.871537 -31.440918 -11.131906 41.015862 -0.921401 1.845649 0.025306 -0.001516 1205250.000000 0 0 1
24.081037 -29.931518 -11.025906 39.967020 -0.893295 1.850296 0.025077 -0.022384 -789952.000000 0 0 1
24.894937 -29.344018 -12.011906 40.312717 -0.867242 1.873360 0.021271 -0.010431 32741.900000 0 0 1
25.559337 -28.208118 -11.423406 39.742569 -0.834622 1.862344 0.016256 0.000064 200115.000000 0 0 1
26.417237 -27.386818 -12.433106 40.031117 -0.803417 1.886606 0.017945 -0.006594 693684.000000 0 0 1
27.658937 -27.969418 -12.839206 41.378138 -0.790979 1.886294 0.003256 0.002049 354347.000000 0 0 1
27.567737 -29.022818 -13.796606 42.339703 -0.811105 1.902712 0.009650 -0.008326 -220423.000000 0 0 1
28.928537 -29.665418 -14.155406 43.786674 -0.797974 1.899991 0.004792 -0.001465 212756.000000 0 0 1
29.394537 -30.576018 -13.176606 44.413451 -0.805097 1.872011 0.010610 -0.009353 -34333.600000 0 0 1
30.420037 -31.431818 -13.611106 45.810479 -0.801755 1.872469 0.002104 -0.004932 -263521.000000 0 0 1
30.771937 -32.567918 -12.721406 46.576985 -0.813745 1.847438 0.003954 0.001653 -141952.000000 0 0 1
31.590337 -33.546118 -13.349206 47.973875 -0.815415 1.852778 0.002745 -0.004526 222870.000000 0 0 1
32.450837 -34.200718 -12.402306 48.750006 -0.811646 1.828030 0.006137 0.002921 361214.000000 0 0 1
31.858737 33.730053 -11.568406 47.817608 0.813921 1.815148 0.002592 -0.007176 -337275.000000 0 0 1
31.079537 34.191253 -10.542806 47.393356 0.833036 1.795126 0.000992 -0.010438 -645730.000000 0 0 1
30.763037 33.230053 -9.597106 46.289365 0.823930 1.779640 0.007065 -0.003535 -85401.700000 0 0 1
29.977937 33.836053 -8.395106 45.978615 0.845783 1.754414 -0.000558 0.002303 538396.000000 0 0 1
28.630037 34.146853 -8.753806 45.412727 0.873053 1.764772 -0.011000 -0.006101 232224.000000 0 0 1
27.898137 -34.560018 -7.601706 45.060923 -0.891658 1.740305 -0.012561 0.000499 544277.000000 0 0 1
27.083237 -33.234218 -7.829806 43.581198 -0.887024 1.751437 -0.013520 -0.003197 406866.000000 0 0 1
27.910637 -32.072118 -7.734906 43.214039 -0.854665 1.750757 -0.015550 -0.012674 694401.000000 0 0 1
27.164537 -30.919818 -8.122906 41.951505 -0.849961 1.765653 -0.004233 -0.004509 549596.000000 0 0 1
26.035837 -30.388718 -7.195606 40.658526 -0.862391 1.748710 -0.000032 0.003061 356158.000000 0 0 1
25.222137 -29.494218 -7.896706 39.603321 -0.863317 1.771537 0.006844 -0.007096 626410.000000 0 0 1
24.136737 -28.872418 -7.161806 38.307833 -0.874499 1.758857 0.007873 -0.007783 1006350.000000 0 0 1
23.156937 -28.047418 -8.053706 37.252699 -0.880618 1.788708 0.033814 -0.017481 -361224.000000 0 0 1
22.173037 -28.807418 -8.650806 37.367731 -0.914807 1.804420 0.045041 -0.021043 -865680.000000 0 0 1
21.213437 -28.095418 -9.320706 36.417550 -0.924071 1.829616 0.056796 -0.024380 -772843.000000 0 0 1
20.129437 -28.943018 -9.994506 36.643999 -0.963107 1.847042 0.047658 -0.020693 -458876.000000 0 0 1
20.505737 -29.593218 -11.133906 37.685642 -0.964838 1.870714 0.052981 -0.021977 90329.400000 0 0 1
19.518237 -30.437618 -11.754306 38.020703 -1.000594 1.885101 0.054548 -0.018552 487492.000000 0 0 1
19.129737 -31.746318 -11.093706 38.689092 -1.028481 1.861618 0.047519 -0.021863 46606.100000 0 0 1
19.936737 -32.837118 -11.499806 40.099817 -1.025143 1.861660 0.048910 -0.022979 -20234.500000 0 0 1
19.646837 -34.061418 -10.790806 40.775236 -1.047606 1.838628 0.051481 -0.018358 -398555.000000 0 0 1
20.770237 34.072253 -11.053006 41.406402 1.023352 1.841012 0.022610 -0.011836 -342456.000000 0 0 1
21.742837 34.356253 -10.088106 41.891204 1.006562 1.814004 0.001755 -0.008914 -1258320.000000 0 0 1
22.906937 33.619153 -10.252106 41.953318 0.972686 1.817666 0.012063 -0.009618 -886533.000000 0 0 1
23.997437 34.134353 -9.320906 42.754068 0.958040 1.790573 0.002888 -0.006911 -392738.000000 0 0 1
23.975437 33.546753 -8.025306 42.007282 0.950281 1.763024 -0.010354 -0.005869 407994.000000 0 0 1
24.899737 32.449653 -8.035006 41.683789 0.916293 1.764771 -0.005730 0.004702 -42825.100000 0 0 1
25.116537 31.613053 -6.742506 40.935156 0.899419 1.736262 -0.007540 -0.002576 -38028.300000 0 0 1
25.833237 32.300453 -5.743006 41.757126 0.896190 1.708767 -0.017745 -0.000482 -377527.000000 0 0 1
26.808237 31.514353 -5.096506 41.687053 0.865915 1.693359 -0.009713 0.001979 -69581.000000 0 0 1
26.345937 30.597953 -3.920906 40.567433 0.859930 1.667599 -0.013736 0.011018 -285974.000000 0 0 1
26.198037 31.157953 -2.644206 40.793958 0.871660 1.635660 -0.010411 0.012352 -39239.200000 0 0 1
26.128137 30.256553 -1.539906 40.006373 0.858486 1.609297 -0.007840 0.019177 293981.000000 0 0 1
24.879737 29.305153 -1.462006 38.469869 0.866890 1.608809 -0.006289 0.025363 318921.000000 0 0 1
23.749137 29.974453 -0.947106 38.254233 0.900760 1.595557 -0.011213 0.026414 -907474.000000 0 0 1
22.599337 29.351953 -1.425706 37.071550 0.914653 1.609264 -0.004371 0.026528 -76178.200000 0 0 1
21.278737 29.909853 -0.828706 36.716083 0.952441 1.593369 0.011911 0.016484 267975.000000 0 0 1
21.067037 29.434353 0.471394 36.199771 0.949591 1.557774 0.025090 0.003953 492335.000000 0 0 1
19.921737 30.052953 1.077694 36.072386 0.985414 1.540916 0.037414 0.000194 277485.000000 0 0 1
19.447037 29.276753 2.304194 35.222505 0.984470 1.505331 0.035466 -0.009865 -174045.000000 0 0 1
18.891237 28.028253 1.963194 33.857288 0.977729 1.512779 0.045894 -0.005207 251145.000000 0 0 1
18.384437 27.193353 3.003994 32.961947 0.976316 1.479534 0.057703 -0.015900 138071.000000 0 0 1
17.929737 25.776453 2.455294 31.494912 0.963039 1.492759 0.047280 -0.008854 -35210.300000 0 0 1
18.951437 25.006653 1.881594 31.432946 0.922286 1.510900 0.045907 -0.000601 -383891.000000 0 0 1
19.745537 24.323353 2.793294 31.453366 0.888906 1.481872 0.042229 0.004471 -558568.000000 0 0 1
20.977237 23.675553 2.140394 31.704220 0.845754 1.503234 0.038035 0.014843 -305945.000000 0 0 1
20.667337 22.616353 1.296394 30.664620 0.830397 1.528507 0.042463 0.005607 436811.000000 0 0 1
21.847937 22.067753 0.736994 31.062216 0.790404 1.547068 0.028096 -0.000605 213844.000000 0 0 1
21.482337 20.894453 -0.179006 29.968334 0.771526 1.576770 0.051020 -0.007794 -102390.000000 0 0 1
20.905037 21.383653 -1.397206 29.937157 0.796716 1.617485 0.042063 -0.001251 384205.000000 0 0 1
21.225237 20.593953 -2.512906 29.680571 0.770304 1.655563 0.073353 -0.017128 -26542.300000 0 0 1
21.033737 21.334453 -3.870806 30.208610 0.792496 1.699285 0.047820 -0.014276 -220284.000000 0 0 1
21.997837 22.354553 -4.059706 31.624549 0.793441 1.699524 0.024538 0.003145 321934.000000 0 0 1
21.665637 23.210153 -5.131406 32.162748 0.819802 1.731026 0.039023 -0.006589 -378666.000000 0 0 1
22.801937 24.202853 -5.448406 33.695572 0.815193 1.733204 0.027132 0.004721 -77913.500000 0 0 1
22.936337 25.393153 -4.667406 34.535090 0.836189 1.706361 -0.003036 0.010769 66391.600000 0 0 1
23.353637 25.267353 -3.289806 34.563772 0.824738 1.666121 0.009136 0.014950 -339064.000000 0 0 1
22.210437 24.976553 -2.319106 33.503880 0.843951 1.640071 0.011189 0.012267 -492249.000000 0 0 1
21.106337 25.915353 -2.299306 33.501788 0.887316 1.639483 0.017955 0.005746 849510.000000 0 0 1
20.321737 25.575853 -1.170606 32.687422 0.899377 1.606616 0.043413 0.006263 -71966.900000 0 0 1
19.245237 24.460153 -1.363906 31.153467 0.904156 1.614591 0.062389 -0.012439 -1056750.000000 0 0 1
18.382837 24.816253 -2.376006 30.974514 0.933236 1.647580 0.045421 -0.006222 -634817.000000 0 0 1
17.568337 23.788153 -2.805406 29.705101 0.934675 1.665379 0.051379 -0.014884 -166318.000000 0 0 1
17.204137 24.047253 -4.289106 29.877235 0.949789 1.714852 0.050124 -0.030487 -210226.000000 0 0 1
16.279037 23.154353 -4.835806 28.714389 0.958016 1.740013 0.046747 -0.032357 -181635.000000 0 0 1
16.075337 23.475853 -6.173606 29.114353 0.970372 1.784465 0.041453 -0.028925 90480.000000 0 0 1
15.191737 22.481953 -6.975706 28.015845 0.976545 1.822435 0.044883 -0.017045 -412621.000000 0 0 1
15.786237 21.187953 -7.116306 27.363780 0.930466 1.833884 0.032002 -0.018990 -67586.400000 0 0 1
15.101537 20.371753 -8.017606 26.595992 0.932888 1.877019 0.029433 -0.009006 -652195.000000 0 0 1
15.725637 19.017853 -8.504906 26.101874 0.879874 1.902691 0.010476 -0.004471 -256341.000000 0 0 1
16.857437 19.312953 -9.297206 27.269056 0.853182 1.918717 0.018717 -0.004051 -33673.800000 0 0 1
17.289537 18.131653 -9.877806 26.930577 0.809168 1.946350 0.009668 0.001923 -1102470.000000 0 0 1
18.652637 18.265953 -10.502106 28.140010 0.774925 1.953262 0.007526 0.005020 -1013570.000000 0 0 1
18.765637 18.815753 -11.796506 29.074719 0.786732 1.988574 0.012777 0.002333 -456130.000000 0 0 1
20.060137 19.266853 -12.044206 30.309794 0.765229 1.979446 0.022344 0.014310 -575653.000000 0 0 1
20.212437 19.796353 -13.466106 31.333277 0.774999 2.015035 0.027465 0.006161 -177183.000000 0 0 1
20.197437 18.731353 -14.384606 31.075987 0.747755 2.052043 0.023306 0.010270 275769.000000 0 0 1
20.471837 19.178153 -15.688106 32.140541 0.752782 2.080719 0.020856 0.005157 -10348.900000 0 0 1
20.415937 18.071053 -16.820706 32.036067 0.724547 2.123576 0.018843 0.007274 -744900.000000 0 0 1
21.566837 17.322953 -16.939106 32.436808 0.676702 2.120247 0.030204 -0.004223 -953093.000000 0 0 1
21.566237 16.428953 -18.083506 32.588745 0.651004 2.159040 0.032191 -0.005515 166802.000000 0 0 1
22.551637 16.836753 -19.229206 34.085407 0.641313 2.170197 0.028567 -0.001575 712623.000000 0 0 1
23.942337 16.819453 -18.875306 34.819631 0.612401 2.143716 0.043253 -0.005813 690202.000000 0 0 1
24.680837 17.196953 -20.030406 36.139951 0.608557 2.158253 0.057051 -0.006023 -263400.000000 0 0 1
26.158937 17.437153 -19.703606 37.102243 0.587946 2.130650 0.055141 -0.014398 -280068.000000 0 0 1
26.336737 18.509053 -18.797906 37.276937 0.612592 2.099341 0.049913 -0.011334 1327380.000000 0 0 1
27.709937 18.964453 -18.607006 38.388954 0.600174 2.076813 0.056041 -0.018124 1406800.000000 0 0 1
27.775837 20.010053 -17.474606 38.435156 0.624295 2.042777 0.044755 -0.014524 221000.000000 0 0 1
27.103937 19.702153 -16.252206 37.241542 0.628560 2.022390 0.029615 -0.012445 -53368.700000 0 0 1
25.825837 20.300053 -16.238506 36.643623 0.666169 2.029902 0.026467 -0.007392 93290.300000 0 0 1
24.911437 19.898453 -15.034006 35.249815 0.673989 2.011415 0.030126 -0.005392 173662.000000 0 0 1
25.436737 20.297553 -13.788006 35.342996 0.673497 1.971558 0.024669 -0.000824 -171180.000000 0 0 1
24.565337 19.930453 -12.758406 34.109466 0.681608 1.954161 0.032455 -0.003346 -335309.000000 0 0 1
25.036537 20.268553 -11.319506 34.143428 0.680542 1.908719 0.028443 -0.000034 -291665.000000 0 0 1
24.923037 21.635753 -10.976406 34.781390 0.714910 1.891867 0.030587 -0.002237 -98264.200000 0 0 1
25.498337 22.056953 -9.766906 35.100810 0.713158 1.852771 0.026488 0.001117 128782.000000 0 0 1
24.653237 21.753053 -8.494406 33.957803 0.722984 1.823627 0.028446 -0.000890 -39587.600000 0 0 1
24.717937 20.354653 -8.214706 33.057068 0.688893 1.821928 0.035828 -0.005674 158013.000000 0 0 1
24.019137 19.920153 -7.062306 31.993868 0.692380 1.793369 0.039525 -0.008722 772987.000000 0 0 1
22.489137 19.568253 -7.185706 30.664510 0.716060 1.807329 0.034845 -0.002208 1164580.000000 0 0 1
21.608237 20.687353 -7.253406 30.781397 0.763629 1.808676 0.031674 -0.004975 380562.000000 0 0 1
20.295337 20.383353 -7.689006 29.774194 0.787562 1.832000 0.036730 -0.012307 192506.000000 0 0 1
19.359837 21.613153 -7.557406 29.984097 0.840338 1.825591 0.034637 -0.015195 -565195.000000 0 0 1
19.630437 22.636953 -8.507706 31.147500 0.856409 1.847455 0.029639 -0.008093 -21391.200000 0 0 1
19.217737 22.508253 -9.831806 31.186653 0.864095 1.891524 0.021845 -0.001389 487156.000000 0 0 1
17.660337 22.557253 -10.033206 30.354282 0.906562 1.907669 0.027931 -0.003740 344523.000000 0 0 1
17.257137 23.907453 -9.869006 31.092964 0.945569 1.893786 0.028518 -0.007108 261557.000000 0 0 1
15.921437 24.093053 -10.331006 30.670785 0.986845 1.914350 0.016301 0.003040 494007.000000 0 0 1
15.391537 25.527453 -10.016706 31.446537 1.028217 1.894976 0.040321 -0.003133 -77830.700000 0 0 1
16.090237 26.527053 -10.706406 32.820838 1.025568 1.903085 0.028923 0.000202 61701.600000 0 0 1
16.362637 27.726453 -9.965906 33.701801 1.037654 1.870993 0.049603 -0.011243 -133237.000000 0 0 1
19.140637 29.173853 34.274687 48.910448 0.990153 0.794328 0.017165 0.002311 187808.000000 0 0 1
17.849237 29.685753 34.058154 48.577742 1.029441 0.793849 0.023081 -0.007192 139723.000000 0 0 1
16.817437 28.706353 34.155018 47.680669 1.040851 0.772270 0.023673 -0.006153 -269.884000 0 0 1
15.395437 29.239953 34.013606 47.422777 1.086158 0.770960 0.028421 -0.011722 -448029.000000 0 0 1
15.138537 29.650353 32.722326 46.680503 1.098730 0.794019 0.042258 -0.011629 -4063.570000 0 0 1
13.754337 29.937753 32.674316 46.401097 1.140127 0.789541 0.032373 -0.004240 -177768.000000 0 0 1
13.206437 29.746753 31.251356 45.121243 1.152975 0.805697 0.038706 -0.001734 -180404.000000 0 0 1
12.836937 28.439753 30.816746 43.855198 1.146801 0.791621 0.028399 -0.009627 -399228.000000 0 0 1
11.504437 28.151753 31.093086 43.493141 1.182849 0.774321 0.021775 -0.010358 -897722.000000 0 0 1
11.246137 26.644653 31.165836 42.517320 1.171403 0.748052 0.006332 -0.013287 -136376.000000 0 0 1
11.327937 25.912553 29.925926 41.174551 1.158671 0.757136 0.006698 -0.011486 -6334.790000 0 0 1
12.622037 25.745853 29.404126 41.070274 1.114975 0.772817 0.013585 -0.009215 -464992.000000 0 0 1
12.639837 24.969553 28.078776 39.644189 1.102193 0.783752 0.028543 -0.017311 -173691.000000 0 0 1
12.095737 25.709053 26.948636 39.159817 1.131038 0.811832 0.026813 -0.015587 392629.000000 0 0 1
12.165037 25.097853 25.681246 37.913280 1.119460 0.826617 0.024238 -0.018392 -246643.000000 0 0 1
11.213437 23.909853 25.565096 36.755903 1.132265 0.801629 0.015200 -0.015960 -911327.000000 0 0 1
11.277137 23.298053 24.288906 35.495409 1.120000 0.817176 0.028124 -0.019470 685012.000000 0 0 1
10.268337 22.279153 24.090466 34.382408 1.138920 0.794471 0.015410 -0.018023 540765.000000 0 0 1
10.346237 21.910353 22.620596 33.148146 1.129629 0.819743 0.026951 -0.014299 -314697.000000 0 0 1
10.138937 23.050153 21.749296 33.273706 1.156403 0.858401 0.023178 -0.017623 145213.000000 0 0 1
10.270137 22.646753 20.415796 32.173839 1.145042 0.883375 0.024642 -0.006127 -998670.000000 0 0 1
10.119137 23.699853 19.322096 32.209058 1.167258 0.927425 0.019377 -0.006548 10241.400000 0 0 1
8.830537 24.165653 18.958796 31.959242 1.220454 0.935746 0.022722 -0.008291 86172.300000 0 0 1
8.222237 24.905853 20.031596 33.002599 1.251929 0.918554 0.012017 -0.007562 -546576.000000 0 0 1
6.971837 25.721253 19.632196 33.100038 1.306103 0.935871 0.009312 -0.007140 -176425.000000 0 0 1
7.121637 26.863453 18.793296 33.549230 1.311652 0.976204 0.010877 -0.011968 21477.300000 0 0 1
5.858837 27.475053 18.613896 33.699876 1.360701 0.985624 0.010469 -0.017781 -57763.200000 0 0 1
5.990337 28.541353 17.478896 34.000071 1.363916 1.030857 0.009679 -0.012501 73549.600000 0 0 1
6.166137 27.947153 16.187696 32.880178 1.353640 1.056039 0.011322 -0.013266 139046.000000 0 0 1
6.869037 28.798653 15.270396 33.312627 1.336652 1.094606 0.002251 -0.005331 175619.000000 0 0 1
7.462837 28.105053 14.010696 32.278283 1.311252 1.121802 0.009282 -0.009303 366371.000000 0 0 1
6.606037 28.180653 12.876796 31.679660 1.340537 1.152210 0.009280 -0.015742 -126969.000000 0 0 1
6.701937 26.970653 12.167596 30.337806 1.327239 1.158111 0.008818 -0.022313 16356.400000 0 0 1
6.104937 26.904753 10.733496 29.603107 1.347665 1.199761 0.010794 -0.022472 -833316.000000 0 0 1
6.825037 27.638353 9.748996 30.091571 1.328699 1.240865 0.000327 -0.016793 238671.000000 0 0 1
6.732237 29.084153 9.833396 31.430983 1.343328 1.252597 -0.009909 -0.008514 -367689.000000 0 0 1
6.957437 29.940753 8.557596 31.907477 1.342475 1.299272 -0.015521 0.001214 -524261.000000 0 0 1
5.963937 29.856953 7.560196 31.371369 1.373641 1.327410 -0.007674 -0.005984 -126792.000000 0 0 1
6.058937 28.758753 6.704396 30.145075 1.363152 1.346516 -0.002360 0.002834 -1064530.000000 0 0 1
4.694037 28.239753 6.350896 29.323225 1.406081 1.352484 0.005115 0.005385 -878016.000000 0 0 1
3.962737 29.139553 5.559996 29.928756 1.435634 1.383936 0.001748 0.000779 320569.000000 0 0 1
2.553037 29.006453 5.780596 29.686826 1.483006 1.374825 0.028111 -0.008717 292588.000000 0 0 1
1.827237 30.075253 5.081496 30.556199 1.510115 1.403720 0.034816 -0.007213 -911809.000000 0 0 1
2.113737 30.134753 3.660196 30.429727 1.500768 1.450221 0.024443 -0.010963 80456.300000 0 0 1
1.258937 30.966153 2.921796 31.129158 1.530163 1.476798 0.019089 -0.016746 -123454.000000 0 0 1
-0.080663 30.352153 2.482196 30.453588 -1.568139 1.489198 0.033709 -0.012026 -298078.000000 0 0 1
-0.034063 29.461153 1.367796 29.492907 -1.569640 1.524403 0.032060 -0.004869 -15052.300000 0 0 1
-1.162363 28.585953 1.400096 28.643814 -1.530157 1.521897 0.028315 -0.001649 475595.000000 0 0 1
-1.568763 28.036353 -0.015904 28.080213 -1.514900 1.571363 0.027167 -0.007202 40585.000000 0 0 1
-2.388163 28.992553 -0.677504 29.098634 -1.488610 1.594081 0.030309 -0.007813 21525.600000 0 0 1
-1.741263 29.700853 -1.718804 29.801459 -1.512237 1.628504 0.029441 -0.002160 -249816.000000 0 0 1
-2.675663 30.766853 -2.400304 30.976118 -1.484049 1.648363 0.024909 -0.005262 -269375.000000 0 0 1
-3.840463 30.370053 -3.033304 30.761831 -1.445008 1.669563 -0.001352 -0.000232 -597722.000000 0 0 1
-3.702063 29.401653 -4.051904 29.909537 -1.445542 1.706686 -0.002391 0.002011 -339116.000000 0 0 1
-5.032863 29.099353 -4.801804 29.919215 -1.399536 1.731986 0.001065 0.005760 243902.000000 0 0 1
-5.508963 30.219753 -5.492904 31.205034 -1.390480 1.747744 -0.002737 0.008044 -34292.600000 0 0 1
-6.566563 29.820253 -6.357704 31.189544 -1.354051 1.776076 -0.008791 0.007325 121579.000000 0 0 1
-7.161263 30.990953 -7.184904 32.608982 -1.343706 1.792954 -0.006200 -0.000431 2795.450000 0 0 1
-7.967563 31.841853 -6.384904 33.438790 -1.325608 1.762919 -0.010190 0.014992 41240.100000 0 0 1
-8.184663 33.128253 -6.996304 34.834152 -1.328587 1.773018 -0.003302 0.005871 46413.800000 0 0 1
-9.249363 34.060553 -6.345504 35.859970 -1.305634 1.748685 -0.000676 0.005823 242455.000000 0 0 1
-10.538063 33.478153 -6.405504 35.677276 -1.265841 1.751315 0.000998 0.004198 -590527.000000 0 0 1
-11.437163 34.409653 -5.865404 36.731947 -1.249902 1.731164 0.003975 0.006165 -376455.000000 0 0 1
-12.912363 34.040153 -6.050004 36.906147 -1.208237 1.735469 0.012317 0.003991 -185370.000000 0 0 1
-13.325363 34.174253 -7.397904 37.418897 -1.199006 1.769813 0.016701 0.000240 256169.000000 0 0 1
-14.685663 33.801953 -7.602304 37.630251 -1.160939 1.774223 0.022198 -0.005219 -311807.000000 0 0 1
-15.103763 34.040853 -9.047804 38.324485 -1.153198 1.809130 0.032544 -0.005394 683950.000000 0 0 1
-16.480563 33.857453 -9.403904 38.811977 -1.117794 1.815526 0.042985 -0.006233 844196.000000 0 0 1
-17.396663 -34.340218 -8.842804 39.497970 1.101885 1.796590 0.050842 0.001632 -1471370.000000 0 0 1
-18.832863 34.348353 -9.054404 40.205327 -1.069267 1.797949 0.044273 0.000526 -835080.000000 0 0 1
-19.208363 33.266753 -8.260604 39.292183 -1.047157 1.782612 0.031258 -0.008401 -53477.100000 0 0 1
-19.213563 33.450153 -6.847604 39.178610 -1.049418 1.746478 0.033000 -0.018050 -909732.000000 0 0 1
-19.887463 32.326453 -6.081904 38.438267 -1.019270 1.729689 0.034921 -0.014347 -416974.000000 0 0 1
-19.915163 32.492753 -4.699004 38.398872 -1.020938 1.693477 0.036735 -0.008970 -691163.000000 0 0 1
-21.160263 32.624753 -4.097204 39.101386 -0.995409 1.675773 0.043730 -0.014120 -637591.000000 0 0 1
-21.607263 34.113453 -3.942704 40.572730 -1.006184 1.668126 0.044012 -0.010680 -144533.000000 0 0 1
-21.954163 -34.353718 -5.159104 41.094763 1.002149 1.696670 0.053445 -0.016916 259333.000000 0 0 1
-22.804563 -33.246018 -4.923104 40.615056 0.969573 1.692309 0.049405 -0.018346 329178.000000 0 0 1
-23.519363 -32.641718 -6.187304 40.705342 0.946424 1.723390 0.050878 0.000793 99240.400000 0 0 1
-22.580363 -32.029718 -7.030804 39.814668 0.956735 1.748316 0.056146 0.010723 -96224.300000 0 0 1
-22.711163 -32.518418 -8.330604 40.529537 0.961139 1.777816 0.040820 0.010977 -540805.000000 0 0 1
-23.921763 -32.144418 -9.141904 41.098525 0.931020 1.795111 0.026801 0.014331 -833657.000000 0 0 1
-25.174313 -32.764518 -8.778304 42.241192 0.915660 1.780136 0.022931 0.016454 296739.000000 0 0 1
-26.193683 -32.433418 -9.659304 42.794132 0.891430 1.798474 0.007894 0.009322 -415519.000000 0 0 1
-26.744213 -31.010518 -9.546404 42.048056 0.859134 1.799829 -0.001603 0.020792 -964260.000000 0 0 1
-26.029173 -29.917918 -10.173104 40.940099 0.854794 1.821915 0.000200 0.015995 235400.000000 0 0 1
-26.494793 -29.685818 -11.526804 41.425705 0.842137 1.852771 -0.014048 0.017892 -68191.300000 0 0 1
-25.493703 -28.788118 -12.301304 40.373341 0.846015 1.880408 0.014439 0.022028 -461316.000000 0 0 1
-24.319663 -29.483518 -12.548504 40.226717 0.881082 1.888035 0.008044 0.014950 -675300.000000 0 0 1
-23.508063 -28.760018 -13.460004 39.508725 0.885543 1.918441 0.001831 0.013827 275113.000000 0 0 1
-22.194963 -29.473318 -13.920304 39.434347 0.925344 1.931571 0.014906 0.004340 343157.000000 0 0 1
-22.373063 -30.648318 -14.687804 40.689125 0.940223 1.940111 0.020583 0.003999 -81233.800000 0 0 1
-22.606763 -31.855418 -13.956604 41.480359 0.953611 1.913955 0.005846 0.005673 -67901.000000 0 0 1
-22.818463 -33.022118 -14.866904 42.803824 0.966133 1.925515 -0.003476 0.005684 -190158.000000 0 0 1
-23.065363 -34.188318 -14.092404 43.582656 0.977283 1.900063 -0.001050 -0.000637 -87864.400000 0 0 1
-23.248563 33.810953 -14.917904 43.660281 -0.968438 1.919502 0.014187 -0.003565 -243938.000000 0 0 1
-23.663263 32.581553 -13.996704 42.631155 -0.942651 1.905322 0.001102 -0.001042 -372202.000000 0 0 1
-22.769763 32.027853 -12.983104 41.386066 -0.952768 1.889891 0.006988 -0.000733 435342.000000 0 0 1
-22.533863 32.938453 -11.927204 41.653030 -0.970808 1.861208 0.027584 0.002144 300941.000000 0 0 1
-21.606263 32.258253 -10.869504 40.318378 -0.980634 1.843765 0.019603 0.002467 569242.000000 0 0 1
-22.362763 31.230653 -10.189804 39.740143 -0.949378 1.830103 0.022294 -0.008488 697084.000000 0 0 1
-21.767363 30.830153 -8.944204 38.785503 -0.956027 1.803498 0.023616 -0.005405 -186751.000000 0 0 1
-22.507063 29.717753 -8.167704 38.163125 -0.922601 1.786486 0.022713 -0.005713 -211433.000000 0 0 1
-22.546463 28.393253 -8.625904 37.268298 -0.899677 1.804369 0.030539 -0.012244 -100910.000000 0 0 1
-23.162663 27.449853 -7.801404 36.754120 -0.869903 1.784683 0.026877 -0.010399 -44179.200000 0 0 1
-22.367463 27.022753 -6.514104 35.678651 -0.879376 1.754403 0.024257 -0.008063 -10602.100000 0 0 1
-22.420463 27.894153 -5.409604 36.194264 -0.893761 1.720819 0.031330 -0.003270 59630.400000 0 0 1
-21.393663 27.597753 -4.495604 35.207034 -0.911364 1.698836 0.025429 -0.003407 -317650.000000 0 0 1
-20.082863 28.370153 -4.621504 35.064873 -0.954797 1.702980 0.026704 0.001467 -74681.400000 0 0 1
-19.321763 27.958053 -5.777704 34.472672 -0.966070 1.739194 0.030686 -0.003354 1161830.000000 0 0 1
-18.139363 28.784553 -5.955404 34.540612 -1.008483 1.744080 0.024165 -0.001328 1248190.000000 0 0 1
-17.113063 28.546953 -7.104304 34.033169 -1.030766 1.781089 0.022098 0.004088 91077.200000 0 0 1
-17.361963 28.955453 -8.438604 34.800375 -1.030664 1.815724 0.019482 -0.006251 -84597.000000 0 0 1
-17.466163 30.336153 -8.646204 36.056981 -1.048396 1.812949 0.020739 -0.005157 -139512.000000 0 0 1
-17.537763 30.906053 -10.126704 36.950066 -1.054652 1.848413 0.024351 -0.000387 15716.300000 0 0 1
-16.217163 30.805853 -10.612404 36.395331 -1.086228 1.866682 0.015535 -0.006446 -69859.000000 0 0 1
-16.163963 31.372453 -11.887904 37.240123 -1.095041 1.895706 0.026172 -0.013412 1043060.000000 0 0 1
-14.687363 31.592353 -12.427904 36.989839 -1.135619 1.913444 0.028878 -0.011000 1216100.000000 0 0 1
-14.559463 32.329353 -13.655504 37.995235 -1.147653 1.938422 0.033348 -0.016945 -188305.000000 0 0 1
-14.896463 31.522853 -14.796404 37.875170 -1.129340 1.972147 0.030618 -0.015918 38350.200000 0 0 1
-14.645563 32.263753 -16.164604 38.945304 -1.144677 1.998804 0.052566 -0.019911 1413530.000000 0 0 1
-13.229263 32.321853 -16.467104 38.611930 -1.182300 2.011391 0.052863 -0.019876 846239.000000 0 0 1
-12.973763 33.162353 -17.531704 39.691572 -1.197882 2.028287 0.038621 -0.023190 850114.000000 0 0 1
-11.426763 33.112453 -17.829904 39.305355 -1.238503 2.041625 0.047734 -0.024329 929102.000000 0 0 1
-10.989563 31.844753 -18.277004 38.326332 -1.238495 2.067896 0.042262 -0.024677 -1407620.000000 0 0 1
-9.635763 31.690953 -18.410304 37.895960 -1.275624 2.078088 0.039063 -0.015097 -1095020.000000 0 0 1
-9.261963 31.376353 -19.857304 38.269727 -1.283759 2.116334 0.040408 -0.025397 -384532.000000 0 0 1
-9.729563 30.092953 -20.278904 37.569724 -1.258087 2.140957 0.037917 -0.026217 18959.400000 0 0 1
-9.379363 29.820853 -21.622804 38.010543 -1.266069 2.175919 0.025793 -0.024895 -197241.000000 0 0 1
-10.548363 29.681253 -22.660004 38.803615 -1.229330 2.194402 0.023950 -0.028335 1078820.000000 0 0 1
-11.372863 30.867853 -22.925504 40.096697 -1.217792 2.179440 0.031109 -0.030691 1379260.000000 0 0 1
-12.333263 31.185653 -21.862604 40.032834 -1.194194 2.148518 0.024654 -0.029492 321233.000000 0 0 1
-13.152563 32.473753 -22.078504 41.412497 -1.185969 2.133100 0.037801 -0.033001 312219.000000 0 0 1
-14.087163 32.444453 -23.134404 42.264540 -1.161165 2.150017 0.036468 -0.036025 -98887.700000 0 0 1
-14.842663 33.643053 -23.208504 43.483265 -1.155301 2.133806 0.044336 -0.033359 326112.000000 0 0 1
-15.321963 33.894953 -24.641704 44.618875 -1.146245 2.155882 0.041860 -0.021171 59671.900000 0 0 1
-14.222263 34.035753 -25.523304 44.856932 -1.174987 2.176078 0.041860 -0.020716 66477.800000 0 0 1
-14.533063 33.960653 -26.925404 45.711194 -1.166440 2.200658 0.045474 -0.009835 -58846.400000 0 0 1
-15.186863 -33.961318 -27.580704 46.310983 1.150289 2.208752 0.041055 -0.005524 -194237.000000 0 0 1
-16.454063 -33.626818 -27.082304 46.205522 1.115734 2.197067 0.043752 -0.007376 -479115.000000 0 0 1
-16.956163 -32.583118 -27.922404 46.139264 1.090964 2.220784 0.030846 0.002168 -530645.000000 0 0 1
-18.393463 -32.254518 -27.554604 46.237751 1.052532 2.209223 0.040859 -0.013705 -328317.000000 0 0 1
-19.364063 -33.125218 -28.113004 47.566669 1.041798 2.203123 0.039154 -0.014044 -20345.600000 0 0 1
-20.693863 -32.732818 -27.779004 47.658644 1.007032 2.193058 0.041316 -0.018571 897720.000000 0 0 1
-21.699563 -33.904618 -28.023504 49.048047 1.001470 2.178944 0.033875 -0.007328 198623.000000 0 0 1
-21.615763 34.224153 -27.070804 48.696636 -1.007469 2.160250 0.049371 -0.015088 29893.900000 0 0 1
-22.844363 33.506153 -27.120904 48.785968 -0.972393 2.160261 0.035929 -0.009896 459140.000000 0 0 1
-22.763763 31.974753 -26.880004 47.572139 -0.952109 2.171274 0.049011 -0.014912 27527.100000 0 0 1
-22.442163 31.616853 -25.541704 46.429029 -0.953512 2.153309 0.069068 -0.023801 -283171.000000 0 0 1
-22.727263 30.256253 -25.299004 45.519325 -0.926554 2.160104 0.047340 -0.020914 -161038.000000 0 0 1
30.045349 10.102853 -26.931816 41.594631 0.324376 2.275073 0.018008 -0.004950 -1767.660000 0 0 1
29.897579 8.729053 -26.820796 41.102514 0.284069 2.281720 -0.000546 -0.002269 198774.000000 0 0 1
28.561159 8.400753 -26.482226 39.844959 0.286065 2.297797 0.008888 -0.006979 212806.000000 0 0 1
28.265329 6.964353 -26.065106 39.074554 0.241580 2.301053 -0.005851 -0.002114 -253011.000000 0 0 1
28.688419 6.635353 -24.818406 38.509824 0.227294 2.271126 -0.005640 0.011399 -121762.000000 0 0 1
28.251959 5.372553 -24.424806 37.730739 0.187922 2.274892 -0.005959 0.008575 -82056.800000 0 0 1
28.168849 5.224753 -22.916706 36.687294 0.183396 2.245479 -0.007872 0.012203 397044.000000 0 0 1
29.460039 5.039253 -22.332206 37.309722 0.169414 2.212502 -0.013497 0.013669 676937.000000 0 0 1
29.344219 5.050053 -20.920006 36.390011 0.170428 2.183258 -0.005577 0.011592 -306053.000000 0 0 1
30.665289 4.723253 -20.214706 37.031114 0.152825 2.148241 -0.004807 0.011105 -277180.000000 0 0 1
30.971149 3.378653 -20.347706 37.210973 0.108661 2.149358 0.004485 0.011714 -61215.700000 0 0 1
32.155989 3.097853 -19.649606 37.811524 0.096042 2.117264 0.011998 0.004224 -406570.000000 0 0 1
32.528409 1.625253 -19.654506 38.039958 0.049923 2.113766 0.009395 0.009635 -338328.000000 0 0 1
31.552409 0.787853 -19.087106 36.884859 0.024964 2.114697 0.010581 0.008038 -332731.000000 0 0 1
31.954669 -0.606547 -19.136106 37.251299 -0.018979 2.110292 0.012189 0.006947 116397.000000 0 0 1
30.945459 -1.636747 -18.544006 36.113440 -0.052842 2.110047 -0.002830 0.008683 252761.000000 0 0 1
30.941769 -1.677747 -17.142806 35.413044 -0.054170 2.076110 0.002118 0.006159 -677215.000000 0 0 1
29.620199 -1.694847 -16.719606 34.055453 -0.057157 2.083979 -0.001235 0.002938 -711881.000000 0 0 1
29.262629 -1.924947 -15.233606 33.046477 -0.065687 2.049890 0.010671 0.003624 -149429.000000 0 0 1
29.426649 -3.252247 -14.731806 33.068578 -0.110074 2.032521 0.007337 0.005588 1232510.000000 0 0 1
28.330869 -3.525747 -13.809906 31.714074 -0.123812 2.021335 0.009216 -0.000342 639898.000000 0 0 1
28.304229 -4.973047 -13.244406 31.642927 -0.173925 2.002653 0.015875 -0.000280 -215327.000000 0 0 1
27.931289 -5.879847 -14.286006 31.918951 -0.207482 2.034844 0.002079 0.004494 330626.000000 0 0 1
27.358589 -7.003847 -13.705906 31.391051 -0.250619 2.022633 0.008968 0.000654 -377035.000000 0 0 1
26.842719 -7.952847 -14.813806 31.673777 -0.288037 2.057482 0.001602 0.002253 198283.000000 0 0 1
25.555259 -7.548347 -15.275806 30.714802 -0.287207 2.091330 0.004828 -0.002236 420166.000000 0 0 1
24.975539 -8.588147 -16.049606 30.905075 -0.331197 2.116851 0.000750 -0.003779 -78814.300000 0 0 1
23.580339 -8.327947 -16.635306 30.035320 -0.339499 2.157787 -0.011584 -0.005580 -299735.000000 0 0 1
23.546839 -7.300247 -17.620206 30.302127 -0.300634 2.191348 -0.012859 -0.006423 -697177.000000 0 0 1
22.307939 -6.972347 -18.160706 29.598463 -0.302930 2.231369 0.015566 -0.013637 -499669.000000 0 0 1
22.082839 -7.414147 -19.606006 30.446951 -0.323917 2.270433 0.011745 -0.012240 90708.800000 0 0 1
22.932539 -6.743947 -20.533706 31.512144 -0.286015 2.280505 0.018373 -0.013088 405208.000000 0 0 1
22.446239 -6.885947 -21.869106 32.085942 -0.297661 2.320715 0.024468 -0.019375 -106251.000000 0 0 1
23.036239 -5.906047 -22.871106 32.994502 -0.250975 2.336687 0.034882 -0.022267 -281689.000000 0 0 1
22.856739 -6.374447 -24.186306 33.882761 -0.271976 2.365739 0.045003 -0.026285 177096.000000 0 0 1
22.960439 -5.340047 -25.123776 34.451444 -0.228514 2.388024 0.046212 -0.022301 -178797.000000 0 0 1
22.797139 -5.699247 -26.615386 35.504503 -0.244977 2.418305 0.054979 -0.026832 -878771.000000 0 0 1
21.537839 -6.179947 -26.914446 35.020817 -0.279427 2.447332 0.062029 -0.028148 -916650.000000 0 0 1
21.522939 -6.279447 -28.325536 36.124844 -0.283876 2.472043 0.063031 -0.028404 115182.000000 0 0 1
20.129039 -6.820447 -28.681966 35.698065 -0.326695 2.503881 0.043455 -0.033565 19740.700000 0 0 1
20.047239 -8.210547 -28.354896 35.683399 -0.388720 2.489185 0.036548 -0.026682 418415.000000 0 0 1
19.126839 -8.814547 -29.270626 36.059697 -0.431838 2.517899 0.023429 -0.021196 139520.000000 0 0 1
19.078939 -10.358347 -29.037396 36.255643 -0.497392 2.499605 0.038666 -0.009390 -111343.000000 0 0 1
18.176639 -10.759047 -28.017706 35.087592 -0.534454 2.495608 0.044705 -0.007379 276357.000000 0 0 1
18.355039 -12.137547 -27.577926 35.281291 -0.584254 2.468117 0.039910 -0.008284 -366490.000000 0 0 1
18.160639 -13.357847 -28.516456 36.351467 -0.634181 2.472629 0.031952 0.001528 -138575.000000 0 0 1
16.904539 -13.492047 -29.144916 36.293593 -0.673601 2.503162 0.036273 0.005714 112914.000000 0 0 1
16.964739 -14.486747 -30.183596 37.532888 -0.706773 2.505109 0.018095 0.004253 -689774.000000 0 0 1
15.754139 -14.665347 -31.090736 37.814007 -0.749621 2.536064 0.014256 0.004564 -1479190.000000 0 0 1
14.824639 -15.461647 -30.529186 37.294284 -0.806428 2.529770 0.000963 0.001722 -551425.000000 0 0 1
13.809339 -15.813847 -31.470036 37.830395 -0.852962 2.553268 -0.005293 0.002659 -463462.000000 0 0 1
12.691139 -16.614647 -30.859956 37.275305 -0.918488 2.546137 0.009313 -0.007802 -545766.000000 0 0 1
13.132039 -17.944947 -30.515556 37.758055 -0.939048 2.511863 0.008460 -0.004357 196949.000000 0 0 1
12.225239 -18.359447 -29.529656 36.858192 -0.983337 2.500043 0.013498 -0.003734 -54949.300000 0 0 1
12.498139 -19.678247 -28.759126 37.020592 -1.004950 2.460430 0.012840 -0.005563 5241.310000 0 0 1
13.599739 -19.522347 -27.873976 36.647421 -0.962340 2.435031 0.014757 0.002290 117051.000000 0 0 1
13.589339 -20.512547 -26.850516 36.419568 -0.985691 2.399795 0.013047 0.003692 -11365.300000 0 0 1
14.548739 -20.281947 -25.673126 35.806879 -0.948538 2.370269 0.010031 0.015268 23368.100000 0 0 1
15.916039 -20.448247 -25.991176 36.701394 -0.909392 2.357713 0.017592 0.005141 305637.000000 0 0 1
16.722739 -20.212547 -24.824406 36.117145 -0.879603 2.328603 0.018420 -0.002538 1066760.000000 0 0 1
18.277839 -20.381047 -25.132626 37.163360 -0.839749 2.313490 -0.009168 -0.000645 1148900.000000 0 0 1
18.680339 -21.698047 -25.362716 38.249544 -0.859995 2.295730 -0.013648 0.004432 182712.000000 0 0 1
18.464839 -22.594947 -24.239306 37.934494 -0.885649 2.263965 -0.010862 0.010092 -915396.000000 0 0 1
18.790339 -24.082147 -24.431406 39.114195 -0.908208 2.245438 -0.004757 0.005493 437905.000000 0 0 1
20.192139 -24.392747 -24.418706 39.987520 -0.879337 2.227688 -0.002137 0.004028 553472.000000 0 0 1
20.353839 -25.789687 -24.221506 40.817497 -0.902661 2.206085 -0.001541 -0.002162 32701.000000 0 0 1
20.281039 -26.287297 -22.746106 40.245842 -0.913667 2.171447 0.015649 -0.000487 254185.000000 0 0 1
19.010539 -25.998057 -22.157106 39.092670 -0.939417 2.173394 0.017626 0.002003 537547.000000 0 0 1
19.089239 -26.149517 -20.765706 38.463110 -0.940216 2.141098 0.022739 0.002201 -686775.000000 0 0 1
17.797439 -26.701867 -20.228506 37.933243 -0.982892 2.133253 0.018999 -0.002284 -1237930.000000 0 0 1
17.706939 -28.129147 -20.421606 39.010595 -1.008977 2.121737 0.016437 0.002654 754240.000000 0 0 1
16.736139 -28.799337 -19.540406 38.617711 -1.044368 2.101333 0.002831 0.011326 1016990.000000 0 0 1
15.252039 -28.553457 -19.905706 38.002128 -1.080198 2.122108 -0.001660 0.004835 -423533.000000 0 0 1
14.662539 -27.433197 -19.299706 36.606679 -1.079945 2.126120 0.008252 0.003323 382675.000000 0 0 1
13.312839 -27.347237 -19.781506 36.282379 -1.117758 2.147436 0.007581 0.006811 775124.000000 0 0 1
12.330639 -26.466027 -18.962506 34.814822 -1.134795 2.146789 0.010348 -0.003660 -519261.000000 0 0 1
11.826439 -26.945377 -17.762806 34.372013 -1.157208 2.113883 0.010163 -0.003657 126354.000000 0 0 1
10.774939 -26.161417 -17.225406 33.124517 -1.180105 2.117671 0.019326 -0.009659 -126847.000000 0 0 1
9.350139 -26.509557 -17.632206 33.182471 -1.231711 2.131015 0.024003 -0.006411 -1350520.000000 0 0 1
8.616839 -27.420927 -16.789906 33.287506 -1.266324 2.099472 0.031891 0.002285 460263.000000 0 0 1
7.203339 -27.315657 -16.878506 32.907707 -1.312959 2.109361 0.023868 0.014281 512207.000000 0 0 1
6.654839 -27.936947 -18.145206 33.970699 -1.336945 2.134290 0.024303 0.015338 -995097.000000 0 0 1
6.697839 -27.179227 -19.319306 34.011865 -1.329178 2.174890 0.031085 0.008522 69814.500000 0 0 1
6.046139 -27.961717 -20.327306 35.094341 -1.357846 2.188567 0.032850 0.014667 -10608.900000 0 0 1
6.210039 -27.342417 -21.738206 35.478471 -1.347464 2.230288 0.025428 0.008253 -370512.000000 0 0 1
5.513539 -26.134837 -21.915106 34.549974 -1.362880 2.257901 0.029791 0.002755 -17186.400000 0 0 1
5.534439 -25.603627 -23.240606 35.018588 -1.357913 2.296504 0.028257 -0.000091 -280971.000000 0 0 1
4.261139 -24.797247 -23.607206 34.501608 -1.400619 2.324350 0.008568 0.010120 -87194.700000 0 0 1
3.188139 -25.709477 -23.737806 35.137229 -1.447420 2.312540 -0.003537 0.015727 -362171.000000 0 0 1
2.040739 -24.983147 -24.149906 34.807186 -1.489293 2.337576 0.004457 0.012747 69597.700000 0 0 1
0.966739 -25.909727 -24.722206 35.825075 -1.533502 2.332397 -0.006396 0.010568 -250831.000000 0 0 1
1.491939 -26.621737 -25.868846 37.150235 -1.514813 2.341069 -0.012273 0.016678 673244.000000 0 0 1
0.608439 -27.670577 -26.314676 38.190224 -1.548811 2.330963 -0.003634 0.011460 182901.000000 0 0 1
1.256339 -28.595277 -27.355786 39.593020 -1.526889 2.333563 -0.010471 0.017725 -503811.000000 0 0 1
1.576539 -27.958717 -28.561276 39.999023 -1.514468 2.366062 -0.002802 0.011229 -4076.210000 0 0 1
1.877139 -28.884157 -29.621496 41.415591 -1.505899 2.367743 0.004444 0.006569 299523.000000 0 0 1
3.341039 -29.431027 -29.616186 41.886350 -1.457759 2.356129 0.013495 0.014676 256267.000000 0 0 1
3.726739 -30.266947 -28.522656 41.755461 -1.448284 2.322779 -0.005065 0.008571 608880.000000 0 0 1
4.887339 -31.056597 -28.895696 42.700814 -1.414708 2.314069 0.014395 0.002107 989784.000000 0 0 1
5.301639 -32.194637 -27.878316 42.916227 -1.407587 2.277853 0.030324 -0.001674 170930.000000 0 0 1
4.419939 -33.330467 -27.825306 43.642909 -1.438956 2.262133 0.014622 -0.001763 313823.000000 0 0 1
4.887539 -34.457100 -27.090256 44.102854 -1.429892 2.232234 0.033242 -0.013662 -62504.600000 0 0 1
3.733539 33.718945 -26.703786 43.174052 1.460520 2.237647 0.042999 -0.015129 34108.100000 0 0 1
3.052239 33.238260 -27.815996 43.449139 1.479224 2.265551 0.017517 -0.011921 854241.000000 0 0 1
1.640839 33.160586 -27.537136 43.134796 1.521355 2.263211 -0.021251 -0.007424 691421.000000 0 0 1
0.736839 33.194653 -28.802586 43.954714 1.548602 2.285348 -0.028797 0.005842 -211756.000000 0 0 1
0.692839 32.011295 -29.597306 43.602793 1.549156 2.316915 -0.011771 0.006564 261284.000000 0 0 1
-0.172661 32.264965 -30.686516 44.527745 -1.565445 2.331119 -0.018596 0.006663 102697.000000 0 0 1
-0.173761 31.107925 -31.726856 44.433395 -1.565211 2.366037 -0.015851 0.009510 -488577.000000 0 0 1
1.038639 30.976425 -32.409506 44.844105 1.537279 2.378519 -0.011469 0.005756 -137840.000000 0 0 1
0.921539 29.918395 -33.298126 44.774153 1.540004 2.409371 -0.008080 0.011179 601865.000000 0 0 1
2.193739 29.673585 -34.229005 45.353709 1.497002 2.426012 -0.002998 0.007757 842933.000000 0 0 1
2.212539 30.682615 33.814370 45.713563 1.498810 0.738170 -0.009778 0.005821 -365269.000000 0 0 1
3.074939 30.406605 32.762386 44.803915 1.470012 0.750659 -0.015760 0.003384 -619652.000000 0 0 1
2.570439 29.399185 31.725806 43.329505 1.483586 0.749252 -0.018307 0.007720 -137143.000000 0 0 1
2.570939 28.065745 32.139086 42.745954 1.479447 0.719914 -0.007487 0.007599 -410571.000000 0 0 1
3.646939 27.343505 31.604136 41.949837 1.438204 0.717610 -0.005755 -0.000509 -860399.000000 0 0 1
3.550239 25.757055 31.685166 40.987557 1.433824 0.687171 0.024037 -0.011476 50536.700000 0 0 1
2.520539 25.125795 30.925656 39.925617 1.470814 0.684743 0.014887 0.001187 537680.000000 0 0 1
2.623339 23.732425 31.140896 39.241117 1.460705 0.654129 0.015042 -0.003164 -56183.400000 0 0 1
1.704639 22.950125 30.167966 37.943645 1.496657 0.651668 0.010690 0.007772 -465645.000000 0 0 1
0.361239 22.946525 30.526636 38.190954 1.555055 0.644640 -0.002849 0.006489 -794362.000000 0 0 1
-0.290661 22.104525 29.598186 36.942484 -1.557648 0.641504 0.013621 0.004998 -460114.000000 0 0 1
-1.673261 21.566725 29.945266 36.941066 -1.493366 0.625582 0.011936 0.002428 -409192.000000 0 0 1
-2.627061 22.623025 30.107276 37.751169 -1.455191 0.647625 0.026420 -0.001761 15963.600000 0 0 1
-3.864561 22.002525 30.349296 37.684555 -1.396928 0.634529 0.006046 -0.008261 76823.600000 0 0 1
-5.116461 22.887725 30.610916 38.562343 -1.350866 0.653759 -0.012932 -0.007359 -129138.000000 0 0 1
-5.195761 23.417925 31.943446 39.947201 -1.352462 0.644098 -0.012101 -0.010083 309348.000000 0 0 1
-4.524861 24.683995 32.092336 40.739318 -1.389498 0.663651 0.002153 -0.011773 89211.800000 0 0 1
-4.706161 25.083925 33.586905 42.183307 -1.385336 0.649786 0.011023 -0.013074 598325.000000 0 0 1
-5.980361 25.566955 34.033328 42.984896 -1.341018 0.657126 0.005714 -0.007482 520061.000000 0 0 1
-5.912661 25.971155 -33.639466 42.907740 -1.346949 2.471872 0.014334 -0.012090 811351.000000 0 0 1
-7.344461 26.309095 -33.076746 42.897328 -1.298566 2.451313 0.013299 -0.000511 630707.000000 0 0 1
-7.828861 27.586935 -33.443166 44.054233 -1.294278 2.432782 0.021391 -0.000354 -1125590.000000 0 0 1
-9.081661 27.931885 -33.010786 44.185730 -1.256441 2.414472 0.019395 0.004489 -856786.000000 0 0 1
-9.183861 28.324125 -31.533626 43.370139 -1.257250 2.384858 0.026399 0.001246 -214295.000000 0 0 1
-8.614061 29.609625 -31.210616 43.875215 -1.287690 2.362213 0.028773 0.002052 188562.000000 0 0 1
-8.827361 29.918725 -29.853676 43.177475 -1.283892 2.334246 0.026528 -0.000759 -146573.000000 0 0 1
-8.235761 31.297805 -29.526396 43.808543 -1.313488 2.310389 0.018200 -0.002087 -253201.000000 0 0 1
-6.855161 31.511925 -29.655536 43.811476 -1.356592 2.314325 0.005985 -0.000799 -454635.000000 0 0 1
-6.469161 32.760585 -29.218236 44.371289 -1.375837 2.289612 0.005871 -0.000966 90862.200000 0 0 1
-4.975661 33.019755 -28.885196 44.152191 -1.421234 2.283946 -0.002762 0.000359 -142436.000000 0 0 1
-4.644961 34.320734 -28.455666 44.824250 -1.436274 2.258582 -0.008442 -0.004945 -238733.000000 0 0 1
-4.651561 -33.731897 -29.318016 44.933550 1.433763 2.281642 -0.006535 -0.003605 -598751.000000 0 0 1
-3.485561 -33.676457 -30.298856 45.434277 1.467662 2.300800 -0.008285 0.006564 -484472.000000 0 0 1
-3.389061 34.409425 -31.236486 46.596269 -1.472621 2.305496 -0.006189 0.002498 -173903.000000 0 0 1
-4.146561 34.559792 -32.395906 47.550688 -1.451385 2.320323 0.010322 0.003120 -22808.000000 0 0 1
-3.461761 -33.657437 -33.465796 47.589561 1.468304 2.350709 0.004357 0.006700 175939.000000 0 0 1
-3.205661 -32.347227 -32.978346 46.305406 1.472017 2.363412 0.001642 0.003063 179755.000000 0 0 1
-2.683061 -31.515187 -34.027086 46.456952 1.485866 2.392700 -0.004770 -0.000831 1433.490000 0 0 1
31.605669 19.850753 12.706996 39.426367 0.560808 1.242641 0.030931 -0.005296 -131899.000000 0 0 1
32.532119 18.884053 13.071196 39.822134 0.525939 1.236357 0.026149 -0.006851 1827.620000 0 0 1
31.927129 17.564753 12.997596 38.688495 0.502959 1.228177 0.030996 0.000623 -471648.000000 0 0 1
32.751339 16.400353 13.437496 39.015229 0.464250 1.219179 0.041382 -0.004632 -962900.000000 0 0 1
33.896129 16.256653 12.637596 39.660246 0.447197 1.246495 0.025643 -0.000054 -168720.000000 0 0 1
34.690063 15.288953 13.338496 40.187909 0.415118 1.232476 0.017582 0.000612 77740.900000 0 0 1
-34.671592 14.721153 12.534096 39.698051 -0.401522 1.249564 0.009847 -0.002148 686284.000000 0 0 1
-33.792053 13.732353 13.091796 38.754039 -0.385993 1.226199 0.015605 0.003126 462483.000000 0 0 1
-34.465919 12.533353 13.474596 39.071080 -0.348778 1.218692 0.016819 -0.000979 73042.800000 0 0 1
-33.606923 11.769153 14.540896 38.462656 -0.336853 1.183105 0.006441 -0.005892 298896.000000 0 0 1
-33.496793 12.495853 15.773096 39.076490 -0.357057 1.155297 0.002629 -0.009300 212568.000000 0 0 1
-32.917473 11.731753 16.844696 38.793529 -0.342364 1.121631 -0.000832 -0.011069 -287838.000000 0 0 1
-32.886613 12.465653 18.202296 39.601079 -0.362316 1.093205 0.008618 -0.004723 -10097.700000 0 0 1
-34.159708 12.611453 18.809996 40.984758 -0.353668 1.093982 0.010063 -0.006736 192007.000000 0 0 1
-34.051523 13.410253 19.981096 41.696347 -0.375170 1.071048 0.019584 -0.014015 463504.000000 0 0 1
35.194502 13.566953 20.812896 43.080063 0.367931 1.066580 0.025553 -0.017486 568089.000000 0 0 1
34.779216 12.459053 21.585596 42.787379 0.343990 1.042011 0.027559 -0.008446 322367.000000 0 0 1
33.623159 12.684153 22.384196 42.337416 0.360737 1.013717 0.046576 -0.016606 126881.000000 0 0 1
33.297059 11.452953 23.122296 42.124872 0.331286 0.989750 0.048781 -0.015395 -355463.000000 0 0 1
34.236149 10.992053 24.074556 43.272663 0.310669 0.980815 0.038513 -0.010055 14072.600000 0 0 1
34.104069 11.599153 25.335846 44.040129 0.327838 0.957838 0.035751 -0.008301 -314087.000000 0 0 1
-35.184024 11.439253 26.213716 45.342375 -0.314346 0.954363 0.028011 -0.011774 958292.000000 0 0 1
-34.076558 12.321453 26.133676 44.676605 -0.346955 0.945975 0.021576 -0.018391 890746.000000 0 0 1
-33.307593 12.228753 24.900366 43.347046 -0.351867 0.958874 0.024916 -0.019879 23358.400000 0 0 1
-32.440893 13.446053 24.448866 42.789659 -0.392925 0.962618 0.022842 -0.021044 551011.000000 0 0 1
-31.481803 13.890553 25.395876 42.766832 -0.415533 0.934996 0.031505 -0.024536 457766.000000 0 0 1
-32.099973 14.551653 26.510736 44.101905 -0.425614 0.925889 0.021324 -0.025788 -954637.000000 0 0 1
-31.139733 15.053353 27.549966 44.218628 -0.450290 0.898173 0.025516 -0.021524 -697933.000000 0 0 1
-30.383353 16.175953 27.156126 43.843640 -0.489227 0.902836 0.036577 -0.023386 -78608.700000 0 0 1
-29.765783 16.867953 28.253606 44.371116 -0.515566 0.880512 0.039192 -0.019701 -101807.000000 0 0 1
-29.076453 18.135353 27.758216 44.100451 -0.557673 0.889975 0.045410 -0.010564 -482777.000000 0 0 1
-29.922053 19.074353 27.114736 44.658360 -0.567515 0.918316 0.035081 -0.024670 138798.000000 0 0 1
-29.353123 20.393153 26.987806 44.786474 -0.607195 0.924056 0.036343 -0.024385 -126353.000000 0 0 1
-30.141483 21.219553 25.984676 45.099688 -0.613404 0.956773 0.038686 -0.012890 727007.000000 0 0 1
-31.540123 21.403753 26.288496 46.303186 -0.596232 0.967030 0.027011 -0.018771 1398830.000000 0 0 1
-32.198353 22.312753 25.391356 46.683122 -0.605998 0.995708 0.024735 -0.009980 -10034.100000 0 0 1
-32.029443 23.839553 25.540446 47.397510 -0.639844 1.001717 0.021572 -0.014865 -561786.000000 0 0 1
-32.963373 24.533453 24.756046 47.972243 -0.639820 1.028564 0.023434 -0.015380 167452.000000 0 0 1
-32.932173 25.923353 24.959166 48.780204 -0.666871 1.033674 0.018454 -0.004577 -314663.000000 0 0 1
-34.004033 26.576453 24.122936 49.441867 -0.663400 1.061108 0.020055 -0.003149 -519354.000000 0 0 1
-33.599463 26.526153 22.824096 48.512886 -0.668294 1.080967 0.025466 -0.005326 -249000.000000 0 0 1
-34.631894 26.776353 21.906296 48.951272 -0.658166 1.106815 0.027477 -0.003693 -299846.000000 0 0 1
-34.271996 26.591653 20.405596 47.938232 -0.659872 1.131100 0.038589 -0.017927 -66561.900000 0 0 1
-34.332357 25.255353 19.841196 47.012942 -0.634230 1.135105 0.035802 -0.015275 257497.000000 0 0 1
-33.770373 25.276853 18.526696 46.071639 -0.642535 1.156956 0.043531 -0.020216 -46876.600000 0 0 1
-34.025883 23.963753 17.778596 45.255946 -0.613593 1.167072 0.032958 -0.015958 -452314.000000 0 0 1
35.231774 23.864753 17.321396 45.943825 0.595372 1.184228 0.033225 -0.022253 -727069.000000 0 0 1
35.204784 23.264553 16.052896 45.147666 0.583954 1.207279 0.026762 -0.016508 -663364.000000 0 0 1
33.816189 23.224153 15.432396 43.829839 0.601796 1.210985 0.029903 -0.010244 -514430.000000 0 0 1
32.984999 22.304853 16.087896 42.945745 0.594582 1.186820 0.026517 -0.013665 -719321.000000 0 0 1
31.787509 22.149753 15.386896 41.687095 0.608580 1.192751 0.032878 -0.014185 -497270.000000 0 0 1
30.810559 21.129053 16.081796 40.673721 0.601114 1.164309 0.015872 -0.013425 254005.000000 0 0 1
30.215359 21.565253 17.254296 40.935789 0.619874 1.135701 0.012024 -0.004538 581331.000000 0 0 1
29.002909 22.314553 17.006796 40.352684 0.655796 1.135748 0.006932 -0.001129 771484.000000 0 0 1
28.224719 22.773253 18.254996 40.601733 0.678907 1.104466 0.005640 -0.002804 234864.000000 0 0 1
28.973209 23.871153 18.777996 41.974896 0.689148 1.106982 -0.009601 0.002460 -134398.000000 0 0 1
28.416479 24.490153 19.903696 42.466705 0.711322 1.082990 -0.008826 0.002834 -415213.000000 0 0 1
29.447219 25.113653 20.890196 43.979934 0.706138 1.075839 -0.014402 0.003331 95681.500000 0 0 1
30.084169 26.225753 20.267096 44.761619 0.716984 1.100917 -0.008798 0.001480 336756.000000 0 0 1
31.125369 26.669353 21.131196 46.114753 0.708450 1.094793 -0.005899 0.001523 -114757.000000 0 0 1
31.890529 27.949853 20.786996 47.226045 0.719640 1.115020 0.008350 -0.000292 372409.000000 0 0 1
32.831979 28.301253 21.841996 48.538362 0.711421 1.104037 0.007026 0.007283 640760.000000 0 0 1
32.317899 29.182653 22.777796 49.141651 0.734463 1.088841 -0.001706 0.008337 -366796.000000 0 0 1
33.181089 29.274553 24.075176 50.374579 0.722931 1.072508 -0.008484 0.003922 50711.500000 0 0 1
34.474899 29.760553 23.866196 51.417939 0.712138 1.088109 0.010949 0.000358 -535015.000000 0 0 1
35.088789 30.156953 25.051376 52.614032 0.709953 1.074542 0.008423 0.001061 19955.200000 0 0 1
-34.278633 31.105453 24.949316 52.583670 -0.736905 1.076436 0.013045 0.000672 -391544.000000 0 0 1
-33.111273 30.587153 24.421676 51.267423 -0.745793 1.074288 0.010989 -0.000262 -489979.000000 0 0 1
-32.037663 31.519153 24.493926 51.184190 -0.777240 1.071800 0.020569 -0.000681 733682.000000 0 0 1
-30.645493 30.923353 24.120126 49.771282 -0.789911 1.064868 0.032386 -0.000325 -224244.000000 0 0 1
-30.510863 30.594053 22.717896 48.816101 -0.786760 1.086736 0.022340 -0.000237 122773.000000 0 0 1
-31.173013 29.387753 22.316096 48.305330 -0.755928 1.090570 0.026273 -0.002001 -144778.000000 0 0 1
-30.637273 28.013553 22.896796 47.409545 -0.740693 1.066767 0.021294 0.001559 -685386.000000 0 0 1
-29.261223 27.832453 22.658896 46.306481 -0.760378 1.059481 0.014050 0.002343 27604.000000 0 0 1
-28.737193 26.750353 23.451096 45.731407 -0.749607 1.032352 0.018140 -0.001361 59292.200000 0 0 1
-28.340523 27.172853 24.917606 46.502003 -0.764367 1.005295 0.025666 0.001697 -255171.000000 0 0 1
-29.456473 27.364153 25.751166 47.745191 -0.748592 1.001136 0.021226 0.002736 273364.000000 0 0 1
-28.966753 27.807153 27.029846 48.403751 -0.764976 0.978311 0.033035 -0.007940 -354530.000000 0 0 1
-30.102763 28.292653 27.918706 49.860854 -0.754411 0.976492 0.030856 -0.011155 -318969.000000 0 0 1
-30.910043 27.181853 28.284246 49.942792 -0.721309 0.968747 0.022646 -0.005970 160432.000000 0 0 1
-31.844943 27.557253 29.282776 51.293115 -0.713342 0.963206 0.015762 0.003001 44506.800000 0 0 1
-32.642993 26.305953 29.773596 51.420183 -0.678309 0.953263 0.008025 -0.005387 1099090.000000 0 0 1
-31.738143 25.411853 30.513986 50.834785 -0.675151 0.926973 0.019802 -0.006207 1653690.000000 0 0 1
-32.559283 24.322953 30.977386 51.100993 -0.641601 0.919523 0.012190 -0.013146 256807.000000 0 0 1
-31.855703 23.562953 32.080506 50.981933 -0.636862 0.890205 0.038217 -0.015824 -568223.000000 0 0 1
-30.724613 22.873653 31.631336 49.676426 -0.639955 0.880524 0.036178 -0.014090 -241678.000000 0 0 1
-30.279793 21.884253 32.549016 49.550226 -0.625822 0.854111 0.046547 -0.016048 845670.000000 0 0 1
-29.209993 22.352753 33.649358 49.851265 -0.653186 0.829838 0.040104 -0.020953 593719.000000 0 0 1
-29.856893 23.105053 -34.329197 51.027163 -0.658597 2.308734 0.061239 -0.030612 392640.000000 0 0 1
-29.504453 22.717253 -33.023636 49.770944 -0.656154 2.296300 0.049300 -0.024519 206254.000000 0 0 1
-28.170663 23.188853 -32.366246 48.773795 -0.688702 2.296416 0.063943 -0.025836 179693.000000 0 0 1
-28.193093 24.479053 -31.828466 49.062469 -0.715002 2.276715 0.054024 -0.023620 -266602.000000 0 0 1
-27.157243 24.788353 -30.942636 48.056478 -0.739826 2.270356 0.071904 -0.017251 -374167.000000 0 0 1
-27.556473 26.059753 -30.172356 48.464843 -0.757490 2.242808 0.043356 -0.012148 35625.500000 0 0 1
-27.454973 27.273153 -30.898676 49.520992 -0.782076 2.244585 0.046786 -0.013742 -68763.500000 0 0 1
-28.553353 27.557553 -31.737806 50.813395 -0.767653 2.245410 0.037983 -0.014771 -247932.000000 0 0 1
-28.394163 28.926453 -32.457936 51.927698 -0.794684 2.246005 0.050935 -0.009833 11107.800000 0 0 1
-28.802593 30.043253 -31.681916 52.306121 -0.806478 2.221444 0.035865 -0.020887 -48029.700000 0 0 1
-28.248353 31.273753 -32.099036 52.975138 -0.836183 2.221726 0.049791 -0.033188 -249639.000000 0 0 1
-28.482193 32.515253 -31.192416 53.305195 -0.851421 2.195882 0.039497 -0.020468 -222997.000000 0 0 1
-27.588173 32.736053 -30.114576 52.341611 -0.870529 2.183824 0.030880 -0.016955 168141.000000 0 0 1
-28.017113 33.851153 -29.282076 52.804348 -0.879418 2.158605 0.015749 -0.014532 -535817.000000 0 0 1
-27.285513 33.891553 -27.919466 51.697517 -0.892964 2.141298 0.010207 -0.012389 634947.000000 0 0 1
-25.933013 34.351453 -27.897466 51.291443 -0.924146 2.145875 0.011923 -0.010915 499510.000000 0 0 1
-25.618013 -33.444918 -28.210696 50.701958 0.917149 2.160846 0.013019 0.002162 -768713.000000 0 0 1
-25.941863 -32.392618 -27.129656 49.581047 0.895533 2.149785 0.012637 0.003929 -46144.400000 0 0 1
-27.314323 -32.166118 -26.869966 50.027257 0.866788 2.137799 -0.005264 0.002664 -114418.000000 0 0 1
-27.464233 -31.357618 -25.736676 48.989395 0.851491 2.123925 -0.009563 0.008633 -982976.000000 0 0 1
-28.942563 -31.154918 -25.539186 49.603940 0.822194 2.111643 -0.034858 0.012492 -796197.000000 0 0 1
-29.474043 -30.280518 -26.523276 49.891013 0.798894 2.131314 -0.016173 0.008856 146812.000000 0 0 1
-30.843423 -29.953618 -26.345136 50.424222 0.770764 2.120541 -0.014378 0.001729 104799.000000 0 0 1
-31.317643 -29.148618 -27.535326 50.878590 0.749542 2.142656 -0.002929 0.000320 337231.000000 0 0 1
-32.736293 -29.228318 -27.637656 51.863277 0.728846 2.132814 0.008606 -0.003235 390484.000000 0 0 1
-33.300063 -28.345718 -28.603256 52.254380 0.705203 2.150032 0.014291 -0.005776 989614.000000 0 0 1
-34.865844 -28.467818 -28.746736 53.408039 0.684719 2.139152 0.010218 -0.011626 1015500.000000 0 0 1
35.023091 -27.822018 -27.690796 52.606670 -0.671311 2.125127 0.016767 -0.012963 189625.000000 0 0 1
33.634189 -28.025318 -27.983076 51.958923 -0.694683 2.139525 0.020562 -0.017697 1302760.000000 0 0 1
32.585289 -27.337718 -27.006696 50.383663 -0.698049 2.136513 0.021668 -0.013789 647503.000000 0 0 1
32.464879 -27.955118 -25.709386 49.964282 -0.710896 2.111285 0.012843 -0.003745 993309.000000 0 0 1
31.358959 -27.439518 -24.902806 48.543395 -0.718838 2.109473 0.026605 0.000881 1052580.000000 0 0 1
31.214119 -28.239018 -23.587806 48.250885 -0.735399 2.081576 0.012159 0.002457 -150106.000000 0 0 1
30.572759 -29.500218 -23.753806 48.674426 -0.767546 2.080609 0.024350 0.004333 -165763.000000 0 0 1
30.350169 -30.336418 -22.598106 48.498509 -0.785172 2.055510 0.016166 -0.007589 -355354.000000 0 0 1
31.470209 -30.562518 -21.575806 48.887186 -0.770767 2.027886 0.000455 -0.001813 -1301520.000000 0 0 1
32.600219 -31.261918 -22.016806 50.247602 -0.764445 2.024354 -0.000738 -0.004833 -475208.000000 0 0 1
33.659919 -31.243318 -21.106006 50.543036 -0.748181 2.001582 -0.008586 -0.003636 62317.900000 0 0 1
34.463739 -29.900918 -20.973906 50.216719 -0.714626 2.001673 -0.015030 0.000536 -1343290.000000 0 0 1
33.772469 -28.766018 -20.588206 48.907440 -0.705515 2.005303 -0.014965 0.005697 -786977.000000 0 0 1
34.338849 -27.524618 -20.950706 48.741083 -0.675691 2.015108 -0.012564 0.004929 -91836.400000 0 0 1
33.415879 -26.308818 -20.569106 47.242597 -0.666958 2.021271 -0.010875 0.006472 1311130.000000 0 0 1
32.222309 -26.350818 -21.407306 46.807217 -0.685490 2.045810 0.000888 0.002279 516615.000000 0 0 1
31.256629 -25.520118 -20.809306 45.401327 -0.684704 2.046924 0.009144 -0.000688 -348313.000000 0 0 1
29.919449 -25.393718 -21.553206 44.772257 -0.703760 2.073044 0.017232 -0.005050 204661.000000 0 0 1
29.185909 -26.644318 -21.515606 44.996203 -0.739906 2.069360 0.020209 -0.003486 11705.800000 0 0 1
27.994679 -26.592818 -22.259306 44.568562 -0.759723 2.093748 0.018590 -0.004092 -98640.700000 0 0 1
27.497649 -28.043418 -22.618006 45.322491 -0.795224 2.093294 0.019966 -0.000245 -221466.000000 0 0 1
26.790739 -28.752118 -21.630206 44.858598 -0.820696 2.073945 0.028778 -0.010868 -59083.500000 0 0 1
26.286749 -29.950218 -22.222306 45.627180 -0.850450 2.079495 0.035871 -0.014185 -323026.000000 0 0 1
25.596199 -30.852818 -21.202806 45.349981 -0.878252 2.057299 0.036391 -0.010868 -137020.000000 0 0 1
26.402129 -31.242118 -20.077106 45.565694 -0.869165 2.027084 0.044375 -0.017257 39926.300000 0 0 1
27.455879 -32.135818 -20.335006 46.904675 -0.863771 2.019213 0.035091 -0.012109 -316782.000000 0 0 1
28.468009 -32.248118 -19.210206 47.110515 -0.847577 1.990806 0.021035 -0.011909 -327516.000000 0 0 1
28.028069 -32.866618 -18.012406 46.799936 -0.864689 1.965875 0.023018 -0.016052 -224481.000000 0 0 1
27.473029 -31.971918 -17.056006 45.473928 -0.860936 1.955271 0.021072 -0.019176 -30348.100000 0 0 1
26.796579 -32.625018 -15.839806 45.092659 -0.883172 1.929726 0.031361 -0.010206 -682207.000000 0 0 1
25.539439 -33.105918 -16.195006 44.839078 -0.913710 1.940330 0.050512 -0.017874 -768212.000000 0 0 1
25.013639 -33.842618 -15.099306 44.710110 -0.934297 1.915285 0.048251 -0.015281 -160822.000000 0 0 1
23.515539 -34.197018 -15.039406 44.142953 -0.968408 1.918455 0.047572 -0.012502 140321.000000 0 0 1
22.742439 -33.043718 -14.792306 42.754159 -0.967998 1.924085 0.048923 -0.010684 -855680.000000 0 0 1
21.411539 -33.343418 -14.547306 42.212103 -0.999958 1.922635 0.040210 -0.006133 -730716.000000 0 0 1
-0.855463 -7.154747 -28.730036 29.619878 1.451795 2.895854 0.036412 -0.009376 122303.000000 0 0 1
-0.395863 -8.463247 -28.980796 30.193870 1.524056 2.857170 0.044742 -0.013905 -69932.200000 0 0 1
-0.344063 -8.777247 -30.349806 31.595398 1.531617 2.859866 0.035178 -0.012424 10722.100000 0 0 1
-0.159663 -10.327547 -30.478446 32.181041 1.555338 2.814851 0.045883 -0.011818 -513822.000000 0 0 1
1.099837 -10.696247 -30.033886 31.900684 -1.468332 2.797794 0.017767 -0.012472 -733393.000000 0 0 1
1.248337 -12.068947 -29.864206 32.234898 -1.467729 2.755681 0.028793 -0.013072 261904.000000 0 0 1
2.589937 -12.545847 -29.247546 31.930002 -1.367218 2.728764 0.029661 -0.013142 153972.000000 0 0 1
3.728237 -12.380847 -30.078596 32.739992 -1.278304 2.735601 0.029670 -0.009201 570491.000000 0 0 1
4.997437 -12.823647 -29.615216 32.657026 -1.199196 2.706559 0.025165 -0.011190 670439.000000 0 0 1
5.241137 -14.316247 -29.295196 33.024732 -1.219854 2.661752 0.026093 -0.016639 -1017250.000000 0 0 1
4.574037 -14.747247 -28.169736 32.123778 -1.270043 2.640196 0.038771 -0.014617 -171006.000000 0 0 1
5.347937 -15.705047 -27.429456 32.056575 -1.242589 2.597617 0.046984 -0.013975 103847.000000 0 0 1
5.057537 -17.191247 -27.667386 32.963645 -1.284676 2.566846 0.039591 -0.022734 -464775.000000 0 0 1
5.411837 -17.487847 -29.010156 34.303089 -1.270681 2.578674 0.035680 -0.030481 304469.000000 0 0 1
4.958437 -18.835447 -29.279176 35.165755 -1.313386 2.554590 0.028728 -0.025196 -94719.800000 0 0 1
5.220637 -19.252747 -30.773346 36.673180 -1.306001 2.566467 0.035395 -0.027481 926178.000000 0 0 1
6.635037 -19.296747 -31.083806 37.183211 -1.239618 2.560682 0.020590 -0.025563 1052600.000000 0 0 1
6.881137 -20.055847 -32.233726 38.582381 -1.240283 2.559751 0.024023 -0.032550 507036.000000 0 0 1
8.376737 -20.172447 -32.675386 39.303666 -1.177207 2.552342 0.003640 -0.015240 760973.000000 0 0 1
8.841837 -19.033747 -33.380646 39.430054 -1.135921 2.580321 -0.002401 -0.010953 350414.000000 0 0 1
10.174837 -18.957347 -33.871316 40.126978 -1.078204 2.575687 -0.017489 -0.009038 231308.000000 0 0 1
10.536837 -17.561947 -34.444534 40.073343 -1.030391 2.605160 -0.019217 -0.001736 -864995.000000 0 0 1
9.637637 -17.166447 33.620044 38.959958 -1.059225 0.529740 -0.001258 0.001401 -499429.000000 0 0 1
9.764837 -15.867447 33.140577 38.018755 -1.019130 0.512155 -0.021614 0.010647 181614.000000 0 0 1
8.627537 -15.473147 32.145676 36.704184 -1.062151 0.503697 -0.007470 0.005632 172459.000000 0 0 1
8.566637 -16.286947 31.003086 36.053339 -1.086580 0.535678 -0.013667 0.006597 -48275.800000 0 0 1
7.820037 -15.712447 29.954656 34.717652 -1.108993 0.529999 -0.015254 0.007030 -478528.000000 0 0 1
7.964337 -16.435147 28.586436 33.922397 -1.119551 0.568516 -0.015260 0.020505 -498751.000000 0 0 1
7.314937 -17.676147 28.410316 34.250555 -1.178424 0.592612 -0.005570 0.011324 323029.000000 0 0 1
7.504937 -18.258447 27.141046 33.560860 -1.180810 0.628838 -0.009642 0.013054 -281116.000000 0 0 1
7.002337 -19.730347 27.145736 34.281340 -1.229761 0.656961 -0.010743 0.007340 -361594.000000 0 0 1
7.524137 -20.426947 28.227746 35.646577 -1.217874 0.656918 -0.012391 0.012156 226520.000000 0 0 1
6.678037 -21.449247 28.641066 36.400234 -1.268967 0.665129 -0.017562 0.007828 -592634.000000 0 0 1
7.174737 -21.944747 30.018746 37.870488 -1.254806 0.655622 -0.027006 0.008244 -217580.000000 0 0 1
6.982037 -21.128547 31.154536 38.285369 -1.251638 0.620229 -0.001637 0.001618 242550.000000 0 0 1
7.508937 -19.798847 31.193606 37.701718 -1.208295 0.596372 0.001286 -0.004753 -686451.000000 0 0 1
7.120537 -19.027247 32.469156 38.301231 -1.212702 0.559103 0.009386 -0.006303 -460544.000000 0 0 1
5.738837 -18.990247 32.693066 38.241343 -1.277323 0.545411 0.028636 -0.013928 -614370.000000 0 0 1
5.585337 -18.163547 33.823255 38.795915 -1.272471 0.511880 0.050035 -0.012066 -297800.000000 0 0 1
4.218537 -17.974347 34.467318 39.100757 -1.340271 0.491767 0.051188 -0.015839 -367727.000000 0 0 1
3.723437 -19.031947 -33.786786 38.956718 -1.377595 2.620529 0.049097 -0.008131 236784.000000 0 0 1
2.465037 -18.714047 -33.200686 38.191328 -1.439829 2.624632 0.042244 -0.024788 78018.200000 0 0 1
1.888137 -19.757147 -32.269716 37.884621 -1.475518 2.590188 0.036565 -0.004869 -1031270.000000 0 0 1
0.730537 -20.292447 -32.874926 38.640366 -1.534811 2.588288 0.018739 0.006983 246742.000000 0 0 1
-0.058063 -21.152347 -32.037536 38.390479 1.568051 2.558053 0.018476 0.002874 708597.000000 0 0 1
-0.843163 -20.378747 -30.902746 37.026801 1.529445 2.558211 0.016759 -0.002182 -363504.000000 0 0 1
-1.826963 -19.464647 -31.365536 36.959534 1.477210 2.584215 0.023866 0.003194 59509.400000 0 0 1
-2.303163 -18.571747 -30.358076 35.662685 1.447412 2.589171 0.027895 0.002028 66394.300000 0 0 1
-1.972163 -17.090647 -30.529766 35.043491 1.455910 2.628431 0.014534 -0.004042 -1817.890000 0 0 1
-2.716963 -16.230347 -29.676856 33.934081 1.404934 2.635292 0.028192 -0.005617 -203128.000000 0 0 1
-2.471563 -14.885147 -30.011576 33.591233 1.406255 2.675731 0.038258 -0.013690 45266.800000 0 0 1
-3.579663 -13.921347 -29.545496 32.856571 1.319114 2.688794 0.045656 -0.013767 78011.700000 0 0 1
-3.549763 -13.690847 -28.173076 31.523996 1.317103 2.676327 0.034459 -0.017614 107616.000000 0 0 1
-4.669563 -12.922747 -27.802036 31.012182 1.224051 2.682574 0.050377 -0.020395 -433102.000000 0 0 1
-4.416163 -12.553647 -26.344426 29.514832 1.232534 2.673837 0.031832 -0.020570 -192343.000000 0 0 1
-4.901363 -13.650147 -25.589446 29.413766 1.226064 2.625962 0.028640 -0.016578 353525.000000 0 0 1
-4.685963 -13.491747 -24.189206 28.090980 1.236510 2.608230 0.026185 -0.017517 -21695.600000 0 0 1
-5.746363 -12.577747 -23.480006 27.249424 1.142246 2.609347 0.039919 -0.021450 783392.000000 0 0 1
-7.077363 -13.101947 -23.504106 27.824325 1.075526 2.576861 0.038638 -0.023761 -458436.000000 0 0 1
-7.978963 -12.130847 -23.199206 27.368311 0.988998 2.582368 0.036082 -0.024729 -1484960.000000 0 0 1
-9.363763 -12.634547 -23.538806 28.308784 0.933000 2.552602 0.033934 -0.023208 -860623.000000 0 0 1
-9.946463 -13.556047 -22.607106 28.174098 0.937790 2.502115 0.030707 -0.020034 -574994.000000 0 0 1
-10.981363 -14.229847 -23.230106 29.372040 0.913543 2.483061 0.014256 -0.016675 -632713.000000 0 0 1
-11.674563 -15.216747 -22.289806 29.405446 0.916366 2.431063 0.010461 -0.010793 -389676.000000 0 0 1
-10.822963 -16.258647 -21.932706 29.368754 0.983481 2.414040 0.021477 -0.007370 -500856.000000 0 0 1
-11.412263 -17.538147 -21.782806 30.204585 0.993922 2.376294 0.007785 -0.001751 -36204.200000 0 0 1
-11.914763 -18.276047 -23.062506 31.746727 0.993063 2.383943 0.001168 -0.000794 1090880.000000 0 0 1
-13.195363 -17.819847 -23.564606 32.356687 0.933411 2.386599 -0.003494 -0.002686 479973.000000 0 0 1
-13.402863 -18.435447 -24.813206 33.692694 0.942168 2.398614 -0.002712 -0.003191 51942.600000 0 0 1
-14.627563 -17.693547 -25.369336 34.214477 0.879975 2.406069 -0.000268 -0.010822 326605.000000 0 0 1
-15.876363 -17.889847 -24.698106 34.381710 0.844958 2.372224 -0.001540 -0.007266 786432.000000 0 0 1
-16.976063 -17.582247 -25.561236 35.365222 0.802937 2.378611 -0.001877 -0.007444 512247.000000 0 0 1
-17.703863 -16.258447 -25.190286 34.818305 0.742864 2.379624 0.000338 -0.003460 -365029.000000 0 0 1
-18.415663 -16.325547 -23.966806 34.352117 0.725308 2.342951 0.000925 -0.005053 287271.000000 0 0 1
-19.034763 -15.099347 -23.577406 33.855672 0.670612 2.341178 0.000002 -0.005193 -378919.000000 0 0 1
-19.685763 -15.033947 -22.203106 33.264497 0.652209 2.301604 -0.001750 -0.013646 24034.000000 0 0 1
-18.769263 -14.788647 -21.140606 31.904773 0.667331 2.295102 -0.000945 -0.008004 -7209.540000 0 0 1
-19.351763 -14.773847 -19.860106 31.419438 0.652045 2.255052 0.000521 -0.012776 -432957.000000 0 0 1
-19.882863 -13.397047 -19.373906 30.824622 0.592924 2.250446 0.009006 -0.013266 -522140.000000 0 0 1
-21.182063 -13.108447 -19.796806 31.818622 0.554162 2.242316 0.011831 -0.018703 -400084.000000 0 0 1
-21.721463 -12.049347 -19.050906 31.304085 0.506460 2.225061 0.021704 -0.013804 -861100.000000 0 0 1
-23.193263 -11.824847 -19.278006 32.394382 0.471488 2.208191 0.032572 -0.012279 -921138.000000 0 0 1
-23.506763 -11.011847 -20.401806 33.016093 0.438094 2.236910 0.041557 -0.022681 419489.000000 0 0 1
-24.885663 -10.647247 -20.442406 33.919789 0.404279 2.217638 0.041964 -0.016352 307824.000000 0 0 1
-25.223743 -9.680647 -21.541406 34.554078 0.366456 2.243894 0.055078 -0.010564 -250407.000000 0 0 1
-25.274323 -10.265947 -22.810206 35.559620 0.385823 2.267201 0.030942 -0.008591 100730.000000 0 0 1
-26.137573 -9.603047 -23.688406 36.558608 0.352095 2.275695 0.044606 -0.000896 -645637.000000 0 0 1
-26.156273 -10.035347 -25.180966 37.668818 0.366349 2.302964 0.017576 0.006917 955128.000000 0 0 1
-25.012563 -9.645647 -25.996316 37.342674 0.368059 2.340825 0.006401 -0.003362 672165.000000 0 0 1
-23.936963 -10.533147 -25.874826 36.789020 0.414538 2.350868 -0.000924 0.001688 -752007.000000 0 0 1
-23.016463 -10.569147 -27.120376 37.107671 0.430478 2.390372 -0.006633 0.011044 -337225.000000 0 0 1
-23.497463 -10.957047 -28.395786 38.451376 0.436332 2.401618 -0.003562 0.016938 661185.000000 0 0 1
-22.422763 -11.149947 -29.357716 38.587266 0.461453 2.435362 -0.008955 0.013564 1055830.000000 0 0 1
-23.041563 -11.609547 -30.720006 40.117502 0.466725 2.443004 -0.015050 0.004807 554933.000000 0 0 1
-23.716463 -10.675947 -31.590776 40.919721 0.422978 2.452807 -0.014054 0.004617 148653.000000 0 0 1
-22.921363 -9.639347 -32.117096 40.617900 0.398087 2.482769 -0.008026 0.001559 -246939.000000 0 0 1
-23.801463 -8.409747 -32.546636 41.188797 0.339637 2.481902 -0.011922 0.003892 -259744.000000 0 0 1
-24.565563 -8.618247 -33.723616 42.603091 0.337411 2.484181 0.020108 -0.001647 1288430.000000 0 0 1
-25.852633 -9.285747 -33.643326 43.433364 0.344829 2.456873 0.019800 -0.004767 743095.000000 0 0 1
-26.939863 -8.422247 -32.950636 43.387036 0.303005 2.433276 0.010475 0.002977 -595353.000000 0 0 1
-28.234943 -9.000647 -32.939656 44.308516 0.308593 2.408960 -0.000264 -0.001117 343466.000000 0 0 1
-29.030763 -8.476947 -31.849246 43.920591 0.284100 2.382056 0.002729 0.004019 650292.000000 0 0 1
-30.503063 -8.943047 -32.045106 45.136502 0.285193 2.360238 0.002336 -0.001917 201493.000000 0 0 1
-30.645373 -10.322747 -31.920216 45.437850 0.324908 2.349704 -0.002718 -0.008996 887542.000000 0 0 1
-31.999623 -10.764247 -31.687946 46.303033 0.324496 2.324522 -0.014833 -0.005849 602571.000000 0 0 1
-32.112183 -12.337447 -31.954606 46.952122 0.366810 2.319348 -0.006739 -0.009547 -359666.000000 0 0 1
-33.344053 -12.933547 -31.594226 47.721040 0.370016 2.294361 0.001837 -0.015534 -130616.000000 0 0 1
-33.260513 -14.393347 -31.545146 48.047127 0.408413 2.287027 0.009412 -0.011297 -479180.000000 0 0 1
-34.469328 -15.103647 -30.975186 48.741326 0.412978 2.259454 0.004469 -0.014922 -400407.000000 0 0 1
-34.619164 -14.847747 -29.595016 47.904145 0.405159 2.236734 0.010631 -0.009488 -271143.000000 0 0 1
35.038007 -15.782347 -29.088816 48.196510 -0.423216 2.218737 0.015002 -0.003387 -73129.200000 0 0 1
35.091974 -15.749347 -27.556186 47.316297 -0.421857 2.192453 0.019952 0.003139 -176539.000000 0 0 1
-34.233296 -16.175247 -27.071526 46.544868 0.441407 2.191518 0.011376 -0.002732 -166255.000000 0 0 1
-34.160469 -16.095447 -25.656886 45.653881 0.440320 2.167582 0.023126 0.002381 54478.100000 0 0 1
-32.769243 -15.637947 -25.155126 44.171813 0.445253 2.176674 0.026502 -0.000122 7955.510000 0 0 1
-31.793523 -16.627947 -25.317516 43.912337 0.481876 2.185292 0.027794 0.001488 773186.000000 0 0 1
-30.500493 -16.209647 -24.791706 42.516602 0.488494 2.193344 0.026558 0.011968 1685200.000000 0 0 1
-29.328313 -17.199747 -25.084276 42.251653 0.530401 2.206430 0.028193 0.003477 100175.000000 0 0 1
-29.353443 -18.409647 -24.297306 42.319012 0.560159 2.182357 0.038430 -0.007787 133106.000000 0 0 1
-30.317203 -19.404047 -24.651706 43.627474 0.569337 2.171290 0.035745 -0.007069 100182.000000 0 0 1
-30.001213 -20.640747 -23.817806 43.513229 0.602625 2.150014 0.035169 -0.006144 960361.000000 0 0 1
-28.789523 -21.359047 -24.156306 43.226990 0.638299 2.163764 0.032827 -0.001602 777083.000000 0 0 1
-28.693503 -22.618447 -23.529806 43.457600 0.667552 2.142949 0.035634 -0.006776 -238119.000000 0 0 1
-27.319623 -23.349047 -23.730206 43.065792 0.707194 2.154385 0.041646 -0.006060 1497820.000000 0 0 1
-26.104113 -22.792847 -23.195406 41.700905 0.717782 2.160642 0.009920 -0.005789 601375.000000 0 0 1
-26.102643 -22.527547 -21.814406 40.800817 0.712014 2.134897 0.003675 -0.005821 -756605.000000 0 0 1
-25.782833 -23.710447 -20.870206 40.773831 0.743551 2.108137 -0.002335 -0.002375 -30650.800000 0 0 1
-25.821963 -23.241447 -19.544106 39.861143 0.732851 2.083236 -0.002926 0.000554 -99493.700000 0 0 1
-25.856293 -24.342647 -18.652906 40.112881 0.755254 2.054443 -0.010509 0.020309 -44923.000000 0 0 1
-25.820193 -24.013347 -17.160806 39.215003 0.749156 2.023733 -0.017963 0.018779 181587.000000 0 0 1
-27.010193 -23.359947 -16.768806 39.451622 0.713056 2.009810 -0.011668 0.010064 -289237.000000 0 0 1
-26.760083 -22.305747 -15.873106 38.283206 0.694863 1.998325 -0.019156 0.006814 32441.500000 0 0 1
-28.005343 -21.664247 -15.224406 38.541165 0.658419 1.976882 -0.014144 0.007813 403962.000000 0 0 1
-28.905373 -21.016347 -16.131506 39.210112 0.628666 1.994799 -0.010248 0.008404 276514.000000 0 0 1
-29.961123 -20.382747 -15.427406 39.384389 0.597386 1.973290 0.006161 -0.002928 -20449.300000 0 0 1
-31.006713 -19.681047 -16.325106 40.190409 0.565569 1.989082 0.038020 -0.033930 -32143.400000 0 0 1
-31.824343 -20.688547 -16.947306 41.569411 0.576435 1.990716 0.029843 -0.019688 -280545.000000 0 0 1
-32.618913 -19.941747 -17.854606 42.195423 0.548727 2.007705 0.034523 -0.024052 -181743.000000 0 0 1
-33.349183 -20.790647 -18.937806 43.624070 0.557464 2.019851 0.030186 -0.016424 265785.000000 0 0 1
-34.455671 -21.546547 -18.498106 44.650049 0.558845 1.997960 0.026324 -0.017262 -359198.000000 0 0 1
-34.228846 -22.504947 -17.484006 44.539612 0.581619 1.974198 0.020702 -0.019751 -392378.000000 0 0 1
-35.241340 -23.681247 -17.446106 45.903378 0.591668 1.960659 0.015663 0.000519 1130540.000000 0 0 1
33.924039 -23.407847 -17.303206 44.700879 -0.603988 1.968268 0.019599 -0.011673 758626.000000 0 0 1
33.202139 -24.621047 -17.306506 44.811752 -0.638071 1.967310 0.009952 -0.006245 28962.600000 0 0 1
31.765239 -24.540147 -16.773206 43.503904 -0.657776 1.966607 0.011643 -0.006660 173383.000000 0 0 1
30.726829 -24.238547 -17.710306 42.956956 -0.667899 1.995752 -0.000529 -0.008748 -361068.000000 0 0 1
29.521579 -24.629647 -17.117406 42.085017 -0.695304 1.989672 -0.002389 -0.004796 -893329.000000 0 0 1
28.353119 -24.263847 -18.002006 41.433149 -0.707836 2.020261 0.009742 -0.007025 -837922.000000 0 0 1
28.026699 -22.921147 -18.155206 40.502917 -0.685520 2.035597 0.008569 -0.007426 865311.000000 0 0 1
26.707059 -23.016847 -18.740206 39.927904 -0.711320 2.059352 0.012377 -0.005542 673340.000000 0 0 1
33.405469 29.867153 -18.248306 48.383601 0.729535 1.957523 -0.009083 0.012355 -610398.000000 0 0 1
32.646939 30.226253 -19.334006 48.510337 0.746916 1.980736 -0.020355 0.011643 -792823.000000 0 0 1
33.244499 29.716053 -20.479906 49.067984 0.729415 2.001355 -0.014337 0.012133 91486.400000 0 0 1
32.536599 30.016353 -21.855106 49.368587 0.745130 2.029396 -0.007012 0.017333 -298293.000000 0 0 1
31.403739 29.238053 -22.129406 48.278040 0.749701 2.046961 -0.003836 0.007479 314700.000000 0 0 1
30.643589 29.616753 -23.312306 48.576180 0.768360 2.071351 0.000637 0.020685 657091.000000 0 0 1
29.647369 30.803053 -23.215606 48.649347 0.804514 2.068265 0.001358 0.021071 -524877.000000 0 0 1
30.150009 32.115453 -23.107706 49.743255 0.816953 2.053911 -0.001483 0.008001 -250929.000000 0 0 1
29.103219 33.075053 -23.131306 49.759560 0.849190 2.054275 0.006368 0.009737 -621458.000000 0 0 1
29.481789 34.552153 -22.930106 50.880418 0.864416 2.038308 0.005513 0.010581 -364715.000000 0 0 1
29.958479 -34.412118 -21.614006 50.486330 -0.854476 2.013203 0.005394 -0.001089 -352416.000000 0 0 1
31.341439 34.523553 -21.520806 51.354714 0.833673 2.003208 0.003232 0.003050 -984065.000000 0 0 1
31.743419 34.057953 -20.077706 50.702102 0.820558 1.977946 -0.006078 0.000204 -311941.000000 0 0 1
31.456579 -34.067718 -19.115206 50.154928 -0.825227 1.961807 0.000189 -0.001750 72981.300000 0 0 1
31.856459 -34.436118 -17.844606 50.190737 -0.824292 1.934284 -0.012149 -0.010099 -290035.000000 0 0 1
31.505599 -33.338418 -16.769706 48.839286 -0.813656 1.921294 -0.007188 -0.007935 -414732.000000 0 0 1
32.387099 -32.261118 -16.775906 48.694301 -0.783449 1.922518 -0.002657 0.009718 -53827.100000 0 0 1
33.557989 -32.507518 -15.998306 49.384442 -0.769499 1.900703 -0.004602 0.008250 311033.000000 0 0 1
34.743241 -31.563818 -16.323806 49.697425 -0.737485 1.905473 0.002312 0.011295 58032.500000 0 0 1
-35.100098 -32.045918 -17.437406 50.626286 0.739944 1.922432 -0.010263 0.003655 -378089.000000 0 0 1
-33.969573 -31.226118 -17.699706 49.419449 0.743343 1.937085 -0.017268 0.014714 377611.000000 0 0 1
-32.981223 -31.840718 -18.717806 49.517155 0.767806 1.958438 -0.013480 0.011178 -484346.000000 0 0 1
-32.243853 -32.926418 -18.145806 49.528631 0.795871 1.945901 -0.004384 0.003992 365387.000000 0 0 1
-31.354733 -33.661218 -18.976906 49.762635 0.820859 1.962051 0.009425 0.004599 333887.000000 0 0 1
-30.081173 -32.927218 -19.435706 48.650029 0.830537 1.981768 -0.004843 0.008016 -1171060.000000 0 0 1
-30.326863 -32.018018 -20.516106 48.639312 0.812517 2.006227 -0.011662 0.011843 804931.000000 0 0 1
-29.121873 -31.576718 -21.205706 47.904640 0.825819 2.029365 0.005955 0.005305 1319960.000000 0 0 1
-28.247063 -32.709418 -21.868406 48.435832 0.858473 2.039233 0.004070 0.015331 319988.000000 0 0 1
-29.079923 -33.527818 -22.719006 49.858898 0.856323 2.043917 -0.005628 0.026223 525351.000000 0 0 1
-28.291073 -34.415018 -23.523106 50.379706 0.882751 2.056597 -0.014483 0.009727 6184.470000 0 0 1
-29.038653 34.117653 -24.700406 51.160216 -0.865645 2.074651 -0.019998 0.005884 -574301.000000 0 0 1
-30.083533 33.224253 -24.327706 50.997130 -0.834968 2.068081 -0.016860 0.000075 113911.000000 0 0 1
-30.743643 32.757553 -25.490876 51.652819 -0.817102 2.086910 -0.008961 0.000397 314969.000000 0 0 1
-31.679873 33.680553 -26.301916 53.195722 -0.815999 2.087983 0.004773 -0.009561 -515935.000000 0 0 1
-30.950033 34.339253 -27.331786 53.703961 -0.837262 2.104743 -0.003041 -0.013551 -13937.400000 0 0 1
-31.776793 -33.960218 -28.100986 54.338995 0.818600 2.114305 -0.001498 -0.014743 113073.000000 0 0 1
-31.012633 -33.307818 -29.258166 54.103922 0.821067 2.142157 0.001898 -0.016806 -189417.000000 0 0 1
-30.739553 -34.189118 -30.337866 55.083591 0.838477 2.154071 0.011791 -0.013018 -232214.000000 0 0 1
-31.857643 -34.371618 -31.177436 56.288099 0.823339 2.157826 0.014953 -0.011215 -98951.500000 0 0 1
-31.630203 33.812853 -32.369046 56.493663 -0.818738 2.180919 0.028624 -0.010029 -157158.000000 0 0 1
-30.679873 34.386053 -33.235566 56.817763 -0.842297 2.195615 0.023693 -0.008397 -105621.000000 0 0 1
-30.935823 33.840753 -34.493596 57.376214 -0.830214 2.215777 0.015578 -0.019082 -655131.000000 0 0 1
-29.957813 34.338653 33.449162 56.528401 -0.853428 0.937602 0.027315 -0.018990 -1043040.000000 0 0 1
-28.717043 33.783253 33.618290 55.643205 -0.866280 0.922065 0.045039 -0.014026 -1288970.000000 0 0 1
-28.467393 32.448353 33.127321 54.412384 -0.850657 0.916225 0.046109 -0.021571 -1003300.000000 0 0 1
-26.968083 32.239753 33.289378 53.617739 -0.874201 0.900951 0.048956 -0.027899 -838563.000000 0 0 1
-26.464633 31.962053 -34.429667 53.919863 -0.879213 2.263388 0.053123 -0.036373 345978.000000 0 0 1
-25.079343 31.646553 -34.348881 53.012484 -0.900656 2.275672 0.057422 -0.034772 327265.000000 0 0 1
-24.720363 30.189853 34.247016 51.917066 -0.884679 0.850445 0.064846 -0.026632 -593194.000000 0 0 1
-25.101153 29.274453 -33.863496 51.320541 -0.861997 2.291406 0.056636 -0.023384 83328.100000 0 0 1
-24.809763 27.991553 -34.297980 50.748427 -0.845585 2.312904 0.049334 -0.018266 -242879.000000 0 0 1
-24.895563 26.966253 -33.138266 49.448080 -0.825304 2.305225 0.061070 -0.027488 403368.000000 0 0 1
-23.897363 27.062853 -32.070506 48.290779 -0.847435 2.297102 0.055366 -0.017230 658577.000000 0 0 1
-23.929063 28.250353 -31.239996 48.441923 -0.868026 2.271683 0.046094 -0.010152 367748.000000 0 0 1
-22.716063 28.301753 -30.242136 47.239767 -0.894449 2.265534 0.059652 -0.007614 360222.000000 0 0 1
-21.506663 28.717853 -30.845586 47.314922 -0.928003 2.280911 0.048828 -0.007176 446351.000000 0 0 1
-20.370463 28.542253 -29.969436 46.127899 -0.950938 2.277990 0.020184 -0.002134 921054.000000 0 0 1
-20.080963 29.641953 -28.917806 46.023146 -0.975365 2.250203 0.020269 -0.000603 -354858.000000 0 0 1
-19.587163 30.857753 -29.450196 46.937959 -1.005212 2.249042 0.017469 0.000491 57349.000000 0 0 1
-19.051163 31.678853 -28.417976 46.627009 -1.029360 2.226194 0.031579 -0.004336 92925.500000 0 0 1
-18.598263 33.033353 -29.074466 47.774705 -1.058016 2.225059 0.027124 0.001672 969247.000000 0 0 1
-17.353663 32.955153 -29.801876 47.700562 -1.086108 2.245633 0.022056 0.000303 503904.000000 0 0 1
-17.355163 34.072453 -30.735596 49.059256 -1.099688 2.247850 0.016250 0.013186 112459.000000 0 0 1
-16.039163 34.168153 -31.535996 49.185735 -1.131912 2.266807 0.001851 0.015400 -452335.000000 0 0 1
-14.990063 -34.545218 -30.739486 48.610596 1.161390 2.255395 0.010312 0.008022 -313016.000000 0 0 1
-13.683563 34.566953 -31.310216 48.604977 -1.193867 2.270743 0.021284 0.012599 930974.000000 0 0 1
-12.927963 33.227653 -31.152946 47.346755 -1.199746 2.288922 0.021787 0.009557 -543041.000000 0 0 1
-12.852963 32.812053 -29.779246 46.137111 -1.197453 2.272410 0.026768 -0.006851 -26830.200000 0 0 1
-12.549663 31.430653 -29.709026 45.033391 -1.190910 2.291231 0.024331 -0.004888 -290670.000000 0 0 1
-12.283963 30.978653 -28.228036 43.673731 -1.193285 2.273573 0.025902 -0.019546 -182954.000000 0 0 1
-11.164763 31.600253 -27.650366 43.448483 -1.231174 2.260611 0.021330 -0.013831 -175916.000000 0 0 1
-10.938363 31.276953 -26.282436 42.292577 -1.234366 2.241380 0.016098 -0.014556 67129.600000 0 0 1
-9.550463 31.711353 -25.750296 41.951151 -1.278268 2.231682 0.017680 -0.015306 551183.000000 0 0 1
-8.560663 30.708253 -26.023326 41.152099 -1.298925 2.255404 0.020923 -0.004573 21856.800000 0 0 1
-7.251763 31.230253 -25.863286 41.192552 -1.342636 2.249601 0.020914 -0.011415 -184193.000000 0 0 1
-6.276563 30.222053 -26.455816 40.653142 -1.366026 2.279394 0.001004 -0.005451 -667153.000000 0 0 1
-5.986763 29.176553 -25.569046 39.254156 -1.368415 2.280187 0.003466 -0.016985 38182.200000 0 0 1
-4.950763 28.392553 -26.136786 38.907310 -1.398164 2.307393 -0.000792 -0.018093 70825.000000 0 0 1
-4.543263 27.228253 -25.233576 37.399898 -1.405461 2.311350 0.009906 -0.009790 139167.000000 0 0 1
-5.502363 26.177853 -25.115976 36.692891 -1.363621 2.324702 0.012844 -0.006161 338759.000000 0 0 1
-4.935663 25.157053 -24.334706 35.347080 -1.377063 2.330146 0.019778 -0.013756 185144.000000 0 0 1
-5.803463 23.829153 -24.236906 34.480957 -1.331902 2.350273 0.031554 -0.004238 313890.000000 0 0 1
-5.700763 23.027753 -25.379666 34.740518 -1.328115 2.389923 0.026777 -0.005708 -54359.100000 0 0 1
-6.343963 21.808853 -25.221366 33.940967 -1.287719 2.408480 0.011744 -0.008094 -130516.000000 0 0 1
-6.614663 21.082853 -26.553906 34.544904 -1.266777 2.447568 0.000776 -0.000437 1342000.000000 0 0 1
-5.504863 20.195453 -26.969506 34.139627 -1.304682 2.481567 0.012525 -0.009251 1186830.000000 0 0 1
-5.691763 18.934453 -26.293366 32.897581 -1.278786 2.496841 0.019454 -0.009886 -89209.800000 0 0 1
-4.565863 17.936953 -26.595816 32.402451 -1.321539 2.533600 0.027799 -0.022434 -28695.400000 0 0 1
-4.388463 17.583353 -27.944426 33.306514 -1.326212 2.566254 0.011655 -0.023830 111547.000000 0 0 1
-3.330363 16.679853 -28.245076 32.971096 -1.373724 2.599560 0.018465 -0.021324 12374.300000 0 0 1
-3.056063 16.704453 -29.764426 34.268052 -1.389848 2.623119 0.012626 -0.013306 117592.000000 0 0 1
-2.413663 17.880153 -30.305876 35.269984 -1.436616 2.604606 0.015428 -0.012139 315796.000000 0 0 1
-2.117263 17.803553 -31.672806 36.395274 -1.452429 2.626496 0.009753 -0.013508 -77786.600000 0 0 1
-1.314663 19.041653 -32.146366 37.385850 -1.501864 2.605780 0.026514 -0.011006 219716.000000 0 0 1
0.005837 19.136553 -31.627596 36.966371 1.570491 2.597462 0.045059 -0.015288 361946.000000 0 0 1
0.664837 20.334753 -32.081246 37.988822 1.538113 2.576412 0.054830 -0.000751 456138.000000 0 0 1
0.416837 21.552553 -31.120806 37.857508 1.551458 2.535800 0.051446 -0.001211 27924.500000 0 0 1
1.270837 21.543353 -30.003756 36.958849 1.511875 2.518050 0.064282 -0.028115 -187556.000000 0 0 1
0.918137 22.592053 -29.170946 36.907831 1.530179 2.482214 0.057546 -0.023627 -216419.000000 0 0 1
1.859337 22.699553 -27.976816 36.075325 1.489068 2.458321 0.061675 -0.013363 581909.000000 0 0 1
3.090137 23.266653 -28.463716 36.892672 1.438755 2.452035 0.057082 -0.017030 594844.000000 0 0 1
4.078737 23.311053 -27.419846 36.220012 1.397580 2.429561 0.051719 -0.019568 462095.000000 0 0 1
4.764737 24.685853 -27.242066 37.070531 1.380126 2.396273 0.061345 -0.018610 -111366.000000 0 0 1
5.619037 25.090153 -28.275586 38.217773 1.350478 2.403650 0.054907 -0.027884 28093.100000 0 0 1
5.859137 26.479653 -28.234756 39.149751 1.353036 2.376328 0.050987 -0.032031 -314876.000000 0 0 1
6.605237 26.943953 -29.466176 40.470499 1.330390 2.386328 0.043838 -0.027624 -311812.000000 0 0 1
7.951937 26.536753 -29.471586 40.447583 1.279654 2.387125 0.042593 -0.024166 -261834.000000 0 0 1
8.724137 27.331053 -30.343886 41.759412 1.261817 2.384209 0.054247 -0.028765 684541.000000 0 0 1
10.266637 27.125653 -30.208496 41.877896 1.208974 2.376542 0.050762 -0.027732 888563.000000 0 0 1
11.039437 28.104153 -30.920296 43.217789 1.196508 2.368069 0.056776 -0.029623 -600175.000000 0 0 1
12.373237 28.130353 -30.522366 43.313146 1.156412 2.352783 0.037606 -0.037641 -450054.000000 0 0 1
13.078737 29.328653 -31.239536 44.801026 1.151326 2.342413 0.042509 -0.033379 -787210.000000 0 0 1
12.610437 30.598653 -30.887246 45.269445 1.179882 2.321698 0.028948 -0.022365 -143650.000000 0 0 1
13.359037 31.614653 -31.470166 46.565240 1.170996 2.312886 0.062769 -0.029385 -224017.000000 0 0 1
12.782537 33.039553 -31.241046 47.233551 1.201646 2.293502 0.057249 -0.028549 111200.000000 0 0 1
11.781837 33.429053 -32.158506 47.858989 1.231947 2.307625 0.046686 -0.021010 121782.000000 0 0 1
11.276337 -34.417618 -31.843466 48.225870 -1.254185 2.292012 0.036609 -0.011114 -461676.000000 0 0 1
10.038337 -33.981418 -32.605986 48.152417 -1.283559 2.314667 0.006903 -0.000127 -654756.000000 0 0 1
10.228337 -33.706218 -33.956296 48.926047 -1.276172 2.337872 -0.006095 0.013075 181900.000000 0 0 1
8.980737 -33.543818 34.412270 48.888093 -1.309200 0.789925 -0.002522 0.010459 253134.000000 0 0 1
9.122937 -33.147418 32.950536 47.620553 -1.302223 0.806624 0.000292 0.013854 -87033.100000 0 0 1
9.442737 -31.796218 32.739046 46.604827 -1.282115 0.791918 -0.017715 0.001657 95700.300000 0 0 1
9.607037 -31.489318 31.351336 45.461836 -1.274678 0.809834 -0.024006 0.010736 -599847.000000 0 0 1
9.309637 -29.982018 30.941556 44.079140 -1.269728 0.792658 -0.030466 -0.011741 -877774.000000 0 0 1
7.983137 -29.606418 31.038456 43.630909 -1.307418 0.779327 -0.027273 0.000932 -971008.000000 0 0 1
7.497937 -29.202118 32.311326 44.192811 -1.319465 0.750798 -0.019545 0.004249 -477598.000000 0 0 1
5.979037 -28.924918 32.285186 43.757662 -1.366958 0.740964 -0.022713 -0.010052 -3942.010000 0 0 1
5.125937 -30.036518 32.392526 44.471827 -1.401768 0.754837 0.021888 -0.018612 51210.700000 0 0 1
5.066037 -30.949318 31.293316 44.303461 -1.408547 0.786482 -0.002074 -0.016746 -791498.000000 0 0 1
4.786337 -30.441118 29.800636 42.867804 -1.414841 0.802133 0.001952 -0.020441 -48018.300000 0 0 1
3.478837 -29.936118 29.606236 42.246925 -1.455107 0.794292 0.023621 -0.028954 199927.000000 0 0 1
3.391637 -29.335218 28.325096 40.919058 -1.455691 0.806232 0.027270 -0.033770 177294.000000 0 0 1
1.888537 -28.895218 28.092486 40.344615 -1.505531 0.800548 0.026991 -0.044639 1098810.000000 0 0 1
1.112237 -29.948818 27.533036 40.696890 -1.533675 0.827744 0.021542 -0.042974 300951.000000 0 0 1
0.780637 -31.028218 28.408236 42.075974 -1.545643 0.829608 0.034340 -0.037816 -1028070.000000 0 0 1
0.688637 -32.396618 27.745156 42.659216 -1.549543 0.862698 0.021288 -0.023362 800161.000000 0 0 1
1.975637 -32.927618 27.385356 42.872939 -1.510869 0.877916 0.016232 -0.025651 866286.000000 0 0 1
2.513437 -32.515518 26.136116 41.793215 -1.493650 0.895194 0.015639 -0.020760 388979.000000 0 0 1
4.071037 -32.633118 26.115686 41.994318 -1.446686 0.899647 0.004459 -0.000146 556468.000000 0 0 1
4.675037 -32.365718 24.869176 41.083714 -1.427344 0.920617 -0.001191 -0.005246 1485250.000000 0 0 1
6.125737 -32.339018 25.006946 41.336232 -1.383592 0.921075 -0.004262 -0.009114 1208940.000000 0 0 1
6.852737 -31.916618 23.718796 40.351106 -1.359300 0.942447 -0.005987 0.000367 -1174470.000000 0 0 1
8.109537 -31.423618 23.967896 40.344372 -1.318236 0.934671 -0.004918 -0.001818 -739436.000000 0 0 1
8.815637 -31.247918 22.747096 39.643136 -1.295824 0.959662 0.003613 0.003220 674820.000000 0 0 1
10.148037 -30.443418 22.757196 39.340492 -1.249039 0.953948 0.000329 0.003827 740148.000000 0 0 1
11.283837 -30.917618 23.468696 40.422812 -1.220853 0.951355 0.011823 0.001916 546898.000000 0 0 1
12.285937 -29.898718 23.455796 39.938101 -1.180913 0.943073 0.018081 0.002801 213662.000000 0 0 1
13.576837 -30.274918 24.224266 41.081823 -1.149231 0.940160 0.047900 0.002503 -156108.000000 0 0 1
13.460637 -30.217718 25.639046 41.852836 -1.151728 0.911450 0.028987 0.002302 159656.000000 0 0 1
14.329037 -29.272718 26.216686 41.827359 -1.115583 0.893378 0.033712 0.001370 -600472.000000 0 0 1
-10.400663 -13.912047 26.078996 31.334213 0.928832 0.587579 0.037926 -0.005309 -271939.000000 0 0 1
-9.099763 -14.170847 25.630376 30.668139 0.999962 0.581330 0.024901 -0.009256 -558734.000000 0 0 1
-8.196963 -14.165847 26.696546 31.314006 1.046229 0.549964 0.034995 -0.004001 -114158.000000 0 0 1
-6.688463 -14.138247 26.368866 30.658484 1.128919 0.535362 0.026875 -0.006654 -441733.000000 0 0 1
-6.214263 -15.281047 25.671566 30.514861 1.184558 0.571148 0.021514 -0.010748 81129.300000 0 0 1
-6.408963 -15.159947 24.262556 29.318431 1.170828 0.596062 0.019679 -0.006225 -502773.000000 0 0 1
-5.677463 -16.256347 23.481296 29.118270 1.234793 0.632739 0.012864 -0.006771 -243480.000000 0 0 1
-6.238363 -17.528847 23.364196 29.867429 1.228883 0.672505 0.010946 -0.007837 -276925.000000 0 0 1
-6.563063 -18.267147 24.583296 31.322530 1.225876 0.668352 0.011982 -0.006221 -543361.000000 0 0 1
-7.150263 -19.617247 24.354066 32.079326 1.221273 0.708740 0.011333 -0.006050 -469663.000000 0 0 1
-8.532463 -19.662847 24.071106 32.231175 1.161379 0.727519 0.008856 -0.008371 -277351.000000 0 0 1
-8.886063 -21.021847 23.957596 33.088466 1.170870 0.761145 0.000729 -0.011173 329829.000000 0 0 1
-10.432163 -21.129047 24.058726 33.676237 1.112173 0.775012 0.010988 -0.013597 305026.000000 0 0 1
-10.999963 -21.035647 25.335476 34.718640 1.088981 0.752859 0.012472 -0.016409 266729.000000 0 0 1
-12.396763 -20.786047 25.360866 35.055855 1.033029 0.762022 0.033326 -0.014409 275189.000000 0 0 1
-12.908263 -20.756747 26.805166 36.276476 1.014442 0.739340 0.033539 -0.014350 -555948.000000 0 0 1
-12.606463 -21.979447 27.463956 37.366936 1.050047 0.745159 0.030480 -0.013102 84935.400000 0 0 1
-11.715763 -21.753847 28.544836 37.753101 1.076778 0.713475 0.017991 -0.013848 -9830.670000 0 0 1
-11.248263 -23.023747 29.286466 38.914180 1.116350 0.718808 0.011377 -0.009024 -842131.000000 0 0 1
-12.170263 -23.516847 30.219186 40.179057 1.093237 0.719534 0.019220 -0.002278 -195244.000000 0 0 1
-11.816263 -24.831247 30.668776 41.192095 1.126644 0.730965 -0.001855 0.001771 -612242.000000 0 0 1
-12.856963 -25.421597 31.619226 42.559776 1.102560 0.733349 0.002252 -0.008505 20126.200000 0 0 1
-12.925663 -24.899747 32.910666 43.245602 1.091979 0.705916 0.012021 -0.015119 21454.500000 0 0 1
-14.150063 -25.262497 33.530385 44.302424 1.060216 0.712313 0.019991 -0.012503 20386.000000 0 0 1
-14.207163 -24.730747 -33.976536 44.360549 1.049358 2.443264 0.023527 -0.021382 2841.990000 0 0 1
-14.229963 -23.333447 -33.719186 43.404206 1.023164 2.460467 0.039129 -0.030014 -119056.000000 0 0 1
-15.308963 -22.622247 -34.278981 43.831255 0.975865 2.468772 0.032286 -0.023384 -387509.000000 0 0 1
-15.204263 -21.104247 -33.884856 42.717003 0.946486 2.486909 0.025714 -0.020648 -43663.900000 0 0 1
-15.588263 -20.880147 -32.543456 41.689939 0.929501 2.466433 0.032528 -0.018589 153149.000000 0 0 1
-15.849063 -19.511547 -32.408356 41.014568 0.888605 2.481878 0.022924 -0.018348 -288775.000000 0 0 1
-15.991863 -19.083947 -30.946856 39.719575 0.873325 2.464079 0.019573 -0.012875 880442.000000 0 0 1
-17.208963 -19.584747 -30.330306 39.995477 0.849879 2.431564 0.021199 -0.010962 996717.000000 0 0 1
-17.116863 -19.544447 -28.893186 38.855998 0.851518 2.409230 0.019039 -0.008618 69623.800000 0 0 1
-16.128163 -20.495947 -28.168376 38.388265 0.904097 2.394659 0.015558 -0.007816 158793.000000 0 0 1
-14.768863 -20.206047 -28.434436 37.880348 0.939623 2.419824 0.010299 -0.005662 -239577.000000 0 0 1
-13.963663 -21.110347 -27.740696 37.552321 0.986407 2.401967 0.005380 -0.005047 160835.000000 0 0 1
-12.436463 -20.995947 -27.976516 37.123858 1.036038 2.424317 0.022523 -0.013603 -675791.000000 0 0 1
-11.870663 -19.769947 -27.475206 35.869909 1.030053 2.443342 0.020791 -0.019276 503779.000000 0 0 1
-10.457963 -19.838547 -27.319436 35.345276 1.085662 2.454243 0.016399 -0.025592 505463.000000 0 0 1
-9.873863 -20.834147 -26.306486 34.979795 1.128224 2.421960 0.016386 -0.011020 -1131600.000000 0 0 1
-9.889463 -22.160947 -26.767516 36.130444 1.151060 2.405143 0.012588 -0.012096 -35207.000000 0 0 1
-9.530763 -22.969247 -25.666986 35.738158 1.177481 2.372002 0.021974 -0.007199 -183779.000000 0 0 1
-9.483463 -24.504947 -26.004326 36.968276 1.201545 2.350998 0.019088 -0.008587 17044.600000 0 0 1
-8.402463 -24.945547 -26.829196 37.585735 1.245900 2.365724 0.009412 -0.006262 195727.000000 0 0 1
-8.567463 -26.139267 -27.531926 38.918757 1.254068 2.356638 0.009996 -0.013025 -237110.000000 0 0 1
-8.586963 -27.493357 -26.780246 39.329406 1.268068 2.319817 0.016875 -0.003535 -388270.000000 0 0 1
-9.762163 -27.826137 -26.101696 39.381369 1.233385 2.295339 0.017035 -0.001534 -522162.000000 0 0 1
-9.574663 -28.938647 -25.249636 39.581101 1.251273 2.262593 0.033196 -0.000761 -291950.000000 0 0 1
-10.666763 -29.038947 -24.183906 39.267055 1.218770 2.234302 0.032480 -0.008667 -425210.000000 0 0 1
-10.615263 -28.088627 -23.120706 37.897517 1.209468 2.226964 0.028037 -0.017160 -115081.000000 0 0 1
-11.150363 -26.830417 -23.423406 37.321010 1.176926 2.249288 0.021113 -0.015250 -386503.000000 0 0 1
-10.879163 -25.814677 -22.298806 35.804895 1.171951 2.243096 0.023859 -0.017957 81643.100000 0 0 1
-11.432063 -26.192717 -21.017006 35.474851 1.159259 2.204891 0.021752 -0.020022 327446.000000 0 0 1
-11.716963 -25.062127 -20.205106 34.258484 1.133471 2.201588 0.010470 -0.008836 -353112.000000 0 0 1
-12.138663 -25.392417 -18.713906 33.798406 1.124868 2.157588 0.027793 -0.012038 -85706.200000 0 0 1
-13.453463 -25.898927 -18.717206 34.671081 1.091702 2.141056 0.041771 -0.016408 -131995.000000 0 0 1
-13.912763 -26.299187 -17.438906 34.486630 1.084204 2.100956 0.043364 -0.015102 -957106.000000 0 0 1
-15.384063 -26.582457 -17.264606 35.232982 1.046163 2.082901 0.042415 -0.014876 -2155200.000000 0 0 1
-16.153663 -25.400757 -17.388006 34.763228 1.004360 2.094607 0.042669 -0.011581 -726476.000000 0 0 1
-17.478263 -25.625637 -17.012706 35.377890 0.972211 2.072460 0.054991 -0.001679 -474706.000000 0 0 1
-18.373563 -26.312137 -18.052606 36.821365 0.961217 2.083202 0.041500 0.002657 -1518170.000000 0 0 1
-18.072463 -27.702727 -18.286006 37.794616 0.992756 2.075817 0.037442 -0.008774 -284816.000000 0 0 1
-18.506963 -28.596837 -17.240006 38.177278 0.996414 2.039329 0.034702 -0.008975 129048.000000 0 0 1
-20.039163 -28.901027 -17.152706 39.128669 0.964533 2.024577 0.025361 -0.000795 630435.000000 0 0 1
-20.554263 -29.759237 -18.139906 40.461662 0.966349 2.035685 0.017763 -0.004221 -178980.000000 0 0 1
-21.764963 -30.378037 -17.760806 41.376140 0.949102 2.014461 0.012562 0.004511 432219.000000 0 0 1
-22.454963 -31.299407 -18.868806 42.894173 0.948471 2.026275 0.010555 -0.002409 -56764.000000 0 0 1
-21.861163 -32.561687 -18.920606 43.544956 0.979540 2.020288 0.018762 -0.010314 -91357.100000 0 0 1
-22.175663 -33.203577 -20.135206 44.717603 0.981961 2.037869 0.019515 -0.006834 26354.100000 0 0 1
-21.470263 34.565355 -20.298906 45.472866 -1.014970 2.033530 0.020622 -0.008630 -107157.000000 0 0 1
-22.074763 33.554102 -19.543706 44.666871 -0.988898 2.023661 0.024432 -0.010970 -145546.000000 0 0 1
-21.366563 32.314665 -19.620006 43.424788 -0.986586 2.039596 0.022651 -0.021200 13684.500000 0 0 1
-22.043563 31.126795 -18.907906 42.571175 -0.954597 2.031020 0.027644 -0.022296 -21299.500000 0 0 1
-22.271263 31.378235 -17.517306 42.278349 -0.953545 1.998006 0.020443 -0.021437 125057.000000 0 0 1
-22.933163 30.313865 -16.766206 41.544747 -0.923133 1.986211 0.018038 -0.014274 227181.000000 0 0 1
-22.150063 29.007685 -16.437306 40.028191 -0.918652 1.993956 0.022372 -0.024972 -93340.100000 0 0 1
-21.703463 28.303715 -17.613106 39.778915 -0.916626 2.029487 0.021678 -0.020116 45276.300000 0 0 1
-21.018863 27.078725 -17.455306 38.467358 -0.910729 2.041787 0.027368 -0.008027 220280.000000 0 0 1
-20.605563 26.531595 -18.848606 38.519926 -0.910461 2.082107 0.022592 -0.013134 -906399.000000 0 0 1
-20.491663 25.148055 -18.823806 37.505581 -0.887071 2.096583 0.022208 -0.004378 168482.000000 0 0 1
-19.803363 24.551125 -19.948706 37.321332 -0.892033 2.134727 0.007597 0.002197 -3283.010000 0 0 1
-18.324463 24.942755 -20.118406 36.914458 -0.937185 2.147186 0.001822 -0.000967 -1274210.000000 0 0 1
-17.701263 24.618545 -18.917806 35.739206 -0.947418 2.128606 0.002461 -0.001864 -684785.000000 0 0 1
-16.445063 25.210535 -18.719106 35.445960 -0.992799 2.127161 0.013125 -0.010837 -309126.000000 0 0 1
-16.352863 26.369435 -17.756306 35.749820 -1.015696 2.090568 0.011751 -0.017412 -64679.600000 0 0 1
-17.066263 27.539585 -18.135306 37.129172 -1.016018 2.081095 0.014344 -0.020032 -43287.600000 0 0 1
-16.675063 28.632495 -17.328606 37.391952 -1.043432 2.052660 0.014680 -0.022182 -156429.000000 0 0 1
-17.626263 29.861935 -17.630506 38.900579 -1.037570 2.041170 0.028508 -0.024664 601003.000000 0 0 1
-17.483863 30.459625 -18.979206 39.920978 -1.049713 2.066237 0.006805 -0.028701 -95775.300000 0 0 1
-18.004463 29.635515 -20.002906 40.031746 -1.024858 2.094021 0.021912 -0.028406 -156696.000000 0 0 1
-18.009263 30.240025 -21.421806 41.202991 -1.033660 2.117541 0.038378 -0.027076 7954.000000 0 0 1
-18.891263 31.318755 -21.602606 42.478428 -1.028032 2.104302 0.047880 -0.026847 -167517.000000 0 0 1
-19.367163 31.326895 -22.948906 43.394857 -1.017082 2.128029 0.050985 -0.027380 170131.000000 0 0 1
-20.218863 32.539055 -23.326206 44.852028 -1.014810 2.117730 0.048844 -0.027699 59592.700000 0 0 1
-19.436663 33.722403 -23.245606 45.335886 -1.047931 2.109172 0.038824 -0.023695 -61712.400000 0 0 1
-19.840563 -34.417374 -24.204806 46.519632 1.047858 2.118015 0.031974 -0.015363 -442433.000000 0 0 1
-19.045263 -33.122217 -24.327806 45.295093 1.048962 2.137787 0.037421 -0.014220 -388626.000000 0 0 1
-18.972463 -32.282177 -23.165306 44.030952 1.039465 2.124821 0.034684 -0.016498 202560.000000 0 0 1
-18.019863 -32.759447 -22.225106 43.495427 1.067902 2.107116 0.034340 -0.020055 -184541.000000 0 0 1
-17.926163 -31.847287 -20.985806 42.142627 1.058119 2.092054 0.035897 -0.022039 -533818.000000 0 0 1
-16.897563 -30.918877 -21.054206 41.046122 1.070634 2.109403 0.032215 -0.015261 -393276.000000 0 0 1
-16.827363 -30.116887 -19.884506 39.819349 1.061271 2.093665 0.040633 -0.016109 -634082.000000 0 0 1
-15.693063 -29.123557 -19.996106 38.656151 1.076558 2.114468 0.047174 -0.019039 -134255.000000 0 0 1
-14.423863 -29.759147 -20.045506 38.671397 1.119474 2.115722 0.057150 -0.026238 -241778.000000 0 0 1
-13.401763 -28.802407 -20.278306 37.688136 1.135292 2.138925 0.035790 -0.030773 -251251.000000 0 0 1
-12.060063 -29.559177 -20.461506 37.919168 1.183415 2.140768 0.039567 -0.026383 114791.000000 0 0 1
-11.564663 -30.228097 -19.265106 37.664620 1.205397 2.107715 0.039759 -0.023987 285843.000000 0 0 1
-10.899463 -29.378277 -18.339406 36.307234 1.215533 2.100314 0.027550 -0.022613 -507301.000000 0 0 1
-10.123263 -30.146737 -17.255006 36.180677 1.246828 2.067935 0.028222 -0.013753 -214290.000000 0 0 1
-10.907563 -30.922037 -16.357306 36.642990 1.231679 2.033531 0.039643 -0.022716 325540.000000 0 0 1
-11.567263 -32.111807 -16.851806 38.065116 1.225047 2.029415 0.048536 -0.023440 -58771.400000 0 0 1
-12.587163 -32.690377 -15.875906 38.459612 1.203251 1.996316 0.046780 -0.028336 -626384.000000 0 0 1
-12.043463 -33.195747 -14.706006 38.252702 1.222763 1.965401 0.045306 -0.021449 -62932.500000 0 0 1
-13.080463 -33.645497 -13.846406 38.663173 1.200006 1.937060 0.047459 -0.012446 107301.000000 0 0 1
-12.564663 -34.276714 -12.475406 38.579782 1.219441 1.900081 0.030358 -0.011471 -158460.000000 0 0 1
-12.017363 -33.324757 -11.645506 37.290404 1.224698 1.888401 0.018093 -0.001604 -130786.000000 0 0 1
-11.827163 -33.784727 -10.358306 37.263709 1.234055 1.852480 0.015661 0.002444 -784089.000000 0 0 1
-10.720363 -33.100927 -9.592706 36.091793 1.257588 1.839816 0.012804 0.000421 241917.000000 0 0 1
-9.397463 -33.444147 -10.021006 36.155827 1.296870 1.851635 0.005920 0.001391 202970.000000 0 0 1
-8.406063 -32.779917 -9.271306 35.087632 1.319766 1.838205 0.001152 0.001857 359470.000000 0 0 1
-6.995463 -33.174647 -9.787306 35.288596 1.362973 1.851832 -0.002388 0.003899 195381.000000 0 0 1
-6.663663 -34.556376 -9.593406 36.477129 1.380300 1.836924 -0.016509 0.005504 -162160.000000 0 0 1
-5.376663 34.316547 -10.116006 36.178273 -1.415381 1.854190 -0.009533 0.004232 3975.360000 0 0 1
-4.635463 33.147445 -9.448306 34.778026 -1.431854 1.845929 -0.007185 0.001632 -141821.000000 0 0 1
-4.095263 33.604066 -8.229806 34.838687 -1.449526 1.809276 0.002754 0.001198 62249.900000 0 0 1
-3.495463 32.541545 -7.451906 33.566372 -1.463791 1.794667 0.000246 -0.001290 250998.000000 0 0 1
-2.999263 32.982985 -6.060106 33.668943 -1.480112 1.751774 0.001889 0.005000 -124979.000000 0 0 1
-1.925963 33.906159 -6.109006 34.505896 -1.514055 1.748777 -0.003096 0.005154 -8843.260000 0 0 1
-1.584163 34.340195 -4.737006 34.701553 -1.524698 1.707731 -0.000861 0.003218 282297.000000 0 0 1
-0.462963 33.479972 -4.100106 33.733273 -1.556969 1.692642 0.007556 -0.003864 -857359.000000 0 0 1
0.837537 33.786825 -4.494906 34.094797 1.546013 1.703017 0.016314 -0.000547 -782750.000000 0 0 1
1.718037 33.032365 -3.689706 33.282168 1.518832 1.681886 0.024317 -0.001449 -574941.000000 0 0 1
3.164637 33.146615 -4.145906 33.554456 1.475611 1.694670 0.033228 -0.000845 -328189.000000 0 0 1
3.723737 34.461562 -3.918406 34.882938 1.463159 1.683364 0.036085 -0.000810 -264911.000000 0 0 1
5.111237 34.484120 -4.132906 35.104988 1.423648 1.688800 0.045190 -0.000294 -48409.100000 0 0 1
5.734937 -33.236497 -3.911306 33.953682 -1.399929 1.686248 0.054450 -0.000685 -173116.000000 0 0 1
5.337437 -32.213957 -4.736606 32.994889 -1.406601 1.714850 0.043173 -0.007575 -273280.000000 0 0 1
5.695537 -30.940357 -4.235406 31.744030 -1.388753 1.704619 0.042946 -0.009248 68463.700000 0 0 1
5.351137 -29.803587 -5.127706 30.711265 -1.393142 1.738547 0.028606 -0.006772 -381615.000000 0 0 1
6.311437 -29.736347 -6.140506 31.012745 -1.361653 1.770113 0.043817 -0.005130 -437415.000000 0 0 1
6.221137 -28.752477 -7.164606 30.277699 -1.357712 1.809692 0.032989 0.000993 -134654.000000 0 0 1
6.431937 -27.276477 -6.661406 28.805387 -1.339221 1.804164 0.041281 -0.002438 88977.500000 0 0 1
5.631537 -26.737807 -5.622606 27.896921 -1.363210 1.773736 0.044024 -0.002466 169592.000000 0 0 1
6.375337 -25.728757 -4.878306 26.952026 -1.327898 1.752799 0.044464 -0.009248 634474.000000 0 0 1
5.574937 -25.272957 -3.627806 26.133565 -1.353684 1.710064 0.031217 -0.007058 598935.000000 0 0 1
4.507237 -24.424847 -4.056206 25.166270 -1.388314 1.732679 0.021791 -0.009751 137631.000000 0 0 1
3.737637 -23.945247 -2.967806 24.416237 -1.415955 1.692648 0.020324 -0.007661 -14808.800000 0 1 0
2.528037 -23.042047 -3.312306 23.415769 -1.461519 1.712729 0.017253 -0.009302 548499.000000 0 1 0
1.512637 -23.890347 -3.880606 24.250687 -1.507565 1.731508 0.002141 -0.000822 -142638.000000 0 1 0
0.479237 -23.148547 -4.486706 23.584219 -1.550097 1.762205 -0.001083 0.000278 145884.000000 0 1 0
-14.846463 23.411753 18.602496 33.385334 -1.005647 0.979780 -0.004184 0.004915 -129893.000000 0 0 1
-14.789663 22.625553 19.776796 33.492857 -0.991845 0.939145 0.000261 -0.007651 357181.000000 0 0 1
-14.861663 23.560053 20.830696 34.783086 -1.008038 0.928702 0.003353 -0.008388 -874605.000000 0 0 1
-14.678463 22.879953 22.203096 35.098818 -1.000390 0.885906 0.008560 -0.013117 417868.000000 0 0 1
-13.520963 22.078753 22.546196 34.331017 -1.021311 0.854322 0.005420 -0.010730 2168380.000000 0 0 1
-12.178763 22.593653 22.329596 34.020675 -1.076411 0.854821 -0.009380 -0.015675 967186.000000 0 0 1
-11.727663 23.740953 23.210096 35.211923 -1.111973 0.851102 -0.001788 0.002712 -902074.000000 0 0 1
-11.424563 23.436753 24.539696 35.805010 -1.117228 0.815684 -0.019353 0.007975 252943.000000 0 0 1
-11.531063 24.510253 25.421876 37.148213 -1.131060 0.817103 -0.005249 0.004715 -100243.000000 0 0 1
-11.168863 23.952053 26.832526 37.662034 -1.134470 0.777805 -0.011299 0.001384 611787.000000 0 0 1
-9.777963 23.686653 27.014396 37.234980 -1.179300 0.759019 -0.036198 0.005409 29143.600000 0 0 1
-9.561263 22.804353 28.114936 37.442034 -1.173786 0.721384 -0.041939 0.008788 -573254.000000 0 0 1
-8.052963 22.506653 28.236946 36.996281 -1.227186 0.702487 -0.031358 0.000246 151170.000000 0 0 1
-7.169863 23.564253 28.573166 37.724088 -1.275428 0.711436 -0.020798 -0.002421 -137929.000000 0 0 1
-7.068863 24.699753 27.667996 37.756651 -1.292055 0.748371 -0.019563 0.009369 -1226620.000000 0 0 1
-5.947263 25.622853 28.164226 38.537309 -1.342727 0.751259 -0.021020 0.000981 276652.000000 0 0 1
-4.658563 25.027353 28.064626 37.890551 -1.386764 0.736720 -0.011725 -0.004800 30424.300000 0 0 1
-3.635063 25.923853 28.432196 38.647764 -1.431484 0.744134 -0.002405 0.000810 -692251.000000 0 0 1
-2.256963 25.308253 28.428586 38.128547 -1.481853 0.729364 0.008189 -0.003326 -957732.000000 0 0 1
-1.700563 25.268353 27.152506 37.130044 -1.503598 0.750598 0.009696 -0.002750 161313.000000 0 0 1
-0.360663 24.782753 27.211526 36.807365 -1.556244 0.738773 0.015698 -0.000622 522313.000000 0 0 1
0.217937 24.580353 25.797306 35.633443 1.561930 0.761266 0.012343 0.000296 15165.600000 0 0 1
-0.431563 23.548853 25.032826 34.371167 -1.552472 0.754946 0.011606 0.006731 166730.000000 0 0 1
0.139237 23.535453 23.758996 33.442889 1.564880 0.780680 0.010352 0.012847 -170485.000000 0 0 1
-0.402663 22.391853 22.939296 32.058829 -1.552816 0.773403 0.005959 0.014047 93262.600000 0 0 1
0.204837 21.144253 23.327396 31.484740 1.561109 0.736370 0.010121 0.010631 -62033.200000 0 0 1
-0.346363 20.007253 22.724696 30.279068 -1.553486 0.721965 0.002688 0.015335 -196865.000000 0 0 1
0.517437 18.711953 22.850396 29.538882 1.543151 0.686341 0.003093 0.023731 687686.000000 0 0 1
1.724737 18.879653 22.079296 29.101741 1.479695 0.709491 0.015242 0.017981 304093.000000 0 0 1
2.615937 17.817153 22.356496 28.707264 1.425017 0.678086 -0.001717 0.019781 -170106.000000 0 0 1
3.959237 17.975853 21.615096 28.390478 1.354005 0.705403 -0.000840 0.014479 273592.000000 0 0 1
4.803037 18.824153 22.458196 29.694924 1.320974 0.713161 -0.005192 0.015312 359463.000000 0 0 1
6.092537 18.927153 21.824796 29.524191 1.259376 0.738889 0.013586 -0.001137 755077.000000 0 0 1
7.132037 19.530353 22.843196 30.888708 1.220665 0.738421 0.009986 -0.008858 -88304.500000 0 0 1
6.842037 20.752953 23.556296 32.130945 1.252329 0.747877 -0.008178 -0.004710 19994.600000 0 0 1
6.611037 21.860153 22.676996 32.184131 1.277117 0.788935 0.000364 -0.004189 -487156.000000 0 0 1
5.588937 22.817753 23.273596 33.068813 1.330587 0.790074 -0.011993 0.000440 -211146.000000 0 0 1
5.646637 24.009153 22.638696 33.478867 1.339807 0.828192 -0.017542 -0.003985 1000870.000000 0 0 1
4.524537 24.734553 23.191596 34.207012 1.389873 0.825788 -0.028912 0.004898 259924.000000 0 0 1
4.495837 26.150753 22.565296 34.831983 1.400541 0.866060 -0.019359 0.007760 -41706.700000 0 0 1
4.225037 26.164353 21.181496 33.927572 1.410698 0.896542 -0.004872 0.001391 1031110.000000 0 0 1
2.983037 25.540153 20.746696 33.039724 1.454525 0.891903 0.013115 -0.001841 539539.000000 0 0 1
2.616237 25.818253 19.270696 32.323159 1.469808 0.932051 0.019244 -0.007578 -578000.000000 0 0 1
1.972637 27.077453 19.173596 33.237126 1.498073 0.955901 0.017987 -0.011126 280313.000000 0 0 1
1.665937 27.443453 17.840896 32.775235 1.510166 0.995193 0.022250 -0.010937 -187834.000000 0 0 1
0.488437 28.427553 17.827996 33.558930 1.553616 1.010728 0.020601 0.000928 -166399.000000 0 0 1
0.871937 29.751053 18.279296 34.928758 1.541497 1.020041 0.020002 0.003742 -503541.000000 0 0 1
-0.207963 30.553253 18.572996 35.756129 -1.563990 1.024606 0.022144 0.008298 -839860.000000 0 0 1
0.136037 31.982653 19.064496 37.233904 1.566543 1.033262 0.022034 0.009392 -256184.000000 0 0 1
0.727237 31.981953 20.317996 37.897166 1.548061 1.004945 0.012068 0.006361 -19626.900000 0 0 1
1.226837 33.254153 20.686396 39.182532 1.533920 1.014612 0.003900 0.009638 -262149.000000 0 0 1
1.772937 33.233553 22.086996 39.943057 1.517499 0.984881 0.006040 -0.000326 -302215.000000 0 0 1
0.752137 33.023453 23.045796 40.276828 1.548024 0.961629 0.005201 -0.003411 300027.000000 0 0 1
1.157837 33.089553 24.399366 41.128922 1.535820 0.935717 0.006639 -0.009839 -170944.000000 0 0 1
-0.044163 32.837253 25.323386 41.467590 -1.569451 0.913879 0.003662 0.003250 473966.000000 0 0 1
-1.090663 33.846153 25.415256 42.340133 -1.538583 0.926965 0.005721 0.002614 660697.000000 0 0 1
-2.113363 33.581653 26.324346 42.721949 -1.507947 0.906915 0.005871 -0.002044 -301985.000000 0 0 1
-1.768663 33.726553 27.836206 43.766002 -1.518403 0.881462 0.007739 -0.008713 -1129140.000000 0 0 1
-0.852463 32.798453 28.279266 43.314918 -1.544811 0.859421 0.009787 -0.011518 -86976.000000 0 0 1
-0.262963 33.243653 29.505446 44.449758 -1.562886 0.844917 0.014354 -0.006484 -366043.000000 0 0 1
0.868837 32.388653 30.139066 44.250910 1.543977 0.821539 0.006491 -0.008113 -213936.000000 0 0 1
2.175237 32.408453 29.659286 43.985370 1.503777 0.830781 -0.003292 -0.012960 -247304.000000 0 0 1
2.308637 31.976853 28.248116 42.729440 1.498724 0.848522 -0.010738 -0.011251 -805478.000000 0 0 1
3.807337 31.743853 27.957426 42.470999 1.451427 0.852277 -0.026285 -0.005790 -57496.700000 0 0 1
4.245137 30.551753 28.566346 42.041253 1.432731 0.823738 -0.027244 -0.006001 810647.000000 0 0 1
5.677937 30.553653 28.603576 42.236587 1.387057 0.826815 -0.015578 -0.004862 769954.000000 0 0 1
6.376437 29.383253 29.322906 41.998421 1.357101 0.797929 -0.018165 -0.004397 -23203.500000 0 0 1
6.419137 29.571653 30.714836 43.117156 1.357042 0.777944 -0.008640 -0.002769 252566.000000 0 0 1
7.115237 28.517753 31.358696 42.979724 1.326286 0.753036 -0.010442 -0.004275 -229558.000000 0 0 1
7.073137 28.651053 32.914756 44.207390 1.328764 0.730931 0.015204 -0.005870 256259.000000 0 0 1
5.719637 28.697753 33.369475 44.382397 1.374068 0.719913 0.007433 -0.005470 206602.000000 0 0 1
5.736437 28.528353 -34.248632 44.941545 1.372364 2.437301 0.028469 -0.008765 -86059.200000 0 0 1
5.837737 27.038953 -33.733006 43.624533 1.358159 2.454759 0.024848 -0.012056 236249.000000 0 0 1
7.192437 26.625353 -33.782096 43.610442 1.306959 2.456931 0.011210 -0.012769 170471.000000 0 0 1
7.219837 25.252653 -33.497086 42.566152 1.292321 2.476633 0.018590 -0.012095 223294.000000 0 0 1
8.492537 24.464953 -33.932046 42.685371 1.236680 2.489695 0.011154 -0.010641 -160676.000000 0 0 1
8.620637 24.471853 33.665493 42.503558 1.232103 0.656615 0.000327 -0.006234 462081.000000 0 0 1
9.820237 23.950953 33.094582 42.015909 1.181687 0.663782 0.001154 -0.015075 218273.000000 0 0 1
10.150237 22.475753 33.394385 41.513513 1.146606 0.636094 0.010673 -0.021434 -477720.000000 0 0 1
9.284837 21.663353 32.579266 40.210915 1.165883 0.626287 0.009672 -0.018094 320162.000000 0 0 1
9.132937 20.330153 33.056034 39.867619 1.148582 0.593220 0.013069 -0.021961 -468753.000000 0 0 1
8.004537 20.127853 34.049201 40.355312 1.192288 0.566592 0.036441 -0.021735 -511148.000000 0 0 1
8.240137 20.731153 -33.752426 40.458706 1.192468 2.557556 0.030623 -0.015974 -272145.000000 0 0 1
7.051937 20.693553 -33.015306 39.597518 1.242359 2.556701 0.036208 -0.010019 -253851.000000 0 0 1
7.155437 21.268553 -31.550456 38.716701 1.246259 2.523363 0.038744 -0.017156 -442346.000000 0 0 1
7.148037 22.690053 -31.517986 39.488181 1.265609 2.495035 0.046566 -0.013653 6796.360000 0 0 1
7.326937 23.143453 -30.173036 38.726161 1.264192 2.464086 0.029810 -0.015938 397584.000000 0 0 1
8.785137 23.224353 -29.621796 38.652297 1.209160 2.443961 0.018040 -0.018810 123794.000000 0 0 1
9.386337 22.016553 -29.529156 38.010565 1.167799 2.460471 0.012114 -0.015744 -667625.000000 0 0 1
10.778637 22.135053 -29.302646 38.272506 1.117644 2.442819 0.024233 -0.012814 220381.000000 0 0 1
11.426937 20.741853 -29.298096 37.671977 1.067253 2.461820 0.027025 -0.020225 -376092.000000 0 0 1
11.587037 20.143053 -30.583046 38.409956 1.048784 2.491829 0.021039 -0.022715 -194637.000000 0 0 1
10.445737 19.481453 -31.096306 38.152598 1.078619 2.523613 0.036361 -0.024304 -550386.000000 0 0 1
10.573837 18.470153 -32.292316 38.674879 1.050856 2.558872 0.038492 -0.026611 -892959.000000 0 0 1
11.067337 17.241053 -31.784976 37.815666 1.000124 2.569046 0.032743 -0.018792 104701.000000 0 0 1
11.105037 16.212753 -32.776986 38.216568 0.970238 2.601506 0.027899 -0.012003 -216064.000000 0 0 1
12.298037 16.287753 -33.746156 39.437744 0.924072 2.597663 0.013131 -0.005155 -431196.000000 0 0 1
12.342237 17.565753 -34.411786 40.559309 0.958307 2.583811 0.023314 -0.016582 -3246.400000 0 0 1
13.192737 17.525553 33.461314 40.010660 0.925524 0.580279 0.028820 -0.016706 28230.300000 0 0 1
12.508437 17.212153 32.083726 38.497853 0.942361 0.585583 0.033999 -0.023911 -646835.000000 0 0 1
12.559437 18.242553 31.104546 38.184067 0.967851 0.618766 0.026057 -0.022624 131413.000000 0 0 1
11.957637 17.849653 29.864956 36.790091 0.980553 0.623626 0.031907 -0.026396 387438.000000 0 0 1
10.403937 18.008353 29.774846 36.319198 1.046914 0.609717 0.032266 -0.018799 249255.000000 0 0 1
9.660037 17.130653 30.582806 36.360468 1.057341 0.571482 0.037732 -0.014220 -248440.000000 0 0 1
8.336937 17.596053 30.628686 36.293829 1.128331 0.566268 0.039690 -0.014905 -303434.000000 0 0 1
7.379837 16.735653 31.460756 36.391253 1.155481 0.526613 0.048940 -0.009633 -153436.000000 0 0 1
7.550337 16.975053 32.866386 37.753932 1.152283 0.514494 0.061419 -0.009250 164704.000000 0 0 1
6.834737 16.097853 33.710976 37.977420 1.169286 0.478561 0.072026 -0.011804 -197707.000000 0 0 1
7.156337 16.345853 -33.846386 38.261965 1.158128 2.656424 0.075847 -0.019031 230995.000000 0 0 1
6.162837 17.146253 -33.192116 37.864114 1.225748 2.639571 0.068515 -0.019701 511180.000000 0 0 1
6.351337 17.156453 -31.809106 36.694722 1.216240 2.619661 0.064155 -0.022338 -179739.000000 0 0 1
5.267137 17.992753 -31.120216 36.331113 1.286016 2.599386 0.062006 -0.021824 -648221.000000 0 0 1
5.418537 18.038953 -29.706306 35.174266 1.278991 2.576514 0.054143 -0.025320 435689.000000 0 0 1
4.483837 18.814353 -28.938546 34.806955 1.336840 2.552421 0.054137 -0.027682 455187.000000 0 0 1
2.950737 18.782353 -29.057696 34.725111 1.414968 2.562194 0.067205 -0.024664 -1079210.000000 0 0 1
2.319037 17.749353 -28.343226 33.522469 1.440878 2.578296 0.071078 -0.025402 1176490.000000 0 0 1
0.884637 17.719353 -28.514636 33.583367 1.520913 2.585019 0.069826 -0.021979 1025800.000000 0 0 1
0.030837 18.875653 -28.038066 33.799769 1.569163 2.549069 0.060332 -0.022474 -1322940.000000 0 0 1
-0.162363 18.961053 -26.646266 32.704303 -1.562234 2.523117 0.059040 -0.025273 -332647.000000 0 0 1
-0.954563 20.082953 -26.463236 33.234607 -1.523301 2.491876 0.058426 -0.021649 -442690.000000 0 0 1
-1.319463 20.330153 -24.994706 32.245798 -1.505985 2.457718 0.056253 -0.030285 338640.000000 0 0 1
-2.278363 19.420653 -24.436706 31.297050 -1.454014 2.466740 0.051788 -0.016305 309949.000000 0 0 1
-2.566063 19.761253 -23.078506 30.491134 -1.441666 2.429341 0.056341 -0.018960 144114.000000 0 0 1
-3.740963 18.888753 -22.541506 29.646236 -1.375274 2.434648 0.048109 -0.010392 1438800.000000 0 0 1
-5.029163 19.536353 -22.761006 30.414224 -1.318841 2.416393 0.044869 -0.005668 1171440.000000 0 0 1
-6.102563 18.711453 -22.322306 29.759790 -1.255533 2.418984 0.037792 -0.002458 273227.000000 0 0 1
-7.496963 19.346953 -22.282906 30.447282 -1.201111 2.391832 0.048291 0.000613 -216326.000000 0 0 1
-7.679763 20.217153 -21.202806 30.286483 -1.207768 2.346299 0.032393 -0.007930 56106.800000 0 0 1
-7.442763 21.568053 -21.470606 31.329899 -1.238509 2.325822 0.029174 -0.003566 -106587.000000 0 0 1
-7.796263 22.540753 -20.322206 31.334635 -1.237802 2.276480 0.046556 -0.011724 -317320.000000 0 0 1
-7.027263 22.371253 -19.164406 30.284152 -1.266436 2.255986 0.065110 -0.014063 -98299.500000 0 0 1
-7.277463 23.298553 -18.153906 30.419539 -1.268042 2.210284 0.070856 -0.015091 3798.280000 0 0 1
-6.181463 23.297553 -17.041306 29.519360 -1.311445 2.186205 0.087594 -0.020930 504010.000000 0 0 1
-4.954263 23.840753 -17.475406 29.971921 -1.365906 2.193286 0.079749 -0.021018 -375909.000000 0 0 1
-4.003363 23.894853 -16.430906 29.273975 -1.404797 2.166728 0.068780 -0.014330 357435.000000 0 0 1
-2.655063 24.550853 -16.813306 29.874421 -1.463070 2.168565 0.055383 -0.006056 93998.800000 0 0 1
-2.667863 25.970353 -16.943706 31.123398 -1.468428 2.146475 0.042820 -0.008975 -175648.000000 0 0 1
-1.421363 26.568553 -17.240406 31.703942 -1.517349 2.145747 0.041568 -0.013137 18352.600000 0 0 1
-1.349763 28.098053 -17.087306 32.913500 -1.522796 2.116662 0.037529 -0.027850 -43627.700000 0 0 1
-2.344163 28.876353 -17.761406 33.982443 -1.489795 2.120769 0.029764 -0.026065 17336.900000 0 0 1
-2.240063 28.988253 -19.165506 34.823173 -1.493675 2.153599 0.032146 -0.028228 -1159030.000000 0 0 1
-3.507763 29.546953 -19.765506 35.721172 -1.452631 2.157150 0.035492 -0.023705 -529334.000000 0 0 1
-3.858863 30.813053 -19.302406 36.563889 -1.446210 2.126933 0.023678 -0.009618 -722832.000000 0 0 1
-4.841863 30.688453 -18.334806 36.074783 -1.414312 2.103941 0.012883 -0.010671 -904959.000000 0 0 1
-5.225463 31.977953 -17.636206 36.890795 -1.408820 2.069247 0.025545 -0.005166 -114872.000000 0 0 1
-6.128663 32.769253 -18.382006 38.069445 -1.385907 2.074708 0.037460 -0.007438 10516.800000 0 0 1
-6.264063 34.059153 -17.780606 38.928324 -1.388912 2.045137 0.030036 -0.019009 279275.000000 0 0 1
-7.104163 -34.027218 -18.603106 39.425832 1.364974 2.062185 0.030250 -0.010480 1768870.000000 0 0 1
-8.493663 -34.447918 -18.755106 40.131725 1.329053 2.057074 0.046038 -0.017350 1041560.000000 0 0 1
-9.248063 -33.394218 -19.310906 39.668773 1.300631 2.079223 0.058409 -0.027620 -277561.000000 0 0 1
27.113137 -20.758147 -26.991616 43.526661 -0.653418 2.239688 0.014078 0.007967 266182.000000 0 0 1
27.193937 -21.971947 -26.318406 43.759972 -0.679583 2.216082 0.021397 0.000226 595638.000000 0 0 1
25.899537 -22.401347 -25.834076 42.895289 -0.713099 2.217124 -0.010793 -0.000986 645430.000000 0 0 1
25.866837 -23.896447 -25.330676 43.379449 -0.745824 2.194361 -0.001779 0.008815 47987.900000 0 0 1
26.117437 -24.995697 -26.231326 44.665287 -0.763455 2.198499 0.012847 0.022672 -417057.000000 0 0 1
27.492937 -25.083627 -26.512126 45.694012 -0.739605 2.189783 0.007856 0.021859 -110870.000000 0 0 1
27.745037 -26.387227 -27.337156 47.046710 -0.760320 2.190832 0.010145 0.010132 108513.000000 0 0 1
27.266237 -27.459117 -26.518126 46.911212 -0.788923 2.171573 0.009961 -0.001368 -168561.000000 0 0 1
27.601637 -28.763517 -26.977326 48.134877 -0.806009 2.165729 0.003987 0.006470 761200.000000 0 0 1
26.585137 -29.344177 -28.055736 48.528080 -0.834689 2.187236 0.018497 -0.001332 283211.000000 0 0 1
26.467337 -28.536397 -29.223536 48.670945 -0.822997 2.214836 -0.004543 0.004371 650718.000000 0 0 1
27.512137 -28.779067 -30.213106 49.979837 -0.807901 2.219942 0.003689 0.000574 238471.000000 0 0 1
27.553137 -30.154227 -30.934956 51.238894 -0.830441 2.218980 0.019579 0.001437 -900893.000000 0 0 1
28.120937 -31.242697 -30.222226 51.771383 -0.837937 2.194152 0.024357 -0.007878 1431600.000000 0 0 1
29.481637 -31.168707 -29.688916 52.173623 -0.813207 2.176135 0.018137 -0.011041 1605350.000000 0 0 1
30.651437 -30.722307 -30.594796 53.098138 -0.786553 2.184860 0.005137 -0.008087 -643089.000000 0 0 1
30.608637 -29.336047 -30.931536 52.480970 -0.764172 2.201095 0.015346 -0.012546 -502463.000000 0 0 1
31.677537 -28.917077 -31.748066 53.362940 -0.739873 2.207995 0.016396 -0.010116 -192793.000000 0 0 1
31.517637 -27.431137 -32.294406 52.808686 -0.716186 2.228797 0.010623 -0.010173 69506.800000 0 0 1
31.636337 -26.399187 -31.319936 51.756287 -0.695402 2.220741 0.010480 -0.003834 -60916.600000 0 0 1
30.471637 -26.146037 -30.545846 50.449823 -0.709146 2.221152 0.014375 -0.001207 -12098.600000 0 0 1
30.548037 -24.764847 -29.936416 49.423367 -0.681223 2.221459 0.019614 0.004668 391171.000000 0 0 1
31.479537 -24.662847 -28.833506 49.300997 -0.664572 2.195487 0.023519 0.004743 619452.000000 0 0 1
31.385037 -23.395747 -28.216986 48.255360 -0.640578 2.195360 0.015677 0.009015 -299244.000000 0 0 1
31.946737 -23.323147 -26.789966 47.773062 -0.630619 2.166119 0.015979 0.004766 -633801.000000 0 0 1
31.285937 -23.990147 -25.752586 47.090686 -0.654169 2.149420 0.022544 0.003775 -392639.000000 0 0 1
30.400737 -23.235147 -24.977906 45.694339 -0.652588 2.149131 0.007233 0.004500 -153843.000000 0 0 1
30.995637 -22.107047 -24.008006 45.009281 -0.619551 2.133413 0.014112 0.002615 -522919.000000 0 0 1
31.494137 -21.033547 -24.766606 45.251249 -0.588825 2.149947 0.021721 0.003357 34639.200000 0 0 1
31.833637 -19.934147 -23.889106 44.513369 -0.559460 2.137285 0.014416 0.005844 110758.000000 0 0 1
32.204737 -18.738647 -24.761106 44.736946 -0.526974 2.157336 0.011252 0.005554 -448998.000000 0 0 1
31.014537 -18.155947 -25.222246 43.905599 -0.529616 2.182747 0.018649 0.008605 16395.900000 0 0 1
31.197137 -16.940447 -25.969066 43.984457 -0.497463 2.202369 0.014264 0.006965 -117417.000000 0 0 1
30.218637 -16.869447 -27.147576 43.985624 -0.509152 2.235965 0.006194 0.021671 -742144.000000 0 0 1
28.880037 -16.718647 -26.813396 42.808035 -0.524760 2.247676 -0.000311 0.018060 -707915.000000 0 0 1
28.174037 -16.597447 -28.034346 43.071756 -0.532369 2.279533 0.001513 0.014536 -486940.000000 0 0 1
26.665437 -16.298347 -27.986176 41.951254 -0.548626 2.301121 -0.010044 0.021284 399298.000000 0 0 1
25.864637 -17.308247 -27.302026 41.399945 -0.589745 2.290910 -0.014149 0.028110 370136.000000 0 0 1
25.790337 -17.045647 -25.932896 40.351092 -0.584022 2.268789 -0.014460 0.028105 -563855.000000 0 0 1
24.828937 -17.952847 -25.158936 39.645339 -0.626036 2.258287 -0.016054 0.013567 -482972.000000 0 0 1
24.800737 -17.700947 -23.800006 38.663165 -0.619879 2.233909 -0.020798 0.024550 139748.000000 0 0 1
24.143037 -18.686447 -22.972806 38.207582 -0.658678 2.215877 -0.013654 0.011895 139294.000000 0 0 1
24.191637 -18.283847 -21.473006 37.156754 -0.647198 2.186953 -0.021076 0.012798 -23350.200000 0 0 1
23.355937 -17.220147 -21.054406 35.851377 -0.635318 2.198477 -0.023822 0.006070 -207875.000000 0 0 1
23.711237 -15.880947 -21.436506 35.692450 -0.590144 2.215034 -0.016570 0.011002 216894.000000 0 0 1
24.919037 -15.072247 -20.870706 35.829002 -0.543977 2.192608 -0.007083 0.007393 387035.000000 0 0 1
24.697837 -14.277047 -19.679706 34.657006 -0.524137 2.174678 -0.005505 -0.005347 95660.800000 0 0 1
25.854837 -13.487347 -19.505806 35.083580 -0.480822 2.160339 -0.010265 0.008087 -136182.000000 0 0 1
26.016637 -12.717547 -18.213906 34.210346 -0.454667 2.132241 -0.007370 0.001701 -219912.000000 0 0 1
26.460937 -13.408947 -17.048006 34.214259 -0.469029 2.092401 -0.002855 0.003740 194929.000000 0 0 1
26.317537 -12.561247 -15.908506 33.218643 -0.445320 2.070201 -0.011826 0.001757 -39678.300000 0 0 1
26.790737 -13.123447 -14.554606 33.193448 -0.455495 2.024701 0.005396 -0.012276 213332.000000 0 0 1
25.990337 -14.228247 -14.039906 32.788101 -0.500878 2.013298 0.029436 -0.021309 1354840.000000 0 0 1
26.652837 -14.643047 -12.790806 32.990866 -0.502382 1.968940 0.047018 -0.027483 551437.000000 0 0 1
25.865337 -15.833247 -12.242906 32.704680 -0.549299 1.954489 0.054507 -0.046393 804741.000000 0 0 1
24.557137 -15.485047 -11.738706 31.315122 -0.562596 1.955039 0.040005 -0.036647 930488.000000 0 0 1
23.840237 -16.691747 -11.529906 31.303515 -0.610827 1.948004 0.015034 -0.037406 438160.000000 0 0 1
22.390237 -16.531747 -10.980706 29.919847 -0.636001 1.946583 0.017481 -0.033618 322117.000000 0 0 1
22.406137 -16.048247 -9.634106 29.195842 -0.621545 1.907081 0.003887 -0.026421 920796.000000 0 0 1
21.076237 -15.996747 -9.092506 27.978158 -0.649233 1.901793 -0.013313 -0.016761 486790.000000 0 0 1
20.849037 -15.632147 -7.553906 27.131307 -0.643359 1.852945 -0.010479 -0.011206 -624725.000000 0 0 1
21.214137 -14.281647 -7.339106 26.605780 -0.592521 1.850266 0.002794 -0.000934 436565.000000 0 0 1
21.057637 -13.823847 -5.969606 25.887429 -0.580915 1.803489 -0.013293 -0.000707 -645218.000000 0 0 1
21.854337 -14.515447 -4.829106 26.676403 -0.586286 1.752825 -0.000468 -0.009023 -429384.000000 0 0 1
23.239637 -14.561647 -5.054106 27.886668 -0.559739 1.753041 0.031817 -0.001910 -148927.000000 0 0 1
23.871437 -15.221247 -3.982506 28.590072 -0.567633 1.710548 0.022853 -0.008311 663636.000000 0 0 1
25.432537 -15.164947 -4.184106 29.904787 -0.537681 1.711171 0.056750 -0.012031 810104.000000 0 0 1
26.019437 -13.919447 -3.758806 29.747113 -0.491226 1.697494 0.051667 -0.008541 315703.000000 0 0 1
27.394937 -13.894947 -4.091306 30.988561 -0.469398 1.703209 0.066056 -0.022508 7976.200000 0 0 1
28.115737 -12.653247 -3.570606 31.037857 -0.422888 1.686092 0.067317 -0.016750 -1187840.000000 0 0 1
28.222537 -12.633947 -2.113206 30.993448 -0.420902 1.639032 0.066955 -0.021883 559785.000000 0 0 1
28.959037 -11.605947 -1.434006 31.231077 -0.381171 1.616728 0.057376 -0.022302 -167383.000000 0 0 1
30.438037 -11.481347 -1.806906 32.581595 -0.360701 1.626283 0.054369 -0.017157 -988166.000000 0 0 1
30.645437 -11.041147 -3.124706 32.723287 -0.345809 1.666431 0.060395 -0.013785 -466049.000000 0 0 1
31.903737 -11.340847 -3.650506 34.055681 -0.341540 1.678195 0.067665 -0.015410 -509369.000000 0 0 1
31.962237 -11.028047 -5.175206 34.205046 -0.332244 1.722679 0.075803 -0.017289 -468734.000000 0 0 1
31.173637 -11.923347 -5.893606 33.892424 -0.365314 1.745576 0.058309 -0.026662 -50981.300000 0 0 1
31.221737 -11.702047 -7.243306 34.120379 -0.358599 1.784711 0.057026 -0.020880 389758.000000 0 0 1
29.843537 -12.024647 -7.904706 33.131755 -0.383024 1.811704 0.086529 -0.024719 460612.000000 0 0 1
29.601337 -13.425847 -7.991806 33.471801 -0.425807 1.811887 0.079508 -0.024383 1408480.000000 0 0 1
28.198937 -13.708047 -8.261806 32.424497 -0.452481 1.828439 0.075750 -0.030988 1479160.000000 0 0 1
27.882337 -15.198947 -8.421206 32.853453 -0.499081 1.830016 0.075859 -0.035145 -2321.500000 0 0 1
28.360537 -15.741247 -9.647206 33.840442 -0.506705 1.859885 0.080041 -0.039476 183091.000000 0 0 1
28.422137 -17.118047 -9.466306 34.502990 -0.542093 1.848722 0.071257 -0.041534 -166231.000000 0 0 1
28.736237 -17.816047 -10.835706 35.504864 -0.554985 1.880934 0.064154 -0.041440 421374.000000 0 0 1
30.042637 -17.509947 -11.349206 36.578173 -0.527704 1.886276 0.072047 -0.038571 904918.000000 0 0 1
30.285537 -18.173847 -12.605906 37.502151 -0.540481 1.913610 0.054570 -0.027088 16785.600000 0 0 1
29.608737 -17.497447 -13.824306 37.066823 -0.533743 1.952990 0.045821 -0.030889 -404127.000000 0 0 1
30.259537 -16.355047 -14.241506 37.228317 -0.495514 1.963346 0.044678 -0.024668 -299627.000000 0 0 1
29.500237 -15.611547 -15.146006 36.652229 -0.486734 1.996801 0.035449 -0.027087 -991456.000000 0 0 1
30.267937 -14.393647 -15.682206 37.003468 -0.443890 2.008437 0.030057 -0.012904 -256447.000000 0 0 1
31.325037 -14.664447 -16.547306 38.342108 -0.437835 2.017029 0.017913 -0.017510 -86238.400000 0 0 1
32.559137 -14.863947 -15.883406 39.157591 -0.428264 1.988462 0.032328 -0.022656 -1011030.000000 0 0 1
33.603137 -15.409847 -16.831606 40.619418 -0.429969 1.998051 0.035116 -0.017838 29787.800000 0 0 1
34.832737 -15.764647 -16.170806 41.513114 -0.424998 1.970923 0.041834 -0.024538 808499.000000 0 0 1
-34.851765 -16.355047 -17.113706 42.130891 0.438767 1.989092 0.046408 -0.022462 323197.000000 0 0 1
-33.327865 -16.360747 -16.822606 40.760528 0.456344 1.996232 0.043486 -0.023251 222263.000000 0 0 1
-32.829165 -17.164947 -15.765506 40.260907 0.481765 1.973148 0.046700 -0.029697 129304.000000 0 0 1
-33.207165 -16.839347 -14.416706 39.926442 0.469311 1.940224 0.042533 -0.031762 -486688.000000 0 0 1
-32.412965 -17.729147 -13.450006 39.316989 0.500519 1.919938 0.045703 -0.033821 1296700.000000 0 0 1
-30.975965 -17.502447 -13.416706 38.024387 0.514312 1.931406 0.019997 -0.028639 1408740.000000 0 0 1
-30.476665 -17.948847 -12.125806 37.390151 0.532245 1.901073 0.010921 -0.022331 1063660.000000 0 0 1
-28.915765 -17.855947 -11.934706 36.019349 0.553199 1.908521 0.030561 -0.025153 827660.000000 0 0 1
-28.491165 -16.501447 -11.752006 34.959317 0.524968 1.913635 0.033212 -0.034814 461039.000000 0 0 1
-27.189265 -16.342747 -11.198106 33.641330 0.541208 1.910139 0.013980 -0.025118 273507.000000 0 0 1
-27.170865 -16.449447 -9.637606 33.192223 0.544386 1.865397 0.027371 -0.019673 242548.000000 0 0 1
-27.837865 -17.598847 -9.021606 34.147555 0.563754 1.838165 0.031683 -0.020303 347176.000000 0 0 1
-28.213565 -17.301847 -7.690006 33.977865 0.550102 1.799098 0.030677 -0.011461 -346930.000000 0 0 1
-28.929265 -18.430347 -6.932206 34.994793 0.567241 1.770208 0.027573 -0.011836 1610160.000000 0 0 1
-30.194765 -19.009447 -7.421806 36.444013 0.561872 1.775880 0.021860 -0.012622 1403000.000000 0 0 1
-30.079065 -19.663947 -8.671906 36.967863 0.579001 1.807582 0.018730 -0.012884 -905768.000000 0 0 1
-31.303465 -20.465847 -9.082406 38.486983 0.579034 1.809030 0.023274 -0.014365 967684.000000 0 0 1
-32.439265 -19.587447 -9.467106 39.058931 0.543223 1.815615 0.036414 -0.013145 1410290.000000 0 0 1
-33.501265 -20.410447 -9.894906 40.457759 0.547189 1.817876 0.042416 -0.017555 550435.000000 0 0 1
-34.807765 -19.791647 -10.494206 41.393455 0.517010 1.827117 0.048221 -0.030704 528155.000000 0 0 1
-34.739665 -19.445647 -11.872906 41.544475 0.510301 1.860625 0.040126 -0.031583 -262000.000000 0 0 1
34.556337 -18.998447 -12.250906 41.293657 -0.502676 1.872008 0.052388 -0.035824 -175606.000000 0 0 1
34.282337 -18.770447 -13.729106 41.425797 -0.500941 1.908599 0.050346 -0.040856 -212500.000000 0 0 1
34.340937 -20.022647 -14.456506 42.298899 -0.527867 1.919596 0.039152 -0.038588 -18346.500000 0 0 1
33.775837 -19.951547 -15.737506 42.267487 -0.533557 1.952316 0.037137 -0.033674 -285017.000000 0 0 1
32.480537 -20.734647 -15.939906 41.701216 -0.568157 1.963016 0.041155 -0.030937 -870999.000000 0 0 1
31.501137 -20.335447 -15.019306 40.390984 -0.573238 1.951795 0.044489 -0.031212 -848569.000000 0 0 1
30.371337 -21.133147 -14.999206 39.924982 -0.607919 1.955932 0.038017 -0.027775 -478009.000000 0 0 1
29.256737 -20.837047 -15.995406 39.319107 -0.618876 1.989756 0.022157 -0.022738 -925566.000000 0 0 1
28.646737 -19.595747 -15.833106 38.148605 -0.599940 1.998780 0.013519 -0.015427 -349299.000000 0 0 1
27.635537 -19.464947 -16.772906 37.735095 -0.613636 2.031402 0.001012 -0.010423 -228175.000000 0 0 1
26.878637 -18.095147 -16.861006 36.526552 -0.592524 2.050605 0.005332 -0.007898 -643584.000000 0 0 1
25.823437 -17.904347 -16.004106 35.263961 -0.606240 2.041863 0.014527 -0.007533 -663644.000000 0 0 1
25.418037 -16.565647 -16.171206 34.380302 -0.577589 2.060498 0.004372 -0.005213 -648484.000000 0 0 1
23.977737 -16.355047 -15.628806 32.964815 -0.598606 2.064744 -0.001520 -0.008618 395069.000000 0 0 1
22.913337 -16.913547 -16.398006 32.863105 -0.635876 2.093217 -0.003234 -0.004458 412326.000000 0 0 1
22.670437 -16.204647 -17.600706 32.959432 -0.620585 2.134134 -0.002002 -0.001029 -688100.000000 0 0 1
21.545837 -16.801347 -18.492206 32.991969 -0.662299 2.165793 0.003152 -0.000855 371110.000000 0 0 1
20.216937 -16.602047 -18.046606 31.781008 -0.687532 2.174679 0.009032 -0.006249 36242.500000 0 0 1
19.344037 -17.390147 -18.833206 32.113838 -0.732258 2.197467 0.007969 -0.006774 -36508.600000 0 0 1
17.895137 -17.595447 -18.411506 31.125861 -0.776954 2.203737 0.010750 -0.006959 -213977.000000 0 0 1
17.017937 -16.497247 -18.409206 30.011134 -0.769863 2.231171 0.008885 -0.005956 252582.000000 0 0 1
15.688837 -16.958947 -18.240706 29.435843 -0.824282 2.239127 0.010046 -0.003435 122780.000000 0 0 1
14.674537 -15.870747 -17.854406 28.035735 -0.824540 2.261195 0.016928 -0.000511 -85267.800000 0 0 1
14.251437 -15.073747 -18.992906 28.125643 -0.813432 2.312151 0.020629 -0.003616 37691.800000 0 0 1
13.005837 -14.505547 -18.658106 26.975685 -0.839857 2.334587 0.026434 -0.000624 -184060.000000 0 0 1
12.329537 -13.892047 -19.883906 27.209854 -0.844916 2.390233 0.037837 -0.002447 -239561.000000 0 0 1
12.897737 -12.635147 -20.167206 27.068704 -0.775114 2.411388 0.037293 -0.005558 -24671.200000 0 0 1
12.290837 -12.005747 -21.265406 27.338985 -0.773665 2.462021 0.042114 -0.004720 -383179.000000 0 0 1
12.779337 -10.543747 -21.571906 27.199801 -0.689837 2.486663 0.030917 -0.000728 -383297.000000 0 0 1
14.016137 -10.442047 -22.216906 28.267992 -0.640295 2.475009 0.023469 0.000486 -446972.000000 0 0 1
14.191037 -9.158747 -22.663006 28.264466 -0.573127 2.501131 0.028712 0.001015 604649.000000 0 0 1
15.417137 -9.101247 -23.642106 29.655859 -0.533281 2.493465 0.017180 -0.002036 607664.000000 0 0 1
15.162337 -9.757647 -24.932406 30.769027 -0.571824 2.515475 0.017501 -0.000125 -230784.000000 0 0 1
16.286737 -9.671747 -25.747836 31.964849 -0.535879 2.507323 0.025761 -0.005748 -674107.000000 0 0 1
22.057637 4.829253 -6.712806 23.556799 0.215537 1.859764 0.039794 0.023027 -8627.070000 0 1 0
22.029737 6.209253 -6.950106 23.920036 0.274731 1.865604 0.021125 0.021522 571048.000000 0 1 0
21.365037 6.803153 -5.857906 23.174615 0.308273 1.826341 0.019445 0.013186 -298945.000000 0 1 0
21.239837 8.345553 -5.896006 23.569935 0.374388 1.823631 0.027415 0.010128 -89538.100000 0 1 0
20.345237 8.731253 -6.957906 23.207238 0.405384 1.875296 0.033285 0.010964 736988.000000 0 1 0
20.175837 10.081653 -7.305406 23.708081 0.463399 1.884034 0.044462 0.012809 -153075.000000 0 1 0
19.664037 11.034753 -6.190206 23.382874 0.511374 1.838723 0.054012 0.007027 149960.000000 0 1 0
20.668537 11.372453 -5.235806 24.164743 0.503020 1.789200 0.057089 0.009740 735173.000000 0 1 0
20.116037 12.323653 -4.240906 23.968994 0.549653 1.748666 0.068550 0.003120 296406.000000 0 1 0
21.056437 12.604053 -3.099606 24.735466 0.539378 1.696437 0.058137 -0.011190 -581128.000000 0 1 0
22.268537 13.283253 -3.303606 26.138982 0.537844 1.697521 0.066108 -0.021621 1123370.000000 0 0 1
23.171837 13.342253 -2.157506 26.825447 0.522432 1.651311 0.070120 -0.027720 714544.000000 0 0 1
23.986537 12.096153 -1.777106 26.922648 0.467073 1.636852 0.056710 -0.027256 -741153.000000 0 0 1
25.118937 11.758653 -2.547606 27.851700 0.437819 1.662395 0.036359 -0.019436 525305.000000 0 0 1
25.941137 10.834153 -1.826706 28.171942 0.395623 1.635683 0.051249 -0.021327 51071.100000 0 0 1
27.386137 10.784153 -2.355706 29.527069 0.375134 1.650662 0.031593 -0.015952 -225398.000000 0 0 1
28.183437 11.909853 -2.109406 30.669208 0.399822 1.639630 0.032612 -0.022595 346913.000000 0 0 1
29.561037 11.555453 -2.129406 31.810655 0.372638 1.637786 0.040815 -0.018216 391320.000000 0 0 1
30.488537 12.750953 -1.784506 33.095652 0.396115 1.624742 0.017053 -0.012916 -399093.000000 0 0 1
30.324137 13.325453 -0.458106 33.125984 0.414032 1.584626 0.027992 -0.009730 216838.000000 0 0 1
31.161437 14.407353 -0.093606 34.330974 0.433073 1.573523 0.007588 -0.007754 501836.000000 0 0 1
32.686437 14.138353 0.202494 35.613722 0.408244 1.565110 -0.001626 -0.014420 1244530.000000 0 0 1
33.459537 15.373653 0.143294 36.822688 0.430701 1.566905 -0.004398 -0.004449 327889.000000 0 0 1
34.303137 15.546653 -0.972306 37.674249 0.425523 1.596607 0.000903 -0.014477 67875.400000 0 0 1
33.628637 16.208053 -2.298406 37.401456 0.449121 1.632287 -0.008862 -0.007178 186806.000000 0 0 1
32.556737 15.482053 -2.832906 36.161588 0.443889 1.649217 -0.006578 -0.008408 -424478.000000 0 0 1
31.812937 16.334353 -3.683706 35.950574 0.474350 1.673442 -0.002995 -0.000838 226355.000000 0 0 1
30.456837 15.724553 -4.138706 34.525489 0.476594 1.690959 -0.000400 -0.003307 -437575.000000 0 0 1
30.466237 14.788253 -5.221706 34.265876 0.451898 1.723780 0.007987 -0.004943 427896.000000 0 0 1
29.211437 14.756953 -5.892606 33.253549 0.467781 1.748939 0.011532 -0.013661 478536.000000 0 0 1
28.004637 14.075353 -5.194406 31.770381 0.465732 1.735032 0.012560 -0.013051 -321791.000000 0 0 1
26.860437 14.081853 -6.023006 30.920192 0.482867 1.766842 0.011489 -0.012045 495557.000000 0 0 1
25.735137 13.520253 -5.338406 29.556608 0.483730 1.752409 0.023905 -0.008630 218390.000000 0 0 1
24.566437 13.152453 -6.258206 28.559797 0.491552 1.791715 0.022122 -0.001939 -437322.000000 0 0 1
24.728937 11.973953 -7.091506 28.375788 0.450935 1.823388 0.022349 0.006712 555843.000000 0 0 1
23.640437 11.766453 -7.994206 27.590343 0.461827 1.864758 0.027326 0.009549 132910.000000 0 0 1
23.496037 12.719153 -9.196006 28.256099 0.496164 1.902286 0.024436 0.010573 -105852.000000 0 0 1
23.006137 13.996753 -8.833106 28.341052 0.546567 1.887748 0.031783 -0.002574 243748.000000 0 0 1
22.866137 14.908153 -9.926806 29.045735 0.577762 1.919590 0.019714 0.001053 -692266.000000 0 0 1
22.287137 16.214753 -9.397206 29.119447 0.628970 1.899390 0.022671 -0.009219 876796.000000 0 0 1
20.884137 16.116253 -9.086906 27.900765 0.657244 1.902534 0.036208 -0.003095 979689.000000 0 0 1
20.573137 15.822653 -7.738806 27.083195 0.655609 1.860577 0.043413 -0.008323 -811720.000000 0 0 1
19.285937 15.011853 -7.582206 25.588923 0.661420 1.871621 0.056166 -0.001390 -1525310.000000 0 0 1
18.236837 15.795553 -7.962006 25.406205 0.713787 1.889555 0.055290 -0.009894 -757694.000000 0 0 1
16.984737 15.143353 -7.853506 24.072391 0.728147 1.903125 0.054325 -0.015629 237653.000000 0 1 0
16.113437 15.427253 -6.630306 23.272386 0.763646 1.859699 0.053309 -0.003954 -364740.000000 0 1 0
16.721637 14.759153 -5.579606 22.990819 0.723140 1.815933 0.068342 -0.002076 468477.000000 0 1 0
16.231837 15.300053 -4.362906 22.728817 0.755856 1.763950 0.068154 0.003751 -143242.000000 0 1 0
15.717937 14.210453 -3.368806 21.455521 0.735071 1.728462 0.046133 0.016192 -320754.000000 0 1 0
16.695737 13.291253 -2.899206 21.536259 0.672350 1.705826 0.037240 0.006031 616651.000000 0 1 0
16.266737 12.606653 -1.690906 20.649300 0.659307 1.652775 0.024179 -0.000005 119652.000000 0 1 0
16.442737 13.251753 -0.336706 21.120747 0.678349 1.586739 0.033211 -0.008095 -178912.000000 0 1 0
15.572237 14.361953 -0.165406 21.184608 0.744989 1.578604 0.042524 -0.010847 279437.000000 0 1 0
15.689437 15.000053 1.059394 21.732058 0.762939 1.522029 0.042219 -0.010002 -1182860.000000 0 1 0
14.554337 15.858953 1.527294 21.579336 0.828268 1.499961 0.042564 -0.005221 -837288.000000 0 1 0
14.418937 16.975253 0.655494 22.282160 0.866645 1.541374 0.046507 -0.008964 -468472.000000 0 1 0
13.439737 17.833853 1.087094 22.357429 0.924990 1.522154 0.037027 -0.014575 -657006.000000 0 1 0
13.372237 19.234353 0.392894 23.429286 0.963281 1.554026 0.036359 -0.019706 -370609.000000 0 1 0
12.659637 19.225953 -0.787306 23.033097 0.988493 1.604985 0.034184 -0.028533 -552828.000000 0 1 0
12.152237 20.498853 -1.085006 23.854918 1.035669 1.616296 0.035550 -0.033854 534832.000000 0 1 0
10.603637 20.611953 -0.914506 23.197544 1.095663 1.610229 0.032051 -0.029494 566124.000000 0 1 0
10.240637 20.500453 0.481594 22.920977 1.107523 1.549784 0.024184 -0.039429 -747596.000000 0 1 0
8.852137 20.515253 0.579594 22.351105 1.163441 1.544862 0.018534 -0.026268 -276448.000000 0 1 0
8.284137 20.674653 2.044094 22.366192 1.189695 1.479276 0.014595 -0.022598 4862.730000 0 1 0
8.287837 21.990853 2.515594 23.635018 1.210381 1.464159 0.022638 -0.011425 -200250.000000 0 1 0
7.193737 22.136553 3.368294 23.518551 1.256591 1.427084 0.018613 -0.008024 -223909.000000 0 1 0
7.088037 23.488953 4.104694 24.876087 1.277725 1.405033 0.024565 -0.008297 -607226.000000 0 1 0
7.912137 23.746553 5.157594 25.555850 1.249174 1.367584 0.017401 -0.017467 -487879.000000 0 0 1
7.555637 24.971653 5.770794 26.720277 1.276985 1.353111 0.005091 -0.009321 31089.400000 0 0 1
8.171237 25.202453 7.165594 27.445920 1.257267 1.306655 -0.004028 -0.009177 -268543.000000 0 0 1
7.569637 24.316053 8.068894 26.714732 1.269003 1.263965 0.026283 -0.026561 309330.000000 0 0 1
8.209137 24.234953 9.361794 27.246396 1.244196 1.220051 0.015210 -0.036631 -226018.000000 0 0 1
7.609037 23.240653 10.360794 26.558830 1.254393 1.170048 0.020463 -0.029316 -1195840.000000 0 0 1
6.333437 23.612553 10.732694 26.699360 1.308741 1.157115 0.016050 -0.030821 -665429.000000 0 0 1
5.705637 22.629553 11.541094 26.035511 1.323812 1.111539 0.013340 -0.020589 -531463.000000 0 0 1
4.404837 22.998453 12.222794 26.414544 1.381560 1.089724 0.023487 -0.030029 -710838.000000 0 0 1
3.379837 23.141253 11.283194 25.966351 1.425769 1.121278 0.022695 -0.029101 -197111.000000 0 0 1
2.177937 23.572153 11.898994 26.494827 1.478663 1.105031 0.016881 -0.028383 -16636.900000 0 0 1
0.994537 23.841053 10.963794 26.260040 1.529105 1.140094 0.027919 -0.013334 -361341.000000 0 0 1
1.044137 25.025153 10.230094 27.055560 1.529097 1.183038 0.032350 -0.014919 -313142.000000 0 0 1
0.058937 25.127753 9.255594 26.778228 1.568451 1.217877 0.030945 -0.014590 571851.000000 0 0 1
-1.277563 25.842153 9.706594 27.634526 -1.521399 1.211892 0.036089 -0.020848 1161980.000000 0 0 1
-2.190563 25.060753 10.507594 27.262602 -1.483608 1.175132 0.029335 -0.015939 388461.000000 0 0 1
-3.459663 25.669553 10.483394 27.942741 -1.436827 1.186212 0.041538 -0.018387 -668786.000000 0 0 1
-4.574363 24.845353 11.090894 27.590294 -1.388722 1.157112 0.043199 -0.011151 -597103.000000 0 0 1
-4.741063 24.924853 12.523194 28.294105 -1.382828 1.112291 0.034767 -0.015446 391831.000000 0 0 1
-5.575963 25.997553 13.024694 29.607546 -1.359517 1.115296 0.041875 -0.009293 119995.000000 0 0 1
-6.142463 25.682153 14.399494 30.077372 -1.336034 1.071568 0.024112 -0.018988 137082.000000 0 0 1
-7.257363 24.790153 14.436994 29.591347 -1.286002 1.061138 0.014331 -0.008782 168570.000000 0 0 1
-7.597863 24.515053 15.749494 30.112488 -1.270258 1.020404 0.009416 -0.000588 15563.800000 0 0 1
-8.891863 23.668253 15.865594 29.849096 -1.211423 1.010394 -0.004207 -0.000044 183175.000000 0 0 1
-10.047763 24.383653 15.464794 30.572536 -1.179929 1.040442 -0.007214 0.010994 -710284.000000 0 0 1
-11.153963 23.556753 15.680494 30.417255 -1.128578 1.029190 -0.010700 0.004050 170399.000000 0 0 1
-12.487563 24.374653 15.489394 31.464016 -1.097343 1.056079 -0.006461 0.006863 286790.000000 0 0 1
-12.744363 25.310453 16.511394 32.797316 -1.104335 1.043224 -0.010192 0.006042 103034.000000 0 0 1
-13.636463 26.344953 16.147394 33.774961 -1.093159 1.072320 -0.011617 0.014248 -159050.000000 0 0 1
-14.226763 27.273053 17.224594 35.254884 -1.089986 1.060343 0.000299 0.011794 -629180.000000 0 0 1
-15.327963 26.704853 17.841494 35.586719 -1.049731 1.045635 0.007972 0.005390 -529399.000000 0 0 1
-15.535863 27.295353 19.082194 36.749551 -1.053350 1.024824 0.021983 0.003816 -195428.000000 0 0 1
-16.850463 26.829453 19.766594 37.342682 -1.010001 1.012986 0.023060 -0.009876 -66359.800000 0 0 1
-17.962763 27.330653 19.097894 37.872880 -0.989349 1.042268 0.025098 0.006237 -853415.000000 0 0 1
-19.195963 26.823853 19.505294 38.320498 -0.949657 1.036769 0.019811 -0.001941 221448.000000 0 0 1
-20.304663 27.033153 18.408594 38.496065 -0.926590 1.072199 0.016239 0.002101 202487.000000 0 0 1
-21.094863 28.202653 18.533894 39.798092 -0.928593 1.086373 0.020111 0.001581 -43935.500000 0 0 1
-21.823063 28.264253 17.347894 39.699667 -0.913295 1.118560 0.017341 -0.005314 -655747.000000 0 0 1
-22.630763 29.592853 17.279194 41.066519 -0.917930 1.136512 0.010344 -0.004693 -210248.000000 0 0 1
-23.856563 29.490053 17.951994 41.965140 -0.890610 1.128757 0.006610 -0.002967 -115707.000000 0 0 1
-24.650263 30.649653 17.774394 43.162088 -0.893464 1.146362 0.001016 -0.004259 -860430.000000 0 0 1
-26.053043 30.532153 18.297794 44.111027 -0.864390 1.143060 0.004918 -0.004847 -1054190.000000 0 0 1
-26.949053 29.833753 17.426394 43.817616 -0.836157 1.161784 0.011228 -0.009329 934014.000000 0 0 1
-28.288803 29.705353 17.932794 44.768845 -0.809819 1.158664 0.029992 -0.009956 586139.000000 0 0 1
-28.546353 28.552553 18.946394 44.599422 -0.785507 1.132042 0.024615 -0.008032 -850324.000000 0 0 1
-28.705663 27.264953 18.415594 43.663794 -0.759663 1.135412 0.022023 -0.013491 129371.000000 0 0 1
-28.805513 26.208453 19.329994 43.477457 -0.738226 1.110071 0.023430 -0.014683 -53520.100000 0 0 1
-28.630793 24.855553 18.682094 42.267499 -0.714932 1.112973 0.026763 -0.014704 946292.000000 0 0 1
-29.871463 24.484153 18.042294 42.629830 -0.686609 1.133787 0.034690 -0.014882 1063190.000000 0 0 1
-29.582703 23.355953 17.179194 41.421753 -0.668314 1.143141 0.031487 -0.013588 -376011.000000 0 0 1
-30.182593 21.923753 17.458894 41.188018 -0.628206 1.133068 0.029760 -0.007067 -70722.600000 0 0 1
-31.450793 21.763453 16.868494 41.801272 -0.605326 1.155414 0.027288 -0.007994 -368140.000000 0 0 1
-31.809693 20.429053 16.847394 41.388857 -0.570892 1.151573 0.020905 -0.000389 -326248.000000 0 0 1
-33.186703 20.190253 16.228594 42.099535 -0.546561 1.175067 0.013372 -0.003318 -536252.000000 0 0 1
-33.217693 20.307853 14.828694 41.661904 -0.548728 1.206888 0.008307 -0.010183 266740.000000 0 0 1
-34.459769 19.882253 14.277494 42.268505 -0.523314 1.226238 0.024807 -0.009421 509030.000000 0 0 1
-34.616073 20.247753 12.763494 42.085043 -0.529260 1.262665 0.027204 -0.011356 29978.600000 0 0 1
-34.634562 21.641753 12.539794 42.721948 -0.558499 1.272888 0.024023 -0.015666 -51629.800000 0 0 1
-34.590457 22.000253 11.148794 42.483014 -0.566485 1.305257 0.019819 -0.014119 689415.000000 0 0 1
-33.402063 21.577253 10.169194 41.044953 -0.573548 1.320431 0.018615 -0.012276 359906.000000 0 0 1
-33.469833 20.267853 9.707194 40.314330 -0.544495 1.327619 0.011095 -0.004487 808646.000000 0 0 1
-32.259553 19.949053 8.968394 38.975320 -0.553833 1.338611 0.025582 -0.002101 1070990.000000 0 0 1
-31.415413 18.970253 9.860894 38.000473 -0.543247 1.308298 0.013850 -0.002550 -104950.000000 0 0 1
-30.914843 19.469953 11.082994 38.179044 -0.562039 1.276266 0.017362 -0.003048 465673.000000 0 0 1
-30.241693 18.389553 11.781994 37.303499 -0.546344 1.249453 0.004488 0.003620 182377.000000 0 0 1
-30.149693 18.803253 13.241294 37.919628 -0.557637 1.214086 0.003785 0.000933 589864.000000 0 0 1
-29.057573 19.717653 13.443294 37.601204 -0.596199 1.205182 0.018021 -0.002390 515427.000000 0 0 1
-29.514683 21.023253 13.444394 38.650297 -0.618932 1.215523 0.020135 -0.004989 212169.000000 0 0 1
-28.319223 21.927953 13.780094 38.375833 -0.658881 1.203512 0.019200 -0.013403 327012.000000 0 0 1
-27.772333 21.904553 15.093394 38.456761 -0.667824 1.167473 0.019691 -0.006617 -797980.000000 0 0 1
-26.710723 22.777553 15.174794 38.243353 -0.706088 1.162773 0.036328 -0.011632 -1067390.000000 0 0 1
-25.954623 22.590053 16.505694 38.162690 -0.716200 1.123523 0.024095 -0.011317 -623662.000000 0 0 1
-25.364003 21.300353 16.662994 37.076854 -0.698535 1.104683 0.043107 -0.015342 62067.500000 0 0 1
-24.981463 21.089553 17.993194 37.317527 -0.701122 1.067672 0.031461 -0.009418 -23793.800000 0 0 1
-23.909663 19.964253 18.068094 36.009713 -0.695713 1.045169 0.040899 -0.019343 68358.100000 0 0 1
-23.493163 19.799853 19.392494 36.332241 -0.700295 1.007762 0.037634 -0.024014 112534.000000 0 0 1
-22.543163 18.755253 19.591494 35.267270 -0.693934 0.981814 0.037230 -0.026626 71903.700000 0 0 1
-22.041263 18.848553 21.030594 35.824170 -0.707475 0.943386 0.035057 -0.029538 -214070.000000 0 0 1
-22.902463 18.253753 21.967194 36.609834 -0.672922 0.927251 0.042329 -0.020036 -167952.000000 0 0 1
-22.670263 18.714753 23.287394 37.503140 -0.690109 0.900848 0.054341 -0.026786 200043.000000 0 0 1
-23.381663 17.912653 24.421694 38.262050 -0.653725 0.878542 0.043821 -0.019342 -518380.000000 0 0 1
-22.867463 16.653053 24.555894 37.459805 -0.629430 0.855917 0.056894 -0.028400 -557863.000000 0 0 1
-23.603263 15.761053 25.311694 38.029024 -0.588751 0.842514 0.059062 -0.026786 -421599.000000 0 0 1
20.671337 25.797853 33.671091 47.186606 0.895275 0.776211 0.041901 -0.003513 -136787.000000 0 0 1
20.238237 24.697653 32.948676 45.882192 0.884314 0.769707 0.040328 -0.015466 -19468.900000 0 0 1
20.418437 23.482653 33.641965 45.827169 0.855083 0.746448 0.044217 -0.015631 -331152.000000 0 0 1
19.564637 22.378753 33.028632 44.435056 0.852391 0.732804 0.043555 -0.017611 -529647.000000 0 0 1
19.981237 21.832853 31.824436 43.459384 0.829651 0.749132 0.041087 -0.011737 166620.000000 0 0 1
19.109837 20.824553 31.326506 42.192391 0.828310 0.734049 0.035786 -0.017120 -221117.000000 0 0 1
19.504437 20.267153 29.940296 41.080432 0.804573 0.754197 0.037612 -0.007136 5591.750000 0 0 1
20.681637 19.484053 29.953226 41.286247 0.755591 0.759034 0.036409 -0.007078 50821.900000 0 0 1
20.850037 18.884253 28.666176 40.163276 0.735965 0.775971 0.034487 -0.004978 -892507.000000 0 0 1
21.930937 17.855053 28.561986 40.193979 0.683309 0.780441 0.025514 0.004500 -1205380.000000 0 0 1
23.205737 18.409453 28.677366 41.228698 0.670651 0.801586 0.035528 -0.001117 -1150890.000000 0 0 1
24.093237 17.574353 29.305196 41.810722 0.630206 0.794136 0.022484 0.007074 -737700.000000 0 0 1
25.444237 18.256053 29.517736 43.034747 0.622370 0.814950 0.023122 -0.003573 -492383.000000 0 0 1
26.326437 18.302253 28.432336 42.853839 0.607500 0.845346 0.025502 0.002039 -613793.000000 0 0 1
27.568737 18.806953 28.818026 44.093258 0.598669 0.858505 0.030185 -0.004340 -333835.000000 0 0 1
28.675037 18.450253 27.795996 43.991897 0.571740 0.886867 0.039476 0.006770 -174959.000000 0 0 1
28.606937 19.182453 26.591116 43.513341 0.590688 0.913344 0.033210 0.001902 -200423.000000 0 0 1
29.577537 18.785553 25.665876 43.433454 0.565850 0.938592 0.031165 0.004852 -411706.000000 0 0 1
29.950337 19.995253 24.818016 43.735189 0.588658 0.967377 0.027467 0.002944 -274389.000000 0 0 1
28.869737 20.511953 24.093186 42.833206 0.617738 0.973404 0.028398 -0.004658 -245832.000000 0 0 1
29.258937 21.470253 23.135696 43.038560 0.633053 1.003259 0.011648 -0.005161 -95750.800000 0 0 1
29.971037 20.842953 21.903996 42.573194 0.607657 1.030369 0.021232 0.005334 33437.000000 0 0 1
29.180137 19.901353 21.163096 41.175489 0.598555 1.030986 0.030454 -0.001398 506233.000000 0 0 1
29.761637 19.492353 19.897196 40.762793 0.579846 1.060860 0.029648 0.001281 425836.000000 0 0 1
30.922837 18.465253 19.746996 41.074704 0.538314 1.069277 0.031439 -0.004616 334678.000000 0 0 1
30.541337 17.118453 20.133696 40.387875 0.510870 1.048919 0.040887 -0.009860 98837.900000 0 0 1
31.654237 16.271453 20.216096 40.932157 0.474814 1.054235 0.032890 -0.001876 -696850.000000 0 0 1
31.160537 14.857153 20.447196 40.122337 0.444911 1.036052 0.033056 -0.008771 -8739.980000 0 0 1
30.577837 14.540153 21.672496 40.200961 0.443867 1.001423 0.027554 -0.018423 1220510.000000 0 0 1
29.217537 15.003453 21.814696 39.429038 0.474396 0.984518 0.022083 -0.014688 157597.000000 0 0 1
28.483237 14.625753 23.060396 39.458704 0.474378 0.946633 0.018376 -0.020343 -159375.000000 0 0 1
27.946837 13.307053 23.120696 38.635087 0.444391 0.929247 0.015728 -0.019317 58668.600000 0 0 1
27.053937 13.090253 24.171596 38.568592 0.450651 0.893463 0.012375 0.000884 -223707.000000 0 0 1
26.472837 11.679753 24.313246 37.793672 0.415510 0.871976 0.015642 -0.003978 -351587.000000 0 0 1
25.435337 11.386653 23.429596 36.408216 0.420915 0.871702 0.029461 -0.004683 -258221.000000 0 0 1
25.329337 10.024853 23.024296 35.667789 0.376863 0.869091 0.025339 -0.001821 -274965.000000 0 0 1
24.192337 9.792553 22.027596 34.152280 0.384620 0.869797 0.017428 -0.010589 -816231.000000 0 0 1
22.922137 9.829853 22.577096 33.641873 0.405116 0.835103 0.016484 -0.003671 -1161680.000000 0 0 1
21.993937 9.244753 21.777496 32.302602 0.397910 0.830954 0.022151 0.009940 -589955.000000 0 0 1
20.510937 9.373553 22.199696 31.644724 0.428662 0.793255 0.020858 0.002282 156216.000000 0 0 1
20.108037 8.860753 23.428696 32.120864 0.415057 0.753364 0.032487 -0.000504 -245626.000000 0 0 1
18.719337 8.923453 23.603096 31.418907 0.444832 0.720860 0.038805 -0.001319 -329757.000000 0 0 1
18.188237 8.318153 24.944416 31.972293 0.428939 0.675829 0.036857 0.003436 -315372.000000 0 0 1
18.169537 6.939253 24.911776 31.605093 0.364821 0.662885 0.041296 0.000521 294603.000000 0 0 1
17.967237 6.378953 26.233696 32.430225 0.341151 0.628471 0.026600 -0.006597 -137197.000000 0 0 1
18.183937 4.865053 26.262556 32.311703 0.261424 0.621875 0.033515 -0.012872 -334938.000000 0 0 1
19.503137 4.469453 26.020166 32.823732 0.225276 0.655531 0.050363 -0.011560 -268067.000000 0 0 1
19.527737 3.067853 26.054176 32.704194 0.155829 0.649045 0.042788 -0.004438 143417.000000 0 0 1
20.962437 2.561653 25.801176 33.341963 0.121599 0.685923 0.050679 -0.007768 -85819.000000 0 0 1
21.921737 3.001153 26.725076 34.695809 0.136057 0.691535 0.061719 -0.017899 -33341.500000 0 0 1
23.192837 2.468753 26.391426 35.220872 0.106045 0.723774 0.057110 -0.016919 110557.000000 0 0 1
24.345237 2.966953 27.271196 36.677125 0.121272 0.732436 0.049378 -0.020611 -813280.000000 0 0 1
24.449937 2.202753 28.426176 37.559274 0.089850 0.712339 0.059257 -0.023376 199881.000000 0 0 1
25.193137 2.720753 29.524516 38.907502 0.107579 0.709268 0.052135 -0.013664 1034280.000000 0 0 1
26.744637 2.908853 29.341136 39.807528 0.108338 0.742064 0.042410 -0.010836 225078.000000 0 0 1
27.098437 3.844853 28.341976 39.400200 0.140944 0.767951 0.041189 -0.002394 -500012.000000 0 0 1
28.486737 3.867353 28.170706 40.249712 0.134935 0.795541 0.032873 0.004774 -303183.000000 0 0 1
29.022737 2.953953 27.034866 39.773472 0.101431 0.823414 0.033018 0.006145 -301503.000000 0 0 1
28.531737 3.210053 25.760516 38.574197 0.112037 0.839524 0.020963 0.015644 -157627.000000 0 0 1
28.937837 2.150053 24.933316 38.258220 0.074163 0.860958 0.019712 0.017702 -165964.000000 0 0 1
28.511737 2.273853 23.449396 36.985994 0.079583 0.884072 0.013129 0.011655 78453.900000 0 0 1
29.122337 3.358553 22.735296 37.098303 0.114818 0.911148 0.006707 0.016287 90827.100000 0 0 1
30.493637 3.092653 22.436196 37.984330 0.101074 0.938908 -0.000344 0.014282 268364.000000 0 0 1
31.202637 4.360353 21.949296 38.397771 0.138844 0.962306 -0.003382 0.012957 -506072.000000 0 0 1
30.914737 4.757953 20.608596 37.457620 0.152707 0.988211 -0.005431 0.006653 -23917.600000 0 0 1
31.236637 6.153153 20.341796 37.780649 0.194495 1.002237 0.008205 0.012117 935413.000000 0 0 1
32.798437 6.356953 20.157796 39.019035 0.191445 1.027904 0.006295 0.015364 715115.000000 0 0 1
33.581037 6.372753 21.330296 40.289944 0.187542 1.012880 0.008140 0.005400 125188.000000 0 0 1
33.455237 7.489853 22.185996 40.835881 0.220245 0.996437 0.015632 -0.001924 -515364.000000 0 0 1
34.331037 7.347753 23.457896 42.224193 0.210846 0.981765 0.030131 -0.001823 -34429.500000 0 0 1
33.835037 6.273253 24.236546 42.090065 0.183325 0.957182 0.021362 0.005825 248289.000000 0 0 1
34.527637 6.066053 25.429076 43.308113 0.173912 0.943242 0.028935 0.007736 101774.000000 0 0 1
33.707637 5.044753 26.319946 43.062674 0.148559 0.913219 0.021964 0.013462 460297.000000 0 0 1
33.735937 3.768353 25.771816 42.620423 0.111240 0.921429 0.023434 0.007604 -238128.000000 0 0 1
33.113837 2.873153 26.610116 42.577923 0.086549 0.895697 0.020266 0.009410 -275747.000000 0 0 1
33.341137 1.474453 26.147636 42.396985 0.044194 0.906210 0.017922 0.009808 122114.000000 0 0 1
32.625137 1.194753 24.932916 41.078916 0.036604 0.918577 0.015649 0.006052 10599.300000 0 0 1
32.723837 -0.205447 24.686766 40.991806 -0.006278 0.924497 0.029071 0.006798 108581.000000 0 0 1
31.574637 -0.830547 23.860496 39.584982 -0.026298 0.923833 0.021335 0.013676 594420.000000 0 0 1
30.318637 -1.004947 24.520116 39.005971 -0.033134 0.891013 0.023645 0.010418 107507.000000 0 0 1
29.522337 -1.862047 23.747696 37.934004 -0.062989 0.894349 0.027217 0.004219 -92684.600000 0 0 1
28.035237 -1.909647 24.140806 37.045914 -0.068011 0.861044 0.028771 0.007080 -66121.200000 0 0 1
27.349537 -0.755447 23.724396 36.213462 -0.027615 0.856446 0.014417 0.013663 -161168.000000 0 0 1
25.948637 -0.953747 23.787896 35.215130 -0.036739 0.829151 0.024733 0.014455 287207.000000 0 0 1
25.093637 0.325853 23.686696 34.508787 0.012985 0.814275 0.031806 0.012464 -204850.000000 0 0 1
25.153437 0.919153 22.362496 33.669296 0.036526 0.844399 0.024096 0.005617 313821.000000 0 0 1
24.461637 2.185253 22.448296 33.272707 0.089097 0.830271 0.028363 0.006035 91366.600000 0 0 1
24.657137 3.157353 21.226896 32.688291 0.127357 0.864037 0.023111 0.005783 -133089.000000 0 0 1
24.090237 2.725053 20.001496 31.429688 0.112640 0.880989 0.023672 0.004975 304395.000000 0 0 1
23.752937 3.827853 19.167296 30.761010 0.159779 0.898092 0.026799 0.009366 35040.900000 0 0 1
23.330237 3.599153 17.689496 29.498680 0.153063 0.927707 0.023444 0.003726 148643.000000 0 0 1
24.373037 3.101253 16.862896 29.799664 0.126561 0.969302 0.024190 -0.005682 96089.700000 0 0 1
24.110537 3.240253 15.463796 28.826138 0.133591 1.004571 0.021651 -0.007998 -404832.000000 0 0 1
23.437537 2.013753 14.760396 27.771256 0.085710 1.010427 0.023280 0.001524 -747022.000000 0 0 1
22.129937 1.753153 15.115196 26.856597 0.079056 0.973013 0.025589 0.011232 -687091.000000 0 0 1
21.687237 0.632353 14.360596 26.018510 0.029150 0.986110 0.025631 0.009990 177910.000000 0 0 1
20.172437 0.265753 14.445896 24.812935 0.013173 0.949374 0.029874 -0.008409 639415.000000 0 1 0
19.238037 1.030353 13.641696 23.606346 0.053507 0.954665 0.039694 -0.003098 901032.000000 0 1 0
19.231237 0.959853 12.195096 22.792151 0.049870 1.006221 0.044732 -0.002808 -1099350.000000 0 1 0
19.218437 -0.506447 11.586196 22.446486 -0.026346 1.028424 0.055776 0.002625 272943.000000 0 1 0
20.429637 -1.264247 11.571296 23.513045 -0.061804 1.056270 0.067723 -0.017607 603663.000000 0 1 0
21.470537 -0.790747 10.726496 24.013891 -0.036813 1.107747 0.061799 -0.013735 -868418.000000 0 1 0
22.704237 -1.617247 11.008796 25.284213 -0.071111 1.120312 0.073835 -0.024998 -826899.000000 0 0 1
23.170337 -1.461047 12.349596 26.296610 -0.062973 1.081928 0.064107 -0.028805 -2442.810000 0 0 1
24.217137 -2.368547 12.575196 27.390058 -0.097494 1.093797 0.034746 -0.032196 -275055.000000 0 0 1
24.637137 -2.493547 14.045396 28.468921 -0.100867 1.054849 0.016175 -0.019741 -64685.600000 0 0 1
25.177237 -1.309247 14.614596 29.140930 -0.051954 1.045448 0.014574 -0.016697 70919.800000 0 0 1
25.349737 -1.288647 16.031696 30.021410 -0.050791 1.007461 0.014599 -0.017719 -323987.000000 0 0 1
26.434337 -0.259547 16.423596 31.121954 -0.009818 1.014885 0.013232 -0.011515 -101660.000000 0 0 1
27.675037 -0.848647 16.069696 32.013482 -0.030655 1.044925 0.008136 -0.008329 35460.500000 0 0 1
28.715337 0.105553 16.324996 33.031609 0.003676 1.053855 -0.000094 -0.004472 383799.000000 0 0 1
30.142137 -0.493747 16.296196 34.268910 -0.016379 1.075220 0.006737 -0.004614 53208.400000 0 0 1
30.655137 -0.785247 15.015796 34.144226 -0.025610 1.115448 0.013414 -0.003698 -19431.200000 0 0 1
31.788337 -1.616847 15.184796 35.265998 -0.050819 1.125662 0.022583 -0.006127 -201446.000000 0 0 1
32.108837 -2.218047 13.806496 35.021657 -0.068969 1.165569 0.021566 -0.002807 -221206.000000 0 0 1
32.741637 -1.314447 12.914796 35.221223 -0.040124 1.195362 0.017628 -0.001187 98899.500000 0 0 1
32.784337 -1.836647 11.638596 34.837378 -0.055964 1.230164 0.018896 -0.003591 -27841.500000 0 0 1
31.869537 -0.997847 10.700096 33.632650 -0.031300 1.247023 0.008236 0.011951 -357284.000000 0 0 1
32.449537 0.169653 10.267396 34.035579 0.005228 1.264356 0.025525 0.006088 141537.000000 0 0 1
31.532837 1.160353 9.834296 33.051166 0.036782 1.268673 0.010049 0.000426 -312493.000000 0 0 1
32.236137 2.406153 9.349196 33.650640 0.074503 1.289261 0.011198 -0.001215 -179668.000000 0 0 1
33.013237 2.225253 8.191596 34.087062 0.067303 1.328107 0.017301 -0.000950 145880.000000 0 0 1
33.326737 3.520053 7.602296 34.363601 0.105232 1.347720 0.012009 -0.002039 -272983.000000 0 0 1
34.049237 3.288653 6.289696 34.781116 0.096287 1.388959 0.007764 -0.003609 -317254.000000 0 0 1
34.499037 4.455653 5.692096 35.248211 0.128442 1.408600 0.004233 -0.001915 68784.300000 0 0 1
35.147237 4.135953 4.471296 35.671093 0.117136 1.445118 0.010776 -0.003713 -158707.000000 0 0 1
-34.833165 5.351353 3.748596 35.440631 -0.152436 1.464827 0.005559 -0.004527 125501.000000 0 0 1
34.701737 6.289253 3.559596 35.446241 0.179291 1.470204 0.031282 -0.011323 335666.000000 0 0 1
35.277637 7.483753 3.076096 36.193654 0.209040 1.485704 0.015693 -0.005270 -761739.000000 0 0 1
34.287137 8.657053 3.167996 35.504768 0.247318 1.481450 0.058643 0.006883 -167031.000000 0 0 1
33.244437 8.640153 2.253896 34.422738 0.254272 1.505272 0.075678 -0.010411 -89860.100000 0 0 1
32.197337 7.698453 2.477896 33.197510 0.234696 1.496086 0.070396 -0.010627 -288757.000000 0 0 1
30.934437 8.009953 1.621696 31.995760 0.253369 1.520090 0.109032 -0.014890 124250.000000 0 0 1
31.041937 7.628753 0.293596 31.966950 0.240981 1.561612 0.098469 -0.021188 -89616.800000 0 0 1
29.837537 7.683053 -0.436604 30.813934 0.252021 1.584966 0.102457 -0.024836 -171007.000000 0 0 1
30.084937 7.252153 -1.870004 31.003130 0.236543 1.631150 0.072801 -0.022425 -662044.000000 0 0 1
28.966437 6.889153 -2.600704 29.887766 0.233494 1.657922 0.060726 -0.022111 -103046.000000 0 0 1
29.365337 6.689153 -3.920604 30.371680 0.223969 1.700245 0.063615 -0.016473 67592.700000 0 0 1
28.326337 5.989453 -4.861204 29.357899 0.208375 1.737147 0.041979 -0.004223 -41540.700000 0 0 1
28.085037 4.611853 -4.677204 28.842932 0.162758 1.733677 0.045956 -0.010548 72982.700000 0 0 1
26.965537 4.138153 -5.349704 27.800788 0.152273 1.764434 0.025277 -0.008000 -717254.000000 0 0 1
26.788737 2.618453 -5.268804 27.427231 0.097435 1.764099 0.019268 0.001774 -632426.000000 0 0 1
26.458937 2.172453 -3.945904 26.839617 0.081923 1.718349 0.009070 -0.008838 112762.000000 0 0 1
26.305337 0.732453 -3.854404 26.596309 0.027837 1.716231 -0.000267 -0.008343 -210230.000000 0 0 1
26.187937 0.239553 -2.365904 26.295683 0.009147 1.660891 -0.010190 -0.005898 -726585.000000 0 0 1
27.403837 0.539953 -1.771404 27.466338 0.019701 1.635335 0.032110 -0.012815 -240149.000000 0 0 1
27.578337 0.071453 -0.460804 27.582279 0.002591 1.587504 0.030725 -0.009067 -773070.000000 0 0 1
28.909337 0.479453 0.157196 28.913740 0.016583 1.565360 0.053849 -0.012156 -37119.900000 0 0 1
29.992937 -0.244847 -0.453604 29.997366 -0.008163 1.585918 0.056475 -0.018594 527186.000000 0 0 1
31.234837 0.316553 -0.063704 31.236506 0.010134 1.572836 0.043608 -0.021673 -58821.800000 0 0 1
-2.692163 -21.351547 -8.724906 23.221978 1.445371 1.955967 -0.002212 0.012220 120174.000000 0 1 0
-3.379963 -22.085347 -7.761906 23.652354 1.418934 1.905158 -0.002265 0.016765 26367.900000 0 1 0
-2.535963 -23.018947 -7.046906 24.206650 1.461070 1.866188 -0.002353 0.010389 408156.000000 0 1 0
-3.218563 -23.648047 -5.792506 24.558957 1.435525 1.808901 -0.004694 0.008698 -358244.000000 0 1 0
-3.076463 -22.766447 -4.681106 23.445436 1.436478 1.771807 -0.002655 0.004716 103945.000000 0 1 0
-3.640063 -23.380947 -3.521806 23.923249 1.416351 1.718546 0.001750 -0.000180 -168030.000000 0 1 0
-3.252463 -22.689947 -2.230206 23.030111 1.428422 1.667787 0.005159 -0.008069 -39935.800000 0 1 0
-1.879063 -22.731847 -1.912806 22.889442 1.488322 1.654461 0.011755 -0.008713 -407149.000000 0 1 0
-1.672763 -22.541347 -0.541506 22.609814 1.496723 1.594749 0.017999 -0.010746 1407120.000000 0 1 0
-0.103263 -22.615647 -0.318406 22.618124 1.566230 1.584874 0.017800 -0.010923 1233090.000000 0 1 0
0.626337 -21.481947 -0.654406 21.501037 -1.541648 1.601237 0.008760 -0.009206 -1298170.000000 0 1 0
1.843437 -21.414547 -0.006906 21.493746 -1.484925 1.571118 0.015105 -0.005143 -812957.000000 0 1 0
2.610237 -20.242447 -0.633406 20.419872 -1.442555 1.601820 0.013860 -0.004413 31923.600000 0 1 0
3.312437 -20.591647 -1.812206 20.934953 -1.411300 1.657468 0.013964 -0.002862 -504931.000000 0 1 0
4.313837 -19.671247 -2.117706 20.249736 -1.354917 1.675567 0.017225 0.000203 534564.000000 0 1 0
5.240937 -20.128347 -3.373206 21.071219 -1.316076 1.731574 0.020972 0.000193 -302265.000000 0 1 0
6.039337 -21.198947 -3.031706 22.249948 -1.293260 1.707478 0.022746 -0.000970 -792437.000000 0 1 0
6.674737 -21.794247 -4.086506 23.156874 -1.273605 1.748196 0.024579 -0.002146 -297338.000000 0 1 0
7.992837 -21.227447 -4.631406 23.150375 -1.210682 1.772213 0.028216 0.004727 -582172.000000 0 1 0
7.868737 -20.020547 -5.274706 22.148630 -1.196310 1.811257 0.026923 -0.001105 -194351.000000 0 1 0
9.054737 -19.715047 -5.975106 22.502738 -1.140252 1.839548 0.027450 0.004720 -400670.000000 0 1 0
8.942637 -18.365947 -6.763606 21.518018 -1.117672 1.890540 0.025406 0.004193 -150120.000000 0 1 0
9.912637 -18.047747 -7.743006 21.998538 -1.068533 1.930480 0.026145 0.007498 249675.000000 0 1 0
9.479037 -16.912347 -8.373306 21.118519 -1.059942 1.978488 0.018344 0.010622 178855.000000 0 1 0
10.236537 -16.541447 -9.676006 21.726280 -1.016638 2.032372 0.014349 0.001466 -264122.000000 0 1 0
9.703237 -17.363747 -10.714706 22.593305 -1.061206 2.064900 0.018721 0.004039 262711.000000 0 1 0
9.420237 -16.563047 -11.847906 22.437653 -1.053672 2.127083 0.013749 0.005243 192824.000000 0 1 0
8.982337 -17.450247 -13.080406 23.585812 -1.095427 2.158664 0.010155 0.006099 916888.000000 0 1 0
7.623037 -17.916647 -13.073306 23.452681 -1.168526 2.162087 0.018828 0.011078 829945.000000 0 1 0
7.162137 -18.638847 -14.218406 24.512566 -1.203933 2.189581 0.011628 0.014959 128858.000000 0 1 0
5.825237 -19.361747 -13.992406 24.588576 -1.278548 2.176160 0.008333 0.021866 58222.100000 0 1 0
5.959237 -20.583847 -13.330206 25.236910 -1.288991 2.127279 0.020086 0.016154 25733.900000 0 0 1
4.675337 -21.163647 -13.218106 25.386552 -1.353375 2.118436 0.029152 0.011315 195161.000000 0 0 1
4.727637 -22.681947 -12.906306 26.521576 -1.365307 2.079029 0.008674 0.012781 82925.500000 0 0 1
5.251737 -23.513647 -13.977606 27.854009 -1.351054 2.096494 0.020671 0.010591 -26388.700000 0 0 1
4.831537 -24.864847 -14.044806 28.963096 -1.378876 2.077069 0.002870 0.014167 920557.000000 0 0 1
3.353837 -25.197537 -14.488006 29.258612 -1.438472 2.088828 0.002111 0.007417 671091.000000 0 0 1
2.375837 -24.984627 -13.531106 28.512576 -1.475989 2.065268 0.004665 0.011820 -105106.000000 0 0 1
1.049637 -25.289707 -13.950406 28.901295 -1.529316 2.074522 -0.002822 0.004403 601340.000000 0 0 1
0.388837 -26.572607 -13.363906 29.746405 -1.556164 2.036735 -0.014297 0.002782 -603284.000000 0 0 1
0.874637 -27.762427 -13.919206 31.068660 -1.539302 2.035339 -0.011378 0.007681 48188.900000 0 0 1
0.398637 -29.025197 -13.361606 31.955492 -1.557063 2.002184 -0.014486 0.013459 121163.000000 0 0 1
-1.044963 -29.447337 -13.722606 32.504577 1.535325 2.006639 -0.017284 0.008199 126004.000000 0 0 1
-2.049863 -28.693827 -13.101906 31.610086 1.499478 1.998173 -0.015590 0.002004 -181733.000000 0 0 1
-3.339963 -29.178007 -13.425106 32.291561 1.456824 1.999560 -0.008668 -0.000398 1216400.000000 0 0 1
-4.598763 -28.369997 -12.827106 31.472845 1.410095 1.990578 -0.004705 -0.000185 1274680.000000 0 0 1
-4.846063 -28.361697 -11.432806 30.960930 1.401564 1.949015 -0.001317 -0.005753 -149632.000000 0 0 1
-5.160063 -29.643337 -10.960006 32.023045 1.398452 1.920111 -0.009300 -0.004942 -698036.000000 0 0 1
-5.547963 -29.614747 -9.485306 31.587721 1.385605 1.875787 0.001999 -0.003952 853839.000000 0 0 1
-6.909163 -29.241317 -9.195006 31.421955 1.338771 1.867772 0.004581 0.001300 500366.000000 0 0 1
-7.149763 -27.854897 -9.164106 30.182697 1.319542 1.879287 0.004226 0.004242 -35893.100000 0 0 1
-8.673563 -27.507367 -8.960206 30.202172 1.265346 1.872005 0.009546 0.010979 1525430.000000 0 0 1
-9.541763 -27.722247 -10.106006 31.011281 1.239305 1.902740 0.006125 0.002870 272465.000000 0 0 1
-9.586363 -29.046647 -10.630706 32.382371 1.252019 1.905286 0.018156 -0.004811 -1210050.000000 0 0 1
-10.776663 -29.343097 -11.556606 33.327300 1.218825 1.924912 0.013711 -0.008297 -483136.000000 0 0 1
-10.806063 -28.707767 -12.830606 33.249531 1.210785 1.966967 0.021521 -0.004494 -161099.000000 0 0 1
-11.825963 -29.315127 -13.584906 34.406100 1.187355 1.976690 0.021621 -0.004308 -180666.000000 0 0 1
-12.180863 -28.521557 -14.823706 34.374335 1.167169 2.016667 0.021953 -0.007681 -127036.000000 0 0 1
-13.034763 -27.363947 -14.684806 33.679878 1.126249 2.021958 0.018103 -0.016595 312646.000000 0 0 1
-12.661363 -26.269507 -13.768806 32.248676 1.121669 2.011922 0.023221 -0.006848 -49172.200000 0 0 1
-13.618363 -25.065857 -13.897206 31.731519 1.073109 2.024127 0.048912 -0.003288 -47875.200000 0 0 1
-13.300363 -24.212847 -14.967806 31.419688 1.068483 2.067333 0.040478 -0.010781 116882.000000 0 0 1
-14.284363 -23.224247 -15.239706 31.235514 1.019375 2.080475 0.057138 -0.008850 -184257.000000 0 0 1
-13.996163 -22.541047 -16.615406 31.305959 1.015137 2.130273 0.049042 -0.007998 165197.000000 0 0 1
-13.400063 -21.249547 -16.428506 30.016674 1.008177 2.149946 0.036204 -0.006116 349469.000000 0 0 1
-13.385463 -20.661947 -17.751306 30.351203 0.995947 2.195508 0.027736 -0.003231 -436896.000000 0 0 1
-13.462563 -19.095247 -17.715906 29.321023 0.956708 2.219564 0.014979 -0.003301 -72878.200000 0 0 1
-12.248263 -18.396147 -17.465406 28.168752 0.983390 2.239574 0.026763 -0.000773 270726.000000 0 0 1
-12.429363 -16.995647 -17.584206 27.432561 0.939354 2.266594 0.023846 0.006267 104708.000000 0 0 1
-11.121663 -16.219147 -17.841606 26.553249 0.969724 2.307592 0.038141 -0.001016 354729.000000 0 0 1
-10.390763 -15.792947 -16.714206 25.233902 0.988862 2.294776 0.042632 -0.002430 -471012.000000 0 0 1
-9.023163 -15.649947 -16.900806 24.738140 1.047789 2.322916 0.049598 0.000208 -854223.000000 0 1 0
-8.258563 -14.936047 -15.756606 23.228431 1.065708 2.316288 0.043545 0.002539 1249.840000 0 1 0
-7.960963 -15.667147 -14.535206 22.805890 1.100665 2.261843 0.042117 -0.000853 581811.000000 0 1 0
-6.912663 -16.635047 -14.739306 23.275670 1.176959 2.256541 0.046456 0.003545 -97786.800000 0 1 0
-6.490263 -17.481247 -13.547106 23.048679 1.215300 2.199084 0.029229 0.003935 -691603.000000 0 1 0
-5.835163 -16.819747 -12.505506 21.756394 1.236865 2.183152 0.022408 0.002415 160845.000000 0 1 0
-5.518563 -17.630047 -11.376506 21.695575 1.267437 2.122771 0.011961 0.002043 -624546.000000 0 1 0
-4.445663 -18.709847 -11.449806 22.381250 1.337512 2.107819 0.020056 0.004665 -133245.000000 0 1 0
-3.149663 -18.134447 -11.644506 21.780107 1.398828 2.134877 0.022699 0.006530 -384904.000000 0 1 0
-2.195463 -19.147747 -11.701906 22.547525 1.456636 2.116464 0.013143 0.012130 -716797.000000 0 1 0
-0.817363 -18.652047 -12.073506 22.233679 1.527003 2.144835 0.015930 0.014314 -1476870.000000 0 1 0
-0.727163 -18.119647 -13.376306 22.533884 1.530687 2.206332 0.021457 -0.000274 623085.000000 0 1 0
0.549637 -17.620247 -13.854206 22.421289 -1.539613 2.236871 0.020901 0.006544 1782440.000000 0 1 0
1.774437 -18.631047 -13.902006 23.313736 -1.475842 2.209682 0.025177 0.002298 261227.000000 0 1 0
1.650037 -19.675347 -14.871206 24.718306 -1.487129 2.216333 0.030156 0.006346 42867.100000 0 1 0
0.715037 -20.711247 -14.645706 25.376440 -1.536286 2.186016 0.019645 0.005306 -578664.000000 0 0 1
0.726237 -21.789147 -15.762006 26.902326 -1.537478 2.196783 0.016547 0.004201 283552.000000 0 0 1
1.967937 -22.440747 -16.056106 27.663305 -1.483325 2.190031 0.025945 0.004069 226671.000000 0 0 1
2.767837 -21.717647 -16.958406 27.693043 -1.444033 2.229852 0.029538 0.006943 166767.000000 0 0 1
4.180637 -22.346447 -17.164406 28.486106 -1.385851 2.217493 0.025768 0.005609 388673.000000 0 0 1
4.205037 -23.444947 -17.992406 29.850872 -1.393325 2.217731 0.023455 0.007238 -152859.000000 0 0 1
5.517837 -23.858747 -18.268506 30.551999 -1.343521 2.211735 0.029632 0.004994 119998.000000 0 0 1
6.052537 -23.821247 -19.751406 31.530985 -1.321980 2.247739 0.037124 0.006596 116120.000000 0 0 1
6.116037 -22.478247 -20.199106 30.833121 -1.305140 2.285125 0.043527 -0.004908 90029.800000 0 0 1
6.307037 -22.352347 -21.574506 31.699612 -1.295782 2.319367 0.066487 -0.003679 -89476.700000 0 0 1
6.569037 -20.859647 -21.975806 31.003438 -1.265712 2.358618 0.054458 -0.008846 292353.000000 0 0 1
5.470337 -19.964247 -21.944506 30.167152 -1.303354 2.385366 0.049826 -0.011927 260234.000000 0 0 1
5.896537 -18.723047 -22.496106 29.856263 -1.265695 2.424136 0.059063 -0.015352 512554.000000 0 0 1
4.672137 -17.923147 -23.007706 29.536801 -1.315795 2.463787 0.049575 -0.015518 -686730.000000 0 0 1
4.034037 -18.441047 -24.171806 30.669559 -1.355436 2.478572 0.040355 -0.015611 723216.000000 0 0 1
2.922837 -17.656747 -24.634606 30.449425 -1.406747 2.513302 0.039680 -0.006653 1350390.000000 0 0 1
1.660837 -17.497747 -23.723306 29.524986 -1.476163 2.503947 0.025146 0.003836 -107869.000000 0 0 1
1.947537 -16.483647 -22.660806 28.089422 -1.453192 2.509407 0.023603 -0.007185 -944903.000000 0 0 1
0.778337 -16.175147 -22.019106 27.332805 -1.522714 2.507471 0.014867 -0.001768 -1006810.000000 0 0 1
1.009337 -15.213447 -20.810606 25.798237 -1.504548 2.509288 0.008873 -0.005656 -5624.130000 0 0 1
1.785437 -14.097047 -21.135406 25.468017 -1.444814 2.549689 0.003778 -0.003026 -61399.400000 0 0 1
1.633537 -13.324847 -20.017706 24.102459 -1.448812 2.550847 0.002789 -0.006018 -80415.100000 0 1 0
2.871937 -12.420647 -19.916906 23.647487 -1.343567 2.572225 0.002945 -0.012246 -320469.000000 0 1 0
4.017437 -13.137547 -19.500206 23.853574 -1.274029 2.527846 0.009743 -0.011768 818472.000000 0 1 0
5.239037 -12.341147 -19.558406 23.712500 -1.169334 2.540670 0.021740 -0.011659 1335440.000000 0 1 0
5.574337 -11.419447 -18.376106 22.341850 -1.116678 2.536584 0.027545 -0.007547 -865994.000000 0 1 0
4.878337 -10.194747 -18.240906 21.458371 -1.124484 2.586896 0.008837 0.000934 966.371000 0 1 0
5.221137 -9.093947 -19.127006 21.812898 -1.049614 2.640102 0.014243 -0.006164 -222336.000000 0 1 0
4.696737 -9.133547 -20.624206 23.039941 -1.095830 2.679564 0.014521 -0.010994 318033.000000 0 1 0
3.276137 -9.043747 -20.641506 22.772664 -1.223246 2.705516 0.003256 -0.013261 69981.400000 0 1 0
2.792537 -9.345847 -21.919506 23.991829 -1.280441 2.722906 0.009331 -0.014571 69981.300000 0 1 0
1.261437 -9.145847 -21.931606 23.795653 -1.433737 2.743145 0.012197 -0.019892 -108586.000000 0 1 0
0.979437 -7.783647 -21.804406 23.172755 -1.445622 2.796222 0.012735 -0.013153 -1063180.000000 0 1 0
-0.379063 -7.490447 -21.805906 23.059662 1.520233 2.810322 0.003876 -0.017258 -495469.000000 0 1 0
-0.698463 -6.441247 -22.933806 23.831428 1.462782 2.866259 0.020520 -0.018155 -303015.000000 0 1 0
-0.653563 -6.954747 -24.257506 25.243262 1.477098 2.861211 0.028410 -0.016125 -421887.000000 0 0 1
-1.320163 -6.126647 -25.183286 25.951426 1.358562 2.897681 0.032164 -0.016969 -261635.000000 0 0 1
-0.634463 -4.808847 -25.588506 26.044178 1.439617 2.954257 0.032143 -0.017987 -551485.000000 0 0 1
-1.104963 -4.285647 -26.840216 27.202664 1.318463 2.978169 0.028117 -0.014923 -8664.360000 0 0 1
-0.631163 -2.967347 -27.096396 27.265696 1.361217 3.030096 0.025553 -0.013152 -921596.000000 0 0 1
-1.255563 -1.820447 -26.215576 26.308685 0.967016 3.057436 0.024198 -0.023424 555261.000000 0 0 1
-2.672763 -1.710247 -26.314066 26.504692 0.569228 3.021586 0.008078 -0.015344 434731.000000 0 0 1
-3.146063 -1.091847 -27.532306 27.732972 0.334046 3.021223 0.014052 -0.010585 297845.000000 0 0 1
-4.710063 -1.131247 -27.489886 27.913406 0.235712 2.967173 0.013832 -0.004767 403181.000000 0 0 1
-5.254863 -0.077547 -26.754286 27.265572 0.014756 2.947629 0.019951 -0.006822 -13618.400000 0 0 1
-6.646063 -0.360247 -26.608496 27.428307 0.054152 2.896483 0.023531 -0.018786 -117575.000000 0 0 1
-7.244363 0.866853 -25.872006 26.881089 -0.119093 2.866725 0.019022 -0.009001 -1102470.000000 0 0 1
-7.470963 2.037953 -26.653096 27.755289 -0.266304 2.858832 0.026574 -0.013403 646997.000000 0 0 1
-8.440163 1.986953 -27.713476 29.038270 -0.231207 2.838365 0.033718 -0.009740 757812.000000 0 0 1
-9.881163 1.449853 -27.419096 29.181266 -0.145689 2.792294 0.025011 -0.006280 132600.000000 0 0 1
-10.927563 2.186553 -28.062516 30.194328 -0.197487 2.763572 0.024850 -0.015279 976486.000000 0 0 1
-12.189663 1.601953 -27.736576 30.339278 -0.130670 2.724359 -0.005504 -0.003522 135770.000000 0 0 1
-13.388463 2.208953 -28.453226 31.523269 -0.163516 2.696592 -0.023518 0.002331 -1402210.000000 0 0 1
-14.617463 1.568953 -28.159316 31.766003 -0.106925 2.660437 -0.012669 0.006981 -131670.000000 0 0 1
-15.621263 2.140053 -28.961056 32.974937 -0.136149 2.643038 -0.006433 0.013599 -477484.000000 0 0 1
-16.241563 3.418753 -28.435876 32.925299 -0.207465 2.613259 -0.008966 0.017001 -1888340.000000 0 0 1
-15.421363 4.545753 -28.366936 32.606217 -0.286652 2.625969 -0.003233 0.006935 -349232.000000 0 0 1
-15.135663 5.165953 -29.615096 33.657530 -0.328912 2.646438 -0.021042 0.004994 91773.900000 0 0 1
-16.285463 5.903053 -30.393786 34.983490 -0.347744 2.623578 -0.017798 0.014285 -10909.000000 0 0 1
-16.783363 7.028253 -29.769136 34.889527 -0.396576 2.592963 -0.012937 0.010864 -357719.000000 0 0 1
-17.684663 7.608053 -30.640256 36.186394 -0.406272 2.580613 -0.009782 0.009111 -767710.000000 0 0 1
-18.494563 8.760253 -29.922596 36.251244 -0.442360 2.541747 -0.005439 -0.000959 -343414.000000 0 0 1
-17.799063 9.934353 -29.632976 35.966808 -0.509071 2.539051 -0.006538 -0.001426 -109380.000000 0 0 1
-18.541963 10.745753 -28.770186 35.874772 -0.525237 2.501368 0.009583 -0.006624 -150129.000000 0 0 1
-8.500263 24.861353 31.155706 40.755606 -1.241350 0.700605 -0.010345 0.007591 -406131.000000 0 0 1
-9.402763 25.937353 31.346636 41.758470 -1.223013 0.721728 -0.008750 0.007130 -56740.800000 0 0 1
-9.065063 26.883353 32.358656 43.034552 -1.245570 0.719823 0.013145 0.003640 459377.000000 0 0 1
-7.636863 27.504453 32.226796 43.050935 -1.299960 0.724888 0.012869 -0.002956 298901.000000 0 0 1
-7.605163 28.538153 31.257786 43.003650 -1.310358 0.757052 0.016134 0.018081 1820000.000000 0 0 1
-6.229863 28.663753 30.761256 42.505021 -1.356782 0.761635 0.009656 0.019161 1710010.000000 0 0 1
-6.180363 29.824653 29.752656 42.578485 -1.366465 0.797117 0.017898 0.005802 -95441.300000 0 0 1
-6.392363 31.169053 30.303086 43.939154 -1.368514 0.809777 0.017921 0.006925 316241.000000 0 0 1
-5.917663 32.135153 29.373516 43.937345 -1.388687 0.838563 0.022381 0.009765 -210859.000000 0 0 1
-6.086363 33.578653 29.943716 45.400396 -1.391486 0.850580 0.027603 0.005114 -516559.000000 0 0 1
-5.215763 33.796253 31.027426 46.174583 -1.417675 0.833946 0.022897 0.003706 -275057.000000 0 0 1
-5.584363 -34.369318 31.970876 47.271260 1.409723 0.828030 0.025007 0.005106 -841589.000000 0 0 1
-6.685263 34.400953 32.941776 48.096559 -1.378855 0.816317 0.021201 0.005536 -423360.000000 0 0 1
-6.460463 33.455153 33.997080 48.133007 -1.380036 0.786517 0.026475 0.007829 -67253.000000 0 0 1
-6.674063 32.098053 33.564534 46.919144 -1.365790 0.773643 0.020365 0.010992 -131162.000000 0 0 1
-6.656863 31.167853 -34.241594 46.778582 -1.360377 2.392039 0.026349 0.000968 -797134.000000 0 0 1
-5.405863 30.994553 -33.688366 46.095463 -1.398120 2.390347 0.017059 0.004063 -716698.000000 0 0 1
-5.575063 30.498653 -32.366056 44.819759 -1.389995 2.377685 0.019298 0.000739 -397301.000000 0 0 1
-4.214363 30.260853 -31.690716 44.020241 -1.432419 2.374472 0.002252 0.000168 515933.000000 0 0 1
-3.468163 29.059153 -31.992876 43.359044 -1.452010 2.400690 0.001129 0.002386 499803.000000 0 0 1
-2.834463 29.057953 -33.282256 44.273100 -1.473559 2.421507 0.005809 0.004211 -395658.000000 0 0 1
-2.177463 27.726153 -33.712606 43.703784 -1.492423 2.451817 0.012765 -0.003902 -424882.000000 0 0 1
-0.917363 27.437053 -33.160596 43.049490 -1.537374 2.450092 0.018913 0.002117 -37327.600000 0 0 1
-0.380063 26.133653 -33.364086 42.382479 -1.556254 2.477075 0.027488 -0.002638 421102.000000 0 0 1
0.110037 25.760853 34.229599 42.840391 1.566525 0.645161 0.019851 0.001083 -483812.000000 0 0 1
-0.981063 25.446153 33.411049 42.009135 -1.532261 0.651248 0.023343 -0.003594 -49864.200000 0 0 1
-0.692763 25.360153 32.056046 40.880404 -1.543486 0.669484 0.027879 0.001640 -554400.000000 0 0 1
-0.466463 26.668553 31.313656 41.133616 -1.553307 0.705532 0.016573 0.002558 353798.000000 0 0 1
-1.567463 27.585253 31.322616 41.767325 -1.514035 0.722838 0.012997 0.002516 648865.000000 0 0 1
-1.094463 28.770053 30.758156 42.130488 -1.532773 0.752374 0.009231 0.008015 -89303.700000 0 0 1
-2.093963 29.885353 30.997886 43.109024 -1.500844 0.768351 0.015667 0.001892 -150149.000000 0 0 1
-1.982763 30.319653 32.328216 44.365824 -1.505494 0.754413 0.022407 0.017028 495418.000000 0 0 1
-2.878363 31.416053 32.550396 45.329700 -1.479431 0.769755 0.017792 0.020869 215574.000000 0 0 1
-2.266763 32.191053 33.698842 46.658484 -1.500496 0.763754 0.029866 0.011994 -399524.000000 0 0 1
-1.119363 32.755153 33.185984 46.641855 -1.536636 0.779156 -0.012274 0.006717 -775952.000000 0 0 1
-0.202063 33.258353 34.157418 47.674816 -1.564721 0.772072 -0.017653 0.010400 39404.900000 0 0 1
0.946137 34.010853 33.491477 47.742145 1.542985 0.793286 0.006037 -0.000310 -462066.000000 0 0 1
0.613637 -33.843318 33.051279 47.308918 -1.552667 0.797320 0.020527 -0.011909 146220.000000 0 0 1
1.725737 -33.216918 32.452196 46.470279 -1.518889 0.797716 0.021096 -0.018523 -163662.000000 0 0 1
1.419937 -31.744118 32.117096 45.179786 -1.526095 0.780057 0.024386 -0.009786 -166152.000000 0 0 1
1.202037 -30.965218 33.239131 45.443695 -1.531997 0.750372 0.015992 0.003225 85802.600000 0 0 1
1.483137 -29.624518 32.973432 44.351539 -1.520774 0.732573 0.030256 -0.010444 -42688.800000 0 0 1
1.198937 -28.766018 34.241835 44.737283 -1.529142 0.699137 0.025947 -0.008505 1436620.000000 0 0 1
-0.230163 -28.490218 34.317197 44.602864 1.562718 0.692904 0.024337 -0.001076 1400500.000000 0 0 1
-0.607363 -27.969818 -33.479816 43.630009 1.549085 2.445506 0.019826 0.012855 158867.000000 0 0 1
-2.029263 -27.387518 -33.293776 43.158656 1.496837 2.451878 -0.005621 0.018055 29233.700000 0 0 1
-2.239463 -27.009718 -31.941516 41.890339 1.488072 2.437970 -0.007694 0.015512 655981.000000 0 0 1
-3.514063 -26.395618 -31.712866 41.409940 1.438444 2.443123 0.009615 0.003572 234347.000000 0 0 1
-3.715663 -25.907218 -30.242096 39.994681 1.428346 2.428211 0.006620 -0.002065 -434396.000000 0 0 1
-4.117363 -26.927318 -29.341056 40.036617 1.419065 2.393306 0.000634 -0.000246 -100628.000000 0 0 1
-4.492363 -26.485218 -28.047766 38.837164 1.402778 2.377758 0.003520 0.003228 -337840.000000 0 0 1
-3.412363 -25.879318 -27.154806 37.666521 1.439696 2.375935 0.007198 0.006128 -318525.000000 0 0 1
-2.857663 -24.695418 -27.728686 37.241240 1.455592 2.410686 0.010431 0.005221 -410094.000000 0 0 1
-1.768463 -24.363918 -26.923376 36.353764 1.498338 2.404750 0.018175 0.006954 -998529.000000 0 0 1
-0.847363 -23.296718 -27.630546 36.151102 1.534440 2.440763 0.020569 0.009672 304619.000000 0 0 1
-0.157163 -23.710818 -28.816126 37.317512 1.564168 2.453073 0.007419 0.002744 438838.000000 0 0 1
0.925237 -24.576618 -28.470746 37.622461 -1.533167 2.429121 0.011884 0.006261 -343359.000000 0 0 1
1.815137 -24.947918 -29.687636 38.820730 -1.498167 2.441429 -0.007057 0.000701 162158.000000 0 0 1
2.640137 -23.898918 -30.149586 38.563275 -1.460771 2.468378 0.013493 -0.002277 827738.000000 0 0 1
3.594437 -24.300818 -31.175586 39.690892 -1.423947 2.474234 0.024964 -0.007462 559578.000000 0 0 1
4.637937 -23.234218 -31.640546 39.528009 -1.373769 2.498857 0.034753 -0.009142 846333.000000 0 0 1
5.902037 -23.120118 -30.941356 39.073538 -1.320857 2.484669 0.014727 -0.014659 1433970.000000 0 0 1
6.847437 -24.169318 -31.136626 40.006660 -1.294720 2.462728 0.013544 -0.011903 -397681.000000 0 0 1
7.574337 -24.194018 -32.468166 41.193481 -1.267395 2.478654 -0.005257 -0.004313 -548244.000000 0 0 1
6.815037 -25.022218 -33.406586 42.291324 -1.304887 2.481468 -0.007124 -0.004436 377130.000000 0 0 1
7.023137 -24.897118 34.206835 42.887043 -1.295854 0.647486 -0.006226 -0.001685 -80141.500000 0 0 1
6.518537 -23.553518 33.547750 41.505555 -1.300800 0.629586 -0.014414 0.008228 134537.000000 0 0 1
5.130737 -23.425218 33.809115 41.450230 -1.355175 0.616935 0.001418 0.006712 -97936.600000 0 0 1
4.628937 -22.272418 33.213467 40.256950 -1.365881 0.600529 0.020016 0.004760 412306.000000 0 0 1
3.143637 -21.977718 33.616962 40.286507 -1.428723 0.583667 0.023143 -0.000969 1491130.000000 0 0 1
2.093537 -22.859818 33.162734 40.332631 -1.479470 0.605477 0.032697 0.002881 579883.000000 0 0 1
1.927337 -23.969618 34.008137 41.651057 -1.490561 0.615472 0.029345 0.007523 536584.000000 0 0 1
0.576437 -24.718918 33.684974 41.785580 -1.547481 0.633199 0.036253 -0.003972 876829.000000 0 0 1
0.619137 -25.401418 32.409196 41.182173 -1.546427 0.664911 0.042989 -0.011038 -499668.000000 0 0 1
-0.645063 -25.808618 31.975806 41.096874 1.545807 0.679226 0.048384 -0.023117 -272452.000000 0 0 1
-0.543763 -26.862118 30.854096 40.912642 1.550556 0.716444 0.046978 -0.038471 -237054.000000 0 0 1
-1.840163 -27.080118 30.373996 40.734489 1.502948 0.729275 0.046079 -0.036337 -37963.200000 0 0 1
-1.837163 -28.220918 29.522106 40.882149 1.505789 0.763924 0.041311 -0.036915 590565.000000 0 0 1
-3.233863 -28.608518 28.921526 40.808821 1.458236 0.783132 0.038166 -0.019541 532554.000000 0 0 1
-4.214263 -29.015918 29.828246 41.825922 1.426565 0.776812 0.037455 -0.013346 -435182.000000 0 0 1
-5.448363 -29.226818 29.229266 41.692224 1.386495 0.793896 0.030681 -0.003056 -196578.000000 0 0 1
-6.583863 -29.802118 30.134946 42.890890 1.353369 0.791758 0.023907 0.006462 -94667.700000 0 0 1
-7.741663 -30.183818 29.433256 42.863887 1.319725 0.813901 0.018536 0.010126 271851.000000 0 0 1
-8.890063 -30.443618 30.241856 43.822562 1.286679 0.809172 0.003065 0.010499 400021.000000 0 0 1
-8.841663 -31.599118 31.270816 45.327069 1.297966 0.809455 0.001164 0.013519 -700737.000000 0 0 1
-8.746463 -32.896818 30.678246 45.824186 1.310933 0.837292 0.011683 0.009768 534881.000000 0 0 1
-9.991663 -33.374518 30.170526 46.086358 1.279908 0.857074 0.005099 0.009507 261598.000000 0 0 1
-9.854263 34.348053 29.550966 46.369763 -1.291406 0.879820 0.017051 0.009631 -359251.000000 0 0 1
-9.938563 33.345753 30.542996 46.298908 -1.281133 0.850388 0.017662 0.011490 400748.000000 0 0 1
-9.481663 32.083153 30.041776 44.963752 -1.283442 0.839099 0.020664 0.004790 -370698.000000 0 0 1
-10.093763 30.936553 30.934616 44.898829 -1.255413 0.810709 0.021878 0.018603 587063.000000 0 0 1
-11.520363 30.897753 30.880656 45.177482 -1.213908 0.818194 0.005022 0.027749 260706.000000 0 0 1
-12.015463 29.700253 31.441996 44.889593 -1.186367 0.794797 0.005127 0.022851 -1687.230000 0 0 1
-12.082463 29.518553 32.959186 45.865443 -1.182283 0.769001 0.007915 0.009900 -225848.000000 0 0 1
-13.042663 30.323153 33.633812 47.125768 -1.164595 0.776025 0.006878 0.017524 352848.000000 0 0 1
-13.156163 29.848953 -34.100114 47.189643 -1.155655 2.378379 0.004244 0.016042 268036.000000 0 0 1
-14.460763 30.402653 -33.452366 47.460466 -1.126825 2.353004 -0.003149 0.014449 225767.000000 0 0 1
-14.633763 30.097553 -32.069046 46.351197 -1.118241 2.334873 -0.000999 0.011426 121328.000000 0 0 1
-15.930363 30.443353 -31.614046 46.690707 -1.088700 2.314604 0.000876 0.003356 298036.000000 0 0 1
-15.942563 30.115153 -30.094406 45.461644 -1.083917 2.294245 0.021279 -0.003652 -238051.000000 0 0 1
-16.022663 28.735453 -29.822396 44.405262 -1.062143 2.307157 0.017402 -0.006123 58655.100000 0 0 1
-16.047563 28.536853 -28.428166 43.359393 -1.058524 2.285827 0.017997 -0.012702 -108219.000000 0 0 1
-16.392463 27.018753 -28.189036 42.347936 -1.025460 2.299165 0.004810 -0.006435 -833457.000000 0 0 1
-17.713463 26.777753 -28.503506 42.933259 -0.986380 2.296822 0.001376 -0.001604 -1056600.000000 0 0 1
-18.100663 25.472253 -28.109236 42.030927 -0.952990 2.303356 -0.000795 0.001020 -138067.000000 0 0 1
-19.570163 25.175453 -28.428946 42.720016 -0.910019 2.298921 -0.004501 0.003196 -261306.000000 0 0 1
-20.526963 25.879853 -27.665046 43.086864 -0.900238 2.268000 0.004866 -0.000419 -549529.000000 0 0 1
-21.791063 25.376453 -27.938896 43.582069 -0.861266 2.266680 0.022850 -0.010193 -738911.000000 0 0 1
-22.822063 25.457453 -26.816916 43.451991 -0.839930 2.235927 0.045533 -0.025982 -251872.000000 0 0 1
-23.599163 26.645753 -26.822496 44.568632 -0.845959 2.216580 0.034116 -0.007762 19072.500000 0 0 1
-24.818363 26.581853 -26.113946 44.771467 -0.819694 2.193547 0.024634 -0.008638 50646.500000 0 0 1
-24.903063 26.427453 -24.554706 43.834991 -0.815087 2.165378 0.043241 -0.002018 -916974.000000 0 0 1
-24.504163 25.145053 -24.183806 42.633135 -0.798306 2.173964 0.023452 -0.005186 -191391.000000 0 0 1
-25.463063 24.081053 -24.166006 42.570654 -0.757511 2.174467 0.017463 0.000149 543763.000000 0 0 1
-26.412603 24.080553 -22.859206 42.426901 -0.739246 2.139797 0.009008 -0.001305 359650.000000 0 0 1
-25.805153 23.890453 -21.607706 41.274116 -0.746889 2.121770 0.005996 -0.003510 -335930.000000 0 0 1
-25.122893 25.013853 -21.163906 41.288782 -0.783223 2.108986 0.019238 -0.001216 -206168.000000 0 0 1
-24.061663 24.790153 -20.052806 39.945342 -0.800309 2.096713 0.020027 0.004918 -40338.600000 0 0 1
-24.559063 24.550153 -18.755306 39.466684 -0.785217 2.066009 0.010339 0.008730 -983636.000000 0 0 1
-23.557563 24.244653 -17.886706 38.245212 -0.799771 2.057466 0.017771 0.004757 -1071410.000000 0 0 1
-23.932663 24.183353 -16.394106 37.767362 -0.790608 2.019815 0.008755 0.004066 -165035.000000 0 0 1
-24.155563 25.447953 -15.726506 38.450131 -0.811447 1.992166 0.013779 -0.006880 -31055.400000 0 0 1
-24.491363 25.228453 -14.367006 37.983057 -0.800222 1.958699 -0.014052 0.001187 123249.000000 0 0 1
-24.476863 26.573653 -13.591606 38.600617 -0.826448 1.930619 -0.004878 -0.001252 874026.000000 0 0 1
-23.210363 27.253753 -13.537606 38.272115 -0.865351 1.932341 0.013841 -0.007366 692185.000000 0 0 1
-23.313863 28.336753 -12.625206 38.805974 -0.882341 1.902170 0.008863 -0.005383 352724.000000 0 0 1
-21.892263 28.734753 -12.142506 38.110336 -0.919739 1.895064 0.012288 -0.012483 125671.000000 0 0 1
-21.333963 27.735153 -11.322606 36.777413 -0.915118 1.883748 0.014143 -0.009512 -272341.000000 0 0 1
-20.098463 28.085353 -10.756006 36.172185 -0.949663 1.872718 0.009448 -0.005314 -361456.000000 0 0 1
-19.404463 26.943153 -10.020006 34.682376 -0.946641 1.863882 0.017790 0.002268 -246055.000000 0 0 1
-18.897263 26.028853 -10.925806 33.970296 -0.942825 1.898245 0.008123 0.003650 -372759.000000 0 0 1
-18.203263 24.998853 -10.294806 32.592706 -0.941417 1.892162 0.010824 0.012393 -796905.000000 0 0 1
-17.698063 24.117853 -11.325806 31.986969 -0.937734 1.932722 0.013898 0.008346 -348729.000000 0 0 1
-17.175263 22.923853 -10.796906 30.611532 -0.927788 1.931259 0.007732 0.015291 157382.000000 0 0 1
-16.735163 21.956953 -11.770606 30.012009 -0.919545 1.973815 0.022058 0.011793 202886.000000 0 0 1
-16.495063 20.558053 -11.155806 28.621193 -0.894615 1.971183 0.016655 0.012079 1009680.000000 0 0 1
-17.713863 19.879953 -10.780206 28.726405 -0.842953 1.955486 0.014596 0.012265 1040380.000000 0 0 1
-17.348263 18.534253 -10.629406 27.522083 -0.818438 1.967320 0.032322 0.003356 124279.000000 0 0 1
-18.584963 17.577053 -10.434506 27.626664 -0.757533 1.958104 0.036285 0.002708 532369.000000 0 0 1
-19.161763 17.050153 -11.641606 28.167497 -0.727152 1.996871 0.025285 0.002763 599084.000000 0 0 1
-19.849063 18.014953 -12.499206 29.576241 -0.736997 2.007119 0.019231 0.017909 -434469.000000 0 0 1
-20.499163 17.298953 -13.683306 30.111499 -0.700934 2.042519 0.017102 0.015533 -550979.000000 0 0 1
-19.625763 16.950053 -14.696406 29.807034 -0.712373 2.086390 0.020332 0.016131 -354822.000000 0 0 1
-20.348963 16.600453 -15.857406 30.677560 -0.684294 2.114029 0.013192 0.022516 -442405.000000 0 0 1
-19.513763 16.395753 -17.086306 30.684679 -0.698786 2.161367 0.016626 0.010208 -479496.000000 0 0 1
-18.916763 17.585853 -17.637706 31.276107 -0.748954 2.169940 -0.001922 0.017023 198901.000000 0 0 1
-18.060563 17.239153 -18.690106 31.188017 -0.762133 2.213388 -0.004418 0.015992 -377178.000000 0 0 1
-17.286163 18.423453 -19.353606 31.824474 -0.817236 2.224507 -0.010706 0.018375 -27648.200000 0 0 1
-16.199763 18.837853 -18.554906 31.009379 -0.860549 2.212254 -0.010367 0.014283 -66670.600000 0 0 1
-15.777363 20.083753 -19.045406 31.859219 -0.904911 2.211549 -0.003809 0.011442 -61498.500000 0 0 1
32.042109 31.879453 1.652194 45.229703 0.782854 1.534259 0.044366 -0.004188 -328352.000000 0 0 1
33.335829 31.450153 1.342094 45.849655 0.756300 1.541521 0.042219 -0.005011 -391147.000000 0 0 1
33.624709 31.714853 0.023694 46.221786 0.756177 1.570284 0.038417 -0.002337 270286.000000 0 0 1
35.119433 31.465453 -0.349606 47.154761 0.730576 1.578210 0.011621 0.005960 399954.000000 0 0 1
-34.533711 32.385053 0.209194 47.343560 -0.753301 1.566378 -0.007553 0.011184 -496157.000000 0 0 1
-33.378953 32.400653 -0.580406 46.521970 -0.770527 1.583273 0.002841 0.009090 -820151.000000 0 0 1
-32.556213 33.591253 -0.097406 46.779149 -0.801044 1.572879 -0.007765 0.005008 -527658.000000 0 0 1
-31.736893 33.233253 0.982294 45.963512 -0.808426 1.549424 -0.007858 0.015479 -350570.000000 0 0 1
-31.244663 34.325853 1.626894 46.445021 -0.832354 1.535761 -0.016267 0.010229 -343221.000000 0 0 1
-30.351643 34.066653 2.872194 45.716612 -0.843004 1.507929 0.004607 0.012005 -220826.000000 0 0 1
-30.246523 -33.909718 3.623794 45.583473 0.842434 1.491214 -0.010823 0.012146 -28966.700000 0 0 1
-29.671043 -34.054018 4.907194 45.432670 0.854069 1.462575 -0.004472 0.004718 -539916.000000 0 0 1
-29.525073 -32.698318 5.511394 44.399160 0.836352 1.446342 -0.003956 0.002325 102493.000000 0 0 1
-30.624413 -32.114018 6.220294 44.809116 0.809137 1.431529 -0.009686 -0.003705 231272.000000 0 0 1
-30.896523 -32.822918 7.432594 45.685693 0.815621 1.407380 -0.010081 -0.008948 -679893.000000 0 0 1
-31.971393 -32.102618 8.340594 46.068574 0.787446 1.388745 -0.013874 -0.012433 1185250.000000 0 0 1
-33.313833 -31.988618 7.857694 46.848975 0.765107 1.402276 -0.003057 -0.008029 629896.000000 0 0 1
-33.954673 -33.263918 7.638994 48.143144 0.775122 1.411450 -0.002223 -0.006957 -1039240.000000 0 0 1
35.152696 -33.031618 7.202194 48.771625 -0.754300 1.422582 -0.006287 -0.000029 -168236.000000 0 0 1
34.318119 -32.849918 8.320594 48.229479 -0.763543 1.397408 -0.004145 -0.001283 -231411.000000 0 0 1
32.968639 -32.721918 7.925594 47.121864 -0.781642 1.401799 0.007715 0.001176 167978.000000 0 0 1
32.100039 -32.656418 9.248594 46.716063 -0.793990 1.371505 0.015432 -0.012762 836166.000000 0 0 1
30.672189 -32.639118 8.964594 45.677775 -0.816456 1.373257 0.021147 -0.012233 1610740.000000 0 0 1
29.858339 -32.518018 10.135494 45.295365 -0.828012 1.345121 0.028334 -0.013013 121023.000000 0 0 1
30.157439 -31.277318 11.065194 44.835033 -0.803625 1.321422 0.018989 -0.006101 -844120.000000 0 0 1
29.556139 -30.036218 10.780894 43.496751 -0.793454 1.320331 0.028457 -0.008618 141958.000000 0 0 1
30.103119 -29.484218 9.596694 43.215893 -0.775012 1.346866 0.036076 -0.014050 129989.000000 0 0 1
29.487239 -28.087018 9.261594 41.763081 -0.761083 1.347172 0.040681 -0.014193 293895.000000 0 0 1
29.724509 -27.729618 7.911994 41.413497 -0.750691 1.378566 0.038069 -0.020646 112522.000000 0 0 1
29.030989 -26.501018 7.765894 40.067585 -0.739871 1.375742 0.033572 -0.013028 182167.000000 0 0 1
29.091229 -25.959018 6.333894 39.500486 -0.728562 1.409751 0.022943 -0.001579 1293540.000000 0 0 1
30.445739 -25.542018 6.038494 40.197028 -0.698036 1.420003 0.036832 -0.005209 868247.000000 0 0 1
30.436639 -25.225118 4.663394 39.805060 -0.692042 1.453371 0.028646 -0.006241 619396.000000 0 0 1
31.813929 -24.829018 3.997394 40.553487 -0.662703 1.472065 0.032895 -0.007627 872825.000000 0 0 1
32.670909 -25.953718 4.029494 41.919215 -0.671316 1.474522 0.019344 -0.007040 -1034860.000000 0 0 1
33.998439 -25.601818 3.914794 42.739589 -0.645437 1.479071 0.022041 -0.009839 -268994.000000 0 0 1
35.046835 -26.768318 3.884094 44.270867 -0.652267 1.482949 0.019832 -0.007778 358772.000000 0 0 1
35.022742 -27.499018 5.078494 44.817179 -0.665636 1.457237 0.013016 -0.003784 -430017.000000 0 0 1
-34.906497 -28.749918 4.957994 45.492890 0.688982 1.461595 0.015517 -0.007512 -1153480.000000 0 0 1
35.001989 -29.759718 5.984094 46.331300 -0.704627 1.441276 0.013955 -0.003936 1206660.000000 0 0 1
33.683379 -30.239418 5.643594 45.616253 -0.731573 1.446760 0.006862 -0.004618 347274.000000 0 0 1
32.765869 -29.201418 5.785294 44.269567 -0.727940 1.439738 0.012245 0.000555 -2381360.000000 0 0 1
31.287719 -29.539718 5.647294 43.398251 -0.756669 1.440299 0.025510 -0.001189 -695438.000000 0 0 1
30.993239 -29.726218 4.248294 43.154106 -0.764534 1.472192 0.012170 -0.004185 51546.400000 0 0 1
29.792339 -29.097418 3.842794 41.821170 -0.773598 1.478780 0.015759 -0.000642 120300.000000 0 0 1
28.489889 -29.902418 3.997294 41.494659 -0.809584 1.474314 0.022719 -0.005244 -184842.000000 0 0 1
28.477549 -31.063618 3.222194 42.264662 -0.828804 1.494484 0.023873 0.000533 -310600.000000 0 0 1
27.389779 -31.884518 3.578894 42.185672 -0.861083 1.485858 0.030099 0.000572 -130403.000000 0 0 1
27.476619 -33.304118 3.003694 43.279915 -0.880983 1.501339 0.029535 0.000221 -140091.000000 0 0 1
27.251829 -33.429018 1.604994 43.159442 -0.886847 1.533600 0.023928 0.005842 232142.000000 0 0 1
27.480899 34.389353 1.188494 44.036802 0.896598 1.543804 0.017309 0.013256 -78839.500000 0 0 1
27.093739 34.145353 -0.290506 43.589680 0.900042 1.577461 0.009254 0.001520 -372807.000000 0 0 1
28.050449 -34.472718 -1.140206 44.457800 -0.887757 1.596446 0.003355 0.005045 -379193.000000 0 0 1
27.676579 34.433653 -2.470006 44.246700 0.893764 1.626649 0.009368 0.004808 -485075.000000 0 0 1
28.569759 -34.140918 -3.579706 44.661479 -0.874005 1.651034 0.003168 0.008336 -102151.000000 0 0 1
28.617909 -32.712018 -3.628906 43.614559 -0.852055 1.654097 -0.007523 0.005002 328221.000000 0 0 1
29.471239 -32.247618 -4.694806 43.937501 -0.830352 1.677853 0.000564 -0.000047 -15629.100000 0 0 1
29.745799 -30.704018 -4.815506 43.020208 -0.801248 1.682967 0.001405 0.011878 -385270.000000 0 0 1
28.704029 -29.748718 -5.025606 41.643297 -0.803269 1.691773 -0.005823 0.000984 -13699.600000 0 0 1
29.036309 -28.381118 -4.688306 40.872671 -0.773988 1.685755 -0.001260 -0.008401 380292.000000 0 0 1
29.981959 -27.581618 -5.691006 41.134548 -0.743723 1.709593 0.025827 -0.008997 573085.000000 0 0 1
31.283069 -28.134318 -5.619406 42.447002 -0.732454 1.703573 0.030647 -0.003549 -443364.000000 0 0 1
32.225679 -27.611118 -6.508106 42.932780 -0.708431 1.722971 0.038108 -0.005987 -49636.400000 0 0 1
32.357719 -28.357818 -7.827506 43.731655 -0.719614 1.750756 0.047189 0.001141 -502148.000000 0 0 1
31.158549 -28.373318 -8.575806 43.005171 -0.738647 1.771556 0.039991 0.001890 -149773.000000 0 0 1
31.047449 -29.288318 -9.686906 43.767405 -0.756251 1.793971 0.026521 0.007238 63666.800000 0 0 1
31.047189 -30.796618 -9.273706 44.703034 -0.781347 1.779765 0.017336 0.011344 606274.000000 0 0 1
32.298629 -31.233018 -8.723006 45.768916 -0.768627 1.762557 0.024868 0.009329 100544.000000 0 0 1
32.119179 -32.457018 -8.121206 46.379453 -0.790630 1.746807 0.022553 0.007174 1414580.000000 0 0 1
33.468469 -33.150318 -7.588806 47.714483 -0.780623 1.730521 0.018887 0.006074 1322420.000000 0 0 1
33.322549 -34.443918 -7.020806 48.436220 -0.801944 1.716258 0.014405 0.004708 30102.600000 0 0 1
32.661869 -34.441918 -5.738206 47.811822 -0.811919 1.691103 0.027393 0.006979 92544.500000 0 0 1
32.486279 33.322753 -5.015006 46.807205 0.798108 1.678144 0.013446 0.006818 -95857.900000 0 0 1
31.582479 32.541353 -5.773006 45.713458 0.800351 1.697421 0.026267 -0.004399 52391.900000 0 0 1
31.437449 31.214153 -5.171606 44.602489 0.781834 1.687007 0.031028 0.005825 -277111.000000 0 0 1
30.301679 30.455253 -5.847406 43.357887 0.787926 1.706072 0.033240 -0.004559 -387147.000000 0 0 1
30.449319 30.128653 -7.225706 43.440852 0.780105 1.737907 0.015797 0.003378 -803595.000000 0 0 1
29.314309 29.453553 -7.633806 42.250627 0.787768 1.752473 0.008166 -0.001407 -442451.000000 0 0 1
29.392669 28.995953 -9.132306 42.285852 0.778604 1.788477 0.004322 0.006234 120222.000000 0 0 1
30.400029 28.016253 -9.345606 42.384107 0.744614 1.793121 -0.003579 0.004955 49576.400000 0 0 1
30.710969 27.713753 -10.730406 42.735902 0.734143 1.824599 -0.004321 0.013978 587022.000000 0 0 1
31.850759 28.618753 -11.326006 44.292012 0.732000 1.829381 0.001616 0.006877 247980.000000 0 0 1
33.191929 28.327253 -10.937206 44.986219 0.706487 1.816381 0.015476 -0.000072 552263.000000 0 0 1
34.085199 29.376753 -11.220806 46.375650 0.711341 1.815176 0.016263 -0.004943 1315.600000 0 0 1
33.887749 30.686553 -10.361906 46.876574 0.735865 1.793684 0.017781 -0.008258 -942385.000000 0 0 1
34.489139 30.514553 -9.130406 46.946810 0.724330 1.766528 0.018149 -0.003486 -45901.000000 0 0 1
34.267689 31.664253 -8.332306 47.395430 0.745932 1.747519 0.017725 -0.005776 19385.600000 0 0 1
-35.265172 31.651453 -7.145706 47.921895 -0.731447 1.720466 -0.000244 0.005210 1567080.000000 0 0 1
-33.887363 31.851853 -7.516506 47.110422 -0.754445 1.731032 0.003485 0.004362 807258.000000 0 0 1
-33.185393 30.714253 -7.949106 45.911044 -0.746745 1.744815 0.008593 0.001593 -927902.000000 0 0 1
-31.834083 31.014653 -8.609206 45.270697 -0.772361 1.762133 0.026113 -0.004472 -356715.000000 0 0 1
-30.937773 31.475353 -7.608706 44.785445 -0.794011 1.741517 0.016431 -0.001485 940600.000000 0 0 1
-29.656593 31.924453 -8.147006 44.328974 -0.822209 1.755632 0.028928 -0.012550 955452.000000 0 0 1
-29.579813 33.316753 -8.944706 45.442042 -0.844742 1.768928 0.023768 -0.002610 -463769.000000 0 0 1
-29.819813 -34.556418 -8.314206 46.394970 0.858843 1.750975 0.009994 -0.007928 672794.000000 0 0 1
-28.806163 -34.219418 -7.329406 45.326414 0.871078 1.733212 0.025369 -0.005406 758367.000000 0 0 1
-29.122203 -32.820718 -6.643606 44.378370 0.845036 1.721065 0.011365 -0.013698 -112570.000000 0 0 1
-30.085593 -32.740618 -5.614506 44.817560 0.827633 1.696401 0.010375 -0.017093 -348132.000000 0 0 1
-29.691483 -33.352218 -4.396706 44.869651 0.843400 1.668942 0.007259 -0.014026 9342.720000 0 0 1
-30.743773 -33.253518 -3.267006 45.405389 0.824594 1.642811 0.001751 -0.008958 -75370.200000 0 0 1
-30.879133 -31.965618 -2.680706 44.525361 0.802685 1.631039 0.009948 -0.005076 211379.000000 0 0 1
-32.004473 -31.956018 -1.818006 45.263435 0.784641 1.610972 0.006497 -0.000414 140887.000000 0 0 1
-32.629453 -30.593918 -1.474406 44.753133 0.753213 1.603748 0.020504 0.002901 -478778.000000 0 0 1
-33.665873 -30.703218 -0.579006 45.567684 0.739405 1.583503 0.015451 0.008573 -756095.000000 0 0 1
-34.245247 -29.443918 -0.256406 45.163558 0.710154 1.576474 0.031207 0.000838 -44414.200000 0 0 1
-35.254281 -29.419018 0.907394 45.925661 0.695415 1.551037 0.035256 0.004979 -1563380.000000 0 0 1
34.148039 -30.055718 0.490594 45.493685 -0.721745 1.560012 0.017761 0.008981 -1159740.000000 0 0 1
33.062069 -30.001418 1.354194 44.665639 -0.736903 1.540473 0.019770 0.001895 -703246.000000 0 0 1
32.424939 -28.645518 1.287294 43.285095 -0.723591 1.541052 -0.000337 0.009226 -2332160.000000 0 0 1
31.646909 -28.649418 0.114094 42.688745 -0.735726 1.568124 -0.008319 0.012618 80484.700000 0 0 1
30.872649 -27.426718 0.170994 41.296180 -0.726359 1.566656 -0.008937 0.009999 -493648.000000 0 0 1
29.611239 -27.433118 -0.693706 40.371805 -0.747234 1.587980 -0.007457 0.009076 -159926.000000 0 0 1
28.501469 -28.063718 -0.061606 39.998872 -0.777659 1.572337 0.000213 0.014481 232474.000000 0 0 1
28.398789 -29.492418 -0.146806 40.942831 -0.804287 1.574382 0.002770 0.018088 -456191.000000 0 0 1
27.930539 -30.175918 -1.463106 41.144157 -0.824021 1.606364 -0.004826 0.004554 -66998.500000 0 0 1
26.530519 -30.050618 -1.602106 40.118260 -0.847531 1.610742 0.005754 0.010728 -162539.000000 0 0 1
26.163079 -30.553018 -2.836606 40.324185 -0.862646 1.641200 0.002443 0.011496 456778.000000 0 0 1
24.615239 -30.712818 -3.002506 39.474070 -0.895163 1.646933 -0.002431 0.009535 522132.000000 0 0 1
23.983139 -29.496518 -3.250806 38.154990 -0.888128 1.656100 0.011344 0.013163 -686640.000000 0 0 1
22.647239 -29.748618 -3.580506 37.559256 -0.920111 1.666271 0.005805 0.012861 -746540.000000 0 0 1
21.778939 -28.526418 -3.547406 36.064702 -0.918733 1.669318 0.008207 0.007984 -410714.000000 0 0 1
21.367239 -28.049718 -4.808006 35.587392 -0.919809 1.706315 0.011460 0.007067 133923.000000 0 0 1
21.002339 -26.653618 -4.686306 34.256022 -0.903432 1.708029 0.014823 -0.007152 -271173.000000 0 0 1
20.518539 -26.137618 -6.077206 33.780437 -0.905257 1.751684 0.015402 -0.021021 -435487.000000 0 0 1
19.260039 -26.703718 -6.314406 33.524757 -0.945951 1.760279 0.015779 -0.016253 -617781.000000 0 0 1
18.714639 -26.262718 -7.558306 33.122440 -0.951668 1.801018 0.030104 -0.013311 -801814.000000 0 0 1
17.217439 -26.477418 -7.603706 32.485538 -0.994232 1.807052 0.026413 -0.007160 -641655.000000 0 0 1
16.525439 -25.574618 -6.735706 31.185268 -0.997121 1.788502 0.012511 -0.009976 -883384.000000 0 0 1
15.159739 -25.830718 -6.778906 30.708260 -1.040074 1.793382 0.015435 -0.009584 -872292.000000 0 0 1
14.524239 -24.996318 -5.650106 29.456631 -1.044423 1.763803 0.001255 -0.006683 -428047.000000 0 0 1
14.872839 -25.357618 -4.326606 29.714132 -1.040345 1.716924 -0.000832 -0.005868 196840.000000 0 0 1
14.259339 -24.478818 -3.389106 28.531164 -1.043331 1.689864 -0.001517 -0.000776 13771.600000 0 0 1
14.313539 -24.954318 -1.902106 28.830771 -1.050023 1.636819 -0.001145 -0.005654 -255158.000000 0 0 1
13.401739 -25.982518 -1.612106 29.279630 -1.094590 1.625883 0.009419 0.002412 265835.000000 0 0 1
14.101939 -27.234018 -1.496906 30.705002 -1.093006 1.619567 0.007788 -0.010466 148061.000000 0 0 1
13.312239 -28.484018 -2.056306 31.508465 -1.133601 1.636105 0.001826 -0.003845 -102835.000000 0 0 1
12.269139 -28.841918 -1.183206 31.365394 -1.168593 1.608529 0.028326 -0.009955 -571783.000000 0 0 1
11.827739 -30.083318 -1.628106 32.365910 -1.196195 1.621121 0.036462 -0.009240 -378869.000000 0 0 1
12.571539 -31.362718 -1.169506 33.808747 -1.189563 1.605395 0.026383 -0.007710 104842.000000 0 0 1
13.784539 -31.640518 -1.862106 34.563034 -1.159931 1.624698 0.022807 -0.006084 42129.400000 0 0 1
14.277439 -32.921018 -1.542606 35.916825 -1.161590 1.613759 0.027405 -0.002630 -570044.000000 0 0 1
15.724839 -33.121418 -2.033406 36.721024 -1.127541 1.626199 0.016491 0.003360 -107723.000000 0 0 1
16.545739 -32.193518 -1.349506 36.221613 -1.096054 1.608062 0.013400 0.012998 -167472.000000 0 0 1
17.678739 -31.775718 -2.083206 36.422161 -1.063083 1.628024 0.011791 0.017433 -324119.000000 0 0 1
18.405139 -30.723318 -1.315706 35.838561 -1.031068 1.607517 0.011602 0.011667 -307809.000000 0 0 1
17.786339 -29.425218 -1.381806 34.410851 -1.027105 1.610963 0.016512 0.002761 358924.000000 0 0 1
18.350039 -28.603318 -0.398706 33.985772 -1.000395 1.582528 0.006005 0.003450 -215024.000000 0 0 1
18.068439 -27.105718 -0.541906 32.580394 -0.982846 1.587430 0.003086 -0.002976 -196537.000000 0 0 1
18.522939 -26.495518 -1.752806 32.375671 -0.960677 1.624962 0.000723 -0.004875 804077.000000 0 0 1
17.633139 -26.839118 -2.839106 32.238585 -0.989520 1.658976 0.000176 -0.006392 203504.000000 0 0 1
31.707519 -29.561018 13.810194 45.496615 -0.750378 1.262387 0.008624 -0.003850 -262763.000000 0 0 1
32.374899 -30.110218 14.884294 46.650846 -0.749170 1.246062 0.020304 0.004888 -321080.000000 0 0 1
31.526859 -30.510518 15.947294 46.681374 -0.769017 1.222156 0.028338 0.007521 -172626.000000 0 0 1
32.212429 -31.183418 17.150394 48.001897 -0.769168 1.205436 0.016380 0.011736 -60370.400000 0 0 1
31.362829 -31.281918 18.303294 47.929072 -0.784107 1.178964 0.002649 0.014413 206437.000000 0 0 1
32.034969 -31.537718 19.509594 49.005011 -0.777577 1.161336 0.002961 0.020001 207649.000000 0 0 1
32.861149 -32.875918 19.706594 50.487928 -0.785623 1.169814 0.004978 0.016579 1039800.000000 0 0 1
34.008839 -33.011718 18.834394 51.001069 -0.770521 1.192547 0.007969 0.015779 1070300.000000 0 0 1
34.652618 -34.292918 19.050994 52.342607 -0.780181 1.198273 0.016949 0.004323 117347.000000 0 0 1
-34.782138 34.488953 18.066394 52.208042 -0.781166 1.217443 0.017193 -0.002385 491732.000000 0 0 1
-33.601253 -33.878918 18.357494 51.125560 0.789513 1.203528 0.017651 0.001575 843785.000000 0 0 1
-32.612963 -34.020918 17.329094 50.212804 0.806525 1.218437 0.029418 0.001768 361382.000000 0 0 1
-31.337473 -33.187718 17.656394 48.940883 0.814065 1.201703 0.009685 -0.005257 667308.000000 0 0 1
-30.241053 -33.182018 16.742694 47.915398 0.831736 1.213842 0.010380 -0.010412 340072.000000 0 0 1
-30.486813 -32.371418 15.641894 47.138342 0.815371 1.232554 0.014096 -0.005986 -575643.000000 0 0 1
-29.325433 -32.204918 14.638894 45.950353 0.832162 1.246565 -0.007126 -0.007471 333963.000000 0 0 1
-28.143583 -31.628118 15.174894 44.974176 0.843630 1.226628 -0.011988 0.000642 -143192.000000 0 0 1
-27.153533 -31.511118 14.179294 43.946755 0.859542 1.242271 -0.005647 -0.000303 706107.000000 0 0 1
-25.844533 -30.941418 14.839694 42.959606 0.874914 1.218095 0.012318 -0.008241 936072.000000 0 0 1
-24.661163 -31.079518 14.083494 42.100525 0.900040 1.229700 0.013857 -0.009866 -130347.000000 0 0 1
-23.541963 -30.395418 14.584294 41.119424 0.911784 1.208223 0.017449 -0.008905 -243151.000000 0 0 1
-22.406663 -30.228818 13.591794 40.007210 0.932928 1.224163 0.031753 -0.011947 -338679.000000 0 0 1
-21.972663 -31.442118 13.084194 40.529012 0.960857 1.242073 0.036673 -0.012810 -542980.000000 0 0 1
-20.751463 -31.259118 12.421794 39.522862 0.984744 1.251084 0.029493 -0.015336 -115562.000000 0 0 1
-20.090563 -32.653618 12.212694 40.237288 1.019230 1.262415 0.035755 -0.018152 -192352.000000 0 0 1
-20.742163 -33.325318 11.189894 40.817004 1.014058 1.293093 0.038455 -0.016772 -97837.400000 0 0 1
-20.536363 34.465453 11.209594 41.656508 -1.033431 1.298342 0.032547 -0.014624 172860.000000 0 0 1
-21.583963 33.762053 10.297294 41.373639 -1.001982 1.319267 0.016785 -0.008317 117091.000000 0 0 1
-21.272163 33.851353 8.951194 40.970025 -1.009756 1.350538 0.003893 -0.009074 15934.500000 0 0 1
-22.447563 33.635253 8.171494 41.255262 -0.982299 1.371406 0.005277 -0.007735 -129790.000000 0 0 1
-22.389663 33.862853 6.624094 41.132329 -0.986597 1.409048 0.003401 -0.009506 -201883.000000 0 0 1
-21.599963 33.024853 5.779194 39.882307 -0.991578 1.425378 0.004905 -0.014542 1799150.000000 0 0 1
-20.160563 32.862753 5.982494 39.015370 -1.020526 1.416852 0.001805 -0.012791 1721580.000000 0 0 1
-19.241163 34.103253 5.651194 39.562485 -1.057114 1.427464 0.008406 -0.016190 -441972.000000 0 0 1
-19.443263 -33.903618 6.482494 39.617149 1.050100 1.406429 0.014532 -0.019349 104864.000000 0 0 1
-18.796463 -34.048018 7.756794 39.657816 1.066375 1.373934 0.014956 -0.018933 -544333.000000 0 0 1
-18.746863 -32.723318 8.570294 38.674414 1.050549 1.347340 0.017440 -0.019219 -770050.000000 0 0 1
-18.051763 -31.618718 7.994994 37.276392 1.052034 1.354638 0.012696 -0.027081 -296829.000000 0 0 1
-18.087263 -30.412518 8.751694 36.450823 1.034260 1.328332 0.022255 -0.023574 489747.000000 0 0 1
-17.361663 -30.478318 10.183994 36.524908 1.053000 1.288228 0.014420 -0.015897 530662.000000 0 0 1
-16.056963 -31.029018 10.118094 36.373092 1.093261 1.288902 0.012417 -0.026754 -286412.000000 0 0 1
-15.411763 -30.849718 11.366794 36.310212 1.107488 1.252397 0.017901 -0.020153 -38011.900000 0 0 1
-14.028663 -31.515118 11.342194 36.313240 1.151991 1.253138 0.022975 -0.019187 190846.000000 0 0 1
-12.992363 -30.785118 10.679694 35.079636 1.171441 1.261444 0.007233 -0.017721 -53869.000000 0 0 1
-11.947763 -31.629018 10.282494 35.339404 1.209620 1.275562 0.003384 -0.003979 -196518.000000 0 0 1
-10.845763 -30.851918 9.511294 34.057835 1.232748 1.287764 0.008411 -0.001536 11690.900000 0 0 1
-10.085763 -30.112018 10.420894 33.422317 1.247599 1.253715 0.004369 -0.003260 -823406.000000 0 0 1
-9.190463 -29.246618 9.800394 32.185043 1.266327 1.261381 0.007748 -0.006948 -235540.000000 0 0 1
-8.477263 -28.396218 10.862494 31.562683 1.280684 1.219456 0.006440 0.007556 -166988.000000 0 0 1
-9.360663 -27.603618 11.612594 31.375692 1.243856 1.191664 0.024476 -0.001549 -133787.000000 0 0 1
-8.854363 -27.313418 12.932694 31.490905 1.257310 1.147596 0.026899 0.007549 100897.000000 0 0 1
-9.290963 -25.975818 13.490394 30.709214 1.227298 1.115983 0.016163 0.002651 92962.300000 0 0 1
-8.693863 -24.888818 12.799994 29.306592 1.234738 1.118801 0.010438 0.007298 218508.000000 0 0 1
-9.469563 -24.456618 11.697394 28.716333 1.201374 1.151254 0.013072 0.005677 119116.000000 0 0 1
-9.051763 -23.051318 11.162694 27.164377 1.196617 1.147321 0.004656 0.007381 -221820.000000 0 0 1
-8.134363 -23.153418 10.117894 26.544687 1.232942 1.179741 -0.003763 0.003344 -423407.000000 0 0 1
-7.538163 -21.874518 9.938294 25.181106 1.238932 1.165085 -0.007327 0.009132 330968.000000 0 0 1
-6.332863 -21.892418 8.945394 24.482712 1.289211 1.196760 -0.006554 -0.002826 960471.000000 0 1 0
-5.210163 -22.634918 9.429294 25.067846 1.344555 1.185158 -0.000069 0.002072 283676.000000 0 0 1
-4.083463 -22.661318 8.572294 24.570190 1.392514 1.214410 -0.006448 -0.002602 55611.900000 0 1 0
-2.899263 -23.463018 9.104094 25.333840 1.447852 1.203209 -0.001531 -0.001554 87968.100000 0 0 1
-2.206663 -22.748718 10.157894 25.011124 1.474097 1.152576 0.002364 0.000992 -212199.000000 0 0 1
-1.289963 -23.520018 10.871694 25.943187 1.516006 1.138389 0.006837 -0.005049 26266.100000 0 0 1
-0.489663 -22.730818 11.961394 25.690558 1.549258 1.086490 0.004861 -0.006616 -23414.700000 0 0 1
-1.148963 -22.440018 13.195894 26.057746 1.519639 1.039780 -0.004644 -0.001110 -104751.000000 0 0 1
-0.330763 -22.009018 14.270994 26.232947 1.555769 0.995587 0.004563 -0.002605 45471.800000 0 0 1
0.405337 -20.644518 14.143894 25.028187 -1.551165 0.970219 0.012083 -0.009998 -831259.000000 0 0 1
1.518137 -20.652618 13.350594 24.638866 -1.497420 0.998158 0.028393 -0.015961 -1248670.000000 0 1 0
1.978737 -19.393518 13.014794 23.439471 -1.469117 0.982131 0.026404 -0.020348 535740.000000 0 1 0
3.507337 -19.226118 12.725894 23.321522 -1.390355 0.993606 0.033553 -0.023152 683684.000000 0 1 0
3.752437 -19.971918 11.578894 23.388652 -1.385076 1.052887 0.052760 -0.017689 614119.000000 0 1 0
5.179737 -20.061618 11.371694 23.635008 -1.318123 1.068844 0.057700 -0.015044 1182030.000000 0 1 0
5.557337 -20.914318 10.170294 23.910825 -1.311079 1.131456 0.052210 -0.014070 -420079.000000 0 1 0
5.375537 -20.222218 8.950694 22.758502 -1.310981 1.166589 0.049338 -0.017190 -281413.000000 0 1 0
5.557137 -21.076618 7.840494 23.164173 -1.313000 1.225501 0.040713 -0.018220 321614.000000 0 1 0
7.005237 -21.637218 7.504294 23.949049 -1.257688 1.252084 0.036867 -0.007435 359454.000000 0 1 0
7.893837 -20.670818 7.036994 23.218843 -1.206005 1.262881 0.026903 -0.011406 -251542.000000 0 1 0
8.563737 -19.841618 7.988194 23.039935 -1.163345 1.216734 0.043168 -0.006507 495646.000000 0 1 0
9.537137 -20.472818 9.033694 24.324902 -1.134845 1.190305 0.048480 -0.002563 359431.000000 0 1 0
8.829937 -20.584618 10.271494 24.641385 -1.165578 1.140831 0.059861 -0.009564 137048.000000 0 1 0
9.647537 -20.200318 11.365394 25.105776 -1.125234 1.101005 0.065796 -0.006664 -242078.000000 0 0 1
8.913937 -20.333118 12.673794 25.564018 -1.157635 1.052079 0.071655 -0.009012 -226344.000000 0 0 1
8.784237 -21.701018 13.022294 26.789496 -1.186172 1.063178 0.069808 -0.016755 -288039.000000 0 0 1
8.006937 -21.821718 14.173994 27.224998 -1.219124 1.023214 0.072776 -0.011730 -10036.500000 0 0 1
8.156737 -23.207718 14.750194 28.682725 -1.232816 1.030659 0.052353 -0.011764 200569.000000 0 0 1
7.536437 -24.269118 14.040694 29.033240 -1.269702 1.066025 0.056433 -0.005441 -278327.000000 0 0 1
7.549337 -25.491318 14.785194 30.420416 -1.282872 1.063257 0.055119 -0.008912 281775.000000 0 0 1
7.397337 -26.682118 13.813094 30.942811 -1.300349 1.108050 0.048678 -0.012132 -212504.000000 0 0 1
8.569837 -27.026918 13.136794 31.248548 -1.263740 1.136914 0.046696 -0.008666 -481087.000000 0 0 1
8.360737 -28.137918 12.277894 31.818093 -1.281971 1.174637 0.036091 -0.013533 583425.000000 0 0 1
9.639137 -28.638918 11.503094 32.332982 -1.246131 1.207059 0.046567 -0.011366 1211330.000000 0 0 1
10.622337 -29.398618 12.214094 33.560346 -1.224072 1.198297 0.047401 -0.014858 811174.000000 0 0 1
11.810137 -29.643318 11.455094 33.903168 -1.191663 1.226136 0.049006 -0.014563 492553.000000 0 0 1
12.911837 -30.278418 12.343594 35.154835 -1.167709 1.212028 0.039610 -0.011377 -825531.000000 0 0 1
13.444037 -29.389018 13.245394 34.927023 -1.141763 1.181832 0.038516 -0.010256 -447623.000000 0 0 1
14.189237 -29.993118 14.247194 36.109612 -1.128913 1.165214 0.037285 -0.009277 258235.000000 0 0 1
15.693637 -30.210418 13.914294 36.777264 -1.091688 1.182794 0.028874 -0.005448 -183331.000000 0 0 1
16.405537 -28.991818 13.741294 36.034571 -1.055852 1.179555 0.022880 -0.014743 -306333.000000 0 0 1
17.750337 -29.278518 13.470194 36.793371 -1.025788 1.195978 0.011071 -0.002887 -532512.000000 0 0 1
18.619037 -27.995018 13.382494 36.186747 -0.983890 1.191984 0.007493 -0.008662 656709.000000 0 0 1
19.950237 -28.287118 12.929394 36.950537 -0.956538 1.213320 -0.006158 -0.005780 484007.000000 0 0 1
20.623637 -27.127518 12.557294 36.316969 -0.920769 1.217738 0.001382 -0.007357 246813.000000 0 0 1
22.062937 -27.391018 12.033094 37.173060 -0.892722 1.241154 0.006709 -0.006206 741335.000000 0 0 1
23.028637 -27.879318 12.996094 38.424900 -0.880395 1.225771 0.020692 -0.005534 -98937.500000 0 0 1
24.156637 -28.235118 12.286894 39.137357 -0.863087 1.251453 0.019379 -0.007896 -1829530.000000 0 0 1
25.266237 -28.792418 13.121294 40.491411 -0.850535 1.240788 0.023019 -0.006074 -542755.000000 0 0 1
26.285137 -27.947318 13.643294 40.719780 -0.816038 1.229135 0.017656 -0.006823 616318.000000 0 0 1
27.401137 -27.961618 12.738594 41.169724 -0.795522 1.256217 0.013080 -0.007770 439049.000000 0 0 1
28.682537 -27.199618 13.218094 41.680033 -0.758868 1.248092 0.026044 -0.005939 241880.000000 0 0 1
28.469937 -25.844318 13.432594 40.729604 -0.737095 1.234705 0.025144 -0.007511 -105019.000000 0 0 1
27.675937 -25.474118 14.547794 40.330218 -0.743995 1.201760 0.017350 -0.003697 -649634.000000 0 0 1
28.404637 -25.426918 15.895294 41.303897 -0.730139 1.175764 -0.000782 0.004224 -544222.000000 0 0 1
28.835937 -26.655418 16.407094 42.558375 -0.746124 1.175025 0.018678 0.004351 16139.700000 0 0 1
29.314837 -26.481018 17.722694 43.297781 -0.734653 1.149087 0.013343 0.020543 -157761.000000 0 0 1
29.570237 -27.756418 18.442294 44.552619 -0.753769 1.144014 0.013402 0.031698 -740831.000000 0 0 1
28.468137 -28.511318 18.787294 44.455511 -0.786156 1.134474 -0.002687 0.027213 -923957.000000 0 0 1
28.802837 -29.487018 19.734394 45.700481 -0.797135 1.124286 0.014681 0.017280 -754421.000000 0 0 1
27.681737 -30.248218 20.384094 45.790223 -0.829672 1.109441 0.008609 0.021620 -1656370.000000 0 0 1
26.778137 -29.413618 21.117494 45.035298 -0.832265 1.082740 0.005877 0.021157 193998.000000 0 0 1
25.788937 -30.121818 21.833394 45.266878 -0.862740 1.067488 0.003614 0.019170 469953.000000 0 0 1
24.679737 -30.806218 20.982494 44.703216 -0.895368 1.082215 0.021382 0.009922 -1165010.000000 0 0 1
25.180637 -31.901618 20.204594 45.387259 -0.902601 1.109443 0.020229 0.015675 -339048.000000 0 0 1
24.508937 -32.238318 19.005894 44.735010 -0.920772 1.131995 0.032261 0.013852 -582315.000000 0 0 1
24.900737 -31.433218 17.756994 43.856638 -0.900842 1.153941 0.014330 0.017939 1280720.000000 0 0 1
26.198937 -31.768318 17.176294 44.616537 -0.881182 1.175615 0.014197 0.005104 1180260.000000 0 0 1
26.569137 -30.745718 16.291794 43.779456 -0.858140 1.189490 0.014417 -0.008910 -163887.000000 0 0 1
27.694237 -31.113018 15.314594 44.379358 -0.843468 1.218468 0.025088 -0.007670 -393483.000000 0 0 1
27.370037 -32.073518 14.329994 44.532889 -0.864359 1.243183 0.035226 -0.002848 215389.000000 0 0 1
27.487437 -33.410418 14.819794 45.732281 -0.882354 1.240783 0.013754 -0.002712 -50018.400000 0 0 1
26.720237 -34.386218 13.855594 45.698583 -0.910199 1.262752 0.038115 -0.008845 -82597.500000 0 0 1
27.359837 -34.503818 12.610894 45.805117 -0.900368 1.291878 0.056523 -0.014605 322406.000000 0 0 1
26.565137 33.827953 11.762294 44.591350 0.905082 1.303858 0.056653 -0.014906 -116137.000000 0 0 1
27.350537 33.446153 10.490394 44.460605 0.885327 1.332602 0.056920 -0.011937 -138756.000000 0 0 1
28.488437 32.693053 10.841094 44.698502 0.854014 1.325815 0.036579 -0.017116 4522.360000 0 0 1
29.003937 32.066853 9.634794 44.298315 0.835510 1.351546 0.035616 -0.021025 -1207050.000000 0 0 1
30.433737 31.665553 9.773194 44.993721 0.805232 1.351839 0.009477 -0.015098 -1351710.000000 0 0 1
30.536837 30.692553 10.777694 44.617148 0.787941 1.326824 -0.006404 -0.000360 445339.000000 0 0 1
31.896837 30.401353 11.093794 45.439220 0.761398 1.324158 0.007593 -0.003634 416708.000000 0 0 1
32.126337 29.473453 12.273694 45.292710 0.742358 1.296379 -0.002885 0.016923 -134861.000000 0 0 1
31.807437 28.146053 11.920194 44.113540 0.724404 1.297179 -0.006499 0.006847 248973.000000 0 0 1
31.859337 27.296153 13.058394 43.938810 0.708412 1.269043 0.001969 -0.002735 -85461.200000 0 0 1
31.505637 25.837253 12.576294 42.641904 0.686868 1.271416 -0.004694 -0.003146 184500.000000 0 0 1
32.593637 25.434153 11.763294 42.983909 0.662638 1.293592 -0.003495 0.000485 -138278.000000 0 0 1
32.727037 24.004153 11.605694 42.213155 0.632835 1.292279 0.005001 -0.003744 -503995.000000 0 0 1
31.625237 23.175653 10.886694 40.691358 0.632416 1.299954 -0.004320 0.003297 226432.000000 0 0 1
30.518637 22.919553 11.740494 39.931596 0.644142 1.272371 0.008046 -0.009062 -416682.000000 0 0 1
29.315437 23.167053 11.080294 38.972813 0.668779 1.282511 0.004489 0.003768 -434181.000000 0 0 1
28.070737 22.702453 11.880094 38.006635 0.680059 1.252889 0.001749 0.006995 119051.000000 0 0 1
27.857537 23.448153 13.038094 38.676222 0.699665 1.226952 0.006013 0.004288 746140.000000 0 0 1
26.734637 23.003153 13.844094 37.888584 0.710515 1.196745 0.019344 -0.011835 478076.000000 0 0 1
22.752337 9.988453 26.292086 36.176122 0.413675 0.757174 0.008419 0.002465 -297421.000000 0 0 1
22.884837 8.705453 26.847686 36.335918 0.363499 0.739398 0.020033 -0.001665 -173741.000000 0 0 1
21.642537 8.081653 26.905036 35.462565 0.357381 0.709499 0.028884 -0.008626 -714079.000000 0 0 1
21.673337 6.679253 27.659556 35.768660 0.298943 0.686782 0.046108 -0.008216 -230830.000000 0 0 1
21.937637 6.858153 29.009876 37.011716 0.302995 0.670031 0.043641 -0.009868 35085.100000 0 0 1
23.196237 6.349453 29.364226 37.955747 0.267183 0.686225 0.040609 -0.009629 -368429.000000 0 0 1
23.380337 6.201453 30.883326 39.228536 0.259272 0.664432 0.052995 -0.014701 -212490.000000 0 0 1
23.537737 7.482253 31.498036 40.026684 0.307782 0.664985 0.035250 -0.001803 140960.000000 0 0 1
23.200437 7.317653 32.856056 40.881888 0.305534 0.637338 0.043280 -0.004177 -184403.000000 0 0 1
22.864637 8.640953 33.509471 41.477010 0.361326 0.630208 0.034046 0.002810 294951.000000 0 0 1
24.024637 9.464453 33.613269 42.386447 0.375278 0.655047 0.028545 0.000702 268973.000000 0 0 1
24.151737 9.989553 -34.134264 42.991227 0.392189 2.488128 0.033366 0.006512 18264.000000 0 0 1
25.170837 11.128453 -34.000836 43.743232 0.416279 2.461131 0.011746 0.006220 -17122.400000 0 0 1
24.613637 12.381653 -34.376229 44.055211 0.466077 2.465940 0.005983 -0.000083 90630.600000 0 0 1
25.330637 13.445253 -33.825886 44.346438 0.487975 2.438374 0.006139 -0.003051 -1012880.000000 0 0 1
24.851737 14.876653 -34.220145 44.832377 0.539401 2.439188 0.004090 0.001100 -583052.000000 0 0 1
25.500637 15.358253 33.640669 44.920519 0.542087 0.724406 0.001485 0.000020 284536.000000 0 0 1
25.153837 16.690953 33.441877 45.051777 0.585845 0.734302 -0.003212 -0.005376 -322694.000000 0 0 1
25.870337 17.774153 34.311985 46.502765 0.601980 0.740919 -0.002556 -0.012123 -161546.000000 0 0 1
25.469537 17.716553 -33.312416 45.522419 0.607765 2.391727 0.000134 -0.021453 -424220.000000 0 0 1
26.484537 17.312953 -32.489236 45.351070 0.578972 2.369416 -0.003513 -0.020501 -1505830.000000 0 0 1
25.935337 17.137953 -31.089796 43.965061 0.583927 2.356253 -0.005923 -0.021445 120630.000000 0 0 1
24.906637 16.169153 -31.254386 43.111701 0.575806 2.381777 -0.002775 -0.013986 77310.300000 0 0 1
24.525837 15.510653 -30.072166 41.790337 0.563918 2.374017 0.003696 -0.014726 113379.000000 0 0 1
23.761137 14.199453 -30.381906 41.100807 0.538647 2.402685 0.011656 -0.009267 -606761.000000 0 0 1
22.642137 14.306253 -31.193796 41.114331 0.563504 2.432125 0.003260 -0.005856 -413892.000000 0 0 1
22.169037 13.124353 -31.757236 40.892993 0.534526 2.460037 0.009478 0.004510 -478071.000000 0 0 1
21.218137 12.252353 -30.973576 39.492935 0.523671 2.472333 0.017257 0.000988 -564328.000000 0 0 1
20.003637 12.870853 -30.566606 38.731406 0.571740 2.480292 0.018134 0.003075 252937.000000 0 0 1
19.218137 11.828153 -30.025626 37.560355 0.551716 2.497087 0.017208 -0.002139 -12457.200000 0 0 1
17.917537 12.317653 -29.317456 36.500356 0.602263 2.503461 0.019123 -0.000691 342859.000000 0 0 1
16.905337 12.583753 -30.283576 36.894935 0.639885 2.533617 0.006062 0.005243 -379903.000000 0 0 1
15.878837 13.285553 -29.663886 36.174432 0.696712 2.532248 0.006413 -0.001835 -948038.000000 0 0 1
14.744837 13.666853 -30.610406 36.622262 0.747475 2.560460 0.000905 -0.002894 -257370.000000 0 0 1
14.059937 12.646053 -31.266236 36.540143 0.732505 2.597637 -0.005317 0.003714 33482.200000 0 0 1
12.790937 12.372653 -30.712176 35.495470 0.768777 2.616429 0.001790 0.001771 244995.000000 0 0 1
11.631637 11.824753 -31.593176 35.682609 0.793631 2.658138 0.011729 0.001616 337533.000000 0 0 1
11.285037 12.727153 -32.609186 36.778955 0.845384 2.660795 0.020175 0.002450 -307420.000000 0 0 1
10.409237 12.094253 -33.497856 37.104306 0.860137 2.697038 0.037133 0.004762 -387409.000000 0 0 1
10.141037 12.910953 34.212078 37.947327 0.904984 0.447417 0.053076 -0.001534 424314.000000 0 0 1
11.132037 12.953553 33.173980 37.312595 0.860881 0.475459 0.031636 0.006822 632655.000000 0 0 1
10.444237 13.369253 31.984996 36.205787 0.907616 0.487680 0.051612 -0.005176 395200.000000 0 0 1
11.287337 13.184353 30.666896 35.237617 0.862762 0.515008 0.037442 -0.000343 69835.100000 0 0 1
11.607737 11.861053 30.277126 34.527214 0.796192 0.501409 0.024110 0.004296 17565.200000 0 0 1
11.497637 11.727953 28.908076 33.247818 0.795314 0.516662 0.037179 0.010838 -81854.900000 0 0 1
12.091337 10.451553 28.279716 32.483500 0.712785 0.514402 0.029030 0.011710 -379041.000000 0 0 1
11.457137 9.283953 28.830756 32.383179 0.681002 0.472792 0.024256 0.009200 584809.000000 0 0 1
12.218837 8.131353 28.616386 32.160790 0.587178 0.473909 -0.013072 0.001624 -842910.000000 0 0 1
11.343837 6.939753 28.803436 31.725081 0.549025 0.432532 -0.002782 -0.001465 -397021.000000 0 0 1
10.391937 6.739553 27.774786 30.411391 0.575346 0.419477 0.010768 -0.003620 314150.000000 0 0 1
9.412137 5.735753 28.082896 30.168464 0.547302 0.374011 0.000367 -0.008179 302827.000000 0 0 1
9.699437 4.308753 27.572356 29.544530 0.418043 0.367447 -0.007205 -0.007896 -309893.000000 0 0 1
10.725737 3.575653 28.171176 30.355261 0.321785 0.381656 -0.015591 -0.003013 -2889.490000 0 0 1
10.684437 2.307353 27.616826 29.701349 0.212688 0.376880 -0.009953 0.002582 -129382.000000 0 0 1
11.301037 1.269753 28.549426 30.731018 0.111888 0.379068 -0.026484 0.000170 -83519.600000 0 0 1
10.526837 1.179653 29.738656 31.568870 0.111596 0.342182 -0.022946 0.004197 188729.000000 0 0 1
10.854937 0.051653 30.516406 32.389556 0.004758 0.341755 -0.020991 -0.001298 442282.000000 0 0 1
9.759737 -0.126547 31.632126 33.103774 -0.012965 0.299296 -0.000825 -0.003620 440945.000000 0 0 1
9.779937 0.908853 32.586706 34.034785 0.092664 0.292753 -0.011630 -0.003142 -164938.000000 0 0 1
8.519537 1.121853 33.188908 34.283300 0.130927 0.253351 0.005370 -0.003842 -100245.000000 0 0 1
8.482037 2.371053 34.160423 35.277491 0.272580 0.252324 0.019282 -0.006461 -190560.000000 0 0 1
8.433837 3.633853 33.529630 34.764502 0.406829 0.267333 0.012922 -0.008531 838619.000000 0 0 1
9.553537 3.927953 32.646726 34.241899 0.390083 0.306436 -0.008429 0.000180 487057.000000 0 0 1
9.537037 5.323853 32.005146 33.817567 0.509139 0.328876 -0.004161 0.003197 31373.100000 0 0 1
9.569737 6.359453 32.949576 34.895517 0.586527 0.335532 -0.000441 0.005316 144352.000000 0 0 1
9.841337 7.576653 32.304196 34.609517 0.656104 0.367049 -0.001833 0.004011 -175992.000000 0 0 1
9.992437 8.912953 33.110781 35.715730 0.728361 0.384291 0.029356 -0.003286 479265.000000 0 0 1
8.789437 9.560453 33.551399 35.977116 0.827391 0.369311 0.033827 -0.006826 355904.000000 0 0 1
8.266537 8.980353 -34.293818 36.401214 0.826763 2.799654 0.033481 -0.006413 320500.000000 0 0 1
6.814737 9.369453 -33.875076 35.801510 0.941959 2.812053 0.036314 -0.010218 456904.000000 0 0 1
6.399237 8.601653 -32.754306 34.464231 0.931176 2.825269 0.043975 -0.015869 -643654.000000 0 0 1
5.094237 8.999653 -32.465396 34.072672 1.055716 2.833218 0.046286 -0.018695 -511796.000000 0 0 1
4.443037 8.295353 -31.287946 32.672451 1.079072 2.849435 0.044841 -0.016093 -340183.000000 0 0 1
4.941337 8.807653 -30.058236 31.709449 1.059526 2.817458 0.050977 -0.015954 160591.000000 0 0 1
4.539737 8.110253 -28.890016 30.348286 1.060496 2.830334 0.046689 -0.015167 -169809.000000 0 0 1
3.069737 8.203653 -28.438936 29.757290 1.212735 2.842813 0.042414 -0.018091 -554616.000000 0 0 1
2.213637 7.452853 -29.235126 30.251245 1.282077 2.881673 0.029775 -0.017241 -158980.000000 0 0 1
0.871337 7.647753 -28.784016 29.795418 1.457352 2.880293 0.031239 -0.004343 -335629.000000 0 0 1
-0.051663 7.005653 -29.755006 30.568648 -1.563422 2.910353 0.026566 -0.008159 -969163.000000 0 0 1
-0.031763 7.702953 -30.996726 31.939529 -1.566673 2.898016 0.029243 -0.007664 244184.000000 0 0 1
-0.641563 6.969153 -32.044526 32.799884 -1.478998 2.926566 0.030788 -0.007037 -505595.000000 0 0 1
-0.440063 7.717853 -33.373406 34.257016 -1.513839 2.913974 0.034159 -0.020490 208180.000000 0 0 1
0.944037 7.886753 -33.643266 34.568214 1.451664 2.909742 0.025614 -0.014522 519094.000000 0 0 1
1.720737 6.840053 -34.203731 34.923380 1.324343 2.938232 0.038931 -0.016050 -178223.000000 0 0 1
1.691337 6.590053 33.301780 33.989675 1.319569 0.201529 0.040609 -0.021901 -308097.000000 0 0 1
0.555037 5.815653 32.931336 33.445520 1.475646 0.175575 0.050252 -0.021203 142010.000000 0 0 1
0.277537 5.869153 31.566476 32.108666 1.523544 0.184032 0.066848 -0.018510 -21636.600000 0 0 1
0.981937 4.775153 30.720576 31.104985 1.367989 0.157378 0.067526 -0.017063 57197.700000 0 0 1
0.609937 4.805253 29.355626 29.752567 1.444540 0.163531 0.058839 -0.016650 104542.000000 0 0 1
1.171537 3.730453 28.612526 28.878460 1.266503 0.135815 0.050404 -0.007177 38194.800000 0 0 1
1.266137 3.885053 27.094086 27.400479 1.255751 0.149686 0.042780 -0.005237 246786.000000 0 0 1
2.145137 4.939453 26.703876 27.241454 1.161086 0.198993 0.048603 -0.002054 269110.000000 0 0 1
1.997537 5.308653 25.373766 25.999999 1.210904 0.219924 0.033662 -0.000420 -424799.000000 0 0 1
2.661137 6.708153 25.198856 26.211893 1.193136 0.278925 0.023936 0.013940 1364910.000000 0 0 1
4.107537 6.672253 25.188986 26.379459 1.018975 0.301570 0.017871 0.022797 1210120.000000 0 0 1
4.707237 6.382253 23.920796 25.201106 0.935310 0.320124 0.012502 0.004344 -441054.000000 0 0 1
6.234837 6.486053 23.768796 25.414519 0.805144 0.361846 0.018418 0.001390 144163.000000 0 0 1
7.110737 5.548453 24.414826 26.027517 0.662608 0.353869 0.021148 -0.002166 261187.000000 0 0 1
6.899937 4.122153 24.191936 25.492176 0.538520 0.320765 0.030443 -0.007538 -1229840.000000 0 0 1
6.888837 3.518153 22.803396 24.079625 0.472174 0.327033 0.026038 -0.009556 63209.700000 0 1 0
5.910537 3.855153 21.818696 22.931467 0.577956 0.312805 0.015061 -0.012720 50433.900000 0 1 0
4.630137 3.333053 22.139496 22.862736 0.623931 0.252199 0.003931 -0.013063 -698986.000000 0 1 0
3.520437 3.719953 21.210796 21.820390 0.812947 0.236930 -0.002512 -0.006725 -547597.000000 0 1 0
3.083637 5.091853 21.382496 22.195651 1.026268 0.271520 -0.006266 -0.007134 -219939.000000 0 1 0
1.945037 5.426853 20.657796 21.447108 1.226649 0.272142 -0.004605 -0.002479 -379575.000000 0 1 0
1.437137 6.902153 20.762496 21.926840 1.365514 0.327347 0.000526 0.006702 -250632.000000 0 1 0
2.304937 7.825453 20.188496 21.774431 1.284353 0.384022 -0.004919 0.011462 69421.300000 0 1 0
1.711337 9.135053 20.288896 22.316299 1.385605 0.429554 0.001526 0.010249 344614.000000 0 1 0
2.754637 10.176953 19.865896 22.490270 1.306456 0.487918 -0.000641 0.004766 -473473.000000 0 1 0
2.860137 10.228953 18.485596 21.319689 1.298148 0.521512 0.000415 0.003591 -68551.000000 0 1 0
3.799537 11.191353 18.068096 21.590252 1.243500 0.579268 -0.003601 -0.000478 931183.000000 0 1 0
5.347137 11.036853 18.245696 21.984300 1.119641 0.591792 -0.000440 0.003934 441585.000000 0 1 0
5.946237 10.224153 17.216496 20.887766 1.044026 0.601941 0.005160 0.004531 -863920.000000 0 1 0
7.207737 9.778453 17.500896 21.303779 0.935600 0.606773 0.008851 0.009270 -1075610.000000 0 1 0
7.170137 8.311853 18.020396 21.100532 0.859010 0.547121 0.009713 0.007381 -221883.000000 0 1 0
6.674737 8.181253 19.368496 22.059548 0.886461 0.499108 0.007039 0.007172 103355.000000 0 1 0
6.508537 6.888653 19.879796 22.023190 0.813763 0.444849 0.005530 -0.001663 101669.000000 0 1 0
7.777137 6.020253 20.133596 22.407343 0.658745 0.454395 0.024969 -0.005982 24753.500000 0 1 0
8.430637 5.607153 18.962496 21.496327 0.586912 0.490437 0.019655 -0.013929 -194378.000000 0 1 0
9.748237 5.196953 19.273396 22.214865 0.489789 0.520461 0.019682 -0.009501 55473.300000 0 1 0
9.945437 3.675853 19.273096 21.997178 0.354030 0.502955 0.020722 -0.013018 -154109.000000 0 1 0
9.328237 3.019553 20.407296 22.640482 0.313056 0.447889 0.034493 -0.015216 180506.000000 0 1 0
9.562637 1.651853 20.319796 22.518143 0.171052 0.445549 0.036431 -0.024854 -106191.000000 0 1 0
8.740537 0.787153 21.287696 23.025694 0.089816 0.391024 0.036838 -0.020096 -297306.000000 0 1 0
9.068537 1.008053 22.656896 24.425181 0.110705 0.382849 0.038452 -0.014593 -107541.000000 0 1 0
8.463537 0.116553 23.507796 24.985226 0.013770 0.345613 0.028086 -0.017243 -1183030.000000 0 1 0
8.860737 0.322053 24.966026 26.493751 0.036330 0.341252 0.012141 -0.004904 350062.000000 0 0 1
10.190037 -0.130647 25.245636 27.224916 -0.012820 0.383665 0.016100 -0.002046 602299.000000 0 0 1
10.421237 -1.502047 25.131276 27.247741 -0.143147 0.396741 0.014888 -0.005719 -714760.000000 0 0 1
11.810937 -1.915547 25.638386 28.293010 -0.160784 0.436649 0.015706 0.002132 -200942.000000 0 0 1
11.920037 -3.342447 25.521996 28.366028 -0.273385 0.451627 0.018305 0.000715 192377.000000 0 0 1
13.196137 -3.899547 25.789556 29.230903 -0.287329 0.490133 0.017057 0.000553 21216.000000 0 0 1
13.121237 -5.454347 25.835376 29.485308 -0.393957 0.502852 0.018231 -0.000503 -178547.000000 0 0 1
13.140537 -6.059147 24.572596 28.516652 -0.432049 0.532200 0.035666 0.003568 234407.000000 0 0 1
12.624237 -7.349747 24.637496 28.642562 -0.527223 0.535192 0.035851 -0.000981 -36481.700000 0 0 1
12.774237 -7.955547 23.252896 27.697816 -0.557002 0.574395 0.052963 -0.004974 -307333.000000 0 0 1
12.111037 -9.165247 23.322196 27.831705 -0.647819 0.577240 0.042343 -0.003665 -301286.000000 0 0 1
12.317437 -9.981147 22.137296 27.228706 -0.681006 0.621488 0.040260 -0.007718 -501.266000 0 0 1
11.643937 -11.350947 22.324596 27.619067 -0.772657 0.629531 0.037044 -0.005895 -121415.000000 0 0 1
10.255037 -11.332947 22.119896 26.886637 -0.835288 0.604635 0.024225 -0.002805 -696843.000000 0 0 1
9.789637 -12.647247 22.184096 27.348198 -0.912078 0.624643 0.025240 -0.001488 806597.000000 0 0 1
8.266737 -12.808547 22.567196 27.233732 -0.997656 0.594107 0.012199 0.002013 1099470.000000 0 0 1
7.465637 -12.355647 21.471596 25.873291 -1.027273 0.591913 0.012479 -0.011266 734883.000000 0 0 1
6.061137 -12.433647 21.803796 25.821279 -1.117216 0.565330 0.008455 -0.002329 1210650.000000 0 0 1
5.244637 -11.288847 21.154996 24.545430 -1.135879 0.531849 0.001121 -0.000421 32053.900000 0 1 0
5.314237 -10.103347 21.936196 24.728838 -1.086575 0.479839 0.002050 0.005789 -249311.000000 0 1 0
4.750637 -8.990747 21.295996 23.599185 -1.084694 0.445480 -0.000223 0.005588 -172335.000000 0 1 0
4.948637 -7.630247 22.073296 23.873418 -0.995437 0.390819 -0.005026 0.004823 -178338.000000 0 1 0
4.571137 -6.467347 21.399896 22.818357 -0.955519 0.354452 -0.007474 0.007270 60669.500000 0 1 0
5.139637 -5.336947 22.078596 23.288694 -0.804229 0.323781 0.007584 0.003606 140832.000000 0 1 0
-7.740063 -15.453347 -20.779406 27.027731 1.106456 2.447787 0.037060 0.004152 120635.000000 0 0 1
-7.444263 -14.762647 -19.600506 25.642399 1.103744 2.440874 0.043856 0.001762 -14739.900000 0 0 1
-6.722763 -13.558847 -19.779406 24.905075 1.110497 2.488473 0.039570 -0.011014 -72040.600000 0 1 0
-5.959463 -13.029447 -18.552706 23.441088 1.141819 2.483992 0.036390 -0.010190 409083.000000 0 1 0
-4.913963 -13.975347 -18.267806 23.519568 1.232682 2.460217 0.022302 0.003116 219572.000000 0 1 0
-4.174863 -13.533147 -17.125106 22.222619 1.271567 2.450604 0.016365 0.000008 -24017.400000 0 1 0
-3.255163 -14.593847 -16.574506 22.322426 1.351338 2.407598 0.014149 0.010306 -19957.900000 0 1 0
-2.101063 -14.898447 -17.355306 22.969215 1.430695 2.427350 -0.001052 0.012135 -216904.000000 0 1 0
-1.115063 -15.366947 -16.454706 22.542044 1.498361 2.389054 0.007810 0.003426 -499559.000000 0 1 0
0.182937 -15.592247 -17.249806 23.253117 -1.559064 2.406588 0.005333 0.006186 -313776.000000 0 1 0
0.166637 -16.509147 -18.366306 24.696172 -1.560703 2.409370 0.009640 0.003058 -422542.000000 0 1 0
-0.023263 -17.886647 -17.978806 25.360799 1.569496 2.358764 0.014663 0.007604 -195101.000000 0 0 1
-0.431063 -18.692147 -19.176706 26.782984 1.547739 2.368857 0.005701 0.006639 -202507.000000 0 0 1
-1.692963 -18.277847 -19.630106 26.875395 1.478436 2.389721 0.023469 0.003277 -263120.000000 0 0 1
-1.958263 -18.446547 -21.013906 28.030236 1.465034 2.418385 0.030166 0.003205 222631.000000 0 0 1
-2.869363 -17.298247 -21.619606 27.836486 1.406417 2.460149 0.030714 0.003562 312641.000000 0 0 1
-2.312363 -16.047147 -21.463906 26.899019 1.427683 2.494672 0.026301 0.015399 -488174.000000 0 0 1
-3.182763 -15.239447 -20.743106 25.935442 1.364906 2.497754 0.020390 0.007350 397905.000000 0 0 1
-2.485963 -13.797147 -20.657206 24.965204 1.392530 2.545330 0.017369 -0.011309 530056.000000 0 1 0
-2.651763 -12.974747 -21.834406 25.536585 1.369194 2.596394 0.014137 -0.022927 -133519.000000 0 0 1
-1.595163 -12.053547 -21.864706 25.017952 1.439221 2.634089 -0.001854 -0.001285 -134673.000000 0 0 1
-1.459763 -11.163447 -23.087706 25.686487 1.440771 2.687882 0.003088 0.002774 219078.000000 0 0 1
-2.519863 -10.194547 -23.051106 25.330456 1.328476 2.714118 0.006643 -0.006310 573095.000000 0 0 1
-2.804363 -9.704547 -24.339906 26.352869 1.289485 2.748203 0.017353 -0.015736 -608363.000000 0 0 1
-3.842863 -8.612547 -24.411706 26.170116 1.151112 2.772925 0.027774 -0.012670 -1108110.000000 0 0 1
-5.144663 -9.119747 -24.290106 26.450834 1.057174 2.734590 0.035850 -0.016603 -248518.000000 0 0 1
-6.006063 -8.003847 -24.155206 26.145905 0.927041 2.748848 0.042484 -0.021649 -1939610.000000 0 0 1
-7.424063 -8.410647 -23.814606 26.324725 0.847623 2.701349 0.023218 -0.028040 -1301480.000000 0 0 1
-8.191763 -8.932347 -24.791906 27.595841 0.828619 2.686893 0.018559 -0.021364 -383882.000000 0 0 1
-8.700963 -7.820147 -25.579536 28.127818 0.732134 2.712644 0.008826 -0.022378 -723966.000000 0 0 1
-9.542263 -8.207947 -26.823466 29.629774 0.710367 2.702853 -0.000546 -0.024131 7825.550000 0 0 1
-10.018463 -7.145147 -27.562316 30.184499 0.619529 2.721689 0.004924 -0.026014 -32255.000000 0 0 1
-10.563463 -7.666547 -28.783846 31.604944 0.627807 2.715866 0.011567 -0.023159 14751.400000 0 0 1
-11.408563 -6.741047 -29.665926 32.490986 0.533684 2.721500 0.014327 -0.024644 -5195.490000 0 0 1
-10.662763 -5.702747 -30.307936 32.631072 0.491120 2.761974 -0.014198 -0.010394 -178872.000000 0 0 1
-11.385663 -4.989447 -31.295086 33.673585 0.413016 2.763488 -0.006386 -0.009650 -291598.000000 0 0 1
-10.604063 -3.907547 -32.118186 34.048391 0.353056 2.803262 -0.014888 0.003383 516602.000000 0 0 1
-9.565563 -4.400847 -32.989256 34.628868 0.431198 2.832638 -0.012563 0.004181 561817.000000 0 0 1
-9.005463 -3.355047 -33.760376 35.101534 0.356627 2.864271 -0.012721 0.008548 19424.000000 0 0 1
-7.892163 -3.776047 34.260151 35.359620 0.446264 0.250026 -0.013902 0.002726 475096.000000 0 0 1
-6.646763 -3.986447 -34.109557 34.979038 0.540241 2.918161 -0.008385 -0.004073 -138275.000000 0 0 1
-5.658663 -4.176147 33.955849 34.676510 0.635783 0.204229 -0.004287 -0.004895 -648708.000000 0 0 1
-4.215463 -3.869247 34.349203 34.822535 0.742601 0.165067 0.010441 -0.007161 -354122.000000 0 0 1
-4.120463 -2.479747 34.402659 34.737160 0.541751 0.138888 0.019067 -0.006768 -183372.000000 0 0 1
-2.803063 -2.021547 -34.460770 34.633632 0.624808 3.041639 0.022275 -0.006659 -94171.200000 0 0 1
-2.778863 -0.614147 -33.854386 33.973795 0.217510 3.057726 0.027669 -0.006094 -199729.000000 0 0 1
-3.208663 -0.587647 -32.539816 32.702913 0.181136 3.041679 0.026134 -0.008341 131661.000000 0 0 1
-3.627963 0.716653 -32.168426 32.380293 -0.195025 3.027136 0.036922 -0.012560 -505642.000000 0 0 1
-4.179763 0.722653 -30.750296 31.041478 -0.171201 3.004515 0.033975 -0.019036 288741.000000 0 0 1
-5.271563 -0.139947 -30.505126 30.957579 0.026541 2.970414 0.017781 -0.015549 120020.000000 0 0 1
-6.567763 0.384353 -30.706836 31.403710 -0.058455 2.930532 0.023425 -0.012796 -266719.000000 0 0 1
-7.621763 -0.732547 -30.642896 31.585044 0.095818 2.896732 0.010841 -0.011164 -219164.000000 0 0 1
-7.828363 -1.341847 -29.364796 30.419978 0.169759 2.877435 0.006823 -0.011762 -55232.900000 0 0 1
-8.704363 -2.440847 -29.417446 30.775149 0.273395 2.843448 -0.013210 -0.005421 -175939.000000 0 0 1
-8.944263 -3.054647 -28.033696 29.584098 0.329101 2.816413 -0.011684 -0.009461 208389.000000 0 0 1
-9.822563 -2.233447 -27.260676 29.062269 0.223578 2.787638 -0.009453 -0.011290 286628.000000 0 0 1
-9.972263 -2.818147 -25.981296 27.971695 0.275417 2.762072 -0.011538 -0.008224 -279435.000000 0 0 1
-10.873963 -1.966747 -25.091186 27.416761 0.178933 2.726743 -0.008443 -0.003145 -409419.000000 0 0 1
-10.337463 -0.815947 -24.600206 26.696424 0.078768 2.742669 0.000367 -0.003230 -126516.000000 0 0 1
-11.268063 -0.100747 -23.795506 26.328796 0.008941 2.699323 0.007551 -0.008636 321201.000000 0 0 1
-10.700863 1.254053 -23.227906 25.605014 -0.116660 2.707287 0.016231 -0.007640 182472.000000 0 0 1
-10.518863 2.196553 -24.272206 26.544516 -0.205862 2.724810 0.006418 -0.007267 336700.000000 0 0 1
-9.723163 3.292953 -23.798106 25.917818 -0.326547 2.734344 0.013327 0.000420 -44575.400000 0 0 1
-9.774863 4.568253 -24.733306 26.984316 -0.437186 2.730240 0.021242 0.001004 -245648.000000 0 0 1
-11.016663 5.220653 -24.726106 27.568141 -0.442540 2.683525 0.013056 0.001316 -187560.000000 0 0 1
-11.878963 4.792253 -25.779576 28.786490 -0.383454 2.680449 0.005809 -0.001123 -759768.000000 0 0 1
-13.045463 5.730853 -25.850556 29.517419 -0.413919 2.637831 -0.003040 0.005160 -760034.000000 0 0 1
-12.797963 6.994453 -26.417256 30.175846 -0.500174 2.637150 -0.000319 0.002804 71776.600000 0 0 1
-14.038163 7.647953 -26.584106 31.020573 -0.498840 2.600183 -0.000108 -0.002004 -137273.000000 0 0 1
-13.879163 9.149153 -26.818756 31.552874 -0.582816 2.586710 0.008016 0.000947 -383921.000000 0 0 1
-13.731063 9.891653 -25.664536 30.741752 -0.624277 2.558644 0.013675 -0.011210 -442722.000000 0 0 1
-14.276863 11.163953 -25.791866 31.522738 -0.663645 2.529067 0.011722 -0.007263 -397275.000000 0 0 1
-14.116363 12.065753 -24.558306 30.789032 -0.707237 2.494155 -0.000924 -0.007786 -96883.500000 0 0 1
-14.870063 11.733053 -23.409906 30.113237 -0.668021 2.461311 0.016786 -0.007896 51588.000000 0 0 1
-14.297863 12.366953 -22.316506 29.247169 -0.713110 2.438786 0.010023 -0.006598 -307324.000000 0 0 1
-15.076263 12.142053 -21.024506 28.578891 -0.678010 2.397445 0.025213 -0.012660 -338361.000000 0 0 1
-16.391563 12.629153 -21.038006 29.508923 -0.656472 2.364474 0.018179 -0.011684 -429249.000000 0 0 1
-16.794863 12.998953 -19.732006 28.989520 -0.658675 2.319459 0.013159 -0.006044 239266.000000 0 0 1
-18.275063 13.462553 -19.866106 30.164225 -0.634910 2.289751 0.014956 -0.008575 148275.000000 0 0 1
-18.456263 14.633353 -20.663706 31.333009 -0.670376 2.290932 0.011838 -0.002269 -770011.000000 0 0 1
-19.816363 14.778153 -20.864906 32.348514 -0.640779 2.271824 -0.008208 0.002778 -786412.000000 0 0 1
-20.287163 16.038353 -21.634706 33.717329 -0.668962 2.267443 -0.011043 0.003232 -176097.000000 0 0 1
-20.042063 16.070453 -23.017006 34.492410 -0.675860 2.301383 0.002143 -0.000574 116639.000000 0 0 1
-20.588663 17.218353 -23.638006 35.764788 -0.696488 2.292853 -0.011992 0.008349 -142374.000000 0 0 1
-20.575363 17.246853 -25.153086 36.789635 -0.697620 2.323618 -0.014288 0.007529 -81026.600000 0 0 1
-19.341163 17.600353 -25.729936 36.686273 -0.738310 2.348087 -0.010991 -0.000635 80611.000000 0 0 1
-19.236063 16.980453 -26.960746 37.218863 -0.723197 2.380937 -0.013401 -0.011883 -14553.600000 0 0 1
-18.240963 17.714453 -27.917436 37.761327 -0.770756 2.402846 -0.031063 0.003143 83000.000000 0 0 1
-18.762263 18.863653 -28.533756 39.013269 -0.788093 2.391148 -0.039222 -0.007167 212302.000000 0 0 1
-18.163563 20.010453 -27.963326 38.888056 -0.833741 2.373263 -0.042069 -0.010340 -1763780.000000 0 0 1
-18.811863 21.366553 -28.211736 40.078895 -0.848896 2.351677 -0.008535 -0.003372 -63623.300000 0 0 1
-19.908063 21.721053 -27.399696 40.235289 -0.828922 2.319906 0.007405 0.010488 138112.000000 0 0 1
-21.057363 20.900353 -27.493766 40.449283 -0.781656 2.318163 0.026041 -0.014128 -1157300.000000 0 0 1
-22.097663 21.370753 -26.459686 40.560212 -0.768677 2.281485 0.025999 0.005127 -283559.000000 0 0 1
-21.746163 21.147553 -25.121046 39.385043 -0.771443 2.262477 0.004316 0.012531 422029.000000 0 0 1
-22.799463 21.571953 -24.230506 39.652013 -0.757741 2.228219 0.001762 -0.002872 433315.000000 0 0 1
-22.490163 21.141053 -22.805506 38.377633 -0.754487 2.207116 -0.003102 0.020386 143435.000000 0 0 1
-21.425363 21.885753 -22.237506 37.848898 -0.796028 2.198804 0.004078 0.016274 -326916.000000 0 0 1
-20.538863 21.146053 -21.441806 36.452044 -0.799963 2.199652 -0.011056 0.023394 -383632.000000 0 0 1
-20.917063 20.619653 -20.070706 35.574245 -0.778238 2.170251 -0.001644 0.018372 -920180.000000 0 0 1
-21.754463 19.496753 -20.103806 35.461854 -0.730722 2.173551 0.006943 0.018600 38348.900000 0 0 1
-22.155563 18.990553 -18.821506 34.724043 -0.708628 2.143648 0.001645 0.026581 -297805.000000 0 0 1
-23.309763 19.732853 -18.134706 35.518983 -0.702487 2.106637 0.000712 0.017393 -1353880.000000 0 0 1
-24.388263 19.757253 -18.986806 36.682901 -0.680877 2.114832 0.001370 0.010783 -1096160.000000 0 0 1
-25.197883 20.882753 -18.750106 37.717227 -0.692027 2.091076 0.008261 0.003727 -1065990.000000 0 0 1
-26.593033 20.741353 -19.381606 38.897812 -0.662398 2.092398 0.002440 0.006335 15210.700000 0 0 1
-27.391173 19.642453 -18.964606 38.675039 -0.622116 2.083297 -0.004218 0.010232 244534.000000 0 0 1
-27.752573 19.645153 -17.572806 38.274546 -0.615987 2.047806 -0.015854 0.023311 -772726.000000 0 0 1
-28.668613 18.450753 -17.170106 38.172401 -0.571854 2.037342 -0.026335 0.020569 -53641.600000 0 0 1
-27.974593 17.235353 -17.101506 37.041825 -0.552179 2.050686 -0.016269 0.013325 -155876.000000 0 0 1
-28.832553 16.191053 -16.747306 37.066678 -0.511671 2.039596 -0.009556 0.004868 210385.000000 0 0 1
-28.068163 15.034153 -16.013706 35.641077 -0.491744 2.036783 0.003448 0.004465 178443.000000 0 0 1
-27.562723 15.350053 -14.702506 34.806487 -0.508136 2.006896 0.003114 0.002628 192159.000000 0 0 1
-28.579763 15.551753 -13.736606 35.317903 -0.498343 1.970279 -0.020307 0.007797 382869.000000 0 0 1
-28.026113 16.178853 -12.402106 34.655888 -0.523544 1.936776 -0.014257 0.003835 137562.000000 0 0 1
-27.472133 17.489953 -12.548306 34.900954 -0.566928 1.938572 -0.014066 0.009027 114141.000000 0 0 1
-28.352973 18.590253 -12.847406 36.256647 -0.580352 1.933011 -0.018024 0.007712 159749.000000 0 0 1
-27.677793 19.999753 -12.923306 36.511125 -0.625728 1.932593 -0.004026 0.004866 254933.000000 0 0 1
-27.211743 20.639653 -11.742106 36.115804 -0.648908 1.901939 -0.025414 -0.011475 248354.000000 0 0 1
-26.159813 21.527353 -12.145606 35.989978 -0.688559 1.915026 -0.017367 -0.003878 700051.000000 0 0 1
-25.456683 22.352553 -11.019006 35.624400 -0.720562 1.885264 -0.006117 0.003483 397553.000000 0 0 1
-26.340443 23.244753 -10.371506 36.629300 -0.723047 1.857871 -0.010927 -0.012986 111153.000000 0 0 1
-25.597503 24.420953 -10.083806 36.787203 -0.761880 1.848462 0.010870 -0.007839 56202.200000 0 0 1
-26.267163 25.364853 -9.050306 37.619778 -0.767924 1.813753 0.028109 -0.003607 36386.600000 0 0 1
-25.987083 24.948253 -7.711306 36.840305 -0.765006 1.781673 0.024156 -0.008760 213177.000000 0 0 1
-26.936923 25.551353 -6.864406 37.756980 -0.759007 1.753618 0.034308 -0.010934 232673.000000 0 0 1
-26.862173 24.876553 -5.414706 37.009976 -0.747039 1.717627 0.028453 -0.008311 -72285.800000 0 0 1
-27.204453 23.533653 -5.479706 36.386018 -0.713176 1.721971 0.033198 -0.012776 -228492.000000 0 0 1
-26.666023 22.727353 -4.448306 35.318505 -0.705826 1.697080 0.041538 -0.013882 47264.000000 0 0 1
-26.665723 21.172553 -4.732406 34.376351 -0.671071 1.708899 0.032903 -0.008475 244189.000000 0 0 1
-25.759593 20.796953 -5.775106 33.606871 -0.679205 1.743497 0.020215 -0.010710 -24712.300000 0 0 1
-26.018243 21.116853 -7.160606 34.265796 -0.681785 1.781320 0.002725 -0.006446 -628215.000000 0 0 1
-26.799863 20.019253 -7.891906 34.369832 -0.641572 1.802481 0.005202 -0.008730 23063.800000 0 0 1
-26.176303 18.726653 -7.919206 33.145139 -0.620990 1.812055 -0.010576 -0.005317 515019.000000 0 0 1
-26.867033 17.909153 -8.896306 33.492081 -0.587946 1.839648 -0.025110 0.004388 14415.100000 0 0 1
-26.392083 16.495553 -9.025506 32.405325 -0.558613 1.853048 -0.013332 0.004778 -505132.000000 0 0 1
-27.055583 15.569253 -8.235406 32.283558 -0.522176 1.828743 -0.026232 0.005154 -148248.000000 0 0 1
-26.556193 14.256253 -8.485006 31.312417 -0.492678 1.845206 -0.011226 0.005153 125188.000000 0 0 1
-27.296723 13.152153 -7.704706 31.264240 -0.448999 1.819800 0.002322 -0.001078 -140339.000000 0 0 1
-28.627763 12.821853 -8.008306 32.374090 -0.421091 1.820759 0.000335 -0.003014 -345648.000000 0 0 1
-29.046283 12.010453 -6.923506 32.184973 -0.392084 1.787607 -0.001759 -0.001512 -68433.800000 0 0 1
-29.912753 10.823653 -7.402806 32.660769 -0.347184 1.799441 0.004132 -0.004484 -37281.500000 0 0 1
-29.130763 9.829753 -8.034606 31.777041 -0.325438 1.826414 0.012366 0.001307 284473.000000 0 0 1
-29.879233 8.660353 -8.330306 32.205035 -0.282115 1.832436 0.000960 0.000921 -247013.000000 0 0 1
-28.959453 7.564553 -8.927306 31.234103 -0.255503 1.860658 0.027305 -0.002578 -81570.200000 0 0 1
-28.497803 7.971553 -10.184506 31.295281 -0.272754 1.902266 0.020336 -0.007084 -461555.000000 0 0 1
-27.707343 6.981953 -10.729106 30.521439 -0.246850 1.929998 0.039256 -0.018262 -655915.000000 0 0 1
-27.304313 7.283553 -12.199206 30.779803 -0.260685 1.978321 0.054397 -0.021684 143497.000000 0 0 1
-26.268293 8.270953 -12.282606 30.154507 -0.305038 1.990317 0.054202 -0.026410 1349770.000000 0 0 1
-25.148293 7.752153 -13.037706 29.368594 -0.299015 2.030780 0.051616 -0.022296 263314.000000 0 0 1
-30.959353 26.025153 -34.332821 53.052170 -0.699025 2.274639 0.023069 -0.004960 9659.300000 0 0 1
-31.532363 27.307853 34.406652 54.072419 -0.713725 0.881095 0.018369 -0.016312 445225.000000 0 0 1
-31.352173 27.696453 33.107211 53.349224 -0.723567 0.901320 0.011821 -0.019390 -237626.000000 0 0 1
-31.586603 29.215453 33.101179 54.285765 -0.746420 0.915041 0.021477 -0.028248 -7296.460000 0 0 1
-31.704413 29.692053 31.801126 53.833999 -0.752633 0.938838 0.033927 -0.022586 208022.000000 0 0 1
-31.801993 31.113553 31.885356 54.736605 -0.774456 0.948966 0.040137 -0.023277 -121801.000000 0 0 1
-31.811973 31.794853 30.485256 54.334751 -0.785129 0.975126 0.039549 -0.015360 221468.000000 0 0 1
-30.598023 31.664953 29.740366 53.135654 -0.802532 0.976765 0.035029 -0.019055 369388.000000 0 0 1
-30.452553 32.527153 28.646246 52.971512 -0.818327 0.999425 0.043364 -0.010278 -395575.000000 0 0 1
-29.080943 32.390853 27.996886 51.756104 -0.839191 0.999243 0.037580 -0.013521 -703409.000000 0 0 1
-28.940723 31.259153 27.209946 50.547812 -0.823891 1.002376 0.029606 -0.013393 516168.000000 0 0 1
-27.651003 31.219653 26.603596 49.467121 -0.845943 1.002967 0.023285 -0.005547 155103.000000 0 0 1
-27.524213 31.983953 25.237916 49.168160 -0.860202 1.031773 0.027762 -0.011064 -726270.000000 0 0 1
-27.593813 33.393553 25.506176 50.270398 -0.880210 1.038655 0.026539 -0.015283 382631.000000 0 0 1
-28.417083 34.183853 24.652706 50.831313 -0.877258 1.064444 0.030287 -0.009111 -67787.500000 0 0 1
-28.457233 -33.516018 25.250816 50.702478 0.866846 1.049483 0.031172 -0.013260 -186490.000000 0 0 1
-29.186353 -33.569618 26.453076 51.754494 0.855131 1.034302 0.029961 -0.016340 290459.000000 0 0 1
-29.028963 -32.328018 27.052486 51.182208 0.839115 1.013902 0.027934 -0.012670 -410131.000000 0 0 1
-29.446963 -32.323618 28.535816 52.213338 0.831935 0.992589 0.030790 -0.019949 -640477.000000 0 0 1
-30.794733 -32.598818 28.745496 53.266331 0.813849 1.000768 0.019689 -0.021424 -734045.000000 0 0 1
-30.969003 -33.078218 30.027466 54.358958 0.818318 0.985565 0.010564 -0.012489 1108660.000000 0 0 1
-32.456623 -33.515918 30.329106 55.647137 0.801453 0.994377 0.012806 -0.014094 1061230.000000 0 0 1
-32.670293 -33.835118 31.685546 56.710996 0.802911 0.977955 0.018448 -0.009846 -679287.000000 0 0 1
-34.008493 -34.086218 31.990316 57.808548 0.786540 0.984375 0.010646 -0.007982 -589078.000000 0 0 1
-34.368253 34.558453 33.428085 59.100765 -0.788158 0.969621 0.006198 -0.000665 -592054.000000 0 0 1
-34.151617 33.192853 33.707626 58.346401 -0.771162 0.954869 -0.003006 0.003812 -51700.900000 0 0 1
-35.112217 32.581553 -34.457953 59.006575 -0.748032 2.194405 0.007178 -0.000992 267436.000000 0 0 1
-34.763249 31.153553 -33.938236 57.713354 -0.730691 2.199440 0.001658 0.000789 427525.000000 0 0 1
-33.669743 31.161753 -33.022716 56.526156 -0.746733 2.194693 0.006964 -0.000695 -79823.400000 0 0 1
-33.375443 29.892353 -32.515276 55.359879 -0.730401 2.198569 0.012653 -0.012550 373747.000000 0 0 1
-32.574163 29.985553 -31.172606 54.147400 -0.744044 2.184255 0.015301 -0.014861 329234.000000 0 0 1
-33.342873 30.377353 -30.052716 54.200522 -0.738892 2.158526 0.011304 -0.013647 -244922.000000 0 0 1
-33.918993 31.665853 -29.937086 55.221857 -0.751057 2.143759 -0.000155 -0.004629 573830.000000 0 0 1
-34.953651 31.715553 -28.753126 55.266412 -0.736867 2.117956 -0.007810 0.006325 306640.000000 0 0 1
-34.364326 31.651253 -27.508236 54.216343 -0.744324 2.102937 -0.009751 -0.000025 88369.800000 0 0 1
35.244686 31.363353 -26.500146 54.111972 0.727193 2.082574 -0.021559 0.002751 -114969.000000 0 0 1
-34.619661 31.278353 -25.115536 52.987230 -0.734737 2.064616 -0.009901 0.002163 218954.000000 0 0 1
-34.142833 32.517053 -24.569706 53.167305 -0.761014 2.051181 -0.005073 -0.005716 -89291.000000 0 0 1
-33.613893 32.407153 -23.244006 52.157466 -0.767122 2.032697 -0.012846 -0.006378 -973985.000000 0 0 1
-34.462280 31.970253 -22.071806 51.931787 -0.747904 2.009775 -0.018321 0.005032 -930153.000000 0 0 1
35.024059 32.819353 -21.837706 52.732154 0.752913 1.997778 -0.022159 0.001066 -293629.000000 0 0 1
-35.201490 34.051653 -21.167806 53.354813 -0.768796 1.978755 -0.013407 -0.005464 -401885.000000 0 0 1
-35.095988 34.025253 -19.588706 52.660836 -0.769909 1.951936 -0.009716 -0.002632 -606386.000000 0 0 1
-34.227928 33.023153 -19.226506 51.300470 -0.767486 1.954958 -0.007602 -0.005057 -523421.000000 0 0 1
-34.032273 32.862453 -17.798606 50.546284 -0.767912 1.930637 0.013681 0.001575 -307842.000000 0 0 1
-32.731513 32.159153 -17.423906 49.083150 -0.776578 1.933697 0.009327 0.008218 -336308.000000 0 0 1
-32.598533 31.735653 -16.052506 48.244160 -0.771987 1.909998 0.024947 0.005770 654126.000000 0 0 1
-31.361963 31.014153 -15.823806 46.859826 -0.779822 1.915251 0.015967 0.011103 569752.000000 0 0 1
-31.064763 30.907453 -14.351606 46.111374 -0.782860 1.887292 0.017920 0.008895 -262147.000000 0 0 1
-32.009373 30.074353 -13.735206 46.018720 -0.754240 1.873885 0.024832 0.012235 -117397.000000 0 0 1
-31.532933 29.529553 -12.527906 44.980761 -0.752601 1.853046 0.025703 0.005112 289633.000000 0 0 1
-32.428663 28.435153 -11.827606 44.722124 -0.719878 1.838449 0.019225 -0.000157 341978.000000 0 0 1
-31.814253 28.011453 -10.629006 43.700847 -0.721919 1.816483 0.028582 0.006216 -7481.520000 0 0 1
-32.534313 26.924453 -10.132706 43.429016 -0.691328 1.806283 0.011996 0.004868 -95598.300000 0 0 1
-31.783033 26.084553 -9.046506 42.099933 -0.687240 1.787367 0.016210 0.001769 153582.000000 0 0 1
-31.473463 26.561653 -7.697806 41.896975 -0.700964 1.755578 0.012723 -0.008866 93571.600000 0 0 1
-30.560683 27.619753 -7.634406 41.893798 -0.734893 1.754053 0.026651 -0.009669 -503095.000000 0 0 1
-30.257383 28.253353 -6.228706 41.863564 -0.751161 1.720137 0.028541 -0.009711 59199.300000 0 0 1
-29.442233 27.419053 -5.374206 40.589798 -0.749832 1.703589 0.039620 -0.017405 554400.000000 0 0 1
-29.470753 27.832253 -4.011406 40.733905 -0.756812 1.669435 0.036155 -0.013991 15349.000000 0 0 1
-28.718173 26.842853 -3.080006 39.430428 -0.751659 1.648988 0.038682 -0.010393 37066.900000 0 0 1
-29.443853 25.640053 -2.895506 39.150182 -0.716453 1.644823 0.036393 -0.004596 8499.710000 0 0 1
-28.770923 24.780553 -2.038706 38.026283 -0.711021 1.624435 0.021560 -0.003109 3710.730000 0 0 1
-29.531363 23.445053 -1.805806 37.749608 -0.671013 1.618651 0.034887 -0.009553 13467.800000 0 0 1
-29.637623 22.468053 -2.817906 37.298026 -0.648660 1.646419 0.024296 -0.007766 -327328.000000 0 0 1
-30.772303 21.683553 -2.618506 37.735497 -0.613837 1.640243 0.028693 -0.005671 -340019.000000 0 0 1
-31.046483 20.766153 -3.820206 37.546121 -0.589528 1.672720 0.013673 -0.001719 544598.000000 0 0 1
-29.993213 19.812953 -4.073106 36.176459 -0.583778 1.683626 0.008827 -0.005410 615744.000000 0 0 1
-30.371523 19.020353 -5.163306 36.205842 -0.559502 1.713894 0.009339 -0.005460 -285592.000000 0 0 1
-29.389223 17.914953 -5.510706 34.857422 -0.547431 1.729555 0.009690 0.002127 -303092.000000 0 0 1
-29.307573 16.800353 -4.669606 34.102653 -0.520513 1.708156 -0.002815 -0.003262 70234.600000 0 0 1
-28.401043 15.870253 -5.204906 32.948069 -0.509568 1.729434 -0.014894 -0.002186 -374607.000000 0 0 1
-28.116443 14.707953 -4.258906 32.015567 -0.481963 1.704218 -0.024821 0.001420 679660.000000 0 0 1
-29.297573 13.953853 -3.875106 32.681405 -0.444492 1.689648 -0.006924 -0.002628 1092250.000000 0 0 1
-28.879563 12.784653 -3.239606 31.748568 -0.416757 1.673014 -0.008074 -0.009377 -547084.000000 0 0 1
-29.971843 11.988053 -2.591506 32.384266 -0.380487 1.650906 -0.000542 -0.013900 -317887.000000 0 0 1
-30.962163 11.441553 -3.469006 33.190340 -0.353969 1.675506 0.001155 0.000655 659039.000000 0 0 1
-31.921103 10.587153 -2.905706 33.756300 -0.320249 1.656982 -0.005857 0.006982 -318042.000000 0 0 1
-33.060043 10.193153 -3.826006 34.806683 -0.299074 1.680940 0.002038 0.011687 -384226.000000 0 0 1
-32.656003 9.144753 -4.759806 34.244661 -0.273039 1.710242 -0.003420 0.002888 520857.000000 0 0 1
-33.611503 9.008553 -5.790106 35.276231 -0.261865 1.735679 -0.000840 0.012723 -106081.000000 0 0 1
-33.114253 8.133153 -6.946206 34.798732 -0.240842 1.771757 -0.000335 0.004941 -451962.000000 0 0 1
-32.979233 6.823753 -6.504406 34.300156 -0.204031 1.761584 -0.015287 0.012243 307542.000000 0 0 1
-32.513573 5.898153 -7.447306 33.873043 -0.179454 1.792467 0.004577 0.005061 -125746.000000 0 0 1
-31.413053 4.926253 -6.900406 32.537109 -0.155555 1.784497 0.018252 0.001484 306835.000000 0 0 1
-30.087723 5.424753 -6.957506 31.354520 -0.178381 1.794557 0.024040 -0.007540 66213.800000 0 0 1
-29.187233 4.427453 -6.571206 30.243639 -0.150544 1.789819 0.013141 -0.009759 -65774.000000 0 0 1
-27.731613 4.885653 -6.364006 28.868886 -0.174387 1.793067 0.044320 -0.013494 -1076.750000 0 0 1
-26.960413 5.281853 -7.469206 28.470176 -0.193461 1.836255 0.048909 -0.017057 322724.000000 0 0 1
-25.590633 5.311153 -7.077206 27.077217 -0.204638 1.835239 0.071159 -0.022391 626323.000000 0 0 1
-24.659763 5.587953 -8.309006 26.615197 -0.222839 1.888294 0.069131 -0.029053 255803.000000 0 0 1
-24.872163 4.636553 -9.311006 26.959543 -0.184300 1.923429 0.065495 -0.034377 288709.000000 0 0 1
-23.895363 4.870153 -10.278306 26.464133 -0.201058 1.969676 0.067847 -0.037562 -503288.000000 0 0 1
-24.239463 4.039053 -11.585306 27.167717 -0.165114 2.011346 0.061122 -0.046256 -308282.000000 0 0 1
-25.311973 4.575753 -12.290806 28.507848 -0.178843 2.016550 0.055714 -0.025720 99015.000000 0 0 1
-25.775493 3.806453 -13.411306 29.304066 -0.146618 2.046158 0.051905 -0.025259 388204.000000 0 0 1
-26.700663 4.562853 -14.396106 30.675608 -0.169254 2.059296 0.049699 -0.018025 -221809.000000 0 0 1
-25.879763 5.312653 -15.230706 30.495259 -0.202469 2.093754 0.042720 -0.016613 -14534.000000 0 0 1
-26.537883 6.190953 -16.097406 31.649860 -0.229188 2.104365 0.065270 -0.019972 49894.700000 0 0 1
-27.402143 5.670353 -17.316206 32.907163 -0.204051 2.124938 0.014809 -0.000375 821617.000000 0 0 1
-28.681843 5.170453 -16.918806 33.699076 -0.178354 2.096770 0.014520 -0.012281 387230.000000 0 0 1
-29.303123 4.610553 -18.101806 34.750620 -0.156061 2.118708 0.020341 -0.000690 1223140.000000 0 0 1
-30.717853 3.943353 -17.819306 35.730438 -0.127675 2.092912 0.011124 -0.005378 770220.000000 0 0 1
-30.760483 2.793353 -16.949206 35.231885 -0.090561 2.072678 0.018401 -0.013284 129295.000000 0 0 1
-30.246153 1.534453 -17.407106 34.931242 -0.050689 2.092462 0.047086 -0.016390 11184.900000 0 0 1
-30.420943 0.432453 -16.355606 34.541665 -0.014215 2.064061 0.048428 -0.011068 -293052.000000 0 0 1
-29.945293 -0.800847 -16.815306 34.352823 0.026737 2.082299 0.048456 -0.002795 190181.000000 0 0 1
-30.204223 -1.896447 -15.964606 34.216374 0.062705 2.056214 0.055948 -0.012770 121083.000000 0 0 1
-29.826843 -3.257447 -16.612106 34.295971 0.108781 2.076445 0.057903 -0.006550 247086.000000 0 0 1
-30.833413 -3.558647 -17.555006 35.658682 0.114907 2.085534 0.048966 -0.008069 496858.000000 0 0 1
-30.427973 -4.650547 -18.367506 35.844866 0.151664 2.108793 0.033176 -0.003310 760723.000000 0 0 1
-31.673553 -5.048947 -19.239206 37.401242 0.158076 2.111104 0.019566 0.012402 607693.000000 0 0 1
-31.475003 -6.148947 -20.121306 37.859640 0.192930 2.131133 0.023010 0.012815 -637445.000000 0 0 1
-32.602433 -6.227747 -20.916906 39.232900 0.188747 2.133112 0.022214 0.017905 -856562.000000 0 0 1
-32.607153 -7.424047 -21.841506 39.942387 0.223865 2.149364 0.025870 0.011699 -150758.000000 0 0 1
-31.516233 -7.387447 -22.729406 39.553422 0.230245 2.182974 0.016956 0.006107 61213.000000 0 0 1
-31.537473 -8.407847 -23.686106 40.327853 0.260539 2.198563 0.018859 0.015062 761383.000000 0 0 1
-30.265723 -8.252547 -24.630606 39.884650 0.266198 2.236415 0.009345 0.013916 759700.000000 0 0 1
-30.113703 -7.002447 -25.300636 39.949863 0.228473 2.256619 0.027798 0.012535 110708.000000 0 0 1
-29.705833 -7.184047 -26.665316 40.559661 0.237284 2.288205 0.032524 0.013850 -499951.000000 0 0 1
-30.829143 -7.152547 -27.704096 42.060812 0.227973 2.289843 0.012694 0.016158 -471111.000000 0 0 1
-31.662193 -8.241347 -27.431686 42.695570 0.254640 2.268546 0.008685 0.007800 -1389240.000000 0 0 1
-32.830323 -8.206447 -28.143396 44.013937 0.244946 2.264540 0.009891 0.010508 -380370.000000 0 0 1
-33.745593 -9.429147 -27.814266 44.735973 0.272469 2.241762 0.019418 0.003468 -803337.000000 0 0 1
-33.151033 -10.559847 -28.419916 44.924303 0.308376 2.255725 0.010017 0.006660 4063.320000 0 0 1
-33.945503 -11.706447 -28.438486 45.804864 0.332088 2.240638 -0.002677 0.013421 -1053440.000000 0 0 1
-35.193475 -11.677447 -29.297806 47.257855 0.320376 2.239483 0.000180 0.001098 -462277.000000 0 0 1
34.454869 -10.757747 -28.653906 46.085935 -0.302636 2.241771 -0.005559 0.007841 -892335.000000 0 0 1
33.454799 -10.389547 -29.553346 45.831938 -0.301112 2.271584 0.009106 -0.005572 -693338.000000 0 0 1
32.569209 -9.362947 -28.825116 44.489386 -0.279930 2.275634 0.006775 -0.000465 -400106.000000 0 0 1
31.487619 -9.895247 -28.104296 43.350173 -0.304486 2.276157 -0.011867 0.000298 -260750.000000 0 0 1
30.743269 -8.804947 -27.603016 42.244552 -0.278936 2.282877 -0.021786 0.006820 208704.000000 0 0 1
29.630949 -9.302647 -26.629146 40.910192 -0.304206 2.279588 -0.016229 0.011756 120455.000000 0 0 1
30.118019 -9.701547 -25.367966 40.555502 -0.311623 2.246584 -0.025532 0.023944 565480.000000 0 0 1
29.030829 -9.777647 -24.454706 39.197245 -0.324869 2.244505 -0.024214 0.022380 282612.000000 0 0 1
29.555379 -9.801047 -22.966906 38.691856 -0.320204 2.206303 -0.029127 0.024174 291984.000000 0 0 1
30.180759 -11.048747 -22.599206 39.289657 -0.350933 2.183639 -0.035970 0.027111 395785.000000 0 0 1
30.590409 -11.044447 -21.268606 38.860089 -0.346478 2.149946 -0.022985 0.022640 -58028.400000 0 0 1
31.442279 -12.219547 -20.765506 39.612377 -0.370670 2.122592 -0.002345 0.015334 195858.000000 0 0 1
32.726899 -12.398647 -21.344106 40.992038 -0.362143 2.118454 -0.001734 0.023177 353086.000000 0 0 1
33.507169 -13.249647 -20.517806 41.464007 -0.376558 2.088440 0.019614 0.018093 198735.000000 0 0 1
34.897052 -13.516747 -21.183406 43.002830 -0.369538 2.085877 0.021598 0.014298 324493.000000 0 0 1
-34.690155 -12.481247 -21.034806 42.445865 0.345372 2.089285 0.015321 0.010922 537515.000000 0 0 1
-34.788608 -11.298647 -21.860806 42.612223 0.314033 2.109493 0.000306 0.023586 -679529.000000 0 0 1
-34.291515 -11.468547 -23.322706 43.027714 0.322749 2.143658 -0.004771 0.023068 340.842000 0 0 1
-35.067027 -12.282147 -24.183106 44.332496 0.336895 2.147775 -0.003013 0.026149 428607.000000 0 0 1
34.308249 -11.678747 -24.680406 43.847138 -0.328103 2.168655 -0.004798 0.028326 -34194.300000 0 0 1
33.545259 -12.571147 -25.690156 44.082902 -0.358553 2.192929 0.007890 0.016352 25534.400000 0 0 1
33.266169 -13.916247 -25.326776 44.065241 -0.396208 2.183103 0.026636 0.012908 414259.000000 0 0 1
32.476689 -14.047647 -24.149806 42.840224 -0.408244 2.169677 0.006633 0.016883 -564051.000000 0 0 1
-29.197303 8.466353 -19.264506 35.990038 -0.282230 2.135628 -0.005498 0.014046 -325124.000000 0 0 1
-27.969103 7.863053 -19.528306 35.006472 -0.274060 2.162587 -0.010847 0.011216 -576838.000000 0 0 1
-27.247113 8.573153 -20.499606 35.158754 -0.304837 2.193284 -0.004303 -0.002935 643110.000000 0 0 1
-25.924553 7.841953 -20.945706 34.238886 -0.293741 2.229070 0.000703 0.000977 810295.000000 0 0 1
-24.904463 7.918853 -19.967906 32.888566 -0.307860 2.223250 0.016226 -0.008934 -830909.000000 0 0 1
-23.869063 7.026353 -20.167106 32.028331 -0.286284 2.251918 0.046343 -0.011394 -416951.000000 0 0 1
-22.600663 7.493853 -19.412106 30.720965 -0.320169 2.254779 0.047324 -0.017363 137367.000000 0 0 1
-21.974863 8.530053 -20.213506 31.052250 -0.370269 2.279633 0.046322 -0.010754 -897392.000000 0 0 1
-20.833363 8.962953 -19.569906 29.955714 -0.406285 2.282724 0.031044 -0.007762 -856938.000000 0 0 1
-20.179963 10.076553 -20.409206 30.418802 -0.463115 2.306273 0.026590 -0.008104 -446269.000000 0 0 1
-19.675463 9.676353 -21.649306 30.813116 -0.457065 2.349842 0.036830 -0.015047 -391066.000000 0 0 1
-18.929163 10.646353 -22.287206 31.118766 -0.512337 2.369136 0.026335 -0.011048 -102604.000000 0 0 1
-17.905563 10.197453 -23.368006 31.155432 -0.517701 2.418928 0.039562 -0.004769 115028.000000 0 0 1
-18.429863 9.435153 -24.459806 32.046281 -0.473161 2.439148 0.037814 -0.009483 412346.000000 0 0 1
-17.381863 9.054753 -25.352356 32.044652 -0.480252 2.483495 0.028331 -0.005036 -62866.300000 0 0 1
-17.797563 7.998753 -26.393476 32.822993 -0.422380 2.504982 0.019599 0.000326 -238158.000000 0 0 1
-18.232463 6.772153 -25.803756 32.312824 -0.355640 2.495697 0.035944 0.010805 298588.000000 0 0 1
-18.719863 5.861153 -26.776656 33.193007 -0.303430 2.509336 0.043652 0.007940 -230060.000000 0 0 1
-19.311363 4.553653 -26.098806 32.784328 -0.231572 2.491579 0.039293 0.025644 -24341.400000 0 0 1
-18.486763 3.487353 -25.640876 31.802147 -0.186450 2.508603 0.031202 0.020537 -301477.000000 0 0 1
-17.568263 3.858653 -24.655506 30.519290 -0.216205 2.511319 0.024934 0.012120 -275387.000000 0 0 1
-16.679563 2.678253 -24.150606 29.472575 -0.159212 2.531206 0.023338 0.009471 -149394.000000 0 0 1
-17.197163 1.793053 -23.148406 28.893013 -0.103889 2.500055 0.019563 0.008941 -13642.600000 0 0 1
-18.128763 0.863653 -23.630206 29.795714 -0.047604 2.486635 0.022500 0.008190 -2297.780000 0 0 1
-18.953963 0.023853 -22.624706 29.514922 -0.001258 2.444250 0.043216 0.003558 11157.200000 0 0 1
-18.227163 -1.061447 -22.112506 28.676106 0.058169 2.451383 0.043241 0.002223 -106533.000000 0 0 1
-18.840363 -1.674447 -21.024906 28.280908 0.088643 2.408982 0.040766 -0.000640 -356181.000000 0 0 1
-18.321963 -3.071647 -20.631706 27.763225 0.166104 2.408533 0.030573 -0.018852 -166258.000000 0 0 1
-18.564963 -4.073647 -21.621306 28.787729 0.216003 2.420462 0.032902 -0.026025 327406.000000 0 0 1
-18.451763 -5.326147 -21.019606 28.472078 0.281014 2.401273 0.032208 -0.019413 -355098.000000 0 0 1
-18.532563 -6.446447 -22.120606 29.569136 0.334753 2.415987 0.005434 -0.020516 -131182.000000 0 0 1
-17.429763 -6.476447 -23.006106 29.580770 0.355764 2.461857 0.004164 -0.012915 48126.600000 0 0 1
-17.660063 -7.303347 -24.119706 30.772990 0.392134 2.471549 0.014314 -0.023460 -691656.000000 0 0 1
-16.349663 -7.657647 -24.788306 30.666124 0.438023 2.512104 0.019312 -0.028926 -1363810.000000 0 0 1
-16.359163 -8.546647 -25.965016 31.856702 0.481436 2.523623 0.023596 -0.042112 188976.000000 0 0 1
-15.155563 -8.552647 -26.738576 31.902826 0.513774 2.564634 0.033448 -0.046261 186969.000000 0 0 1
-14.040463 -9.395647 -26.099886 31.090462 0.589743 2.567126 0.037280 -0.051304 -798096.000000 0 0 1
-13.497363 -8.823147 -24.946906 29.704795 0.578968 2.567762 0.031718 -0.034850 -233051.000000 0 0 1
-12.696563 -9.740347 -24.256806 29.059761 0.654396 2.558423 0.014367 -0.027296 -79641.300000 0 0 1
-11.905763 -9.112247 -23.076206 27.518930 0.653262 2.565426 0.047792 -0.024061 184428.000000 0 0 1
-12.713863 -8.611047 -22.035506 26.858071 0.595325 2.532981 0.041999 -0.010494 107378.000000 0 0 1
-11.851563 -8.229547 -20.967706 25.452499 0.606947 2.538874 0.039798 -0.008561 -496619.000000 0 0 1
-12.453063 -8.141947 -19.571106 24.584513 0.579049 2.491577 0.019482 0.001180 133563.000000 0 1 0
-13.264163 -7.004147 -19.300106 24.443613 0.485835 2.480915 0.006993 -0.001575 684431.000000 0 1 0
-14.541763 -6.835947 -19.898106 25.575920 0.439435 2.462275 0.003283 -0.006473 -43720.700000 0 0 1
-15.132463 -5.455547 -19.535906 25.306245 0.346015 2.452746 0.008893 -0.010623 -707353.000000 0 0 1
-15.281563 -5.232847 -18.133806 24.284641 0.329914 2.413912 0.001056 0.002123 227527.000000 0 1 0
-15.235163 -3.888547 -17.760706 23.720744 0.249900 2.416958 0.007923 -0.005024 -754471.000000 0 1 0
-15.053463 -3.743947 -16.230506 22.451130 0.243764 2.378824 0.023394 -0.012217 52561.700000 0 1 0
-16.185663 -3.634647 -15.391906 22.629563 0.220895 2.318788 0.033869 -0.016118 -50112.400000 0 1 0
-16.957563 -2.470547 -15.511606 23.114335 0.144672 2.306463 0.022276 -0.011410 -439029.000000 0 1 0
-18.193863 -2.396947 -14.612106 23.457955 0.130990 2.243249 0.031134 -0.014902 -368710.000000 0 1 0
-17.886763 -2.615447 -13.248506 22.412045 0.145194 2.203260 0.041620 -0.030878 865587.000000 0 1 0
-18.705063 -1.759547 -12.470206 22.549533 0.093792 2.156774 0.027598 -0.027907 -90830.300000 0 1 0
-17.869063 -0.571247 -11.969506 21.515084 0.031958 2.160760 0.012240 -0.019755 35075.500000 0 1 0
-17.446963 0.246353 -13.075706 21.804387 -0.014119 2.213900 0.021672 -0.016998 611453.000000 0 1 0
-16.543563 1.223953 -12.587206 20.823672 -0.073849 2.219892 0.026047 -0.012053 -609685.000000 0 1 0
-16.091863 2.253053 -13.726906 21.270925 -0.139108 2.272260 0.036308 -0.002201 232721.000000 0 1 0
-15.318863 1.764553 -14.809806 21.380168 -0.114683 2.336007 0.027843 -0.011951 1195170.000000 0 1 0
-14.025063 1.235153 -14.420906 20.154169 -0.087841 2.368178 0.024000 -0.011579 207138.000000 0 1 0
-13.481063 0.145053 -15.423306 20.485079 -0.010759 2.423260 0.018245 -0.007629 26858.100000 0 1 0
-13.029763 0.810153 -16.615706 21.130849 -0.062097 2.475634 0.016165 -0.011838 259728.000000 0 1 0
-12.479763 -0.156447 -17.505706 21.499272 0.012535 2.522226 -0.005055 -0.005914 -264760.000000 0 1 0
-11.880063 0.491753 -18.722306 22.178874 -0.041370 2.575775 0.006170 -0.010357 -378075.000000 0 1 0
-10.796663 1.339453 -18.417506 21.390807 -0.123431 2.608031 -0.008932 -0.008986 -354637.000000 0 1 0
-10.506563 2.150453 -19.543906 22.292972 -0.201889 2.639723 -0.006984 -0.001002 -533181.000000 0 1 0
-9.138963 2.781553 -19.376806 21.603664 -0.295454 2.683556 -0.005840 -0.001714 -961129.000000 0 1 0
-8.096263 1.824253 -19.445106 21.142127 -0.221619 2.738195 -0.004292 -0.000548 732918.000000 0 1 0
-6.759463 2.332453 -19.278806 20.562175 -0.332272 2.786418 0.003022 0.000457 1236910.000000 0 1 0
-6.222163 3.381753 -20.352006 21.548915 -0.497840 2.806732 0.004535 0.007605 -800764.000000 0 1 0
-6.176363 2.909153 -21.675106 22.724895 -0.440191 2.836451 0.001495 0.007651 266847.000000 0 1 0
-5.774263 3.935853 -22.540906 23.599269 -0.598284 2.840971 -0.002441 0.004589 -188264.000000 0 1 0
-5.404863 3.472453 -23.975106 24.820882 -0.571062 2.879789 0.014490 -0.003532 -333473.000000 0 1 0
-4.132763 2.908453 -24.105306 24.629345 -0.613242 2.934939 0.029445 -0.009965 -501182.000000 0 1 0
-3.830663 2.315053 -25.301206 25.694056 -0.543610 2.966501 0.028215 -0.013847 757092.000000 0 0 1
-2.408463 1.626553 -25.205536 25.372533 -0.593989 3.026797 0.028200 -0.019215 1097270.000000 0 0 1
-1.328663 2.552953 -25.069356 25.234016 -1.090930 3.027291 0.026939 -0.019033 988123.000000 0 0 1
-0.001563 2.004953 -25.071046 25.151087 -1.570017 3.061792 0.028343 -0.018432 1035140.000000 0 0 1
0.512937 1.304853 -23.779906 23.821202 1.196253 3.082701 0.028157 -0.017804 -761332.000000 0 1 0
0.063637 -0.022547 -23.723706 23.723802 -0.340500 3.138747 0.022194 -0.022478 -77150.500000 0 1 0
0.638837 -0.704247 -22.637806 22.657766 -0.834061 3.099616 0.027015 -0.021728 -1172700.000000 0 1 0
0.294237 -2.184147 -22.689906 22.796687 -1.436888 3.044766 0.032209 -0.023138 106131.000000 0 1 0
-0.913463 -2.643747 -22.073206 22.249725 1.238120 3.015545 0.027960 -0.020785 386567.000000 0 1 0
-2.096463 -2.477547 -22.837006 23.066475 0.868521 3.000421 0.030266 -0.021633 -64602.700000 0 1 0
-2.752263 -1.082847 -22.736906 22.928463 0.374837 3.012239 0.024272 -0.022697 -2182220.000000 0 1 0
-3.383463 -0.840847 -21.481606 21.762680 0.243582 2.980699 0.022124 -0.021865 866535.000000 0 1 0
-4.404463 0.189053 -21.640506 22.084985 -0.042897 2.940627 0.014959 -0.014337 914056.000000 0 1 0
-5.713763 -0.159947 -22.384106 23.102400 0.027986 2.891576 0.016311 -0.008543 -361476.000000 0 1 0
-6.438563 -1.208947 -21.659906 22.628924 0.185605 2.847888 0.018253 -0.005721 1022660.000000 0 1 0
-7.827163 -0.838047 -21.608106 22.997327 0.106663 2.792233 -0.002549 -0.001655 1032250.000000 0 1 0
-8.793363 -2.064947 -21.389406 23.218397 0.230651 2.742018 0.007799 -0.000139 153294.000000 0 1 0
-8.757363 -3.012847 -22.401106 24.240013 0.331352 2.749568 0.035742 -0.009759 -52906.200000 0 1 0
-9.182163 -4.270947 -21.997106 24.216230 0.435369 2.710147 0.019529 -0.009739 -391016.000000 0 1 0
-9.862363 -5.188147 -23.064006 25.615063 0.484274 2.691503 0.014250 -0.013711 88286.200000 0 0 1
-11.250063 -4.942347 -23.020906 26.095073 0.413935 2.651297 0.008799 -0.012195 -492752.000000 0 0 1
-11.933563 -5.618147 -24.025106 27.407649 0.440004 2.639514 0.001998 -0.023187 430104.000000 0 0 1
-13.481663 -5.422647 -23.961906 28.023799 0.382422 2.596454 0.015947 -0.026180 484483.000000 0 0 1
-13.987263 -4.106347 -24.270006 28.311461 0.285554 2.600702 0.008655 -0.026386 -631353.000000 0 0 1
-15.369063 -4.014047 -24.172306 28.924403 0.255470 2.560214 0.017049 -0.022225 -537495.000000 0 0 1
-15.920163 -2.654247 -24.529206 29.362878 0.165203 2.559623 0.017193 -0.017072 -116271.000000 0 0 1
-15.603963 -2.418447 -25.919786 30.350747 0.153766 2.594438 0.013254 -0.021612 117875.000000 0 0 1
-15.834963 -1.084747 -26.261936 30.685697 0.068396 2.597962 0.006792 -0.003701 471194.000000 0 0 1
-17.260363 -0.908847 -26.905416 31.978861 0.052607 2.570573 0.029974 0.004037 482841.000000 0 0 1
-17.490663 -1.646847 -28.084106 33.126310 0.093879 2.582598 0.031188 -0.008785 177674.000000 0 0 1
-16.865263 -1.129747 -29.281786 33.810301 0.066887 2.618065 0.021041 -0.000745 50143.200000 0 0 1
-17.111663 -2.127347 -30.406366 34.955425 0.123687 2.625717 0.007018 0.006756 322069.000000 0 0 1
-18.471963 -2.172347 -30.792376 35.973642 0.117065 2.598221 0.012809 0.003182 50441.600000 0 0 1
-18.604863 -2.893947 -32.033026 37.156838 0.154311 2.610202 0.010439 -0.001924 -906764.000000 0 0 1
-20.009063 -3.324847 -32.473116 38.287341 0.164663 2.583265 -0.003059 0.006655 -220792.000000 0 0 1
-20.874363 -2.219147 -32.731086 38.884285 0.105912 2.571324 0.003450 -0.001538 458238.000000 0 0 1
-21.562963 -1.755547 -31.549186 38.254339 0.081236 2.540506 0.005108 0.011652 -6631.790000 0 0 1
-22.742163 -0.768547 -31.856046 39.148491 0.033781 2.521326 0.000146 0.011555 91328.700000 0 0 1
-22.358163 0.395753 -32.566286 39.504520 -0.017699 2.539882 -0.004382 0.011420 762118.000000 0 0 1
-23.465563 1.286953 -32.859606 40.398547 -0.054789 2.520745 0.003360 0.009718 596482.000000 0 0 1
-23.087563 2.605753 -33.635906 40.880310 -0.112388 2.537099 0.000523 0.010408 -143827.000000 0 0 1
-22.388763 3.658453 -32.915356 39.975764 -0.161974 2.538143 0.003410 0.014340 795248.000000 0 0 1
-23.102663 4.386453 -31.888216 39.621110 -0.187634 2.506184 0.007148 0.005921 116612.000000 0 0 1
-24.392863 5.135453 -32.327456 40.822164 -0.207501 2.484726 0.012098 0.001920 374845.000000 0 0 1
-25.534163 4.303053 -32.525756 41.574446 -0.166953 2.469226 0.016014 -0.000029 577836.000000 0 0 1
-26.348103 4.861753 -33.570586 42.951641 -0.182468 2.468008 0.012352 -0.003053 429357.000000 0 0 1
-27.431753 3.932653 -34.214964 44.029883 -0.142391 2.460817 0.007308 -0.001758 181754.000000 0 0 1
-26.952683 2.879853 34.022212 43.500018 -0.106445 0.672736 0.007295 -0.005188 230101.000000 0 0 1
-27.932263 2.452853 33.103362 43.382720 -0.087590 0.702771 0.007695 -0.004883 -32247.800000 0 0 1
-27.901973 0.909853 32.904386 43.151438 -0.032597 0.703577 0.003603 0.000817 -352928.000000 0 0 1
-28.310353 0.172353 33.956639 44.210396 -0.006088 0.694976 -0.006779 0.007644 62918.000000 0 0 1
-28.293413 -1.204747 33.776491 44.077432 0.042555 0.697736 -0.010464 0.000778 -656961.000000 0 0 1
-28.368203 -1.978447 -33.898116 44.246486 0.069629 2.443578 -0.028130 0.007260 111169.000000 0 0 1
-27.160213 -2.068647 -33.176846 42.926211 0.076018 2.454165 -0.024710 0.002678 147231.000000 0 0 1
-26.471163 -0.935847 -32.728076 42.103744 0.035339 2.461191 -0.031642 0.016062 -620559.000000 0 0 1
-26.714353 -0.539347 -31.271376 41.132062 0.020187 2.434521 -0.008483 0.016276 -394670.000000 0 0 1
-26.123883 -1.414747 -30.346246 40.066862 0.054102 2.430103 -0.003422 0.008778 116873.000000 0 0 1
-26.360293 -0.896047 -29.062466 39.246591 0.033979 2.404624 0.000544 0.011514 -431518.000000 0 0 1
-25.236693 -1.170947 -28.074596 37.768304 0.046365 2.408842 0.022502 0.008393 -373561.000000 0 0 1
-25.073143 -2.521247 -27.728126 37.468229 0.100219 2.403932 0.014516 0.010881 -418146.000000 0 0 1
-24.208463 -2.652047 -26.675696 36.120296 0.109115 2.401674 0.040708 0.003481 -563053.000000 0 0 1
-24.365463 -4.012247 -26.031056 35.880215 0.163205 2.382555 0.038236 -0.003133 -45799.200000 0 0 1
-25.540083 -4.105447 -25.258506 36.154428 0.159382 2.344275 0.040900 0.004792 -93520.500000 0 0 1
-25.805823 -5.394547 -24.731506 36.148154 0.206076 2.324262 0.037087 -0.003144 361317.000000 0 0 1
-27.088853 -5.441647 -23.848706 36.499017 0.198243 2.282872 0.041978 -0.007996 328021.000000 0 0 1
-27.053573 -6.356147 -22.739106 35.907706 0.230761 2.256561 0.034275 -0.004671 277044.000000 0 0 1
-28.246043 -6.361847 -21.940706 36.327767 0.221533 2.219263 0.031028 -0.001457 534133.000000 0 0 1
-28.520653 -7.602647 -21.107306 36.286999 0.260509 2.191585 0.033540 -0.002550 -417123.000000 0 0 1
-27.678093 -7.735247 -19.998206 35.011986 0.272519 2.178741 0.025135 -0.006199 -126532.000000 0 0 1
-28.018053 -8.790147 -19.111206 35.035927 0.304006 2.147752 0.034572 -0.002024 -1261.220000 0 0 1
-28.710913 -8.273247 -17.794506 34.776538 0.280556 2.107937 0.028524 -0.007621 95674.300000 0 0 1
-27.837853 -7.653047 -16.881506 33.443990 0.268287 2.099911 0.041436 -0.013168 99724.000000 0 0 1
-28.546013 -6.902547 -15.951006 33.420871 0.237250 2.068349 0.041836 -0.011950 -9368.710000 0 0 1
-27.582693 -6.229147 -14.929706 31.976606 0.222109 2.056572 0.047824 -0.015771 3752.650000 0 0 1
-26.846373 -5.191747 -15.492206 31.427543 0.191029 2.086273 0.050186 -0.008348 -195435.000000 0 0 1
-25.811993 -4.883247 -14.597906 30.053352 0.186975 2.077998 0.043263 -0.026885 -364047.000000 0 0 1
-13.964663 21.306053 -5.519506 26.065776 -0.990612 1.784165 0.019215 0.005560 222183.000000 0 0 1
-13.787663 20.709553 -6.740006 25.776209 -0.983419 1.835353 0.030563 0.009238 355684.000000 0 0 1
-14.600163 19.513453 -6.777906 25.295842 -0.928442 1.842056 0.028529 -0.005727 22190.200000 0 0 1
-14.576463 18.789453 -8.118606 25.128243 -0.911000 1.899786 0.027196 -0.016165 -749443.000000 0 0 1
-13.381163 18.150253 -8.461506 24.084940 -0.935509 1.929776 0.031783 -0.013399 -480150.000000 0 1 0
-13.454563 17.121153 -9.416706 23.724113 -0.904747 1.978961 0.024043 -0.018124 -473675.000000 0 1 0
-14.151963 15.813053 -8.974306 23.040592 -0.840776 1.970885 0.030359 -0.036740 392546.000000 0 1 0
-15.538163 16.016653 -8.646606 23.931809 -0.800561 1.940460 0.032423 -0.026398 1044730.000000 0 1 0
-15.995363 15.042453 -7.658406 23.254639 -0.754706 1.906388 0.041320 -0.015234 602722.000000 0 1 0
-17.386463 15.228553 -6.964006 24.139083 -0.719331 1.863451 0.055653 -0.017614 81645.600000 0 1 0
-18.433263 14.918753 -7.819906 24.970089 -0.680409 1.889326 0.053342 -0.022173 188504.000000 0 1 0
-19.698863 15.338853 -7.262306 26.001283 -0.661597 1.853867 0.036751 -0.019936 237660.000000 0 0 1
-20.884063 15.034353 -8.142406 26.990270 -0.623955 1.877250 0.036480 -0.007070 -861022.000000 0 0 1
-21.114263 13.635153 -8.014206 26.380997 -0.573402 1.879461 0.044944 -0.011514 -35386.100000 0 0 1
-21.812463 13.155053 -9.130006 27.059120 -0.542694 1.914960 0.035583 -0.009741 163454.000000 0 0 1
-22.568863 11.809953 -8.884306 26.977018 -0.482102 1.906389 0.041915 -0.006263 458868.000000 0 0 1
-21.600963 10.759553 -8.679306 25.645662 -0.462131 1.916046 0.055517 -0.009936 370576.000000 0 0 1
-22.113163 9.709453 -7.922506 25.417151 -0.413736 1.887777 0.056940 -0.017767 -551892.000000 0 0 1
-21.086663 8.661353 -7.468706 23.988497 -0.389739 1.887405 0.059985 -0.004562 -177985.000000 0 1 0
-20.780863 7.637453 -8.421906 23.687623 -0.352200 1.934288 0.047329 -0.006558 479233.000000 0 1 0
-19.881763 6.668953 -7.906906 22.411573 -0.323637 1.931363 0.047871 -0.002852 -205322.000000 0 1 0
-19.666863 5.395453 -8.741406 22.188028 -0.267755 1.975743 0.039049 -0.007314 -245000.000000 0 1 0
-20.754663 4.517053 -8.649806 22.934231 -0.214299 1.957521 0.053894 -0.010941 309676.000000 0 1 0
-20.556663 3.547953 -9.673806 22.994497 -0.170910 2.005014 0.045543 -0.012340 -521742.000000 0 1 0
-21.337363 2.250653 -9.469706 23.452587 -0.105091 1.986442 0.038464 -0.016216 -292685.000000 0 1 0
-20.677063 1.277553 -8.670206 22.457639 -0.061708 1.967163 0.017624 -0.018754 173964.000000 0 1 0
-21.511263 0.260553 -8.179606 23.015392 -0.012112 1.934135 0.024839 -0.018767 -456419.000000 0 1 0
-21.628563 -1.056347 -8.867006 23.399453 0.048802 1.959448 0.013618 -0.024631 381242.000000 0 1 0
-20.381363 -1.759447 -8.778406 22.261088 0.086113 1.976144 0.003164 -0.017561 664274.000000 0 1 0
-20.338563 -3.052847 -9.260906 22.555297 0.148989 1.993894 -0.006920 -0.018350 -213407.000000 0 1 0
-21.298763 -4.123247 -8.652906 23.356182 0.191225 1.950318 -0.002294 -0.013796 147769.000000 0 1 0
-21.127563 -4.255847 -7.231206 22.732719 0.198776 1.894518 -0.001365 -0.014272 514970.000000 0 1 0
-22.163863 -5.083947 -6.680006 23.700334 0.225479 1.856521 0.016864 -0.011541 -95766.300000 0 1 0
-22.016763 -6.666847 -6.892206 24.014313 0.294031 1.861894 0.005068 -0.017155 574874.000000 0 1 0
-20.850263 -7.308447 -6.297706 22.974072 0.337139 1.848473 -0.012353 -0.013236 1358780.000000 0 1 0
-20.883163 -8.702447 -6.646506 23.579973 0.394837 1.856540 -0.017768 -0.006385 26454.200000 0 1 0
-19.915863 -9.644947 -5.836306 22.885128 0.450996 1.828671 -0.014357 -0.006428 -318921.000000 0 1 0
-18.591563 -9.497447 -6.282406 21.801751 0.472288 1.863102 -0.029615 -0.005555 -452021.000000 0 1 0
-17.836663 -10.433147 -5.580206 21.404107 0.529263 1.834551 -0.010684 -0.000781 -443085.000000 0 1 0
-17.414463 -11.700647 -6.490306 21.961164 0.591612 1.870812 -0.006773 0.008548 -450673.000000 0 1 0
-16.325663 -11.425647 -7.355306 21.240838 0.610631 1.924401 -0.007898 -0.000686 335007.000000 0 1 0
-16.648063 -10.834347 -8.618406 21.652205 0.576928 1.980174 -0.003756 -0.001880 -834004.000000 0 1 0
-15.706663 -11.301647 -9.705806 21.647844 0.623723 2.035715 0.009412 0.006023 -130412.000000 0 1 0
-15.938863 -12.617547 -10.235206 22.759817 0.669611 2.037231 0.017878 0.005012 528571.000000 0 1 0
-14.833963 -13.079247 -11.018306 22.638821 0.722617 2.079104 0.012525 0.010633 516124.000000 0 1 0
-15.223163 -14.409347 -11.704406 24.007646 0.757941 2.080053 0.033670 0.004894 171278.000000 0 1 0
-15.864263 -14.271547 -12.961706 24.967133 0.732596 2.116653 0.015533 -0.000623 123541.000000 0 1 0
-16.077763 -15.502647 -13.629706 26.164774 0.767189 2.118723 0.011620 -0.001032 -211408.000000 0 0 1
-16.464763 -15.435747 -15.040406 27.121293 0.753152 2.158631 0.024308 0.000796 -203126.000000 0 0 1
-16.529163 -16.728447 -15.660106 28.254081 0.791390 2.158270 0.018586 0.005294 189511.000000 0 0 1
-16.791863 -16.607847 -17.026106 29.114868 0.779889 2.195418 0.012025 0.003014 -455178.000000 0 0 1
-16.985163 -17.921647 -17.836806 30.460349 0.812220 2.196385 0.011082 0.002245 227941.000000 0 0 1
-18.253663 -18.533247 -17.613806 31.415340 0.792998 2.165997 -0.005264 0.004290 413981.000000 0 0 1
-19.176163 -18.359847 -18.688506 32.466436 0.763654 2.184165 -0.003999 0.001686 1422610.000000 0 0 1
-20.673263 -18.048047 -18.287206 32.977837 0.717704 2.158595 -0.004004 -0.000420 921739.000000 0 0 1
-20.878663 -16.718447 -17.833406 32.147401 0.675194 2.158845 -0.013513 0.001940 187463.000000 0 0 1
-20.588963 -16.522147 -16.465006 31.112428 0.676249 2.128465 -0.025228 -0.000520 -403879.000000 0 0 1
-20.641663 -15.102647 -15.935506 30.134839 0.631659 2.127990 -0.016121 -0.003621 -1130820.000000 0 0 1
-21.915763 -14.632047 -15.761006 30.705159 0.588683 2.109824 -0.015540 -0.000616 -781722.000000 0 0 1
-21.907963 -13.310547 -15.317506 29.862275 0.545965 2.109401 -0.010467 -0.004041 7372.070000 0 0 1
-23.309263 -12.826647 -14.871006 30.479361 0.503059 2.080483 0.008308 -0.011087 -206973.000000 0 0 1
-23.768363 -13.384547 -13.625806 30.491700 0.512864 2.034059 0.006862 -0.013733 -112491.000000 0 0 1
-24.769363 -12.534947 -13.180606 30.730679 0.468489 2.014079 0.025170 -0.020546 -665142.000000 0 0 1
-25.359363 -13.023647 -11.831006 30.865602 0.474440 1.964171 0.020779 -0.022663 -111720.000000 0 0 1
-26.352143 -12.176847 -11.296506 31.149993 0.432856 1.941905 0.026180 -0.028140 -60045.100000 0 0 1
-27.086333 -12.792547 -10.273206 31.667925 0.441233 1.901178 0.021881 -0.027132 -251861.000000 0 0 1
-27.900943 -11.707947 -9.612706 31.748114 0.397310 1.878405 0.022721 -0.022193 -404429.000000 0 0 1
-27.081933 -10.791447 -8.897306 30.480297 0.379190 1.867013 0.030118 -0.028572 405820.000000 0 0 1
-27.898123 -9.729447 -8.366206 30.707667 0.335560 1.846731 0.045011 -0.025295 326005.000000 0 0 1
-27.041433 -8.550847 -7.840106 29.424876 0.306264 1.840499 0.034908 -0.018455 241567.000000 0 0 1
-26.263293 -8.823947 -6.668506 28.497220 0.324131 1.806992 0.015510 -0.019092 -38769.500000 0 0 1
-25.577963 -7.735747 -6.159206 27.422797 0.293692 1.797331 0.017305 -0.020752 -191659.000000 0 0 1
-26.425693 -6.615847 -5.432206 27.777609 0.245314 1.767625 0.024592 -0.022483 -437598.000000 0 0 1
-27.133863 -7.097747 -4.297106 28.374102 0.255850 1.722826 0.026431 -0.019927 309650.000000 0 0 1
-26.416973 -7.168547 -3.025106 27.538987 0.264980 1.680867 0.027716 -0.009561 377569.000000 0 0 1
-25.858383 -5.860647 -2.370306 26.619946 0.222879 1.659957 0.025907 -0.010155 225054.000000 0 0 1
-26.906693 -5.025947 -1.899106 27.437873 0.184664 1.640066 0.023644 -0.009151 266679.000000 0 0 1
-26.465663 -3.878447 -1.122806 26.771895 0.145511 1.612748 0.006220 -0.006788 -783453.000000 0 0 1
-27.585303 -3.068447 -0.497506 27.759896 0.110779 1.588719 0.006658 -0.010167 -390061.000000 0 0 1
-28.307953 -3.520047 0.666994 28.533766 0.123713 1.547419 0.004015 -0.002981 47705.400000 0 0 1
-27.512713 -3.753247 1.791094 27.825245 0.135582 1.506382 -0.000713 0.002270 -683550.000000 0 0 1
-28.308203 -4.036947 3.048294 28.756624 0.141652 1.464594 0.001795 0.003263 -377637.000000 0 0 1
-28.826693 -5.345047 2.930394 29.464130 0.183338 1.471175 0.012920 0.003492 234206.000000 0 0 1
-29.795323 -5.557747 3.959794 30.566809 0.184412 1.440886 0.035947 0.000548 448954.000000 0 0 1
-30.501693 -6.974147 3.864394 31.526585 0.224784 1.447912 0.029735 0.001407 491457.000000 0 0 1
-29.642263 -8.098147 4.194694 31.013532 0.266688 1.435127 0.030124 0.007446 615570.000000 0 0 1
-30.231433 -9.318847 3.871994 31.871191 0.299009 1.449007 0.052632 0.006566 -35179.900000 0 0 1
-29.374893 -10.460347 4.452894 31.498118 0.342097 1.428951 0.048066 -0.000327 20028.200000 0 0 1
-29.423423 -10.588847 5.889894 31.820628 0.345448 1.384626 0.019544 0.006092 312713.000000 0 0 1
-28.400113 -11.459747 6.318994 31.270144 0.383529 1.367318 0.006998 0.011447 -109455.000000 0 0 1
-28.518753 -11.867847 7.821494 31.864413 0.394344 1.322800 0.002346 -0.002700 -108176.000000 0 0 1
-28.489963 -10.726347 8.680894 31.655812 0.360081 1.293010 0.017420 -0.005885 412263.000000 0 0 1
-28.728563 -11.139447 10.015294 32.399440 0.369900 1.256529 0.030110 -0.006040 -180601.000000 0 0 1
-28.976593 -9.850747 10.867694 32.477483 0.327698 1.229592 0.030093 -0.006440 -797648.000000 0 0 1
-27.815683 -9.102747 10.900494 31.231282 0.316268 1.214266 0.027695 -0.000835 -447898.000000 0 0 1
-27.828223 -8.078347 11.898094 31.324660 0.282528 1.181182 0.030825 -0.010620 -98508.500000 0 0 1
-26.786863 -6.969547 11.678894 30.041757 0.254542 1.171516 0.028499 -0.008229 -136904.000000 0 0 1
-27.048443 -6.155447 10.594994 29.694472 0.223760 1.205956 0.027546 -0.009955 -241574.000000 0 0 1
-26.095383 -5.154347 10.419994 28.567684 0.195009 1.197435 0.026010 -0.008184 -572558.000000 0 0 1
-26.387913 -4.146147 9.285994 28.279713 0.155849 1.236227 0.027034 -0.007972 -308945.000000 0 0 1
-26.255143 -4.737247 7.987894 27.849246 0.178511 1.279884 0.009161 0.002870 235775.000000 0 0 1
-26.575643 -3.815647 6.967794 27.737594 0.142602 1.316872 -0.002470 -0.002532 -168686.000000 0 0 1
-25.837953 -4.098147 5.653794 26.764903 0.157299 1.357954 -0.006661 0.009437 -282746.000000 0 0 1
-24.450463 -3.884147 5.653894 25.394453 0.157541 1.346272 0.025196 -0.002880 433941.000000 0 0 1
-23.727763 -4.173847 4.465594 24.502434 0.174124 1.387521 0.033437 -0.002046 -475916.000000 0 1 0
-22.297563 -3.674747 4.452394 23.032779 0.163337 1.376265 0.035721 0.000301 -534335.000000 0 1 0
-22.277263 -2.284547 4.465994 22.835076 0.102193 1.373952 0.022372 0.000400 779118.000000 0 1 0
-20.970863 -1.883247 4.893194 21.616361 0.089563 1.342452 0.025507 -0.000894 447677.000000 0 1 0
-20.812263 -0.313047 5.043494 21.416935 0.015040 1.333073 0.026109 -0.002133 -193100.000000 0 1 0
-20.740363 0.471753 3.843294 21.098723 -0.022742 1.387616 0.020270 -0.003981 910055.000000 0 1 0
-22.029563 0.678353 3.269594 22.281204 -0.030783 1.423522 0.012495 -0.000328 282348.000000 0 1 0
-21.946063 1.874953 2.271994 22.142879 -0.085228 1.468009 0.027524 0.000582 -158785.000000 0 1 0
-21.671363 3.138453 2.899894 22.088623 -0.143820 1.439132 0.025787 0.002717 177853.000000 0 1 0
-21.837663 4.224553 1.942094 22.327161 -0.191092 1.483703 0.043455 -0.002638 297778.000000 0 1 0
-20.561263 4.604153 1.130094 21.100732 -0.220290 1.517214 0.036623 -0.001870 36522.600000 0 1 0
-20.828063 5.356553 -0.063406 21.505927 -0.251724 1.573745 0.046863 0.006191 779073.000000 0 1 0
-21.583963 4.663653 -1.107306 22.109800 -0.212799 1.620899 0.050804 -0.003346 254574.000000 0 1 0
-20.937263 3.422153 -1.773906 21.289126 -0.162015 1.654218 0.038058 -0.000291 -468854.000000 0 1 0
-20.652063 2.321553 -0.954606 20.804052 -0.111943 1.616698 0.003759 0.000419 400564.000000 0 1 0
-20.401163 1.104953 -1.647606 20.497390 -0.054108 1.651264 0.012391 0.002457 -468329.000000 0 1 0
-19.598263 0.093653 -0.852206 19.617006 -0.004779 1.614252 0.012271 0.001096 -96969.100000 0 1 0
-20.403663 -0.641647 0.117194 20.414086 0.031437 1.565055 0.016360 -0.000337 1206560.000000 0 1 0
-19.661863 -1.471147 1.055694 19.745066 0.074683 1.517305 0.013177 -0.003312 -74868.100000 0 1 0
-18.734763 -2.597547 0.490794 18.920346 0.137770 1.544853 -0.009635 -0.004475 108117.000000 0 1 0
-18.049163 -3.337647 1.496894 18.416103 0.182854 1.489425 -0.003982 -0.004285 323288.000000 0 1 0
-17.528563 -4.557147 1.040794 18.141151 0.254353 1.513393 0.000699 -0.001863 -770636.000000 0 1 0
-18.583163 -5.592047 0.692494 19.418663 0.292301 1.535128 0.000220 -0.000989 -548705.000000 0 1 0
-19.045663 -6.158947 1.879794 20.104814 0.312764 1.477160 0.010699 -0.002609 -136592.000000 0 1 0
-19.954863 -7.169947 1.616994 21.265450 0.344943 1.494684 -0.011041 -0.001600 -64337.000000 0 1 0
-20.869963 -7.600047 2.881994 22.396918 0.349235 1.441760 0.008321 0.001705 332318.000000 0 1 0
-20.115863 -8.154947 3.920794 22.057283 0.385152 1.392092 0.007862 0.000549 113142.000000 0 1 0
-20.883663 -8.709547 4.964494 23.165271 0.395118 1.354813 0.018561 0.004122 53869.800000 0 1 0
-19.990663 -9.535847 5.922594 22.926755 0.445091 1.309507 0.007867 0.013802 4270.920000 0 1 0
-19.596563 -10.725247 5.292994 22.958048 0.500770 1.338153 0.004834 0.007486 322690.000000 0 1 0
-18.489763 -11.234547 6.034194 22.461030 0.545996 1.298803 0.007933 0.005158 246458.000000 0 1 0
-17.915163 -12.553847 5.399994 22.532467 0.611222 1.328787 0.001593 0.004458 116759.000000 0 1 0
-18.683063 -13.730747 5.645694 23.863447 0.633786 1.331948 0.007856 0.009549 354192.000000 0 1 0
-18.007363 -14.846647 5.069294 23.882751 0.689488 1.356912 0.002433 0.009762 -26426.800000 0 1 0
-18.795063 -16.203047 5.265194 25.367605 0.711472 1.361721 0.014338 0.005405 -450046.000000 0 0 1
-18.185563 -17.330347 4.744294 25.564897 0.761323 1.384136 0.015550 -0.001515 -313947.000000 0 0 1
-18.535363 -18.517247 5.418094 26.754511 0.784909 1.366875 0.014935 -0.002847 -309437.000000 0 0 1
-17.594863 -19.690947 5.117294 26.897942 0.841556 1.379381 0.012604 -0.009603 -640803.000000 0 0 1
-17.553263 -20.179347 3.768194 27.009672 0.854883 1.430827 0.013748 -0.010490 -114798.000000 0 0 1
-16.822463 -21.349547 3.657994 27.425888 0.903444 1.437020 0.006747 -0.010394 358525.000000 0 0 1
-15.262263 -21.239047 3.680494 26.411736 0.947700 1.430991 0.016304 -0.006879 544355.000000 0 0 1
-14.627763 -22.540347 3.857994 27.146322 0.995153 1.428195 0.014901 -0.011180 -346671.000000 0 0 1
-13.263363 -22.373447 4.128494 26.335003 1.035675 1.413379 0.008051 -0.004922 -394856.000000 0 0 1
-12.633063 -23.776847 4.326294 27.269938 1.082409 1.411476 0.010410 -0.007412 -459594.000000 0 0 1
-12.705463 -24.649347 3.250394 27.921034 1.094867 1.454118 0.008814 -0.012339 -298748.000000 0 0 1
-12.060763 -25.823857 3.531294 28.719394 1.133863 1.447526 0.015363 -0.013934 -462853.000000 0 0 1
18.188337 19.536053 -24.946106 36.534658 0.821108 2.322394 0.017025 0.005290 -1017290.000000 0 0 1
17.260537 19.916853 -25.872346 36.932174 0.856727 2.346946 0.005998 0.000512 -778230.000000 0 0 1
17.509037 19.449653 -27.197946 37.743657 0.837858 2.375459 0.016161 -0.004212 -301656.000000 0 0 1
16.386637 19.749853 -28.198306 38.127720 0.878201 2.403235 0.011583 0.001622 -132808.000000 0 0 1
16.378237 21.094553 -28.646096 39.164086 0.910600 2.391225 0.008019 0.015305 652362.000000 0 0 1
15.415637 21.248653 -29.718546 39.652732 0.943169 2.418058 0.005584 0.012631 415951.000000 0 0 1
15.214537 22.766753 -30.030006 40.639986 0.981679 2.402274 0.005892 0.003758 -253229.000000 0 0 1
14.527937 23.364853 -28.912386 39.911194 1.014512 2.380986 0.005864 0.002613 491158.000000 0 0 1
14.368937 24.780453 -29.156716 40.873602 1.045325 2.365047 0.005998 0.004123 -164082.000000 0 0 1
13.535037 25.537853 -28.107386 40.316304 1.083439 2.342241 0.006383 0.001941 -137306.000000 0 0 1
12.175437 25.159553 -28.088116 39.625581 1.120088 2.358646 0.015406 -0.008202 -356534.000000 0 0 1
11.592637 26.006953 -27.124746 39.325599 1.151481 2.331937 0.025389 -0.001455 -136169.000000 0 0 1
10.108937 25.669253 -26.748166 38.426105 1.195633 2.340738 0.033606 -0.002582 1211170.000000 0 0 1
9.448837 26.605753 -25.839686 38.273176 1.229547 2.311948 0.039590 -0.012355 229403.000000 0 0 1
9.222437 27.864553 -26.360266 39.450606 1.251171 2.302562 0.052270 -0.018661 -326140.000000 0 0 1
8.675537 28.985953 -25.364896 39.482001 1.279981 2.268477 0.062524 -0.016935 -20785.100000 0 0 1
9.693337 29.298553 -24.473806 39.386967 1.251285 2.241284 0.048561 -0.014711 -176364.000000 0 0 1
9.218237 30.256053 -23.550106 39.433643 1.275057 2.210813 0.052288 -0.018442 -249506.000000 0 0 1
10.176237 30.652053 -22.421706 39.317135 1.250253 2.177641 0.028531 -0.010324 220646.000000 0 0 1
11.291037 31.451053 -22.850806 40.482288 1.226123 2.170580 0.024149 -0.017613 422192.000000 0 0 1
12.092537 31.678553 -21.710206 40.262802 1.206142 2.140298 -0.004912 -0.002611 8178.140000 0 0 1
13.384437 32.489153 -22.015806 41.465455 1.180017 2.130510 -0.014909 0.010325 206287.000000 0 0 1
14.418837 31.661853 -22.462606 41.411888 1.143460 2.144110 -0.011760 0.001746 -840206.000000 0 0 1
15.480237 32.290853 -23.099506 42.613661 1.123764 2.143693 -0.017339 0.007483 -245322.000000 0 0 1
16.574537 31.311653 -23.562006 42.547656 1.083952 2.157692 -0.028166 0.011344 213714.000000 0 0 1
17.428137 30.927153 -22.470006 42.013450 1.057631 2.135102 -0.010464 0.010158 736733.000000 0 0 1
18.673337 30.405653 -22.969806 42.435943 1.020044 2.142757 -0.017931 0.012421 339088.000000 0 0 1
19.589337 29.866553 -21.884806 41.889114 0.990288 2.120514 0.000331 0.012985 -308532.000000 0 0 1
20.141837 30.888753 -21.017306 42.444503 0.992963 2.088828 0.001751 0.012995 -58774.900000 0 0 1
21.046637 30.132853 -20.245706 41.962345 0.961104 2.074272 0.014141 0.003719 -65897.400000 0 0 1
21.805437 30.964853 -19.195806 42.459136 0.957257 2.039915 0.029311 -0.002142 -1108390.000000 0 0 1
22.714237 31.848253 -19.621106 43.763405 0.951265 2.035709 0.021526 0.001980 -1129510.000000 0 0 1
23.171837 32.524153 -18.492606 44.008307 0.951763 2.004470 0.035700 -0.001307 269130.000000 0 0 1
24.471937 33.374653 -18.649406 45.393210 0.938102 1.994173 0.039149 -0.008104 436572.000000 0 0 1
25.558937 32.630353 -19.123606 45.647689 0.906330 2.003073 0.042272 -0.007739 -588813.000000 0 0 1
26.761837 33.379653 -19.115106 46.859198 0.894995 1.990978 0.034076 -0.010246 36494.800000 0 0 1
27.909937 32.512353 -19.619206 47.126754 0.861422 2.000176 0.004292 -0.000451 -285757.000000 0 0 1
28.277437 31.471753 -18.719506 46.265588 0.838809 1.987348 0.016656 0.004669 -143388.000000 0 0 1
29.481437 30.855953 -19.117906 46.762585 0.808175 1.991967 -0.001963 0.011767 -39859.300000 0 0 1
29.763137 29.498653 -18.404406 45.768297 0.780935 1.984629 -0.015286 0.010945 -653634.000000 0 0 1
30.072437 29.633853 -17.020106 45.521432 0.778053 1.953998 -0.016807 0.014568 -60622.700000 0 0 1
30.302537 28.433253 -16.302306 44.636967 0.753584 1.944665 -0.021398 0.009349 -385127.000000 0 0 1
30.681837 28.749253 -14.804806 44.576642 0.752892 1.909347 -0.016859 0.010413 -410418.000000 0 0 1
31.913337 29.400653 -14.634106 45.793193 0.744440 1.896071 -0.002792 0.010090 -408352.000000 0 0 1
31.839637 30.775253 -14.915206 46.726246 0.768401 1.895686 -0.006477 0.006572 -533267.000000 0 0 1
33.190037 31.477953 -15.017306 48.145193 0.758929 1.888006 0.001521 0.004020 158704.000000 0 0 1
34.014837 31.600053 -13.866106 48.454529 0.748612 1.861021 0.004743 -0.002195 84968.800000 0 0 1
35.278637 32.148653 -14.214306 49.801251 0.739011 1.860242 0.021374 -0.009810 636051.000000 0 0 1
-34.416165 32.540853 -12.954506 49.103959 -0.757398 1.837775 0.022092 -0.003053 188992.000000 0 0 1
-34.878765 33.604853 -12.131606 49.929854 -0.766799 1.816226 0.023597 -0.009071 414247.000000 0 0 1
-33.925765 33.847753 -11.099106 49.191647 -0.784247 1.798386 0.032789 -0.003694 374475.000000 0 0 1
-34.440965 -34.109018 -10.252006 49.545018 0.780556 1.779225 0.033684 -0.000537 298242.000000 0 0 1
-33.467865 -33.488818 -9.416106 48.272787 0.785711 1.767115 0.041587 -0.005018 -4704.000000 0 0 1
-33.208765 -34.187018 -8.186906 48.359070 0.799912 1.740910 0.029128 -0.006850 419652.000000 0 0 1
-32.708865 -33.272118 -6.986206 47.177439 0.793935 1.719427 0.033862 -0.000562 -108371.000000 0 0 1
-33.783765 -32.385518 -6.710806 47.277896 0.764270 1.713221 0.030983 0.001788 99976.800000 0 0 1
-33.568765 -31.621018 -5.548606 46.449303 0.755529 1.690537 0.035489 0.005032 -172019.000000 0 0 1
-34.797565 -30.768918 -5.227006 46.743111 0.724032 1.682855 0.030374 0.006178 149447.000000 0 0 1
34.696437 -31.548118 -4.696306 47.129415 -0.737908 1.670609 0.024357 0.004803 954319.000000 0 0 1
33.508437 -30.819718 -4.319706 45.731064 -0.743626 1.665396 0.018488 0.010775 700719.000000 0 0 1
33.582937 -29.988118 -2.991006 45.122577 -0.728910 1.637131 0.021280 0.009218 -605795.000000 0 0 1
34.168937 -28.769718 -3.226306 44.784171 -0.699822 1.642900 0.032958 0.005270 -31550.300000 0 0 1
33.571437 -27.798318 -2.359706 43.650384 -0.691603 1.624882 0.025712 0.001165 -147481.000000 0 0 1
33.815237 -26.264318 -2.659806 42.899408 -0.660372 1.632837 0.041412 -0.009104 -18405.600000 0 0 1
33.118737 -25.842518 -3.828106 42.182234 -0.662612 1.661673 0.044041 -0.014211 488938.000000 0 0 1
33.160337 -24.415218 -3.980606 41.370956 -0.634661 1.667163 0.037532 -0.021910 -462508.000000 0 0 1
32.763837 -23.992818 -5.396006 40.966342 -0.632074 1.702898 0.044817 -0.026808 -899574.000000 0 0 1
33.766037 -23.975918 -6.343306 41.895434 -0.617446 1.722789 0.051275 -0.020881 -394811.000000 0 0 1
33.174837 -23.727018 -7.567006 41.482536 -0.620862 1.754238 0.042564 -0.020730 -12742.100000 0 0 1
34.221837 -23.445418 -8.675706 42.380297 -0.600657 1.776965 0.044888 -0.019849 163580.000000 0 0 1
35.036337 -24.542818 -9.005506 43.714917 -0.611059 1.778287 0.041583 -0.002219 -290363.000000 0 0 1
-34.459865 -24.122218 -9.808406 43.192227 0.610732 1.799882 0.046107 0.001782 133837.000000 0 0 1
-33.823065 -25.281018 -10.610006 43.539658 0.641867 1.816961 0.044942 -0.005807 33080.900000 0 0 1
-33.113165 -26.315118 -9.940106 43.448508 0.671502 1.801620 0.038579 0.005222 215432.000000 0 0 1
-33.959265 -27.356218 -9.428006 44.614814 0.678122 1.783722 0.039959 0.003083 39086.800000 0 0 1
-33.275965 -28.559418 -8.749606 44.715610 0.709270 1.767739 0.033237 0.005457 -503455.000000 0 0 1
-32.520865 -29.303318 -9.649206 44.826312 0.733402 1.787752 0.026044 -0.001633 -262545.000000 0 0 1
-31.891665 -30.366418 -8.974006 44.941411 0.760904 1.771830 0.026025 -0.004801 -260835.000000 0 0 1
-31.336365 -31.341118 -10.008906 45.435797 0.785474 1.792905 0.021255 -0.002859 230711.000000 0 0 1
-30.087465 -30.997418 -10.624006 44.485559 0.800294 1.811946 -0.002680 0.015468 622444.000000 0 0 1
-29.823265 -31.767718 -11.848406 45.155285 0.816958 1.836297 -0.009026 0.013074 -3493.050000 0 0 1
-30.181865 -31.139118 -13.166106 45.320370 0.801007 1.865558 -0.015338 0.018058 50418.200000 0 0 1
-29.123765 -30.259818 -13.590906 44.142530 0.804527 1.883768 -0.023306 0.018904 481415.000000 0 0 1
-29.536265 -29.543118 -14.730806 44.296539 0.785514 1.909802 -0.025445 0.027701 52476.800000 0 0 1
-28.549665 -28.454918 -15.193406 43.076737 0.783736 1.931257 -0.021518 0.011415 558823.000000 0 0 1
-27.310065 -29.019118 -15.597806 42.792995 0.815729 1.943886 -0.013269 0.008868 -152179.000000 0 0 1
-26.264365 -28.131918 -15.848506 41.622071 0.819717 1.961427 -0.003003 0.021739 -125926.000000 0 0 1
-25.061665 -28.780218 -16.568806 41.604246 0.854353 1.980402 0.013018 0.016619 -385971.000000 0 0 1
-25.295365 -29.336418 -17.839806 42.646683 0.859233 2.002387 0.005763 0.011407 -250350.000000 0 0 1
-25.394565 -28.517418 -19.030406 42.664779 0.843259 2.033138 0.003130 0.010464 56663.700000 0 0 1
-24.091265 -27.845318 -19.521006 41.675178 0.857554 2.058285 0.016907 0.007140 155154.000000 0 0 1
-23.690065 -26.771318 -18.709206 40.347949 0.846384 2.052959 0.013806 0.008318 -457857.000000 0 0 1
-22.357965 -26.396618 -18.944606 39.440564 0.868046 2.071831 0.009075 0.002962 -158590.000000 0 0 1
-21.974365 -25.170618 -18.091006 37.996279 0.853091 2.067040 0.011471 0.004636 -267530.000000 0 0 1
-22.201165 -25.449218 -16.759106 37.701751 0.853457 2.031432 0.019568 0.011571 48022.500000 0 0 1
-21.843665 -24.425818 -15.936606 36.438190 0.841147 2.023457 0.025927 0.008044 -52392.400000 0 0 1
-22.325465 -24.701318 -14.475906 36.306106 0.835877 1.980915 0.013897 0.018041 203752.000000 0 0 1
-23.732365 -24.600718 -14.387006 37.086472 0.803362 1.969182 -0.012038 0.029322 -234798.000000 0 0 1
-24.118965 -24.564318 -13.045906 36.814750 0.794546 1.933033 -0.023289 0.031697 69834.400000 0 0 1
-25.624465 -24.313318 -12.781506 37.564844 0.759149 1.917981 -0.028188 0.038586 -444507.000000 0 0 1
-26.328165 -25.500618 -13.094006 38.921803 0.769433 1.913907 -0.017767 0.031902 404876.000000 0 0 1
-27.597565 -25.614318 -12.441506 39.654885 0.748145 1.889931 -0.015091 0.027621 870084.000000 0 0 1
-28.807165 -24.856218 -13.105106 40.242119 0.711906 1.902502 -0.014632 0.019326 -534510.000000 0 0 1
-28.782365 -23.449018 -12.854706 39.287713 0.683641 1.904129 -0.010078 0.022030 -210249.000000 0 0 1
-29.079165 -22.962118 -11.536106 38.806422 0.668393 1.872632 0.010770 0.012414 -912802.000000 0 0 1
-30.482465 -23.342018 -10.976706 39.931423 0.653507 1.849271 -0.000764 0.009648 311510.000000 0 0 1
-31.585065 -22.624218 -11.525706 40.525467 0.621579 1.859184 0.033171 -0.004532 232464.000000 0 0 1
-31.779565 -22.653818 -12.921206 41.110750 0.619293 1.890518 0.034744 -0.000100 -1794640.000000 0 0 1
-33.193265 -22.289818 -13.402106 42.169245 0.591353 1.894223 0.024778 -0.012717 -155909.000000 0 0 1
-34.071265 -23.349718 -13.094006 43.330283 0.600805 1.877786 0.028593 -0.006818 91800.700000 0 0 1
35.185537 -23.032918 -13.536406 44.178859 -0.579611 1.882205 0.042889 -0.021726 274019.000000 0 0 1
34.065637 -24.079118 -13.430906 43.825344 -0.615305 1.882273 0.034871 -0.003723 -78870.100000 0 0 1
34.281437 -25.267118 -14.138006 44.872345 -0.635161 1.891329 0.024563 0.005140 24783.700000 0 0 1
33.371737 -26.286818 -13.732006 44.645690 -0.667194 1.883442 0.020970 -0.001430 363250.000000 0 0 1
33.332937 -27.590818 -14.551306 45.651708 -0.691425 1.895203 0.009273 0.001098 331696.000000 0 0 1
32.756137 -27.364118 -15.843106 45.527612 -0.695950 1.926221 0.020924 -0.014510 -136282.000000 0 0 1
32.609037 -28.557518 -16.560706 46.401919 -0.719257 1.935740 0.005527 -0.000253 275415.000000 0 0 1
31.656737 -28.392918 -17.790706 46.095726 -0.731100 1.967035 0.001208 -0.008073 518370.000000 0 0 1
30.285337 -28.226818 -17.490506 44.942994 -0.750232 1.970528 0.025198 -0.012633 -102045.000000 0 0 1
29.471537 -28.208518 -18.629806 44.848207 -0.763505 1.999175 0.017323 -0.009041 34838.000000 0 0 1
27.964037 -28.350018 -18.330506 43.837408 -0.792252 2.002201 0.028281 -0.015159 48048.200000 0 0 1
27.459037 -27.436018 -17.400106 42.538188 -0.784979 1.992205 0.019757 -0.016367 -885376.000000 0 0 1
26.065237 -27.517218 -17.447606 41.725446 -0.812490 2.002207 0.036530 -0.015295 -459664.000000 0 0 1
25.409637 -26.731718 -16.301106 40.323200 -0.810748 1.986967 0.034805 -0.019155 -162913.000000 0 0 1
25.581337 -25.336618 -16.458106 39.588108 -0.780592 1.999546 0.024210 -0.018074 -190689.000000 0 0 1
25.006137 -24.683118 -15.380006 38.355023 -0.778897 1.983394 0.017576 -0.011250 -230756.000000 0 0 1
25.110537 -23.155718 -15.356206 37.450493 -0.744920 1.993294 0.010246 -0.008370 -568601.000000 0 0 1
24.025337 -22.590518 -15.996806 36.653051 -0.754628 2.022433 0.023324 -0.001215 -654775.000000 0 0 1
24.059337 -21.219818 -16.080206 35.884612 -0.722769 2.035445 0.016248 -0.006579 -686524.000000 0 0 1
22.695637 -20.562918 -16.210706 34.651299 -0.736136 2.057623 0.026721 -0.000352 -483932.000000 0 0 1
21.901137 -20.762218 -15.046106 33.721133 -0.758709 2.033302 0.028691 -0.008633 -651425.000000 0 0 1
20.644137 -20.201018 -15.189806 32.634211 -0.774550 2.054947 0.028309 -0.013713 -531322.000000 0 0 1
20.319437 -18.964818 -14.249606 31.234518 -0.750929 2.044532 0.015851 -0.006848 -81323.300000 0 0 1
19.998337 -19.270018 -12.933506 30.635643 -0.766853 2.006636 0.007639 -0.016141 267527.000000 0 0 1
19.248437 -18.234818 -12.299006 29.228008 -0.758363 2.005118 -0.002010 -0.021762 -364406.000000 0 0 1
18.485637 -18.694018 -11.020506 28.506782 -0.791003 1.967730 -0.005669 0.000624 -380454.000000 0 0 1
19.226537 -18.830018 -9.866606 28.663203 -0.774979 1.922210 0.000062 -0.022750 -248242.000000 0 0 1
18.332837 -19.125518 -8.831306 27.926158 -0.806557 1.892557 -0.002716 -0.028082 -357714.000000 0 0 1
18.991637 -19.754218 -7.568106 28.428641 -0.805077 1.840260 -0.004283 -0.024679 -423416.000000 0 0 1
19.858737 -18.784418 -7.029306 28.224722 -0.757604 1.822493 -0.010135 -0.021322 -273416.000000 0 0 1
20.636937 -19.422618 -6.043306 28.976590 -0.755095 1.780897 -0.004411 -0.012890 -403362.000000 0 0 1
21.893537 -18.585818 -5.716506 29.282043 -0.703866 1.767280 -0.004917 -0.018771 -128941.000000 0 0 1
22.747437 -18.514218 -6.855306 30.120049 -0.683161 1.800408 -0.005512 -0.031049 564301.000000 0 0 1
23.755137 -17.513918 -6.733506 30.271834 -0.635303 1.795107 0.018043 -0.027722 205586.000000 0 0 1
24.908537 -17.524918 -7.784806 31.435031 -0.613118 1.821048 0.038242 -0.036512 881170.000000 0 0 1
25.915037 -18.542618 -7.773606 32.800103 -0.621064 1.810072 0.047161 -0.042873 790655.000000 0 0 1
25.395937 -19.690818 -8.401006 33.215340 -0.659531 1.826499 0.047141 -0.046875 -670112.000000 0 0 1
26.283137 -20.872018 -8.129106 34.532981 -0.671147 1.808428 0.046538 -0.051407 -533319.000000 0 0 1
27.574637 -20.716418 -8.641706 35.555726 -0.644323 1.816302 0.054305 -0.042027 -684281.000000 0 0 1
28.337137 -21.832818 -8.325506 36.728454 -0.656472 1.799461 0.046329 -0.037775 -561350.000000 0 0 1
-29.056243 30.314853 4.105994 42.191407 -0.806594 1.473324 -0.008641 0.010401 105738.000000 0 0 1
-28.360923 31.164953 3.264594 42.264097 -0.832469 1.493477 -0.021916 0.016141 -577103.000000 0 0 1
-27.345623 31.848853 3.934294 42.161727 -0.861327 1.477346 -0.006574 0.010513 -285351.000000 0 0 1
-26.833113 33.125853 3.277794 42.756076 -0.889966 1.494058 -0.005869 0.004175 -722953.000000 0 0 1
-26.026883 32.870153 2.181694 41.983395 -0.901070 1.518807 -0.001433 0.013053 -225321.000000 0 0 1
-25.507183 34.037353 1.560094 42.562797 -0.927687 1.534134 0.000281 -0.002548 1226700.000000 0 0 1
-24.101463 -34.548318 2.052894 42.174414 0.961672 1.522101 0.005314 -0.008323 2086740.000000 0 0 1
-22.906263 33.847153 1.676094 40.903985 -0.975841 1.529809 0.007346 -0.012057 749006.000000 0 0 1
-21.793763 34.266853 2.442994 40.683579 -1.004325 1.510712 0.008251 -0.013353 378743.000000 0 0 1
-20.439863 33.910353 1.796694 39.634936 -1.028349 1.525450 0.013966 -0.014296 64589.200000 0 0 1
-20.047663 34.549653 0.582694 39.949054 -1.045021 1.556210 0.014645 -0.019098 -1119830.000000 0 0 1
-18.752963 34.183753 0.304694 38.990966 -1.069034 1.562982 0.020805 -0.017431 -1275130.000000 0 0 1
-18.184763 -34.203618 -0.937806 38.748581 1.082141 1.595001 0.024272 -0.013160 -20519.000000 0 0 1
-18.044863 -32.814718 -0.811806 37.457734 1.068029 1.592471 0.015210 -0.013730 417761.000000 0 0 1
-17.314363 -32.240618 0.313194 36.597031 1.077961 1.562238 0.014709 -0.012404 10172.000000 0 0 1
-17.131163 -30.703418 0.464294 35.162369 1.061865 1.557592 0.012128 -0.006442 -420298.000000 0 0 1
-16.080163 -30.063218 -0.190006 34.094058 1.079637 1.576369 0.010080 -0.002050 -335986.000000 0 0 1
-16.314863 -28.641318 -0.252106 32.963061 1.053010 1.578445 0.006343 -0.000414 -130013.000000 0 0 1
-15.399263 -27.972918 -1.262006 31.956441 1.067565 1.610298 0.000128 0.004743 -332261.000000 0 0 1
-15.928763 -28.052718 -2.573506 32.362067 1.054378 1.650403 0.010001 0.007677 549404.000000 0 0 1
-14.929263 -27.600018 -3.506906 31.574393 1.074955 1.682094 0.007775 0.020619 643440.000000 0 0 1
-15.485863 -27.637718 -4.970006 32.067996 1.060067 1.726407 0.020114 0.009546 121897.000000 0 0 1
-16.497163 -26.685618 -5.188506 31.799358 1.017099 1.734693 0.031169 0.008093 -577312.000000 0 0 1
-17.032063 -26.775918 -6.488306 32.390416 1.004257 1.772476 0.037519 0.006363 776080.000000 0 0 1
-17.917763 -25.508618 -6.840906 31.914477 0.958448 1.786824 0.026011 0.009472 710871.000000 0 0 1
-17.051663 -24.386618 -6.871606 30.539897 0.960593 1.797744 0.024150 0.023119 129588.000000 0 0 1
-17.639263 -23.261718 -7.464806 30.132614 0.922007 1.821135 0.001316 0.022190 19032.600000 0 0 1
-16.762163 -21.979818 -7.420506 28.620734 0.919270 1.833063 0.006737 0.018058 590742.000000 0 0 1
-15.601063 -21.976318 -8.259006 28.187992 0.953455 1.868157 0.029654 0.006583 -95398.500000 0 0 1
-14.647763 -21.134218 -7.642306 26.825677 0.964728 1.859686 0.037243 -0.006556 -289171.000000 0 0 1
-13.469363 -20.905518 -8.577506 26.306616 0.998441 1.902928 0.028565 -0.003688 -608829.000000 0 0 1
-13.776663 -20.091118 -9.674006 26.211369 0.969726 1.948812 0.047153 -0.008488 576609.000000 0 0 1
-12.716963 -19.945118 -10.668006 25.948704 1.003189 1.994478 0.043422 -0.008887 1037170.000000 0 0 1
-13.324563 -19.287118 -11.935606 26.305809 0.966236 2.041737 0.052558 -0.009757 204201.000000 0 0 1
-14.425863 -19.952218 -12.576206 27.647016 0.944787 2.043039 0.041348 0.006897 332335.000000 0 0 1
-14.795363 -19.263818 -13.753606 27.913422 0.915850 2.086013 0.038859 -0.004184 999448.000000 0 0 1
-16.064963 -19.856218 -14.505506 29.372813 0.890553 2.087298 0.046872 -0.003398 236224.000000 0 0 1
-17.269163 -19.681518 -13.863406 29.627355 0.850591 2.057739 0.041062 -0.001171 78531.400000 0 0 1
-18.370563 -19.786818 -14.821506 30.800532 0.822497 2.072830 0.024895 0.008466 1204930.000000 0 0 1
-19.814363 -19.683218 -14.262506 31.360120 0.782078 2.042941 0.007385 0.016350 735699.000000 0 0 1
-20.759163 -20.138418 -15.246506 32.694872 0.770221 2.055931 0.006429 0.012011 -52877.000000 0 0 1
-22.064463 -19.690218 -14.937906 33.131348 0.728598 2.038535 -0.020329 0.017306 -935073.000000 0 0 1
-23.077363 -20.393418 -15.811606 34.618825 0.723735 2.045117 -0.020363 0.012160 -734536.000000 0 0 1
-23.111163 -19.905518 -17.160006 34.997447 0.711015 2.083255 -0.014478 -0.010674 227967.000000 0 0 1
-23.797763 -20.817018 -18.024406 36.394519 0.718687 2.088920 -0.012420 -0.006762 146326.000000 0 0 1
-24.119363 -20.284918 -19.477906 37.048757 0.699259 2.124378 -0.012364 -0.007384 -128288.000000 0 0 1
-22.947163 -19.956618 -20.175406 36.495012 0.715807 2.156549 -0.001616 -0.010141 30606.600000 0 0 1
-23.217963 -19.596818 -21.518806 37.231279 0.701022 2.187043 -0.005201 -0.012429 1230470.000000 0 0 1
-21.900063 -18.838018 -22.079806 36.359339 0.710375 2.223412 -0.010970 0.002250 1828130.000000 0 0 1
-20.827863 -19.768918 -22.216406 36.306731 0.759320 2.229268 -0.011972 -0.002738 -174991.000000 0 0 1
-19.705763 -19.118818 -22.786406 35.680059 0.770281 2.263515 -0.015303 -0.006938 218132.000000 0 0 1
-18.490663 -20.077118 -22.802506 35.566130 0.826509 2.266766 0.001205 -0.006991 -87132.600000 0 0 1
-18.654963 -21.083818 -23.807306 36.868996 0.846443 2.272771 -0.005100 -0.004995 85042.900000 0 0 1
-17.487563 -21.882418 -23.777206 36.742490 0.896568 2.274612 -0.004425 0.000018 37657.800000 0 0 1
-17.558463 -23.186218 -24.631606 38.113204 0.922652 2.273489 0.015713 -0.004833 -388172.000000 0 0 1
-17.264463 -22.951018 -25.954326 38.709662 0.925869 2.305661 0.011015 -0.005769 83092.300000 0 0 1
-17.388663 -24.199818 -26.680766 39.998251 0.947732 2.301036 0.018812 -0.008491 -157209.000000 0 0 1
-17.317763 -24.045118 -28.208206 40.911802 0.946629 2.331579 0.023307 -0.004031 49949.100000 0 0 1
-15.950763 -23.869118 -28.579666 40.508752 0.981692 2.353951 0.014838 -0.000796 432273.000000 0 0 1
-15.781663 -23.743818 -30.001336 41.387316 0.984181 2.381674 0.040235 -0.011185 144831.000000 0 0 1
-14.309263 -23.609818 -30.471626 41.118104 1.025924 2.405467 0.004820 -0.014139 130430.000000 0 0 1
-13.573363 -24.736118 -30.102686 41.258738 1.068931 2.388544 0.016520 -0.017122 512960.000000 0 0 1
-12.303663 -24.827418 -30.782126 41.416423 1.110701 2.408689 0.043370 -0.020120 759374.000000 0 0 1
-11.515863 -26.065918 -30.274036 41.576008 1.154784 2.386432 0.026038 -0.014903 -910284.000000 0 0 1
-11.744863 -27.276018 -30.933086 42.880984 1.164198 2.376576 0.021298 -0.003157 574463.000000 0 0 1
-10.711163 -28.256318 -30.746166 43.110036 1.208461 2.364852 0.007131 0.000856 784076.000000 0 0 1
-9.415063 -28.063318 -31.602566 43.300293 1.247103 2.388894 0.015408 -0.005834 327103.000000 0 0 1
-8.712963 -26.939818 -30.962276 41.956311 1.257991 2.400846 0.018214 -0.016490 -299493.000000 0 0 1
-7.698563 -26.531118 -31.848276 42.160180 1.288381 2.427078 0.023855 -0.013602 -421074.000000 0 0 1
-6.948263 -25.278718 -31.391566 40.898929 1.302555 2.445791 0.024514 -0.012442 -958987.000000 0 0 1
-7.723863 -24.141018 -31.481086 40.416650 1.261141 2.463728 0.031186 -0.016206 589486.000000 0 0 1
-8.591163 -23.778818 -30.353966 39.504475 1.224095 2.447083 0.024331 -0.016945 509805.000000 0 0 1
-8.841663 -22.288218 -30.169746 38.537686 1.193141 2.470051 0.035939 -0.023935 217154.000000 0 0 1
-9.600963 -21.821718 -31.295576 39.341822 1.156312 2.490593 0.034644 -0.028547 369790.000000 0 0 1
-10.054763 -20.449818 -31.149916 38.595474 1.113827 2.509998 0.043737 -0.026519 123004.000000 0 0 1
-10.789863 -19.961518 -32.398626 39.554448 1.075250 2.530618 0.034753 -0.023944 -253915.000000 0 0 1
-11.251763 -18.666218 -32.197086 38.880358 1.028330 2.546518 0.032939 -0.021180 -566099.000000 0 0 1
-12.118963 -18.434818 -33.229966 39.886620 0.989240 2.555504 0.027386 -0.015331 -610612.000000 0 0 1
-13.000663 -17.152118 -32.961326 39.365739 0.922219 2.563141 0.041143 -0.016824 -76460.100000 0 0 1
-12.391563 -15.909718 -33.251896 38.889054 0.909074 2.596434 0.039825 -0.015853 76777.700000 0 0 1
-11.484063 -15.486718 -32.229846 37.556426 0.932730 2.602493 0.037667 -0.009679 299149.000000 0 0 1
-11.009063 -14.041318 -32.563966 37.131792 0.905858 2.640344 0.027971 -0.019495 -216598.000000 0 0 1
-10.181463 -13.781718 -33.689856 37.796883 0.934524 2.671088 0.026175 -0.018944 -247674.000000 0 0 1
-10.853963 -13.785018 34.097687 38.346936 0.903802 0.475226 0.029104 -0.014101 -301064.000000 0 0 1
-11.266363 -12.429718 33.528180 37.490901 0.834454 0.463928 0.023521 -0.018308 27299.800000 0 0 1
-12.398063 -11.919018 34.193066 38.274544 0.765701 0.466021 0.002729 -0.006237 -513283.000000 0 0 1
-13.172363 -11.040618 33.447977 37.605499 0.697583 0.474670 0.000033 -0.018418 617026.000000 0 0 1
-14.489963 -10.588218 34.126586 38.557662 0.631052 0.484132 0.019338 -0.017593 450577.000000 0 0 1
-14.104863 -9.628318 -33.939416 37.993890 0.598969 2.675400 0.022160 -0.016302 200968.000000 0 0 1
-15.136163 -9.296018 -33.037436 37.509886 0.550766 2.648274 0.027788 -0.020824 -41831.000000 0 0 1
-14.509463 -8.604518 -31.829526 36.023339 0.535277 2.654251 0.026030 -0.027750 155344.000000 0 0 1
-13.913263 -7.319418 -32.078066 35.723313 0.484289 2.685906 0.012409 -0.021905 491599.000000 0 0 1
-14.863763 -6.260418 -32.282886 36.087519 0.398636 2.678269 0.005230 -0.018779 129447.000000 0 0 1
-15.128863 -5.520718 -30.959426 34.897663 0.349898 2.661926 0.012242 -0.027335 -1598.210000 0 0 1
-15.692563 -6.393518 -29.941716 34.404069 0.386889 2.626599 0.013269 -0.033765 -102513.000000 0 0 1
-15.992963 -5.664918 -28.753446 33.386028 0.340423 2.608505 0.030556 -0.035210 170644.000000 0 0 1
-14.877863 -4.954218 -27.910376 32.013812 0.321444 2.629708 0.021692 -0.036233 311233.000000 0 0 1
-14.383463 -3.819218 -28.602656 32.242555 0.259539 2.661839 0.022801 -0.024748 -59430.900000 0 0 1
-13.260763 -3.232218 -27.972776 31.125091 0.239081 2.687641 0.008585 -0.016985 149097.000000 0 0 1
-12.901663 -1.825218 -28.599696 31.428124 0.140539 2.714088 -0.017356 0.006856 21563.900000 0 0 1
-12.735063 -2.019218 -30.012796 32.665379 0.157247 2.735814 -0.012759 0.004260 130145.000000 0 0 1
-12.604563 -0.826218 -30.690706 33.188509 0.065455 2.751145 -0.017006 0.002020 -78833.900000 0 0 1
-12.696463 -0.911218 -32.200926 34.625571 0.071647 2.765142 -0.017275 0.003493 653154.000000 0 0 1
-13.994763 -1.307218 -32.722626 35.613656 0.093137 2.735883 -0.014046 0.000199 1328240.000000 0 0 1
-13.967563 -1.397218 -34.110042 36.885499 0.099701 2.751187 -0.025849 0.008322 394806.000000 0 0 1
-15.416363 -1.490218 34.348980 37.679403 0.096365 0.423609 -0.019096 0.005845 478802.000000 0 0 1
-15.421963 -1.704218 32.942436 36.413533 0.110059 0.440178 -0.011184 0.002160 -117263.000000 0 0 1
-16.722563 -1.536218 32.456726 36.543716 0.091608 0.477467 -0.002542 0.002886 -421428.000000 0 0 1
-16.691563 -1.701218 30.896816 35.158437 0.101570 0.497480 0.002822 -0.001320 -109833.000000 0 0 1
-16.178763 -0.600218 30.252476 34.312169 0.037082 0.491378 0.002453 0.010106 -117321.000000 0 0 1
-16.334463 -0.687218 28.885406 33.191168 0.042047 0.515038 0.001822 0.000927 -285891.000000 0 0 1
-15.745563 0.523782 28.146656 32.255718 -0.033253 0.510276 -0.007440 -0.001277 -132127.000000 0 0 1
-16.206863 1.837782 28.492346 32.830681 -0.112913 0.519923 -0.011803 -0.000684 586909.000000 0 0 1
-17.547863 2.096782 28.041846 33.146178 -0.118925 0.562348 -0.008887 -0.001604 671481.000000 0 0 1
-17.658563 2.806782 26.704036 32.137337 -0.157629 0.590010 0.002085 -0.007856 -282137.000000 0 0 1
-17.309063 4.184782 26.715466 32.106576 -0.237216 0.587936 -0.013688 -0.001497 400143.000000 0 0 1
-18.086863 4.815782 25.692766 31.787491 -0.260221 0.629594 -0.010643 0.003676 -398863.000000 0 0 1
-17.839263 6.356782 25.740166 31.956285 -0.342309 0.634310 -0.019521 0.008911 -57776.900000 0 0 1
-16.492063 6.698782 25.557966 31.145970 -0.385824 0.608360 -0.028028 0.010561 -277699.000000 0 0 1
-16.012063 6.562782 24.202076 29.752257 -0.388982 0.620731 -0.019322 0.004538 -197828.000000 0 0 1
-14.932663 7.671782 23.983746 29.275600 -0.474594 0.610712 -0.017354 0.009215 -580178.000000 0 0 1
-13.751163 7.393782 24.649046 29.177697 -0.493339 0.564622 -0.021090 0.002247 -900617.000000 0 0 1
-12.762763 8.253782 24.107566 28.498909 -0.574058 0.562524 0.003007 0.003528 -763715.000000 0 0 1
-11.374763 7.951782 24.649796 28.288311 -0.610103 0.512793 0.010469 0.002621 -1044160.000000 0 0 1
-10.451963 8.729782 23.937696 27.540260 -0.695856 0.517236 0.014583 -0.000051 -622385.000000 0 0 1
-9.271763 8.913782 24.657866 27.810636 -0.765716 0.480780 0.006721 -0.001890 -644063.000000 0 0 1
-9.147563 10.300782 25.327526 28.831712 -0.844625 0.498165 0.001434 -0.005383 -562133.000000 0 0 1
-10.131263 10.410782 26.341816 30.081858 -0.799004 0.503972 -0.015771 -0.006056 373153.000000 0 0 1
-10.071263 11.640782 27.037966 31.112534 -0.857561 0.517542 -0.008972 -0.007196 -477485.000000 0 0 1
-10.689763 12.849782 26.306426 31.167547 -0.876903 0.566038 -0.022334 -0.002439 1670510.000000 0 0 1
-12.139163 12.831782 26.088876 31.506243 -0.813128 0.595168 -0.020927 0.000009 1922690.000000 0 0 1
-12.632563 12.020782 25.031006 30.506264 -0.760588 0.608476 -0.014074 0.005299 1023830.000000 0 0 1
-14.172063 12.017782 24.641746 30.862439 -0.703327 0.646100 -0.039202 0.010614 1032180.000000 0 0 1
-14.567263 13.164782 23.960796 30.977999 -0.734869 0.686486 -0.012646 0.000561 100096.000000 0 0 1
-15.880363 13.052782 23.424396 31.165099 -0.687979 0.720278 -0.000342 -0.002812 302363.000000 0 0 1
-15.990963 12.243782 22.105796 29.904637 -0.653454 0.738900 0.004358 -0.000444 -419020.000000 0 0 1
-15.982763 10.820782 22.211696 29.426136 -0.595142 0.715403 -0.004484 0.009931 -74671.700000 0 0 1
-15.766463 10.151782 20.981496 28.140064 -0.572064 0.729347 -0.009285 0.005743 -280084.000000 0 0 1
-16.233963 8.697782 20.839796 27.811690 -0.491858 0.723765 -0.008434 0.003685 -97111.600000 0 0 1
-17.607563 8.585782 21.122596 28.808089 -0.453694 0.747755 -0.002233 0.017058 -479886.000000 0 0 1
-17.946163 7.206782 20.970196 28.526332 -0.381866 0.744957 -0.011349 0.016391 -53934.500000 0 0 1
-19.464363 7.003782 21.158896 29.590764 -0.345401 0.774100 -0.017364 0.017711 -61123.000000 0 0 1
-19.834663 7.526782 22.411996 30.860393 -0.362689 0.757962 -0.013389 0.017112 -379118.000000 0 0 1
-21.142563 8.029782 22.453096 31.868902 -0.362965 0.789014 -0.015233 0.016816 -430619.000000 0 0 1
-21.389663 8.951782 23.687796 33.147606 -0.396361 0.774722 -0.002168 0.003797 -763805.000000 0 0 1
-20.934163 10.286782 23.645296 33.213809 -0.456734 0.778580 0.000147 0.010128 541655.000000 0 0 1
-19.544963 10.612782 23.568096 32.405121 -0.497448 0.756423 -0.001196 0.010345 541708.000000 0 0 1
-18.682763 10.083782 24.732106 32.594561 -0.494930 0.709358 -0.004970 0.004995 -817947.000000 0 0 1
-19.049363 10.739782 25.935526 33.924514 -0.513367 0.700520 -0.001674 0.006322 358998.000000 0 0 1
-18.674363 9.901782 27.018466 34.304149 -0.487541 0.663867 -0.016863 0.011336 -187872.000000 0 0 1
-29.870443 -13.943247 21.045396 39.109669 0.436729 1.002600 0.024184 -0.000755 -92925.900000 0 0 1
-29.562743 -15.268847 21.400396 39.560971 0.476752 0.999233 0.027958 -0.007520 4208.880000 0 0 1
-30.515243 -16.192047 20.907096 40.379068 0.487844 1.026553 0.016760 0.000918 -26699.300000 0 0 1
-30.461163 -16.600047 19.386896 39.740354 0.498964 1.061184 0.005192 0.001292 45073.600000 0 0 1
-30.610033 -15.497947 18.540996 38.999090 0.468677 1.075354 0.007978 -0.007962 -614602.000000 0 0 1
-29.711793 -15.536647 17.518896 37.829747 0.481809 1.089308 0.011116 -0.009729 -1289820.000000 0 0 1
-30.000473 -14.356147 16.560596 37.153475 0.446325 1.108801 0.006142 -0.007489 -2313.720000 0 0 1
-31.157013 -14.540147 15.759196 37.822316 0.436633 1.141024 0.027634 -0.004782 1464480.000000 0 0 1
-32.465693 -14.365047 16.382996 39.099595 0.416573 1.138445 0.017457 0.000098 754634.000000 0 0 1
-32.878963 -13.017047 16.958496 39.218112 0.376974 1.123627 0.012184 -0.000341 660888.000000 0 0 1
-34.258180 -13.011447 17.450396 40.588631 0.362977 1.126378 0.000006 0.003146 1783900.000000 0 0 1
-34.664868 -11.760547 18.022196 40.801508 0.327079 1.113299 0.005043 0.003751 -164440.000000 0 0 1
34.804622 -11.911047 19.059196 41.430516 -0.329732 1.092770 0.001725 0.018330 -594041.000000 0 0 1
35.261279 -12.484847 20.258996 42.540053 -0.340293 1.074430 -0.007112 0.017781 10715.200000 0 0 1
34.445569 -12.092747 21.332596 42.282519 -0.337626 1.041964 -0.007220 0.014224 -1557400.000000 0 0 1
34.891076 -12.620947 22.730496 43.512652 -0.347081 1.021147 -0.005327 0.010253 -366676.000000 0 0 1
-34.560686 -12.038747 23.324996 43.398478 0.335192 1.003373 -0.004271 0.010002 316025.000000 0 0 1
-33.327713 -12.482447 22.747296 42.237275 0.358364 1.002069 0.001122 0.001197 12780.600000 0 0 1
-32.095773 -11.590347 23.034596 41.171196 0.346545 0.977034 0.013920 -0.002643 116599.000000 0 0 1
-32.136703 -10.441847 22.245696 40.455789 0.314159 0.988580 0.016647 -0.001260 258030.000000 0 0 1
-30.890963 -9.778447 22.349396 39.361976 0.306568 0.966976 0.020937 -0.007055 -96149.600000 0 0 1
-30.951653 -8.400647 21.620396 38.678382 0.265027 0.977643 0.017835 0.004728 -41115.400000 0 0 1
-30.951583 -8.366447 20.194896 37.892371 0.263998 1.008708 0.020116 0.004282 24917.400000 0 0 1
-32.157623 -8.766747 19.585496 38.659543 0.266150 1.039542 0.014142 0.000561 -275024.000000 0 0 1
-32.233913 -8.432047 18.071796 37.904015 0.255856 1.073811 0.022352 -0.010183 -991364.000000 0 0 1
-33.541113 -8.413347 17.627096 38.813724 0.245766 1.099383 0.027203 -0.003894 -665335.000000 0 0 1
-33.708033 -8.239747 16.204796 38.297785 0.239743 1.133903 0.037261 -0.008923 -837144.000000 0 0 1
-35.184381 -8.082947 15.913696 39.452762 0.225813 1.155610 0.021421 -0.007705 -839383.000000 0 0 1
34.753347 -9.343847 16.000596 39.384282 -0.262651 1.152430 0.009826 0.017136 630788.000000 0 0 1
33.330619 -9.149747 15.887796 38.040374 -0.267915 1.139932 0.003325 0.010905 807243.000000 0 0 1
32.522139 -10.442147 16.016096 37.725896 -0.310681 1.132344 -0.004596 0.007569 -379096.000000 0 0 1
32.377149 -11.032647 17.290896 38.327198 -0.328414 1.102755 -0.000695 0.004378 -629493.000000 0 0 1
31.212239 -11.779947 17.407896 37.629853 -0.360886 1.089861 -0.007317 -0.002287 -407602.000000 0 0 1
30.827579 -12.293047 18.839496 38.162615 -0.379444 1.054499 -0.006562 -0.003772 -178856.000000 0 0 1
31.543799 -13.429147 19.182496 39.285129 -0.402489 1.060668 -0.004963 0.010711 -226280.000000 0 0 1
31.495129 -13.594247 20.572696 39.999781 -0.407473 1.030582 -0.017201 0.010445 -1062870.000000 0 0 1
31.985509 -14.966247 21.076096 41.124970 -0.437645 1.032715 -0.028564 0.020066 -396951.000000 0 0 1
32.066399 -15.134647 22.491296 41.990116 -0.440980 1.005539 -0.033105 0.017274 -231773.000000 0 0 1
32.540969 -16.398647 22.885596 43.029998 -0.466793 1.010010 -0.036347 0.029437 -92219.200000 0 0 1
32.705809 -16.415947 24.363716 43.962983 -0.465188 0.983410 -0.028690 0.011925 137528.000000 0 0 1
33.744869 -15.517647 24.692496 44.600817 -0.431017 0.984075 -0.010670 0.011023 -76504.200000 0 0 1
34.063789 -15.488847 26.045586 45.591870 -0.426757 0.962735 -0.006551 0.004680 -490585.000000 0 0 1
35.233759 -14.582747 26.372336 46.363502 -0.392419 0.965730 0.005652 -0.000594 -749092.000000 0 0 1
-34.062823 -15.011947 25.960266 45.382484 0.415105 0.961814 0.005206 -0.001332 -56386.400000 0 0 1
-33.106153 -14.020447 26.336416 44.566771 0.400599 0.938569 0.000722 -0.007629 299957.000000 0 0 1
-31.651923 -14.519447 26.175646 43.564011 0.430084 0.926226 0.022251 -0.015310 -699589.000000 0 0 1
-31.322363 -14.616547 24.789216 42.535151 0.436613 0.948634 0.016830 -0.006411 -37514.900000 0 0 1
-29.944153 -14.825547 24.554016 41.465032 0.459725 0.937057 0.041522 -0.021237 -522.900000 0 0 1
-29.366263 -16.177947 24.948306 41.791403 0.503536 0.931075 0.041124 -0.019022 -888072.000000 0 0 1
-29.233533 -16.399147 26.315186 42.614792 0.511227 0.905219 0.040793 -0.022573 30518.200000 0 0 1
-28.917833 -17.749747 26.567226 43.094223 0.550504 0.906517 0.031156 -0.021369 -356849.000000 0 0 1
-28.817643 -18.067147 28.063126 44.095548 0.559998 0.880953 0.028398 -0.020902 -154158.000000 0 0 1
-27.652223 -17.482647 28.582666 43.442573 0.563784 0.852714 0.038038 -0.020220 -125910.000000 0 0 1
-27.542523 -17.832347 29.921716 44.405994 0.574579 0.831428 0.037663 -0.020821 -1230760.000000 0 0 1
-26.289353 -17.276947 30.469176 43.794905 0.581409 0.801369 0.025306 -0.023154 -1347450.000000 0 0 1
-26.410933 -15.937847 30.840016 43.619479 0.542957 0.785515 0.038836 -0.030688 -350959.000000 0 0 1
-25.162413 -15.320647 30.732336 42.571654 0.546916 0.764257 0.041364 -0.030850 -587860.000000 0 0 1
-24.989263 -13.906547 31.304426 42.400736 0.507821 0.740251 0.042678 -0.023851 -178399.000000 0 0 1
-24.734963 -13.907847 32.731016 43.319349 0.512218 0.714265 0.046796 -0.023781 350155.000000 0 0 1
-24.353563 -12.592647 33.189285 43.048803 0.477215 0.690435 0.038879 -0.011326 96969.800000 0 0 1
-23.446963 -12.459047 34.463885 43.505716 0.488429 0.656441 0.031349 -0.005478 467456.000000 0 0 1
-22.086963 -12.854547 34.445931 42.890506 0.527077 0.638294 0.012972 -0.000388 353570.000000 0 0 1
-21.760463 -14.267647 34.426475 43.153976 0.580350 0.647227 0.014759 -0.002978 -52919.200000 0 0 1
-21.995063 -14.942347 -33.249186 42.574228 0.596732 2.467013 0.007048 -0.004313 -709207.000000 0 0 1
-21.003863 -14.687847 -32.292856 41.227705 0.610251 2.470722 -0.008305 -0.000479 -258189.000000 0 0 1
-21.202863 -15.334147 -31.060246 40.613253 0.626135 2.441498 -0.005497 -0.004668 -311775.000000 0 0 1
-19.984863 -15.419747 -30.127656 39.304440 0.657164 2.444202 -0.014012 0.000656 -108182.000000 0 0 1
-19.773063 -14.255947 -29.258426 38.082300 0.624667 2.446969 -0.000194 -0.005021 559717.000000 0 0 1
-20.623063 -14.238247 -28.096266 37.648885 0.604257 2.413238 0.001656 0.004236 94748.000000 0 0 1
-20.210763 -13.112147 -27.171936 36.314149 0.575510 2.416211 -0.004225 0.000541 155769.000000 0 0 1
-18.917363 -13.165447 -26.580816 35.181464 0.607999 2.427266 0.007606 -0.013129 210145.000000 0 0 1
-18.608163 -11.959747 -25.959476 34.105625 0.571237 2.435880 0.001182 -0.020928 -23015.500000 0 0 1
-17.193363 -11.989847 -25.361396 32.902410 0.608947 2.450903 0.012741 -0.028094 -745247.000000 0 0 1
-17.197763 -12.771747 -24.159206 32.288509 0.638774 2.416185 0.017631 -0.017597 820555.000000 0 0 1
-15.960363 -13.129547 -23.489306 31.286829 0.688391 2.420028 0.009605 -0.022599 882284.000000 0 0 1
-14.921063 -13.949447 -24.322206 31.761532 0.751757 2.443043 0.007914 -0.019949 -165091.000000 0 0 1
-14.106263 -13.133547 -25.157186 31.691651 0.749704 2.487847 0.027816 -0.028650 -105779.000000 0 0 1
-13.315663 -13.910147 -25.990566 32.346694 0.807230 2.503948 0.038550 -0.028886 -574904.000000 0 0 1
-12.299463 -13.071947 -26.775606 32.234852 0.815836 2.551055 0.044474 -0.023903 -273737.000000 0 0 1
-12.851963 -12.370047 -27.868146 33.088134 0.766294 2.572221 0.059322 -0.031016 -18638.900000 0 0 1
-11.912663 -11.467847 -28.393006 32.857052 0.766375 2.614230 0.057630 -0.033877 -71231.500000 0 0 1
-12.162663 -11.343747 -29.891286 34.206724 0.750574 2.633846 0.033907 -0.031122 -413819.000000 0 0 1
-11.351863 -10.389047 -30.490316 34.153425 0.741141 2.674199 0.029044 -0.030068 -202954.000000 0 0 1
-11.191963 -10.622547 -31.848386 35.389522 0.759301 2.690424 0.030923 -0.018564 -70931.500000 0 0 1
-10.669063 -9.358847 -32.506616 35.469663 0.720072 2.729944 0.017922 -0.012208 106005.000000 0 0 1
-9.308963 -9.057947 -32.280686 34.795774 0.771732 2.759050 -0.007005 -0.011087 -286620.000000 0 0 1
-8.960763 -7.813947 -32.869176 34.953337 0.717139 2.794522 -0.011148 -0.004405 -108975.000000 0 0 1
-7.418163 -7.635847 -32.803446 34.487699 0.799857 2.827780 0.002457 -0.005493 67066.200000 0 0 1
-6.862863 -7.477647 -31.510676 33.104936 0.828242 2.829986 -0.005523 -0.012138 -281909.000000 0 0 1
-7.387163 -6.355247 -30.791856 32.297024 0.710449 2.835095 -0.013680 0.002136 -646806.000000 0 0 1
-6.800563 -4.947847 -31.099866 32.216929 0.628987 2.877489 -0.008027 0.001810 186764.000000 0 0 1
-5.535863 -4.703947 -30.490926 31.344369 0.704333 2.907702 0.003622 -0.000921 342089.000000 0 0 1
-4.956563 -3.542347 -31.043396 31.635553 0.620509 2.947805 0.017219 -0.004933 958585.000000 0 0 1
-3.464963 -3.235747 -30.608366 30.973345 0.751204 2.987925 0.017921 -0.002343 685713.000000 0 0 1
-2.547763 -4.206247 -31.105536 31.491872 1.026189 2.984794 0.011837 -0.006064 2091990.000000 0 0 1
-1.120163 -3.966347 -30.847166 31.121284 1.295548 3.008769 0.021378 -0.002514 2167670.000000 0 0 1
-0.460363 -2.689847 -31.361436 31.479944 1.401290 3.054795 0.017220 0.000709 -997263.000000 0 0 1
-0.036163 -1.899447 -30.310946 30.370424 1.551760 3.078998 0.015690 -0.010011 -29995.300000 0 0 1
0.570437 -0.744747 -30.839746 30.854011 -0.917167 3.111183 0.021372 0.002675 74255.900000 0 0 1
0.902637 0.335253 -29.762696 29.778268 0.355625 3.109252 0.028029 -0.010647 -219203.000000 0 0 1
-0.221963 1.071153 -29.407606 29.427945 -1.366469 3.104412 0.021524 -0.011418 -304084.000000 0 0 1
0.168237 2.325253 -28.824546 28.918672 1.498570 3.060888 0.033737 -0.018469 38991.700000 0 0 1
-1.095863 3.093653 -28.428266 28.617092 -1.230359 3.026653 0.019173 -0.011265 120035.000000 0 0 1
-1.917863 3.487853 -29.528736 29.795798 -1.068054 3.007604 0.006763 -0.012369 585622.000000 0 0 1
-2.957463 4.407553 -29.090796 29.571059 -0.979801 2.961120 0.036623 -0.016219 421817.000000 0 0 1
-4.134363 4.237953 -30.065756 30.643154 -0.797770 2.947160 0.043398 -0.020583 -564997.000000 0 0 1
-3.862963 4.885953 -31.312496 31.925968 -0.901797 2.945239 0.040466 -0.021954 221041.000000 0 0 1
-4.954163 4.999453 -32.215976 32.975861 -0.789948 2.926499 0.052487 -0.021700 -490290.000000 0 0 1
-4.617463 5.755553 -33.479556 34.283058 -0.894678 2.924662 0.048649 -0.017950 -84533.000000 0 0 1
-4.040163 5.121753 34.446249 35.058513 -0.902907 0.187164 0.060672 -0.016840 710909.000000 0 0 1
-2.742463 4.536553 -34.384733 34.790966 -1.027056 2.988627 0.046362 -0.013018 92583.900000 0 0 1
-2.256963 3.748853 33.374834 33.660471 -1.028878 0.130368 0.034690 -0.016146 -350680.000000 0 0 1
-3.056963 2.667153 32.949746 33.198562 -0.717404 0.122508 0.033486 -0.005814 -160524.000000 0 0 1
-2.770163 2.055353 31.654466 31.841852 -0.638336 0.108542 0.044536 -0.008908 -114684.000000 0 0 1
-2.626563 3.044053 30.476136 30.740201 -0.858889 0.131168 0.046911 -0.012271 -155233.000000 0 0 1
-3.799663 3.786953 30.230866 30.703155 -0.783723 0.175625 0.026566 -0.010252 -116180.000000 0 0 1
-3.639763 4.957353 29.348746 29.986199 -0.937474 0.206562 0.032976 -0.010794 -344509.000000 0 0 1
-4.951863 5.680553 29.096906 30.056939 -0.853826 0.253424 0.038521 -0.014590 -295142.000000 0 0 1
-4.916963 6.268553 27.788236 28.907739 -0.905649 0.279211 0.035151 -0.006114 -274037.000000 0 0 1
-6.153363 6.856453 27.479176 28.982408 -0.839389 0.323486 0.027103 -0.004454 -476577.000000 0 0 1
-6.072363 7.577953 26.138986 27.884504 -0.895251 0.355703 0.024038 -0.003556 -91773.400000 0 0 1
-5.341063 8.780353 26.267936 28.206844 -1.024298 0.372937 0.030794 -0.005582 100538.000000 0 0 1
-5.307163 9.356753 24.973486 27.191723 -1.054843 0.406723 0.025631 -0.004119 -15103.600000 0 0 1
-4.514063 10.686553 25.037376 27.594373 -1.171125 0.433892 0.026953 -0.006433 -596968.000000 0 0 1
-4.502063 11.483553 23.831396 26.834232 -1.197167 0.477608 0.027857 -0.001671 158986.000000 0 0 1
-3.816363 12.689653 23.915996 27.341668 -1.278655 0.505962 0.010694 0.012921 453586.000000 0 0 1
-2.262463 12.723153 24.169866 27.407660 -1.394813 0.490992 0.011798 0.017200 277327.000000 0 0 1
-1.781563 12.348453 25.480216 28.370754 -1.427511 0.455331 0.015911 0.017769 79293.100000 0 0 1
-2.114663 13.191153 26.571506 29.740936 -1.411840 0.465868 0.025720 0.010197 -829056.000000 0 0 1
-1.383563 12.807353 27.829006 30.665879 -1.463185 0.433524 0.027000 0.007150 -722841.000000 0 0 1
-0.010063 12.913053 27.616426 30.486293 -1.570017 0.437382 0.016430 0.013577 -854387.000000 0 0 1
0.692737 12.574053 28.796206 31.429416 1.515759 0.412258 0.018856 0.001573 384143.000000 0 0 1
2.220437 12.841953 28.696456 31.517181 1.399584 0.426300 0.011106 0.008049 317620.000000 0 0 1
2.547137 14.184753 28.764706 32.173024 1.393121 0.464462 0.011542 0.004476 -912607.000000 0 0 1
3.923137 14.300053 28.674316 32.281557 1.303040 0.477260 0.017737 0.005051 -953757.000000 0 0 1
4.373137 15.785953 28.860026 33.184662 1.300547 0.516243 0.020379 0.001875 -380738.000000 0 0 1
4.254237 16.341353 30.150756 34.557292 1.316114 0.510529 0.029862 0.003848 679911.000000 0 0 1
3.107437 17.184653 30.329006 34.997387 1.391903 0.522433 0.010968 0.005700 299009.000000 0 0 1
3.182437 18.528153 29.621986 35.083934 1.400694 0.565506 0.018645 0.004920 -204341.000000 0 0 1
4.016037 19.426753 30.335266 36.245768 1.366941 0.579142 0.033917 0.004915 -43645.800000 0 0 1
4.975137 19.931153 29.436936 35.896185 1.326179 0.609285 0.026321 0.001408 -329129.000000 0 0 1
6.088037 20.744253 30.103026 37.061846 1.285331 0.622818 0.033294 0.001362 -186976.000000 0 0 1
5.549837 21.867153 30.808416 38.185489 1.322246 0.632064 0.019871 -0.009435 386294.000000 0 0 1
6.593437 22.672753 31.322806 39.225570 1.287793 0.645947 0.006136 -0.015292 -294410.000000 0 0 1
6.769837 24.053453 30.604176 39.509681 1.296444 0.684715 -0.007697 -0.010965 -326205.000000 0 0 1
7.309337 23.976753 29.313316 38.569180 1.274895 0.707454 -0.020570 -0.004899 108760.000000 0 0 1
7.596437 25.290253 28.830996 39.096408 1.279000 0.741534 -0.027085 0.003984 -319780.000000 0 0 1
8.127237 25.262053 27.387766 38.135457 1.259536 0.769626 -0.024351 -0.005815 -412637.000000 0 0 1
7.315737 24.731053 26.359826 36.877981 1.283186 0.774480 -0.031084 -0.010202 119494.000000 0 0 1
7.835837 25.090753 25.093496 36.340471 1.268094 0.808601 -0.023284 -0.009759 -542878.000000 0 0 1
28.989089 2.126253 6.801394 29.852088 0.073216 1.340941 0.013995 0.007187 -26169.700000 0 0 1
29.058359 2.926153 7.968694 30.272936 0.100361 1.304429 0.016006 0.000136 407005.000000 0 0 1
27.863959 2.878653 8.750994 29.347346 0.102946 1.268004 0.015173 0.000767 282281.000000 0 0 1
27.922969 3.809053 9.996394 29.901989 0.135576 1.229928 0.016586 -0.006202 -234358.000000 0 0 1
27.608769 5.196053 9.858894 29.773157 0.186027 1.233292 0.018575 -0.005652 -175552.000000 0 0 1
28.520149 5.941353 9.107894 30.522980 0.205384 1.267786 0.033258 -0.018412 -228032.000000 0 0 1
28.191539 7.503353 9.116494 30.564254 0.260126 1.267913 0.055150 -0.019596 -70906.300000 0 0 1
27.200829 7.910753 8.228594 29.498726 0.283021 1.288098 0.037929 -0.013613 -342946.000000 0 0 1
27.573009 9.155653 7.664594 30.047342 0.320596 1.312862 0.052109 -0.024392 79861.700000 0 0 1
26.802469 9.463053 6.326994 29.119625 0.339404 1.351773 0.050755 -0.020235 -1488350.000000 0 0 1
25.492939 9.538853 6.674994 28.025617 0.358048 1.330310 0.036779 -0.016240 -2105480.000000 0 0 1
24.781039 9.771053 5.510094 27.201737 0.375579 1.366821 0.056811 -0.024008 -378689.000000 0 0 1
23.397739 10.427553 5.692394 26.241025 0.419243 1.352131 0.019504 -0.024348 -132311.000000 0 0 1
23.370439 11.680053 6.406094 26.900541 0.463471 1.330346 0.018553 -0.014379 -241914.000000 0 0 1
22.020639 12.025553 6.513894 25.922061 0.499847 1.316786 0.017535 -0.012216 -454303.000000 0 0 1
21.845539 13.482453 6.909694 26.584732 0.552950 1.307865 0.019132 0.006620 -216674.000000 0 0 1
22.171439 14.372453 5.876994 27.068047 0.575138 1.351934 0.033454 0.004916 342238.000000 0 0 1
21.896439 15.678553 6.324794 27.663588 0.621405 1.340124 0.042707 -0.003167 -78226.700000 0 0 1
21.715539 16.593853 5.112094 27.803850 0.652494 1.385882 0.045847 -0.001061 -334113.000000 0 0 1
20.458039 16.362353 4.529294 26.585192 0.674619 1.399592 0.066287 -0.011216 -16552.500000 0 0 1
20.237339 17.426253 3.607794 26.948847 0.710900 1.436518 0.065944 -0.009363 -560808.000000 0 0 1
18.772139 17.369353 3.198594 25.774379 0.746604 1.446376 0.067213 -0.011392 -66885.300000 0 0 1
17.879439 17.818953 4.229594 25.594509 0.783704 1.404781 0.066893 -0.014935 749550.000000 0 0 1
16.507239 17.934453 3.870194 24.680193 0.826813 1.413333 0.050583 -0.022369 266455.000000 0 1 0
15.901539 19.263153 4.341294 25.353005 0.880705 1.398714 0.057223 -0.018980 -1142310.000000 0 0 1
14.560839 19.200653 4.014994 24.429558 0.921972 1.405697 0.051484 -0.018175 -711156.000000 0 1 0
13.838539 20.435453 4.237994 25.041436 0.975549 1.400739 0.041386 -0.017832 891129.000000 0 0 1
12.328539 20.293053 3.834694 24.052147 1.024862 1.410681 0.029995 -0.016937 610318.000000 0 1 0
11.700439 19.600353 4.911894 23.349536 1.032622 1.358849 0.018654 -0.011248 112094.000000 0 1 0
10.297739 19.605953 4.710394 22.641216 1.087165 1.361220 0.021475 -0.002860 -161596.000000 0 1 0
9.396739 19.084753 5.792194 22.047132 1.113272 1.304958 0.016101 -0.008684 -717572.000000 0 1 0
9.232439 19.914553 6.925894 23.017284 1.136688 1.265160 0.023359 -0.004843 41356.300000 0 1 0
8.631339 19.181253 7.994094 22.501689 1.147952 1.207597 0.022315 -0.004757 -469422.000000 0 1 0
7.603639 19.939353 8.877794 23.112948 1.206480 1.176558 0.016929 -0.012200 -312904.000000 0 1 0
6.370239 20.184553 8.274394 22.725794 1.265090 1.198133 0.018068 -0.017779 -400464.000000 0 1 0
6.333339 21.319753 7.464794 23.459885 1.282035 1.246973 0.026001 -0.016048 -466168.000000 0 1 0
5.048539 21.429353 6.562994 22.973415 1.339425 1.281083 0.021180 -0.010326 -29464.500000 0 1 0
3.839639 21.707253 7.180594 23.184232 1.395724 1.255899 0.011478 -0.009446 -636941.000000 0 1 0
3.694139 22.900753 7.984394 24.532462 1.410863 1.239296 0.021909 -0.018164 -816223.000000 0 1 0
3.580039 24.203553 7.222294 25.510590 1.423947 1.283761 0.028669 -0.013725 914030.000000 0 0 1
2.390639 24.222553 6.393194 25.165853 1.472420 1.313939 0.023781 -0.013441 921115.000000 0 0 1
2.560439 25.216353 5.378694 25.910436 1.469604 1.361688 0.030769 -0.004434 275964.000000 0 0 1
1.288739 25.405453 4.484294 25.830347 1.520113 1.396307 0.033421 -0.008007 467758.000000 0 0 1
0.277839 26.076553 5.240494 26.599372 1.560142 1.372483 0.042441 -0.013121 -193020.000000 0 0 1
-0.675661 26.599853 4.343194 26.960565 -1.545401 1.408997 0.036709 -0.007356 -496815.000000 0 0 1
-1.989661 26.982953 5.021094 27.518174 -1.497192 1.387304 0.037846 -0.009709 -864805.000000 0 0 1
-2.882661 27.492453 4.121694 27.948758 -1.466325 1.422783 0.042211 -0.005045 -438644.000000 0 0 1
-3.984361 28.153153 4.726694 28.823893 -1.430205 1.406067 0.030079 -0.008184 -449666.000000 0 0 1
-5.024561 28.595353 3.713094 29.269908 -1.396859 1.443597 0.032965 -0.014764 -494395.000000 0 0 1
-4.541661 29.699753 2.949794 30.189457 -1.419053 1.472931 0.030402 -0.016385 103120.000000 0 0 1
-5.331961 29.996353 1.829794 30.521454 -1.394880 1.510809 0.028280 -0.018408 -399383.000000 0 0 1
-4.609061 30.948953 0.814494 31.300872 -1.422958 1.544772 0.026297 -0.011946 -75105.100000 0 0 1
-4.331161 32.294753 1.143094 32.603937 -1.437478 1.535729 0.023728 -0.009570 289171.000000 0 0 1
-3.216561 32.302053 2.030294 32.525237 -1.471546 1.508334 0.028036 -0.014305 -547658.000000 0 0 1
-2.529061 33.653753 2.164894 33.818014 -1.495788 1.506737 0.028691 -0.012425 -889223.000000 0 0 1
-1.950961 34.101853 0.978994 34.171642 -1.513649 1.542143 0.017891 -0.006599 -195577.000000 0 0 1
-1.294261 -33.797118 0.972494 33.835869 1.532520 1.542051 0.030766 -0.007328 85759.400000 0 0 1
0.090639 -33.836818 1.669394 33.878095 -1.568118 1.521500 0.041423 -0.003363 -571568.000000 0 0 1
0.019439 -33.936118 3.068094 34.074531 -1.570224 1.480634 0.026484 -0.007631 565045.000000 0 0 1
1.310239 -34.153018 3.662894 34.373858 -1.532451 1.464033 0.022662 -0.009769 770641.000000 0 0 1
1.190939 -34.163618 5.166194 34.572542 -1.535951 1.420804 0.021502 -0.013841 25226.300000 0 0 1
0.563439 33.838753 5.676794 34.316245 1.554147 1.404607 0.039275 -0.019196 -212829.000000 0 0 1
0.139839 34.054353 7.019194 34.770499 1.566690 1.367527 0.044544 -0.019239 489334.000000 0 0 1
1.197539 33.797853 8.161294 34.789879 1.535379 1.334001 0.029125 -0.011239 361495.000000 0 0 1
1.441939 32.434953 8.284794 33.507360 1.526369 1.320952 0.029835 -0.011151 887676.000000 0 0 1
2.591139 32.192153 9.143894 33.565749 1.490480 1.294892 0.021332 0.001017 893764.000000 0 0 1
3.208039 30.765653 9.130194 32.251781 1.466898 1.283781 0.013414 -0.004235 -307522.000000 0 0 1
2.572739 29.803553 9.928094 31.518849 1.484687 1.250351 0.035437 -0.010580 24651.300000 0 0 1
3.044139 28.505453 9.706094 30.266085 1.464408 1.244336 0.016865 -0.015130 -448747.000000 0 0 1
2.736739 27.653453 10.973994 29.876944 1.472152 1.194685 0.027706 -0.027965 -745357.000000 0 0 1
3.275339 28.124953 12.196494 30.830104 1.454862 1.164072 0.006484 -0.011671 -126526.000000 0 0 1
2.977339 27.254653 13.327994 30.484686 1.461986 1.118310 0.013020 -0.012217 209450.000000 0 0 1
1.516639 27.063053 13.853694 30.440662 1.514814 1.098306 0.024435 -0.017873 367236.000000 0 0 1
0.942239 28.223553 14.447494 31.720449 1.537424 1.097904 0.025246 -0.016555 441629.000000 0 0 1
0.162839 29.011953 13.514494 32.005648 1.565184 1.134867 0.027260 -0.015915 -44000.800000 0 0 1
-0.467061 30.282953 14.124694 33.418294 -1.555374 1.134414 0.027201 -0.015068 -585.040000 0 0 1
-1.572261 29.952453 14.931994 33.505013 -1.518353 1.108880 0.025804 -0.010920 -172848.000000 0 0 1
-2.220661 31.101253 15.429194 34.789069 -1.499516 1.111289 0.024131 -0.003608 -26553.000000 0 0 1
-3.496961 30.776953 16.247594 34.977620 -1.457659 1.087711 0.014803 0.005844 170163.000000 0 0 1
-4.535361 30.302053 15.393694 34.289208 -1.422227 1.105221 0.010560 -0.006790 -110758.000000 0 0 1
-5.679161 30.111553 16.180494 34.652084 -1.384382 1.084968 -0.001594 0.000644 -688726.000000 0 0 1
-6.738761 29.216053 15.536994 33.769614 -1.344108 1.092702 0.005617 -0.009413 -341427.000000 0 0 1
-7.906961 28.939853 16.269694 34.128259 -1.304085 1.073874 0.005611 -0.007779 -573237.000000 0 0 1
-8.768661 28.281353 15.418494 33.383444 -1.270144 1.090705 0.000708 0.000112 89226.400000 0 0 1
-10.093561 27.764153 16.116494 33.652185 -1.222105 1.071379 -0.003299 0.004015 739300.000000 0 0 1
-10.859261 28.866653 16.566994 35.009606 -1.210985 1.077862 -0.014660 0.003334 184403.000000 0 0 1
-10.663061 29.023553 17.942794 35.749285 -1.218711 1.044995 -0.010592 0.001470 -563567.000000 0 0 1
-11.472561 30.139253 18.629894 37.243351 -1.207080 1.046943 -0.006765 0.002085 284022.000000 0 0 1
-12.899861 30.060153 18.542394 37.601059 -1.165429 1.055107 0.004170 0.006783 585696.000000 0 0 1
-13.442061 31.279753 18.877094 38.928867 -1.164920 1.064533 0.018551 0.007193 -232977.000000 0 0 1
-14.360061 31.289253 20.100794 39.865658 -1.140528 1.042326 0.028767 -0.000109 48160.000000 0 0 1
-13.641261 31.200353 21.335494 40.183944 -1.158625 1.011080 0.026532 -0.002313 771375.000000 0 0 1
-14.602561 31.015953 22.369394 40.934264 -1.130774 0.992652 0.023578 -0.000242 402540.000000 0 0 1
-13.892461 30.992053 23.756694 41.447417 -1.149391 0.960419 0.008871 -0.001355 -284742.000000 0 0 1
-13.017561 29.886753 23.935794 40.442517 -1.160013 0.937448 0.012530 -0.008178 435722.000000 0 0 1
-12.729161 29.588053 25.320794 40.971051 -1.164519 0.904579 0.010498 -0.001609 -206803.000000 0 0 1
-12.123261 30.651153 26.244094 42.133349 -1.194155 0.898375 0.011065 -0.000153 -578927.000000 0 0 1
-13.055761 31.695453 26.515294 43.337230 -1.180063 0.912416 0.011751 0.007805 431823.000000 0 0 1
-12.566161 32.835053 27.123794 44.404384 -1.205287 0.913680 0.007455 0.007762 -240505.000000 0 0 1
-13.793961 33.653953 27.595594 45.654997 -1.181805 0.921737 0.008916 0.011337 439749.000000 0 0 1
-14.480461 33.232453 28.760794 46.273783 -1.159870 0.900095 -0.009317 0.007369 525478.000000 0 0 1
-13.700761 33.393153 29.953794 46.904619 -1.181454 0.878105 0.004054 0.015534 154412.000000 0 0 1
-14.321761 32.599253 31.159294 47.315175 -1.156853 0.851909 -0.004143 0.014862 -46148.900000 0 0 1
-15.555161 33.050553 31.656394 48.336626 -1.130905 0.856726 -0.003964 0.013824 -314636.000000 0 0 1
-15.835861 32.489453 32.881994 48.862712 -1.117267 0.832611 -0.006469 0.017581 939049.000000 0 0 1
-17.262861 32.807953 33.482394 49.954368 -1.086425 0.836238 -0.007504 0.014336 1061840.000000 0 0 1
-17.411861 34.189053 33.795794 51.129443 -1.099751 0.848666 -0.008421 0.011119 -527810.000000 0 0 1
-18.785261 34.454053 33.665294 51.704157 -1.071625 0.861745 0.014400 0.004773 -313948.000000 0 0 1
-19.054761 -33.231518 33.804294 51.089607 1.050170 0.847757 0.014311 0.004110 -244705.000000 0 0 1
-18.956661 -32.691018 -33.925809 50.784034 1.045307 2.302369 0.024669 -0.000458 -545328.000000 0 0 1
-20.114361 -32.838118 -33.161609 50.819502 1.021214 2.281724 0.031911 -0.002119 -319141.000000 0 0 1
-20.028861 -32.090818 -31.847209 49.449172 1.012822 2.270563 0.041626 -0.006818 -7774.390000 0 0 1
-20.128361 -30.708218 -32.066009 48.748072 0.990584 2.288678 0.046673 -0.012999 -37709.800000 0 0 1
-19.679461 -29.982318 -30.929409 47.358726 0.989957 2.282451 0.042699 -0.006973 -113202.000000 0 0 1
-19.868361 -28.469218 -30.941109 46.503767 0.961488 2.298754 0.047898 -0.011511 -367089.000000 0 0 1
-21.199161 -28.089018 -30.759709 46.739245 0.924285 2.289106 0.050172 -0.010273 -479331.000000 0 0 1
-21.329661 -26.680518 -30.680709 45.914163 0.896393 2.302608 0.050557 -0.012093 896746.000000 0 0 1
-22.530261 -26.271118 -29.726609 45.622972 0.861903 2.280450 0.049041 -0.011001 727722.000000 0 0 1
-22.328961 -26.627618 -28.352109 44.849243 0.872979 2.255140 0.037606 -0.012890 13900.800000 0 0 1
-21.578361 -25.684618 -27.636009 43.463482 0.872062 2.259898 0.034479 -0.023347 -131121.000000 0 0 1
-21.380461 -26.095718 -26.163009 42.692079 0.884392 2.230434 0.028583 -0.012864 616592.000000 0 0 1
-22.654061 -26.066818 -25.517909 42.940065 0.855331 2.207152 0.019790 -0.005726 609096.000000 0 0 1
-22.472561 -26.347218 -24.172109 42.231300 0.864599 2.180195 0.020092 -0.004910 -127655.000000 0 0 1
-23.740661 -26.075718 -23.279209 42.254983 0.832237 2.154265 0.010844 0.000144 689947.000000 0 0 1
-24.876861 -26.860718 -23.557709 43.535296 0.823724 2.142562 0.010033 0.005001 -294232.000000 0 0 1
-24.764861 -28.258818 -23.365609 44.247156 0.851197 2.127123 0.018095 0.003810 -770098.000000 0 0 1
-26.198861 -28.902018 -23.352009 45.464528 0.834417 2.110208 0.003741 0.006145 765035.000000 0 0 1
-26.887261 -28.505718 -22.198609 45.036419 0.814608 2.086220 0.011677 0.014943 -505718.000000 0 0 1
-28.060761 -27.802818 -22.545409 45.482947 0.780781 2.089425 0.010418 0.014098 -73210.700000 0 0 1
-28.754861 -27.231318 -21.295209 44.965238 0.758192 2.064162 0.019085 0.010392 -9639.480000 0 0 1
-29.274461 -28.248318 -20.443409 45.529051 0.767561 2.036463 0.014997 0.014804 -175731.000000 0 0 1
-29.654261 -27.796318 -19.181509 44.943751 0.753070 2.011736 0.009926 0.015122 -1010060.000000 0 0 1
-30.554961 -28.766418 -18.434309 45.835971 0.755257 1.984693 -0.000310 0.017465 68650.800000 0 0 1
-31.916761 -28.884018 -18.828909 46.983975 0.735559 1.983134 -0.004100 0.015598 945266.000000 0 0 1
-32.822361 -27.768118 -18.841809 46.940276 0.702174 1.983841 -0.006134 0.021339 -115310.000000 0 0 1
-33.115761 -27.094218 -17.480609 46.220363 0.685721 1.958649 -0.005867 0.015490 -104887.000000 0 0 1
-32.030761 -26.334018 -16.925109 44.787381 0.688101 1.958322 -0.003656 0.016755 520508.000000 0 0 1
-32.460361 -25.660518 -15.753109 44.275249 0.668933 1.934566 -0.004833 0.014927 159316.000000 0 0 1
-32.293361 -26.410618 -14.430109 44.143062 0.685521 1.903812 -0.005599 0.011358 115730.000000 0 0 1
-33.154561 -27.531118 -14.340309 45.418409 0.692997 1.892030 0.009943 0.018943 204944.000000 0 0 1
-33.004461 -28.123718 -13.080509 45.291695 0.705723 1.863776 0.014046 0.016559 304673.000000 0 0 1
-33.817261 -29.476118 -12.859009 46.666935 0.716918 1.849957 0.023400 0.007626 286817.000000 0 0 1
-33.351361 -30.546218 -13.625209 47.233791 0.741526 1.863418 0.015951 0.007585 251135.000000 0 0 1
-33.834361 -31.783318 -13.046409 48.219831 0.754151 1.844772 0.019480 0.001051 -224905.000000 0 0 1
-33.539261 -32.993218 -13.921109 49.063548 0.777191 1.858485 0.013791 0.002722 -1180460.000000 0 0 1
-32.224261 -33.402218 -13.878009 48.442856 0.803346 1.861349 0.015681 0.004940 -889933.000000 0 0 1
-31.777661 -34.258118 -14.942309 49.058241 0.822943 1.880297 0.022905 -0.005172 2011340.000000 0 0 1
-30.184661 -34.470118 -14.989009 48.207605 0.851583 1.886964 0.012392 -0.003290 2063940.000000 0 0 1
-29.814661 34.004753 -16.183209 48.032630 -0.850960 1.914441 0.020595 -0.003017 -1270690.000000 0 0 1
-28.492161 33.633953 -16.304209 46.998652 -0.867974 1.925069 0.018405 0.001191 -1207690.000000 0 0 1
9.186737 20.329053 -8.899306 24.017997 1.146362 1.950372 0.007039 0.003080 318511.000000 0 1 0
7.757637 20.482153 -8.986306 23.673894 1.208741 1.960146 0.013229 0.003201 848881.000000 0 1 0
7.302937 20.586953 -10.311006 24.155173 1.229908 2.011820 0.017683 0.001416 115444.000000 0 1 0
7.277637 19.324553 -11.194706 23.488802 1.210623 2.067577 0.008815 0.006126 95162.500000 0 1 0
8.554237 18.784253 -11.540606 23.647595 1.143466 2.080621 0.017720 0.003879 271682.000000 0 1 0
8.423137 17.542153 -12.220006 22.978358 1.123142 2.131527 0.014331 -0.007070 -524296.000000 0 1 0
9.671037 17.157253 -13.005106 23.601548 1.057518 2.154392 0.010167 0.000471 -342139.000000 0 1 0
9.496237 15.989553 -13.843606 23.183826 1.034872 2.210707 0.013351 -0.011539 -228182.000000 0 1 0
10.585337 15.772953 -14.692006 24.014380 0.979726 2.229131 0.014970 -0.005080 -359205.000000 0 1 0
10.369837 14.553053 -15.624006 23.736774 0.951694 2.289247 0.021660 -0.009371 -538694.000000 0 1 0
10.304437 13.230053 -15.015406 22.509513 0.909076 2.301064 0.019523 -0.009663 -26601.800000 0 1 0
11.457537 12.747453 -14.359806 22.360160 0.838639 2.268168 0.018856 -0.013760 -691254.000000 0 1 0
12.491637 12.156353 -15.282906 23.181569 0.771796 2.290643 0.033283 -0.014371 -1055970.000000 0 1 0
13.159737 12.981853 -16.172406 24.561228 0.778594 2.289557 0.031565 -0.012105 19370.400000 0 1 0
14.006937 12.189853 -16.992306 25.169928 0.716146 2.311901 0.038703 -0.019077 62231.000000 0 0 1
14.605137 12.919353 -18.220006 26.686857 0.724228 2.322293 0.029743 -0.012196 10067.700000 0 0 1
15.681837 13.742653 -17.863206 27.456778 0.719590 2.279162 0.011468 0.002659 -467009.000000 0 0 1
16.345937 14.304453 -18.946506 28.823205 0.718891 2.288073 0.012502 0.001951 518299.000000 0 0 1
17.592837 15.199153 -18.583606 29.763612 0.712531 2.245125 0.005655 0.009471 311171.000000 0 0 1
17.387837 16.512253 -18.090206 30.037426 0.759576 2.217120 0.001761 0.006982 301327.000000 0 0 1
16.781937 17.461953 -19.019306 30.794273 0.805254 2.236515 0.006541 0.012304 97281.800000 0 0 1
16.442837 18.826353 -18.434606 31.058544 0.852876 2.206251 -0.001426 0.015195 -186313.000000 0 0 1
17.591037 19.583653 -18.157606 31.979098 0.838948 2.174622 -0.004303 0.021748 -255749.000000 0 0 1
17.262737 20.823453 -17.636606 32.290373 0.878618 2.148603 -0.012423 0.023430 -354143.000000 0 0 1
18.263837 21.967053 -17.837906 33.679520 0.877189 2.128968 -0.001638 0.016440 695173.000000 0 0 1
19.437637 21.907953 -16.993906 33.861084 0.845075 2.096557 0.004546 0.018414 456941.000000 0 0 1
19.476137 23.124853 -16.263706 34.330553 0.870838 2.064327 0.007040 0.009064 427239.000000 0 0 1
20.768337 23.458153 -15.446606 34.931453 0.846142 2.028844 0.021795 0.008821 -822533.000000 0 0 1
20.971637 22.709053 -14.288006 34.053748 0.825153 2.003770 0.030550 0.008481 529338.000000 0 0 1
21.957537 23.379453 -13.440506 34.776134 0.816751 1.967615 0.029122 0.005492 197061.000000 0 0 1
23.401737 23.355253 -13.893906 35.862930 0.784404 1.968624 0.026745 0.005958 -1617140.000000 0 0 1
23.751937 23.805253 -15.185306 36.897671 0.786519 1.994953 0.025048 0.007342 -305177.000000 0 0 1
25.146837 24.049953 -15.169806 37.959013 0.763106 1.981917 0.020461 0.010787 -79444.600000 0 0 1
25.655937 24.772453 -16.387706 39.248675 0.767880 2.001527 0.012276 0.009652 -701809.000000 0 0 1
25.848537 23.896053 -17.499306 39.311499 0.746168 2.032132 0.010550 0.003963 143528.000000 0 0 1
26.162737 24.564853 -18.673006 40.454938 0.753909 2.050567 0.004724 0.008217 -481345.000000 0 0 1
26.214737 23.695153 -19.937806 40.573253 0.734958 2.084496 0.005218 -0.000481 -501897.000000 0 0 1
27.502037 23.125553 -20.064006 41.154800 0.699168 2.080049 -0.008342 0.000829 -52176.200000 0 0 1
27.713437 22.272953 -21.176006 41.382874 0.676986 2.107970 0.007336 -0.010697 284593.000000 0 0 1
29.229737 22.122253 -21.481006 42.487707 0.647865 2.100852 0.027284 -0.009634 508292.000000 0 0 1
29.763037 23.374453 -21.886406 43.717482 0.665745 2.095126 0.011779 0.005435 61463.500000 0 0 1
31.167337 23.520253 -21.719206 44.680299 0.646467 2.078421 0.024163 -0.001312 546888.000000 0 0 1
31.726537 24.842553 -22.321406 46.064854 0.664302 2.076662 0.016474 0.003626 -48047.200000 0 0 1
31.886837 24.993453 -23.691206 46.933105 0.664795 2.099931 0.011351 0.002326 194551.000000 0 0 1
30.696537 24.856553 -24.452006 46.454561 0.680658 2.125115 0.012314 -0.006433 -416498.000000 0 0 1
30.848037 25.286653 -25.876706 47.545979 0.686648 2.146286 0.012751 -0.004854 -505905.000000 0 0 1
30.843137 26.682153 -25.982306 48.356144 0.713191 2.138042 0.006810 0.006414 -70492.100000 0 0 1
29.619937 27.322253 -26.339956 48.141868 0.745069 2.149730 0.009461 0.007931 511186.000000 0 0 1
29.210937 27.079753 -27.860986 48.608913 0.747556 2.181161 0.005625 0.006174 -50784.600000 0 0 1
28.891137 25.717553 -28.174856 47.853034 0.727348 2.200344 0.004362 -0.007444 -60929.800000 0 0 1
28.611837 25.517353 -29.581316 48.423412 0.728292 2.227979 0.001796 -0.009688 -914032.000000 0 0 1
27.868437 24.296753 -29.940336 47.575264 0.717036 2.251482 0.010457 -0.021526 -1399910.000000 0 0 1
26.565937 24.395553 -29.465136 46.573450 0.742835 2.255779 0.015871 -0.020218 -940726.000000 0 0 1
25.808237 23.259953 -29.744716 45.736623 0.733511 2.278839 0.023336 -0.029720 48616.300000 0 0 1
24.353737 23.371553 -29.220646 44.645047 0.764821 2.284331 0.021014 -0.023344 157240.000000 0 0 1
24.300037 23.339353 -27.818296 43.692961 0.765235 2.260977 0.015691 -0.016722 580969.000000 0 0 1
22.929037 23.441053 -27.422626 42.746043 0.796440 2.267280 0.013686 -0.014534 131996.000000 0 0 1
22.732637 23.888053 -25.949786 41.961927 0.810176 2.237518 0.017252 -0.007517 -381830.000000 0 0 1
23.149537 22.784253 -25.216596 41.120554 0.777446 2.230947 0.008645 -0.010466 202675.000000 0 0 1
23.639837 23.250053 -23.947006 40.900684 0.777086 2.196283 0.009779 0.003493 -200938.000000 0 0 1
24.055637 22.047253 -23.066906 39.960446 0.741863 2.186145 0.010980 0.001579 800948.000000 0 0 1
25.257437 21.381353 -23.523606 40.601237 0.702480 2.188766 0.011854 -0.008922 745193.000000 0 0 1
25.317237 20.026753 -23.047806 39.664023 0.669249 2.190846 0.032202 -0.008449 271223.000000 0 0 1
26.553037 19.224253 -23.544906 40.360851 0.626649 2.193656 0.039740 -0.020124 1035710.000000 0 0 1
27.756437 19.239753 -22.747106 40.718776 0.606123 2.163541 0.057046 -0.029130 844064.000000 0 0 1
28.821537 18.784253 -23.576506 41.705885 0.577600 2.171598 0.052457 -0.025942 400501.000000 0 0 1
30.102737 18.270053 -22.872506 41.989536 0.545495 2.146851 0.054481 -0.022735 459772.000000 0 0 1
30.884937 19.314753 -22.297206 42.709536 0.558871 2.120068 0.042152 -0.021604 -472509.000000 0 0 1
32.036937 18.840053 -21.684306 43.029316 0.531603 2.098954 0.045350 -0.017606 -331352.000000 0 0 1
32.737337 19.882753 -20.834106 43.601802 0.545800 2.068975 0.030219 -0.023756 -266512.000000 0 0 1
32.050537 20.128753 -19.645606 42.642156 0.560776 2.049590 0.040701 -0.021034 -153951.000000 0 0 1
32.543037 21.171553 -18.906006 43.182415 0.576776 2.023966 0.027068 -0.005540 -370567.000000 0 0 1
31.902937 21.111953 -17.526806 42.079697 0.584595 2.000404 0.026168 -0.012393 -85529.100000 0 0 1
32.261337 19.954753 -16.754606 41.469300 0.553937 1.986708 0.031814 -0.024601 410661.000000 0 0 1
31.842337 20.080353 -15.371506 40.662492 0.562629 1.958460 0.028316 -0.022146 -332720.000000 0 0 1
32.250337 18.790953 -14.635306 40.092098 0.527571 1.944474 0.022995 -0.016702 -152623.000000 0 0 1
33.654637 18.676253 -14.566606 41.153652 0.506627 1.932595 0.025823 -0.021038 -68378.300000 0 0 1
34.185737 17.600353 -13.783006 40.846154 0.475453 1.914989 0.025350 -0.007512 86693.900000 0 0 1
34.044237 17.679753 -12.192106 40.252096 0.478982 1.878524 0.031925 -0.019508 339578.000000 0 0 1
35.061737 18.533653 -11.629606 41.328797 0.486265 1.856041 0.030457 -0.021781 408112.000000 0 0 1
34.838037 18.811253 -10.271406 40.902981 0.495105 1.824630 0.018979 -0.026261 112052.000000 0 0 1
33.769537 19.899053 -9.912206 40.430258 0.532485 1.818489 0.025933 -0.024526 671897.000000 0 0 1
32.445137 19.416753 -10.086506 39.133551 0.539278 1.831485 0.027563 -0.020365 -623583.000000 0 0 1
31.491437 20.413953 -9.986706 38.835221 0.575136 1.830874 0.009728 -0.012795 309736.000000 0 0 1
30.053837 19.920153 -10.348006 37.511690 0.585332 1.850282 -0.000637 -0.004420 516599.000000 0 0 1
29.856237 19.607453 -11.710506 37.589667 0.581091 1.887605 0.009561 -0.014425 -266822.000000 0 0 1
28.555737 19.165653 -12.030406 36.434641 0.591111 1.907303 0.009546 -0.013226 -57330.900000 0 0 1
28.290737 18.593553 -13.454006 36.429333 0.581442 1.949071 0.048385 -0.019195 156694.000000 0 0 1
29.054437 17.384953 -13.654206 36.508003 0.539211 1.954121 0.050453 -0.019095 497420.000000 0 0 1
28.539137 16.727853 -14.770706 36.228127 0.530164 1.990745 0.059840 -0.018495 553370.000000 0 0 1
29.712137 15.999353 -15.512906 37.140822 0.493955 2.001685 0.044947 -0.027773 456476.000000 0 0 1
30.516037 15.128953 -14.754006 37.118654 0.460258 1.979568 0.031664 -0.019918 -808312.000000 0 0 1
31.641737 14.868653 -15.510406 38.247210 0.439284 1.988355 0.023759 -0.016986 -518769.000000 0 0 1
32.525737 13.844553 -14.702306 38.285154 0.402420 1.964944 0.019741 -0.022152 -329739.000000 0 0 1
33.264837 14.360853 -13.623106 38.708817 0.407543 1.930437 0.020890 -0.009335 -176218.000000 0 0 1
33.710237 13.279953 -12.840406 38.439736 0.375275 1.911383 0.028598 -0.007619 -289229.000000 0 0 1
34.659237 13.843853 -11.781606 39.137210 0.380013 1.876572 0.038546 -0.002814 -393219.000000 0 0 1
-34.728165 14.413453 -12.279306 39.554702 -0.393401 1.886451 0.017215 -0.010633 -700728.000000 0 0 1
-33.911065 14.679853 -11.196906 38.611256 -0.408537 1.865013 0.019821 -0.008462 -874475.000000 0 0 1
-32.513165 15.353553 -11.487506 37.746527 -0.441182 1.880034 0.016683 -0.013811 928658.000000 0 0 1
-31.497965 14.569853 -12.106306 36.755477 -0.433254 1.906437 0.008108 -0.001391 433606.000000 0 0 1
-31.157065 13.476453 -11.268006 35.767939 -0.408234 1.891286 0.015144 0.004615 -934931.000000 0 0 1
-29.927965 12.562053 -11.637406 34.480683 -0.397410 1.915062 0.027481 -0.002962 450011.000000 0 0 1
-30.111265 11.796653 -12.794506 34.778567 -0.373390 1.947530 0.013212 -0.007346 336769.000000 0 0 1
-29.546665 10.459053 -12.663606 33.804794 -0.340220 1.954772 0.024649 -0.012846 -113482.000000 0 0 1
-29.370265 9.653053 -13.997106 33.936896 -0.317546 1.995933 0.022684 -0.014871 -1139390.000000 0 0 1
-30.522265 9.228653 -14.615206 35.076786 -0.293619 2.000568 0.007474 -0.014517 -637058.000000 0 0 1
-30.290065 8.284853 -15.637406 35.080697 -0.266987 2.032814 0.012622 -0.018720 289205.000000 0 0 1
-31.634665 7.799553 -16.251106 36.409937 -0.241730 2.033464 0.010951 -0.019660 168114.000000 0 0 1
-32.378365 6.876353 -15.549606 36.570931 -0.209266 2.009968 0.019296 -0.024285 -99175.200000 0 0 1
-33.459165 6.308953 -16.235906 37.721655 -0.186369 2.015747 0.011893 -0.023554 237536.000000 0 0 1
-34.503065 5.568953 -15.343806 38.169453 -0.160025 1.984487 0.010806 -0.012517 1071830.000000 0 0 1
34.902037 4.960953 -15.956606 38.695950 0.141194 1.995838 0.013358 -0.008056 809912.000000 0 0 1
34.026937 4.523753 -14.939406 37.436381 0.132171 1.981289 0.025490 -0.009125 129337.000000 0 0 1
33.169237 3.346753 -15.461706 36.748652 0.100559 2.005060 0.025693 -0.007223 -147461.000000 0 0 1
33.885437 2.137053 -15.444206 37.300313 0.062984 1.997696 0.027003 -0.012160 100906.000000 0 0 1
33.068037 0.994053 -15.585506 36.570360 0.030052 2.011061 0.017452 0.000072 46201.100000 0 0 1
32.378937 0.340353 -14.315006 35.403825 0.010511 1.987048 0.032114 -0.002166 532934.000000 0 0 1
33.309737 -0.176647 -13.357906 35.888765 -0.005303 1.952178 0.051805 -0.007312 627625.000000 0 0 1
32.756737 -0.104147 -12.027906 34.895346 -0.003179 1.922700 0.058918 -0.004059 -44610.700000 0 0 1
32.843937 1.299953 -11.330206 34.767623 0.039559 1.902743 0.061035 -0.017634 -49375.100000 0 0 1
31.973237 2.289953 -11.849506 34.175175 0.071499 1.924877 0.059660 -0.013361 503621.000000 0 0 1
32.109437 3.470453 -11.072806 34.141866 0.107664 1.901087 0.059990 -0.009107 -188381.000000 0 0 1
31.073737 4.505353 -11.551206 33.456026 0.143986 1.923318 0.047246 -0.002436 -311430.000000 0 0 1
31.267037 5.076953 -12.811506 34.169251 0.160969 1.955131 0.052105 -0.002603 151952.000000 0 0 1
30.372937 6.111253 -13.142606 33.653987 0.198556 1.971994 0.055143 -0.003478 -481810.000000 0 0 1
30.627737 6.734553 -14.523706 34.559377 0.216440 2.004521 0.026114 -0.000763 -490758.000000 0 0 1
30.474637 5.875153 -15.644106 34.755704 0.190452 2.037692 0.017841 0.008593 219246.000000 0 0 1
30.821137 6.545653 -16.850906 35.731514 0.209266 2.061898 0.016336 0.006718 -1201630.000000 0 0 1
29.808437 7.476953 -17.490506 35.360508 0.245763 2.088210 0.018575 0.003531 57816.300000 0 0 1
28.749137 6.936053 -18.300006 34.778038 0.236737 2.124915 0.001982 0.013468 428183.000000 0 0 1
27.734037 6.329453 -17.534406 33.416975 0.224377 2.123177 -0.002042 0.016548 -633832.000000 0 0 1
26.393637 6.391253 -18.328306 32.762768 0.237578 2.164488 -0.008153 0.014104 -31795.000000 0 0 1
26.409037 5.467153 -19.432706 33.240895 0.204135 2.195186 -0.004541 0.019341 798217.000000 0 0 1
25.177237 5.456953 -20.180606 32.725043 0.213440 2.235304 -0.013850 0.022234 665820.000000 0 0 1
25.000337 4.178353 -20.951006 32.884953 0.165601 2.261526 -0.011833 0.023888 -198635.000000 0 0 1
24.516237 3.152053 -20.095506 31.856093 0.127869 2.253408 -0.007601 0.013442 174619.000000 0 0 1
24.268137 2.009753 -20.877706 32.075851 0.082626 2.279547 -0.005907 0.007279 -256685.000000 0 0 1
23.385737 1.004353 -20.071906 30.834767 0.042921 2.279632 -0.004381 0.001138 604903.000000 0 0 1
22.082337 1.576653 -19.907306 29.772744 0.071278 2.303177 -0.006870 0.000225 313827.000000 0 0 1
21.241937 0.682553 -19.222106 28.656153 0.032121 2.306063 -0.004215 -0.000188 -446038.000000 0 0 1
19.915237 1.347953 -18.841406 27.448720 0.067581 2.327354 -0.010336 -0.002324 -1007440.000000 0 0 1
19.150737 1.625253 -20.003606 27.740520 0.084663 2.376181 -0.006548 -0.007348 947003.000000 0 0 1
18.111437 2.644253 -19.854106 27.003736 0.144975 2.396810 -0.016689 -0.000147 1262060.000000 0 0 1
16.892837 2.376653 -18.935506 25.486660 0.139773 2.408275 0.003859 -0.004900 -763175.000000 0 0 1
17.202037 2.535753 -17.553806 24.707817 0.146356 2.360942 0.005062 -0.001648 -27171.300000 0 1 0
16.204537 2.185953 -16.621306 23.315944 0.134088 2.364383 -0.001999 0.001989 333422.000000 0 1 0
15.024237 3.186453 -16.410306 22.476195 0.208991 2.389293 0.010162 -0.006569 796666.000000 0 1 0
14.095137 3.400353 -17.480906 22.711613 0.236720 2.449152 0.007469 -0.004131 803424.000000 0 1 0
13.220837 4.509853 -17.417206 22.326853 0.328740 2.465624 0.017952 -0.007737 -33015.700000 0 1 0
-19.253463 -22.002547 -18.143106 34.409013 0.851935 2.126190 0.015271 -0.003094 139644.000000 0 0 1
-19.236963 -22.644747 -19.405206 35.488129 0.866586 2.149344 0.018174 -0.008804 -228456.000000 0 0 1
-20.441063 -22.392547 -20.075906 36.363515 0.830926 2.155664 0.022253 -0.002531 -227541.000000 0 0 1
-20.500663 -23.093447 -21.476806 37.614328 0.844804 2.178488 0.020863 -0.002137 -1955.720000 0 0 1
-20.649763 -24.458747 -21.256706 38.425129 0.869639 2.156995 0.009104 -0.003887 270351.000000 0 0 1
-19.668163 -25.127387 -22.041706 38.782200 0.906670 2.175290 0.017693 -0.009905 77307.400000 0 0 1
-19.395163 -26.595267 -21.662206 39.404717 0.940694 2.152845 0.019693 0.002622 364406.000000 0 0 1
-20.524663 -27.481497 -21.746906 40.613081 0.929312 2.135855 0.019153 0.011615 236131.000000 0 0 1
-20.151963 -28.832257 -21.860306 41.415862 0.960783 2.126833 0.032758 -0.005805 109742.000000 0 0 1
-21.365663 -29.813517 -21.985406 42.763248 0.948987 2.110777 0.022277 -0.002249 447270.000000 0 0 1
-22.072963 -29.561127 -23.190406 43.576035 0.929418 2.131973 0.013914 0.000883 -264418.000000 0 0 1
-21.793963 -30.522617 -24.183406 44.625599 0.950718 2.143514 0.018600 -0.007964 -611930.000000 0 0 1
-22.111963 -29.999457 -25.629466 45.230254 0.935616 2.173224 0.015926 -0.001796 -124448.000000 0 0 1
-23.471263 -30.083327 -25.996506 46.170608 0.908240 2.168872 0.025346 0.000822 192691.000000 0 0 1
-23.831663 -29.255907 -27.095396 46.454459 0.887220 2.193542 0.020572 0.005194 -127705.000000 0 0 1
-23.222763 -29.610407 -28.458726 47.180208 0.905716 2.218293 0.029630 -0.011611 -525028.000000 0 0 1
-23.843463 -30.690657 -29.033966 48.511837 0.910303 2.212414 0.019602 -0.007531 -18442.400000 0 0 1
-23.401163 -30.728497 -30.381136 49.141310 0.919947 2.237298 0.054482 -0.012304 -246419.000000 0 0 1
-23.911163 -31.826217 -31.300166 50.639433 0.926461 2.237118 0.026355 -0.003667 -130286.000000 0 0 1
-23.378263 -33.103567 -30.948586 50.992198 0.955911 2.222986 0.031275 -0.009377 -175524.000000 0 0 1
-24.146463 -34.185329 -31.348326 52.291547 0.955828 2.213662 0.035240 -0.016046 -338972.000000 0 0 1
-23.386063 33.651679 -31.069496 51.426229 -0.963471 2.219503 0.050972 -0.022198 561769.000000 0 0 1
-22.216263 33.453101 -31.853326 51.257260 -0.984572 2.241376 0.052375 -0.019960 18300.500000 0 0 1
-21.671463 32.169045 -31.613626 50.039196 -0.977958 2.254640 0.054537 -0.021419 321234.000000 0 0 1
-20.463163 31.895715 -32.570346 49.969042 -1.000374 2.280766 0.049965 -0.012629 320037.000000 0 0 1
-20.770963 31.707935 -33.928466 50.872064 -0.990864 2.300887 0.035981 -0.006016 66119.600000 0 0 1
-20.378163 30.381005 -34.251911 50.114553 -0.979970 2.323305 0.017471 0.008853 74247.700000 0 0 1
-20.631763 30.037855 33.301511 49.365302 -0.968945 0.830382 0.011658 0.011159 325161.000000 0 0 1
-19.812563 30.842015 32.437376 48.948451 -0.999790 0.846399 0.007896 0.004285 482627.000000 0 0 1
-20.042263 30.577995 31.049536 47.966444 -0.990601 0.866736 0.011305 -0.000799 -136548.000000 0 0 1
-19.387063 31.670495 30.213586 47.872113 -1.021492 0.887786 0.009679 -0.000986 -59018.500000 0 0 1
-20.141663 32.861735 30.340596 49.052339 -1.020930 0.903919 0.016861 -0.001550 124522.000000 0 0 1
-19.493063 34.003005 29.818216 49.247435 -1.050260 0.920431 0.010311 -0.008958 424288.000000 0 0 1
-20.501463 -33.925497 29.862656 49.628898 1.027215 0.925145 0.020500 -0.012914 462810.000000 0 0 1
-20.642563 -33.342927 31.168266 50.093183 1.016452 0.899239 0.013361 -0.012698 48171.900000 0 0 1
-21.742863 -32.453017 31.238996 50.018249 0.980504 0.896239 0.038038 -0.018629 -106211.000000 0 0 1
-21.442363 -31.007297 30.724116 48.633308 0.965780 0.886987 0.030901 -0.006202 -581364.000000 0 0 1
-21.275063 -30.848377 29.335396 47.590084 0.967040 0.906610 0.025214 -0.002867 -171455.000000 0 0 1
-21.271263 -29.538847 28.879796 46.465608 0.946700 0.900101 0.031827 -0.006723 -283470.000000 0 0 1
-22.609063 -28.847937 28.501986 46.429908 0.906054 0.909841 0.039147 -0.000880 -723136.000000 0 0 1
-23.673363 -28.958977 29.437336 47.598395 0.885488 0.904025 0.041986 -0.000388 106838.000000 0 0 1
-24.463363 -30.107497 29.273866 48.599143 0.888459 0.924350 0.026480 -0.012483 -1188480.000000 0 0 1
-25.504933 -29.889577 28.163986 48.343547 0.864387 0.948897 0.014749 0.003617 -1028650.000000 0 0 1
-24.954063 -29.967847 26.846656 47.344694 0.876435 0.967880 0.019666 0.002323 18240.200000 0 0 1
-25.979893 -29.949737 25.858416 47.334969 0.856259 0.992873 0.016623 0.004488 27923.800000 0 0 1
-25.541983 -30.253227 24.409826 46.513334 0.869636 1.018326 0.018977 -0.002755 -316725.000000 0 0 1
-24.726863 -29.236547 23.844396 45.108188 0.868774 1.013840 0.011250 0.001325 319745.000000 0 0 1
-24.290663 -29.503407 22.529396 44.362834 0.881998 1.038116 0.018767 -0.002167 775215.000000 0 0 1
-23.040163 -30.450447 22.351196 44.245393 0.923056 1.041224 0.019353 -0.005687 323613.000000 0 0 1
-23.473763 -31.821007 22.299496 45.396713 0.935226 1.057314 0.021331 -0.010286 829927.000000 0 0 1
-22.395563 -32.664767 21.914596 45.263647 0.969788 1.065400 0.025539 0.000908 762170.000000 0 0 1
-21.455263 -33.280047 23.011396 45.797535 0.998164 1.044355 0.034344 0.005104 408506.000000 0 0 1
-20.823663 -32.369867 23.888796 45.300196 0.999143 1.015325 0.039565 0.005444 155497.000000 0 0 1
-19.587363 -32.862147 24.337406 45.341976 1.033289 1.004213 0.028711 0.003370 -204856.000000 0 0 1
-18.958763 -32.123437 25.538456 45.205781 1.037625 0.970438 0.023184 0.003579 -776857.000000 0 0 1
-17.973763 -31.173907 25.204886 43.933528 1.047787 0.959774 0.032589 0.003359 10473.300000 0 0 1
-17.600663 -30.357147 26.297346 43.850771 1.045372 0.927669 0.032033 0.005581 -144842.000000 0 0 1
-16.757263 -31.011637 27.410636 44.652776 1.075389 0.909853 0.010779 0.003032 -739198.000000 0 0 1
-17.402663 -32.091587 28.094026 46.065138 1.073899 0.914892 0.009750 0.005726 -211744.000000 0 0 1
-16.694963 -32.500497 29.204016 46.774765 1.096262 0.896492 0.009592 0.004271 -613553.000000 0 0 1
-17.098063 -31.836107 30.501226 47.288542 1.077938 0.869770 0.020278 0.002306 -135442.000000 0 0 1
-16.577663 -30.520287 30.598216 46.287770 1.073213 0.848588 0.017168 -0.000098 207881.000000 0 0 1
-16.927263 -29.975007 31.865256 46.908718 1.056728 0.823983 0.029656 0.002156 -62723.800000 0 0 1
-16.635063 -28.424027 31.898456 45.849341 1.041296 0.801370 0.028755 -0.002030 -150509.000000 0 0 1
-17.377563 -27.578267 31.029506 45.004119 1.008525 0.810023 0.040403 -0.002927 89235.700000 0 0 1
-17.138163 -27.712497 29.664326 44.064400 1.016937 0.832263 0.036704 0.004654 -269738.000000 0 0 1
-15.761663 -27.379367 29.062756 42.926723 1.048454 0.827074 0.034070 0.003849 -198757.000000 0 0 1
-15.552963 -25.963667 28.902906 41.849548 1.031092 0.808425 0.032547 0.004304 471324.000000 0 0 1
-14.398263 -25.708697 28.096596 40.714442 1.060267 0.809184 0.020470 0.006517 146165.000000 0 0 1
-14.502263 -24.375347 27.269106 39.345614 1.034094 0.805063 0.030900 0.005295 507244.000000 0 0 1
-15.603863 -24.286847 26.306476 39.055885 0.999724 0.831782 0.054425 -0.002204 872630.000000 0 0 1
-15.482763 -23.110347 25.522686 37.751975 0.980524 0.828391 0.048746 -0.007454 43278.300000 0 0 1
-16.233163 -21.840247 26.049846 37.671029 0.931617 0.807221 0.050337 -0.005165 -350677.000000 0 0 1
-16.142063 -20.867147 25.072906 36.395805 0.912384 0.810832 0.049009 -0.003291 276004.000000 0 0 1
-16.652663 -19.628147 25.619786 36.317334 0.867228 0.787749 0.043199 0.001389 59088.600000 0 0 1
-16.258763 -18.408647 24.753456 34.870607 0.847333 0.781488 0.033933 -0.003455 -99014.100000 0 0 1
-14.880463 -18.139047 24.745266 34.099580 0.883766 0.758779 0.042271 -0.008285 -466938.000000 0 0 1
-14.602663 -17.074547 23.853396 32.768314 0.863274 0.755482 0.037613 -0.000760 837677.000000 0 0 1
-13.143563 -16.534847 24.049026 32.007969 0.899172 0.720698 0.031381 -0.000804 548601.000000 0 0 1
-12.090663 -17.358947 23.594596 31.689464 0.962417 0.730926 0.020582 -0.001587 -10226.800000 0 0 1
-10.825563 -16.746347 23.729896 30.995821 0.996926 0.698848 0.014977 0.000434 -327109.000000 0 0 1
-10.405463 -16.101647 22.362096 29.455051 0.997072 0.708723 0.009850 0.006178 -468855.000000 0 0 1
-10.148463 -16.973047 21.308496 29.071079 1.031910 0.748105 0.017421 0.005280 463640.000000 0 0 1
-8.873063 -17.586747 21.524696 29.177688 1.103530 0.741123 0.010785 0.001729 -98284.800000 0 0 1
-8.662463 -18.827447 20.599896 29.220998 1.139577 0.788417 0.010248 0.002775 -202190.000000 0 0 1
-8.430263 -18.434147 19.214596 27.930052 1.141874 0.812130 0.010067 0.005938 114817.000000 0 0 1
-7.775563 -19.502147 18.527896 28.001358 1.191409 0.847741 0.011197 0.005192 155513.000000 0 0 1
-7.543463 -19.221547 17.057896 26.783269 1.196817 0.880344 -0.004686 0.005819 361637.000000 0 0 1
-6.664763 -18.098447 16.808696 25.583297 1.217956 0.853939 -0.005699 0.007022 377836.000000 0 0 1
-6.607463 -17.835447 15.441696 24.499137 1.216005 0.888863 0.012165 0.002012 -349527.000000 0 1 0
-5.716163 -16.625447 15.322296 23.320651 1.239638 0.853928 -0.007141 0.003368 -387150.000000 0 1 0
-6.169863 -15.440947 15.912296 23.015021 1.190654 0.807389 -0.005671 0.000796 -594108.000000 0 1 0
-5.246363 -14.425447 15.758396 21.998747 1.221980 0.772266 -0.011166 0.003455 -755424.000000 0 1 0
-5.215363 -13.404147 16.889596 22.183995 1.199734 0.705417 -0.032141 0.015997 -121811.000000 0 1 0
-4.841163 -13.837247 18.213096 23.379973 1.234242 0.677720 -0.030114 0.015225 165497.000000 0 1 0
-5.682663 -14.853747 18.769496 24.601228 1.205402 0.702933 -0.006652 0.005292 656756.000000 0 1 0
-7.025663 -14.361947 19.390096 25.131679 1.115837 0.689538 0.015959 -0.002406 219470.000000 0 0 1
-6.703363 -13.489647 20.454296 25.402438 1.109611 0.634767 0.010534 -0.003194 -359992.000000 0 0 1
-7.842463 -12.956747 21.068796 25.947556 1.026503 0.623267 0.019956 -0.000113 -17734.400000 0 0 1
-7.495963 -11.924847 22.231896 26.318219 1.009612 0.564728 0.022665 0.006287 -168991.000000 0 0 1
-7.127063 -10.615847 21.900196 25.359610 0.979551 0.528458 0.009270 0.009069 92167.500000 0 0 1
-6.845963 -9.854347 23.067996 26.002073 0.963626 0.479643 0.012899 0.006857 1122450.000000 0 0 1
-5.379063 -9.958047 23.676196 26.242318 1.075530 0.445920 0.016477 0.004669 1127070.000000 0 0 1
-5.229163 -11.187247 24.335006 27.289030 1.133549 0.469598 0.023524 0.005700 -634108.000000 0 0 1
-3.943163 -11.307947 24.847046 27.582493 1.235274 0.449126 0.014515 0.000057 -869174.000000 0 0 1
-3.770463 -12.626447 25.599486 28.791965 1.280609 0.475379 0.009253 -0.003020 804291.000000 0 0 1
-2.385063 -12.878747 26.034786 29.143794 1.387677 0.466113 -0.002568 -0.006618 1897500.000000 0 0 1
-2.312763 -13.954447 26.982296 30.465058 1.406553 0.482840 0.012260 -0.008790 -157733.000000 0 0 1
-2.409563 -15.346047 26.306306 30.550432 1.415053 0.533410 0.014142 -0.019967 -384694.000000 0 0 1
-1.541263 -15.561947 25.209536 29.665980 1.472078 0.555230 0.026683 -0.018536 157050.000000 0 0 1
-1.815163 -16.845647 24.632116 29.896685 1.463458 0.602524 0.029768 -0.014330 -199549.000000 0 0 1
-0.618563 -17.844047 24.682196 30.463149 1.536145 0.626250 0.036311 -0.022308 424330.000000 0 0 1
-0.067063 -18.334847 25.899476 31.732538 1.567139 0.616027 0.026100 -0.024394 196587.000000 0 0 1
0.538337 -17.379247 26.715676 31.875623 -1.539830 0.576964 0.055750 -0.022636 -708676.000000 0 0 1
1.320137 -17.923847 27.965126 33.242372 -1.497277 0.571206 0.048593 -0.011127 -938642.000000 0 0 1
2.587837 -18.360547 27.590726 33.242364 -1.430773 0.591712 0.038535 -0.012182 -371042.000000 0 0 1
3.390637 -18.774447 28.704946 34.466653 -1.392124 0.586591 0.036785 -0.008905 70517.200000 0 0 1
4.166237 -17.614447 29.354876 34.486737 -1.338541 0.552542 0.036120 -0.004164 -897769.000000 0 0 1
3.401937 -16.581847 29.953416 34.405493 -1.368444 0.514376 0.041759 -0.015979 -54760.200000 0 0 1
4.222137 -15.792847 30.773596 34.846157 -1.309561 0.488309 0.034841 -0.023170 -256640.000000 0 0 1
3.429337 -14.748947 31.553116 34.998442 -1.342342 0.447440 0.047742 -0.020283 257469.000000 0 0 1
2.597037 -15.182647 32.643106 36.094733 -1.401383 0.440888 0.059565 -0.027425 207340.000000 0 0 1
1.821837 -14.142247 33.155485 36.091667 -1.442680 0.406155 0.043248 -0.021779 -513817.000000 0 0 1
1.068437 -14.577447 34.429597 37.403752 -1.497633 0.401476 0.035871 -0.020148 -73279.300000 0 0 1
1.842737 -14.760547 -33.425786 36.586235 -1.446597 2.722888 0.049784 -0.014452 56177.700000 0 0 1
1.053637 -15.137647 -32.268576 35.658372 -1.501305 2.702028 0.042871 -0.024286 222536.000000 0 0 1
1.907637 -15.616447 -31.113876 34.865252 -1.449243 2.673440 0.044686 -0.013577 -427206.000000 0 0 1
1.158237 -16.155147 -30.071886 34.156238 -1.499224 2.647547 0.054563 -0.018342 -382818.000000 0 0 1
1.816237 -16.184947 -28.803166 33.088874 -1.459046 2.626971 0.039080 -0.015448 -331622.000000 0 0 1
1.295337 -17.352547 -27.919036 32.897741 -1.496286 2.584245 0.046430 -0.014903 -92224.900000 0 0 1
1.724237 -18.599647 -28.416546 34.006175 -1.478358 2.560073 0.056859 -0.015012 129545.000000 0 0 1
1.284737 -19.615847 -27.567876 33.858821 -1.505395 2.522147 0.039966 -0.010220 -806887.000000 0 0 1
1.946037 -20.943447 -27.984586 35.007886 -1.478144 2.497058 0.045554 -0.013693 -676153.000000 0 0 1
3.296937 -21.030147 -27.651766 34.896376 -1.415290 2.485524 0.029385 -0.013143 -491738.000000 0 0 1
3.597337 -21.274447 -26.271376 33.996002 -1.403289 2.454004 0.029529 -0.015192 -1036240.000000 0 0 1
5.094237 -21.167947 -25.906196 33.840275 -1.334629 2.442682 0.035285 -0.015295 354044.000000 0 0 1
6.001737 -22.205747 -26.307166 34.945429 -1.306825 2.423113 0.035376 -0.004726 302141.000000 0 0 1
5.995437 -22.774747 -27.615796 36.294167 -1.313387 2.435477 0.030277 -0.006409 -997103.000000 0 0 1
5.130837 -24.042147 -27.803636 37.113239 -1.360540 2.417585 0.007697 -0.003678 -199514.000000 0 0 1
5.535337 -25.131867 -26.968586 37.276740 -1.354006 2.379611 0.020316 0.003864 38994.200000 0 0 1
4.820937 -26.368407 -27.185346 38.178231 -1.389964 2.363230 0.024059 -0.003684 132719.000000 0 0 1
5.126937 -27.603517 -26.242186 38.430352 -1.387154 2.322454 0.027199 -0.009837 34881.500000 0 0 1
6.440637 -28.125357 -26.302746 39.042950 -1.345680 2.309984 0.032713 -0.009329 -257901.000000 0 0 1
6.588937 -29.293147 -25.516586 39.403029 -1.349548 2.275200 0.031662 -0.007234 -1135320.000000 0 0 1
7.966037 -29.873597 -25.557496 40.113279 -1.310202 2.261569 0.023910 -0.014053 -1175900.000000 0 0 1
8.298337 -30.417667 -26.849566 41.412511 -1.304464 2.276204 0.026907 -0.009850 644328.000000 0 0 1
9.642837 -30.931567 -26.772316 42.029787 -1.268597 2.261376 0.059023 -0.016228 763145.000000 0 0 1
10.342237 -30.718527 -28.129166 42.916660 -1.246039 2.285557 0.055000 -0.036966 -52529.800000 0 0 1
9.641437 -31.445327 -29.098356 43.914465 -1.273287 2.295100 0.057930 -0.030308 44082.200000 0 0 1
9.941737 -30.950327 -30.396596 44.505212 -1.259991 2.322644 0.044963 -0.009425 79238.400000 0 0 1
-34.200249 -4.720747 -5.449906 34.952024 0.137166 1.727361 0.082388 -0.025005 -142710.000000 0 0 1
-33.551353 -3.956447 -4.424006 34.072256 0.117380 1.701006 0.068623 -0.036173 520623.000000 0 0 1
-32.635923 -2.982547 -4.847106 33.128439 0.091135 1.717636 0.057062 -0.035679 -196585.000000 0 0 1
-33.367223 -1.745647 -5.462806 33.856478 0.052269 1.732857 0.090707 -0.029494 -468702.000000 0 0 1
-34.148642 -1.105447 -4.507106 34.462527 0.032360 1.701955 0.057541 -0.026025 -93622.900000 0 0 1
-35.037194 -0.219647 -5.125006 35.410717 0.006269 1.716037 0.057098 -0.027571 -463111.000000 0 0 1
34.883567 0.686753 -4.093006 35.129582 0.019684 1.687573 0.059999 -0.022668 -256608.000000 0 0 1
-34.775961 1.551053 -3.455706 34.981640 -0.044572 1.669744 0.035371 -0.014835 197175.000000 0 0 1
35.106717 2.444053 -2.631406 35.289931 0.069506 1.645431 0.042802 -0.020110 164182.000000 0 0 1
-34.653313 3.756353 -2.446006 34.942027 -0.107977 1.640855 0.018851 -0.019694 -753.646000 0 0 1
-34.762109 4.503853 -3.619706 35.239058 -0.128844 1.673696 0.024288 -0.023787 1100770.000000 0 0 1
-33.513663 5.141853 -3.985906 34.139299 -0.152238 1.687817 0.004701 -0.001728 768331.000000 0 0 1
-33.061013 6.453353 -3.209706 33.837532 -0.192771 1.665796 -0.016812 0.004609 -239607.000000 0 0 1
-32.590813 6.251053 -1.910506 33.239838 -0.189503 1.628304 -0.017308 -0.001852 300237.000000 0 0 1
-32.412393 7.525253 -1.305206 33.300094 -0.228130 1.610002 -0.017245 -0.010102 -303180.000000 0 0 1
-31.625623 7.442353 -0.007706 32.489517 -0.231122 1.571034 -0.019804 -0.010537 -225070.000000 0 0 1
-30.233633 7.184553 -0.159806 31.075970 -0.233307 1.575939 -0.011775 -0.006408 497916.000000 0 0 1
-29.486163 7.502553 0.997194 30.442019 -0.249156 1.538033 -0.005635 -0.011747 38225.800000 0 0 1
-29.134473 8.998053 1.336394 30.521606 -0.299552 1.526997 -0.011008 -0.008596 -41475.800000 0 0 1
-30.313033 9.790253 1.469794 31.888702 -0.312396 1.524689 -0.015643 -0.009691 708034.000000 0 0 1
-29.863053 11.134453 1.683894 31.915725 -0.356885 1.518011 -0.006228 0.000380 917483.000000 0 0 1
-31.099623 12.094053 1.528494 33.403428 -0.370884 1.525022 -0.012855 -0.013168 -107446.000000 0 0 1
-31.412393 12.247553 0.152794 33.715936 -0.371765 1.566265 -0.008787 -0.018492 538992.000000 0 0 1
-32.478153 13.148653 -0.169506 35.039210 -0.384677 1.575634 -0.005762 -0.018730 366568.000000 0 0 1
-33.896753 12.762553 0.304794 36.221065 -0.360096 1.562381 0.003772 -0.025136 -677911.000000 0 0 1
-34.396275 11.597853 -0.317506 36.300341 -0.325212 1.579543 0.003046 -0.015482 -1201040.000000 0 0 1
34.876835 11.272853 -0.027306 36.653398 0.312620 1.571541 0.016343 -0.028279 -1081490.000000 0 0 1
34.401939 10.022953 -0.800606 35.841232 0.283501 1.593136 0.018030 -0.021520 -45122.500000 0 0 1
34.340169 10.192353 -2.203606 35.888538 0.288524 1.632236 0.025171 -0.012935 215661.000000 0 0 1
34.066179 8.870753 -2.709206 35.306297 0.254741 1.647606 0.016204 -0.017689 -97884.000000 0 0 1
33.447429 8.893953 -4.128806 34.855128 0.259894 1.689531 0.026483 -0.005671 -358462.000000 0 0 1
32.102449 9.271553 -4.182606 33.675260 0.281161 1.695322 0.043911 -0.017754 -107426.000000 0 0 1
31.640219 9.439853 -5.512606 33.475410 0.289942 1.736226 0.032507 -0.008078 -486085.000000 0 0 1
30.322639 10.168153 -5.707206 32.487320 0.323548 1.747388 0.042542 -0.007748 -591896.000000 0 0 1
29.176809 9.355053 -5.573406 31.142672 0.310277 1.750729 0.038954 -0.010757 260066.000000 0 0 1
28.047069 10.081153 -6.032306 30.408164 0.345057 1.770499 0.033327 0.003562 -219980.000000 0 0 1
26.712989 9.343353 -5.991006 28.927049 0.336468 1.779414 0.025908 0.010388 -528998.000000 0 0 1
26.681429 8.274653 -6.880606 28.769972 0.300722 1.812296 0.017350 0.011721 184449.000000 0 0 1
25.480239 7.536553 -6.901806 27.453181 0.287581 1.824926 0.020214 0.001785 -168364.000000 0 0 1
25.392339 6.692753 -8.212006 27.513649 0.257713 1.873886 0.001562 0.002749 28340.800000 0 0 1
26.184889 5.493253 -8.135106 27.964338 0.206788 1.865974 0.019344 0.001303 585797.000000 0 0 1
26.026769 4.621653 -9.211906 27.993063 0.175741 1.906124 0.005734 0.002108 -394665.000000 0 0 1
26.950689 3.380253 -9.272806 28.701057 0.124772 1.899781 0.019889 0.008522 -99592.800000 0 0 1
28.335479 3.681453 -9.421406 30.086797 0.129200 1.889295 0.070333 0.002106 1041340.000000 0 0 1
29.252439 3.044753 -8.526706 30.621568 0.103712 1.852981 0.051947 -0.012779 234497.000000 0 0 1
29.354349 1.530453 -8.460506 30.587583 0.052090 1.851050 0.060890 -0.015141 -247979.000000 0 0 1
28.426919 0.963653 -7.474806 29.409030 0.033886 1.827783 0.053499 -0.009055 1033170.000000 0 0 1
28.659379 -0.387147 -7.095506 29.527209 -0.013508 1.813475 0.046066 -0.002637 -484501.000000 0 0 1
28.516809 -1.521647 -8.108906 29.686329 -0.053309 1.847465 0.037028 0.002067 -912898.000000 0 0 1
29.518879 -1.624247 -9.088606 30.929034 -0.054969 1.869052 0.053988 -0.007958 117283.000000 0 0 1
29.416829 -2.863747 -9.761006 31.126003 -0.097045 1.889775 0.026410 -0.009804 -341718.000000 0 0 1
30.374729 -3.079947 -10.940906 32.431676 -0.101053 1.914899 0.032273 -0.007346 1029410.000000 0 0 1
31.703879 -3.484847 -10.470906 33.569628 -0.109479 1.888005 0.057366 -0.012628 1620950.000000 0 0 1
32.604389 -3.689647 -11.539306 34.782398 -0.112685 1.908962 0.028600 -0.013811 338431.000000 0 0 1
34.070569 -3.995247 -11.133406 36.065473 -0.116731 1.884622 0.049942 -0.018425 184164.000000 0 0 1
34.178119 -5.266647 -10.534306 36.150421 -0.152892 1.866488 0.039622 -0.016784 713573.000000 0 0 1
-35.040899 -5.533147 -10.150606 36.898715 0.156612 1.849484 0.049567 -0.016986 401910.000000 0 0 1
-34.951361 -6.861947 -9.331906 36.820761 0.193863 1.827033 0.045231 -0.020230 -246540.000000 0 0 1
35.162374 -6.767547 -7.995906 36.689600 -0.190141 1.790493 0.039078 -0.014876 353790.000000 0 0 1
34.960178 -8.078347 -7.537606 36.664550 -0.227087 1.777856 0.035825 -0.011514 -162746.000000 0 0 1
34.396489 -8.107447 -6.081306 35.858491 -0.231481 1.741212 0.048364 -0.008448 -559156.000000 0 0 1
-35.191142 -7.846747 -5.122906 36.417469 0.219386 1.711936 0.049593 -0.011869 84464.800000 0 0 1
-35.254243 -8.637147 -3.926006 36.508567 0.240263 1.678541 0.056345 -0.011191 -551458.000000 0 0 1
-34.634620 -10.023947 -4.042306 36.281905 0.281722 1.682442 0.066965 -0.015596 -347460.000000 0 0 1
35.152219 -10.869447 -4.841406 37.111488 -0.299886 1.701625 0.050042 -0.011595 -6976.570000 0 0 1
-34.599597 -11.854047 -5.372606 36.966410 0.330073 1.716650 0.037949 -0.012535 -229744.000000 0 0 1
-35.153608 -12.425347 -6.670706 37.876955 0.339753 1.747835 0.039014 -0.014780 -84089.200000 0 0 1
-35.237195 -11.448747 -7.734706 37.849166 0.314146 1.776602 0.036727 -0.013596 389576.000000 0 0 1
34.682748 -11.984447 -8.886406 37.755637 -0.332700 1.808392 0.048993 -0.018791 50794.000000 0 0 1
34.991862 -11.187047 -10.181306 38.121377 -0.309435 1.841154 0.031930 -0.017617 202659.000000 0 0 1
34.208989 -9.977747 -10.311806 37.096411 -0.283797 1.852480 0.023256 -0.008833 661482.000000 0 0 1
34.301019 -9.561947 -11.673506 37.473477 -0.271864 1.887582 0.019380 -0.011955 -215361.000000 0 0 1
33.400049 -8.317447 -11.935906 36.430880 -0.244061 1.904592 0.018485 -0.007304 -143922.000000 0 0 1
33.440719 -7.875147 -13.284306 36.834391 -0.231282 1.939761 0.022306 -0.007315 563134.000000 0 0 1
32.396619 -6.948147 -13.533106 35.790538 -0.211271 1.958561 0.018594 -0.010632 177319.000000 0 0 1
32.570899 -6.241347 -14.924606 36.367042 -0.189328 1.993676 0.009316 -0.010702 483886.000000 0 0 1
33.641429 -5.277647 -14.983606 37.203598 -0.155611 1.985311 0.006735 0.001859 646454.000000 0 0 1
33.177629 -4.011947 -15.265806 36.740925 -0.120339 1.999287 0.015060 -0.004449 -1163630.000000 0 0 1
34.242519 -3.024147 -15.476706 37.699124 -0.088087 1.993834 0.017678 -0.008375 -1005370.000000 0 0 1
34.969082 -3.114147 -16.684206 38.870263 -0.088820 2.014434 0.009657 -0.006792 1016200.000000 0 0 1
-34.288446 -2.527347 -16.814706 38.272959 0.073575 2.025656 0.025687 -0.003992 1053940.000000 0 0 1
-34.162922 -1.006847 -16.608906 37.999668 0.029463 2.023146 0.029556 0.001821 -617896.000000 0 0 1
-34.533560 -0.163647 -17.653006 38.784303 0.004739 2.043347 0.018296 -0.000290 137638.000000 0 0 1
-34.220434 1.153853 -17.274706 38.350814 -0.033705 2.038053 0.030203 -0.005420 -350776.000000 0 0 1
-34.521312 2.265953 -18.341206 39.156805 -0.065545 2.058280 0.016187 -0.006635 -320171.000000 0 0 1
-33.666643 2.325853 -19.446906 38.949129 -0.068975 2.093575 0.016425 -0.007813 80640.000000 0 0 1
-33.779183 3.572753 -20.046306 39.441757 -0.105376 2.103949 0.013339 -0.004364 -145467.000000 0 0 1
-32.772603 3.833653 -21.207106 39.223485 -0.116448 2.142034 0.004852 0.004990 713313.000000 0 0 1
-31.402043 4.099053 -20.897906 37.942233 -0.129801 2.154097 0.013947 0.002049 544420.000000 0 0 1
-30.659353 4.273853 -22.063206 38.013772 -0.138505 2.190017 0.006718 0.007000 -718144.000000 0 0 1
-29.190333 4.582953 -21.802706 36.721070 -0.155731 2.206493 0.021440 0.001854 -657002.000000 0 0 1
-28.415093 3.456353 -21.560506 35.836006 -0.121043 2.216354 0.020299 0.012075 177748.000000 0 0 1
-27.043583 3.792653 -21.400506 34.694687 -0.139334 2.235497 0.011059 0.014855 662078.000000 0 0 1
-26.183503 2.874653 -20.460006 33.353430 -0.109351 2.231193 0.026658 0.009170 13845.500000 0 0 1
-26.552383 2.878553 -19.110706 32.841045 -0.107989 2.191878 0.029799 0.008844 -153500.000000 0 0 1
-25.891823 1.924653 -18.312906 31.771895 -0.074198 2.185097 0.037712 0.011768 -32268.800000 0 0 1
-25.072583 2.588853 -17.153806 30.489173 -0.102890 2.168347 0.046989 -0.000477 492463.000000 0 0 1
-23.929263 3.342253 -17.520206 29.845233 -0.138774 2.198188 0.043885 -0.000742 731378.000000 0 0 1
-23.128863 3.807653 -16.405306 28.610778 -0.163164 2.181441 0.050310 -0.010920 127863.000000 0 0 1
-22.043163 4.792553 -16.725306 28.082120 -0.214085 2.208791 0.049816 -0.014161 -6113.480000 0 0 1
-20.929063 4.403753 -17.517806 27.645836 -0.207388 2.257060 0.065327 -0.014124 780839.000000 0 0 1
-19.783263 5.223053 -17.243906 26.758365 -0.258124 2.271075 0.060089 -0.012984 700820.000000 0 0 1
-18.488663 4.573853 -17.827106 26.087478 -0.242518 2.323150 0.070024 -0.012850 166096.000000 0 0 1
-18.151863 3.345753 -17.172806 25.210900 -0.182274 2.320150 0.082540 -0.019054 255680.000000 0 0 1
-17.190163 2.601253 -17.936706 24.979865 -0.150183 2.371788 0.056669 -0.016955 -280230.000000 0 1 0
-17.045263 1.092653 -17.480106 24.439497 -0.064015 2.367764 0.055733 -0.018251 -52786.700000 0 1 0
-17.992963 0.193253 -18.002206 25.453163 -0.010740 2.356422 0.043495 -0.018788 -19358.800000 0 0 1
-19.281463 0.419453 -17.447606 26.007109 -0.021751 2.306189 0.051917 -0.026916 -469978.000000 0 0 1
-20.252963 -0.696147 -17.894706 27.034934 0.034359 2.294161 0.042663 -0.027260 -476630.000000 0 0 1
-20.114163 -1.990447 -17.342606 26.632826 0.098636 2.279927 0.027798 -0.026576 683636.000000 0 0 1
-21.278863 -2.803847 -17.524006 27.708164 0.131012 2.255507 0.031197 -0.008780 358814.000000 0 0 1
-21.290163 -3.941147 -16.493006 27.218063 0.183044 2.221766 0.038802 -0.013517 -90806.700000 0 0 1
-21.587863 -3.477947 -15.215506 26.639136 0.159734 2.178728 0.029427 -0.021481 294539.000000 0 0 1
-21.970063 -4.555647 -14.379606 26.649778 0.204459 2.140731 0.021929 -0.025197 -156731.000000 0 0 1
-22.087863 -4.111047 -12.918706 25.916546 0.184017 2.092633 0.018615 -0.024438 378079.000000 0 0 1
-23.127563 -3.125647 -12.786206 26.610917 0.134334 2.072007 0.013150 -0.023774 770307.000000 0 0 1
-23.554763 -2.866747 -11.487406 26.362959 0.121110 2.021657 0.023694 -0.030868 -567040.000000 0 0 1
-24.450563 -1.629747 -11.485806 27.063072 0.066556 2.009105 0.051308 -0.028189 -397901.000000 0 0 1
-24.837863 -1.193647 -10.144506 26.856196 0.048021 1.958144 0.048182 -0.031993 666754.000000 0 0 1
-25.290723 0.175253 -10.199006 27.270334 -0.006929 1.954111 0.064147 -0.026656 -428417.000000 0 0 1
-25.700753 0.721953 -8.806506 27.177279 -0.028083 1.900792 0.079572 -0.024945 -552839.000000 0 0 1
-24.645463 0.946853 -7.940506 25.910365 -0.038400 1.882269 0.052711 -0.017529 152450.000000 0 0 1
-25.200703 1.119853 -6.633006 26.083065 -0.044408 1.827923 0.053251 -0.020997 159221.000000 0 0 1
-24.118863 1.587253 -5.660106 24.824901 -0.065715 1.800821 0.024763 -0.008982 120403.000000 0 1 0
-23.536163 2.873553 -5.948906 24.445813 -0.121490 1.816615 0.038208 -0.012329 -136911.000000 0 1 0
-22.306363 3.075653 -5.348706 23.143944 -0.137018 1.804011 0.030822 -0.003291 -617094.000000 0 1 0
-21.712263 4.475853 -5.413006 22.820085 -0.203296 1.810283 0.035705 -0.014616 -595316.000000 0 1 0
-22.409263 5.299353 -4.552306 23.473000 -0.232215 1.765971 0.040277 -0.009636 402505.000000 0 1 0
-22.005263 6.636453 -4.688206 23.457481 -0.292910 1.772011 0.034114 -0.011629 -383552.000000 0 1 0
-22.696263 7.671253 -3.771306 24.252654 -0.325941 1.726931 0.044280 -0.008420 -416905.000000 0 1 0
-22.353263 7.717753 -2.401406 23.769704 -0.332449 1.671997 0.048179 -0.005624 743044.000000 0 1 0
-21.021463 8.111853 -2.074406 22.627577 -0.368279 1.662601 0.058798 -0.005785 256770.000000 0 1 0
-20.584963 9.607153 -2.271606 22.829768 -0.436661 1.670463 0.047042 -0.002763 -272372.000000 0 1 0
-20.397563 10.018253 -3.607906 23.009628 -0.456542 1.728246 0.036303 -0.004119 515842.000000 0 1 0
-19.767363 11.280653 -3.710206 23.060083 -0.518575 1.732392 0.036640 0.002632 -232823.000000 0 1 0
-19.655263 11.596253 -5.177006 23.400937 -0.533021 1.793873 0.048013 -0.005145 -111329.000000 0 1 0
-18.643163 10.919353 -5.902206 22.397229 -0.529841 1.837470 0.044524 -0.006326 223038.000000 0 1 0
-18.422663 11.638053 -7.101106 22.918650 -0.563421 1.885821 0.036584 -0.002789 264141.000000 0 1 0
-17.078363 11.375853 -7.853806 21.971864 -0.587608 1.936331 0.029639 -0.003817 -311209.000000 0 1 0
-16.833363 10.082153 -8.330806 21.316995 -0.539639 1.972303 0.019946 -0.001301 246076.000000 0 1 0
-17.760163 9.551253 -9.265906 22.192495 -0.493421 2.001515 0.026711 -0.005683 -92289.500000 0 1 0
-17.899963 10.254753 -10.663006 23.222152 -0.520249 2.047861 0.030656 -0.005718 -106996.000000 0 1 0
-16.704363 10.184653 -11.398106 22.642432 -0.547521 2.098321 0.020498 -0.009023 72371.900000 0 1 0
-16.862363 10.754953 -12.683706 23.683005 -0.567757 2.135969 0.016698 -0.014764 -229313.000000 0 1 0
-15.858363 10.278353 -13.731006 23.359640 -0.575063 2.199144 0.014069 -0.007801 -397497.000000 0 1 0
-15.996263 8.966153 -14.265806 23.233286 -0.510881 2.231946 0.021962 -0.012661 -29418.200000 0 1 0
-15.663763 7.870853 -13.397306 22.063355 -0.465636 2.223353 0.015505 -0.012529 -304513.000000 0 1 0
-15.573163 6.501553 -14.128506 22.009277 -0.395488 2.267814 0.024056 -0.019520 -178446.000000 0 1 0
-14.707463 6.479153 -15.259406 22.161642 -0.414955 2.330284 0.031815 -0.009479 618683.000000 0 1 0
-14.778463 5.184653 -15.782106 22.234174 -0.337410 2.360029 0.035966 -0.017787 145740.000000 0 1 0
31.440359 -16.150147 28.813866 45.602218 -0.474528 0.886856 -0.012868 0.000035 90519.300000 0 0 1
30.580019 -14.980547 28.822636 44.612764 -0.455519 0.868382 -0.007599 0.000925 639518.000000 0 0 1
29.541829 -14.905447 29.811616 44.537899 -0.467284 0.837458 0.010774 -0.008351 434181.000000 0 0 1
29.911699 -14.940647 31.349076 45.833363 -0.463241 0.817593 0.010452 -0.023539 -40528.000000 0 0 1
30.610619 -13.771647 31.796816 46.235330 -0.422769 0.812457 0.012790 -0.022803 175587.000000 0 0 1
30.789019 -13.764147 33.151517 47.290998 -0.420396 0.793982 0.010510 -0.025033 -147836.000000 0 0 1
31.232969 -12.358047 33.678011 47.564988 -0.376771 0.784075 0.017360 -0.025289 78360.800000 0 0 1
30.951579 -12.152647 -33.979726 47.542705 -0.374140 2.367020 0.012853 -0.030759 82992.100000 0 0 1
31.048339 -10.793047 -33.615196 47.015642 -0.334554 2.367390 0.030785 -0.020955 -168676.000000 0 0 1
30.617849 -10.542547 -32.183186 45.654741 -0.331612 2.353114 0.026594 -0.022626 692470.000000 0 0 1
29.195629 -10.535847 -32.000816 44.580725 -0.346326 2.371459 0.056924 -0.028233 715338.000000 0 0 1
28.831149 -10.177647 -30.682866 43.315793 -0.339353 2.357958 0.032653 -0.018649 280782.000000 0 0 1
27.298449 -9.897947 -30.574666 42.166158 -0.347840 2.381975 0.021894 0.001025 585012.000000 0 0 1
26.871049 -9.639547 -29.261246 40.880248 -0.344434 2.368536 0.014828 -0.006583 144224.000000 0 0 1
26.203349 -10.745547 -28.684626 40.309925 -0.389168 2.362572 0.031204 -0.006466 -1204950.000000 0 0 1
25.860389 -10.380647 -27.196456 38.937960 -0.381722 2.344034 0.032698 -0.004160 -1588390.000000 0 0 1
24.944239 -9.322447 -26.978536 37.907314 -0.357658 2.362708 0.025910 -0.010174 1315050.000000 0 0 1
23.608839 -9.356447 -27.546026 37.466037 -0.377322 2.396797 0.035288 -0.013811 1134770.000000 0 0 1
22.845939 -10.684347 -27.226306 37.112854 -0.437450 2.394413 0.027034 -0.006010 -1890800.000000 0 0 1
23.325839 -11.656747 -28.033716 38.286600 -0.463436 2.392353 0.026556 -0.007316 -533325.000000 0 0 1
22.770939 -12.943947 -27.750046 38.159225 -0.516891 2.385055 0.032094 -0.010549 701807.000000 0 0 1
23.629739 -14.053147 -28.520796 39.614281 -0.536530 2.374545 0.014650 0.006810 464338.000000 0 0 1
23.473439 -14.041547 -29.915606 40.535304 -0.539087 2.400918 0.028141 -0.001185 -18588.900000 0 0 1
24.443839 -14.729147 -30.679996 41.901207 -0.542308 2.392340 0.018483 0.011720 -172377.000000 0 0 1
24.367639 -14.653747 -32.234006 42.983081 -0.541420 2.418742 0.036674 -0.004101 18604.900000 0 0 1
23.218639 -15.419047 -32.640126 42.921207 -0.586210 2.434827 0.039236 0.001351 677324.000000 0 0 1
23.132739 -15.752647 -34.008916 44.044022 -0.597838 2.453026 0.036385 0.004094 21843.700000 0 0 1
23.277439 -14.531747 33.995758 43.688928 -0.558085 0.679110 0.026801 -0.004702 159621.000000 0 0 1
22.248139 -13.558447 34.094420 42.909680 -0.547317 0.652510 0.035095 -0.003468 101407.000000 0 0 1
22.540639 -12.539147 33.142891 41.997164 -0.507660 0.661340 0.034040 -0.000419 -201301.000000 0 0 1
21.408739 -11.495547 33.082593 41.048016 -0.492773 0.633520 0.041216 -0.002384 508564.000000 0 0 1
20.123039 -12.007547 32.739006 40.261152 -0.537994 0.621225 0.036332 0.002490 526742.000000 0 0 1
19.866439 -12.089747 31.332956 39.020398 -0.546683 0.638503 0.022652 0.008637 -238865.000000 0 0 1
18.356139 -12.462747 31.161446 38.253152 -0.596453 0.618738 0.022642 0.010609 694279.000000 0 0 1
17.559539 -11.319247 31.429366 37.739473 -0.572585 0.586653 0.018892 0.006840 -523474.000000 0 0 1
16.636039 -11.543047 32.439856 38.240606 -0.606592 0.558013 0.001790 0.011744 -410889.000000 0 0 1
15.792639 -10.312947 32.832926 37.865094 -0.578497 0.521440 0.003360 0.009789 -1147530.000000 0 0 1
14.921839 -9.943847 31.843726 36.545372 -0.587815 0.512854 0.010351 0.005035 81329.900000 0 0 1
14.077239 -8.770847 32.043416 36.081531 -0.557197 0.477637 0.012708 0.005534 412151.000000 0 0 1
12.970039 -8.894247 33.078281 36.626523 -0.601100 0.443807 0.019300 0.002210 -2279720.000000 0 0 1
12.088139 -9.924047 32.732446 36.277029 -0.687400 0.445741 0.013999 0.004758 534992.000000 0 0 1
10.882739 -9.849947 33.517570 36.590750 -0.735625 0.412773 0.005460 0.011666 908672.000000 0 0 1
9.844739 -8.739247 33.118070 35.638461 -0.725982 0.378340 -0.006745 0.011264 -695596.000000 0 0 1
10.305939 -7.405947 33.366291 35.698316 -0.623107 0.363455 0.019120 -0.000466 582335.000000 0 0 1
9.487839 -6.538747 32.549176 34.528585 -0.603421 0.340244 0.017725 0.002797 516408.000000 0 0 1
9.984439 -5.040947 32.511876 34.382005 -0.467544 0.331340 0.030603 -0.005668 11606.800000 0 0 1
9.909039 -4.371047 33.791595 35.484743 -0.415442 0.310159 0.018904 -0.007911 265211.000000 0 0 1
10.220939 -3.006047 33.720898 35.363864 -0.286041 0.306017 0.007477 -0.007981 -525898.000000 0 0 1
9.957439 -2.224647 -34.025806 35.522600 -0.219806 2.850266 -0.001515 -0.007766 -757221.000000 0 0 1
8.609439 -2.122647 -33.722296 34.868630 -0.241728 2.884464 0.003815 -0.001147 -800714.000000 0 0 1
8.519539 -1.283447 -32.547626 33.668646 -0.149523 2.882818 0.006711 -0.005804 480041.000000 0 0 1
7.069639 -0.920247 -32.088486 32.870923 -0.129441 2.922968 0.023728 -0.003265 212690.000000 0 0 1
6.576939 0.172753 -32.750426 33.404736 0.026261 2.943342 0.031157 -0.003244 -357073.000000 0 0 1
5.306439 0.540753 -32.273396 32.711203 0.101555 2.977800 0.035120 0.000311 -390720.000000 0 0 1
4.623139 1.501953 -33.234866 33.588474 0.314121 2.996361 0.034427 0.008847 -214562.000000 0 0 1
5.250839 2.753853 -33.393836 33.916122 0.483023 2.965871 0.027080 0.003975 61060.900000 0 0 1
4.563839 3.387753 -34.430298 34.896288 0.638557 2.977987 0.032261 0.007965 180108.000000 0 0 1
5.441239 4.574453 34.205091 34.935955 0.699071 0.204907 0.033507 0.001739 5838.030000 0 0 1
4.934039 5.378453 33.171589 33.965082 0.828466 0.216581 0.043091 -0.015104 44997.800000 0 0 1
5.793439 6.510553 33.061940 34.191273 0.843615 0.257734 0.048887 -0.014333 17185.000000 0 0 1
5.270039 7.615753 32.179896 33.486097 0.965465 0.280227 0.059238 -0.015530 -546866.000000 0 0 1
4.154539 8.317153 32.689836 33.986183 1.107537 0.277086 0.056892 -0.017904 -39199.500000 0 0 1
3.845739 9.533153 32.005916 33.616207 1.187357 0.310772 0.057427 -0.023679 -240176.000000 0 0 1
3.511639 9.502653 30.522866 32.160183 1.216818 0.320466 0.053684 -0.018703 -298237.000000 0 0 1
2.302439 8.827753 30.225616 31.572430 1.315662 0.293137 0.056847 -0.021010 -66840.400000 0 0 1
2.053939 8.725353 28.823246 30.184930 1.339606 0.301512 0.040933 -0.004010 -640117.000000 0 0 1
0.727839 8.152953 28.416956 29.572349 1.481759 0.280454 0.036014 -0.003607 -1135800.000000 0 0 1
-0.412861 8.742453 28.941746 30.236164 -1.523606 0.293664 0.038379 -0.008943 -1105420.000000 0 0 1
-1.545361 8.376053 28.225906 29.483015 -1.388350 0.293070 0.043694 -0.005928 -526204.000000 0 0 1
-2.864961 8.847153 28.828136 30.290949 -1.257624 0.312044 0.031180 -0.010373 -364247.000000 0 0 1
-3.044361 10.226453 28.950446 30.854122 -1.281456 0.353113 0.037775 -0.005154 -141223.000000 0 0 1
-4.381161 10.355853 29.372106 31.450897 -1.170569 0.365616 0.026660 -0.007911 -378361.000000 0 0 1
-4.783761 11.769853 29.947296 32.530822 -1.184749 0.401228 0.007543 -0.002719 -66496.700000 0 0 1
-4.939361 12.865053 29.051376 32.154150 -1.204214 0.442922 0.013549 -0.000276 210843.000000 0 0 1
-6.150361 12.833153 28.327006 31.700726 -1.123881 0.465547 0.014563 -0.001888 -255834.000000 0 0 1
-6.377661 14.135953 27.627686 31.682626 -1.146973 0.511495 0.008296 0.005379 -263236.000000 0 0 1
-5.397061 14.510053 26.695876 30.860002 -1.214699 0.525518 0.013224 0.009857 -196504.000000 0 0 1
-5.439861 15.856353 26.388206 31.262653 -1.240307 0.565948 -0.013416 0.013239 -829338.000000 0 0 1
-4.159461 16.478253 25.891666 30.971153 -1.323540 0.580856 0.005978 0.009473 -841335.000000 0 0 1
-3.886861 16.007453 24.572506 29.583007 -1.332591 0.590560 -0.001038 0.019184 39335.400000 0 0 1
-3.012961 16.943753 23.942296 29.485628 -1.394814 0.623228 0.007546 0.027016 102917.000000 0 0 1
-2.820561 16.710553 22.455496 28.132676 -1.403583 0.646495 0.005165 0.026708 -12963.100000 0 0 1
-2.108061 15.579753 21.949496 26.999130 -1.436305 0.621561 -0.008715 0.023870 159946.000000 0 0 1
-2.099261 15.575453 20.510596 25.839625 -1.436824 0.653822 -0.014081 0.024040 -192772.000000 0 0 1
-1.392861 14.410253 19.808296 24.534956 -1.474438 0.631149 -0.007945 0.014074 -384924.000000 0 1 0
-1.822061 13.116953 20.009396 23.994798 -1.432771 0.584649 -0.005918 0.014132 -254386.000000 0 1 0
-1.039061 12.216053 19.265196 22.835485 -1.485944 0.566747 0.000442 0.010901 -402858.000000 0 1 0
-1.603161 10.817153 19.189296 22.086422 -1.423662 0.517967 -0.006078 0.003072 -853538.000000 0 1 0
-1.741661 9.966153 20.315496 22.695308 -1.397786 0.462049 -0.001956 0.000827 932214.000000 0 1 0
-2.739961 10.319453 21.343696 23.865286 -1.311270 0.463841 0.012570 0.004198 757793.000000 0 1 0
-4.177261 10.055353 20.852296 23.523986 -1.177062 0.481228 0.010447 0.003211 -694943.000000 0 1 0
-4.814661 8.826453 21.054996 23.332383 -1.071429 0.445504 0.014665 -0.004370 1404670.000000 0 1 0
-6.253361 9.026053 21.127396 23.810524 -0.964911 0.479310 0.022057 -0.000611 1221510.000000 0 1 0
-7.092461 7.751953 21.209796 23.669627 -0.829796 0.459946 0.020869 -0.007517 -225245.000000 0 1 0
-7.027461 7.183153 22.488696 24.631775 -0.796354 0.420229 0.023969 -0.011888 77159.000000 0 1 0
-7.668161 5.934753 22.466296 24.469501 -0.658652 0.407449 0.019744 -0.009715 -14593.400000 0 1 0
-7.666061 5.129153 23.809596 25.533773 -0.589667 0.369592 0.007606 -0.004923 -112142.000000 0 0 1
-8.537761 5.687353 24.767856 26.808321 -0.587639 0.392680 0.001430 -0.006651 99081.600000 0 0 1
-8.759861 4.763153 25.791806 27.652126 -0.498030 0.368901 -0.004233 0.001675 -547223.000000 0 0 1
-9.754761 5.353353 26.769906 28.990371 -0.501917 0.393933 -0.010167 0.004566 -738169.000000 0 0 1
-9.291061 6.515153 27.403956 29.660544 -0.611550 0.392595 -0.004301 -0.000469 -529111.000000 0 0 1
-10.161261 6.993553 28.366756 30.932732 -0.602801 0.410186 -0.012370 -0.000403 -481538.000000 0 0 1
-9.650661 8.287853 28.984766 31.653443 -0.709573 0.413573 -0.001582 -0.009049 -241531.000000 0 0 1
-8.472361 7.956553 29.665216 31.860833 -0.754012 0.373414 0.001571 -0.014940 -113284.000000 0 0 1
-7.867561 9.101153 30.285886 32.587796 -0.857969 0.378113 0.006826 -0.014269 42257.100000 0 0 1
-7.089961 8.719853 31.570216 33.510923 -0.888129 0.341995 0.024559 -0.016368 561076.000000 0 0 1
-5.846961 8.058853 31.277526 32.824011 -0.943139 0.308185 0.030772 -0.019811 212715.000000 0 0 1
-5.167161 7.733353 32.459896 33.766095 -0.981757 0.279055 0.043959 -0.021910 798104.000000 0 0 1
-3.624661 7.516653 32.251926 33.314036 -1.121476 0.253190 0.024194 -0.012747 925819.000000 0 0 1
-2.939861 8.732353 32.110396 33.406202 -1.246052 0.279438 0.014415 -0.009663 -777651.000000 0 0 1
-1.565761 8.747053 32.318046 33.517438 -1.393668 0.268327 0.019880 -0.013729 -498427.000000 0 0 1
-0.869961 10.094353 32.020816 33.585495 -1.484826 0.306445 0.019933 -0.010760 -156797.000000 0 0 1
-1.379361 11.142753 32.757456 34.628233 -1.447633 0.330207 0.017034 -0.020315 -48444.700000 0 0 1
-1.259161 12.354853 32.090486 34.409696 -1.469231 0.369245 0.013163 -0.011742 -325202.000000 0 0 1
-1.571461 13.509553 33.046432 35.735755 -1.454995 0.390433 0.004923 -0.018795 -965553.000000 0 0 1
-0.659761 13.782253 34.038915 36.729192 -1.522962 0.385119 0.028860 -0.011244 -997779.000000 0 0 1
-1.054161 14.859853 -34.181398 37.286653 -1.499975 2.730587 0.026912 -0.011982 -703843.000000 0 0 1
0.100539 15.531453 -33.492286 36.918415 1.564323 2.707370 0.012309 -0.009308 -785960.000000 0 0 1
0.860839 16.325053 -34.352938 38.044353 1.518114 2.697430 0.034688 -0.012572 77613.700000 0 0 1
2.178439 16.539353 -33.889326 37.772771 1.439838 2.684160 0.053568 -0.011201 -21766.900000 0 0 1
2.952239 17.495753 34.235697 38.560343 1.403631 0.478151 0.069308 -0.005819 -132773.000000 0 0 1
2.637539 18.869053 34.443098 39.361463 1.431915 0.505265 0.051318 0.001005 157891.000000 0 0 1
3.509439 19.601853 33.604959 39.062029 1.393637 0.534944 0.034855 0.010934 94330.800000 0 0 1
3.468439 21.125553 33.738999 39.957967 1.408066 0.565423 0.031665 0.004719 -17923.100000 0 0 1
3.752139 21.607853 -33.971366 40.435524 1.398864 2.568331 0.042418 -0.004563 242892.000000 0 0 1
3.689439 23.055053 -33.949596 41.203429 1.412114 2.539144 0.030153 0.000908 63841.000000 0 0 1
3.926339 23.647353 -32.582986 40.450766 1.406260 2.507311 0.049386 -0.002231 -14422.900000 0 0 1
3.274439 24.897853 -32.415166 41.004488 1.440032 2.482466 0.044682 -0.013044 280084.000000 0 0 1
3.365239 25.180853 -31.039016 40.110108 1.437941 2.455686 0.053718 -0.013862 -440109.000000 0 0 1
2.672939 26.401853 -30.528966 40.450219 1.469900 2.426038 0.041712 -0.017371 -358311.000000 0 0 1
3.235839 27.665553 -30.883216 41.588779 1.454363 2.407719 0.030886 -0.015211 282171.000000 0 0 1
2.478939 28.711753 -30.337106 41.843159 1.484671 2.381859 0.021203 -0.017435 -361855.000000 0 0 1
3.386339 29.914253 -30.181966 42.629578 1.458075 2.357466 0.014717 -0.015777 294357.000000 0 0 1
4.515939 29.700053 -29.329856 41.984847 1.419901 2.344210 0.059254 -0.032977 567407.000000 0 0 1
5.263039 30.914653 -29.163806 42.824560 1.402169 2.319933 0.078277 -0.030714 96152.700000 0 0 1
6.469939 30.692053 -28.138256 42.138150 1.363036 2.301995 0.096324 -0.046508 782564.000000 0 0 1
7.559039 30.059553 -28.778476 42.295585 1.324436 2.319123 0.092411 -0.044937 778872.000000 0 0 1
8.629439 30.855353 -29.381396 43.471675 1.298090 2.312947 0.093171 -0.042047 870401.000000 0 0 1
8.285439 32.126053 -30.300246 44.931467 1.318393 2.310902 0.087899 -0.035738 -1333080.000000 0 0 1
7.680239 33.162553 -29.506156 45.048355 1.343215 2.284964 0.077360 -0.033958 140652.000000 0 0 1
7.363039 34.326153 -30.199606 46.308912 1.359496 2.281192 0.077615 -0.024709 96595.600000 0 0 1
6.170739 34.205753 -31.197106 46.705150 1.392315 2.302259 0.045246 -0.006646 -323627.000000 0 0 1
6.429239 33.429653 -32.341006 46.955484 1.380795 2.330572 0.042468 -0.006780 949572.000000 0 0 1
5.219139 33.209153 -33.109506 47.183966 1.414912 2.348592 0.036616 -0.003111 977602.000000 0 0 1
5.567539 32.623353 34.488006 47.798569 1.401764 0.764790 0.024504 0.008131 43675.300000 0 0 1
6.196739 33.608953 33.681074 47.983081 1.388466 0.792684 0.024966 -0.004557 244699.000000 0 0 1
6.427839 33.104453 32.355796 46.734564 1.379014 0.806082 0.012227 -0.009591 50117.900000 0 0 1
5.242239 33.336053 31.358966 46.066889 1.414819 0.822042 0.008936 -0.014465 441082.000000 0 0 1
5.129539 -34.435418 31.012686 46.625067 -1.422923 0.843101 0.006257 -0.011981 469403.000000 0 0 1
4.048139 -34.345118 30.087196 45.839000 -1.453471 0.854804 0.014695 -0.019974 -96118.200000 0 0 1
17.088937 -21.901147 29.517896 40.533914 -0.908199 0.755065 0.044367 -0.003580 -792604.000000 0 0 1
16.074737 -20.943247 29.694436 39.733818 -0.916165 0.726756 0.037024 -0.000283 476784.000000 0 0 1
14.764537 -21.521847 29.703726 39.541026 -0.969511 0.720899 0.045130 0.001491 381284.000000 0 0 1
14.358337 -21.900347 31.134236 40.683260 -0.990479 0.699314 0.036721 0.000588 -1280280.000000 0 0 1
15.051237 -22.957847 31.685196 41.923193 -0.990492 0.713934 0.046411 -0.010038 26114.700000 0 0 1
14.777137 -22.992747 33.079931 42.910512 -0.999579 0.690535 0.016797 -0.001366 174714.000000 0 0 1
15.597037 -24.171447 33.711405 44.316873 -0.997756 0.706421 0.033722 -0.007032 -269344.000000 0 0 1
15.323637 -25.479917 33.322388 44.658947 -1.029348 0.728532 0.032670 -0.008660 -46151.800000 0 0 1
16.040737 -26.487137 34.055522 46.028819 -1.026266 0.737913 0.029159 -0.012186 -212153.000000 0 0 1
15.786537 -27.919647 33.686945 46.513780 -1.056186 0.760871 0.023069 -0.010199 -337625.000000 0 0 1
16.307537 -28.454917 32.522646 46.188100 -1.050390 0.789592 0.027616 -0.006684 -354893.000000 0 0 1
15.932537 -29.820157 32.335926 46.783540 -1.080096 0.807673 0.023854 0.002398 -60400.600000 0 0 1
16.621737 -30.714617 31.232646 46.852406 -1.074760 0.841134 0.047520 0.001262 -91447.800000 0 0 1
17.810837 -31.312857 31.687206 47.977077 -1.053632 0.849358 0.052161 -0.007934 -202461.000000 0 0 1
18.361637 -32.006587 30.556816 47.909188 -1.049952 0.879149 0.039605 0.000613 -299712.000000 0 0 1
19.737137 -32.668017 30.739226 49.006672 -1.027314 0.892785 0.028671 -0.002611 -214630.000000 0 0 1
20.823937 -31.763847 30.873356 48.946322 -0.990504 0.888265 0.024400 -0.002205 -142678.000000 0 0 1
21.917737 -32.563427 31.213606 50.150306 -0.978368 0.898990 0.025114 -0.005887 -1253500.000000 0 0 1
23.221337 -31.899887 31.575106 50.535340 -0.941561 0.895905 0.025358 -0.013356 -748346.000000 0 0 1
23.938537 -31.447867 30.457266 49.896562 -0.920157 0.914221 0.025099 0.000338 -387343.000000 0 0 1
24.615037 -30.278377 30.789426 49.705824 -0.888204 0.902776 0.025899 0.010968 117661.000000 0 0 1
25.803037 -29.830937 29.888716 49.487542 -0.857672 0.922330 0.029276 0.010210 1268340.000000 0 0 1
26.982637 -30.646447 30.084286 50.718159 -0.848888 0.935811 0.023291 0.011124 430847.000000 0 0 1
28.017537 -30.482007 29.152756 50.636136 -0.827501 0.957299 0.023861 -0.004944 -330688.000000 0 0 1
29.183137 -31.374657 29.541806 52.045584 -0.821571 0.967191 0.017474 0.000588 -471898.000000 0 0 1
28.836537 -32.767077 29.352256 52.600210 -0.849116 0.978792 0.010593 -0.004316 796661.000000 0 0 1
29.839737 -33.726137 29.832396 54.016979 -0.846462 0.985702 0.015711 -0.006314 256700.000000 0 0 1
29.225137 33.981010 30.196136 54.042800 0.860500 0.977925 0.003969 -0.003922 -318118.000000 0 0 1
28.556137 33.799861 31.413716 54.265137 0.869294 0.953426 0.002625 -0.004381 1136520.000000 0 0 1
27.416837 -34.457234 31.687576 54.250220 -0.898697 0.947025 0.001583 0.000858 591555.000000 0 0 1
26.138537 34.486525 30.858376 53.148686 0.922236 0.951325 0.010288 -0.003717 -649559.000000 0 0 1
25.563237 33.224491 31.155746 52.230512 0.914988 0.931657 0.001753 -0.006130 -818604.000000 0 0 1
24.212437 33.197745 30.833306 51.371443 0.940649 0.927041 0.009655 -0.008519 -562699.000000 0 0 1
23.647537 31.775795 30.860516 50.212335 0.931018 0.908917 0.032487 -0.011844 -290120.000000 0 0 1
23.761937 30.992755 29.662106 49.041014 0.916697 0.921228 0.024061 -0.014836 67691.500000 0 0 1
23.184037 29.715855 29.832876 48.067994 0.908251 0.901239 0.043744 -0.029784 -231685.000000 0 0 1
22.624037 29.216265 28.453166 46.637108 0.911883 0.914613 0.042481 -0.024552 574380.000000 0 0 1
21.443737 29.911865 27.972986 46.228146 0.948820 0.920896 0.060208 -0.030062 811389.000000 0 0 1
21.206137 29.563755 26.661316 45.105893 0.948552 0.938396 0.054779 -0.026647 -76327.100000 0 0 1
19.836937 30.064345 26.155166 44.513611 0.987551 0.942735 0.071061 -0.024597 -57632.200000 0 0 1
19.722437 31.470905 25.987446 45.329237 1.010984 0.960263 0.067462 -0.023262 835374.000000 0 0 1
18.458037 31.800525 25.353376 44.662805 1.044889 0.967133 0.067990 -0.020161 490711.000000 0 0 1
18.317637 33.276622 24.905736 45.422077 1.067596 0.990445 0.075583 -0.013030 38112.400000 0 0 1
18.997037 33.702025 23.716896 45.378464 1.057514 1.020844 0.071544 -0.011325 1326340.000000 0 0 1
20.439537 33.826172 23.732696 46.100167 1.027256 1.030014 0.070755 -0.003469 1254240.000000 0 0 1
20.994337 34.042744 22.274296 45.780070 1.018184 1.062660 0.073486 -0.014397 -65635.500000 0 0 1
20.646237 -33.860177 21.763596 45.237515 -1.023239 1.068892 0.072016 -0.003765 64827.000000 0 0 1
21.057737 -33.665257 20.455596 44.667765 -1.011835 1.095109 0.070642 -0.009712 -169125.000000 0 0 1
20.769937 -32.240777 19.918696 43.215881 -0.998500 1.091774 0.051654 -0.006495 -141779.000000 0 0 1
21.517637 -31.153527 20.466296 43.039751 -0.966342 1.075240 0.044348 0.003565 203166.000000 0 0 1
20.994437 -29.870737 20.103796 41.679610 -0.958165 1.067471 0.057460 -0.005334 152975.000000 0 0 1
21.657037 -29.257867 18.803896 40.971167 -0.933589 1.093978 0.043502 -0.008230 -232976.000000 0 0 1
21.353337 -30.057287 17.726996 40.910290 -0.953110 1.122630 0.029585 -0.017417 246107.000000 0 0 1
21.647337 -29.396347 16.503696 40.064003 -0.936059 1.146222 0.026875 -0.010268 -250888.000000 0 0 1
21.073037 -30.256247 15.341896 39.936038 -0.962433 1.176497 0.029213 -0.006169 42949.100000 0 0 1
21.884437 -31.354767 14.911496 41.041475 -0.961439 1.198959 0.018663 -0.001252 232908.000000 0 0 1
22.032037 -31.451377 13.503196 40.705479 -0.959727 1.232660 0.009558 -0.000006 -139341.000000 0 0 1
20.750237 -31.715287 12.683396 39.966239 -0.991428 1.247860 0.004084 -0.001176 -429477.000000 0 0 1
20.168837 -32.920767 12.903596 40.707022 -1.021129 1.248245 0.003737 0.004540 -27895.600000 0 0 1
18.904637 -33.056427 12.292396 40.015193 -1.051303 1.258554 0.005114 0.022930 -91587.500000 0 0 1
17.792237 -33.716647 13.123196 40.318659 -1.085236 1.239270 0.011198 0.011548 -103921.000000 0 0 1
17.515637 -33.021437 14.338896 40.035194 -1.083100 1.204503 0.020844 0.008911 206159.000000 0 0 1
18.023137 -33.747317 15.440996 41.256990 -1.080272 1.187194 0.020833 -0.002993 -619363.000000 0 0 1
17.965737 -32.985147 16.804496 41.148253 -1.072061 1.150108 0.023350 -0.005124 327516.000000 0 0 1
16.684537 -32.547027 17.254396 40.440041 -1.097097 1.129993 0.026306 0.001984 190811.000000 0 0 1
15.649737 -33.428417 17.567196 40.877618 -1.132946 1.126579 0.033931 0.004129 -932778.000000 0 0 1
15.817737 -34.328591 18.792496 42.211501 -1.139019 1.109400 0.034372 -0.007418 -416415.000000 0 0 1
16.699137 33.728614 18.535696 41.952981 1.111074 1.113169 0.035947 -0.001403 74029.000000 0 0 1
16.863437 33.044755 19.730896 42.019514 1.098926 1.081998 0.040047 -0.004836 374424.000000 0 0 1
17.728837 31.725145 19.608296 41.295057 1.061202 1.076021 0.053214 -0.008793 112818.000000 0 0 1
17.072437 30.610065 18.998296 39.867022 1.062031 1.074080 0.020811 -0.008128 -539143.000000 0 0 1
17.938237 29.512635 18.781596 39.313157 1.024650 1.072712 0.029483 -0.010236 -56897.800000 0 0 1
17.271837 28.135515 18.492696 37.840499 1.020233 1.060196 0.028114 -0.009913 -11541.500000 0 0 1
16.919537 27.490905 19.704996 37.819406 1.019087 1.022741 0.043987 -0.016363 -91360.600000 0 0 1
16.875337 26.091405 19.622696 36.750355 0.996690 1.007536 0.031166 -0.018689 -514803.000000 0 0 1
16.623737 25.464725 20.977296 36.943846 0.992445 0.966946 0.047997 -0.017764 325847.000000 0 0 1
15.336237 25.620315 21.549496 36.823654 1.031409 0.945660 0.047380 -0.016043 1173290.000000 0 0 1
14.281837 24.724765 21.063896 35.482004 1.046986 0.935209 0.033630 -0.008256 1095290.000000 0 0 1
12.903137 24.958225 21.742596 35.526672 1.093650 0.912200 0.028261 -0.016901 73356.800000 0 0 1
12.288237 26.147945 21.300896 35.894901 1.131476 0.935490 0.031400 -0.011742 -146113.000000 0 0 1
11.074437 26.340125 22.003196 36.063638 1.172795 0.914583 0.004061 -0.008824 -336037.000000 0 0 1
10.212337 27.484355 21.465596 36.338043 1.215037 0.938846 -0.013233 -0.006450 -635696.000000 0 0 1
10.728337 28.750645 21.606896 37.530717 1.213648 0.957321 -0.009849 -0.002312 -453045.000000 0 0 1
10.358737 29.608125 20.523896 37.485661 1.234245 0.991407 -0.019337 0.000949 -187517.000000 0 0 1
10.985637 31.027195 20.540396 38.797924 1.230505 1.012880 -0.015471 -0.001816 -426761.000000 0 0 1
10.601037 31.990825 21.510596 39.981253 1.250807 1.002713 -0.011727 0.002627 -384277.000000 0 0 1
10.887837 31.712305 22.871596 40.587254 1.240074 0.972160 0.006218 0.006717 -172689.000000 0 0 1
10.290137 32.740465 23.853596 41.794964 1.266278 0.963403 0.006836 0.008353 504828.000000 0 0 1
8.930537 32.510745 24.203806 41.503340 1.302714 0.948162 -0.009836 0.007644 -50895.200000 0 0 1
8.666337 33.083085 25.473846 42.644023 1.314596 0.930591 -0.007508 0.008639 25025.300000 0 0 1
7.219537 32.941185 26.074506 42.627728 1.355043 0.912615 0.009561 -0.004395 13440.300000 0 0 1
6.161037 33.540290 25.392076 42.516667 1.389131 0.930758 -0.004042 -0.008050 -5140.610000 0 0 1
5.814337 32.997275 24.125076 41.287358 1.396380 0.946753 -0.010103 -0.009892 -540556.000000 0 0 1
4.923937 31.716955 24.275266 40.242998 1.416780 0.923268 -0.011521 -0.018294 -49068.400000 0 0 1
5.678137 30.649465 24.879336 39.882481 1.387613 0.897180 -0.018120 -0.008407 25248.200000 0 0 1
4.936137 29.439135 24.858276 38.845360 1.404669 0.876390 -0.023173 -0.009384 -1272850.000000 0 0 1
5.804137 28.283215 25.389486 38.448072 1.368392 0.849501 -0.029920 -0.004853 -59360.900000 0 0 1
6.883437 27.874385 24.586046 37.799956 1.328695 0.862652 -0.027690 -0.006865 714136.000000 0 0 1
7.921737 28.844975 24.319296 38.551454 1.302773 0.888178 -0.009992 -0.006102 -1377780.000000 0 0 1
9.161137 28.713655 25.146996 39.252666 1.261954 0.875459 -0.012721 -0.008278 -1458580.000000 0 0 1
8.863637 28.792595 26.514856 40.132470 1.272159 0.849068 -0.009028 -0.005375 -209022.000000 0 0 1
9.943237 28.689125 27.403486 40.900915 1.237167 0.836592 0.015033 -0.003542 -268878.000000 0 0 1
10.807637 29.948175 27.549936 42.103410 1.224464 0.857487 0.015972 -0.002071 -50478.100000 0 0 1
10.225237 30.962905 28.417206 43.252682 1.251831 0.853958 0.017308 0.001802 486656.000000 0 0 1
10.902737 32.233175 28.400246 44.321791 1.244631 0.875290 0.014601 0.015152 128444.000000 0 0 1
10.175637 33.273607 29.339796 45.513736 1.274011 0.870249 0.023846 0.015116 -54239.600000 0 0 1
10.226737 33.100565 30.732876 46.311372 1.271140 0.845157 0.038249 -0.002182 129052.000000 0 0 1
9.850137 31.884585 31.342586 45.782198 1.271166 0.816739 0.034697 0.006661 -346645.000000 0 0 1
10.033137 31.906955 32.890556 46.909554 1.266136 0.793790 0.048987 -0.008957 -126894.000000 0 0 1
9.807937 30.655515 33.498615 46.455499 1.261147 0.765421 0.040142 -0.011558 122815.000000 0 0 1
10.129937 30.653285 -34.199926 47.030569 1.251627 2.385009 0.053503 -0.017575 -44930.800000 0 0 1
10.151437 29.200065 -33.706486 45.736448 1.236216 2.399376 0.049663 -0.014552 -588379.000000 0 0 1
11.284337 28.561845 -34.184319 45.953051 1.194535 2.409679 0.042684 -0.000983 -454679.000000 0 0 1
11.154237 27.195745 -33.989946 44.937089 1.181574 2.428572 0.033113 -0.011142 536846.000000 0 0 1
12.539237 26.507795 -34.234063 45.076232 1.128949 2.433295 0.024267 -0.009595 615656.000000 0 0 1
12.515937 25.078275 -34.210373 44.225764 1.107889 2.455204 0.018033 -0.011950 -171797.000000 0 0 1
12.648337 24.487665 -32.968566 42.971531 1.094021 2.445290 0.015927 -0.008521 -153026.000000 0 0 1
12.506837 22.965125 -33.032806 42.130561 1.072107 2.471973 0.011893 -0.027614 451770.000000 0 0 1
13.653937 22.341025 -33.624746 42.616604 1.022211 2.479985 0.003409 -0.015526 725304.000000 0 0 1
13.466937 20.957425 -33.552866 41.789555 0.999651 2.502942 0.008800 -0.010065 1142810.000000 0 0 1
14.768437 20.190825 -34.062775 42.261670 0.939278 2.508154 0.019925 -0.010282 2102190.000000 0 0 1
15.936537 20.284625 -33.207976 42.050076 0.904869 2.481156 0.017201 -0.017106 230736.000000 0 0 1
17.141337 20.064625 -33.836506 42.910648 0.863807 2.479218 0.016443 -0.017124 -965698.000000 0 0 1
18.362737 20.260725 -32.946856 42.815679 0.834499 2.448861 0.011142 -0.014310 -383085.000000 0 0 1
18.783137 21.634825 -33.038626 43.731255 0.855836 2.427202 0.013291 -0.008895 531067.000000 0 0 1
19.906037 21.883425 -32.163326 43.699132 0.832681 2.397965 0.015375 -0.009303 718463.000000 0 0 1
19.486037 22.257225 -30.672586 42.613346 0.851687 2.374294 -0.001168 -0.000931 76861.900000 0 0 1
18.874337 23.514525 -30.595586 42.956529 0.894431 2.363488 -0.001847 -0.000842 -88016.300000 0 0 1
18.448237 23.893625 -29.290906 42.061858 0.913301 2.341133 -0.006072 0.014054 -130666.000000 0 0 1
19.553037 24.396375 -28.291466 42.165287 0.895158 2.306307 -0.014178 0.024171 225099.000000 0 0 1
20.304237 25.530825 -28.657676 43.420588 0.898938 2.291618 -0.006383 0.012670 102817.000000 0 0 1
19.519137 26.729705 -28.667856 43.787210 0.940061 2.284593 -0.011240 0.014755 3828.240000 0 0 1
20.286037 27.923115 -29.338766 45.298861 0.942508 2.275320 -0.007985 0.011961 -225234.000000 0 0 1
20.373337 27.928355 -30.802316 46.301712 0.940554 2.298628 -0.000101 0.009594 190938.000000 0 0 1
21.035337 26.855935 -31.517996 46.444706 0.906343 2.316669 0.011554 0.009969 -429219.000000 0 0 1
22.411437 26.400505 -31.056716 46.516436 0.866940 2.301845 0.030301 -0.005106 -32625.300000 0 0 1
23.463437 27.358525 -31.323926 47.751545 0.861890 2.286273 0.027846 -0.001083 880890.000000 0 0 1
24.763537 26.908825 -30.959356 47.914500 0.826891 2.273309 0.034076 -0.012605 249102.000000 0 0 1
25.872137 27.926945 -31.204316 49.223887 0.823574 2.257416 0.012569 -0.003417 -495495.000000 0 0 1
25.940337 28.998435 -30.271586 49.296848 0.841005 2.232000 0.004251 0.008527 1341110.000000 0 0 1
27.022437 29.928945 -30.661956 50.656780 0.836389 2.220924 0.001589 0.009887 1246620.000000 0 0 1
26.985737 31.221375 -29.836246 50.923529 0.858039 2.196790 0.002525 0.016399 -363563.000000 0 0 1
27.391237 31.040245 -28.520536 50.271241 0.847767 2.174060 0.011675 0.014463 349798.000000 0 0 1
26.579237 31.680695 -27.555206 49.693175 0.872739 2.158567 0.005862 0.017484 -756030.000000 0 0 1
27.248037 31.483265 -26.164296 49.175419 0.857385 2.131829 0.018048 0.010091 -45316.500000 0 0 1
27.272437 30.195165 -25.580296 48.061266 0.836213 2.132045 0.015473 0.009528 884461.000000 0 0 1
26.013337 29.632225 -25.160936 46.774300 0.850341 2.138767 0.014483 0.007084 532675.000000 0 0 1
25.628037 29.746475 -23.677606 45.850606 0.859636 2.113447 0.016643 0.008507 -144870.000000 0 0 1
25.361637 31.024105 -23.251006 46.328360 0.885486 2.096561 0.018742 0.008769 86250.500000 0 0 1
24.895537 31.068985 -21.933006 45.454662 0.895264 2.074331 0.021423 0.007796 63622.700000 0 0 1
2.789337 -26.484867 -19.910506 33.251418 -1.465865 2.212782 0.018719 0.010917 -466872.000000 0 0 1
2.529737 -27.559577 -18.977906 33.557276 -1.479261 2.171881 0.010350 0.015739 15311.500000 0 0 1
2.714737 -27.154377 -17.584506 32.464516 -1.471153 2.143199 0.025819 0.013033 -283987.000000 0 0 1
2.627637 -28.297227 -16.535106 32.879283 -1.478203 2.097751 0.016694 0.011897 681326.000000 0 0 1
3.742937 -29.216997 -16.506806 33.765620 -1.443382 2.081584 0.025440 0.010537 520519.000000 0 0 1
3.614337 -29.984877 -15.305206 33.858612 -1.450836 2.039839 0.016150 0.002994 121863.000000 0 0 1
4.908837 -30.564357 -14.701606 34.269721 -1.411550 2.014178 0.057831 0.002858 418404.000000 0 0 1
5.891137 -29.630307 -14.212106 33.386292 -1.374534 2.010517 0.029505 0.010721 294772.000000 0 0 1
7.198337 -30.167167 -14.191106 34.106619 -1.336561 1.999927 0.039197 0.008721 279563.000000 0 0 1
7.554537 -30.846907 -12.832706 34.253190 -1.330619 1.954808 0.029224 0.001703 -741761.000000 0 0 1
7.820737 -29.973377 -11.684306 33.107254 -1.315564 1.931489 0.020966 -0.007413 -63071.700000 0 0 1
7.901237 -30.750317 -10.491706 33.437814 -1.319289 1.889955 0.025461 -0.008415 240917.000000 0 0 1
9.030237 -31.801277 -10.330906 34.635155 -1.294121 1.873684 0.033254 -0.013849 -260805.000000 0 0 1
10.251037 -31.398807 -9.800006 34.452996 -1.255228 1.859225 0.033602 -0.012252 -840705.000000 0 0 1
11.234537 -32.376437 -9.922606 35.677816 -1.236799 1.852630 0.030387 -0.011085 305422.000000 0 0 1
12.499237 -31.972547 -9.071406 35.507254 -1.198128 1.829141 0.024958 -0.009751 304017.000000 0 0 1
13.306437 -30.980277 -9.681006 35.079348 -1.165109 1.850400 0.022173 -0.015975 293052.000000 0 0 1
14.390337 -30.667467 -8.817106 35.004523 -1.132060 1.825424 0.015865 -0.012235 165383.000000 0 0 1
15.581137 -29.881787 -9.428106 34.994031 -1.090155 1.843587 0.026447 -0.017951 103293.000000 0 0 1
15.410937 -28.498387 -9.809206 33.850783 -1.075071 1.864791 0.025930 -0.015923 270147.000000 0 0 1
14.398537 -28.272437 -10.796106 33.514242 -1.099754 1.898780 0.011962 -0.013608 144703.000000 0 0 1
14.244037 -26.787447 -11.237106 32.353245 -1.082078 1.925514 0.011583 -0.008377 -645346.000000 0 0 1
13.487437 -26.068717 -10.282906 31.100275 -1.093341 1.907775 0.015595 -0.006949 216843.000000 0 0 1
13.176437 -24.667747 -10.610206 29.911414 -1.080198 1.933412 0.017027 0.001071 471350.000000 0 0 1
12.415337 -24.296647 -11.905506 29.769258 -1.098396 1.982233 0.015014 -0.001937 -295290.000000 0 0 1
13.351537 -23.887047 -12.839106 30.227424 -1.061112 2.009482 0.018331 -0.010416 -373971.000000 0 0 1
12.819037 -23.874047 -14.154606 30.572057 -1.078032 2.052164 0.013849 -0.009603 241452.000000 0 0 1
13.761237 -23.214747 -15.224206 30.985038 -1.035703 2.084425 0.017272 -0.009434 -337381.000000 0 0 1
14.748037 -24.022047 -15.714406 32.272370 -1.020192 2.079369 0.022225 -0.015087 -869529.000000 0 0 1
15.194337 -23.483147 -16.896106 32.677277 -0.996511 2.114209 0.027396 -0.016750 -1679150.000000 0 0 1
16.061037 -24.491547 -17.609706 34.174472 -0.990369 2.112140 0.030635 -0.011438 -547091.000000 0 0 1
17.291937 -24.768547 -17.015506 34.670152 -0.961319 2.083784 0.037775 -0.010517 -998424.000000 0 0 1
18.271637 -23.796747 -17.248906 34.607263 -0.915987 2.092570 0.042246 -0.009770 -899139.000000 0 0 1
19.652637 -24.385647 -16.833406 35.556286 -0.892462 2.063977 0.033816 -0.004813 118099.000000 0 0 1
20.188137 -25.225257 -17.833606 36.904091 -0.895864 2.075150 0.040506 -0.004143 -286042.000000 0 0 1
21.319037 -25.899617 -17.318306 37.752022 -0.882103 2.047371 0.042598 -0.004956 137320.000000 0 0 1
21.973437 -26.856967 -18.337506 39.247837 -0.885077 2.056944 0.050120 -0.007110 256943.000000 0 0 1
22.828537 -26.226637 -19.316706 39.775793 -0.854559 2.077891 0.042299 -0.002255 398735.000000 0 0 1
23.302237 -27.092207 -20.346906 41.121509 -0.860463 2.088401 0.040184 -0.003838 -552200.000000 0 0 1
24.416437 -26.363907 -21.075006 41.657819 -0.823730 2.101230 0.015237 -0.006627 -871264.000000 0 0 1
24.100637 -25.273857 -21.886906 41.214623 -0.809155 2.130632 0.006299 -0.000458 -666139.000000 0 0 1
24.913537 -24.221447 -21.507606 40.864898 -0.771314 2.125051 0.003293 -0.000456 -672113.000000 0 0 1
24.269737 -22.793047 -21.478506 39.621577 -0.754031 2.143720 -0.009873 0.008298 -99470.900000 0 0 1
23.958837 -22.199847 -22.747706 39.803482 -0.747309 2.179129 -0.012093 0.015989 802856.000000 0 0 1
22.878737 -22.801947 -23.511106 39.951689 -0.783717 2.199984 -0.020945 0.012617 19659.400000 0 0 1
22.163837 -21.778247 -24.428906 39.525930 -0.776623 2.237053 -0.026229 0.013434 -209309.000000 0 0 1
22.957737 -21.182347 -25.444996 40.288923 -0.745198 2.254364 -0.030262 0.017646 -435108.000000 0 0 1
22.117537 -20.545147 -26.307856 40.042375 -0.748558 2.287629 -0.030580 0.014578 -332235.000000 0 0 1
22.966137 -20.018247 -27.451526 41.009266 -0.716925 2.304195 -0.025852 0.018905 -58962.400000 0 0 1
22.248637 -19.068447 -28.217246 40.679485 -0.708579 2.337338 -0.022332 0.021374 176181.000000 0 0 1
22.873937 -18.683247 -29.426736 41.691888 -0.684896 2.354369 -0.005773 0.022412 -128263.000000 0 0 1
21.917637 -17.734447 -30.128256 41.262637 -0.680290 2.389350 0.027008 0.017478 167742.000000 0 0 1
20.717037 -18.300147 -30.654896 41.277278 -0.723533 2.407827 0.020664 0.009741 443796.000000 0 0 1
19.959937 -17.221447 -31.181196 40.831903 -0.711879 2.439741 0.026701 0.007583 566917.000000 0 0 1
18.723037 -17.683347 -32.045436 41.111590 -0.756848 2.464623 0.015002 0.011075 375543.000000 0 0 1
19.014537 -18.210447 -33.347856 42.488263 -0.763801 2.473286 0.018008 0.011423 -212600.000000 0 0 1
17.876237 -18.746147 -33.984066 42.730488 -0.809147 2.490318 0.002500 0.002399 -351289.000000 0 0 1
18.124637 -19.675447 33.806755 43.110583 -0.826402 0.669412 0.017317 0.002803 -3493.630000 0 0 1
18.706037 -20.939647 34.186056 44.238796 -0.841678 0.687615 0.020787 -0.002009 88307.900000 0 0 1
18.893937 -21.737047 33.052618 43.840114 -0.855258 0.716764 0.020789 -0.007539 219120.000000 0 0 1
19.508337 -23.112747 33.468424 45.109973 -0.869766 0.734853 0.020427 0.000530 163613.000000 0 0 1
18.634137 -23.867647 34.284262 45.741734 -0.907918 0.723462 0.015172 -0.000732 -40950.300000 0 0 1
19.007937 -23.756847 -33.360546 45.151030 -0.895992 2.402182 0.018244 -0.001940 65714.900000 0 0 1
18.090937 -24.551647 -32.398216 44.493929 -0.935763 2.386414 0.016882 -0.001864 -77941.000000 0 0 1
18.229437 -25.968027 -32.330886 45.298311 -0.958732 2.365609 0.018710 -0.010567 -502626.000000 0 0 1
19.398437 -26.293197 -31.649476 45.489789 -0.935166 2.340258 0.015760 -0.006907 -399053.000000 0 0 1
19.716737 -27.781327 -31.665226 46.510626 -0.953582 2.319674 0.020390 -0.012807 -194701.000000 0 0 1
18.872237 -28.580967 -30.873056 46.110504 -0.987209 2.304392 0.016381 -0.019679 -179013.000000 0 0 1
18.952237 -29.961307 -31.121656 47.174407 -1.006781 2.291236 0.022043 -0.010674 134973.000000 0 0 1
17.720737 -30.715047 -30.512556 46.780922 -1.047505 2.281337 0.036900 -0.017670 1275920.000000 0 0 1
16.495237 -30.709467 -31.263776 46.825077 -1.077881 2.301873 0.031941 -0.019575 504599.000000 0 0 1
16.480237 -31.609887 -32.371586 48.152910 -1.090204 2.308062 0.038909 -0.014866 -496309.000000 0 0 1
15.071337 -32.131587 -32.711216 48.266010 -1.132213 2.315464 0.042511 -0.016303 261229.000000 0 0 1
14.205137 -31.108377 -33.188436 47.654898 -1.142439 2.341211 0.043170 -0.015533 -1155040.000000 0 0 1
12.949237 -31.561107 -33.480616 47.798931 -1.181450 2.346820 0.010949 -0.004684 -984476.000000 0 0 1
12.054537 -30.562277 -34.272991 47.476337 -1.195105 2.377335 0.009956 0.000304 60116.900000 0 0 1
11.594737 -29.568917 -33.371206 46.069471 -1.197096 2.380912 0.013714 -0.008283 -469906.000000 0 0 1
10.883237 -28.665807 -34.168677 45.909387 -1.207947 2.410228 -0.012933 0.001882 -786422.000000 0 0 1
9.974537 -27.894487 -33.285586 44.559219 -1.227384 2.414329 -0.004967 0.000608 -1345670.000000 0 0 1
9.030937 -28.601427 -32.617196 44.311183 -1.264952 2.398078 0.006035 -0.006574 -1513790.000000 0 0 1
8.130937 -27.743087 -32.003056 43.127562 -1.285700 2.406928 -0.005829 -0.009816 -222089.000000 0 0 1
7.053137 -28.557697 -31.209836 42.887558 -1.328663 2.385778 0.003726 -0.002324 30475.600000 0 0 1
6.051137 -29.288127 -31.866916 43.702528 -1.367056 2.387916 -0.003219 0.008716 -152712.000000 0 0 1
6.434637 -30.393787 -32.667746 45.081797 -1.362168 2.381298 0.007710 0.006932 -584578.000000 0 0 1
5.232537 -31.067747 -33.334206 45.866694 -1.403939 2.384394 0.034730 0.004615 -120260.000000 0 0 1
4.285637 -31.557877 -32.435566 45.456927 -1.435820 2.365342 0.031322 -0.001464 -979478.000000 0 0 1
3.281137 -32.290847 -33.001646 46.287939 -1.469532 2.364513 0.036846 -0.006123 -790236.000000 0 0 1
2.271437 -32.762987 -31.940226 45.812125 -1.501578 2.342281 0.004849 0.002377 82582.300000 0 0 1
1.527437 -31.682697 -31.358286 44.603458 -1.522623 2.350468 -0.013616 0.010644 208375.000000 0 0 1
0.150337 -31.979517 -31.321056 44.762938 -1.566095 2.345787 -0.023130 0.028832 445129.000000 0 0 1
-0.818863 -30.823397 -30.856136 43.621709 1.544236 2.356549 -0.025718 0.021331 164886.000000 0 0 1
-1.116663 -30.882127 -29.449716 42.687685 1.534653 2.332130 -0.038836 0.018525 171262.000000 0 0 1
-2.134463 -29.926697 -29.183266 41.854822 1.499594 2.342350 -0.021222 0.015560 -55079.000000 0 0 1
-2.710063 -30.143647 -27.750706 41.061972 1.481132 2.312880 -0.014378 0.011258 -485485.000000 0 0 1
-1.834363 -29.872537 -26.711866 40.115547 1.509467 2.299460 -0.018733 0.021373 -325483.000000 0 0 1
-2.508463 -30.137497 -25.479606 39.544550 1.487754 2.270939 -0.003759 0.014171 639217.000000 0 0 1
-1.569363 -30.701517 -24.350706 39.217380 1.519724 2.240707 -0.011458 0.019756 126955.000000 0 0 1
-2.112063 -30.675327 -23.052806 38.430045 1.502053 2.214128 0.014249 0.007376 -755090.000000 0 0 1
-1.200663 -31.086287 -22.089306 38.154112 1.532192 2.188236 0.016002 0.012649 -497775.000000 0 0 1
-1.771663 -31.100977 -20.681506 37.391633 1.513893 2.156883 -0.001049 0.024067 -366375.000000 0 0 1
-1.887363 -29.838477 -20.051906 35.999663 1.507628 2.161569 -0.006641 0.019772 389493.000000 0 0 1
-0.595163 -29.371087 -19.677606 35.358494 1.550536 2.160984 0.009624 0.013550 -34940.000000 0 0 1
-0.569763 -27.914467 -19.129606 33.844998 1.550388 2.171487 0.001770 0.007181 -752478.000000 0 0 1
-1.255463 -27.917477 -17.926806 33.201387 1.525856 2.141164 0.004319 0.003779 -115381.000000 0 0 1
-1.247663 -26.623587 -17.375506 31.816352 1.523968 2.148520 0.002705 0.004549 149750.000000 0 0 1
-2.249463 -26.398967 -16.198506 31.054100 1.485791 2.119547 0.000538 0.004051 -61456.900000 0 0 1
-2.195863 -25.108997 -15.660406 29.673757 1.483565 2.126749 0.003119 0.006871 383943.000000 0 0 1
-3.084263 -25.014617 -14.540906 29.097795 1.448117 2.094078 0.002428 0.006762 123289.000000 0 0 1
-2.827963 -23.800147 -13.707806 27.610656 1.452530 2.090321 0.005166 0.006994 -244593.000000 0 0 1
-1.706663 -23.938747 -12.872906 27.233949 1.499624 2.063124 -0.000659 0.010077 -427305.000000 0 0 1
-1.449663 -22.820747 -12.121306 25.880766 1.507358 2.058221 0.003680 0.008474 1284000.000000 0 0 1
-0.038963 -22.773547 -11.373106 25.455520 1.569085 2.033963 0.000190 0.010595 1358460.000000 0 0 1
0.216237 -21.450947 -10.905006 24.064684 -1.560716 2.041097 0.001495 0.012311 644955.000000 0 1 0
1.538537 -21.391547 -10.335006 23.807094 -1.498997 2.019851 -0.000999 0.012945 941209.000000 0 1 0
1.956537 -20.032347 -9.756506 22.367663 -1.473436 2.022154 0.008767 0.009451 -817461.000000 0 1 0
2.327137 -18.998447 -10.667206 21.912230 -1.448913 2.079236 0.008871 0.008664 936013.000000 0 1 0
3.228837 -17.953347 -10.152806 20.876482 -1.392853 2.078678 0.008815 -0.000404 1041390.000000 0 1 0
4.630737 -18.370647 -9.618506 21.247118 -1.323868 2.040584 0.012108 -0.007464 -13816.800000 0 1 0
4.461137 -18.877347 -8.334706 21.112160 -1.338732 1.976627 0.009228 -0.010451 121359.000000 0 1 0
5.471537 -19.851947 -8.135506 22.141002 -1.301856 1.947052 0.014939 -0.004494 -138598.000000 0 1 0
5.063237 -20.970047 -7.198206 22.741886 -1.333880 1.892852 0.023903 -0.000863 -326293.000000 0 1 0
4.080437 -21.811847 -7.728006 23.497419 -1.385860 1.905922 0.009783 -0.000380 -71925.500000 0 1 0
3.783537 -22.956147 -6.933906 24.277127 -1.407449 1.860444 0.009994 -0.000978 506180.000000 0 1 0
2.755937 -23.935047 -7.653406 25.279562 -1.456159 1.878374 -0.006694 0.002500 471127.000000 0 0 1
3.218437 -24.637247 -8.777106 26.351278 -1.440899 1.910365 -0.001483 0.005135 231976.000000 0 0 1
2.223437 -25.486377 -9.375106 27.246865 -1.483776 1.922055 -0.016122 0.008370 531252.000000 0 0 1
2.823837 -26.302337 -10.543906 28.477376 -1.463845 1.950080 -0.012484 0.009259 494937.000000 0 0 1
3.666237 -27.404257 -10.161306 29.456522 -1.437803 1.922992 -0.015361 0.007569 202188.000000 0 0 1
4.157337 -28.190887 -11.201906 30.618495 -1.424381 1.945347 0.002223 0.007319 112291.000000 0 0 1
4.127837 -29.667337 -10.819406 31.847283 -1.432546 1.917424 0.008728 0.001495 -427411.000000 0 0 1
2.868537 -30.260677 -10.894706 32.289808 -1.476285 1.914954 0.010308 0.006720 -607485.000000 0 0 1
2.974937 -31.677697 -10.971306 33.655553 -1.477158 1.902853 0.017239 -0.001433 -566906.000000 0 0 1
1.730537 -32.433387 -11.399506 34.421913 -1.517490 1.908340 0.007322 -0.006059 -711966.000000 0 0 1
1.464737 -32.201357 -12.755906 34.666785 -1.525341 1.947608 0.013585 -0.010523 215821.000000 0 0 1
1.004637 -33.353447 -13.418806 35.965623 -1.540684 1.953145 0.021259 -0.010817 -393558.000000 0 0 1
0.602537 -33.160107 -14.910806 36.363276 -1.552628 1.993307 0.031463 -0.008723 -121160.000000 0 0 1
-0.567263 -32.385517 -15.004406 35.696998 1.553282 2.004602 0.023191 -0.004029 -130454.000000 0 0 1
-1.037663 -32.461527 -16.341906 36.357741 1.538841 2.036974 0.001963 0.001764 34642.100000 0 0 1
-2.137963 -31.453687 -16.707906 35.679958 1.502929 2.058130 0.001690 0.008349 144315.000000 0 0 1
-3.379663 -31.656477 -16.087206 35.670055 1.464439 2.038682 0.003661 0.001737 -986992.000000 0 0 1
-4.451763 -31.213287 -16.814606 35.732596 1.429128 2.060730 0.006669 0.008782 46842.700000 0 0 1
-5.848263 -31.325667 -16.134906 35.718829 1.386229 2.039489 0.012245 -0.003109 338186.000000 0 0 1
-5.994963 -30.505797 -14.979806 34.509967 1.376750 2.019804 0.002032 -0.005693 -583688.000000 0 0 1
-7.318963 -30.502377 -14.540906 34.574559 1.335301 2.004866 0.020545 -0.006217 -286243.000000 0 0 1
-7.908163 -31.597847 -13.664506 35.322538 1.325558 1.968009 0.010187 -0.014258 -86216.500000 0 0 1
-7.992363 -32.902017 -14.213306 36.721093 1.332498 1.968238 0.009664 -0.012711 -34762.800000 0 0 1
-8.553763 -33.802987 -13.222806 37.291438 1.322951 1.933261 0.012694 -0.010353 283020.000000 0 0 1
-8.849063 33.991101 -13.851706 37.756729 -1.316115 1.946436 0.033312 -0.012288 -159295.000000 0 0 1
-7.697563 33.238710 -14.099206 36.916824 -1.343224 1.962667 0.016305 -0.010155 -385019.000000 0 0 1
-8.010763 32.253625 -15.050506 36.482686 -1.327354 1.996035 0.023933 -0.009619 -199414.000000 0 0 1
-7.891263 -22.539947 -3.631406 24.155917 1.234031 1.721700 0.040924 0.003668 124156.000000 0 1 0
-7.627563 -21.247647 -4.193206 22.961385 1.226141 1.754447 0.029848 -0.005774 -26562.900000 0 1 0
-6.381163 -21.252847 -4.854206 22.714886 1.279110 1.786159 0.025870 -0.004333 38058.500000 0 1 0
-6.229563 -20.132347 -5.930606 21.892714 1.270710 1.845118 0.021321 -0.011394 -209328.000000 0 1 0
-7.120363 -20.396547 -6.940406 22.691142 1.234927 1.881642 0.021276 -0.010430 -887556.000000 0 1 0
-6.944463 -19.374247 -7.858906 22.030647 1.226624 1.935557 0.005355 -0.006924 189638.000000 0 1 0
-7.884463 -19.459047 -9.104106 22.884580 1.185830 1.979944 0.006611 -0.016422 265585.000000 0 1 0
-7.376263 -20.326747 -10.083506 23.859233 1.222689 2.007136 0.019091 -0.003129 -173575.000000 0 1 0
-8.250263 -20.415547 -11.187606 24.698662 1.186746 2.040884 0.021146 -0.001478 116725.000000 0 1 0
-7.645263 -21.270947 -12.341806 25.753124 1.225752 2.070580 0.022972 -0.000157 -73058.100000 0 0 1
-6.617463 -20.714747 -13.118206 25.396434 1.261586 2.113598 0.026205 0.003020 -189738.000000 0 0 1
-6.228063 -21.563047 -14.192906 26.555458 1.289618 2.134668 0.018462 0.006311 198583.000000 0 0 1
-5.205663 -20.859347 -15.126306 26.287191 1.326232 2.183920 0.017789 0.010709 405355.000000 0 0 1
-3.817163 -20.886547 -14.784206 25.872598 1.390034 2.179036 0.017362 0.009420 1039310.000000 0 0 1
-2.969363 -19.989647 -15.525806 25.484382 1.423330 2.225883 0.024781 0.010922 74845.500000 0 0 1
-3.340863 -18.493847 -15.471406 24.342312 1.392076 2.259552 0.027393 0.008760 169974.000000 0 1 0
-4.547763 -18.065047 -16.162806 24.663016 1.324177 2.285437 0.037983 0.009976 812203.000000 0 1 0
-4.384563 -17.937347 -17.581006 25.496364 1.331060 2.331663 0.037390 0.009850 -448217.000000 0 0 1
-5.733463 -17.796347 -18.292806 26.157395 1.259125 2.345264 0.040979 0.013221 33921.100000 0 0 1
-6.533063 -18.964447 -18.064906 26.993925 1.239039 2.303956 0.035447 0.022565 167073.000000 0 0 1
-7.754263 -18.880047 -18.787006 27.740518 1.181090 2.314802 0.032081 0.017317 395511.000000 0 0 1
-8.845063 -19.841947 -18.214706 28.349841 1.151461 2.268550 0.026979 0.010556 -152589.000000 0 0 1
-8.543563 -21.213447 -18.232506 29.247685 1.187928 2.243858 0.017329 0.013218 583947.000000 0 0 1
-9.529963 -22.153447 -17.725806 29.929911 1.164547 2.204637 0.013281 0.005379 421532.000000 0 0 1
-9.060363 -23.558047 -17.948806 30.971461 1.203638 2.188945 0.011433 -0.003113 -668994.000000 0 0 1
-8.997663 -23.727247 -19.380506 31.930302 1.208338 2.223030 0.004448 -0.005467 324548.000000 0 0 1
-8.062963 -24.715447 -19.801906 32.679966 1.255451 2.221736 0.020213 -0.010897 1229380.000000 0 0 1
-6.519163 -24.362547 -19.773406 32.047165 1.309333 2.235733 0.033805 -0.001675 709896.000000 0 0 1
-6.074663 -23.303747 -20.637506 31.715498 1.315798 2.279312 0.034351 0.000399 118771.000000 0 0 1
-5.851563 -22.057147 -19.964506 30.320620 1.311479 2.289549 0.030201 0.005038 450178.000000 0 0 1
-4.722663 -21.965247 -18.850606 29.327819 1.359014 2.268886 0.036965 0.014222 1245110.000000 0 0 1
-3.427763 -22.334447 -19.370706 29.762415 1.418510 2.279493 0.028758 0.007554 855225.000000 0 0 1
-2.465363 -22.299747 -18.310206 28.958943 1.460688 2.255291 0.014669 0.006359 -467370.000000 0 0 1
-1.164663 -22.969947 -18.653906 29.613225 1.520136 2.252244 0.018096 0.000565 -771946.000000 0 0 1
-0.487863 -22.417047 -19.744106 29.876273 1.549037 2.292764 0.022089 0.005583 39284.100000 0 0 1
0.820337 -22.964147 -19.901706 30.399061 -1.535089 2.284558 0.010023 -0.000145 420658.000000 0 0 1
1.610037 -22.218347 -20.969606 30.593652 -1.498458 2.325981 0.016523 -0.000984 -126567.000000 0 0 1
0.966237 -22.284647 -22.215306 31.481088 -1.527465 2.354167 0.016762 -0.005327 -96372.500000 0 0 1
0.626937 -21.024147 -22.736006 30.973114 -1.540985 2.395072 0.029097 -0.003000 -467589.000000 0 0 1
0.320937 -21.198347 -24.225906 32.192661 -1.555658 2.422690 0.035988 -0.002798 -38202.500000 0 0 1
-0.198563 -20.123647 -24.948106 32.053215 1.560929 2.462804 0.033525 -0.000489 689983.000000 0 0 1
-1.563763 -19.825747 -24.601606 31.634548 1.492084 2.461766 0.033620 0.001155 381603.000000 0 0 1
-2.156063 -18.622347 -25.369186 31.544191 1.455531 2.505196 0.017676 0.004642 -318932.000000 0 0 1
-1.508863 -17.452547 -25.063706 30.578709 1.484556 2.531589 0.030348 0.001876 -187870.000000 0 0 1
-2.016963 -16.325547 -25.735456 30.543499 1.447873 2.572859 0.023967 0.001533 -261655.000000 0 0 1
-1.286463 -15.065947 -25.267776 29.446532 1.485614 2.602335 0.025057 -0.004843 -464594.000000 0 0 1
0.082837 -15.035747 -25.554776 29.650078 -1.565287 2.609759 0.017823 -0.016823 -586720.000000 0 0 1
0.756037 -13.835847 -25.193676 28.752801 -1.516207 2.638750 0.019705 -0.019594 368684.000000 0 0 1
0.376837 -12.570647 -26.034076 28.912563 -1.540828 2.691580 0.012698 -0.015633 -84585.800000 0 0 1
1.114337 -11.438047 -25.587116 28.049442 -1.473679 2.719454 0.009935 -0.013018 126673.000000 0 0 1
0.750237 -10.313247 -26.327666 28.285543 -1.498179 2.767342 0.017759 -0.012874 -598887.000000 0 0 1
1.571437 -9.039947 -25.993556 27.565468 -1.398684 2.802255 0.035250 -0.014441 293122.000000 0 0 1
2.904937 -8.894647 -26.430106 28.037545 -1.255124 2.801334 0.033116 -0.011194 -159026.000000 0 0 1
3.157037 -9.109047 -27.828136 29.450752 -1.237169 2.808098 0.036084 -0.006348 -1350620.000000 0 0 1
4.556637 -8.849847 -28.336516 30.033995 -1.095313 2.803779 0.023090 0.002748 -1296470.000000 0 0 1
4.772537 -7.497447 -28.638076 29.985467 -1.003931 2.840676 0.021301 -0.002165 -399568.000000 0 0 1
6.063637 -7.182047 -29.067696 30.549639 -0.869634 2.828841 0.028855 -0.003589 246797.000000 0 0 1
7.220937 -7.217747 -27.949426 29.755810 -0.785177 2.791360 0.026828 -0.006134 468721.000000 0 0 1
7.721837 -8.480647 -27.490456 29.787133 -0.832197 2.746334 0.016761 -0.004748 146526.000000 0 0 1
8.660137 -9.068747 -28.357106 31.005896 -0.808442 2.725243 0.022945 -0.003270 -397450.000000 0 0 1
9.037937 -10.540647 -27.902606 31.166408 -0.862001 2.679852 0.014863 -0.005068 192350.000000 0 0 1
7.916737 -11.421047 -27.866926 31.139695 -0.964668 2.679004 0.019353 -0.007631 138288.000000 0 0 1
8.046937 -12.634647 -27.172496 31.027924 -1.003689 2.637770 0.024172 -0.005086 -106748.000000 0 0 1
9.033837 -13.690147 -27.737226 32.223967 -0.987508 2.607565 0.031453 -0.010335 -168536.000000 0 0 1
8.558637 -14.311247 -28.863076 33.333755 -1.031822 2.617706 0.036526 -0.021855 -79656.100000 0 0 1
9.361037 -15.418547 -29.140006 34.270987 -1.025152 2.587317 0.023017 -0.017677 -61841.900000 0 0 1
8.727237 -16.246247 -30.272376 35.447453 -1.077845 2.594436 0.019579 -0.017709 -15152.700000 0 0 1
8.554437 -15.524447 -31.436906 36.089693 -1.067163 2.628188 0.017437 -0.011633 323728.000000 0 0 1
7.836137 -16.207547 -32.462796 37.120382 -1.120446 2.635257 0.021904 -0.012454 -413526.000000 0 0 1
6.651937 -15.402147 -33.015296 37.033555 -1.163110 2.671435 0.020563 -0.003005 -255509.000000 0 0 1
6.969737 -14.349247 -33.899996 37.465822 -1.118637 2.701764 0.014563 0.000631 -320802.000000 0 0 1
5.824737 -13.740347 -34.394764 37.492993 -1.169845 2.732206 -0.001154 -0.007455 -319460.000000 0 0 1
6.210537 -12.473847 33.860399 36.615492 -1.108842 0.390402 0.018123 0.002367 -101399.000000 0 0 1
6.825637 -12.793347 32.657416 35.731861 -1.080686 0.417864 -0.001849 0.011720 75116.100000 0 0 1
7.285237 -11.575847 32.045226 34.842093 -1.009076 0.403411 0.001672 -0.002839 32509.600000 0 0 1
7.889237 -11.738447 30.616236 33.725141 -0.979052 0.432749 -0.005296 -0.001418 32138.700000 0 0 1
6.917737 -12.052747 29.635516 32.732058 -1.049748 0.438482 0.000949 0.002291 55005.300000 0 0 1
7.289637 -11.798247 28.332756 31.544928 -1.017350 0.455204 -0.006166 -0.003744 -144858.000000 0 0 1
6.548737 -12.519347 27.139966 30.597349 -1.088848 0.479981 0.000468 -0.007966 -53395.300000 0 0 1
6.957537 -13.880447 27.009706 31.154427 -1.106151 0.521722 0.004786 -0.004793 118669.000000 0 0 1
6.570337 -14.415547 25.761816 30.243156 -1.143145 0.551341 0.007625 -0.008861 139691.000000 0 0 1
5.106937 -14.890647 25.562556 30.020933 -1.240404 0.551974 -0.001934 -0.018824 166021.000000 0 0 1
4.138237 -13.858047 25.486466 29.304102 -1.280610 0.516155 -0.014738 -0.020312 -661688.000000 0 0 1
2.927037 -14.463947 25.179116 29.184948 -1.371125 0.530126 -0.005917 -0.018542 -547623.000000 0 0 1
1.733737 -13.491547 25.048086 28.503233 -1.442991 0.497496 0.001791 -0.015845 -359389.000000 0 0 1
1.798237 -12.656847 23.870396 27.078132 -1.429665 0.491687 -0.003513 -0.005320 -57023.800000 0 0 1
0.789137 -11.663247 23.821396 26.535127 -1.503239 0.456205 -0.007447 0.007108 2147210.000000 0 0 1
-0.679663 -12.215547 23.402696 26.407721 1.515214 0.481704 -0.010770 0.015823 1148080.000000 0 0 1
-0.832463 -12.700547 22.085196 25.490248 1.505344 0.522814 -0.007243 0.006799 40706.300000 0 0 1
-2.144663 -13.186447 21.861796 25.620696 1.409567 0.548540 0.000613 0.005654 325021.000000 0 0 1
-2.316963 -13.814847 20.471296 24.805086 1.404627 0.600087 0.008865 0.003822 -75060.800000 0 1 0
-1.493163 -14.941447 20.320696 25.266718 1.471193 0.636388 0.006049 -0.000508 -417532.000000 0 0 1
-1.661163 -15.502447 19.047296 24.614727 1.464049 0.685951 0.004624 -0.005817 -161467.000000 0 1 0
-2.427763 -16.812547 19.069096 25.537936 1.427386 0.727714 -0.011980 -0.006105 -106274.000000 0 0 1
-2.155563 -17.587247 17.895596 25.183527 1.448841 0.780435 -0.024640 -0.002711 -64824.000000 0 0 1
-2.985963 -18.763647 17.886596 26.094458 1.412984 0.815567 -0.021225 0.011330 212886.000000 0 0 1
-2.630763 -19.827047 16.821696 26.134310 1.438881 0.871521 -0.014332 0.004756 1113410.000000 0 0 1
-1.382163 -20.540247 17.057696 26.735316 1.503607 0.878871 -0.011092 0.004270 865471.000000 0 0 1
-1.476263 -21.613447 18.053596 28.200226 1.502599 0.876046 -0.009373 0.007614 -199114.000000 0 0 1
-0.168763 -22.416747 18.215496 28.885001 1.563268 0.888443 0.005015 -0.001806 -55233.900000 0 0 1
0.142037 -23.304747 17.187296 28.957461 -1.564702 0.935351 0.007897 -0.002125 661420.000000 0 0 1
1.344237 -24.049047 17.515996 29.782104 -1.514959 0.942041 0.018274 0.011402 934449.000000 0 0 1
2.627437 -23.595647 16.797696 29.082994 -1.459901 0.955038 0.023840 -0.010271 -271678.000000 0 0 1
2.979837 -22.232347 17.018596 28.156514 -1.437559 0.921748 0.028464 -0.010610 -125015.000000 0 0 1
4.068137 -21.803747 16.232196 27.485220 -1.386338 0.939020 0.036805 -0.025947 44202.600000 0 0 1
4.729637 -20.531747 16.790696 26.941595 -1.344389 0.897936 0.046401 -0.020737 -385058.000000 0 0 1
5.481737 -20.722747 18.019796 28.003477 -1.312192 0.871755 0.039150 -0.016006 346470.000000 0 0 1
6.040437 -19.495747 18.505096 27.550129 -1.270342 0.834311 0.050228 -0.012624 460613.000000 0 0 1
7.270837 -18.939547 17.730196 26.943113 -1.204248 0.852556 0.052458 -0.018317 -331775.000000 0 0 1
6.850537 -18.280947 16.591296 25.620187 -1.212257 0.866383 0.051302 -0.018030 -500176.000000 0 0 1
7.903037 -17.677347 15.925296 25.071131 -1.150380 0.882523 0.064504 -0.015942 -474581.000000 0 0 1
7.413637 -16.704647 14.835496 23.539311 -1.153105 0.888930 0.063240 -0.015828 92850.500000 0 1 0
6.713037 -17.333847 13.786596 23.142976 -1.201304 0.932642 0.053151 -0.017877 184513.000000 0 1 0
6.118137 -16.400247 12.907196 21.748457 -1.213735 0.935425 0.048840 -0.021917 48348.600000 0 1 0
6.598637 -16.631047 11.437496 21.235584 -1.193081 1.002021 0.058231 -0.015160 15384.000000 0 1 0
7.948237 -16.259147 11.303596 21.337891 -1.116111 1.012499 0.050114 -0.006386 -349805.000000 0 1 0
8.442537 -16.626647 10.041796 21.179223 -1.100951 1.076816 0.046915 -0.003438 -99507.200000 0 1 0
9.907837 -16.200447 9.893096 21.412451 -1.021907 1.090519 0.044792 -0.002039 -172312.000000 0 1 0
10.505137 -16.768347 8.753396 21.636943 -1.011129 1.154301 0.045802 -0.001172 1207750.000000 0 1 0
11.878337 -16.302347 8.555996 21.910419 -0.941115 1.169623 0.048643 -0.003599 1678860.000000 0 1 0
12.754637 -17.344547 7.808096 22.901538 -0.936725 1.222878 0.053817 -0.005554 97610.700000 0 1 0
12.819137 -18.553047 8.478996 24.092305 -0.966173 1.211156 0.046854 -0.010327 133257.000000 0 1 0
13.599237 -19.477947 7.743596 24.985855 -0.961289 1.255688 0.047482 -0.006784 222485.000000 0 1 0
13.970637 -20.739647 8.602096 26.444426 -0.977995 1.239478 0.040847 -0.011351 -4597.620000 0 0 1
12.911937 -21.655847 8.697796 26.671060 -1.033151 1.238607 0.040306 -0.010995 -233787.000000 0 0 1
13.325737 -22.855947 9.279296 28.037027 -1.042947 1.233469 0.031309 -0.007260 -391015.000000 0 0 1
12.190737 -23.675647 9.880796 28.403881 -1.095295 1.215500 0.047536 -0.011551 -197703.000000 0 0 1
11.903537 -23.058647 11.153296 28.245201 -1.094250 1.164866 0.050568 -0.015861 -497665.000000 0 0 1
11.049437 -23.698747 12.066696 28.798017 -1.134515 1.138440 0.060315 -0.006441 -442051.000000 0 0 1
11.338537 -25.116107 12.575196 30.290540 -1.146742 1.142686 0.057642 -0.014885 -742125.000000 0 0 1
12.492437 -25.084387 13.337396 31.035038 -1.108737 1.126577 0.037267 -0.018754 -682583.000000 0 0 1
12.872237 -26.365847 13.764496 32.408544 -1.116620 1.132146 0.027677 -0.019974 -539187.000000 0 0 1
14.115637 -26.388997 14.646796 33.319048 -1.079615 1.115652 0.044049 -0.014902 -529430.000000 0 0 1
13.950237 -25.873627 15.966796 33.451341 -1.076307 1.073201 0.038860 -0.016087 -108140.000000 0 0 1
14.604037 -26.639857 16.903496 34.766191 -1.069334 1.063055 0.040870 -0.010743 -739734.000000 0 0 1
14.242137 -26.201837 18.326996 35.003621 -1.072915 1.019755 0.031763 -0.014742 -148149.000000 0 0 1
14.452137 -24.868647 18.784496 34.353619 -1.044361 0.992261 0.014801 -0.004288 400817.000000 0 0 1
15.808937 -24.711847 19.200096 35.060541 -1.001674 0.991271 0.019352 -0.011546 430741.000000 0 0 1
16.239137 -23.285447 19.484996 34.432349 -0.961821 0.969281 0.005234 -0.006113 -222128.000000 0 0 1
16.354937 -22.357147 18.414696 33.262997 -0.939221 0.984105 -0.002127 -0.012562 1020640.000000 0 0 1
15.162137 -21.554347 18.185796 32.018798 -0.957767 0.966756 0.009832 -0.012904 460793.000000 0 0 1
15.370637 -20.503847 17.104696 30.809655 -0.927521 0.982225 0.013649 -0.010813 347370.000000 0 0 1
16.354837 -19.496747 17.328096 30.787444 -0.872811 0.972991 0.010739 -0.017148 850969.000000 0 0 1
17.708337 -19.880447 17.038796 31.609143 -0.843120 1.001492 0.014911 -0.019841 375942.000000 0 0 1
18.645437 -18.653747 17.195496 31.484912 -0.785621 0.993035 0.030743 -0.021072 -323468.000000 0 0 1
18.865437 -18.317947 18.524396 32.165278 -0.770675 0.957076 0.020974 -0.024714 137752.000000 0 0 1
19.308637 -16.986147 18.696396 31.794777 -0.721496 0.942171 0.031948 -0.022414 -272865.000000 0 0 1
19.459337 -16.625747 20.162196 32.582133 -0.707034 0.903568 0.038603 -0.017628 -864308.000000 0 0 1
20.693237 -17.026847 20.618196 33.811737 -0.688503 0.914996 0.038926 -0.014847 -849656.000000 0 0 1
20.809037 -16.632347 21.962196 34.525194 -0.674305 0.881336 0.038436 -0.010607 193485.000000 0 0 1
32.572149 -0.292147 -7.679206 33.466407 -0.008969 1.802319 0.081260 -0.024999 218348.000000 0 0 1
33.750889 -0.434147 -8.470506 34.800294 -0.012863 1.816669 0.067939 -0.023601 651417.000000 0 0 1
34.496369 -1.619447 -8.269506 35.510657 -0.046911 1.805828 0.069635 -0.027704 1152380.000000 0 0 1
-34.612988 -1.584247 -8.868806 35.766248 0.045738 1.821376 0.048333 -0.021370 888988.000000 0 0 1
-33.800263 -2.699547 -8.649606 34.993728 0.079698 1.820561 0.060673 -0.018803 -60636.100000 0 0 1
-32.494883 -2.542047 -9.151506 33.854534 0.078070 1.844520 0.100517 -0.021051 -202660.000000 0 0 1
-31.622533 -3.775647 -8.932006 33.075986 0.118835 1.844236 0.093301 -0.020180 -274744.000000 0 0 1
-31.149933 -4.008647 -7.622006 32.318455 0.127985 1.808880 0.070879 -0.021807 141948.000000 0 0 1
-30.005093 -4.826647 -7.623606 31.332435 0.159495 1.816577 0.058019 -0.023096 -192113.000000 0 0 1
-29.418293 -4.978947 -6.256106 30.485484 0.167658 1.777481 0.045936 -0.029373 -522387.000000 0 0 1
-29.035483 -3.763947 -5.623106 29.813519 0.128914 1.760542 0.038209 -0.022652 307346.000000 0 0 1
-28.948053 -3.794347 -4.252806 29.503783 0.130331 1.715445 0.037711 -0.023159 -376498.000000 0 0 1
-28.855773 -2.373147 -3.673406 29.185294 0.082057 1.696996 0.034013 -0.018582 503757.000000 0 0 1
-27.563013 -1.745647 -3.737806 27.870023 0.063248 1.705317 0.036571 -0.014186 873744.000000 0 0 1
-27.667503 -0.480247 -3.230006 27.859546 0.017356 1.686997 0.046881 -0.020346 585326.000000 0 0 1
-26.271603 0.160053 -2.866006 26.427954 -0.006092 1.679456 0.063701 -0.005497 485097.000000 0 0 1
-25.803583 -0.458247 -1.699906 25.863576 0.017757 1.636570 0.040535 -0.007068 -137019.000000 0 0 1
-24.440363 -0.145647 -1.572706 24.491345 0.005959 1.635055 0.044853 -0.008976 -401503.000000 0 1 0
-23.847463 -0.737047 -0.287706 23.860585 0.030897 1.582854 0.022528 -0.003764 -245554.000000 0 1 0
-23.744363 -2.151447 -0.357706 23.844317 0.090362 1.585799 0.013434 -0.005803 351257.000000 0 1 0
-23.062163 -2.792247 0.703794 23.241242 0.120488 1.540510 0.007579 -0.005783 -274947.000000 0 1 0
-23.006163 -4.343847 0.607594 23.420540 0.186615 1.544851 0.001788 -0.000277 -415232.000000 0 1 0
-24.206263 -4.865447 1.087294 24.714327 0.198356 1.526788 -0.013328 0.004066 16291.200000 0 1 0
-24.099963 -6.257947 0.946794 24.917194 0.254055 1.532790 -0.023141 0.008396 -139684.000000 0 1 0
-25.216623 -6.965947 1.721094 26.217640 0.269523 1.505103 -0.017216 0.014316 -155977.000000 0 0 1
-25.034863 -7.156047 3.066894 26.217536 0.278419 1.453549 -0.024393 0.016515 112387.000000 0 0 1
-26.175133 -7.785547 3.615194 27.546723 0.289107 1.439178 0.006723 0.016964 67489.700000 0 0 1
-26.248233 -7.841747 5.154494 27.875285 0.290313 1.384813 -0.014781 0.009605 -255719.000000 0 0 1
-25.470883 -8.850147 5.723894 27.565448 0.334411 1.361627 -0.015520 0.021968 -74601.000000 0 0 1
-25.775453 -9.063447 7.125794 28.236448 0.338127 1.315676 -0.011418 0.012786 7465.970000 0 0 1
-25.151383 -8.005747 8.099594 27.609554 0.308162 1.273055 -0.004018 0.010484 599947.000000 0 0 1
-23.727763 -7.944547 8.098394 26.300315 0.323089 1.257790 -0.004258 0.007825 235791.000000 0 0 1
-23.297263 -6.635647 8.008994 25.513492 0.277477 1.251486 -0.001857 0.001829 -229930.000000 0 0 1
-21.812563 -6.347547 7.739894 23.999692 0.283183 1.242427 -0.007453 0.003558 -106332.000000 0 1 0
-20.907863 -6.873047 8.688094 23.661371 0.317602 1.194816 0.001790 -0.000784 602309.000000 0 1 0
-19.591063 -6.698147 8.134194 22.245000 0.329439 1.196450 0.001171 -0.002660 482546.000000 0 1 0
-18.460563 -6.945247 9.136194 21.737039 0.359840 1.137015 0.006583 -0.002245 -304820.000000 0 1 0
-18.525963 -6.004947 10.186394 21.978019 0.313451 1.088877 0.016592 0.002590 301944.000000 0 1 0
-17.448963 -6.187847 11.085594 21.578836 0.340790 1.031275 0.002171 0.001774 -216665.000000 0 1 0
-17.369863 -4.935947 12.007494 21.685378 0.276869 0.983979 0.006019 0.005194 32268.100000 0 1 0
-18.418763 -4.799247 12.945494 23.018892 0.254895 0.973528 0.013307 0.000014 203036.000000 0 1 0
-18.401563 -3.458447 13.434394 23.044768 0.185776 0.948418 0.014111 0.007249 -675434.000000 0 1 0
-19.510963 -3.256447 14.397894 24.465925 0.165379 0.941609 0.010905 0.003689 -791037.000000 0 1 0
-19.268263 -3.912547 15.600894 25.099041 0.200333 0.900047 0.015323 0.006725 170126.000000 0 0 1
-20.424863 -3.963547 16.414294 26.501203 0.191673 0.902845 0.016041 0.008097 -32429.300000 0 0 1
-20.423663 -5.047347 17.558494 27.402599 0.242278 0.875308 0.020176 0.016608 -208349.000000 0 0 1
-21.532263 -4.841147 18.402594 28.735527 0.221155 0.875761 0.022057 0.010480 236508.000000 0 0 1
-21.307563 -5.607247 19.599494 29.488873 0.257323 0.843784 0.029694 0.011757 -140030.000000 0 0 1
-22.157363 -5.193047 20.823394 30.846883 0.230216 0.829755 0.014215 0.012062 -166013.000000 0 0 1
-21.805563 -3.859247 21.242094 30.685549 0.175171 0.806193 0.022712 0.012963 313753.000000 0 0 1
-22.200963 -3.588147 22.542994 31.842489 0.160236 0.784200 0.027502 0.009133 -175134.000000 0 0 1
-22.227063 -2.089647 22.800694 31.910509 0.093738 0.774859 0.025686 0.010659 -745343.000000 0 0 1
-23.364663 -1.470347 22.317294 32.343948 0.062847 0.809309 0.019183 0.010160 -480919.000000 0 0 1
-23.228363 -0.076847 22.473994 32.320940 0.003308 0.801906 0.011297 0.007134 -88113.300000 0 0 1
-24.497563 0.721453 22.099994 33.000921 -0.029441 0.837021 0.011370 0.006219 97303.200000 0 0 1
-25.540773 0.465453 23.012794 34.382211 -0.018222 0.837500 0.018408 0.007802 -472563.000000 0 0 1
-26.724953 1.124653 22.674194 35.065753 -0.042058 0.867652 0.023380 0.006032 141994.000000 0 0 1
-27.656523 1.347253 23.932794 36.598866 -0.048675 0.858040 0.023248 0.008624 84980.400000 0 0 1
-27.063033 2.176253 24.887994 36.831455 -0.080242 0.828846 0.020311 0.008591 124152.000000 0 0 1
-27.895713 2.157153 26.045894 38.225812 -0.077176 0.821165 0.019349 0.005914 -44151.400000 0 0 1
-27.544153 3.151553 27.159594 38.810517 -0.113923 0.795679 0.028789 0.003113 -43850.100000 0 0 1
-26.315753 2.903953 27.805494 38.393975 -0.109906 0.760901 0.023614 -0.000623 182883.000000 0 0 1
-26.084423 3.663153 28.981894 39.163325 -0.139522 0.737687 0.011547 0.007790 72383.700000 0 0 1
-24.845563 3.148253 29.757294 38.893573 -0.126041 0.699607 0.016419 0.007053 -103075.000000 0 0 1
-25.110653 2.012553 30.482494 39.544629 -0.079976 0.690641 0.015839 0.007068 85496.900000 0 0 1
-23.957763 1.586653 31.165194 39.341596 -0.066131 0.656441 0.000014 -0.001035 -238566.000000 0 0 1
-24.103363 0.432853 32.119294 40.159787 -0.017956 0.643855 0.008833 -0.006667 -186794.000000 0 0 1
-24.351263 -0.801447 31.469994 39.799332 0.032900 0.658818 0.006369 -0.008583 -76315.600000 0 0 1
-24.597663 -1.855947 32.427194 40.743251 0.075309 0.650318 0.015264 -0.005900 -135779.000000 0 0 1
-25.319883 -3.122947 31.742994 40.724279 0.122720 0.676991 -0.000879 -0.009140 398921.000000 0 0 1
-26.645023 -2.956447 31.283994 41.199346 0.110505 0.708510 0.007976 -0.009329 177887.000000 0 0 1
-26.685803 -2.175447 30.102094 40.286483 0.081341 0.726956 0.012333 -0.006894 -1700700.000000 0 0 1
-28.021153 -1.696847 29.612794 40.804189 0.060482 0.758703 0.026747 -0.007776 -912110.000000 0 0 1
-28.758903 -0.962147 30.552994 41.970057 0.033443 0.755438 0.022319 -0.004865 217577.000000 0 0 1
-30.106593 -0.866747 30.081194 42.568021 0.028781 0.786027 0.014982 -0.010253 702029.000000 0 0 1
-31.164253 -0.453447 31.131294 44.051944 0.014549 0.785980 0.016997 -0.010921 -148363.000000 0 0 1
-31.286713 -1.415847 32.116194 44.858811 0.045223 0.772828 0.018324 -0.005314 299368.000000 0 0 1
-32.153043 -0.925247 33.166194 46.202496 0.028768 0.770095 0.021710 0.000027 340916.000000 0 0 1
-32.533173 -1.954847 34.265594 47.290165 0.060016 0.760369 0.026453 -0.001545 65163.300000 0 0 1
-33.406883 -2.947447 33.740694 47.572489 0.088001 0.782365 0.028092 -0.008657 26783.100000 0 0 1
-33.242023 -4.232747 34.310394 47.959893 0.126650 0.773603 0.015669 -0.008411 -22435.000000 0 0 1
-34.372407 -5.248047 33.965194 48.606983 0.151512 0.797117 0.017174 -0.007468 -199562.000000 0 0 1
35.007279 -4.967347 -34.393209 49.326229 -0.140954 2.342364 0.034543 -0.014206 -929075.000000 0 0 1
33.895499 -5.446447 33.918394 48.259984 -0.159322 0.791433 0.032599 -0.018320 -814893.000000 0 0 1
32.624829 -5.025247 -34.360309 47.647281 -0.152830 2.376241 0.050536 -0.015933 -694504.000000 0 0 1
32.214019 -5.813547 -33.228209 46.643908 -0.178545 2.363681 0.053397 -0.011627 209132.000000 0 0 1
31.754559 -7.138047 -33.555409 46.746862 -0.221113 2.371449 0.064795 -0.017532 -525046.000000 0 0 1
30.288119 -7.197647 -34.010309 46.107237 -0.233312 2.400357 0.069069 -0.026112 -484403.000000 0 0 1
29.302429 -6.879847 -33.071309 44.717738 -0.230611 2.403208 0.067219 -0.027048 -400429.000000 0 0 1
28.025039 -7.176047 -33.606509 44.342935 -0.250673 2.430850 0.050304 -0.023420 -708947.000000 0 0 1
26.987859 -6.735747 -32.617809 42.867660 -0.244587 2.435488 0.054735 -0.026717 -1007370.000000 0 0 1
25.724639 -7.292347 -32.863509 42.366798 -0.276230 2.458604 0.064300 -0.028426 -590658.000000 0 0 1
24.709839 -6.778847 -32.078109 41.055255 -0.267751 2.467606 0.064958 -0.031356 310358.000000 0 0 1
23.265539 -7.192747 -32.572109 40.668946 -0.299838 2.499607 0.048114 -0.029223 827171.000000 0 0 1
22.901239 -8.556447 -32.521809 40.685963 -0.357564 2.496988 0.045766 -0.030234 151630.000000 0 0 1
22.736239 -9.130447 -31.219309 39.685600 -0.381869 2.476186 0.052395 -0.027055 -284728.000000 0 0 1
22.337239 -10.664047 -31.227709 39.847759 -0.445414 2.471357 0.048808 -0.015138 317667.000000 0 0 1
21.080039 -10.995747 -31.801509 39.706554 -0.480793 2.499615 0.052716 -0.015142 244059.000000 0 0 1
21.023439 -12.436047 -31.760109 40.066753 -0.534170 2.485989 0.038935 -0.003381 -673263.000000 0 0 1
19.934339 -13.042647 -32.681009 40.441771 -0.579378 2.511716 0.035839 0.002224 -342791.000000 0 0 1
18.624239 -12.732247 -32.350409 39.440098 -0.599660 2.532630 0.023279 0.001545 -785767.000000 0 0 1
18.212339 -11.450047 -32.697709 39.139916 -0.561254 2.559667 0.026005 -0.007539 -891765.000000 0 0 1
16.794239 -10.992147 -32.242609 37.979725 -0.579545 2.584778 0.022976 -0.004722 134566.000000 0 0 1
15.819439 -11.528947 -33.113409 38.466467 -0.629784 2.607711 0.006752 0.005808 -623417.000000 0 0 1
14.579939 -11.084447 -32.644909 37.431666 -0.650031 2.630315 0.001519 0.005953 -1273050.000000 0 0 1
13.351139 -11.612547 -33.295009 37.704930 -0.715866 2.653100 -0.009560 0.008227 -1328620.000000 0 0 1
12.927339 -12.930347 -33.003009 37.729412 -0.785514 2.635673 0.001196 0.011474 357207.000000 0 0 1
11.734539 -13.401747 -33.637409 38.062862 -0.851628 2.654576 -0.014019 0.001817 13302.300000 0 0 1
10.528839 -13.123047 -32.763909 36.831298 -0.894644 2.667193 -0.017720 0.010906 -1159910.000000 0 0 1
10.061239 -11.796647 -32.736109 36.222123 -0.864627 2.699270 0.009045 0.005113 -118671.000000 0 0 1
9.210139 -11.679747 -31.614009 34.938355 -0.903072 2.701826 0.010669 -0.003091 -118666.000000 0 0 1
8.117439 -10.616047 -31.823509 34.515634 -0.917992 2.744018 0.011350 0.006295 -275306.000000 0 0 1
8.674639 -9.376047 -32.034509 34.487235 -0.824236 2.762174 0.011275 0.000032 187569.000000 0 0 1
7.705039 -8.517447 -32.596509 34.560771 -0.835435 2.802825 0.010987 0.002257 -99054.500000 0 0 1
8.201639 -7.078247 -32.858409 34.598316 -0.712009 2.823109 0.017056 0.014256 -56764.000000 0 0 1
8.282539 -6.377647 -31.666309 33.347113 -0.656186 2.822743 0.024284 0.003053 259166.000000 0 0 1
8.912039 -5.152347 -32.006509 33.621239 -0.524186 2.830413 0.026488 -0.003914 -139683.000000 0 0 1
9.136339 -4.365047 -30.679909 32.307632 -0.445704 2.822811 0.024946 0.001078 181186.000000 0 0 1
7.877339 -3.889647 -30.211309 31.462756 -0.458657 2.858601 0.046569 -0.001403 281875.000000 0 0 1
7.966739 -3.225547 -28.973909 30.221854 -0.384703 2.853217 0.037178 -0.003379 -512419.000000 0 0 1
6.627239 -2.750047 -28.447109 29.338048 -0.393337 2.894518 0.037201 -0.005204 -1264680.000000 0 0 1
5.998039 -1.917147 -29.383609 30.050763 -0.309366 2.930483 0.039823 0.001549 303367.000000 0 0 1
4.685539 -1.475347 -29.049209 29.461627 -0.305045 2.974074 0.047191 -0.004768 1182160.000000 0 0 1
3.501639 -2.502547 -29.130909 29.447140 -0.620510 2.994908 0.038846 -0.008242 -8399.190000 0 0 1
3.629839 -3.413947 -28.065909 28.504841 -0.754758 2.965876 0.046748 -0.015103 125325.000000 0 0 1
2.460439 -4.213247 -27.920109 28.343212 -1.042242 2.968589 0.042306 -0.012775 -35343.500000 0 0 1
2.690039 -5.350847 -26.905209 27.563710 -1.104966 2.922568 0.030897 -0.019360 -168003.000000 0 0 1
2.562839 -4.936047 -25.585409 26.182930 -1.091900 2.927544 0.036228 -0.027098 -153194.000000 0 0 1
2.783639 -5.943547 -24.636409 25.495627 -1.132791 2.881240 0.030514 -0.029321 -281868.000000 0 0 1
2.694139 -5.377547 -23.244009 24.009588 -1.106351 2.888384 0.025804 -0.024926 -224602.000000 0 1 0
3.822039 -4.583847 -22.928109 23.692146 -0.875779 2.886942 0.025021 -0.023180 115584.000000 0 1 0
3.566539 -3.856047 -21.760509 22.385465 -0.824382 2.904743 0.032939 -0.021532 -283461.000000 0 1 0
4.588139 -2.747247 -21.462209 22.118426 -0.539516 2.897395 0.046511 -0.021569 148803.000000 0 1 0
5.851039 -3.215447 -21.003509 22.039082 -0.502499 2.833824 0.027458 -0.024327 -50985.900000 0 1 0
6.604739 -2.068347 -20.630409 21.760386 -0.303487 2.817914 0.039107 -0.012351 513627.000000 0 1 0
8.106939 -2.433247 -20.431409 22.115280 -0.291589 2.748841 0.025733 -0.006130 376497.000000 0 1 0
8.917839 -2.450047 -21.650509 23.543048 -0.268120 2.737892 0.034384 -0.010980 1470660.000000 0 1 0
10.241039 -2.985647 -21.448909 23.955138 -0.283675 2.680076 0.025995 -0.009590 927949.000000 0 1 0
11.335239 -2.214047 -20.712509 23.714925 -0.192896 2.632928 0.003978 -0.007823 -900245.000000 0 1 0
11.120139 -2.165147 -19.308109 22.386344 -0.192299 2.610976 0.014129 -0.004622 433734.000000 0 1 0
12.186639 -1.588947 -18.569709 22.268206 -0.129653 2.556954 0.006675 -0.009363 9595.710000 0 1 0
12.475539 -0.092347 -18.634209 22.425016 -0.007402 2.551621 0.006803 -0.001584 -240959.000000 0 1 0
12.792439 0.422753 -19.916909 23.675060 0.033035 2.570408 -0.009950 -0.001103 203968.000000 0 1 0
13.077839 1.803853 -19.802609 23.799728 0.137067 2.553593 0.020719 -0.011869 -171876.000000 0 1 0
13.348839 2.595653 -21.071709 25.078792 0.192051 2.568486 -0.000757 -0.006355 112674.000000 0 0 1
14.682839 2.668153 -21.557809 26.219152 0.179758 2.536090 -0.008192 0.001350 151662.000000 0 0 1
14.849639 3.792053 -22.375109 27.120784 0.250020 2.541029 -0.003507 -0.006241 -749457.000000 0 0 1
16.203339 3.828453 -23.075009 28.454547 0.232020 2.516558 -0.007399 -0.007892 -299961.000000 0 0 1
16.481239 2.728853 -23.961109 29.209803 0.164085 2.532750 -0.013154 -0.005504 61412.000000 0 0 1
16.945939 1.563453 -23.321809 28.870677 0.092001 2.511211 -0.014512 0.000357 -833479.000000 0 0 1
9.186037 26.844753 2.783594 28.509164 1.241095 1.473002 -0.009359 -0.000239 92549.200000 0 0 1
9.172837 27.287253 4.151494 29.085564 1.246505 1.427573 -0.007596 0.000317 355529.000000 0 0 1
10.372437 27.957953 4.536794 30.163175 1.215536 1.419815 -0.004836 -0.011311 -235319.000000 0 0 1
10.316137 28.599853 5.942594 30.978843 1.224616 1.377772 -0.008368 -0.007886 -201746.000000 0 0 1
10.355037 27.685253 7.050794 30.387724 1.212879 1.336635 -0.008529 -0.007864 98681.500000 0 0 1
10.298537 28.484553 8.185294 31.375606 1.223871 1.306862 -0.004739 -0.005325 -911303.000000 0 0 1
10.449337 27.756153 9.495994 31.141076 1.210738 1.260926 0.002110 -0.009496 -92715.800000 0 0 1
11.648937 27.118553 9.875194 31.122871 1.165073 1.247918 -0.011419 -0.005410 -245498.000000 0 0 1
12.171537 26.177553 8.976294 30.232176 1.135571 1.269339 -0.002233 -0.006276 -1046440.000000 0 0 1
13.333737 25.381053 9.503294 30.204288 1.087081 1.250725 -0.000265 -0.009387 14787.000000 0 0 1
14.527837 26.092053 9.826694 31.439103 1.062754 1.252907 -0.002542 -0.006126 993867.000000 0 0 1
15.630537 25.178753 10.045094 31.291967 1.015235 1.243999 -0.007779 0.006942 1219470.000000 0 0 1
16.942437 25.897653 10.500194 32.680096 0.991469 1.243692 -0.000463 0.002610 -99522.200000 0 0 1
17.541437 26.654253 9.454794 33.279789 0.988741 1.282729 -0.002419 -0.003051 -401682.000000 0 0 1
18.902137 26.880653 9.653594 34.249849 0.957934 1.285066 0.003806 -0.017482 -445457.000000 0 0 1
19.365737 27.794153 10.829594 35.564404 0.962251 1.261376 0.004125 -0.011750 -859988.000000 0 0 1
19.343037 29.189253 10.644194 36.598695 0.985561 1.275697 0.002302 -0.012649 572971.000000 0 0 1
18.046337 29.744553 10.889094 36.455193 1.025457 1.267468 -0.008076 0.005339 556703.000000 0 0 1
18.083137 31.282553 11.032194 37.779721 1.046667 1.274465 -0.004297 0.025263 -662358.000000 0 0 1
18.511837 31.980553 9.901794 38.255580 1.046076 1.308983 0.009217 -0.003722 294865.000000 0 0 1
17.511437 32.218353 8.898194 37.733945 1.072939 1.332740 0.012576 -0.010256 912317.000000 0 0 1
16.287437 33.075853 9.339694 38.033177 1.113226 1.322692 0.018289 -0.005008 18246.800000 0 0 1
16.728137 34.338453 9.602694 39.384917 1.117478 1.324497 0.015420 -0.001593 -141222.000000 0 0 1
15.652037 -33.992718 9.999294 38.735991 -1.139284 1.309700 0.028311 -0.000312 55854.500000 0 0 1
16.032337 -32.477118 10.061294 37.590273 -1.112241 1.299836 0.054864 0.007648 -154364.000000 0 0 1
16.447037 -32.016618 8.842294 37.064201 -1.096246 1.329906 0.033519 0.003410 -97857.000000 0 0 1
16.636637 -30.656918 8.819794 35.977952 -1.073597 1.323128 -0.003425 -0.007049 -74062.900000 0 0 1
17.160737 -30.128418 7.464794 35.467388 -1.053040 1.358741 0.017224 -0.008712 -341940.000000 0 0 1
16.232637 -30.341318 6.443694 35.008788 -1.079542 1.385682 0.024581 -0.000005 -183324.000000 0 0 1
16.601337 -29.614718 5.248894 34.353847 -1.059869 1.417406 0.006115 -0.000923 -102720.000000 0 0 1
15.909637 -30.060818 3.936094 34.238314 -1.084025 1.455580 0.014608 -0.012571 -102957.000000 0 0 1
16.228037 -31.387918 3.534094 35.511130 -1.093629 1.471111 0.018530 -0.011430 9692.310000 0 0 1
16.271537 -31.506918 2.133894 35.524671 -1.094081 1.510692 0.011257 -0.009015 -211601.000000 0 0 1
16.433137 -32.969718 1.611794 36.873407 -1.108405 1.527071 0.016311 0.000416 -197817.000000 0 0 1
17.691637 -33.509018 1.940994 37.942269 -1.085027 1.519617 0.011363 0.015032 -8545.070000 0 0 1
17.900837 34.371553 1.349294 38.777110 1.090645 1.535993 0.034032 0.015128 42549.200000 0 0 1
19.381837 33.960653 1.525194 39.131928 1.052189 1.531811 0.046548 0.005675 117254.000000 0 0 1
19.518937 33.496553 2.810394 38.870378 1.043184 1.498432 0.041816 -0.008686 1007680.000000 0 0 1
20.882237 33.338753 3.270394 39.474495 1.011216 1.487853 0.035426 -0.006216 810715.000000 0 0 1
21.083937 33.306153 4.769294 39.706151 1.006440 1.450391 0.031680 0.001658 -82750.300000 0 0 1
20.531437 32.134553 5.429094 38.518106 1.002249 1.429376 0.029150 -0.008646 627936.000000 0 0 1
21.531137 31.256853 5.972094 38.421955 0.967596 1.414729 0.019918 -0.014453 683904.000000 0 0 1
20.823437 30.170153 6.827494 37.288984 0.966678 1.386661 0.026700 -0.020188 198045.000000 0 0 1
19.880737 29.480653 6.063994 36.071105 0.977483 1.401882 0.031931 -0.017744 -60766.400000 0 0 1
18.855837 28.872053 6.850294 35.157710 0.992257 1.374697 0.026130 -0.022087 669168.000000 0 0 1
17.423337 29.050653 6.270694 34.450468 1.030555 1.387755 0.031668 -0.023671 209258.000000 0 0 1
16.876537 30.357153 6.217294 35.284969 1.063410 1.393669 0.027658 -0.028898 -47518.200000 0 0 1
17.240337 31.025553 4.997494 35.843955 1.063601 1.430917 0.043610 -0.025116 -243652.000000 0 0 1
17.075637 32.564953 4.993194 37.107756 1.087854 1.435828 0.043035 -0.020088 1274280.000000 0 0 1
15.723037 33.094053 5.007994 36.979863 1.127265 1.434954 0.028301 -0.013521 932388.000000 0 0 1
15.878237 34.468653 5.248194 38.311226 1.139115 1.433376 0.031051 -0.016027 274869.000000 0 0 1
14.469437 -34.028818 5.350794 37.362495 -1.168747 1.427089 0.033506 -0.018685 275331.000000 0 0 1
13.764537 -34.093918 4.118294 36.997541 -1.187084 1.459253 0.032387 -0.010290 -226294.000000 0 0 1
12.890937 -32.978418 4.113894 35.646548 -1.198168 1.455131 0.032871 -0.009660 434106.000000 0 0 1
11.788437 -32.968218 2.997794 35.140538 -1.227394 1.485384 0.032090 -0.006117 753545.000000 0 0 1
10.845137 -31.901918 2.976194 33.826130 -1.243100 1.482697 0.032569 -0.014384 333986.000000 0 0 1
10.258937 -31.767718 1.674194 33.425089 -1.258432 1.520687 0.035367 -0.007816 -585976.000000 0 0 1
9.331337 -30.519418 1.571994 31.952776 -1.274072 1.521579 0.042771 -0.010664 133890.000000 0 0 1
8.799837 -30.338118 0.271694 31.589750 -1.288485 1.562196 0.052331 -0.007922 -392804.000000 0 0 1
7.798237 -31.207518 -0.149506 32.167437 -1.325928 1.575444 0.044625 -0.007227 -1013520.000000 0 0 1
8.097837 -31.959518 -1.450506 33.001359 -1.322641 1.614763 0.056513 -0.006269 141756.000000 0 0 1
9.271837 -32.765418 -1.367606 34.079465 -1.295030 1.610937 0.042874 -0.005693 155553.000000 0 0 1
9.611337 -33.473818 -2.506506 34.916427 -1.291188 1.642644 0.053926 -0.001599 -247493.000000 0 0 1
10.954237 -34.191618 -2.332306 35.979184 -1.260751 1.635666 0.037396 0.000432 -411127.000000 0 0 1
10.831737 33.848853 -1.411806 35.567747 1.261091 1.610500 0.030995 0.002844 -666399.000000 0 0 1
12.009137 33.126353 -1.336206 35.261312 1.223007 1.608700 0.040203 0.000785 -709377.000000 0 0 1
12.107737 32.125853 -0.178206 34.332193 1.210374 1.575987 0.032103 0.000264 -657893.000000 0 0 1
12.245837 32.640753 1.125794 34.880463 1.211876 1.538515 0.026245 0.002592 1434670.000000 0 0 1
13.552837 33.208653 1.474794 35.898037 1.183317 1.529702 0.033562 0.000568 1911670.000000 0 0 1
14.815337 32.275553 1.469594 35.543850 1.140461 1.529439 0.038223 -0.000044 -65167.800000 0 0 1
15.263137 31.879953 0.189194 35.345871 1.124277 1.565444 0.044317 -0.002485 -78842.000000 0 0 1
16.114037 30.761653 0.126794 34.726900 1.088263 1.567145 0.054685 -0.002842 -165960.000000 0 0 1
16.695837 30.374453 -1.259406 34.683490 1.068209 1.607116 0.049353 -0.001631 691802.000000 0 0 1
17.815837 31.124453 -1.749506 35.905381 1.050913 1.619541 0.037776 0.004493 496450.000000 0 0 1
17.453237 32.433353 -2.209406 36.897417 1.077115 1.630712 0.036635 -0.000214 7689.920000 0 0 1
18.615137 33.274953 -2.798406 38.230576 1.060739 1.644060 0.023527 0.012833 -24345.500000 0 0 1
19.446937 33.882553 -1.838606 39.109989 1.049751 1.617825 0.014632 0.016046 -419051.000000 0 0 1
20.401037 -34.513218 -2.550506 40.172996 -1.036941 1.634327 0.003682 0.021099 -1439640.000000 0 0 1
21.455337 -33.930018 -1.609806 40.176723 -1.006936 1.610875 0.007058 0.020093 203317.000000 0 0 1
22.414037 34.238053 -1.088806 40.936767 0.991157 1.597397 0.006625 0.016298 1302930.000000 0 0 1
23.167737 33.302153 -1.893006 40.612325 0.962974 1.617425 0.012419 0.020941 28620.800000 0 0 1
24.119037 33.877553 -2.961606 41.691578 0.952097 1.641892 -0.005118 0.015344 -921757.000000 0 0 1
23.386237 34.457153 -4.005406 41.836046 0.974506 1.666684 -0.001049 0.007449 475326.000000 0 0 1
24.206437 -33.874418 -4.874706 41.918856 -0.950343 1.687349 0.000811 0.005676 98494.300000 0 0 1
23.339337 -33.284718 -5.974006 41.088756 -0.959264 1.716706 0.000828 -0.003129 -44437.000000 0 0 1
22.243937 -32.529918 -5.475906 39.786604 -0.971026 1.708866 0.001423 0.001491 574207.000000 0 0 1
21.520337 -32.075418 -6.631506 39.190996 -0.979848 1.740824 0.008368 -0.011512 -16407.400000 0 0 1
20.589637 -30.855018 -6.619906 37.680080 -0.982354 1.747400 0.020068 -0.009926 522412.000000 0 0 1
19.348637 -31.013718 -5.934306 37.032910 -1.013007 1.731734 0.020434 -0.002304 521893.000000 0 0 1
18.591837 -29.802218 -5.979506 35.631209 -1.013031 1.739411 0.033309 -0.010001 966950.000000 0 0 1
17.200537 -29.773518 -5.270206 34.786433 -1.046926 1.722884 0.023542 -0.000879 556681.000000 0 0 1
16.149537 -30.513718 -5.808006 35.008962 -1.084020 1.737467 0.014919 -0.006160 -737605.000000 0 0 1
15.066037 -30.510218 -4.925506 34.381964 -1.112119 1.714549 0.007156 -0.006133 -384546.000000 0 0 1
13.998137 -31.554918 -5.269306 34.920284 -1.153267 1.722270 0.012263 -0.004660 -216209.000000 0 0 1
14.372137 -32.871818 -5.167106 36.246568 -1.158623 1.713838 0.015670 -0.000693 355951.000000 0 0 1
13.262237 -33.654818 -5.681206 36.617070 -1.195415 1.726577 0.029198 0.000529 654776.000000 0 0 1
13.496937 33.932053 -5.709706 36.961498 1.192219 1.725895 0.028068 0.000024 -157198.000000 0 0 1
13.581337 33.307753 -4.420206 36.240825 1.183624 1.693068 0.031990 -0.005097 10686.800000 0 0 1
14.034337 31.977753 -4.515306 35.212602 1.157230 1.699380 0.034742 -0.004748 406575.000000 0 0 1
12.892237 30.991353 -4.997806 33.935996 1.176578 1.718605 0.031168 -0.001458 397571.000000 0 0 1
11.943437 30.647753 -4.053306 33.141511 1.199200 1.693406 0.033347 -0.002075 -374214.000000 0 0 1
12.463437 29.711553 -3.180306 32.376350 1.173609 1.669184 0.040561 -0.005894 -71530.000000 0 0 1
11.336537 28.829653 -2.550506 31.083292 1.196144 1.652943 0.034855 -0.004997 1163560.000000 0 0 1
10.429737 29.573853 -1.692206 31.404710 1.231747 1.624706 0.022927 -0.002257 215984.000000 0 0 1
9.474237 28.777053 -1.050706 30.314748 1.252744 1.605463 0.012139 0.000091 -328300.000000 0 0 1
8.518637 29.596953 -0.205906 30.799176 1.290550 1.577482 0.005785 0.012414 189445.000000 0 0 1
7.596237 28.815453 0.558894 29.805126 1.313044 1.552044 0.001261 0.004545 -442177.000000 0 0 1
6.461537 29.561353 0.846094 30.271124 1.355600 1.542842 0.015270 0.013541 -86052.300000 0 0 1
5.399037 28.797653 1.721194 29.349905 1.385466 1.512119 0.019990 0.008817 794123.000000 0 0 1
4.760037 27.746553 0.913394 28.166709 1.400896 1.538363 0.022334 0.000384 152416.000000 0 0 1
3.639537 27.185153 1.551494 27.471548 1.437708 1.514290 0.023465 -0.007124 98888.500000 0 0 1
2.823837 26.237853 0.647694 26.397320 1.463584 1.546258 0.027675 -0.012707 272623.000000 0 0 1
1.642137 25.713253 1.235494 25.795241 1.507019 1.522882 0.026685 -0.011124 184405.000000 0 0 1
1.051737 24.786053 0.368194 24.811090 1.528389 1.555956 0.015263 -0.008073 -606847.000000 0 1 0
-0.234363 24.125753 0.832594 24.141253 -1.561082 1.536301 0.012169 -0.005458 -1015870.000000 0 1 0
-1.306463 24.998353 0.745394 25.043565 -1.518582 1.541028 0.017631 -0.007638 -579067.000000 0 0 1
-2.438263 24.314353 1.277094 24.469652 -1.470850 1.518582 0.009358 -0.004906 -48177.800000 0 1 0
-3.654263 25.202453 1.621394 25.517567 -1.426804 1.507213 0.020304 -0.012910 -1047420.000000 0 0 1
-4.746263 24.377753 1.923194 24.909848 -1.378505 1.493513 0.010470 -0.015124 -128271.000000 0 1 0
-5.762163 25.122853 2.601694 25.906159 -1.345336 1.470199 0.000248 -0.009435 -76003.100000 0 0 1
-6.836463 25.662953 1.649794 26.609138 -1.310448 1.508756 0.004547 -0.011663 -1179830.000000 0 0 1
-6.515163 26.789553 0.830394 27.582913 -1.332230 1.540686 0.010491 -0.018924 -305983.000000 0 0 1
-7.219663 26.843453 -0.371406 27.799865 -1.308059 1.584157 0.000024 -0.010261 -529942.000000 0 0 1
-6.955463 28.096853 -1.277506 28.973154 -1.328122 1.614903 0.002491 -0.006644 -45541.600000 0 0 1
-7.429963 29.332753 -0.785206 30.269313 -1.322715 1.596740 0.008992 -0.017312 -106273.000000 0 0 1
-7.290563 30.251053 -1.789806 31.168605 -1.334304 1.628251 0.010454 -0.011398 -277155.000000 0 0 1
-7.542963 31.735153 -1.441706 32.651107 -1.337442 1.614966 0.005769 -0.012335 -834975.000000 0 0 1
-7.470763 32.684153 -2.532506 33.622608 -1.346082 1.646189 0.001111 -0.000670 66674.900000 0 0 1
-6.195963 32.821753 -3.124706 33.547299 -1.384216 1.664075 0.005295 0.004912 405721.000000 0 0 1
-5.050863 33.422753 -2.250106 33.877052 -1.420811 1.637265 0.007916 -0.004100 -449331.000000 0 0 1
-5.227863 -34.339218 -2.145606 34.801093 1.419715 1.632489 0.006974 0.001773 763290.000000 0 0 1
-4.166363 -33.727618 -1.378406 34.011921 1.447889 1.611335 0.011730 0.003634 644495.000000 0 0 1
-4.176363 -32.204618 -1.702206 32.518870 1.441834 1.623165 0.018123 0.000425 277961.000000 0 0 1
-5.343163 -31.606018 -1.170006 32.075827 1.403325 1.607281 0.011084 -0.005005 -16227.400000 0 0 1
-5.598863 -30.281518 -1.669906 30.840009 1.387967 1.624970 0.017201 0.001459 -211642.000000 0 0 1
-6.971363 -29.657918 -1.382606 30.497600 1.339928 1.616147 0.038498 -0.004243 -186509.000000 0 0 1
-7.258063 -29.491218 -0.003206 30.371227 1.329483 1.570902 0.023341 -0.004774 -210942.000000 0 0 1
-8.328863 -28.594218 0.140794 29.782865 1.287361 1.566069 0.003368 -0.007914 -216946.000000 0 0 1
-8.269763 -28.121318 1.624294 29.357040 1.284785 1.515439 0.008736 -0.007355 517534.000000 0 0 1
-7.269963 -27.093618 1.684894 28.102586 1.308644 1.510805 0.020719 -0.006228 69790.600000 0 0 1
-7.181163 -26.364118 2.925294 27.480778 1.304864 1.464146 0.015462 -0.007169 -530544.000000 0 0 1
-8.335163 -25.449018 3.281394 26.979529 1.254283 1.448869 0.004286 -0.007776 -397735.000000 0 0 1
-8.288063 -24.354118 2.433094 25.840569 1.242776 1.476499 0.010545 -0.014910 -239155.000000 0 0 1
-9.158263 -23.321718 2.886994 25.221242 1.196605 1.456078 0.006694 -0.021619 -15356.100000 0 0 1
-8.449363 -22.042618 3.407794 23.851243 1.204752 1.427429 0.002208 0.002097 219294.000000 0 1 0
-7.796663 -22.268518 4.667394 24.051183 1.234014 1.375496 -0.005379 0.001935 11668.900000 0 1 0
-7.035663 -21.059118 4.884294 22.734188 1.248364 1.354265 -0.006617 0.000117 267338.000000 0 1 0
-7.841863 -19.872818 5.492094 22.058712 1.194952 1.319173 0.003331 -0.007933 66624.300000 0 1 0
-8.055263 -20.033018 6.850294 22.652496 1.188481 1.263579 -0.000737 -0.004287 692353.000000 0 1 0
-8.854163 -18.937618 7.420794 22.183276 1.133449 1.229698 -0.000851 -0.010453 -473374.000000 0 1 0
-26.664943 29.189153 -6.109706 40.004430 -0.830560 1.724122 0.042853 -0.006728 -26411.900000 0 0 1
-26.035533 29.964153 -5.083106 40.019213 -0.855438 1.698157 0.036675 -0.007975 230829.000000 0 0 1
-25.199143 29.151553 -4.256706 38.767634 -0.857991 1.680819 0.022552 -0.008487 -73009.000000 0 0 1
-24.398963 29.919753 -3.210406 38.740260 -0.886687 1.653761 0.019415 -0.008542 -807286.000000 0 0 1
-25.093873 30.549053 -2.168006 39.593527 -0.883125 1.625580 0.020656 -0.011244 -238383.000000 0 0 1
-24.400163 31.494253 -1.356306 39.863461 -0.911643 1.604827 0.019752 -0.013935 591630.000000 0 0 1
-23.015963 31.298853 -0.666906 38.856113 -0.936730 1.587961 0.012133 -0.010825 909595.000000 0 0 1
-21.849463 31.142253 -1.447806 38.070134 -0.958996 1.608835 0.023962 -0.010566 258687.000000 0 0 1
-20.713663 30.882753 -0.658806 37.191858 -0.979993 1.588511 0.024283 -0.015069 476080.000000 0 0 1
-19.404363 30.474053 -1.388306 36.154179 -1.003792 1.609205 0.020495 -0.010501 1062820.000000 0 0 1
-18.238063 30.332553 -0.562606 35.397843 -1.029443 1.586691 0.027689 -0.017823 391988.000000 0 0 1
-17.105863 29.938353 -1.277306 34.504305 -1.051695 1.607824 0.032626 -0.022920 440920.000000 0 0 1
-15.717863 30.372453 -0.706406 34.205791 -1.093244 1.591449 0.030742 -0.022564 658050.000000 0 0 1
-15.394863 29.637453 0.515494 33.401290 -1.091718 1.555362 0.033132 -0.021789 -973034.000000 0 0 1
-14.145463 29.956753 0.978894 33.143015 -1.129638 1.541257 0.029371 -0.024984 -878358.000000 0 0 1
-13.708763 29.075153 2.174994 32.218401 -1.130212 1.503237 0.027986 -0.025679 -67138.300000 0 0 1
-14.459163 29.368753 3.358694 32.907019 -1.113302 1.468552 0.019276 -0.015961 26408.700000 0 0 1
-14.005163 28.622053 4.490694 32.179697 -1.115734 1.430789 0.022279 -0.018693 276785.000000 0 0 1
-12.864963 29.370353 5.220294 32.486557 -1.157945 1.409406 0.030265 -0.011398 -99314.300000 0 0 1
-13.299363 30.585353 5.847994 33.860537 -1.160631 1.397218 0.013886 -0.013143 -213602.000000 0 0 1
-13.169363 31.729853 4.954294 34.709664 -1.177387 1.427572 0.018787 -0.014803 -103240.000000 0 0 1
-12.859663 32.993653 5.751494 35.875225 -1.199147 1.409782 0.015412 -0.009001 401098.000000 0 0 1
-13.897063 33.480053 6.613094 36.848003 -1.177354 1.390349 0.010796 -0.002894 422105.000000 0 0 1
-13.449863 -34.483018 7.201094 37.707202 1.198903 1.378642 0.020999 -0.012931 24525.700000 0 0 1
-14.495263 -33.922118 8.165094 37.782158 1.166971 1.352968 0.009963 -0.009027 84432.200000 0 0 1
-14.610063 34.365053 9.298894 38.482207 -1.168805 1.326739 -0.001707 -0.008393 1154220.000000 0 0 1
-15.841263 -34.390918 9.988394 39.159275 1.139143 1.312875 0.008780 -0.012846 547281.000000 0 0 1
-16.164363 33.951953 11.283594 39.259919 -1.126455 1.279277 0.011917 -0.010415 585227.000000 0 0 1
-15.368763 34.223253 12.463294 39.531806 -1.148713 1.250052 0.014831 -0.007639 823345.000000 0 0 1
-13.980463 33.879153 12.417794 38.696925 -1.179427 1.244118 0.011473 0.003118 601048.000000 0 0 1
-13.263463 34.111353 13.806494 39.116789 -1.199958 1.210068 0.021826 0.003344 -107978.000000 0 0 1
-13.676763 33.176553 14.765594 38.804127 -1.179781 1.180442 0.022399 0.008471 -38606.400000 0 0 1
-12.798363 32.081553 14.989894 37.652637 -1.191211 1.161341 -0.002483 0.018627 -583245.000000 0 0 1
-13.339463 30.691553 14.530994 36.483729 -1.160798 1.161148 -0.008098 0.012924 -69407.500000 0 0 1
-13.525663 30.628453 13.113194 35.958331 -1.154946 1.197510 -0.005728 0.012869 -841189.000000 0 0 1
-14.793463 30.262953 12.740694 36.014139 -1.116124 1.209198 -0.010001 0.011046 -1128070.000000 0 0 1
-14.932663 30.103953 11.201294 35.421765 -1.110324 1.249047 -0.012445 0.010339 146864.000000 0 0 1
-14.358163 28.887053 10.647394 33.970365 -1.109516 1.251992 -0.005583 0.016038 251765.000000 0 0 1
-14.596863 28.864353 9.292294 33.653618 -1.102595 1.291046 -0.004050 0.011595 -135494.000000 0 0 1
-13.963563 27.722053 8.479994 32.177688 -1.104194 1.304110 -0.000823 0.012521 49802.300000 0 0 1
-12.556463 27.629053 8.388794 31.486524 -1.144235 1.301114 0.014717 0.012075 188078.000000 0 0 1
-12.261863 26.354953 7.824694 30.102536 -1.135326 1.307842 0.014085 0.009851 855356.000000 0 0 1
-10.843663 26.287853 7.131194 29.317063 -1.179563 1.325088 0.024591 0.003375 692808.000000 0 0 1
-10.813763 26.801953 5.827894 29.482987 -1.187303 1.371816 0.036111 -0.007208 41568.500000 0 0 1
-9.583163 26.609253 5.169994 28.750969 -1.225113 1.389993 0.036046 -0.002095 -111535.000000 0 0 1
-9.632863 27.017453 3.678194 28.918229 -1.228305 1.443258 0.027820 -0.009636 -76502.500000 0 0 1
-9.733563 28.432053 3.447194 30.249084 -1.240958 1.456588 0.032327 -0.012133 59124.000000 0 0 1
-9.962963 28.626653 2.004294 30.377016 -1.235877 1.504768 0.024742 -0.015523 98215.800000 0 0 1
-9.604963 30.056653 1.474794 31.588491 -1.261491 1.524092 0.033571 -0.023365 63391.400000 0 0 1
-10.483963 31.006153 2.007294 32.792137 -1.244739 1.509545 0.028440 -0.027418 -11246.700000 0 0 1
-10.067863 32.315453 1.550394 33.882947 -1.268778 1.525023 0.023860 -0.020334 252251.000000 0 0 1
-10.760863 33.509353 2.268994 35.267850 -1.260069 1.506416 0.021736 -0.012583 1097510.000000 0 0 1
-12.089263 33.929653 1.901794 36.069218 -1.228517 1.518046 0.019569 -0.010181 627553.000000 0 0 1
-12.111863 -34.395018 0.716694 36.472293 1.232216 1.551145 0.011709 -0.010921 1255330.000000 0 0 1
-13.594563 -33.846218 0.439294 36.477001 1.188863 1.558753 0.018132 -0.008015 1497840.000000 0 0 1
-14.494663 34.381953 -0.108806 37.312542 -1.171828 1.573712 0.021588 -0.011162 -534601.000000 0 0 1
-14.486763 34.126153 -1.530606 37.105302 -1.169344 1.612058 0.017223 -0.007303 -82783.400000 0 0 1
-13.204063 33.599153 -2.254106 36.170864 -1.196349 1.633155 0.015172 -0.007756 245193.000000 0 0 1
-12.830863 32.253053 -2.071606 34.773295 -1.192172 1.630406 0.017274 -0.010003 -76942.600000 0 0 1
-11.445663 32.021753 -2.201806 34.077028 -1.227514 1.635454 0.006944 -0.005426 -38948.200000 0 0 1
-11.141063 30.519953 -2.326206 32.573027 -1.220784 1.642272 0.001997 -0.009093 -201051.000000 0 0 1
-11.380463 29.943953 -3.566406 32.231577 -1.207598 1.681673 0.001888 -0.005432 -1055090.000000 0 0 1
-10.221963 29.910753 -4.354106 31.907678 -1.241491 1.707683 -0.007800 0.006623 -374801.000000 0 0 1
-10.488063 29.345753 -5.709106 31.682276 -1.227548 1.751985 -0.006181 0.007752 -369334.000000 0 0 1
-10.665963 27.957553 -5.609606 30.444297 -1.206334 1.756113 -0.005123 0.014102 -18646.400000 0 0 1
-10.610463 27.409553 -6.925806 30.196562 -1.201453 1.802214 -0.010337 0.011236 149707.000000 0 0 1
-11.197163 25.987553 -6.929006 29.133152 -1.163967 1.810937 0.007957 0.013756 -94989.100000 0 0 1
-10.384663 25.121353 -6.181206 27.877068 -1.178809 1.794385 -0.004787 0.015651 -63228.100000 0 0 1
-10.609363 23.755353 -6.506906 26.818188 -1.150766 1.815873 0.025336 0.006858 -173384.000000 0 0 1
-10.149263 22.796453 -5.424406 25.536445 -1.151931 1.784845 0.007706 0.002362 387052.000000 0 0 1
-8.745463 22.531653 -5.523306 24.792447 -1.200555 1.795463 0.011536 -0.004601 602668.000000 0 1 0
-8.369063 21.281153 -4.920506 23.391026 -1.196112 1.782738 0.017161 -0.003249 -319449.000000 0 1 0
-8.342663 21.109753 -3.351106 22.944534 -1.194431 1.717373 0.007551 -0.010399 669448.000000 0 1 0
-9.594863 20.911953 -2.655806 23.160840 -1.140630 1.685717 0.013560 -0.007346 357002.000000 0 1 0
-10.236663 19.726053 -2.927506 22.415993 -1.092111 1.701769 0.022100 -0.011324 -992544.000000 0 1 0
-11.581163 19.641653 -2.197106 22.907317 -1.038042 1.666857 0.031988 -0.007761 -550828.000000 0 1 0
-11.609663 19.343453 -0.809406 22.574512 -1.030240 1.606659 0.038712 -0.019019 -183214.000000 0 1 0
-11.165063 18.071153 -0.469806 21.247257 -1.017363 1.592910 0.032189 -0.024482 -362029.000000 0 1 0
-10.916463 17.970653 1.074594 21.053938 -1.024909 1.519734 0.026830 -0.025436 -552341.000000 0 1 0
-12.110763 18.001353 1.773694 21.768447 -0.978581 1.489226 0.041641 -0.022800 -520378.000000 0 1 0
-11.863863 18.119153 3.140994 21.884259 -0.991076 1.426771 0.037289 -0.023419 126035.000000 0 1 0
-13.185663 18.151953 3.937494 22.778476 -0.942568 1.397063 0.040751 -0.014758 -130828.000000 0 1 0
-13.838263 16.967353 4.076294 22.271165 -0.886626 1.386729 0.036617 -0.009809 -131971.000000 0 1 0
-14.933263 17.049753 4.963594 23.202019 -0.851477 1.355201 0.040790 -0.012365 -54948.400000 0 1 0
-15.221463 15.685353 5.690694 22.585554 -0.800406 1.316090 0.018943 -0.010084 -476146.000000 0 1 0
-14.414963 15.332153 6.774394 22.107883 -0.816221 1.259362 0.021169 -0.006247 -296397.000000 0 1 0
-14.767763 15.859253 8.053994 23.118598 -0.821021 1.214957 0.016261 -0.003734 -1016040.000000 0 1 0
-13.665263 15.718353 9.088294 22.724505 -0.855157 1.159352 0.004796 -0.004878 538051.000000 0 1 0
-12.466363 16.468753 8.933394 22.504123 -0.922849 1.162586 0.008948 -0.009159 105772.000000 0 1 0
-11.606963 16.262953 7.879994 21.477885 -0.950931 1.195134 0.010506 -0.006356 -896808.000000 0 1 0
-10.553963 17.370753 7.724694 21.743967 -1.024829 1.207607 0.020946 -0.007924 223284.000000 0 1 0
-9.465563 17.354853 8.634894 21.571954 -1.071482 1.158970 0.021336 -0.009249 -210462.000000 0 1 0
-8.881463 18.626453 8.705494 22.396669 -1.125864 1.171581 0.017212 -0.010040 -554971.000000 0 1 0
-7.539063 18.447553 9.401394 22.034879 -1.182834 1.130000 0.013275 -0.015497 -1654890.000000 0 1 0
-6.591463 17.627153 8.791394 20.771435 -1.212957 1.133773 0.009301 -0.015059 -761988.000000 0 1 0
-5.387263 17.679953 9.518394 20.789497 -1.275024 1.095225 0.005226 -0.017196 274882.000000 0 1 0
-4.422463 18.833753 9.097894 21.378497 -1.340159 1.131213 -0.001046 -0.016485 -1234700.000000 0 1 0
-4.907463 20.123753 9.402994 22.747856 -1.331601 1.144658 0.009632 -0.020667 -291490.000000 0 1 0
-4.519563 21.165153 8.550094 23.270030 -1.360418 1.194553 0.012775 -0.015140 -601939.000000 0 1 0
-3.106963 21.679553 8.804994 23.604749 -1.428453 1.188537 0.009578 -0.009986 76081.200000 0 1 0
-2.017563 20.818153 8.422394 22.547789 -1.474184 1.187979 -0.000228 -0.000751 652119.000000 0 1 0
-0.804263 21.527753 8.247794 23.067664 -1.533454 1.205155 0.006115 -0.003944 478241.000000 0 1 0
0.451037 20.668153 7.949694 22.148897 1.548977 1.203685 0.007987 -0.004515 428890.000000 0 1 0
0.888437 20.118753 9.219994 22.148631 1.526665 1.141448 0.007472 -0.009832 -410222.000000 0 1 0
2.078237 19.369053 9.044694 21.477565 1.463908 1.136113 0.000619 -0.021068 -185449.000000 0 1 0
2.750437 19.187253 10.400594 21.997453 1.428419 1.078320 -0.002087 -0.028774 -776370.000000 0 1 0
3.658137 18.118253 10.552394 21.283940 1.371571 1.052050 0.007058 -0.022394 -120015.000000 0 1 0
4.363837 18.160853 11.759194 22.071210 1.334979 1.008909 0.000675 -0.016201 -215998.000000 0 1 0
5.768737 18.789353 11.525894 22.785178 1.272910 1.040429 0.005670 -0.015230 -54462.000000 0 1 0
6.668137 17.855253 10.903194 21.958000 1.213381 1.051179 0.002605 -0.013773 523501.000000 0 1 0
7.457637 17.065353 11.834394 22.065709 1.158802 1.004719 0.004474 -0.007800 -105498.000000 0 1 0
8.625837 16.368453 11.106494 21.579748 1.085799 1.030171 0.007881 -0.008922 -169487.000000 0 1 0
9.690937 17.214053 10.811694 22.519561 1.058052 1.070025 0.016090 -0.014602 -681604.000000 0 1 0
10.823437 16.657153 10.254694 22.355453 0.994578 1.094252 0.016393 -0.009928 -895477.000000 0 1 0
11.710737 17.669553 9.594894 23.268358 0.985501 1.145755 0.020170 0.001455 -486647.000000 0 1 0
12.751837 17.032953 8.879194 23.055822 0.928155 1.175462 0.020985 0.001953 -128435.000000 0 1 0
13.620837 17.973553 8.301094 24.030896 0.922305 1.218095 0.034996 0.001896 -227868.000000 0 1 0
14.684537 17.372953 7.375694 23.913511 0.869065 1.257252 0.038020 -0.007759 198564.000000 0 1 0
15.776937 16.796653 8.083994 24.421103 0.816693 1.233407 0.048410 -0.008950 126811.000000 0 1 0
16.865137 16.486953 7.264594 24.678468 0.774060 1.272000 0.072581 -0.005235 462579.000000 0 1 0
18.251837 16.440653 7.991194 25.831837 0.733239 1.256282 0.051229 -0.002812 326116.000000 0 0 1
18.448837 15.193753 8.667594 25.423157 0.688944 1.222887 0.052064 0.000329 -42510.900000 0 0 1
19.426437 15.340553 9.662494 26.572219 0.668413 1.198633 0.046173 0.006423 -260697.000000 0 0 1
19.699637 14.148853 10.577494 26.460331 0.622856 1.159553 0.034525 0.006987 -241706.000000 0 0 1
20.405337 13.115553 9.994694 26.235271 0.571262 1.179958 0.027769 0.007544 -123160.000000 0 0 1
20.518837 12.061753 10.867394 26.165030 0.531429 1.142479 0.032316 0.005447 343860.000000 0 0 1
21.537337 11.060353 10.215194 26.278099 0.474423 1.171539 0.029656 0.005077 -716198.000000 0 0 1
22.905737 11.316653 10.345894 27.564052 0.458879 1.186033 0.018445 0.003995 498660.000000 0 0 1
23.696237 10.375653 9.555194 27.576576 0.412713 1.216962 0.027606 -0.002655 73355.100000 0 0 1
23.762637 8.917753 10.012294 27.284341 0.359020 1.195056 0.033186 -0.015226 -369.670000 0 0 1
22.503837 8.218353 9.898794 25.922001 0.350149 1.178979 0.026709 -0.005920 983061.000000 0 0 1
22.567337 6.830353 10.136994 25.665094 0.293900 1.164759 0.028766 -0.010667 -39075.400000 0 0 1
23.550437 5.904153 9.338994 26.013437 0.245640 1.203593 0.037251 -0.016473 302007.000000 0 0 1
23.403237 6.035453 7.934394 25.438019 0.252390 1.253593 0.036123 -0.007648 16455.900000 0 0 1
24.563737 5.468253 7.406094 26.232217 0.219043 1.284576 0.043954 -0.011213 -316395.000000 0 0 1
24.440737 5.099653 5.932394 25.662217 0.205703 1.337514 0.055020 -0.016875 -542769.000000 0 0 1
23.450037 4.133953 5.642694 24.471081 0.174495 1.338116 0.051801 -0.013116 526318.000000 0 1 0
23.336237 3.783453 4.291994 24.027394 0.160729 1.391203 0.054397 -0.014627 136687.000000 0 1 0
22.264537 2.654253 4.054094 22.785749 0.118654 1.391922 0.056173 -0.010593 66097.700000 0 1 0
22.728837 1.403953 4.491994 23.210970 0.061691 1.376039 0.056967 -0.008571 256807.000000 0 1 0
22.055237 0.281453 3.975394 22.412417 0.012761 1.392478 0.054753 -0.006605 -351982.000000 0 1 0
22.679537 -1.069647 4.418394 23.130667 -0.047129 1.378596 0.055553 -0.004891 -292014.000000 0 1 0
22.416537 -1.480347 5.770494 23.194636 -0.065942 1.319370 0.053665 -0.005461 534456.000000 0 1 0
22.566837 -2.860847 6.003694 23.526387 -0.126100 1.312752 0.046381 -0.007359 -336526.000000 0 1 0
22.281337 -3.332747 7.485394 23.740183 -0.148475 1.250019 0.061372 -0.009183 -130586.000000 0 1 0
22.462937 -4.723447 7.684494 24.206320 -0.207258 1.247749 0.060263 -0.016031 440258.000000 0 1 0
22.217537 -5.078947 9.027094 24.513324 -0.224739 1.193668 0.068393 -0.018133 -198950.000000 0 1 0
22.049437 -6.561047 9.341494 24.829187 -0.289217 1.185072 0.081022 -0.026594 -26137.300000 0 1 0
20.789537 -7.056547 8.952094 23.709485 -0.327225 1.183621 0.080474 -0.021417 228985.000000 0 1 0
20.593337 -8.396347 9.345894 24.123223 -0.387145 1.172962 0.081655 -0.018785 -97272.400000 0 1 0
-25.716853 -32.924418 5.433894 42.129574 0.907694 1.441455 -0.007239 -0.016819 -299508.000000 0 0 1
-26.414003 -33.991818 5.954994 43.458085 0.910195 1.433335 -0.006393 -0.007600 -328390.000000 0 0 1
-26.246393 -34.119318 7.336694 43.667243 0.915087 1.401982 0.002493 -0.001740 -85141.200000 0 0 1
-26.988973 33.757253 7.855294 43.927924 -0.896359 1.391007 0.012668 -0.000912 24136.000000 0 0 1
-28.389263 33.861153 7.746894 44.861368 -0.873074 1.397241 0.000356 -0.000030 -390563.000000 0 0 1
-28.953713 32.622353 8.148294 44.372628 -0.844907 1.386115 0.005228 0.006260 374584.000000 0 0 1
-30.509923 32.632453 8.183394 45.416961 -0.819001 1.389623 -0.006159 0.003912 423708.000000 0 0 1
-31.012233 32.700253 6.869794 45.587929 -0.811886 1.419527 -0.017597 0.012673 -639505.000000 0 0 1
-32.406593 32.768253 6.846194 46.592017 -0.790947 1.423323 -0.021481 0.010476 -416484.000000 0 0 1
-32.992543 32.706953 5.397694 46.769518 -0.781051 1.455128 -0.014106 0.012857 -37197.400000 0 0 1
-32.747573 31.467453 4.750894 45.663718 -0.765466 1.466567 -0.016524 0.012213 383875.000000 0 0 1
-33.395033 31.450453 3.469594 46.004319 -0.755419 1.495306 0.003309 0.011929 170652.000000 0 0 1
-33.077533 30.128053 2.732194 44.825079 -0.738767 1.509806 0.003454 0.005655 -256724.000000 0 0 1
-33.599003 28.969853 3.303394 44.486603 -0.711548 1.496472 0.014308 0.001381 173490.000000 0 0 1
-33.124063 27.812353 2.612594 43.330777 -0.698450 1.510466 0.011304 0.001738 -152254.000000 0 0 1
-33.565543 26.550353 3.372094 42.929453 -0.669229 1.492166 0.019850 0.004552 1372180.000000 0 0 1
-35.001893 26.312453 3.197594 43.905607 -0.644616 1.497903 0.026416 0.005347 1264490.000000 0 0 1
35.038120 25.566253 4.276294 43.584284 0.630362 1.472523 0.025269 -0.000523 403556.000000 0 0 1
33.575709 25.194053 3.886394 42.156525 0.643735 1.478476 0.029831 0.002190 -183324.000000 0 0 1
33.484559 24.451053 2.697794 41.549341 0.630720 1.505821 0.005952 0.002137 -160494.000000 0 0 1
33.965479 23.131753 2.744094 41.185699 0.597886 1.504120 0.001676 0.004676 -258116.000000 0 0 1
33.101189 22.085353 1.954894 39.840597 0.588377 1.521709 -0.000069 -0.004554 77974.100000 0 0 1
31.778509 21.855153 2.381294 38.641841 0.602446 1.509133 -0.003619 -0.006099 133137.000000 0 0 1
31.565869 21.046453 3.516594 38.101492 0.588058 1.478369 -0.020365 0.007175 -532944.000000 0 0 1
31.994839 19.564653 3.482594 37.663959 0.548828 1.478199 -0.020170 -0.010506 -172548.000000 0 0 1
31.317479 18.856253 2.446394 36.637789 0.541962 1.503974 -0.025426 -0.008387 308934.000000 0 0 1
31.808939 17.583753 2.177494 36.410691 0.504985 1.510957 -0.024786 -0.016721 -576498.000000 0 0 1
31.374989 16.476953 3.190594 35.581734 0.483574 1.481006 -0.013956 -0.013870 1159520.000000 0 0 1
29.957829 16.161853 3.122694 34.182279 0.494736 1.479315 0.001509 -0.005571 1304690.000000 0 0 1
29.705769 14.982653 3.881694 33.495972 0.467136 1.454650 0.032103 -0.010166 -628984.000000 0 0 1
28.208159 14.745253 4.004694 32.080528 0.481666 1.445637 0.030551 -0.013333 -870697.000000 0 0 1
27.568899 14.459153 2.812594 31.257351 0.483034 1.480693 0.030060 -0.026953 -184927.000000 0 0 1
26.228339 14.919253 2.928494 30.316430 0.517179 1.474048 0.016179 -0.020931 569091.000000 0 0 1
25.355339 14.383953 1.693594 29.200335 0.516024 1.512765 0.034180 -0.029911 -20475.800000 0 0 1
25.626619 14.925353 0.396794 29.658847 0.527390 1.557417 0.041109 -0.025600 689537.000000 0 0 1
26.809249 14.460853 -0.277206 30.461926 0.494667 1.579897 0.044426 -0.017188 32594.200000 0 0 1
27.192089 15.261653 -1.558306 31.221084 0.511442 1.620729 0.048445 -0.014961 74685.700000 0 0 1
27.633329 16.643853 -1.457306 32.291523 0.542117 1.615941 0.034622 -0.018315 342842.000000 0 0 1
28.649239 16.887553 -0.516906 33.260119 0.532633 1.586338 0.010569 -0.017421 -500081.000000 0 0 1
29.343139 18.311653 -0.613906 34.593544 0.557918 1.588544 0.013954 -0.008837 439096.000000 0 0 1
30.185939 18.482953 -1.754506 35.438521 0.549417 1.620325 -0.023630 -0.005135 402523.000000 0 0 1
30.858549 19.717553 -1.868606 36.667746 0.568579 1.621779 -0.031907 0.002554 158396.000000 0 0 1
30.046799 20.827853 -2.578106 36.650460 0.606134 1.641198 -0.018306 0.003808 -79839.100000 0 0 1
30.863989 21.960553 -2.669706 37.973399 0.618420 1.641159 -0.048331 0.011547 -82082.600000 0 0 1
30.347419 22.931753 -3.536706 38.201301 0.647102 1.663510 -0.024923 0.007299 -411089.000000 0 0 1
31.243729 24.192653 -3.600706 39.678963 0.658885 1.661667 -0.030633 0.010618 -213904.000000 0 0 1
31.308659 24.948453 -2.397206 40.104913 0.672820 1.630605 -0.024696 0.010949 112758.000000 0 0 1
32.351599 24.551753 -1.534806 40.641975 0.649175 1.608569 -0.019295 0.019352 -485347.000000 0 0 1
32.199289 25.236153 -0.139906 40.910600 0.664753 1.574216 -0.013696 0.002957 -269747.000000 0 0 1
32.752509 26.526553 -0.246706 42.147903 0.680754 1.576650 0.006221 0.006731 -286855.000000 0 0 1
34.046539 26.476953 0.318894 43.131167 0.660976 1.563403 0.011476 0.003568 120026.000000 0 0 1
34.853575 27.772653 -0.139106 44.565809 0.672810 1.573918 0.006617 0.004394 -338970.000000 0 0 1
35.267042 27.923853 -1.462806 45.007173 0.669711 1.603304 0.010724 -0.005156 -450239.000000 0 0 1
34.274969 28.116753 -2.426706 44.398358 0.687014 1.625481 0.001693 -0.002562 -219341.000000 0 0 1
34.790392 27.663853 -3.841106 44.614059 0.671781 1.656999 -0.000066 0.003434 297352.000000 0 0 1
-34.857864 28.504353 -4.512306 45.254058 -0.685459 1.670673 -0.001108 0.009593 390212.000000 0 0 1
-34.154721 27.814553 -5.546806 44.395511 -0.683441 1.696064 0.001257 0.003887 185874.000000 0 0 1
-34.966501 27.719953 -6.892906 45.150462 -0.670309 1.724061 -0.003602 0.011088 -318573.000000 0 0 1
34.570794 26.783253 -6.735806 44.247639 0.659145 1.723620 -0.009114 0.012412 -1136050.000000 0 0 1
33.606419 27.121853 -7.682606 43.863524 0.679021 1.746852 -0.013205 0.009714 243590.000000 0 0 1
32.255849 26.388153 -7.317506 42.312177 0.685674 1.744611 -0.017481 0.013560 213218.000000 0 0 1
32.200879 24.993453 -7.640706 41.472276 0.660043 1.756091 -0.021977 0.011398 435319.000000 0 0 1
33.088449 24.198453 -6.786806 41.550828 0.631442 1.734869 -0.019420 0.007119 521459.000000 0 0 1
33.260019 22.672753 -7.051706 40.865745 0.598326 1.744222 -0.024389 0.008234 511090.000000 0 0 1
32.140459 21.957053 -6.503606 39.464138 0.599334 1.736349 -0.033963 0.010162 837401.000000 0 0 1
32.396189 20.570053 -6.624606 38.942593 0.565724 1.741740 -0.010870 -0.002160 619726.000000 0 0 1
31.218879 19.720153 -6.009506 37.411455 0.563384 1.732128 -0.013038 -0.000552 1735200.000000 0 0 1
29.985369 19.667153 -6.768806 36.492958 0.580506 1.757359 -0.015580 -0.003842 457442.000000 0 0 1
28.972019 18.975153 -6.107506 35.167257 0.579845 1.745352 0.015819 -0.009816 516284.000000 0 0 1
27.675509 18.900953 -7.011706 34.239507 0.599190 1.777039 0.018811 -0.014333 595392.000000 0 0 1
27.694239 17.741153 -7.865306 33.816895 0.569744 1.805531 0.019435 -0.013873 183800.000000 0 0 1
26.564499 17.771553 -8.724606 33.130340 0.589614 1.837281 0.028340 -0.009968 22328.000000 0 0 1
26.619899 16.713653 -9.856506 32.941098 0.560656 1.874667 0.023875 -0.005008 -299384.000000 0 0 1
25.761879 16.936153 -10.933406 32.711574 0.581568 1.911591 0.033691 -0.004189 -117886.000000 0 0 1
25.821929 15.836853 -11.790106 32.505146 0.550149 1.941976 0.034072 -0.007880 129687.000000 0 0 1
24.967639 16.085053 -13.087306 32.455963 0.572313 1.985843 0.030503 0.001824 59051.500000 0 0 1
23.562939 15.956453 -12.975806 31.276062 0.595249 1.998607 0.027915 0.003338 309963.000000 0 0 1
22.912139 15.985353 -14.252806 31.363037 0.609168 2.042546 0.028421 0.005324 -170679.000000 0 0 1
22.871139 14.545053 -14.898106 30.928969 0.566440 2.073376 0.025317 -0.000359 253370.000000 0 0 1
24.145239 14.075753 -15.381906 31.901762 0.527797 2.073920 0.028550 -0.003980 942764.000000 0 0 1
24.634139 14.740153 -16.559906 33.141264 0.539215 2.094021 0.039453 -0.008628 -319068.000000 0 0 1
26.091029 14.381753 -16.919606 34.261490 0.503775 2.087294 0.049870 -0.006927 -20969.600000 0 0 1
26.185629 12.971753 -17.160606 33.888640 0.459942 2.101781 0.040820 -0.011763 -465559.000000 0 0 1
27.456719 12.567053 -17.564906 34.933196 0.429242 2.097648 0.036336 -0.003218 -442904.000000 0 0 1
27.479829 11.112953 -18.069806 34.715366 0.384297 2.118248 0.015796 0.007246 -321283.000000 0 0 1
26.756209 10.866053 -19.268906 34.716805 0.385765 2.159197 0.019779 0.003155 84693.800000 0 0 1
27.008319 9.627353 -19.906606 34.905704 0.342417 2.177663 0.006848 0.014099 -445278.000000 0 0 1
28.328719 9.443553 -20.657706 36.310299 0.321771 2.175990 0.013013 0.014039 -1034110.000000 0 0 1
28.514469 10.226953 -21.816706 37.331410 0.344367 2.194944 0.025745 0.003500 223188.000000 0 0 1
29.153959 9.558153 -22.888606 38.277930 0.316808 2.211748 0.013870 0.004760 -804980.000000 0 0 1
30.576109 9.041053 -22.836406 39.219135 0.287498 2.192323 0.009306 0.004515 -1593690.000000 0 0 1
31.528079 10.039953 -22.935606 40.259936 0.308292 2.176923 0.012752 0.003649 -1077370.000000 0 0 1
32.772049 9.450753 -22.730106 40.987579 0.280761 2.158631 -0.003612 0.005852 -718343.000000 0 0 1
33.880889 10.487353 -22.480306 41.991230 0.300182 2.135727 0.014230 0.000582 -99843.100000 0 0 1
33.659429 11.255653 -21.314706 41.400043 0.322709 2.111626 0.011617 -0.005108 367522.000000 0 0 1
34.803077 12.081553 -21.167206 42.488454 0.334125 2.092303 -0.006075 0.000557 235603.000000 0 0 1
34.779109 12.846353 -19.836406 42.048760 0.353826 2.062068 -0.011360 -0.002126 -68349.300000 0 0 1
35.151642 12.013153 -18.726606 41.600956 0.329308 2.037728 -0.011328 -0.006369 224888.000000 0 0 1
35.019105 12.839353 -17.546306 41.219650 0.351420 2.010508 -0.009423 -0.005303 -121337.000000 0 0 1
-35.270608 11.939453 -16.318206 40.655260 -0.326402 1.983819 -0.024048 -0.010181 -505355.000000 0 0 1
34.377489 10.934353 -16.047606 39.482876 0.307949 1.989356 -0.026385 -0.008402 115511.000000 0 0 1
35.078241 9.960853 -15.289806 39.540862 0.276678 1.967829 -0.020578 -0.010485 426369.000000 0 0 1
34.237899 8.657353 -15.070306 38.396583 0.247667 1.974134 0.028170 -0.002174 -56648.500000 0 0 1
33.161699 8.821953 -14.182406 37.130389 0.260006 1.962715 0.045610 -0.007758 304089.000000 0 0 1
33.483149 8.287153 -12.902106 36.827469 0.242626 1.928730 0.040857 -0.000755 -543749.000000 0 0 1
32.605399 8.722353 -11.720406 35.728971 0.261392 1.905021 0.041795 -0.001801 -395199.000000 0 0 1
32.825539 10.108253 -11.449206 36.204656 0.298724 1.892555 0.034734 0.000094 727728.000000 0 0 1
31.779349 10.785353 -10.720106 35.230264 0.327185 1.879986 0.024950 0.005134 440442.000000 0 0 1
31.609419 10.442153 -9.197706 34.536817 0.319063 1.840365 0.023103 0.005513 176628.000000 0 0 1
32.498519 11.059453 -8.251706 35.306598 0.328013 1.806694 0.020245 0.012834 377636.000000 0 0 1
32.462349 12.483553 -8.175906 35.727981 0.367121 1.801680 0.026682 0.001849 -278878.000000 0 0 1
32.547109 12.982653 -6.761306 35.687236 0.379547 1.761409 0.027149 -0.000974 -804095.000000 0 0 1
33.771209 12.818453 -6.123306 36.637442 0.362769 1.738717 0.028744 0.000002 -344024.000000 0 0 1
33.724839 13.185653 -4.762906 36.522753 0.372704 1.701578 0.023562 -0.000802 603042.000000 0 0 1
35.172649 13.095253 -4.159606 37.761133 0.356413 1.681176 0.015282 -0.008420 496242.000000 0 0 1
-34.717990 14.298953 -4.259606 37.788135 -0.390689 1.683760 0.016724 -0.011026 -226416.000000 0 0 1
-33.407453 14.139253 -3.726906 36.467331 -0.400376 1.673174 0.011338 -0.012465 95383.500000 0 0 1
-32.719663 15.491353 -3.625906 36.382765 -0.442189 1.670622 0.022818 -0.016168 -91256.000000 0 0 1
-33.166133 16.220953 -2.510606 37.005606 -0.454875 1.638692 0.019417 -0.015194 -115634.000000 0 0 1
-32.343993 17.301353 -2.286706 36.751867 -0.491190 1.633057 0.030107 -0.009618 -423394.000000 0 0 1
-32.843193 18.168553 -1.111006 37.550047 -0.505290 1.600388 0.016625 -0.007912 -195141.000000 0 0 1
-34.058843 18.764253 -1.483306 38.914036 -0.503562 1.608923 0.002405 -0.002118 -226919.000000 0 0 1
-34.646107 19.510653 -0.453106 39.764603 -0.512876 1.582191 -0.017514 0.002656 -65494.700000 0 0 1
34.537635 20.090353 -0.813306 39.964134 0.526851 1.591149 -0.021211 0.007036 -106216.000000 0 0 1
34.493109 21.205053 -1.703306 40.525672 0.551203 1.612839 0.009950 0.004228 -55279.800000 0 0 1
34.785212 20.876853 -3.088006 40.686481 0.540541 1.646767 -0.013808 0.010909 -125316.000000 0 0 1
34.981081 22.159153 -3.877906 41.590170 0.564661 1.664173 0.018143 -0.019929 1080130.000000 0 0 1
-34.211819 22.615753 -3.842306 41.190827 -0.584105 1.664213 0.026019 -0.008612 1088060.000000 0 0 1
-33.961423 23.876953 -4.455106 41.753265 -0.612777 1.677701 0.025975 -0.014958 -311658.000000 0 0 1
-32.496183 24.156153 -4.780906 40.772279 -0.639234 1.688325 0.020979 -0.019720 -243448.000000 0 0 1
-31.934113 23.253753 -5.699306 39.912488 -0.629389 1.714081 0.007992 -0.012765 -575957.000000 0 0 1
-30.672133 23.677853 -6.138306 39.231356 -0.657412 1.727906 0.017083 -0.001471 -302919.000000 0 0 1
-29.907963 22.709953 -7.038106 38.206847 -0.649444 1.756065 0.018612 -0.018484 -180127.000000 0 0 1
-30.496243 22.468453 -8.308206 38.779873 -0.634974 1.786710 0.024267 -0.030248 310666.000000 0 0 1
-29.626583 22.969853 -9.342206 38.634511 -0.659505 1.815027 0.010649 -0.032639 366144.000000 0 0 1
-30.129953 22.593653 -10.738206 39.161158 -0.643420 1.848560 0.007437 -0.006960 488697.000000 0 0 1
-31.136873 23.530053 -11.152906 40.590092 -0.647137 1.849146 -0.001361 -0.001795 362849.000000 0 0 1
-31.525893 23.395253 -12.515106 41.204948 -0.638424 1.879400 -0.023081 0.006090 -334312.000000 0 0 1
-32.052773 24.689453 -13.116406 42.532217 -0.656351 1.884294 0.015638 0.007054 82459.400000 0 0 1
-31.201243 25.837553 -13.274306 42.629848 -0.691638 1.887447 0.019658 0.003088 -414626.000000 0 0 1
-30.427003 25.808953 -14.440506 42.431507 -0.703463 1.918059 0.012070 0.000759 891089.000000 0 0 1
-29.051263 26.636053 -14.342806 41.942476 -0.742054 1.919802 0.008636 0.010248 1399260.000000 0 0 1
-28.060333 26.076853 -13.483806 40.610314 -0.748777 1.909250 0.016009 -0.001486 -260.954000 0 0 1
-28.327573 25.795453 -12.117906 40.183336 -0.738648 1.877130 0.020613 -0.000627 -1060230.000000 0 0 1
-28.691003 27.022353 -11.229606 40.981524 -0.755456 1.848363 0.025934 0.006555 -185636.000000 0 0 1
-27.610233 27.931753 -11.040806 40.797147 -0.791187 1.844841 0.025524 0.007527 -199400.000000 0 0 1
-27.851293 29.089953 -10.228506 41.551682 -0.807148 1.819516 0.019842 0.007959 -695572.000000 0 0 1
-26.612953 29.883353 -9.896506 41.221413 -0.843221 1.813246 0.020580 -0.000332 -433615.000000 0 0 1
-26.900563 31.065553 -9.123106 42.094417 -0.857127 1.789260 0.022013 0.000532 -232811.000000 0 0 1
-25.704833 31.760353 -8.854406 41.807404 -0.890388 1.784203 0.032656 0.000491 -124463.000000 0 0 1
33.347589 -25.203547 34.462984 54.175434 -0.647192 0.881315 0.005555 -0.007642 -204119.000000 0 0 1
33.128879 -23.799247 -34.397021 53.358053 -0.622958 2.271356 0.005952 -0.011727 -310917.000000 0 0 1
32.211369 -23.545147 -33.402626 52.035388 -0.631202 2.267798 0.009043 -0.010351 -465999.000000 0 0 1
31.837139 -22.078047 -33.205096 51.025699 -0.606329 2.279371 0.005701 -0.007839 307955.000000 0 0 1
31.170579 -21.525947 -34.372505 51.151153 -0.604379 2.307674 0.001076 -0.009964 233739.000000 0 0 1
30.711359 -20.262347 -34.015646 50.108028 -0.583211 2.316987 0.006935 -0.010319 135133.000000 0 0 1
30.418579 -19.431847 33.715078 49.392237 -0.568472 0.819484 -0.004360 -0.009420 31788.200000 0 0 1
31.660239 -19.293747 33.044884 49.664713 -0.547303 0.842821 -0.006625 -0.008386 391374.000000 0 0 1
31.547929 -18.907247 31.709306 48.561671 -0.539918 0.859297 -0.013181 -0.008183 -858890.000000 0 0 1
32.896169 -18.840847 31.006526 48.974892 -0.520132 0.885231 -0.007752 -0.009616 -619210.000000 0 0 1
33.438379 -17.519147 31.059836 48.885162 -0.482603 0.882317 -0.012197 -0.015095 -186705.000000 0 0 1
34.628266 -17.586547 30.315356 49.268897 -0.469921 0.908025 -0.001795 -0.014793 -480321.000000 0 0 1
-34.927926 -16.449347 30.583866 49.253567 0.440140 0.900846 0.003000 -0.019136 -1121710.000000 0 0 1
-33.928363 -16.393447 29.593406 47.912927 0.450100 0.905046 0.017036 -0.016956 97325.400000 0 0 1
-32.969213 -15.385847 29.912886 47.100680 0.436632 0.882679 0.014182 -0.020576 227415.000000 0 0 1
-31.834473 -15.977347 30.785406 47.079194 0.465157 0.858060 0.019331 -0.024876 -718784.000000 0 0 1
-30.847013 -15.017347 31.151686 46.340980 0.453059 0.833583 0.012249 -0.022751 237436.000000 0 0 1
-29.827783 -15.571847 31.947856 46.398756 0.481138 0.811309 0.017125 -0.023938 -49860.100000 0 0 1
-28.822813 -14.514047 32.483076 45.788234 0.466492 0.782122 0.024823 -0.025807 -86811.100000 0 0 1
-29.199503 -13.641747 33.545273 46.518744 0.437058 0.765389 0.014858 -0.021202 241340.000000 0 0 1
-28.091703 -12.869847 33.954023 45.909176 0.429600 0.738334 0.009774 -0.019292 -80983.200000 0 0 1
-28.395463 -12.368447 -33.686516 45.760924 0.410796 2.398148 0.011142 -0.014517 -32421.900000 0 0 1
-28.500043 -13.421647 -32.749616 45.441505 0.440126 2.375605 0.014641 -0.013852 193364.000000 0 0 1
-28.605873 -12.940147 -31.422826 44.420011 0.424815 2.356613 0.019688 -0.000895 -509037.000000 0 0 1
-28.704143 -13.901547 -30.207326 43.927934 0.451013 2.329053 0.017187 -0.000146 807328.000000 0 0 1
-29.961913 -14.616747 -30.144746 44.945203 0.453876 2.305948 0.013847 0.000809 903282.000000 0 0 1
-29.955043 -15.418347 -28.966906 44.430977 0.475351 2.280953 0.021636 0.004454 -160617.000000 0 0 1
-31.237733 -16.219847 -29.017216 45.616644 0.478920 2.260243 0.017458 -0.001927 -367498.000000 0 0 1
-31.069013 -17.288547 -29.963256 46.497034 0.507787 2.271051 0.014142 -0.011611 -572026.000000 0 0 1
-32.129103 -18.148647 -29.856796 47.466630 0.514185 2.251070 0.010024 -0.006920 -833727.000000 0 0 1
-31.877183 -19.514947 -30.480936 48.229404 0.549336 2.254926 0.004494 -0.004756 844649.000000 0 0 1
-33.101003 -20.221847 -30.787826 49.522618 0.548405 2.241698 -0.001044 -0.009561 712364.000000 0 0 1
-32.769623 -21.502947 -31.170976 50.078485 0.580711 2.242656 -0.005536 -0.004530 -315203.000000 0 0 1
-33.968193 -22.424647 -31.446476 51.435239 0.583489 2.228600 0.000316 -0.004036 -272853.000000 0 0 1
-34.773912 -22.608147 -30.297236 51.364149 0.576478 2.201672 0.005856 -0.004567 127182.000000 0 0 1
34.669041 -23.460447 -30.473886 51.778303 -0.594915 2.200055 0.017795 -0.005900 201183.000000 0 0 1
34.968850 -24.984307 -30.612616 52.765219 -0.620374 2.189730 0.005868 -0.003631 -50579.300000 0 0 1
-35.162417 -25.435277 -31.906966 53.864676 0.626236 2.204774 0.007997 0.001274 -169911.000000 0 0 1
-34.561554 -26.695037 -31.857526 54.055786 0.657678 2.201045 -0.001801 0.009084 -93633.400000 0 0 1
-34.568611 -27.375707 -33.246986 55.224816 0.669797 2.216837 0.001093 0.007021 1410830.000000 0 0 1
34.678232 -27.903467 -33.593636 55.764824 -0.677563 2.217321 0.006067 0.002116 1102140.000000 0 0 1
34.671368 -29.209097 -34.110157 56.734274 -0.700098 2.215832 0.010417 0.003203 -251938.000000 0 0 1
35.257984 -30.369687 -33.332086 57.240469 -0.711050 2.192372 0.006149 -0.002796 -411908.000000 0 0 1
34.643992 -30.636917 -32.105706 56.299229 -0.724093 2.177630 0.019492 -0.009539 -67174.800000 0 0 1
-35.185204 -31.670507 -31.484886 56.853475 0.732875 2.157705 0.001589 -0.009390 -140066.000000 0 0 1
34.828526 -32.145697 -30.115126 56.154188 -0.745362 2.136836 -0.001103 -0.003911 -10013.300000 0 0 1
33.794889 -33.077047 -30.352596 56.191330 -0.774664 2.141430 0.017664 -0.000768 -16945.000000 0 0 1
33.399639 -33.632187 -29.117096 55.627917 -0.788867 2.121663 0.023254 -0.004469 301320.000000 0 0 1
32.293159 34.405304 -29.285706 55.535805 0.817055 2.126252 0.022348 -0.013877 -224321.000000 0 0 1
31.061549 -34.250807 -29.718776 54.964927 -0.834190 2.142049 0.027360 -0.008561 -1387230.000000 0 0 1
30.135189 33.890076 -29.551246 54.128948 0.843978 2.148309 0.012142 -0.009464 -268935.000000 0 0 1
28.806969 34.266857 -30.272156 54.041302 0.871746 2.165384 -0.006536 0.001268 73063.200000 0 0 1
28.796949 33.897642 -31.637426 54.582425 0.866577 2.189067 0.003660 0.004096 -143655.000000 0 0 1
27.587919 34.306280 -32.233776 54.562170 0.893521 2.202811 0.000306 0.012561 -74059.400000 0 0 1
27.421499 33.762517 -33.683756 55.013103 0.888668 2.229745 0.002753 0.003487 -46949.600000 0 0 1
27.100419 32.415005 -33.745236 54.073156 0.874460 2.244732 -0.010147 0.007948 37505.500000 0 0 1
27.064069 31.883975 33.967623 53.878113 0.866982 0.888660 0.003735 0.004383 -57728.100000 0 0 1
27.091969 30.322675 33.839089 52.901071 0.841609 0.876731 0.007226 -0.002970 457854.000000 0 0 1
28.333079 29.730325 34.283784 53.497976 0.809458 0.875201 0.000673 0.003087 574381.000000 0 0 1
28.133669 28.329265 34.373419 52.683797 0.788862 0.859987 -0.004489 0.001187 42059.300000 0 0 1
29.384449 27.518475 -34.288637 52.881215 0.752618 2.276289 0.000714 -0.009803 -87760.700000 0 0 1
29.870799 27.763535 -32.968226 52.440275 0.748852 2.250653 -0.000896 0.002640 276745.000000 0 0 1
31.054759 26.971905 -32.818406 52.620618 0.715152 2.244238 -0.004195 -0.000531 451184.000000 0 0 1
31.799509 27.096415 -31.468236 52.303674 0.705713 2.216355 0.008780 0.001584 -177421.000000 0 0 1
32.670119 28.233115 -31.436026 53.410384 0.712673 2.200092 0.002994 0.009369 94682.700000 0 0 1
32.122769 29.541725 -31.272146 53.689225 0.743566 2.192555 0.010258 0.001155 -213050.000000 0 0 1
31.164039 29.937885 -30.135756 52.684324 0.765334 2.179746 0.006066 0.005547 20310.200000 0 0 1
31.767129 30.345595 -28.929986 52.601803 0.762516 2.153138 0.000470 0.011541 317106.000000 0 0 1
30.771609 30.765475 -27.968936 51.726857 0.785298 2.142071 0.010356 0.010831 541193.000000 0 0 1
31.346489 31.351675 -26.639436 51.722233 0.785481 2.111860 0.017426 0.009605 -99499.200000 0 0 1
31.742749 32.695985 -26.723156 52.827612 0.800190 2.101170 0.013136 0.001586 -73493.100000 0 0 1
32.206429 33.009595 -25.432006 52.665684 0.797713 2.074754 -0.001380 -0.001194 -168532.000000 0 0 1
32.617219 34.485524 -25.279026 53.778838 0.813233 2.060150 0.002958 -0.007168 1083170.000000 0 0 1
31.396899 -33.886537 -25.456636 52.745644 -0.823516 2.074452 0.016628 -0.002214 1214200.000000 0 0 1
31.563169 -32.545467 -25.121826 51.831913 -0.800719 2.076792 0.018366 -0.011770 -942331.000000 0 0 1
31.954379 -31.521447 -26.258636 52.001922 -0.778578 2.100126 0.022825 -0.014839 786791.000000 0 0 1
33.296579 -31.503867 -26.780446 53.088116 -0.757740 2.099544 0.027946 -0.016239 624021.000000 0 0 1
34.218189 -31.042927 -25.825786 52.929377 -0.736782 2.080512 0.032783 -0.010026 177091.000000 0 0 1
-34.825485 -31.271217 -26.140946 53.610190 0.731676 2.080148 0.003628 -0.007518 588561.000000 0 0 1
-34.287245 -32.577587 -26.085926 54.012868 0.759835 2.074826 -0.000430 -0.013307 -35637.100000 0 0 1
-34.071580 -33.166067 -24.800606 53.627704 0.771932 2.051563 0.001915 -0.002293 -380280.000000 0 0 1
-32.970423 -32.522047 -23.952706 52.138896 0.778552 2.048118 -0.005520 -0.002329 -303653.000000 0 0 1
-33.330653 -31.209507 -23.546406 51.375081 0.752544 2.046904 -0.044194 0.006107 -436209.000000 0 0 1
-32.609943 -30.876627 -22.379306 50.175769 0.758103 2.033108 -0.010599 0.006479 -475335.000000 0 0 1
-32.271963 -29.357987 -22.413006 49.048077 0.738152 2.045371 -0.008590 0.006591 252361.000000 0 0 1
-33.356573 -28.428017 -22.538906 49.283013 0.705797 2.045794 -0.014785 0.008931 -96461.500000 0 0 1
-33.698623 -28.151167 -23.890306 49.988320 0.695945 2.069079 -0.004071 0.003844 -476100.000000 0 0 1
-34.859706 -27.227797 -24.210906 50.425390 0.663090 2.071603 -0.000995 -0.001840 -575469.000000 0 0 1
-34.808670 -25.923497 -23.650406 49.426844 0.640128 2.069734 -0.000984 -0.000871 -272983.000000 0 0 1
34.732111 -25.057877 -24.139206 49.162160 -0.624985 2.084047 0.005536 -0.000371 331019.000000 0 0 1
34.981346 -24.503247 -25.551746 49.769422 -0.611039 2.109941 0.011134 0.004279 -393003.000000 0 0 1
-34.447227 -23.690547 -25.709166 49.079677 0.602447 2.122132 0.002154 -0.001772 -239568.000000 0 0 1
-34.329363 -23.114747 -27.015196 49.422844 0.592597 2.149111 0.014197 -0.005810 101476.000000 0 0 1
-33.123953 -22.145347 -27.061786 48.165890 0.589312 2.167411 0.015454 -0.013459 -17662.400000 0 0 1
-33.175933 -21.110147 -26.106436 47.199861 0.566690 2.156882 0.013014 -0.005783 -122486.000000 0 0 1
-33.909543 -20.023347 -26.666446 47.559341 0.533400 2.166025 0.028916 -0.001613 655136.000000 0 0 1
-35.147199 -19.698247 -25.725176 47.803046 0.510831 2.139036 0.032455 -0.004189 70253.000000 0 0 1
-34.891251 -19.274147 -24.398606 46.735256 0.504689 2.120061 0.038807 -0.010665 -295960.000000 0 0 1
-34.232329 -20.174847 -23.499306 46.163776 0.532552 2.104868 0.023158 -0.009799 -96714.000000 0 0 1
-35.047209 -21.339747 -22.929906 47.005024 0.546928 2.080385 0.018449 -0.011668 153718.000000 0 0 1
34.576015 -21.070447 -21.905306 46.035931 -0.547299 2.066705 0.031667 -0.009806 -106028.000000 0 0 1
34.310249 -22.281647 -21.198506 46.076476 -0.575965 2.048873 0.019878 -0.006077 -491891.000000 0 0 1
33.267959 -21.896847 -20.148506 44.633970 -0.582116 2.039148 0.022248 -0.013717 -781430.000000 0 0 1
32.056869 -21.682047 -20.809906 43.940939 -0.594685 2.064157 0.016908 -0.006964 -1268780.000000 0 0 1
31.008769 -21.750047 -19.889706 42.780938 -0.611676 2.054340 0.013240 -0.003663 490954.000000 0 0 1
29.669359 -21.212947 -20.530706 41.854150 -0.620708 2.083494 0.006858 0.010131 342812.000000 0 0 1
29.164829 -21.950147 -21.635806 42.432349 -0.645178 2.105853 0.002154 0.011526 -319888.000000 0 0 1
27.909859 -21.525347 -22.087306 41.595070 -0.656960 2.130586 0.005359 0.018613 -439318.000000 0 0 1
27.897559 -20.355647 -23.029506 41.508846 -0.630354 2.158930 0.011966 0.017475 -489531.000000 0 0 1
28.085879 -19.173647 -22.322206 40.678326 -0.599006 2.151664 0.002080 0.018927 -86986.600000 0 0 1
28.291699 -17.976747 -23.079506 40.697018 -0.566048 2.173784 0.002056 0.023105 7829.600000 0 0 1
28.923259 -16.883247 -22.172606 40.164952 -0.528367 2.155604 0.009419 0.020591 -442988.000000 0 0 1
28.148039 -16.623447 -21.061406 38.887452 -0.533458 2.143134 -0.000627 0.017602 56541.300000 0 0 1
28.830119 -15.900147 -19.987306 38.516007 -0.504003 2.116401 -0.003926 0.008121 599425.000000 0 0 1
29.875639 -16.737947 -19.149506 39.235395 -0.510682 2.080670 0.012440 -0.001802 1117860.000000 0 0 1
31.063069 -17.028547 -19.936906 40.649303 -0.501455 2.083415 0.015467 -0.001252 559762.000000 0 0 1
31.895099 -17.761147 -19.060306 41.183139 -0.508096 2.051968 0.030887 -0.006754 -98680.600000 0 0 1
33.209709 -18.254647 -19.695706 42.708754 -0.502596 2.050102 0.035969 -0.011775 589023.000000 0 0 1
34.296469 -17.356847 -19.910606 43.289030 -0.468502 2.048730 0.033807 -0.016821 679616.000000 0 0 1
-35.187495 -17.981447 -20.573506 44.550661 0.472423 2.050820 0.034217 -0.016660 684309.000000 0 0 1
-34.143553 -16.997347 -21.243606 43.657563 0.461902 2.078986 0.037529 -0.012145 811891.000000 0 0 1
-33.362813 -16.267347 -20.284206 42.298379 0.453670 2.070939 0.037488 -0.018503 611004.000000 0 0 1
-32.454313 -15.340647 -20.936006 41.556398 0.441557 2.098786 0.034091 -0.008661 -294057.000000 0 0 1
-31.272553 -14.978447 -20.056206 40.057182 0.446678 2.095191 0.030038 -0.011077 -480708.000000 0 0 1
-30.164463 -15.854447 -20.048306 39.537234 0.483917 2.102583 0.019788 -0.011289 68653.100000 0 0 1
-30.319453 -17.181047 -19.499206 39.933403 0.515550 2.080929 0.032033 -0.015597 -781364.000000 0 0 1
-29.183523 -18.128547 -19.861506 39.683771 0.555856 2.094966 0.022491 -0.024225 -199113.000000 0 0 1
-29.470703 -19.426647 -19.318806 40.238454 0.582805 2.071574 0.020544 -0.023882 631298.000000 0 0 1
-28.462683 -20.397347 -19.647006 40.151973 0.621803 2.082102 0.012574 -0.022088 340564.000000 0 0 1
-28.900973 -21.846947 -19.290206 41.044700 0.647282 2.060065 0.007432 -0.004637 458020.000000 0 0 1
-29.901453 -22.350347 -20.205106 42.448571 0.641878 2.066886 0.025086 -0.009025 656516.000000 0 0 1
-30.320913 -23.693847 -19.891406 43.317712 0.663318 2.047888 0.018215 -0.002701 -233818.000000 0 0 1
-31.362183 -24.253347 -20.837906 44.788723 0.658266 2.054712 0.012992 -0.000422 -266903.000000 0 0 1
-30.923923 -24.340447 -22.192006 45.179990 0.666830 2.084253 0.015317 -0.000900 -306030.000000 0 0 1
-31.889653 -25.019677 -22.927306 46.568182 0.665262 2.085571 0.013369 0.000173 -337182.000000 0 0 1
-31.496833 -24.978147 -24.441606 47.046258 0.670481 2.117089 0.009000 0.008505 378664.000000 0 0 1
-30.290173 -25.696877 -24.673006 46.760895 0.703539 2.126618 0.022655 0.000724 -9031.180000 0 0 1
-30.029073 -25.989597 -26.030376 47.484575 0.713413 2.150990 0.015395 0.006966 4176.050000 0 0 1
-28.630533 -26.603907 -26.279076 47.096339 0.748723 2.162753 0.020616 -0.000739 -413325.000000 0 0 1
-27.701373 -25.596587 -26.362926 46.016901 0.745928 2.180832 0.024074 -0.004202 -1220070.000000 0 0 1
-26.401403 -26.088397 -26.584346 45.654857 0.779435 2.192338 0.022551 -0.002336 7027.750000 0 0 1
-25.413673 -24.921247 -26.735906 44.516648 0.775615 2.215025 0.024807 -0.006471 -373208.000000 0 0 1
-25.479073 -24.246147 -27.981216 44.944491 0.760608 2.242822 0.030429 -0.012995 592891.000000 0 0 1
-24.494663 -23.185047 -28.102976 43.901164 0.757938 2.265479 0.040371 -0.008583 564908.000000 0 0 1
-24.506063 -22.509047 -29.521576 44.482893 0.742948 2.296499 0.022774 -0.011949 -386169.000000 0 0 1
-23.817763 -23.297347 -30.433836 45.125055 0.774353 2.310993 0.028433 -0.006591 -54722.200000 0 0 1
-23.956663 -22.760547 -31.789586 45.853484 0.759800 2.336835 0.029303 -0.004328 -211443.000000 0 0 1
-23.304563 -23.602447 -32.951366 46.754365 0.791749 2.352904 0.027379 -0.011367 110818.000000 0 0 1
-23.817363 -24.914547 -33.067406 47.764577 0.807909 2.335468 0.033038 -0.010634 179885.000000 0 0 1
-23.332563 -25.553247 -34.269978 48.701215 0.830793 2.351357 0.033391 -0.006130 258789.000000 0 0 1
-19.651863 -14.203147 -12.077806 27.088715 0.625824 2.032932 -0.026272 0.024081 142876.000000 0 0 1
-19.760063 -13.848847 -10.674706 26.385602 0.611296 1.987300 -0.029984 0.028130 354213.000000 0 0 1
-18.812263 -14.589347 -9.891406 25.779647 0.659637 1.964586 -0.028653 0.015496 223016.000000 0 0 1
-18.967963 -14.267447 -8.399106 25.177145 0.644899 1.910917 -0.020456 0.007822 590247.000000 0 0 1
-20.200963 -14.729347 -7.802206 26.189826 0.630017 1.873299 -0.012930 0.004543 918213.000000 0 0 1
-20.507563 -14.079147 -6.590106 25.733480 0.601631 1.829772 -0.014013 -0.005021 -385733.000000 0 0 1
-21.655863 -14.708647 -5.803406 26.814179 0.596629 1.788953 -0.000238 -0.007279 -683527.000000 0 0 1
-21.580963 -16.035447 -5.296806 27.403096 0.639030 1.765313 -0.012381 -0.006863 135969.000000 0 0 1
-21.101963 -15.991647 -3.966406 26.772336 0.648492 1.719497 -0.001422 -0.009392 -306962.000000 0 0 1
-20.821363 -17.411347 -3.396406 27.353605 0.696442 1.695284 -0.014766 0.001287 -98947.600000 0 0 1
-21.945863 -18.234247 -3.238506 28.715790 0.693285 1.683815 -0.003639 0.000511 -105778.000000 0 0 1
-21.530163 -19.300047 -2.414706 29.015005 0.730833 1.654115 -0.012917 0.005160 -429623.000000 0 0 1
-22.615963 -20.171447 -1.812506 30.358759 0.728329 1.630535 -0.000860 -0.002720 -611660.000000 0 0 1
-23.022063 -21.056347 -2.764706 31.321378 0.740832 1.659180 -0.016407 0.005021 -533430.000000 0 0 1
-24.075963 -21.856047 -2.322406 32.599576 0.737105 1.642097 -0.005616 0.004681 -375031.000000 0 0 1
-24.322663 -22.962247 -3.400606 33.621732 0.756635 1.672113 -0.004500 -0.001103 -921197.000000 0 0 1
-23.257263 -23.819447 -3.445806 33.468491 0.797339 1.673936 -0.005007 0.000189 -1000280.000000 0 0 1
-23.382063 -24.624247 -4.601106 34.267252 0.811268 1.705474 -0.006392 -0.001775 -55728.400000 0 0 1
-22.078663 -24.617047 -5.431806 33.510757 0.839705 1.733606 0.004485 0.008315 154389.000000 0 0 1
-21.731963 -23.450047 -6.176006 32.562647 0.823406 1.761618 -0.009089 0.014440 52628.400000 0 0 1
-21.235663 -22.428047 -5.330706 31.343055 0.812700 1.741703 -0.018278 0.013921 -803091.000000 0 0 1
-21.070563 -21.055947 -5.984406 30.383131 0.785051 1.769057 -0.009266 0.018494 -238959.000000 0 0 1
-19.961063 -20.827547 -6.813506 29.642109 0.806638 1.802729 -0.024000 0.023842 -116386.000000 0 0 1
-20.186663 -19.606747 -7.481606 29.118728 0.770826 1.830645 -0.028343 0.021390 -43624.200000 0 0 1
-19.074463 -19.185847 -8.446006 28.341963 0.788309 1.873397 -0.017500 0.014903 -358446.000000 0 0 1
-18.996663 -19.906247 -9.625406 29.150992 0.808775 1.907303 -0.031451 0.020026 534604.000000 0 0 1
-17.755963 -19.728447 -10.338606 28.484603 0.837971 1.942233 0.019660 0.010643 678870.000000 0 0 1
-17.382563 -18.357847 -11.001606 27.571713 0.812679 1.981242 0.015344 0.008584 -16673.600000 0 0 1
-16.970563 -17.287247 -10.134406 26.259381 0.794642 1.967017 0.005730 0.007932 935050.000000 0 0 1
-15.734763 -17.495747 -9.405006 25.340443 0.838342 1.951039 0.027362 -0.002997 501274.000000 0 0 1
-15.407063 -16.325147 -8.455706 23.987225 0.814322 1.931047 0.008419 -0.001018 -288263.000000 0 1 0
-16.246063 -16.302347 -7.357706 24.162717 0.787127 1.880217 -0.003250 0.002412 -184851.000000 0 1 0
-15.958963 -15.182447 -6.538606 22.977131 0.760468 1.859354 -0.017092 -0.000777 -156709.000000 0 1 0
-16.695163 -15.483647 -5.231806 23.363296 0.747766 1.796644 -0.017035 -0.000719 -65918.600000 0 1 0
-16.932863 -14.346047 -4.438706 22.632565 0.702884 1.768196 -0.023902 0.004903 32117.000000 0 1 0
-17.356363 -14.763647 -3.164206 23.004800 0.704853 1.708779 -0.023756 0.005493 -64803.700000 0 1 0
-18.091663 -13.580547 -2.404506 22.749092 0.643918 1.676691 -0.024720 0.004556 298104.000000 0 1 0
-19.374363 -13.367147 -2.997006 23.728224 0.603942 1.697440 -0.013807 -0.004640 503754.000000 0 1 0
-20.105163 -12.476747 -2.168906 23.761123 0.555410 1.662203 -0.012745 -0.002264 -46004.800000 0 1 0
-21.612163 -12.440747 -2.539006 25.065999 0.522312 1.672263 -0.004853 -0.003320 193705.000000 0 0 1
-22.005563 -11.777147 -3.744806 25.238256 0.491401 1.719724 0.000665 -0.006310 990398.000000 0 0 1
-23.419863 -11.815747 -3.985306 26.532707 0.467256 1.721570 0.001790 -0.008744 742979.000000 0 0 1
-23.861063 -11.170747 -5.342706 26.882716 0.437851 1.770870 0.005202 -0.014244 -5210.660000 0 0 1
-23.476463 -11.920147 -6.466506 27.111804 0.469827 1.811630 0.010181 -0.021304 120397.000000 0 0 1
-24.134363 -11.372247 -7.558506 27.729524 0.440348 1.846870 0.012384 -0.021889 -471503.000000 0 0 1
-23.413663 -11.629847 -8.875706 27.608533 0.461014 1.898093 0.022562 -0.020901 229137.000000 0 0 1
-22.328863 -10.706747 -8.991206 26.344911 0.447116 1.919083 0.016823 -0.015594 476238.000000 0 0 1
-21.348963 -11.146647 -9.940206 26.054436 0.481184 1.962233 -0.002932 -0.010445 295398.000000 0 0 1
-20.131663 -10.180547 -9.875706 24.626347 0.468196 1.983429 0.001673 -0.011675 -285977.000000 0 1 0
-20.371263 -8.887447 -10.438706 24.554870 0.411381 2.009888 0.006715 -0.014698 76484.000000 0 1 0
-19.312763 -8.012247 -10.154206 23.244071 0.393258 2.022892 0.006959 -0.009018 -219574.000000 0 1 0
-19.272963 -6.783247 -11.121506 23.262576 0.338417 2.069270 0.010628 -0.011541 -33842.400000 0 1 0
-18.726663 -7.127947 -12.391406 23.559340 0.363698 2.124647 0.018441 -0.004021 375048.000000 0 1 0
-18.468563 -5.977547 -13.099806 23.418450 0.313020 2.164434 0.016100 -0.004772 -309641.000000 0 1 0
-17.888063 -6.189547 -14.521206 23.857048 0.333121 2.225187 0.024837 0.000040 -360100.000000 0 1 0
-18.761263 -6.736247 -15.470806 25.233071 0.344715 2.230796 0.034020 -0.010520 -82445.100000 0 0 1
-18.190963 -6.690247 -16.738406 25.609467 0.352425 2.283131 0.040330 -0.013353 -591268.000000 0 0 1
-18.793363 -7.546547 -17.828306 26.981278 0.381845 2.292635 0.037763 -0.013052 -119115.000000 0 0 1
-20.056963 -7.037647 -18.234006 28.005164 0.337461 2.279822 0.041892 -0.024212 506820.000000 0 0 1
-20.673863 -7.818647 -19.225706 29.294498 0.361564 2.286688 0.042611 -0.024354 440315.000000 0 0 1
-22.184863 -7.496647 -19.485506 30.463959 0.325870 2.264806 0.040013 -0.020767 142067.000000 0 0 1
-22.398063 -6.218847 -20.137106 30.754680 0.270829 2.284669 0.042854 -0.024233 -688540.000000 0 0 1
-23.691163 -6.137847 -20.599806 31.989004 0.253504 2.270466 0.050033 -0.026472 -22075.100000 0 0 1
-24.862563 -5.724547 -19.623206 32.186763 0.226304 2.226437 0.055768 -0.015632 342733.000000 0 0 1
-24.826463 -4.363047 -19.299106 31.746574 0.173965 2.224224 0.054898 -0.014505 221901.000000 0 0 1
-25.865023 -3.946647 -18.421506 31.998865 0.151418 2.184247 0.077363 -0.010403 -397382.000000 0 0 1
-25.858243 -2.397447 -18.025306 31.611836 0.092451 2.177555 0.046067 -0.003406 -81946.500000 0 0 1
-26.251253 -1.513847 -19.032506 32.460073 0.057604 2.197325 0.056931 -0.008246 -107088.000000 0 0 1
-27.571573 -1.638747 -19.504806 33.812935 0.059366 2.185657 0.054603 -0.004816 -316871.000000 0 0 1
-27.825933 -0.588147 -20.622706 34.639926 0.021133 2.208491 0.047310 0.000667 -390702.000000 0 0 1
-27.041323 -0.749947 -21.785106 34.733074 0.027726 2.248769 0.046340 0.003288 -106281.000000 0 0 1
-27.621743 -1.441547 -22.863306 35.885506 0.052142 2.261550 0.042019 0.007912 -376313.000000 0 0 1
-26.837083 -1.301747 -24.173406 36.142456 0.048468 2.303439 0.049383 0.007917 -665030.000000 0 0 1
-26.951763 -0.106647 -24.906406 36.697929 0.003957 2.316770 0.029772 0.012597 38303.700000 0 0 1
-26.502573 1.190653 -24.474506 36.094397 -0.044896 2.315929 0.037974 0.013833 -620649.000000 0 0 1
-25.045363 1.249653 -24.049206 34.744729 -0.049854 2.335286 0.045126 0.007904 -289105.000000 0 0 1
-24.054563 1.251653 -25.088736 34.779783 -0.051987 2.376560 0.044583 0.010687 1039060.000000 0 0 1
-22.746163 0.951053 -24.567506 33.494101 -0.041787 2.394235 0.045305 0.010662 595717.000000 0 0 1
-21.795663 0.431353 -25.642536 33.656748 -0.019788 2.437013 0.034831 0.009895 -276816.000000 0 0 1
-21.608663 1.399653 -26.651466 34.339394 -0.064682 2.459284 0.018242 0.012476 311726.000000 0 0 1
-20.714063 0.847353 -27.618986 34.534024 -0.040884 2.497694 0.010207 0.012163 205310.000000 0 0 1
-20.587663 1.638453 -28.914416 35.532800 -0.079417 2.521352 0.012045 0.013750 -235669.000000 0 0 1
-19.608963 2.649653 -28.795366 34.938592 -0.134311 2.539533 0.017016 0.020962 225372.000000 0 0 1
-19.549263 3.580653 -29.844606 35.856593 -0.181153 2.554099 0.006344 0.014993 -356953.000000 0 0 1
-19.183263 3.008053 -31.260756 36.800555 -0.155540 2.585765 -0.003379 0.019300 -500962.000000 0 0 1
-17.821663 2.750953 -31.456906 36.259018 -0.153151 2.621073 -0.014662 0.024218 -333403.000000 0 0 1
-17.570163 2.097253 -32.689726 37.171593 -0.118802 2.645455 -0.021907 0.025117 2026670.000000 0 0 1
-15.994863 1.907453 -32.966306 36.691298 -0.118694 2.687086 -0.028306 0.016064 1861510.000000 0 0 1
-15.227363 3.068953 -32.850236 36.337709 -0.198878 2.699892 -0.030087 0.019278 992419.000000 0 0 1
-13.825763 2.808453 -33.125376 36.004579 -0.200405 2.738959 -0.023778 0.013386 1220350.000000 0 0 1
-13.097963 4.078253 -33.609336 36.301188 -0.301851 2.754066 -0.010265 0.013643 -349622.000000 0 0 1
-12.919263 5.130853 -32.691876 35.524524 -0.378045 2.739546 0.001828 0.000794 184791.000000 0 0 1
-12.364963 6.315753 -33.195546 35.982292 -0.472233 2.745440 0.014127 0.005487 -204242.000000 0 0 1
-12.084763 7.341553 -32.076636 35.054964 -0.545920 2.726399 0.017337 0.003120 -921767.000000 0 0 1
-11.008563 7.076053 -31.261236 33.889879 -0.571281 2.745138 0.034996 -0.008266 -488194.000000 0 0 1
-11.322163 6.262053 -30.158716 32.816960 -0.505204 2.736327 0.031218 -0.014782 -155008.000000 0 0 1
-10.112363 5.446153 -29.633436 31.781457 -0.494021 2.771829 0.047320 -0.016303 -106929.000000 0 0 1
-9.415363 4.605453 -30.497136 32.248017 -0.454924 2.810556 0.042604 -0.017950 836690.000000 0 0 1
-10.251063 3.557253 -31.118906 32.956406 -0.334011 2.806089 0.043203 -0.013636 375165.000000 0 0 1
-9.492863 2.706353 -32.162256 33.642971 -0.277726 2.843803 0.036953 -0.005825 213195.000000 0 0 1
-10.289863 1.538353 -32.431706 34.059703 -0.148403 2.831161 0.027540 -0.001489 660953.000000 0 0 1
-9.900563 0.786753 -33.572546 35.010798 -0.079299 2.853966 0.014620 0.002364 -453071.000000 0 0 1
-10.202263 1.407253 34.078375 35.600593 -0.137070 0.293484 0.018775 0.002061 1475300.000000 0 0 1
-11.608563 1.250753 33.700138 35.665424 -0.107330 0.333518 0.002003 0.006522 1411110.000000 0 0 1
-11.894163 1.714353 32.403556 34.560101 -0.143148 0.355133 -0.011590 0.016396 86723.300000 0 0 1
-13.287763 1.356553 31.842056 34.530008 -0.101738 0.397178 -0.013508 0.014417 355995.000000 0 0 1
-14.299163 2.287653 32.155586 35.265864 -0.158641 0.423138 -0.025161 0.024091 860471.000000 0 0 1
-15.617463 1.888853 31.749716 35.433281 -0.120360 0.460023 -0.026418 0.022950 674413.000000 0 0 1
-16.609063 3.037553 31.588456 35.817849 -0.180886 0.490878 -0.023146 0.022319 -716115.000000 0 0 1
-17.015463 3.775253 32.727526 37.079233 -0.218335 0.489352 -0.022503 0.017810 409917.000000 0 0 1
-16.233163 4.959853 32.976427 37.088549 -0.296530 0.475362 -0.020422 0.011173 -223772.000000 0 0 1
-16.530363 5.630553 34.347883 38.532235 -0.328293 0.470357 -0.026358 0.015913 917182.000000 0 0 1
-17.794563 6.354253 34.287743 39.149359 -0.342977 0.503667 -0.025525 0.017457 228013.000000 0 0 1
-18.650763 5.728153 -33.882236 39.098192 -0.297982 2.619131 -0.025049 0.022583 -845004.000000 0 0 1
-20.117563 6.204553 -33.965776 39.961066 -0.299159 2.586728 -0.018654 0.022643 -32860.100000 0 0 1
-20.399063 7.533853 -33.463986 39.908885 -0.353785 2.565339 -0.009464 0.008101 128082.000000 0 0 1
-19.955863 8.565353 -34.298579 40.595496 -0.405435 2.577149 -0.011945 0.007559 -384615.000000 0 0 1
-19.943163 9.983453 -33.683386 40.397644 -0.464124 2.556744 -0.010875 0.007229 -901129.000000 0 0 1
-18.868763 10.155953 -32.787806 39.169042 -0.493771 2.562729 -0.005461 -0.005311 144709.000000 0 0 1
-18.509863 11.506353 -32.731086 39.323469 -0.556175 2.554140 0.008464 -0.006306 -94267.400000 0 0 1
-17.734863 12.143253 -33.923676 40.159679 -0.600391 2.576838 -0.010597 -0.014186 -1176230.000000 0 0 1
-18.428563 12.223653 33.917026 40.489434 -0.585668 0.577782 -0.004964 -0.007379 -299652.000000 0 0 1
-17.643363 12.527153 32.795076 39.290391 -0.617420 0.583237 -0.002937 -0.002190 -324532.000000 0 0 1
-18.174063 11.950753 31.458006 38.245565 -0.581680 0.604956 0.000928 -0.001373 -124220.000000 0 0 1
-18.161163 10.541653 31.380246 37.758100 -0.525921 0.589738 0.001191 0.000049 520693.000000 0 0 1
-16.942463 10.072053 30.797546 36.564767 -0.536355 0.569309 -0.007305 0.004514 477180.000000 0 0 1
-16.924363 8.491953 30.830016 36.180620 -0.465054 0.550785 -0.016483 0.010880 -725150.000000 0 0 1
-17.809763 7.963553 29.923656 35.721577 -0.420477 0.577754 -0.006568 0.010026 -437852.000000 0 0 1
-18.172163 6.674253 30.332286 35.983618 -0.351984 0.568058 -0.016851 0.006269 -285492.000000 0 0 1
-18.894663 5.875953 29.216976 35.286921 -0.301504 0.595295 -0.011521 0.004289 -164410.000000 0 0 1
-20.265763 6.192853 29.186306 36.067895 -0.296570 0.627999 0.004693 -0.000158 -595325.000000 0 0 1
-20.955063 5.299753 28.403436 35.692538 -0.247716 0.650501 0.003549 -0.002326 -75232.400000 0 0 1
-22.460163 5.622853 28.233186 36.512850 -0.245306 0.686862 0.015093 0.008374 83635.400000 0 0 1
-22.698863 6.375853 27.042896 35.877683 -0.273833 0.717042 0.014555 0.005175 148735.000000 0 0 1
-24.082363 6.633553 26.950836 36.746589 -0.268787 0.747451 0.012099 0.008063 -303192.000000 0 0 1
-24.465363 7.234253 25.584676 36.131206 -0.287501 0.783986 0.009769 0.001149 -203300.000000 0 0 1
-24.267863 6.420653 24.420426 35.021582 -0.258648 0.799178 0.008413 0.002403 681161.000000 0 0 1
-25.200723 5.329353 24.336756 35.436650 -0.208406 0.813763 0.006506 0.010461 38927.200000 0 0 1
-25.461463 4.661753 22.965696 34.604064 -0.181085 0.845081 0.004432 0.013813 -121075.000000 0 0 1
-26.063003 5.472353 21.990596 34.537126 -0.206960 0.880555 0.013874 0.006472 46353.500000 0 0 1
-26.382343 4.700253 20.854796 33.956486 -0.176309 0.909472 0.012917 0.006900 -635258.000000 0 0 1
-27.189613 5.326553 19.735296 34.016601 -0.193454 0.951863 0.021300 0.000666 230641.000000 0 0 1
-28.564773 5.419953 20.120996 35.357837 -0.187513 0.965425 0.029784 -0.001596 234695.000000 0 0 1
-29.313323 5.738853 18.962396 35.380472 -0.193331 1.005156 0.027101 0.000507 619706.000000 0 0 1
-30.836343 5.921653 19.297596 36.855709 -0.189725 1.019727 0.028882 0.001865 628450.000000 0 0 1
-31.205993 7.083853 19.981996 37.726319 -0.223220 1.012601 0.041151 -0.010926 -216011.000000 0 0 1
-32.431883 6.876153 20.633796 39.049482 -0.208924 1.014080 0.043502 -0.009597 -177214.000000 0 0 1
-32.894043 8.028253 21.535496 40.127902 -0.239384 1.004309 0.049461 -0.009638 87713.800000 0 0 1
-32.307043 7.992053 22.810596 40.347754 -0.242509 0.969939 0.042866 -0.009081 337323.000000 0 0 1
-32.846873 9.127353 23.499196 41.405771 -0.271038 0.967288 0.044407 -0.006751 200450.000000 0 0 1
-0.352263 33.041253 11.876294 35.112603 -1.560135 1.225756 0.029194 -0.002706 -80180.700000 0 0 1
-0.819763 33.315753 13.182394 35.838345 -1.546195 1.194123 0.015681 0.001114 29182.900000 0 0 1
-0.616563 -34.520218 13.588194 37.103431 1.552937 1.195848 0.015544 0.002582 -297867.000000 0 0 1
-0.524563 -34.395818 15.158094 37.591425 1.555547 1.155750 0.002506 0.012804 -545565.000000 0 0 1
-1.675563 34.476853 15.890094 37.999421 -1.522235 1.139370 -0.001516 0.018420 -888169.000000 0 0 1
-1.598963 -34.344018 17.277694 38.478396 1.524273 1.105124 -0.004064 0.008283 693423.000000 0 0 1
-2.958163 -34.295618 18.080594 38.882490 1.484754 1.087155 -0.006831 0.009465 316904.000000 0 0 1
-3.523063 33.572653 18.419594 38.455383 -1.466241 1.071297 -0.000434 0.005799 596984.000000 0 0 1
-4.462163 33.752553 19.505094 39.237666 -1.439356 1.050541 -0.003820 0.001154 134646.000000 0 0 1
-5.476463 32.599653 19.713894 38.488526 -1.404359 1.033050 -0.010280 0.004731 246926.000000 0 0 1
-6.506663 32.790653 18.726794 38.317834 -1.374910 1.060171 -0.010141 0.009256 -239382.000000 0 0 1
-7.508463 31.841153 18.862894 37.763009 -1.339217 1.047767 -0.010457 0.000311 -791224.000000 0 0 1
-8.478863 32.017853 17.692094 37.550556 -1.311922 1.080198 -0.019057 -0.007847 -830269.000000 0 0 1
-9.160263 33.250753 17.765894 38.796263 -1.301974 1.095133 -0.006078 0.000107 -116961.000000 0 0 1
-9.813563 33.610753 16.557594 38.731675 -1.286716 1.129076 -0.009559 -0.002713 -269695.000000 0 0 1
-10.765663 -34.345418 16.781794 39.713169 1.267044 1.134512 0.014066 -0.003541 261530.000000 0 0 1
-11.921163 34.457153 17.564694 40.471323 -1.237716 1.121865 0.012077 -0.001584 737935.000000 0 0 1
-12.926163 -33.674818 17.352094 40.027168 1.204287 1.122414 0.008850 -0.003771 102510.000000 0 0 1
-14.113763 -33.819118 18.290894 40.957146 1.175439 1.107850 0.032653 -0.001062 -198330.000000 0 0 1
-13.762863 -33.498218 19.632294 41.194344 1.180969 1.074039 0.019911 -0.001446 140192.000000 0 0 1
-14.846463 -33.863818 20.455094 42.256200 1.157617 1.065493 0.025671 -0.002086 30060.600000 0 0 1
-14.751163 -33.374418 21.896794 42.554884 1.154623 1.030309 0.022858 -0.001353 -40264.900000 0 0 1
-14.901963 -31.982618 22.050994 41.607724 1.134767 1.012227 0.025997 0.002257 -9109.190000 0 0 1
-14.474963 -31.564618 23.318094 41.828019 1.140829 0.979455 0.014923 0.003872 159333.000000 0 0 1
-14.348863 -30.049018 23.464194 40.735755 1.125298 0.956957 0.025540 0.002803 30593.600000 0 0 1
-14.302863 -29.617618 24.812594 41.200000 1.120908 0.924483 0.018654 -0.000782 -160016.000000 0 0 1
-14.044363 -28.234018 24.967294 40.221507 1.109209 0.901104 0.023631 0.007755 -315861.000000 0 0 1
-15.139063 -27.221518 24.623894 39.705647 1.063249 0.901848 0.040596 0.004035 384959.000000 0 0 1
-16.279163 -27.188518 25.500694 40.675693 1.031295 0.893194 0.044727 0.003283 449276.000000 0 0 1
-17.331763 -26.480518 24.912594 40.277105 0.991257 0.903926 0.049216 0.004223 228998.000000 0 0 1
-18.594363 -26.241818 25.825894 41.247547 0.954337 0.894230 0.045772 0.004531 1002820.000000 0 0 1
-19.442563 -27.293718 26.276194 42.584019 0.951833 0.905816 0.056782 0.002563 430898.000000 0 0 1
-20.199463 -28.016118 25.326694 42.829459 0.946119 0.938079 0.052617 0.001308 623253.000000 0 0 1
-21.616663 -27.396818 24.982794 42.918594 0.902786 0.949491 0.043067 0.006474 627982.000000 0 0 1
-21.696563 -26.103618 24.326994 41.760536 0.877336 0.948952 0.053319 0.002853 -126830.000000 0 0 1
-23.008563 -25.896418 23.844894 42.054695 0.844380 0.967940 0.037462 0.007281 -137240.000000 0 0 1
-23.290063 -24.476318 23.410294 41.104246 0.810228 0.964857 0.032538 0.020400 -132609.000000 0 0 1
-23.495763 -23.619618 24.542994 41.379896 0.788027 0.935875 0.019967 0.020715 -117708.000000 0 0 1
-24.136263 -22.448218 24.198694 40.890811 0.749178 0.937521 0.008761 0.023301 -115748.000000 0 0 1
-24.605863 -21.628118 25.435894 41.475398 0.721081 0.910594 0.008709 0.023690 49741.700000 0 0 1
-25.652073 -22.286518 26.114794 42.856740 0.715308 0.915555 -0.000613 0.023530 36553.000000 0 0 1
-26.077383 -21.557418 27.244194 43.439593 0.690794 0.892876 -0.000291 0.017582 -203014.000000 0 0 1
-27.234943 -22.205318 28.116594 45.004012 0.684016 0.895975 0.012777 0.013195 1786440.000000 0 0 1
-28.595193 -22.028118 27.646594 45.467100 0.656394 0.917185 0.022013 0.010518 1303960.000000 0 0 1
-28.937453 -22.701618 26.473594 45.316562 0.665222 0.946912 0.003201 0.017249 -291566.000000 0 0 1
-30.437613 -22.533718 26.045894 45.963086 0.637280 0.968338 0.019598 0.013575 728841.000000 0 0 1
-30.939243 -23.223518 24.912394 46.012997 0.643896 0.998670 0.014154 0.004558 103555.000000 0 0 1
-30.950023 -24.682518 25.025994 46.834079 0.673212 1.007053 0.008295 0.005111 -574650.000000 0 0 1
-31.311103 -25.391918 23.740694 46.784134 0.681386 1.038571 -0.001431 0.009917 1383370.000000 0 0 1
-32.723023 -25.731018 23.641794 47.872914 0.666348 1.054290 -0.001856 0.003066 1200550.000000 0 0 1
-33.080913 -25.992018 22.269394 47.601026 0.665967 1.083958 -0.001020 0.013457 180597.000000 0 0 1
-34.385512 -26.822018 22.163294 48.918255 0.662450 1.100593 0.009968 0.006146 -439834.000000 0 0 1
-34.439372 -28.084918 22.739194 49.918973 0.684114 1.097838 0.010795 0.006525 295045.000000 0 0 1
-33.349453 -28.978218 22.469194 49.565994 0.715380 1.100311 0.000473 -0.000697 -70778.600000 0 0 1
-33.562323 -30.023418 21.448494 49.878583 0.729800 1.126288 0.011818 0.001634 -224939.000000 0 0 1
-33.642443 -29.580618 20.102094 49.101131 0.721240 1.148998 0.006512 0.011872 200697.000000 0 0 1
-33.787603 -30.738518 19.262394 49.573162 0.738180 1.171723 0.012490 0.016996 -145614.000000 0 0 1
-34.284342 -30.560718 17.790694 49.253247 0.728038 1.201233 0.006243 0.020392 -535839.000000 0 0 1
-33.292493 -30.269818 16.853594 48.048887 0.737879 1.212415 0.009721 0.020827 -177905.000000 0 0 1
-33.765063 -30.032718 15.536494 47.785210 0.726962 1.239645 0.018116 0.024637 327029.000000 0 0 1
-34.374619 -31.226918 14.688594 48.708209 0.737453 1.264465 0.008741 0.004255 149783.000000 0 0 1
-33.349973 -32.045218 14.169294 48.372364 0.765449 1.273516 0.011236 0.000336 -20070.600000 0 0 1
-33.633143 -32.719718 12.923094 48.670059 0.771633 1.302048 0.022479 -0.003551 -80578.200000 0 0 1
-33.679013 -31.780018 11.731494 47.768959 0.756396 1.322670 -0.001247 -0.004001 -371526.000000 0 0 1
-34.881183 -31.075318 11.684194 48.154882 0.727759 1.325712 -0.000687 -0.003253 -325661.000000 0 0 1
-34.821700 -30.005318 10.735994 47.203087 0.711239 1.341346 0.005447 0.002911 -186826.000000 0 0 1
34.399779 -29.480018 10.256394 46.450079 -0.708534 1.348157 0.032786 0.001087 -257466.000000 0 0 1
34.761254 -28.351118 9.560794 45.864359 -0.684178 1.360798 0.035321 -0.024612 1072330.000000 0 0 1
33.597419 -27.575718 9.168094 44.421399 -0.687277 1.362913 0.047587 -0.026062 653299.000000 0 0 1
33.746949 -26.501118 8.107194 43.667979 -0.665706 1.384058 0.042025 -0.023263 -83948.800000 0 0 1
34.247559 -25.311118 8.633994 43.452201 -0.636465 1.370764 0.045780 -0.025815 -106416.000000 0 0 1
34.389239 -24.403318 7.582394 42.844303 -0.617154 1.392884 0.049020 -0.026603 -11016.900000 0 0 1
34.864532 -22.922518 7.893194 42.465043 -0.581611 1.383834 0.060116 -0.028161 -446614.000000 0 0 1
34.056939 -22.139818 8.775394 41.557841 -0.576433 1.358034 0.047852 -0.025859 -124269.000000 0 0 1
34.156399 -20.756318 8.364394 40.834390 -0.546051 1.364499 0.056109 -0.022770 419857.000000 0 0 1
33.215249 -19.732418 9.091494 39.689751 -0.536053 1.339680 0.066966 -0.013318 377430.000000 0 0 1
33.721599 -19.434918 10.348594 40.273510 -0.522837 1.310923 0.052858 -0.022730 -100769.000000 0 0 1
32.943199 -18.424818 10.945894 39.300647 -0.509948 1.288547 0.040338 -0.010250 5552.930000 0 0 1
33.356619 -18.285418 12.434694 40.020521 -0.501445 1.254859 0.029482 -0.016274 118103.000000 0 0 1
34.636268 -17.800618 12.780094 40.986142 -0.474729 1.253694 0.001568 -0.007394 97655.100000 0 0 1
34.890726 -18.130218 14.135194 41.783624 -0.479227 1.225692 0.011034 0.000425 120330.000000 0 0 1
-34.319525 -17.566218 14.629694 41.236267 0.473077 1.208120 0.010330 -0.000795 188345.000000 0 0 1
-33.172043 -18.152918 14.038094 40.335852 0.500718 1.215327 0.004096 -0.003274 216802.000000 0 0 1
-32.048203 -17.692618 14.791394 39.482925 0.504425 1.186801 -0.000586 -0.001315 233513.000000 0 0 1
-30.743873 -17.638918 13.964394 38.096213 0.520885 1.195492 0.023738 -0.004816 -77640.700000 0 0 1
-30.184373 -18.897518 13.575594 38.111800 0.559368 1.206594 0.010461 -0.002697 180177.000000 0 0 1
-29.058363 -18.663918 12.752694 36.815234 0.570937 1.217069 -0.029793 0.007076 -376624.000000 0 0 1
-28.290823 -19.911418 12.272894 36.707753 0.613280 1.229891 -0.039496 0.001405 -515632.000000 0 0 1
-28.887933 -20.878518 11.390594 37.418856 0.625826 1.261480 -0.028582 0.004697 -345483.000000 0 0 1
-27.924973 -21.822218 10.986294 37.104069 0.663333 1.270196 -0.028583 0.005480 -393511.000000 0 0 1
-28.572433 -22.909818 10.124994 37.996831 0.675847 1.301068 -0.014708 0.003428 422537.000000 0 0 1
-29.215983 -24.074418 10.651894 39.327015 0.689214 1.296516 -0.016194 0.005916 -742766.000000 0 0 1
-30.533013 -23.833318 11.018894 40.270435 0.662784 1.293639 -0.006907 -0.001320 -950982.000000 0 0 1
-31.295733 -25.178418 11.033194 41.654616 0.677498 1.302724 -0.005350 -0.003345 -187417.000000 0 0 1
-31.356913 -25.762618 9.738594 41.734982 0.687769 1.335281 -0.002525 -0.002765 218500.000000 0 0 1
-32.270953 -26.859918 9.694494 43.091215 0.694143 1.343878 0.001750 -0.001475 474662.000000 0 0 1
-32.456823 -27.380918 8.267694 43.261008 0.700773 1.378502 0.000155 -0.009426 297187.000000 0 0 1
-31.309193 -28.097418 7.856994 42.795593 0.731386 1.386155 -0.017890 -0.006865 42684.900000 0 0 1
-31.511203 -28.616818 6.578994 43.071584 0.737298 1.417450 -0.009471 -0.006196 732689.000000 0 0 1
-30.153623 -29.037418 5.877094 42.272365 0.766543 1.431315 0.000230 -0.001890 825472.000000 0 0 1
-29.686653 -27.934418 5.184594 41.091472 0.754998 1.444287 -0.000190 0.000467 -340743.000000 0 0 1
-28.471563 -28.219818 4.518994 40.341162 0.780958 1.458541 -0.001826 -0.005035 -28085.500000 0 0 1
-27.967043 -26.985618 3.758294 39.044895 0.767541 1.474391 -0.006442 -0.000294 -139046.000000 0 0 1
-28.673293 -26.577618 2.610594 39.183449 0.747486 1.504122 -0.000593 -0.003344 -132818.000000 0 0 1
-28.001633 -25.432418 2.137694 37.887585 0.737353 1.514344 0.001552 -0.007928 -164644.000000 0 0 1
-28.399863 -24.977218 0.704594 37.827372 0.721364 1.552169 0.010882 -0.005591 -9017.040000 0 0 1
-27.700313 -25.644218 -0.377606 37.750177 0.746874 1.580799 0.013360 -0.009591 91262.900000 0 0 1
-27.761903 -25.014318 -1.623106 37.404195 0.733384 1.614204 0.015654 -0.011088 186402.000000 0 0 1
-29.155493 -24.906218 -2.307806 38.414690 0.706959 1.630909 0.033897 -0.009437 666139.000000 0 0 1
-30.010983 -23.919818 -1.747206 38.417047 0.672931 1.616292 0.030140 -0.003457 296387.000000 0 0 1
-31.339093 -23.849118 -2.221706 39.444330 0.650505 1.627151 0.053269 -0.011395 759262.000000 0 0 1
-32.200783 -22.576018 -1.902206 39.372394 0.611465 1.619128 0.049256 -0.010440 359258.000000 0 0 1
-32.267263 -22.213618 -0.567606 39.178352 0.602916 1.585285 0.054197 -0.012819 387403.000000 0 0 1
-33.263103 -21.213418 -0.380906 39.453621 0.567713 1.580451 0.036662 -0.009049 74798.700000 0 0 1
-33.347813 -20.862518 1.124694 39.352080 0.559033 1.542212 0.041518 -0.015112 -192361.000000 0 0 1
-33.750943 -21.887218 2.008394 40.276670 0.575314 1.520911 0.041545 -0.016387 258017.000000 0 0 1
-33.910033 -21.532818 3.361594 40.309464 0.565757 1.487305 0.041607 -0.017552 -1221780.000000 0 0 1
-35.027018 -22.275818 4.118394 41.714089 0.566443 1.471906 0.057006 -0.011350 1083240.000000 0 0 1
34.188309 -22.057318 3.685294 40.852749 -0.572973 1.480464 0.048837 -0.011383 724194.000000 0 0 1
33.725829 -20.738818 3.865694 39.780318 -0.551321 1.473467 0.053877 -0.023041 -1003830.000000 0 0 1
32.596759 -20.330418 2.861694 38.523549 -0.557660 1.496444 0.039848 -0.011436 -104237.000000 0 0 1
31.468879 -21.095418 3.210894 38.021268 -0.590554 1.486246 0.039474 -0.005461 -901867.000000 0 0 1
30.479099 -20.870718 2.218494 37.006540 -0.600421 1.510812 0.042886 -0.015849 -275316.000000 0 0 1
29.217919 -21.634918 2.640694 36.451745 -0.637372 1.498289 0.030727 -0.001725 -436658.000000 0 0 1
29.231689 -23.041418 2.426394 37.299946 -0.667525 1.505699 0.029679 -0.006716 -382257.000000 0 0 1
27.935759 -23.576418 2.505294 36.640559 -0.700972 1.502368 0.023284 -0.000614 -156178.000000 0 0 1
27.606499 -24.798318 1.578294 37.142514 -0.731863 1.528291 0.021080 0.002020 17979.500000 0 0 1
27.230819 -24.336418 0.285994 36.522055 -0.729328 1.562966 0.020686 -0.005796 152815.000000 0 0 1
26.388159 -25.279618 -0.366206 36.544878 -0.763946 1.580817 0.011681 -0.006716 132341.000000 0 0 1
25.504599 -24.676418 -1.524506 35.520899 -0.768896 1.613728 0.017895 -0.012462 21648.200000 0 0 1
26.072499 -24.269818 -2.768606 35.727642 -0.749605 1.648366 0.009406 -0.022179 -267791.000000 0 0 1
26.393499 -25.390818 -3.604006 36.800805 -0.766038 1.668886 0.007394 -0.017195 -64080.200000 0 0 1
25.272239 -26.090918 -4.488806 36.600156 -0.801336 1.693750 0.004798 -0.019995 734771.000000 0 0 1
24.701139 -25.285118 -5.562706 35.783056 -0.797080 1.726886 0.007453 -0.028459 1464850.000000 0 0 1
23.831539 -24.171818 -5.074606 34.321577 -0.792487 1.719195 0.016557 -0.027852 146411.000000 0 0 1
23.521939 -23.090118 -6.133606 33.526948 -0.776134 1.754778 0.019689 -0.034154 683753.000000 0 0 1
22.561239 -23.696918 -7.064706 33.473325 -0.809944 1.783450 0.011778 -0.030506 1076120.000000 0 0 1
21.614939 -22.861018 -7.729306 32.397128 -0.813408 1.811700 0.007755 -0.028627 137447.000000 0 0 1
22.048539 -21.589018 -8.488506 32.004351 -0.774868 1.839239 0.007507 -0.027942 -943345.000000 0 0 1
22.531239 -21.709018 -9.777106 32.780024 -0.766815 1.873670 0.012889 -0.030284 23561.200000 0 0 1
22.376739 -20.498318 -10.463706 32.099667 -0.741615 1.902840 0.002265 -0.024162 -497892.000000 0 0 1
23.199139 -20.414718 -11.727206 33.052808 -0.721642 1.933499 0.003231 -0.022710 234478.000000 0 0 1
24.608039 -20.449518 -11.513606 34.004433 -0.693365 1.916216 0.009860 -0.030157 267284.000000 0 0 1
25.262939 -19.929718 -12.660906 34.579015 -0.667931 1.945658 0.011466 -0.037237 204216.000000 0 0 1
26.778019 -20.237518 -12.773606 35.913569 -0.647172 1.934434 0.011371 -0.029156 35895.500000 0 0 1
27.172249 -21.590118 -13.096306 37.094171 -0.671418 1.931631 0.005907 -0.029445 145083.000000 0 0 1
27.222489 -22.485218 -11.985806 37.286840 -0.690383 1.898055 0.013075 -0.024449 -499639.000000 0 0 1
27.560109 -23.897718 -12.478806 38.553613 -0.714345 1.900406 0.001398 -0.021886 -432292.000000 0 0 1
28.831419 -23.896718 -13.096106 39.671297 -0.692082 1.907222 0.002865 -0.020821 144726.000000 0 0 1
29.050939 -25.062618 -13.847906 40.790395 -0.711828 1.917170 0.005785 -0.013679 -43746.600000 0 0 1
-4.278163 -8.677047 -28.048866 29.670401 1.112729 2.809458 0.033510 -0.010256 -77535.500000 0 0 1
-4.090363 -7.534747 -27.275796 28.591477 1.073446 2.837048 0.015798 -0.007582 86150.000000 0 0 1
-4.768063 -6.446847 -27.841656 28.973334 0.933987 2.861178 0.012899 -0.009142 -130609.000000 0 0 1
-4.617163 -5.103047 -27.062626 27.923915 0.835344 2.892579 0.002665 -0.013185 -41881.900000 0 0 1
-5.343763 -5.078347 -25.859056 26.889332 0.759937 2.863878 0.006951 -0.010534 277864.000000 0 0 1
-5.063563 -3.878647 -25.115776 25.913043 0.653657 2.892892 0.007714 -0.021172 103769.000000 0 0 1
-5.586363 -3.949447 -23.654506 24.623997 0.615395 2.860051 0.011261 -0.019077 56967.100000 0 1 0
-5.016063 -5.041647 -22.919906 23.997941 0.787942 2.840719 0.012054 -0.020437 601124.000000 0 1 0
-5.482563 -4.999747 -21.584506 22.824261 0.739371 2.810484 0.020428 -0.015023 -3641.370000 0 1 0
-4.705063 -6.067047 -20.763206 22.137240 0.911167 2.787412 0.019082 -0.012352 -546812.000000 0 1 0
-5.132763 -7.409247 -20.966906 22.822212 0.964952 2.735588 0.014867 -0.008489 825896.000000 0 1 0
-4.272163 -8.424947 -20.376806 22.459861 1.101497 2.707506 0.017708 -0.010437 -345593.000000 0 1 0
-4.990763 -9.775947 -20.475906 23.232296 1.098772 2.649519 0.024031 -0.001411 976173.000000 0 1 0
-6.142163 -10.011147 -19.633806 22.878714 1.020486 2.602489 0.027951 -0.000306 1354960.000000 0 1 0
-7.335863 -9.294947 -19.962006 23.209753 0.902656 2.606203 0.029298 -0.008354 -361000.000000 0 1 0
-8.441163 -9.320547 -18.910106 22.709424 0.834868 2.554760 0.023194 -0.000079 -182634.000000 0 1 0
-9.216263 -10.512847 -18.908006 23.515360 0.851023 2.504907 0.049899 0.002330 450259.000000 0 1 0
-10.042363 -10.612047 -17.746206 22.986788 0.812973 2.452806 0.044019 0.004116 73203.800000 0 1 0
-10.984563 -11.838247 -17.649006 23.922628 0.822786 2.400533 0.035875 0.005210 -34701.800000 0 1 0
-12.061063 -11.821047 -18.544606 25.082042 0.775348 2.402913 0.036299 0.003564 19826.600000 0 0 1
-11.671763 -12.210847 -19.850406 26.064793 0.807967 2.436543 0.038528 -0.008981 -762395.000000 0 0 1
-12.876863 -12.113647 -20.822106 27.315090 0.754867 2.437645 0.017394 -0.009052 397563.000000 0 0 1
-13.841263 -13.120547 -20.990006 28.360354 0.758674 2.404042 0.007064 0.003913 33887.200000 0 0 1
-14.590563 -13.349147 -19.796706 27.982027 0.740995 2.356722 0.002491 0.006229 -515277.000000 0 0 1
-15.716663 -14.407947 -19.939206 29.192026 0.741982 2.322708 -0.014066 0.007025 -198206.000000 0 0 1
-15.217763 -15.693047 -20.067406 29.674110 0.800773 2.313470 -0.000839 0.005683 -223528.000000 0 0 1
-15.873463 -16.419547 -21.084406 31.082479 0.802307 2.316294 0.002522 -0.000612 19979.500000 0 0 1
-15.284263 -17.842447 -21.398506 31.778258 0.862469 2.309553 -0.003997 -0.000055 -313274.000000 0 0 1
-15.665163 -18.897247 -20.503806 31.982954 0.878641 2.266708 0.006538 0.000010 236840.000000 0 0 1
-15.133763 -20.166947 -20.956906 32.786101 0.927024 2.264255 0.001817 -0.001946 -16193.800000 0 0 1
-15.829863 -21.363947 -20.276306 33.438471 0.933105 2.222292 0.011110 -0.002580 -56586.500000 0 0 1
-15.237963 -22.612247 -20.571206 34.156752 0.977816 2.217124 0.006204 0.000807 632867.000000 0 0 1
-16.138063 -23.668647 -20.145706 35.021299 0.972367 2.183696 0.016841 -0.002691 592358.000000 0 0 1
-15.790363 -25.042507 -20.712806 36.131469 1.008221 2.181278 0.010143 -0.008262 -284567.000000 0 0 1
-16.031463 -25.275867 -22.069906 37.188143 1.005566 2.206155 0.008472 -0.004423 273311.000000 0 0 1
-15.237763 -26.300987 -22.683406 37.927144 1.045691 2.211898 0.019225 -0.005329 113773.000000 0 0 1
-15.720463 -26.484957 -24.176606 39.154747 1.035124 2.236310 0.030590 -0.013233 699694.000000 0 0 1
-16.943563 -27.222427 -24.402206 40.294075 1.014060 2.221320 0.034537 -0.008196 574339.000000 0 0 1
-16.843863 -28.605197 -24.144206 41.047725 1.038624 2.199626 0.042740 -0.004924 -560679.000000 0 0 1
-17.864763 -29.382557 -24.952106 42.486374 1.024511 2.198511 0.047168 -0.006984 -332093.000000 0 0 1
-17.644863 -29.424217 -26.399536 43.290429 1.030618 2.226635 0.048431 -0.009415 401.599000 0 0 1
-17.775063 -28.170867 -27.100016 42.941372 1.007913 2.253758 0.060713 -0.018823 -322486.000000 0 0 1
-16.615363 -27.897197 -28.067346 42.919690 1.033624 2.283591 0.063061 -0.018608 -730989.000000 0 0 1
-16.699963 -28.395347 -29.343806 44.116249 1.039156 2.298487 0.061829 -0.016554 -356181.000000 0 0 1
-15.790763 -27.675597 -30.107166 43.837522 1.052300 2.327860 0.033753 -0.009496 -315398.000000 0 0 1
-15.629663 -28.061747 -31.577026 45.042830 1.062615 2.347657 0.039906 -0.005053 5395.080000 0 0 1
-15.121963 -29.337177 -31.818126 45.844704 1.094862 2.337884 0.017229 0.001863 287871.000000 0 0 1
-16.058663 -30.067837 -32.619796 47.180574 1.080257 2.334196 0.018170 0.007751 179877.000000 0 0 1
-15.699663 -31.505117 -32.923366 48.197509 1.108493 2.322785 0.013943 0.007500 -202921.000000 0 0 1
-14.959163 -31.669717 -34.105702 48.887078 1.129513 2.342898 0.007071 0.010221 -429394.000000 0 0 1
-15.037663 -32.932477 34.247627 49.835522 1.142450 0.813150 0.000430 0.010468 -501752.000000 0 0 1
-13.792563 -33.392957 33.467891 49.248595 1.179101 0.823619 -0.005518 0.009900 289623.000000 0 0 1
-12.942363 -34.158979 34.343785 50.138171 1.208623 0.816216 0.003600 0.016321 108823.000000 0 0 1
-12.008563 34.176395 33.651813 49.443666 -1.232901 0.822203 -0.004766 0.014542 -244940.000000 0 0 1
-11.157563 33.277323 -34.494391 49.211121 -1.247286 2.347521 0.014574 0.008225 -509499.000000 0 0 1
-10.331363 34.066153 -33.712366 49.028191 -1.276339 2.328991 0.009914 0.013336 -378700.000000 0 0 1
-9.514263 33.302043 -32.834556 47.724787 -1.292513 2.329523 0.016969 0.002025 47193.900000 0 0 1
-8.767163 34.340466 -31.957106 47.721980 -1.320835 2.304536 0.009001 0.004241 -124279.000000 0 0 1
-9.618263 -34.198731 -31.010976 47.156599 1.296632 2.288447 0.007481 0.003626 244924.000000 0 0 1
-8.931963 -33.159377 -30.311356 45.805049 1.307677 2.293943 0.005728 0.001518 -14139.400000 0 0 1
-9.958163 -32.252327 -29.608356 44.900249 1.271324 2.290850 0.006639 0.001934 278307.000000 0 0 1
-9.974163 -32.421877 -28.192246 44.107423 1.272348 2.264218 0.018200 0.007075 165976.000000 0 0 1
-10.708063 -33.604137 -27.805936 44.911810 1.262316 2.238422 0.023185 0.001096 -162380.000000 0 0 1
-10.900363 -33.706267 -26.257086 44.094953 1.258019 2.208643 0.034460 -0.000542 194341.000000 0 0 1
-9.737263 -33.864547 -25.460696 43.472622 1.290814 2.196505 0.023860 -0.007795 -106193.000000 0 0 1
-10.136263 -34.249710 -24.135806 43.108277 1.283058 2.165047 0.031632 -0.018688 900065.000000 0 0 1
-8.956763 -34.434425 -23.094206 42.418104 1.316325 2.146520 0.028536 -0.015656 805262.000000 0 0 1
-8.195163 33.516911 -23.244406 41.603442 -1.330993 2.163630 0.022359 -0.020930 -112468.000000 0 0 1
-7.297763 33.387744 -22.156006 40.729441 -1.355605 2.145970 0.027160 -0.016112 224185.000000 0 0 1
-6.423263 32.094495 -22.309506 39.610970 -1.373270 2.169068 0.029794 -0.023194 307172.000000 0 0 1
-5.337763 32.063415 -23.230106 39.952373 -1.405834 2.191300 0.013742 -0.021163 -149047.000000 0 0 1
-4.600563 30.895735 -23.027106 38.806690 -1.422976 2.206048 0.002522 -0.013673 -966494.000000 0 0 1
-3.126663 31.056695 -23.339506 38.974695 -1.470458 2.212845 0.000654 -0.017092 -1059720.000000 0 0 1
-2.629663 31.180435 -24.626206 39.819401 -1.486658 2.237562 -0.008075 -0.019108 -348638.000000 0 0 1
-3.149563 32.200775 -25.454746 41.167387 -1.473296 2.237404 -0.004256 -0.015649 -909577.000000 0 0 1
-2.216063 32.528465 -26.606786 42.082455 -1.502775 2.255255 -0.012490 -0.003132 227804.000000 0 0 1
-1.240763 33.583266 -26.287986 42.666538 -1.533867 2.234612 -0.008157 -0.010073 678119.000000 0 0 1
-1.775963 -34.220219 -26.335216 43.217138 1.518945 2.226062 -0.014291 -0.006687 -492498.000000 0 0 1
-0.843263 -33.227347 -27.039696 42.847553 1.545423 2.253725 -0.035001 0.010203 -915064.000000 0 0 1
0.187937 -32.948187 -26.161856 42.072093 -1.565092 2.241879 -0.012611 0.016180 -1038900.000000 0 0 1
1.081737 -32.037637 -26.738306 41.743471 -1.537045 2.265996 -0.021515 0.025185 133230.000000 0 0 1
2.266637 -31.740257 -25.757516 40.939360 -1.499505 2.251272 -0.015416 0.028842 148696.000000 0 0 1
1.819637 -31.220147 -24.484906 39.717997 -1.512578 2.235046 -0.007812 0.023434 442849.000000 0 0 1
2.898837 -30.559677 -23.855606 38.876562 -1.476221 2.231439 -0.015063 0.025526 44868.800000 0 0 1
2.580537 -30.109077 -22.406906 37.620275 -1.485299 2.208818 -0.000210 0.020140 -197096.000000 0 0 1
2.672137 -31.135157 -21.443106 37.899144 -1.485182 2.172192 0.008535 0.024409 367958.000000 0 0 1
2.735337 -30.591417 -20.136506 36.725954 -1.481618 2.151116 0.019963 0.017398 -487149.000000 0 0 1
2.749937 -31.603227 -18.982406 36.968335 -1.484001 2.110029 0.024459 0.025108 221477.000000 0 0 1
1.541937 -32.355297 -18.836306 37.470645 -1.523176 2.097510 0.028775 0.021496 385402.000000 0 0 1
1.546437 -33.687397 -19.317706 38.863941 -1.524923 2.091003 0.037849 0.031164 -120159.000000 0 0 1
2.354237 34.313542 -18.599906 39.101382 1.502294 2.066538 0.028618 0.006287 1412790.000000 0 0 1
3.779237 34.359104 -18.829606 39.362224 1.461244 2.069591 0.026350 0.018267 782935.000000 0 0 1
4.407837 33.251845 -18.195006 38.159828 1.439006 2.067819 0.044276 -0.013238 531412.000000 0 0 1
5.664137 32.720485 -18.930006 38.223784 1.399388 2.088909 0.046446 -0.009211 334817.000000 0 0 1
6.699937 33.660287 -19.135806 39.294823 1.374318 2.079425 0.086861 -0.003240 1028460.000000 0 0 1
7.796137 32.945525 -19.852006 39.246522 1.338433 2.101138 0.049412 -0.011648 857472.000000 0 0 1
9.054737 33.765493 -20.068806 40.309475 1.308795 2.091935 0.023427 -0.012072 -361423.000000 0 0 1
9.757437 34.035667 -18.859506 40.116270 1.291602 2.060224 0.006378 -0.005285 399729.000000 0 0 1
10.990237 -34.394464 -19.051606 40.825582 -1.261515 2.056305 0.009851 0.003233 589786.000000 0 0 1
11.724937 -34.330784 -17.706006 40.368050 -1.241688 2.024853 -0.016306 0.010015 -450458.000000 0 0 1
12.198437 33.562100 -17.219106 39.644849 1.222182 2.020095 -0.021058 0.007264 -46380.200000 0 0 1
12.979237 33.673644 -16.032206 39.489321 1.202903 1.988856 -0.027110 0.001679 1148330.000000 0 0 1
14.113737 32.556295 -15.872006 38.871975 1.161733 1.991404 -0.016255 0.000068 1295440.000000 0 0 1
13.551337 31.322345 -15.383806 37.435137 1.162471 1.994287 -0.006084 -0.001425 -24108.300000 0 0 1
14.485037 30.287345 -15.598306 37.019545 1.124697 2.005733 -0.000601 -0.003498 64430.500000 0 0 1
14.279337 28.976805 -14.790206 35.528930 1.112937 2.000153 0.009596 -0.001409 -328932.000000 0 0 1
14.674437 29.027705 -13.428406 35.189044 1.102733 1.962331 0.018068 -0.006828 191646.000000 0 0 1
13.621237 29.031405 -12.456106 34.402255 1.132099 1.941286 0.020222 -0.006206 621427.000000 0 0 1
12.904437 27.673865 -12.157206 32.865863 1.134467 1.949702 0.013326 -0.009148 146127.000000 0 0 1
11.991637 27.218485 -13.172606 32.529415 1.155812 1.987714 0.003392 -0.004928 398398.000000 0 0 1
11.366037 25.949815 -12.972706 31.158799 1.157966 2.000214 0.020022 -0.006097 341316.000000 0 0 1
10.577037 25.703775 -11.662406 30.142486 1.180418 1.968074 0.026277 -0.005037 -662166.000000 0 0 1
9.506037 26.611395 -11.502806 30.509763 1.227707 1.957374 0.014505 -0.006409 -90437.700000 0 0 1
9.206137 26.790625 -10.130006 30.085005 1.239805 1.914220 0.012628 0.007280 250248.000000 0 0 1
7.976437 27.751095 -10.159706 30.609907 1.290913 1.909123 0.009355 -0.000246 181022.000000 0 0 1
8.305637 28.971425 -10.716206 31.986937 1.291601 1.912421 0.013784 -0.001879 -615009.000000 0 0 1
7.267337 29.887385 -10.656006 32.551811 1.332268 1.904300 0.015495 -0.010319 -392538.000000 0 0 1
7.684237 31.259795 -11.176606 34.075487 1.329757 1.904977 0.032348 -0.012805 -461553.000000 0 0 1
8.470937 31.971445 -10.276706 34.634387 1.311794 1.872052 0.031627 -0.005120 -555241.000000 0 0 1
8.693437 33.288596 -10.664906 36.020087 1.315348 1.871385 0.041355 -0.012888 -14249.800000 0 0 1
9.856937 33.466193 -11.677506 36.790072 1.284362 1.893792 0.026720 -0.011560 -555352.000000 0 0 1
11.110537 33.333038 -11.048106 36.831998 1.249059 1.875446 0.023324 -0.006158 -712868.000000 0 0 1
12.060737 33.626800 -12.050206 37.701863 1.226424 1.896123 0.013814 -0.001345 -157902.000000 0 0 1
13.506137 33.385292 -11.568606 37.826262 1.186371 1.881612 0.010401 -0.009277 107674.000000 0 0 1
13.938137 34.391209 -10.626206 38.599782 1.185745 1.849690 0.009964 -0.002995 -678353.000000 0 0 1
15.331137 34.439396 -10.583606 39.155184 1.151972 1.844500 0.008785 -0.008173 -469581.000000 0 0 1
15.897237 -33.686207 -9.551406 38.454025 -1.129863 1.821809 0.017068 -0.009254 -187021.000000 0 0 1
16.015437 -34.267472 -8.309906 38.727359 -1.133595 1.787053 0.023329 -0.014233 343454.000000 0 0 1
16.741537 -33.375167 -7.429806 38.070761 -1.105856 1.767215 0.019864 -0.014306 -691804.000000 0 0 1
17.051037 -34.009086 -6.053106 38.522667 -1.106056 1.728581 0.013422 -0.003974 -31691.100000 0 0 1
17.882237 33.963291 -6.220106 38.884049 1.086161 1.731452 0.015628 -0.014901 577810.000000 0 0 1
19.255937 34.307186 -6.368806 39.853931 1.059334 1.731288 0.013169 -0.010514 -584593.000000 0 0 1
20.222537 33.360138 -7.096306 39.651070 1.025839 1.750735 0.007903 -0.009525 256196.000000 0 0 1
20.537537 32.139735 -6.418906 38.677582 1.002187 1.737527 0.017351 0.000417 -154006.000000 0 0 1
21.461337 32.286885 -5.362906 39.138123 0.984151 1.708254 0.008133 0.008729 -504131.000000 0 0 1
21.733037 30.884045 -4.793506 38.067398 0.957593 1.697053 -0.003965 0.007450 -47713.100000 0 0 1
22.188537 29.978925 -5.770206 37.740726 0.933637 1.724289 -0.009284 0.004377 -97051.600000 0 0 1
22.582237 28.805575 -5.165006 36.964792 0.905917 1.710983 -0.003915 0.012458 -661811.000000 0 0 1
23.464337 27.955875 -6.042406 36.994820 0.872527 1.734863 -0.001624 0.018124 -317132.000000 0 0 1
24.698137 28.607505 -6.387706 38.330015 0.858606 1.738228 0.004923 0.011546 447840.000000 0 0 1
25.515737 27.756325 -7.181106 38.380134 0.827433 1.759010 -0.006872 0.012561 -116501.000000 0 0 1
26.404337 26.804995 -6.402306 38.166560 0.792928 1.739340 -0.000335 0.018816 -1136130.000000 0 0 1
27.475437 27.428505 -5.736206 39.244446 0.784543 1.717488 -0.004338 0.007733 -138279.000000 0 0 1
28.057937 26.473245 -4.843706 38.878554 0.756346 1.695706 -0.000483 0.020233 -740630.000000 0 0 1
29.240437 26.988755 -4.097606 40.002330 0.745375 1.673411 0.000479 0.013631 -799412.000000 0 0 1
28.877137 27.922685 -3.054006 40.285138 0.768596 1.646679 0.009471 -0.001510 -364103.000000 0 0 1
30.016037 28.127975 -2.281706 41.198927 0.752937 1.626207 0.017132 -0.008077 -290920.000000 0 0 1
30.053937 29.465265 -1.457106 42.113704 0.775508 1.605403 0.038114 0.000978 -4404.590000 0 0 1
30.368737 30.575615 -2.225706 43.151850 0.788793 1.622398 0.024506 0.001658 -78923.600000 0 0 1
30.234237 31.799615 -1.518106 43.904774 0.810627 1.605380 0.035058 -0.000379 -223430.000000 0 0 1
32.178129 22.936753 19.758496 44.180593 0.619269 1.107140 0.022727 0.002697 -121997.000000 0 0 1
32.631279 22.709753 21.084096 45.000804 0.608003 1.083174 0.018471 -0.007242 237765.000000 0 0 1
33.431719 23.788353 21.556696 46.349290 0.618436 1.087058 0.023543 -0.001382 109350.000000 0 0 1
33.606859 23.801153 23.101996 47.218832 0.616224 1.059562 0.020415 0.002942 408380.000000 0 0 1
32.377619 24.122653 23.742596 46.839337 0.640320 1.039218 0.002144 0.006961 669709.000000 0 0 1
32.631909 24.552153 25.090956 47.929175 0.645033 1.019842 -0.005027 0.006556 102540.000000 0 0 1
31.343579 25.113053 25.738506 47.702789 0.675483 1.000882 0.010529 -0.001759 137681.000000 0 0 1
31.116389 26.442553 25.257886 48.014572 0.704375 1.016851 -0.004645 0.005214 1452860.000000 0 0 1
29.750039 26.846953 25.558586 47.529623 0.734149 1.003042 -0.012322 -0.001319 1285330.000000 0 0 1
29.413899 28.308453 25.857916 48.323677 0.766249 1.006172 -0.011497 0.010217 -256344.000000 0 0 1
29.343289 29.115253 24.738916 48.174065 0.781497 1.031501 -0.005929 0.003620 237253.000000 0 0 1
29.152419 30.513753 24.985886 49.043319 0.808210 1.036233 -0.002033 0.007524 -210470.000000 0 0 1
29.384079 31.415753 23.761896 49.142663 0.818802 1.066115 -0.005046 0.010323 -770974.000000 0 0 1
30.692089 31.755853 23.465496 50.010679 0.802431 1.082401 -0.017990 0.009183 -904326.000000 0 0 1
30.682839 32.572953 22.339396 50.014823 0.815270 1.107773 -0.012995 0.013923 -133197.000000 0 0 1
32.104099 33.000653 21.984596 51.019984 0.799168 1.125305 -0.016735 -0.000142 -215285.000000 0 0 1
32.551569 34.069453 22.779796 52.337858 0.808178 1.120486 -0.005909 0.013271 -143100.000000 0 0 1
33.922719 34.330453 22.583296 53.285421 0.791372 1.133140 -0.000793 0.009882 175611.000000 0 0 1
34.563058 -33.735418 23.505396 53.713937 -0.773281 1.117865 0.004326 0.010989 -353783.000000 0 0 1
34.134439 -32.439618 23.085396 52.444487 -0.759946 1.114989 0.005480 0.016704 216979.000000 0 0 1
34.563100 -31.413318 23.932396 52.480129 -0.737693 1.097270 0.002760 0.016055 -795641.000000 0 0 1
33.514379 -30.283218 23.870596 51.089062 -0.734794 1.084636 0.005880 0.008661 1136770.000000 0 0 1
32.181569 -30.662518 24.274726 50.646872 -0.761231 1.070947 0.005403 0.013011 1249910.000000 0 0 1
31.368869 -31.130618 23.187696 49.907820 -0.781586 1.087602 0.004528 0.019380 -91277.400000 0 0 1
30.550239 -32.471818 23.339296 50.323541 -0.815879 1.088534 -0.001399 0.021405 311888.000000 0 0 1
29.423719 -32.260318 24.168316 49.905820 -0.831352 1.065258 0.009772 0.011230 -193326.000000 0 0 1
28.668829 -33.439518 24.230946 50.271680 -0.862060 1.067860 0.009242 0.015258 -143691.000000 0 0 1
28.162359 -33.683518 25.649866 50.848928 -0.874435 1.042071 0.008341 0.011646 -150935.000000 0 0 1
27.603259 34.147153 25.753036 50.903702 0.890977 1.040352 0.008882 0.006965 270522.000000 0 0 1
26.912229 34.016853 26.987646 51.085687 0.901479 1.014220 0.008321 0.004718 -719068.000000 0 0 1
26.736569 32.468853 27.198606 50.088269 0.881918 0.996775 0.003946 -0.002525 363200.000000 0 0 1
25.803239 31.773853 26.394936 48.703979 0.888727 0.998045 0.002015 0.009519 1006050.000000 0 0 1
24.430439 32.227153 26.441506 48.317585 0.922150 0.991729 0.006640 0.001035 437438.000000 0 0 1
23.705539 31.965253 25.086326 47.043105 0.932691 1.008344 0.029855 -0.004900 -87066.800000 0 0 1
23.975239 32.807953 23.955096 47.170123 0.939713 1.038115 0.041794 -0.008605 81839.400000 0 0 1
25.298439 32.792653 23.455596 47.597627 0.913698 1.055504 0.016108 -0.001831 -100457.000000 0 0 1
25.402239 33.297053 22.046296 47.328709 0.919092 1.086244 0.021842 0.006233 -267085.000000 0 0 1
26.660919 33.614253 21.529796 48.002653 0.900250 1.105696 0.018352 0.010867 -45625.800000 0 0 1
26.427949 33.984953 20.175796 47.544466 0.909841 1.132545 0.012699 0.007004 200402.000000 0 0 1
27.661679 -34.495818 19.515096 48.331862 -0.894907 1.155159 0.028730 0.006321 327059.000000 0 0 1
28.757989 33.785653 19.310996 48.388086 0.865612 1.160277 0.032378 -0.002885 1342630.000000 0 0 1
29.901629 34.331353 18.559196 49.164957 0.854253 1.183714 0.022855 0.002329 1657000.000000 0 0 1
30.790509 33.214653 17.910196 48.703632 0.823254 1.194220 0.003645 0.004419 14536.500000 0 0 1
31.694909 32.495353 18.750096 49.112945 0.797867 1.179080 0.001919 0.007204 490618.000000 0 0 1
32.492139 31.570353 18.023896 48.757431 0.771010 1.192148 0.017703 -0.000490 409785.000000 0 0 1
33.516739 30.826953 18.912796 49.308891 0.743619 1.177151 0.011428 -0.003333 505249.000000 0 0 1
34.444229 31.587753 19.697596 50.716726 0.742166 1.171918 0.012146 -0.000044 472186.000000 0 0 1
-35.147548 30.769753 20.308696 50.936932 -0.719082 1.160694 0.012516 0.001813 -95426.500000 0 0 1
-33.982933 31.559153 20.881296 50.861070 -0.748434 1.147733 0.029057 0.001272 665.588000 0 0 1
-33.044063 32.180753 19.970396 50.262588 -0.772163 1.162200 0.032885 -0.006317 685764.000000 0 0 1
-31.943823 32.757353 20.659496 50.202259 -0.797971 1.146669 0.021579 -0.000837 100061.000000 0 0 1
-32.074793 34.174253 21.270896 51.469632 -0.817078 1.144753 0.011217 0.002291 -400181.000000 0 0 1
-32.453513 34.155053 22.623896 52.265083 -0.810938 1.123124 0.014149 0.006149 201237.000000 0 0 1
-32.391923 -33.737118 23.258096 52.233790 0.805737 1.109321 0.001366 0.008192 -188688.000000 0 0 1
-32.162643 -33.910918 24.784486 52.902332 0.811852 1.083210 0.011805 -0.007972 63425.700000 0 0 1
-33.379483 -34.323618 25.399156 54.197950 0.799342 1.083049 0.003234 -0.002387 322186.000000 0 0 1
-33.212873 34.436353 26.712566 54.795242 -0.803482 1.061575 0.004701 0.002216 19131.000000 0 0 1
-34.602408 34.061253 27.242316 55.674405 -0.777517 1.059492 -0.013942 -0.000658 84068.000000 0 0 1
-34.581468 33.400653 28.492336 55.886446 -0.768030 1.035814 -0.001028 -0.008788 -129233.000000 0 0 1
34.703216 33.348453 29.089166 56.237106 0.765493 1.027151 0.005329 -0.013344 -65550.400000 0 0 1
34.622359 32.323553 30.171106 56.158841 0.751073 1.003628 0.009248 -0.010850 -157942.000000 0 0 1
34.531524 30.959153 29.829746 55.142625 0.730904 0.999223 0.000072 -0.009763 354879.000000 0 0 1
-34.905895 30.353853 29.191406 54.698411 -0.715758 1.007851 0.004061 -0.005313 -31637.300000 0 0 1
-35.159255 28.904453 28.897686 53.913977 -0.688073 1.005109 0.003989 -0.011018 -875666.000000 0 0 1
34.443609 28.739253 27.874946 52.814008 0.695359 1.014794 -0.001835 0.002583 81713.500000 0 0 1
34.205729 27.370953 27.477046 51.712562 0.674854 1.010613 0.006581 -0.001029 -74505.000000 0 0 1
33.600709 26.473553 28.508546 51.406166 0.667311 0.982945 0.013064 -0.007717 -459848.000000 0 0 1
34.637100 26.009553 29.373386 52.335660 0.644087 0.974901 0.006171 -0.010595 602781.000000 0 0 1
34.261229 24.714253 29.996326 51.811251 0.624910 0.953351 0.010853 -0.007415 22481.700000 0 0 1
34.751808 23.536553 29.147376 51.100167 0.595311 0.963807 0.007635 -0.005064 104660.000000 0 0 1
33.959419 23.264153 27.975366 49.770313 0.600627 0.973886 0.012239 -0.010930 368226.000000 0 0 1
34.531395 22.286653 27.065346 49.210213 0.573137 0.988439 0.007649 -0.008128 81630.500000 0 0 1
34.508115 20.807653 27.457216 48.761328 0.542607 0.972671 0.003044 -0.011693 -203184.000000 0 0 1
33.195069 20.370553 27.141676 47.471493 0.550405 0.962163 0.022651 -0.004482 376168.000000 0 0 1
32.857139 19.155953 27.773456 47.094660 0.527831 0.940063 0.020244 -0.007171 -429392.000000 0 0 1
32.539599 19.184953 29.298406 47.804650 0.532728 0.911099 0.013927 -0.023360 -767940.000000 0 0 1
31.388329 19.775853 29.806446 47.589240 0.562214 0.893963 0.017545 -0.023166 -58246.300000 0 0 1
31.457799 21.184353 29.610226 48.115854 0.592664 0.907910 0.010618 -0.020560 -588013.000000 0 0 1
30.267899 21.902153 30.300726 48.103888 0.626396 0.889370 0.013813 -0.024634 143988.000000 0 0 1
28.988059 21.716653 29.716316 46.850614 0.642962 0.883722 0.025408 -0.028830 469243.000000 0 0 1
28.600009 22.379353 28.485286 46.154171 0.663975 0.905647 0.026492 -0.016888 -306014.000000 0 0 1
28.536249 23.930053 28.632456 46.976404 0.697829 0.915357 0.034478 -0.017770 -334417.000000 0 0 1
29.794669 24.549553 28.823386 48.178734 0.689180 0.929469 0.012601 -0.022094 57812.000000 0 0 1
29.717369 25.918953 29.189936 49.060845 0.717232 0.933563 -0.002017 -0.011316 -198052.000000 0 0 1
29.947159 26.223453 30.697516 50.267677 0.719202 0.913876 -0.003925 -0.015641 32873.900000 0 0 1
31.254419 25.785053 31.064586 51.056010 0.689803 0.916701 -0.004082 -0.018818 315948.000000 0 0 1
31.585229 25.718953 32.454756 52.080730 0.683383 0.898017 0.004108 -0.018451 -106024.000000 0 0 1
31.098509 24.413453 33.195045 51.624074 0.665550 0.872368 0.006968 -0.017265 -512761.000000 0 0 1
31.283309 24.282453 -34.443329 52.484530 0.660066 2.286643 -0.012169 -0.011914 313677.000000 0 0 1
31.049869 22.948153 -34.032906 51.467959 0.636472 2.293273 -0.011233 -0.015801 -602774.000000 0 0 1
31.636429 22.774753 -32.640906 50.842716 0.623951 2.267897 -0.014684 -0.013628 -125186.000000 0 0 1
30.923669 23.476053 -31.597636 50.058056 0.649339 2.253921 -0.029137 -0.013599 359860.000000 0 0 1
31.204779 23.138353 -30.255946 49.239658 0.638039 2.232501 0.006809 -0.023482 -692881.000000 0 0 1
32.301439 24.032553 -29.620476 49.983189 0.639656 2.205090 0.002953 0.002559 461741.000000 0 0 1
32.920059 23.363753 -28.494256 49.411718 0.617214 2.185443 0.010802 -0.006482 -168580.000000 0 0 1
33.895979 24.149153 -27.857676 50.081624 0.619032 2.160657 0.009342 0.000403 -641917.000000 0 0 1
34.625712 23.428553 -26.798206 49.658644 0.594864 2.140816 0.014687 -0.000937 -775764.000000 0 0 1
-35.127267 22.463653 -27.438226 49.913894 -0.568954 2.152815 0.026669 -0.005441 -109825.000000 0 0 1
-35.055124 21.396453 -26.542796 48.899796 -0.548007 2.144563 0.016228 -0.008571 -342291.000000 0 0 1
-34.026543 20.252053 -26.789816 47.808426 -0.536871 2.165614 0.032373 -0.004255 404057.000000 0 0 1
-32.709023 20.702253 -26.488606 46.905328 -0.564276 2.170896 0.036931 -0.007113 898728.000000 0 0 1
-31.767743 19.577553 -26.668566 45.865919 -0.552298 2.191302 0.027940 -0.010538 709767.000000 0 0 1
-30.406643 19.828353 -26.019236 44.662380 -0.577854 2.192691 0.030605 -0.011403 -352916.000000 0 0 1
-30.580523 20.029953 -24.632206 44.080756 -0.579876 2.163731 0.019551 -0.003939 6914.900000 0 0 1
-29.368203 20.346553 -23.974806 43.026328 -0.605883 2.161821 0.013964 -0.002556 -35273.500000 0 0 1
-29.449833 20.908253 -22.496506 42.550447 -0.617380 2.127867 -0.002431 -0.008376 -640.168000 0 0 1
-29.882933 20.000453 -21.504606 41.898161 -0.589819 2.109774 -0.016556 0.004083 -95157.300000 0 0 1
-30.526063 20.600853 -20.402906 42.101238 -0.593654 2.076720 -0.011426 0.009632 -575725.000000 0 0 1
-31.328853 19.497653 -19.684806 41.822806 -0.556695 2.060848 -0.017914 0.011204 475153.000000 0 0 1
-32.209353 19.883853 -18.614906 42.182043 -0.553066 2.027842 -0.015486 0.008217 705326.000000 0 0 1
-33.334103 20.697753 -18.937206 43.568076 -0.555659 2.020455 -0.014125 0.006377 -678966.000000 0 0 1
-34.376810 20.599453 -17.830206 43.863639 -0.539850 1.989407 0.000804 -0.001805 -472823.000000 0 0 1
-34.054453 21.165153 -16.574906 43.386599 -0.556085 1.962786 0.000286 -0.011003 446718.000000 0 0 1
-35.174493 20.812453 -15.765106 43.805727 -0.534288 1.938943 0.007773 -0.001548 -328955.000000 0 0 1
-35.254802 21.679753 -14.468306 43.843411 -0.551336 1.907099 0.021861 -0.003596 -189276.000000 0 0 1
35.110072 23.067853 -14.610506 44.478196 0.581291 1.905497 0.022952 -0.006491 -289185.000000 0 0 1
33.779719 23.462753 -14.704106 43.678152 0.607080 1.914150 0.035627 -0.004263 -507943.000000 0 0 1
33.825009 24.970753 -14.923906 44.613817 0.635928 1.911885 0.018198 -0.003222 66232.400000 0 0 1
34.300359 25.691153 -13.837206 45.033524 0.642864 1.883114 0.017319 -0.001413 -109577.000000 0 0 1
34.129689 27.112053 -14.087706 45.807887 0.671307 1.883402 0.007810 0.006579 508180.000000 0 0 1
-35.242819 27.958753 -14.701406 47.327366 -0.670653 1.886654 0.016232 0.020123 727510.000000 0 0 1
-35.098866 27.713553 -16.076206 47.522793 -0.668358 1.915889 0.012796 0.020632 -414128.000000 0 0 1
-33.962433 28.413953 -16.469206 47.244411 -0.696680 1.926869 0.023057 0.012924 -751992.000000 0 0 1
-33.766243 28.261253 -17.986106 47.564247 -0.696879 1.958586 0.013318 0.016229 19906.800000 0 0 1
-33.307543 27.001953 -18.527606 46.709422 -0.681223 1.978668 0.012249 0.004090 371216.000000 0 0 1
-31.937703 26.708553 -18.314506 45.483897 -0.696469 1.985216 0.003338 0.012436 235016.000000 0 0 1
-31.513333 25.356953 -18.989406 44.684033 -0.677565 2.009726 0.000018 0.012819 -658098.000000 0 0 1
-31.558313 25.426353 -20.392506 45.368281 -0.678203 2.036989 -0.004498 0.010148 81610.600000 0 0 1
-31.145233 24.274853 -21.015606 44.731977 -0.662058 2.059874 -0.005394 0.008601 -609127.000000 0 0 1
-30.947283 24.316953 -22.542106 45.356313 -0.665994 2.090935 -0.004474 0.008985 -226580.000000 0 0 1
-32.099733 24.311953 -23.362006 46.553703 -0.648213 2.096509 0.010620 0.006586 112672.000000 0 0 1
-31.813593 23.931653 -24.689206 46.844270 -0.644937 2.125920 0.019099 0.004791 231077.000000 0 0 1
-32.653503 24.806153 -25.677936 48.383395 -0.649666 2.130244 0.010410 0.008510 277237.000000 0 0 1
-32.126803 26.137653 -25.766566 48.777293 -0.682965 2.127334 -0.001656 0.013194 -423067.000000 0 0 1
-32.879373 26.911253 -26.603506 50.129984 -0.685911 2.130211 0.010917 0.007077 -503558.000000 0 0 1
-32.293643 28.313853 -26.805526 50.626968 -0.719827 2.128774 -0.003627 0.005578 -7289.560000 0 0 1
-31.223963 28.379753 -27.710076 50.479645 -0.737716 2.151887 -0.004993 0.004845 -522955.000000 0 0 1
-30.804373 29.748153 -27.911656 51.116755 -0.767957 2.148423 -0.003728 0.003120 501543.000000 0 0 1
-29.447543 29.728853 -28.689136 50.734890 -0.790152 2.171801 0.012433 -0.000398 384813.000000 0 0 1
-28.406513 29.247753 -27.855566 49.379081 -0.799988 2.170159 -0.003913 -0.001895 -778555.000000 0 0 1
-27.160163 29.217853 -28.473866 49.011412 -0.821880 2.190709 0.012186 -0.001774 358802.000000 0 0 1
-26.169513 30.386053 -28.030646 48.927219 -0.859816 2.180842 0.018271 -0.010781 181099.000000 0 0 1
-25.745713 30.345153 -26.686706 47.915033 -0.867215 2.161516 0.019930 -0.011645 523673.000000 0 0 1
-26.780003 30.673253 -25.725636 48.164566 -0.853059 2.134262 -0.004686 -0.005953 279408.000000 0 0 1
-26.216633 31.198753 -24.465506 47.531411 -0.871955 2.111481 -0.008171 -0.008153 -318386.000000 0 0 1
-25.696033 32.518353 -24.549706 48.170712 -0.902059 2.105562 0.011289 -0.003059 19803.800000 0 0 1
-24.879463 32.787053 -23.416806 47.353198 -0.921674 2.088072 0.026313 -0.000329 299111.000000 0 0 1
-24.082463 34.120853 -23.464406 47.903821 -0.956189 2.082683 0.025163 0.003280 -177257.000000 0 0 1
-24.941863 -33.922918 -23.332506 48.137997 0.936802 2.076817 0.001171 -0.001087 -202951.000000 0 0 1
-24.398163 -32.671418 -23.606006 47.116191 0.929363 2.095570 0.012435 -0.001140 -694027.000000 0 0 1
16.453737 9.159153 -25.619256 31.795626 0.507943 2.507733 0.012178 -0.018870 -539790.000000 0 0 1
15.301337 8.439953 -25.319486 30.764267 0.504058 2.537497 0.016011 -0.022043 -436493.000000 0 0 1
15.448137 7.043453 -25.399296 30.551259 0.427784 2.552359 0.007958 -0.024460 -570160.000000 0 0 1
14.107137 6.343553 -25.480426 29.807786 0.422579 2.596009 0.013112 -0.021948 -48132.000000 0 0 1
13.396537 6.358653 -24.215006 28.394827 0.443162 2.592113 0.037381 -0.027675 494529.000000 0 0 1
12.067437 5.861253 -24.315606 27.770957 0.452149 2.637425 0.024090 -0.019265 511902.000000 0 0 1
11.345837 6.185153 -22.938506 26.327917 0.499110 2.628563 0.038353 -0.030229 153252.000000 0 0 1
11.758837 5.231353 -21.937506 25.434061 0.418594 2.611034 0.045766 -0.017376 253061.000000 0 0 1
11.137037 5.538253 -20.680006 24.132312 0.461471 2.600104 0.055504 -0.010695 -119211.000000 0 1 0
11.636837 6.734053 -19.837906 23.964682 0.524599 2.545967 0.057098 -0.024181 -654249.000000 0 1 0
11.116637 6.883153 -18.583806 22.722572 0.554400 2.528473 0.040533 -0.012092 -448771.000000 0 1 0
11.430437 8.159753 -17.994706 22.826430 0.619969 2.478882 0.041563 -0.013542 935677.000000 0 1 0
12.895137 8.342053 -17.449706 23.245788 0.574203 2.419858 0.041760 -0.019005 775055.000000 0 1 0
13.332737 7.698853 -16.250306 22.385412 0.523666 2.383186 0.049410 -0.025583 1462110.000000 0 1 0
14.733637 7.944253 -15.979406 23.141578 0.494507 2.332985 0.040391 -0.028249 889973.000000 0 1 0
15.034137 7.705353 -14.497906 22.261784 0.473616 2.280022 0.028718 -0.019819 -527747.000000 0 1 0
16.434637 7.710453 -14.355406 23.143597 0.438672 2.239890 0.030237 -0.022498 228549.000000 0 1 0
16.952037 8.406053 -13.254206 23.102105 0.460340 2.181840 0.031276 -0.013669 -25946.600000 0 1 0
17.209337 9.890653 -13.357506 23.925076 0.521628 2.163138 0.028122 -0.012213 -970942.000000 0 1 0
16.035937 10.626953 -13.220606 23.342404 0.585249 2.172900 0.026932 -0.011207 67404.400000 0 1 0
16.334737 12.004553 -13.218106 24.200233 0.633773 2.148614 0.026554 -0.008149 -195255.000000 0 1 0
15.072737 12.849853 -12.967606 23.674141 0.705957 2.150474 0.020285 -0.008129 -107224.000000 0 1 0
14.481937 12.751753 -11.675606 22.553348 0.721952 2.114943 0.023421 -0.004492 315845.000000 0 1 0
14.977537 13.713153 -10.724106 22.964835 0.741357 2.056668 0.025744 -0.002994 -191379.000000 0 1 0
14.695637 15.241953 -10.910506 23.818439 0.803645 2.046619 0.022100 -0.002722 -535848.000000 0 1 0
13.374537 15.486653 -10.524206 23.010293 0.858450 2.045831 0.028275 -0.004066 -174400.000000 0 1 0
13.136737 16.854253 -10.579306 23.844526 0.908724 2.030496 0.025218 -0.006399 569902.000000 0 1 0
12.110937 17.346753 -9.492206 23.188071 0.961301 1.992546 0.020884 -0.002950 446854.000000 0 1 0
12.702137 17.307653 -8.242806 22.996587 0.937677 1.937388 0.036563 -0.003030 206050.000000 0 1 0
11.702637 17.288153 -7.234506 22.094570 0.975731 1.904383 0.040925 -0.010557 54215.600000 0 1 0
12.122037 17.050653 -5.789306 21.706788 0.952764 1.840769 0.039299 -0.014501 -6308.590000 0 1 0
12.801337 18.178553 -5.246506 22.844252 0.957257 1.802529 0.043484 -0.013350 46410.000000 0 1 0
13.296737 17.849853 -3.968906 22.609129 0.930553 1.747255 0.041935 -0.014286 203636.000000 0 1 0
14.364437 18.850753 -3.422406 23.945789 0.919654 1.714211 0.042430 -0.023699 30138.200000 0 1 0
15.583037 18.910253 -4.109606 24.845877 0.881560 1.736964 0.046797 -0.030106 186036.000000 0 1 0
16.336737 20.125953 -3.916306 26.216034 0.888947 1.720744 0.041623 -0.031975 -188552.000000 0 0 1
17.615037 20.183353 -4.736006 27.204541 0.853242 1.745777 0.042492 -0.033156 -964805.000000 0 0 1
18.622037 19.328553 -4.292706 27.180886 0.804013 1.729391 0.048127 -0.042094 -596370.000000 0 0 1
18.715737 18.097553 -4.978706 26.506372 0.768607 1.759749 0.042811 -0.030377 -508705.000000 0 0 1
19.794037 17.184053 -4.409406 26.580791 0.714933 1.737454 0.061257 -0.031600 251189.000000 0 0 1
21.147737 17.572653 -4.625706 27.882290 0.693328 1.737468 0.043907 -0.034701 475513.000000 0 0 1
22.014937 16.723453 -3.896506 27.919780 0.649643 1.710814 0.051136 -0.033888 1487290.000000 0 0 1
23.560037 16.817153 -4.260206 29.258184 0.619928 1.716923 0.038442 -0.025014 1457530.000000 0 0 1
24.307837 17.930753 -3.888306 30.454914 0.635552 1.698820 0.038029 -0.023583 516363.000000 0 0 1
25.721537 17.745053 -3.831206 31.482734 0.603909 1.692791 0.033851 -0.016632 567708.000000 0 0 1
26.346937 19.039153 -3.219606 32.665216 0.625755 1.669520 0.034314 -0.011390 -239571.000000 0 0 1
26.146637 20.190753 -4.046306 33.281913 0.657566 1.692675 0.031186 -0.011412 195052.000000 0 0 1
26.173337 21.386353 -3.272106 33.957714 0.685084 1.667304 0.027292 0.010631 -386619.000000 0 0 1
26.120437 22.727953 -4.091606 34.865145 0.716060 1.688423 0.014875 0.009864 -185939.000000 0 0 1
27.169537 23.261653 -4.874606 36.097784 0.708063 1.706249 0.010631 0.016223 117706.000000 0 0 1
27.656037 22.420053 -5.936606 36.093746 0.681216 1.736025 0.025359 0.005597 -341361.000000 0 0 1
28.539337 23.173953 -6.938906 37.412221 0.682016 1.757348 0.007176 0.006210 -276456.000000 0 0 1
27.939337 24.034153 -7.900506 37.691711 0.710401 1.781971 0.003989 0.008686 -387158.000000 0 0 1
28.819137 24.933253 -8.499706 39.044267 0.713231 1.790248 -0.009126 0.008632 -442198.000000 0 0 1
29.688537 24.388853 -9.645406 39.613877 0.687708 1.816754 -0.009866 0.004202 43230.100000 0 0 1
29.054537 24.205053 -10.879206 39.349814 0.694595 1.850920 -0.005460 0.002552 -339618.000000 0 0 1
30.040837 23.677053 -11.714806 40.003643 0.667481 1.867996 -0.013520 -0.005400 26390.500000 0 0 1
29.536537 22.989253 -13.008706 39.624982 0.661389 1.905295 -0.009398 -0.001900 33067.700000 0 0 1
29.247637 23.835153 -14.091906 40.275559 0.683786 1.928247 -0.014177 0.006211 62813.600000 0 0 1
29.036737 23.008453 -15.244406 40.061365 0.670084 1.961162 -0.007564 0.005941 -39578.700000 0 0 1
28.979237 23.746753 -16.576906 40.969480 0.686483 1.987355 -0.010091 0.007502 634313.000000 0 0 1
30.278137 24.358853 -16.851306 42.356650 0.677481 1.979961 -0.016608 0.009561 1209940.000000 0 0 1
30.396037 24.810253 -18.172906 43.240285 0.684561 2.004547 -0.013592 0.010502 -101977.000000 0 0 1
31.765137 25.431853 -18.475006 44.689249 0.675120 1.996993 -0.011463 0.008572 -667313.000000 0 0 1
32.782737 24.522753 -18.643506 44.985038 0.642245 1.998121 -0.000251 0.008117 -981743.000000 0 0 1
34.013237 25.201153 -18.831706 46.331756 0.637666 1.989365 0.021557 0.005442 -188633.000000 0 0 1
35.117037 24.154153 -19.009806 46.669071 0.602504 1.990327 0.022154 -0.009918 -586128.000000 0 0 1
35.011937 23.369253 -20.168006 46.676613 0.588555 2.017594 0.015230 0.001028 43545.500000 0 0 1
-34.801265 23.802453 -21.273906 47.225670 -0.599875 2.038092 0.011292 0.000077 -391242.000000 0 0 1
-34.799765 22.722353 -22.435306 47.229990 -0.578443 2.065786 0.019137 -0.001065 -106940.000000 0 0 1
-34.234665 21.500653 -22.022906 46.035842 -0.560781 2.069612 0.011402 -0.005501 229497.000000 0 0 1
-34.135565 20.614753 -23.122806 46.096302 -0.543288 2.096266 0.005746 -0.004341 -37457.700000 0 0 1
-33.802865 19.166853 -22.737506 45.022174 -0.515815 2.100212 -0.007822 0.000638 471583.000000 0 0 1
-34.887865 18.277553 -22.426006 45.322818 -0.482580 2.088408 -0.003394 -0.008453 612376.000000 0 0 1
-34.468065 16.915753 -22.630206 44.568110 -0.456233 2.103387 -0.011044 -0.003978 329199.000000 0 0 1
34.924937 15.911353 -22.428506 44.451775 0.427491 2.099666 -0.006185 -0.003802 218098.000000 0 0 1
33.877637 16.067553 -23.353106 44.172708 0.442862 2.127838 0.036315 -0.013472 1864.380000 0 0 1
32.854137 15.108153 -23.374106 43.058094 0.431019 2.144624 0.048550 -0.014164 -293646.000000 0 0 1
33.259237 13.786053 -23.986206 43.261648 0.392946 2.158492 0.025993 -0.017566 -632189.000000 0 0 1
33.194337 13.833153 -25.426976 44.042607 0.394847 2.186247 0.027870 -0.011149 183366.000000 0 0 1
33.885837 12.746653 -25.983326 44.562993 0.359791 2.193298 0.018405 -0.003752 -425656.000000 0 0 1
33.612137 12.614653 -27.514036 45.231929 0.359034 2.224698 0.036115 -0.011765 811024.000000 0 0 1
32.232137 12.379553 -27.865176 44.369269 0.366703 2.249814 0.034946 -0.014957 990860.000000 0 0 1
31.593637 13.500853 -28.437016 44.599269 0.403841 2.262190 0.034897 -0.012386 -80817.900000 0 0 1
31.805437 13.643453 -30.017596 45.812506 0.405225 2.285280 0.039131 -0.016579 -127933.000000 0 0 1
33.087537 14.217853 -30.193166 46.995316 0.405848 2.268516 0.042003 -0.011681 296975.000000 0 0 1
33.509537 14.041353 -31.549796 48.119002 0.396799 2.285855 0.039852 -0.017348 429177.000000 0 0 1
35.003937 14.476253 -31.739836 49.419174 0.392142 2.268236 0.055797 -0.021530 565462.000000 0 0 1
-34.552965 13.594953 -31.351736 48.596929 -0.374849 2.272000 0.044162 -0.015156 -94134.600000 0 0 1
-34.123165 13.666653 -30.025046 47.462313 -0.380946 2.255713 0.029862 -0.018804 -186659.000000 0 0 1
-32.913265 12.745853 -29.771406 46.174413 -0.369472 2.271505 0.022596 -0.010635 186533.000000 0 0 1
-33.373465 11.411753 -29.922286 46.253211 -0.329477 2.274339 0.021851 -0.019533 17266.500000 0 0 1
-32.312365 10.534653 -29.766376 45.178590 -0.315159 2.290099 0.026365 -0.023663 -501219.000000 0 0 1
-32.722665 9.151053 -30.181146 45.446850 -0.272689 2.297083 0.030857 -0.013997 -351906.000000 0 0 1
-32.750665 8.956953 -31.574396 46.365672 -0.266961 2.319905 0.025440 -0.016185 187616.000000 0 0 1
-33.159765 7.635353 -32.098526 46.778029 -0.226315 2.327032 0.018966 -0.006760 -254215.000000 0 0 1
-34.532365 7.005153 -31.753856 47.432729 -0.200142 2.304265 0.014807 0.011395 -69260.800000 0 0 1
-34.554065 6.367053 -30.498306 46.526008 -0.182220 2.285655 0.016139 0.000711 187451.000000 0 0 1
34.773737 5.747853 -30.244786 46.443489 0.163812 2.279983 0.022442 0.005499 -184710.000000 0 0 1
34.720437 4.972253 -28.889306 45.440335 0.142241 2.259794 0.027564 -0.000015 205324.000000 0 0 1
-34.922465 3.876253 -28.839046 45.456512 -0.110543 2.258069 0.027683 0.009244 654173.000000 0 0 1
35.245137 2.871253 -27.962326 45.081653 0.081286 2.239870 0.026806 0.019840 -203025.000000 0 0 1
-34.322565 1.670853 -28.016636 44.336916 -0.048643 2.254803 0.027052 0.018674 644433.000000 0 0 1
-33.114965 1.976253 -27.298216 42.961600 -0.059608 2.259335 0.018823 0.014011 404551.000000 0 0 1
-32.319165 0.814353 -27.181906 42.237988 -0.025192 2.269913 0.028025 0.011219 -258494.000000 0 0 1
-31.143665 0.987853 -26.231356 40.730674 -0.031709 2.270537 0.017525 0.009430 -413696.000000 0 0 1
-31.532265 0.968653 -24.900806 40.190449 -0.030710 2.238991 0.029292 0.013489 359708.000000 0 0 1
-30.427565 0.956053 -24.012506 38.773073 -0.031410 2.238658 0.048208 0.010262 6683.910000 0 0 1
-30.943365 0.682553 -22.628406 38.340611 -0.022055 2.202096 0.045231 0.012870 -463368.000000 0 0 1
-31.405665 -0.623947 -22.438106 38.602768 0.019865 2.191068 0.052877 0.003023 88369.500000 0 0 1
-31.718665 -0.928347 -21.068606 38.089653 0.029260 2.156915 0.038320 0.003569 -212181.000000 0 0 1
-33.214465 -0.652947 -20.801106 39.195829 0.019656 2.130219 0.029752 0.007650 -532030.000000 0 0 1
-33.972065 -1.807047 -21.071706 40.017289 0.053142 2.125351 0.009718 0.008297 215364.000000 0 0 1
-35.216565 -1.709247 -20.374106 40.721397 0.048497 2.094775 0.001331 0.013345 622229.000000 0 0 1
34.633237 -3.116747 -20.149706 40.189375 -0.089751 2.095977 -0.007383 0.012677 20331.600000 0 0 1
34.100537 -3.872547 -21.192106 40.335451 -0.113078 2.123977 -0.016733 0.014435 -416109.000000 0 0 1
35.071437 -4.478647 -22.000406 41.642308 -0.127013 2.127415 -0.024301 0.019105 -820787.000000 0 0 1
34.655337 -5.508147 -23.071806 41.995718 -0.157622 2.152424 -0.026637 0.015003 -836817.000000 0 0 1
34.197437 -6.754147 -22.561906 41.522558 -0.194995 2.145237 -0.022319 0.020440 376177.000000 0 0 1
33.674037 -7.533347 -23.638906 41.826905 -0.220090 2.171424 -0.021036 0.019459 214251.000000 0 0 1
32.223937 -7.334247 -24.143206 40.927591 -0.223790 2.201732 -0.021340 0.020100 -283312.000000 0 0 1
32.106737 -6.107847 -24.836206 41.048575 -0.187989 2.220618 -0.010473 0.016581 -1466980.000000 0 0 1
30.794137 -5.916947 -25.142226 40.192296 -0.189832 2.246631 -0.006317 0.010051 -1445790.000000 0 0 1
30.547437 -4.732047 -26.094956 40.453491 -0.153687 2.271899 0.012461 -0.011704 -27246.500000 0 0 1
30.936137 -5.021947 -27.417656 41.641234 -0.160929 2.289521 0.022621 -0.012908 168126.000000 0 0 1
30.662837 -3.935947 -28.276056 41.895544 -0.127664 2.311650 0.034931 -0.017627 -122512.000000 0 0 1
30.247837 -4.385847 -29.659366 42.589263 -0.143994 2.341172 0.054765 -0.016224 -158981.000000 0 0 1
30.005237 -3.280547 -30.452936 42.877238 -0.108900 2.360629 0.043612 -0.017189 -116141.000000 0 0 1
29.514137 -3.758447 -31.650706 43.439353 -0.126662 2.387099 0.047789 -0.020276 -522373.000000 0 0 1
29.185737 -2.593047 -32.629686 43.854618 -0.088614 2.409896 0.052717 -0.017202 201683.000000 0 0 1
28.259137 -1.583447 -32.213606 42.881261 -0.055975 2.420717 0.053118 -0.018133 970930.000000 0 0 1
26.885637 -1.934447 -31.990006 41.832285 -0.071827 2.441404 0.069117 -0.028488 948615.000000 0 0 1
25.970937 -2.084947 -33.263616 42.252867 -0.080108 2.477135 0.069343 -0.029429 -483013.000000 0 0 1
26.148637 -3.320047 -33.984796 43.008607 -0.126292 2.481909 0.074820 -0.029023 131816.000000 0 0 1
25.425637 -3.322247 33.843634 42.460475 -0.129929 0.648382 0.070208 -0.027522 -782778.000000 0 0 1
25.661837 -4.712047 33.195375 42.221632 -0.181598 0.666133 0.063267 -0.024194 -38999.600000 0 0 1
26.946537 -5.077747 32.698426 42.674189 -0.186254 0.697836 0.062283 -0.020963 274710.000000 0 0 1
27.412137 -4.437947 31.521356 42.008529 -0.160504 0.722196 0.059969 -0.022793 -246223.000000 0 0 1
28.124537 -3.101347 31.748616 42.527433 -0.109828 0.727943 0.050006 -0.022051 -184973.000000 0 0 1
29.458937 -3.015147 32.253516 43.785950 -0.101996 0.742740 0.051889 -0.023033 465069.000000 0 0 1
29.927737 -1.726647 31.943906 43.807121 -0.057630 0.753652 0.045219 -0.017488 440342.000000 0 0 1
31.324037 -1.492647 32.643396 45.266042 -0.047616 0.765342 0.035139 -0.017928 545619.000000 0 0 1
32.315837 -2.136847 31.891696 45.452830 -0.066028 0.793094 0.045813 -0.014677 -1070860.000000 0 0 1
33.552237 -2.073247 32.508066 46.763504 -0.061713 0.802155 0.042640 -0.013810 -604150.000000 0 0 1
34.769237 -2.536147 31.702706 47.121051 -0.072813 0.832819 0.033502 -0.005694 -271447.000000 0 0 1
35.168737 -1.742947 30.634646 46.672899 -0.049519 0.854800 0.015062 0.000455 645051.000000 0 0 1
-34.260065 -2.340447 29.984286 45.588235 0.068208 0.853009 0.017019 -0.004778 575469.000000 0 0 1
-33.977865 -1.610547 28.637556 44.465703 0.047364 0.871033 0.018490 0.000524 -295635.000000 0 0 1
-34.957865 -1.746047 27.649806 44.605076 0.049906 0.902206 0.032113 -0.010445 -319973.000000 0 0 1
-34.471365 -1.346647 26.413616 43.448447 0.039046 0.917345 0.019298 -0.005610 -253774.000000 0 0 1
-26.211993 15.236853 13.133694 33.041250 -0.526551 1.162012 0.054117 -0.004378 -416214.000000 0 0 1
-27.492163 14.703553 13.323694 33.904783 -0.491120 1.166933 0.014059 0.007446 -834242.000000 0 0 1
-28.318033 15.712153 13.766194 35.189357 -0.506556 1.168858 0.020859 0.001831 -895387.000000 0 0 1
-29.643623 15.063553 14.183194 36.149938 -0.470150 1.167618 0.025887 0.004528 147264.000000 0 0 1
-30.637823 16.013953 14.621194 37.535346 -0.481631 1.170674 0.007238 0.001634 557151.000000 0 0 1
-31.832473 15.313953 14.963294 38.363051 -0.448397 1.170116 0.003963 0.003534 209259.000000 0 0 1
-32.646463 15.980453 16.110694 39.758281 -0.455213 1.153581 0.019303 0.006319 -73805.400000 0 0 1
-31.979523 16.082453 17.349194 39.778508 -0.465964 1.119486 0.018843 0.010713 -190702.000000 0 0 1
-32.831393 16.648053 18.269294 41.095318 -0.469293 1.110114 0.010099 0.008031 -710481.000000 0 0 1
-32.137353 16.849953 19.621894 41.252262 -0.482906 1.075086 0.013281 0.008869 -210755.000000 0 0 1
-31.631663 15.632853 20.121794 40.618159 -0.459009 1.052514 0.004682 0.005261 629473.000000 0 0 1
-30.469413 15.805453 20.955194 40.215888 -0.478521 1.022695 0.014594 0.005170 732816.000000 0 0 1
-30.762673 16.335053 22.382394 41.402265 -0.488141 0.999637 0.017604 -0.012009 -15310.100000 0 0 1
-31.350493 17.682053 22.323294 42.353723 -0.513537 1.015650 0.020157 -0.010758 424707.000000 0 0 1
-31.472893 18.359153 23.614794 43.419581 -0.528074 0.995749 0.022392 -0.014719 -1236740.000000 0 0 1
-32.153853 17.697053 24.792694 44.291462 -0.503140 0.976697 0.010481 -0.010348 -212464.000000 0 0 1
-33.525663 17.416253 24.624994 45.096411 -0.479118 0.993152 0.019255 -0.007827 458250.000000 0 0 1
-34.445773 18.543353 24.544994 46.182507 -0.493843 1.010452 0.014181 -0.007589 174883.000000 0 0 1
34.745177 17.984953 24.063894 45.932089 0.477648 1.019371 -0.008956 -0.014489 327295.000000 0 0 1
34.121279 17.261053 25.094894 45.737942 0.468335 0.990027 -0.000778 -0.006991 357082.000000 0 0 1
33.226489 16.181253 24.711294 44.457626 0.453192 0.981424 0.007062 -0.002237 539918.000000 0 0 1
32.759319 15.452153 25.911194 44.534615 0.440742 0.949830 0.013419 -0.011810 -985017.000000 0 0 1
31.960289 16.225853 26.759994 44.730701 0.469779 0.929485 0.013412 -0.013460 101381.000000 0 0 1
31.555839 15.580053 27.974094 44.956189 0.458619 0.899180 0.020245 -0.008918 635148.000000 0 0 1
30.665419 14.234853 27.797094 43.768452 0.434599 0.882666 0.025642 -0.005579 522138.000000 0 0 1
31.371319 13.093353 27.226394 43.553095 0.395388 0.895497 0.018639 -0.001003 415422.000000 0 0 1
30.590629 11.979753 27.588694 42.900316 0.373257 0.872272 0.018964 0.003677 308537.000000 0 0 1
31.268799 10.595153 27.269194 42.820602 0.326699 0.880424 0.023997 0.001119 -150292.000000 0 0 1
32.225009 10.147653 28.191594 44.002182 0.305070 0.875405 0.025023 0.004350 -240710.000000 0 0 1
32.698569 8.916153 27.773094 43.818249 0.266205 0.884308 0.030261 0.007778 -291485.000000 0 0 1
33.735609 8.236253 28.679094 45.037957 0.239457 0.880487 0.028108 0.005773 333088.000000 0 0 1
34.969022 8.944253 28.723194 46.128668 0.250408 0.898639 0.028794 0.003513 -447625.000000 0 0 1
-34.540985 8.180753 29.133894 45.921543 -0.232557 0.883529 0.026769 0.007404 -307381.000000 0 0 1
-33.237723 8.978053 29.434394 45.296084 -0.263820 0.863446 0.029945 0.001522 678099.000000 0 0 1
-32.515773 9.280553 28.231694 44.050343 -0.278025 0.875131 0.038488 -0.004042 308934.000000 0 0 1
-31.379713 10.108053 28.362794 43.489162 -0.311625 0.860339 0.039198 -0.003175 182553.000000 0 0 1
-30.704233 10.507253 27.030494 42.235055 -0.329717 0.876296 0.035864 -0.004680 45738.400000 0 0 1
-29.940513 9.525253 26.348394 41.004910 -0.308014 0.872953 0.028486 -0.004426 162699.000000 0 0 1
-29.439093 10.050653 25.138394 39.995183 -0.328997 0.891127 0.032335 -0.004005 -250973.000000 0 0 1
-28.441173 9.086653 24.486494 38.614194 -0.309240 0.883911 0.021524 -0.004509 -393163.000000 0 0 1
-27.788263 9.692553 23.417194 37.609814 -0.335606 0.898691 0.019670 -0.009490 44086.800000 0 0 1
-26.872913 8.663253 22.955794 36.389200 -0.311859 0.888160 -0.009426 0.000039 -100696.000000 0 0 1
-26.042423 9.202453 21.812694 35.194979 -0.339669 0.902350 0.000209 0.004859 -1723490.000000 0 0 1
-25.128043 10.150253 22.322194 35.110205 -0.383899 0.881784 0.006547 -0.000858 482958.000000 0 0 1
-24.335963 10.884953 21.340094 34.148513 -0.420588 0.895767 0.008280 -0.002649 741939.000000 0 0 1
-23.553863 10.013153 20.317394 32.677885 -0.401970 0.899824 0.012570 -0.005102 -1650440.000000 0 0 1
-24.401463 9.464653 19.375094 32.563865 -0.370008 0.933546 0.010494 -0.003445 -230376.000000 0 0 1
-23.839463 8.571253 18.378194 31.297674 -0.345149 0.943193 0.013516 -0.002755 -612131.000000 0 0 1
-23.816763 7.065453 18.746994 31.122478 -0.288389 0.924340 0.008527 -0.000432 -626358.000000 0 0 1
-22.828363 6.776453 19.700094 30.905472 -0.288559 0.879637 -0.001457 0.008970 241263.000000 0 0 1
-22.820863 5.454953 20.190294 30.954746 -0.234631 0.860245 0.002614 0.006585 -448840.000000 0 0 1
-22.727863 4.192853 19.245194 30.075127 -0.182430 0.876423 -0.004501 0.002166 -922721.000000 0 0 1
-23.952963 3.981953 18.612894 30.594774 -0.164734 0.916793 0.008850 0.000371 37043.600000 0 0 1
-23.886963 3.043453 17.546794 29.794959 -0.126728 0.941077 0.013436 0.002012 -169888.000000 0 0 1
-23.849663 1.609053 17.989394 29.916781 -0.067364 0.925651 0.015542 0.007417 61373.100000 0 0 1
-22.548063 1.157753 18.337994 29.086725 -0.051301 0.888652 0.005244 0.005609 434366.000000 0 0 1
-22.622563 -0.140447 18.849194 29.446429 0.006208 0.876144 0.014113 0.006865 -522934.000000 0 0 1
-21.351863 -0.975247 19.051294 28.632236 0.045643 0.842795 0.019165 0.013711 -670517.000000 0 0 1
-20.484463 -0.505147 20.024694 28.650598 0.024655 0.796899 0.010914 0.009637 -526948.000000 0 0 1
-19.617463 -1.493847 20.468894 28.391056 0.076002 0.765606 0.016610 0.008874 -368431.000000 0 0 1
-18.508563 -1.001747 21.429694 28.333764 0.054071 0.713111 0.015494 0.004947 13602.100000 0 0 1
-18.954663 -0.828747 22.712894 29.594621 0.043695 0.695916 0.017950 0.002786 498802.000000 0 0 1
-17.880963 -0.840947 23.690694 29.693181 0.046996 0.647077 0.017675 -0.001563 179510.000000 0 0 1
-18.406163 -0.925047 25.131694 31.164797 0.050215 0.632736 0.021540 0.004274 87789.600000 0 0 1
-19.017063 0.230853 25.712594 31.981861 -0.012139 0.636848 0.009421 -0.003244 -399519.000000 0 0 1
-20.397563 0.239753 25.490594 32.647947 -0.011753 0.674896 0.018618 0.004015 -942783.000000 0 0 1
-21.174663 1.389053 26.045194 33.595356 -0.065506 0.683667 0.008670 -0.004408 -704143.000000 0 0 1
-20.797463 2.607553 25.465694 32.982349 -0.124728 0.688656 0.007398 -0.008221 -427549.000000 0 0 1
-21.845363 3.304753 24.885594 33.278132 -0.150141 0.726045 -0.002641 -0.003098 -1153640.000000 0 0 1
-21.349963 4.407253 23.833094 32.299554 -0.203570 0.740877 -0.006770 0.007933 -14787.600000 0 0 1
-20.977963 3.956453 22.542294 31.046473 -0.186411 0.758189 0.000877 0.006845 60704.300000 0 0 1
-19.885763 3.087353 22.548594 30.222747 -0.154025 0.728641 0.001591 0.006446 -1121370.000000 0 0 1
-19.587663 2.442553 21.186194 28.956820 -0.124058 0.750060 0.007741 0.000857 -443256.000000 0 0 1
-18.992563 3.357853 20.316294 28.013290 -0.174990 0.759417 -0.004147 0.006702 67466.300000 0 0 1
-18.804063 2.707653 19.030594 26.890290 -0.143010 0.784541 0.005877 -0.003181 -43797.100000 0 0 1
-18.496363 3.730153 17.887094 25.999570 -0.199000 0.812099 -0.000911 -0.005032 432834.000000 0 0 1
-17.107563 3.994353 17.677994 24.922581 -0.229375 0.782268 -0.002856 -0.008065 619971.000000 0 1 0
-16.898563 4.922253 16.641494 24.222496 -0.283440 0.813408 0.004012 -0.003775 829902.000000 0 1 0
-15.411763 5.417053 16.416394 23.159553 -0.338000 0.782945 0.015299 -0.014175 847645.000000 0 1 0
-14.888163 6.311653 17.419994 23.768688 -0.400971 0.748226 0.005631 -0.014970 438825.000000 0 1 0
-15.441463 7.674053 17.380594 24.482952 -0.461226 0.781432 0.004421 -0.017801 -326911.000000 0 1 0
-15.129163 8.609953 16.213794 23.788863 -0.517386 0.820889 0.013817 -0.020882 -107969.000000 0 1 0
-15.541863 8.055953 14.976894 23.038126 -0.478211 0.863091 0.002797 -0.016046 1296950.000000 0 1 0
-16.946763 8.328353 14.732994 23.950268 -0.456778 0.908221 0.008939 -0.014360 1009760.000000 0 1 0
-17.451463 7.612153 13.425194 23.296658 -0.411310 0.956638 0.010168 -0.007576 -171427.000000 0 1 0
-17.387663 6.243053 13.519994 22.893160 -0.344715 0.939032 0.020867 -0.007920 149748.000000 0 1 0
-17.993963 5.545953 12.477194 22.588065 -0.298974 0.985580 0.032035 -0.005741 -125100.000000 0 1 0
-17.633363 4.066653 12.439794 21.959545 -0.226660 0.968560 0.019264 -0.002928 -205521.000000 0 1 0
-18.215863 3.409653 13.543494 22.953641 -0.185039 0.939692 0.007387 0.003000 490789.000000 0 1 0
-17.779063 2.057153 13.625894 22.494265 -0.115194 0.920089 0.012138 -0.000513 -148599.000000 0 1 0
-18.555563 1.462453 14.826094 23.796234 -0.078652 0.898168 0.018626 0.006901 1343150.000000 0 1 0
-19.947363 1.319053 14.438594 24.659890 -0.066031 0.945288 0.027477 0.013588 1272170.000000 0 1 0
-20.701363 0.632953 15.433994 25.829348 -0.030566 0.930370 0.011837 0.007725 -126913.000000 0 0 1
-22.099163 0.179853 15.019394 26.720545 -0.008138 0.973884 0.009906 0.002940 -271413.000000 0 0 1
-21.995763 -0.959247 14.162294 26.178318 0.043583 0.999179 0.014771 0.007130 1059110.000000 0 0 1
-23.314663 -1.403147 13.801294 27.129653 0.060111 1.037103 0.024153 -0.003543 724015.000000 0 0 1
-23.336963 -2.553747 12.788894 26.733710 0.108996 1.071986 0.021588 -0.006696 -197317.000000 0 0 1
-22.791063 -3.775547 13.221994 26.617822 0.164168 1.050964 0.026445 -0.006905 132430.000000 0 0 1
-22.657663 -4.673847 12.127994 26.120926 0.203428 1.087950 0.028776 -0.007233 -258025.000000 0 0 1
-22.498863 -6.043047 12.779094 26.571084 0.262400 1.069070 0.033695 -0.011534 -644360.000000 0 0 1
-23.462263 -6.540447 13.628594 27.910460 0.271863 1.060659 0.028861 -0.015678 -509381.000000 0 0 1
-23.448563 -7.986947 13.707094 28.310967 0.328290 1.065391 0.032220 -0.015770 287331.000000 0 0 1
-24.405963 -8.310847 14.944894 29.800521 0.328209 1.045467 0.039440 -0.005598 230174.000000 0 0 1
-25.745753 -7.988847 14.695294 30.702070 0.300877 1.071689 0.036564 -0.014493 -620636.000000 0 0 1
-26.474843 -8.381147 15.821694 31.960709 0.306589 1.052920 0.032988 -0.009966 689024.000000 0 0 1
-27.966543 -7.839247 15.936094 33.129147 0.273294 1.068968 0.032898 -0.017305 2192930.000000 0 0 1
-29.006003 -8.279047 14.987694 33.682663 0.278032 1.109658 0.031758 -0.016540 1511710.000000 0 0 1
-29.341033 -9.682447 14.958694 34.327955 0.318745 1.119916 0.034076 -0.022442 -361473.000000 0 0 1
-29.723503 -10.451147 16.260394 35.455797 0.338110 1.094366 0.032290 -0.019991 -38557.100000 0 0 1
-28.574983 -10.543547 17.105794 34.932853 0.353481 1.059078 0.031706 -0.016703 594631.000000 0 0 1
-28.873833 -11.057447 18.373494 35.965965 0.365729 1.034614 0.032292 -0.006315 470614.000000 0 0 1
-27.593453 -11.084647 19.291994 35.446425 0.381982 0.995292 0.039020 -0.004536 359680.000000 0 0 1
-26.709803 -12.059447 18.881094 34.861720 0.424100 0.998458 0.042160 -0.005305 -605877.000000 0 0 1
-25.563863 -12.144747 19.682494 34.473273 0.443509 0.963135 0.046278 -0.009792 261827.000000 0 0 1
-24.488263 -13.170247 19.179794 33.778616 0.493443 0.966955 0.054896 -0.006159 5305.330000 0 0 1
-23.975263 -12.870447 17.943394 32.594892 0.492669 0.987837 0.049563 -0.007607 -837818.000000 0 0 1
-22.892563 -13.672947 17.682794 31.995314 0.538407 0.985234 0.045195 -0.007619 -873026.000000 0 0 1
-22.480863 -13.528147 16.187794 30.829282 0.541715 1.017989 0.038505 -0.011230 98416.600000 0 0 1
-21.777863 -12.309547 15.869594 29.625061 0.514462 1.005482 0.035533 -0.016382 125374.000000 0 0 1
-21.709763 -12.110347 14.485494 28.771580 0.508834 1.043191 0.035973 -0.009396 111509.000000 0 0 1
-20.509663 -11.253047 14.031994 27.279556 0.501822 1.030515 0.015770 -0.010738 -44735.800000 0 0 1
-20.777363 -9.867947 13.929194 26.890475 0.443397 1.026288 0.009599 -0.009918 -91995.000000 0 0 1
-19.666863 -9.075247 13.576594 25.563050 0.432334 1.010895 0.010782 -0.011116 -117375.000000 0 0 1
-19.181863 -9.045747 12.074894 24.404353 0.440653 1.053210 0.017153 -0.004640 -314443.000000 0 1 0
-18.440963 -10.182847 11.697094 24.095259 0.504520 1.063916 0.004873 -0.014503 202352.000000 0 1 0
-18.207563 -10.321047 10.312694 23.332188 0.515691 1.112976 0.010163 -0.007312 -837872.000000 0 1 0
-17.723963 -11.670247 9.810094 23.378868 0.582289 1.137777 0.008499 -0.010492 1875340.000000 0 1 0
-16.298063 -11.950047 10.028994 22.561276 0.632674 1.110155 0.014153 -0.011178 1884420.000000 0 1 0
-15.817963 -11.966547 11.368994 22.861763 0.647658 1.050321 0.025844 -0.009941 -1077870.000000 0 1 0
-14.318363 -12.274947 11.310194 21.991142 0.708709 1.030597 0.032869 -0.008485 -249747.000000 0 1 0
-13.991763 -13.653447 10.969694 22.416963 0.773161 1.059454 0.022914 -0.011860 961817.000000 0 1 0
-12.568763 -13.874347 10.924794 21.675387 0.834731 1.042551 0.028070 -0.007487 1029300.000000 0 1 0
-12.184463 -15.341547 10.793794 22.368062 0.899594 1.067228 0.032428 -0.007570 -61344.700000 0 1 0
-12.576863 -15.888047 9.504394 22.381711 0.901203 1.132221 0.022813 -0.013611 214946.000000 0 1 0
-12.290863 -17.237347 9.638794 23.261508 0.951374 1.143550 0.014046 -0.007998 46001.300000 0 1 0
-12.680463 -18.061247 8.407994 23.615612 0.958675 1.206774 -0.000230 -0.003232 -446477.000000 0 1 0
-11.873063 -17.858347 7.313194 22.657735 0.984055 1.242144 0.002242 -0.009050 -452423.000000 0 1 0
-12.245963 -18.653447 6.205394 23.160777 0.989866 1.299556 -0.009288 -0.004817 -594926.000000 0 1 0
-11.392563 -18.388347 4.975794 22.196403 1.016123 1.344704 -0.002251 -0.006312 -561499.000000 0 1 0
-11.550763 -19.302347 3.895894 22.829339 1.031545 1.399304 -0.004395 -0.006015 113260.000000 0 1 0
-10.973963 -18.855347 2.676994 21.979951 1.043711 1.448701 0.001341 -0.019429 -81559.900000 0 1 0
-11.443563 -19.708847 1.500994 22.839587 1.044741 1.505030 0.014637 -0.021245 -31748.500000 0 1 0
-11.220663 -21.082447 1.658794 23.940017 1.081700 1.501451 0.007263 -0.022861 179011.000000 0 1 0
-11.832063 -21.905047 0.618494 24.904042 1.075545 1.545959 0.021362 -0.026259 -120192.000000 0 1 0
-10.979263 -22.110547 -0.632406 24.694542 1.109903 1.596408 0.031933 -0.021916 -281403.000000 0 1 0
-10.894863 -20.948047 -1.379806 23.652115 1.091206 1.629167 0.029251 -0.037112 -354069.000000 0 1 0
-11.830063 -20.880347 -2.408206 24.119260 1.055325 1.670809 0.036561 -0.026845 -302943.000000 0 1 0
-12.884463 -19.801947 -2.121606 23.719774 0.993953 1.660361 0.038294 -0.028579 -394011.000000 0 1 0
-13.750763 -20.045947 -1.056006 24.331844 0.969554 1.614210 0.035615 -0.018980 -454538.000000 0 1 0
-14.604163 -18.964747 -0.841206 23.951009 0.914574 1.605926 0.034661 -0.015937 -260520.000000 0 1 0
25.315437 -20.466747 -4.312506 32.838343 -0.679884 1.702502 0.029583 -0.013269 -7784.240000 0 0 1
24.011937 -20.535847 -3.777706 31.820829 -0.707525 1.689795 0.014303 -0.011802 99657.000000 0 0 1
24.032237 -21.234747 -2.538506 32.169969 -0.723677 1.649788 0.008226 -0.023464 -442618.000000 0 0 1
22.646337 -21.605747 -1.999206 31.363381 -0.761887 1.634583 0.008826 -0.011723 -255434.000000 0 0 1
22.043537 -22.620147 -2.793506 31.707921 -0.798307 1.659012 0.020184 -0.012125 -880324.000000 0 0 1
20.825437 -22.967347 -2.259106 31.085389 -0.834269 1.643535 0.002659 -0.008413 -1220760.000000 0 0 1
19.831537 -23.553247 -3.226406 30.958924 -0.870972 1.675202 0.003985 -0.014098 -813420.000000 0 0 1
19.271737 -22.770647 -4.148206 30.118264 -0.868430 1.708966 0.000154 -0.011788 -391513.000000 0 0 1
18.281737 -23.487947 -4.903406 30.165360 -0.909400 1.734072 0.004984 -0.013307 582562.000000 0 0 1
17.220737 -22.448847 -5.422006 28.808031 -0.916434 1.760137 -0.003414 -0.002548 -355002.000000 0 0 1
16.408437 -21.850547 -4.439406 27.683777 -0.926694 1.731853 -0.001425 -0.004732 -180691.000000 0 0 1
16.916537 -20.875347 -3.566706 27.104810 -0.889770 1.702769 -0.007058 -0.008481 -732214.000000 0 0 1
15.923137 -20.362847 -2.504506 25.970452 -0.907146 1.667383 0.012166 0.004171 -341252.000000 0 0 1
15.461137 -21.354247 -1.624606 26.413821 -0.944124 1.632341 0.008349 0.001731 71578.000000 0 0 1
14.689637 -20.773747 -0.605906 25.449972 -0.955304 1.594606 0.012937 0.010266 -402958.000000 0 0 1
14.315437 -21.662547 0.637794 25.973148 -0.986840 1.546238 0.010017 0.006753 -626128.000000 0 0 1
13.297237 -22.568347 0.383494 26.197211 -1.038357 1.556157 0.011793 0.000600 -564614.000000 0 0 1
12.610537 -22.819747 1.593194 26.120964 -1.065948 1.509766 0.014137 -0.000881 65488.400000 0 0 1
11.554037 -23.928647 1.544994 26.616966 -1.120960 1.512718 0.016194 -0.009757 -114801.000000 0 0 1
12.150737 -25.172467 1.794694 28.009184 -1.121085 1.506677 0.015674 -0.013357 79885.300000 0 0 1
11.442337 -26.252167 1.267894 28.665500 -1.159761 1.526551 0.019927 -0.012674 -142852.000000 0 0 1
12.056337 -27.563807 1.764894 30.136913 -1.158472 1.512200 0.014635 -0.008869 85288.100000 0 0 1
11.681837 -27.693967 3.123294 30.218803 -1.171623 1.467255 0.027124 -0.012164 455482.000000 0 0 1
12.345037 -28.795587 3.732094 31.551771 -1.165785 1.452234 0.031857 -0.016425 54227.300000 0 0 1
11.672937 -29.127627 5.078994 31.787926 -1.189642 1.410331 0.036997 -0.008995 -138890.000000 0 0 1
12.383337 -30.097167 5.817494 33.061000 -1.180462 1.393913 0.035062 -0.012977 -334153.000000 0 0 1
11.899737 -30.378987 7.120794 33.394495 -1.197457 1.355914 0.029228 -0.009564 240650.000000 0 0 1
12.858637 -31.320737 7.967394 34.782358 -1.181231 1.339680 0.036876 -0.002249 565718.000000 0 0 1
12.348137 -31.806367 9.206894 35.339614 -1.200479 1.307229 0.038555 -0.004848 162745.000000 0 0 1
11.342437 -32.823317 9.131494 35.908288 -1.238082 1.313672 0.024131 -0.005416 523179.000000 0 0 1
10.919337 -33.198337 10.569494 36.511309 -1.253030 1.277107 0.028145 -0.001003 525346.000000 0 0 1
11.989837 -33.860737 11.291894 37.653851 -1.230480 1.266222 0.027493 0.000400 977394.000000 0 0 1
11.649337 -33.994717 12.670294 38.103598 -1.240657 1.231820 0.026900 0.004732 559857.000000 0 0 1
10.545637 34.131161 13.135094 38.061493 1.271127 1.218449 0.021535 -0.003157 541557.000000 0 0 1
10.992537 32.796065 12.909494 36.919815 1.247386 1.213585 0.017544 0.000811 960728.000000 0 0 1
9.868137 31.902765 13.062194 35.857878 1.270812 1.197940 0.015632 0.001726 696192.000000 0 0 1
9.906437 30.759245 11.967994 34.460144 1.259222 1.216106 0.021161 0.002913 -73481.300000 0 0 1
9.649237 31.085905 10.601794 34.232138 1.269821 1.255916 0.003928 -0.002308 141401.000000 0 0 1
10.605537 31.938925 9.999894 35.107979 1.250195 1.281965 0.006385 -0.005999 107341.000000 0 0 1
10.142337 32.278985 8.579294 34.905646 1.266356 1.322467 0.002540 0.000822 479390.000000 0 0 1
8.918337 32.996825 8.467094 35.213901 1.306825 1.327969 0.002605 0.002956 122958.000000 0 0 1
8.371937 33.108375 7.187494 34.898623 1.323123 1.363358 -0.008991 0.000869 -560352.000000 0 0 1
8.957837 34.189437 6.298994 35.900387 1.314550 1.394426 0.007205 0.004206 -258158.000000 0 0 1
8.435537 -33.678977 6.692694 35.358505 -1.325376 1.380366 0.003710 0.005191 211932.000000 0 0 1
9.009837 -32.644697 5.917494 34.378338 -1.301503 1.397806 0.025873 -0.005610 -304544.000000 0 0 1
8.221837 -31.365277 6.014294 32.978037 -1.314432 1.387397 0.015468 -0.004722 -425583.000000 0 0 1
7.966037 -30.973007 7.337394 32.811922 -1.319059 1.345270 0.033690 -0.003841 14157.100000 0 0 1
7.213937 -29.811937 7.595594 31.598821 -1.333379 1.328043 0.021453 -0.001818 56923.500000 0 0 1
7.918437 -28.435437 7.242294 30.392869 -1.299206 1.330192 0.034627 -0.004469 -119691.000000 0 0 1
8.773037 -27.951277 8.246994 30.434404 -1.266665 1.296389 0.040482 -0.004455 23243.900000 0 0 1
9.608937 -26.868207 7.857194 29.596751 -1.227338 1.302100 0.039774 -0.012268 -31633.200000 0 0 1
8.964337 -25.545757 7.442794 28.077396 -1.233308 1.302508 0.023775 -0.008739 -371038.000000 0 0 1
8.711737 -25.737667 6.054494 27.838440 -1.244419 1.351557 0.021728 -0.009405 -466556.000000 0 0 1
7.887337 -24.756447 5.494294 26.557089 -1.262366 1.362405 0.029068 -0.005215 64781.400000 0 0 1
7.728237 -24.973947 3.974194 26.442728 -1.270691 1.419930 0.033155 -0.009170 5099.290000 0 0 1
7.090737 -26.172557 3.634594 27.358573 -1.306225 1.437552 0.017738 -0.006516 -457131.000000 0 0 1
7.896937 -27.318397 3.677394 28.673675 -1.289397 1.442192 0.033531 -0.010102 84061.300000 0 0 1
7.058837 -28.610397 3.466294 29.671487 -1.328904 1.453707 0.034356 -0.009702 379215.000000 0 0 1
5.981537 -28.809717 4.398894 29.751115 -1.366083 1.422396 0.033687 -0.010663 142098.000000 0 0 1
4.902037 -29.504937 3.852894 30.156526 -1.406157 1.442683 0.018445 -0.007073 52717.300000 0 0 1
5.152337 -31.031767 3.962394 31.705168 -1.406263 1.445492 0.015551 -0.008724 -869247.000000 0 0 1
5.999337 -31.536297 3.010194 32.242694 -1.382807 1.477300 0.028319 -0.012277 -504517.000000 0 0 1
6.116937 -32.891877 3.403394 33.628493 -1.386926 1.469417 0.018072 -0.001119 -382390.000000 0 0 1
7.057437 -33.757487 2.568394 34.582828 -1.364702 1.496460 0.023579 0.003671 -203901.000000 0 0 1
6.671237 -34.007003 1.218894 34.676611 -1.377084 1.535639 0.026396 -0.000453 100251.000000 0 0 1
7.572037 34.157106 0.697594 34.993289 1.352642 1.550860 0.016273 0.002319 2523.270000 0 0 1
6.998637 33.491558 -0.590006 34.220074 1.364794 1.588039 0.039514 0.003967 965006.000000 0 0 1
5.971937 32.510205 -0.338606 33.055893 1.389127 1.581040 0.020913 0.006553 635052.000000 0 0 1
4.663337 33.066365 -0.278906 33.394745 1.430691 1.579148 0.023880 0.001540 682263.000000 0 0 1
3.474537 32.097515 0.076494 32.285116 1.462967 1.568427 0.035116 0.003247 671817.000000 0 0 1
3.269737 31.160505 -0.981606 31.346958 1.466247 1.602116 0.033050 0.003846 -65625.600000 0 0 1
2.119237 30.371925 -0.778306 30.455718 1.501133 1.596354 0.026160 -0.005605 41680.200000 0 0 1
2.087537 29.275905 -1.840606 29.407894 1.499611 1.633426 0.022371 -0.001911 41162.600000 0 0 1
1.679237 29.784575 -3.099706 29.992481 1.514477 1.674331 0.027957 -0.004031 26459.300000 0 0 1
1.711937 28.862675 -4.196006 29.216283 1.511553 1.714913 0.037229 -0.013880 -66970.400000 0 0 1
1.521937 29.573825 -5.545506 30.127729 1.519379 1.755918 0.031254 -0.015589 443619.000000 0 0 1
0.251237 30.238225 -5.655006 30.763492 1.562488 1.755670 0.028935 -0.005770 582047.000000 0 0 1
0.178137 30.852155 -6.903606 31.615613 1.565023 1.790931 0.021701 -0.006794 41279.800000 0 0 1
-0.070863 29.903565 -8.088406 30.978226 -1.568427 1.834958 0.022546 -0.013397 -807850.000000 0 0 1
-1.416763 29.534185 -8.293106 30.709134 -1.522863 1.844245 0.021992 -0.010332 54111.400000 0 0 1
-1.851963 29.237155 -9.640206 30.841118 -1.507538 1.888700 0.027824 -0.018316 135042.000000 0 0 1
-1.921063 30.400835 -10.598506 32.252590 -1.507689 1.905627 0.025428 -0.023637 -513781.000000 0 0 1
-0.702463 30.883715 -11.117406 32.831296 -1.548055 1.916249 0.022448 -0.022039 -93892.500000 0 0 1
-0.816763 32.192455 -11.597206 34.227422 -1.545431 1.916467 0.015661 -0.027403 -58887.000000 0 0 1
-0.928863 33.311841 -10.532206 34.949519 -1.542920 1.876910 0.005198 -0.015440 -262686.000000 0 0 1
0.239437 33.606598 -9.799206 35.006930 1.563672 1.854509 0.009248 -0.023271 -435604.000000 0 0 1
-0.012763 34.422872 -8.689006 35.502579 -1.570426 1.818051 0.004765 -0.009026 -711273.000000 0 0 1
1.149537 -34.374713 -7.773306 35.261404 -1.537367 1.793070 0.010663 -0.013933 -661056.000000 0 0 1
2.055737 -33.439097 -8.258106 34.505008 -1.509397 1.812473 0.005512 -0.009050 -686196.000000 0 0 1
2.884737 -32.959457 -7.237906 33.867902 -1.483495 1.786167 0.015808 -0.010843 383713.000000 0 0 1
4.227137 -32.260087 -7.811406 33.460423 -1.440506 1.806423 0.002336 -0.004017 2036230.000000 0 0 1
5.130637 -33.162527 -8.511006 34.619558 -1.417301 1.819187 0.018572 -0.008278 429414.000000 0 0 1
5.772037 -34.006609 -7.582406 35.316550 -1.402666 1.787179 0.039897 -0.001403 -1404370.000000 0 0 1
5.954437 33.700806 -8.177106 35.186143 1.395916 1.805336 0.034214 -0.008114 429109.000000 0 0 1
4.806437 32.894605 -8.457506 34.302861 1.425707 1.819919 0.027635 -0.008038 -37646.900000 0 0 1
4.047337 33.298915 -9.588206 34.887424 1.449844 1.849212 0.021977 -0.014907 205711.000000 0 0 1
3.078437 32.170715 -10.067806 33.849555 1.475396 1.872794 0.027230 -0.023375 140735.000000 0 0 1
3.720737 30.943575 -10.460106 32.874953 1.451128 1.894604 0.034860 -0.027842 -77329.400000 0 0 1
2.854537 29.841565 -10.606506 31.798826 1.475430 1.910863 0.017383 -0.025273 197093.000000 0 0 1
3.580737 28.727895 -11.419606 31.121070 1.446793 1.946515 0.009860 -0.026736 60525.300000 0 0 1
3.689337 29.025615 -12.819406 31.944243 1.444368 1.983738 0.016936 -0.023083 -37609.700000 0 0 1
4.961437 28.929265 -13.445706 32.284752 1.400946 2.000358 0.016782 -0.022051 82255.900000 0 0 1
5.035737 29.539435 -14.878706 33.456132 1.401944 2.031661 0.024285 -0.019657 -392105.000000 0 0 1
4.282937 28.695075 -15.689006 32.983265 1.422633 2.066517 0.036877 -0.017785 -159649.000000 0 0 1
4.288037 29.199275 -16.986006 34.051568 1.424984 2.093047 0.044773 -0.017272 -258270.000000 0 0 1
3.247537 28.537095 -17.878506 33.831247 1.457483 2.127583 0.038488 -0.017644 -209507.000000 0 0 1
3.550837 27.204635 -18.215106 32.931606 1.441007 2.156900 0.043821 -0.003532 64755.500000 0 0 1
2.611337 26.694715 -19.131506 32.946038 1.473284 2.190375 0.042883 -0.011893 225532.000000 0 0 1
3.290637 25.534145 -19.860606 32.515604 1.442631 2.227870 0.039077 -0.007084 248279.000000 0 0 1
3.525737 24.469135 -18.970506 31.161667 1.427692 2.225314 0.040784 -0.014353 35517.900000 0 0 1
4.155337 23.417725 -19.704606 30.885727 1.395180 2.262674 0.028052 -0.002362 -207982.000000 0 0 1
4.580837 22.207825 -18.878806 29.505607 1.367378 2.265084 0.016431 0.011540 -190979.000000 0 0 1
3.565537 21.311525 -18.441406 28.407386 1.405026 2.277298 0.040534 0.011488 -345635.000000 0 0 1
4.149437 20.137625 -18.030606 27.346746 1.367587 2.290727 0.024423 0.015373 -67703.900000 0 0 1
3.125037 19.006225 -17.872406 26.275946 1.407833 2.318806 0.030149 0.002524 -116160.000000 0 0 1
2.235737 19.068925 -16.804706 25.515105 1.454084 2.289777 0.026006 0.004041 -644345.000000 0 0 1
1.576237 17.873725 -16.524906 24.393177 1.482837 2.315073 0.022814 0.004730 -170602.000000 0 1 0
2.328037 16.817125 -15.649806 23.090082 1.433238 2.315524 0.019015 -0.002140 -406557.000000 0 1 0
3.343237 16.077325 -16.230106 23.088394 1.365771 2.350340 0.018950 -0.004985 -655031.000000 0 1 0
2.982637 15.037725 -17.140006 22.995850 1.374994 2.411859 0.024933 -0.009020 -210827.000000 0 1 0
2.818737 15.463025 -18.621306 24.368083 1.390487 2.440547 0.026970 -0.002955 1243660.000000 0 1 0
4.114537 15.676925 -19.266006 25.176862 1.314127 2.442190 0.025363 0.002214 1121470.000000 0 0 1
3.943537 16.111025 -20.639806 26.478637 1.330744 2.464646 0.032012 0.003899 -525421.000000 0 0 1
4.125237 14.952325 -21.672906 26.651538 1.301600 2.520418 0.030495 -0.013998 337502.000000 0 0 1
3.134637 13.943025 -21.887306 26.139779 1.349656 2.563155 0.039581 -0.010370 -192827.000000 0 0 1
1.876637 14.438325 -22.277706 26.613590 1.441545 2.562720 0.048690 -0.016981 -221202.000000 0 0 1
0.946337 13.309425 -22.825806 26.439625 1.499813 2.612604 0.051282 -0.012847 108412.000000 0 0 1
0.558337 12.476025 -21.715506 25.050472 1.526073 2.619686 0.048004 -0.009098 -9175.440000 0 0 1
-0.109863 11.318325 -22.170606 24.892817 -1.561090 2.669553 0.047011 -0.011462 -199245.000000 0 1 0
-0.720463 10.569025 -21.014306 23.533474 -1.502734 2.674661 0.032382 -0.014258 -56243.600000 0 1 0
-1.839863 11.236225 -20.401006 23.363195 -1.408493 2.632550 0.034583 -0.012263 1293290.000000 0 1 0
-2.725263 10.438625 -19.536306 22.317240 -1.315422 2.637040 0.026852 -0.006835 1125580.000000 0 1 0
-3.555063 9.285325 -20.139606 22.460175 -1.205145 2.683010 0.033174 -0.005763 -526211.000000 0 1 0
-2.745363 8.239025 -20.629506 22.382919 -1.249153 2.743141 0.022219 -0.008792 -474297.000000 0 1 0
-3.507263 7.249425 -21.269206 22.742783 -1.120193 2.779639 0.009974 0.004391 256972.000000 0 1 0
-2.601363 6.247525 -22.068406 23.082747 -1.176247 2.844038 0.006301 -0.001927 320310.000000 0 1 0
-2.093063 5.229525 -21.214606 21.949678 -1.190083 2.882064 0.022007 -0.000044 33771.300000 0 1 0
-1.794763 4.077725 -21.995206 22.441883 -1.156174 2.941742 0.025201 -0.007942 -457605.000000 0 1 0
-1.102263 2.996225 -21.165606 21.405028 -1.218279 2.991885 0.026986 -0.009108 -266868.000000 0 1 0
0.281037 3.227625 -21.072606 21.320208 1.483943 2.989041 0.022266 -0.005503 -342189.000000 0 1 0
0.956937 2.285825 -20.257206 20.408212 1.174325 3.019868 0.021101 0.000619 610631.000000 0 1 0
2.511937 2.408125 -20.365106 20.660262 0.764302 2.972357 0.015194 0.001543 941971.000000 0 1 0
3.015937 1.793425 -21.626106 21.908919 0.536476 2.980742 0.031491 0.003650 -899011.000000 0 1 0
4.358537 2.083025 -21.729906 22.260383 0.445827 2.922843 0.051055 0.015645 -802498.000000 0 1 0
5.172537 1.115525 -22.665706 23.275175 0.212410 2.912244 0.056089 0.004570 404644.000000 0 1 0
6.563337 1.396325 -22.615806 23.590290 0.209621 2.853161 0.047500 0.006402 -15841.400000 0 1 0
7.215837 0.555225 -23.538906 24.626341 0.076794 2.843310 0.039874 -0.002632 609554.000000 0 1 0
8.765137 0.792425 -23.545706 25.136743 0.090161 2.783893 0.045171 -0.004474 772079.000000 0 0 1
9.048637 2.121025 -24.084106 25.815126 0.230246 2.773306 0.037243 -0.005259 490081.000000 0 0 1
10.433237 2.432925 -23.938206 26.226118 0.229096 2.720792 0.009553 -0.007387 -14493.300000 0 0 1
13.811537 -21.375947 22.057896 33.678486 -0.997150 0.856673 0.019251 0.008807 -828385.000000 0 0 1
12.719437 -22.140247 22.554296 34.068620 -1.049342 0.847278 0.017599 0.013679 339080.000000 0 0 1
11.443237 -21.578647 22.329096 33.093416 -1.083201 0.830199 0.003381 0.005058 411552.000000 0 0 1
10.978537 -21.426547 20.854496 31.851769 -1.097294 0.856963 0.015434 -0.008318 -1092450.000000 0 0 1
11.440037 -20.238347 20.334596 30.886258 -1.056309 0.852145 0.014424 -0.011267 -37765.000000 0 0 1
11.003037 -20.048147 18.977596 29.717741 -1.068851 0.878125 0.042379 -0.021163 187686.000000 0 0 1
11.399637 -18.663847 18.421696 28.594576 -1.022483 0.870771 0.051105 -0.022864 -109076.000000 0 0 1
10.661337 -17.651847 19.028896 28.059770 -1.027457 0.825546 0.051666 -0.023910 -461526.000000 0 0 1
10.800137 -16.434647 18.274796 26.846019 -0.989407 0.822042 0.058075 -0.022723 362190.000000 0 0 1
9.793837 -15.286147 18.704096 26.065854 -1.000987 0.770488 0.059713 -0.018457 362727.000000 0 0 1
8.480137 -15.677247 18.432296 25.640560 -1.074951 0.768617 0.051727 -0.017181 -700700.000000 0 0 1
7.510237 -14.876547 19.062796 25.320061 -1.103286 0.718380 0.032288 -0.005027 147528.000000 0 0 1
6.050537 -15.117047 18.642996 24.752685 -1.190078 0.717928 0.010498 0.002028 -476114.000000 0 1 0
5.761737 -14.661247 17.347396 23.432497 -1.196347 0.737260 0.018771 -0.007854 168719.000000 0 1 0
4.374537 -14.733547 17.039896 22.947157 -1.282177 0.733895 0.004354 -0.005589 371755.000000 0 1 0
3.826637 -16.177747 16.818796 23.648140 -1.338528 0.779578 -0.007292 -0.010464 -764081.000000 0 1 0
2.481837 -16.319947 16.455396 23.308373 -1.419879 0.786981 -0.003703 -0.001313 -495693.000000 0 1 0
1.947237 -17.588647 16.418396 24.139510 -1.460535 0.822834 -0.001302 -0.006854 -192185.000000 0 1 0
0.432737 -17.491847 16.204196 23.848017 -1.546062 0.823746 -0.004186 0.001591 -532023.000000 0 1 0
0.058437 -17.131147 14.893996 22.700456 -1.567385 0.855144 -0.002794 -0.009245 -70112.000000 0 1 0
-1.340163 -17.177147 14.697496 22.646563 1.492934 0.864534 -0.011477 -0.004883 30416.000000 0 1 0
-1.767063 -17.886347 13.370196 22.401028 1.472322 0.931219 -0.015662 -0.005255 -680308.000000 0 1 0
-3.128763 -18.130047 13.193996 22.639993 1.399906 0.948658 -0.022905 -0.000139 -593821.000000 0 1 0
-3.411863 -19.260447 12.392096 23.155338 1.395472 1.006085 -0.005731 -0.010420 -127694.000000 0 1 0
-4.912663 -19.598547 12.388696 23.700571 1.325192 1.020761 0.000792 -0.006220 -85590.600000 0 1 0
-5.451863 -20.113247 13.604596 24.886754 1.306098 0.992426 -0.007707 -0.002433 -67079.900000 0 1 0
-5.503363 -21.525847 13.484796 25.990167 1.320495 1.025300 -0.030547 0.010514 -217619.000000 0 0 1
-6.236063 -22.279747 14.579496 27.346614 1.297882 1.008492 -0.028404 0.019467 -131753.000000 0 0 1
-7.597063 -21.965047 14.750796 27.527525 1.237805 1.005275 -0.006550 0.021324 -307790.000000 0 0 1
-8.225163 -22.796347 15.653996 28.850898 1.224523 0.997288 -0.001148 0.011122 223500.000000 0 0 1
-9.754863 -22.536947 15.807196 29.205115 1.162305 0.998876 0.012390 0.010793 592020.000000 0 0 1
-9.859963 -21.301047 16.420796 28.646047 1.137278 0.960353 -0.001939 0.006815 -317890.000000 0 0 1
-11.219463 -20.937347 16.390796 28.860129 1.078875 0.966797 0.016181 0.003204 -254560.000000 0 0 1
-11.451363 -19.622247 17.218096 28.506650 1.042530 0.922282 0.015630 0.005819 -410134.000000 0 0 1
-11.567763 -19.889747 18.563996 29.564119 1.044020 0.891914 0.013021 0.001250 50173.300000 0 0 1
-12.097063 -18.764047 19.288396 29.503739 0.998160 0.858252 0.013524 0.002985 -277951.000000 0 0 1
-12.563663 -19.134647 20.716396 30.873118 0.989801 0.835216 0.023159 -0.002707 -116119.000000 0 0 1
-13.803263 -19.825147 20.712196 31.820773 0.962591 0.862025 0.035261 -0.003291 139646.000000 0 0 1
-14.096163 -20.369347 21.980796 33.117480 0.965441 0.845013 0.034995 0.004922 -807828.000000 0 0 1
-15.473663 -20.977847 21.904296 34.048531 0.935266 0.871962 0.048632 -0.010332 -1492810.000000 0 0 1
-15.577563 -22.172247 21.124496 34.358599 0.958347 0.908633 0.049737 -0.016339 15376.100000 0 0 1
-16.783863 -22.353847 20.414596 34.614278 0.926766 0.940018 0.049937 -0.011133 70954.700000 0 0 1
-17.937663 -22.903547 21.285296 36.047136 0.906394 0.939137 0.053358 -0.014142 -480994.000000 0 0 1
-18.399163 -22.079947 22.359896 36.414533 0.876079 0.909630 0.062449 -0.013010 -119292.000000 0 0 1
-19.335463 -22.743747 23.172296 37.790124 0.866219 0.910711 0.051403 -0.008832 -20631.000000 0 0 1
-19.870263 -21.813447 24.313286 38.233358 0.831982 0.881599 0.049314 -0.000708 -328144.000000 0 0 1
-20.875763 -20.991047 23.812596 37.992911 0.788152 0.893403 0.045366 0.010726 -311404.000000 0 0 1
-21.128863 -19.875647 24.609576 38.040786 0.754845 0.867250 0.042576 0.006278 235330.000000 0 0 1
-22.102963 -18.850747 23.920996 37.631180 0.706152 0.881921 0.039484 0.003197 -39431.200000 0 0 1
-21.672463 -18.406047 22.643096 36.348150 0.704077 0.898288 0.051497 0.003542 -196096.000000 0 0 1
-22.497463 -17.372047 22.126296 36.020783 0.657545 0.909343 0.041511 -0.001133 -218831.000000 0 0 1
-22.150463 -16.671447 20.745196 34.625761 0.645192 0.928387 0.051479 0.005682 990016.000000 0 0 1
-20.812263 -16.106447 20.725296 33.497848 0.658618 0.903703 0.045668 0.009204 929316.000000 0 0 1
-20.463763 -15.699947 19.406696 32.278070 0.654423 0.925751 0.045702 0.006187 72844.500000 0 0 1
-19.258463 -14.731747 19.284596 30.980775 0.653000 0.898902 0.044725 -0.010051 187517.000000 0 0 1
-19.004663 -14.513747 17.881796 29.859415 0.652208 0.928712 0.048041 -0.001636 205415.000000 0 0 1
-18.284663 -13.326747 17.533896 28.624615 0.629826 0.911519 0.038008 -0.009370 -112385.000000 0 0 1
-17.792063 -13.348847 16.034996 27.420254 0.643674 0.946179 0.020888 -0.013214 198979.000000 0 0 1
-17.312063 -12.167847 15.401296 26.171816 0.612639 0.941633 0.016435 -0.008553 265396.000000 0 0 1
-16.165563 -11.570847 15.973096 25.501955 0.621233 0.893937 0.004907 -0.014087 -141095.000000 0 0 1
-15.719663 -10.263047 15.224196 24.170521 0.578397 0.889415 0.007226 -0.019381 -171337.000000 0 1 0
-16.561863 -9.169947 15.463596 24.443937 0.505663 0.885871 0.009730 -0.006944 -188037.000000 0 1 0
-16.141463 -7.942147 14.952796 23.392534 0.457254 0.877323 -0.003584 -0.003472 -944521.000000 0 1 0
-16.457163 -6.690647 15.769696 23.754711 0.386139 0.844834 0.007239 0.012388 395485.000000 0 1 0
-15.706863 -6.506347 16.991596 24.036481 0.392718 0.785678 0.008537 0.016681 475216.000000 0 1 0
-14.334963 -6.236047 16.796596 22.945699 0.410330 0.749521 0.007397 0.006922 123798.000000 0 1 0
-13.382963 -6.272647 18.077896 23.350806 0.438299 0.685366 0.000489 0.018404 650717.000000 0 1 0
-13.342663 -7.515847 18.853496 24.289276 0.512993 0.682170 -0.000063 0.005455 -62758.500000 0 1 0
-12.945763 -8.612447 18.048496 23.822578 0.587036 0.711135 0.005103 0.008546 -694501.000000 0 1 0
-12.962463 -10.008347 18.706396 24.862054 0.657497 0.719087 0.003399 0.007856 161864.000000 0 1 0
-14.204463 -10.597047 19.060596 26.026342 0.640960 0.749018 0.011875 0.008050 -61561.300000 0 0 1
-14.919263 -10.030247 20.110096 26.974177 0.591894 0.729464 0.009477 0.009895 -194574.000000 0 0 1
-16.374363 -10.601047 20.328996 28.173925 0.574557 0.764753 0.008884 0.014800 1281340.000000 0 0 1
-17.331563 -10.466947 19.273396 27.953602 0.543300 0.810028 0.022319 0.007222 427849.000000 0 0 1
-17.730563 -9.138147 19.068696 27.595176 0.475883 0.807903 0.016357 0.007399 -1212240.000000 0 0 1
-18.789863 -9.001447 17.962696 27.508970 0.446755 0.859289 0.027531 0.005781 312819.000000 0 0 1
-20.054863 -9.261047 18.597296 28.876010 0.432611 0.871029 0.027960 0.003046 -6168.930000 0 0 1
-21.073963 -9.227547 17.636296 28.987902 0.412717 0.916751 0.035475 -0.005454 323822.000000 0 0 1
-22.484863 -9.565347 18.235696 30.489433 0.402220 0.929669 0.039739 -0.002542 394273.000000 0 0 1
-22.985163 -8.468347 18.947096 30.968098 0.352995 0.912429 0.040682 0.004101 558382.000000 0 0 1
-24.398963 -8.593647 19.059396 32.131305 0.338645 0.935803 0.040635 0.004241 356862.000000 0 0 1
-25.150603 -7.545247 19.920096 32.958972 0.291459 0.921795 0.042390 0.002240 -177213.000000 0 0 1
-25.014763 -7.624547 21.366796 33.769988 0.295856 0.885741 0.041283 -0.000899 305271.000000 0 0 1
-25.779663 -6.635947 22.036196 34.557499 0.251941 0.879330 0.038773 -0.002602 -494049.000000 0 0 1
-25.672053 -6.887247 23.601896 35.546279 0.262106 0.844672 0.032952 -0.000675 719756.000000 0 0 1
-24.489863 -6.513447 24.331986 35.131523 0.259947 0.805713 0.025127 0.000032 682305.000000 0 0 1
-23.319263 -7.256847 24.039506 34.268757 0.301696 0.793297 0.029095 0.002416 -125929.000000 0 0 1
-22.157463 -6.949647 25.007716 34.126773 0.303930 0.748385 0.032910 0.003335 -42591.000000 0 0 1
-21.707063 -5.618247 24.941676 33.538761 0.253264 0.732257 0.027468 0.000094 296462.000000 0 0 1
-20.840763 -5.246947 26.003476 33.734976 0.246638 0.690675 0.024527 -0.002514 161324.000000 0 0 1
-20.533963 -3.737947 26.048636 33.378846 0.180066 0.675501 0.026903 -0.003839 -675445.000000 0 0 1
-19.448563 -3.232047 26.729656 33.213962 0.164679 0.635506 0.008541 -0.000145 -819721.000000 0 0 1
-19.541763 -3.129247 28.185076 34.439385 0.158783 0.612181 0.006687 -0.008038 -22407.200000 0 0 1
-20.354063 -1.926947 28.766096 35.291490 0.094390 0.617894 0.003984 -0.006403 661614.000000 0 0 1
-21.733663 -2.056647 28.421166 35.837754 0.094349 0.654995 0.012918 -0.004520 -43619.800000 0 0 1
-22.389663 -0.921847 28.951796 36.610836 0.041150 0.658684 0.005747 -0.012309 -588329.000000 0 0 1
-23.745863 -0.670947 28.322476 36.965915 0.028248 0.697924 0.009802 -0.003930 -1043670.000000 0 0 1
-23.681363 -0.232747 26.980146 35.899713 0.009828 0.720400 0.005232 -0.001773 974779.000000 0 0 1
-24.975663 -0.090447 26.347476 36.304014 0.003621 0.758679 0.010994 0.003145 462643.000000 0 0 1
-25.653213 -1.340247 25.831336 36.429954 0.052197 0.782620 0.009135 -0.000496 -365618.000000 0 0 1
-26.241103 -2.155647 26.840706 37.598747 0.081964 0.775784 0.008118 -0.005314 109153.000000 0 0 1
-26.577123 -3.507647 26.380346 37.610766 0.131222 0.793431 -0.002839 0.003313 -32252.200000 0 0 1
-25.481213 -4.561547 26.583396 37.104944 0.177140 0.772113 0.012398 -0.005494 -166499.000000 0 0 1
-25.245423 -4.909747 27.904946 37.948953 0.192083 0.744645 0.007941 -0.000714 85623.400000 0 0 1
-24.337563 -6.006247 27.888646 37.498914 0.241954 0.732180 0.019726 -0.011719 23652.900000 0 0 1
-24.017963 -6.286047 29.346736 38.439665 0.255981 0.702159 0.018252 -0.011729 156778.000000 0 0 1
-25.113213 -6.976247 29.932686 39.690140 0.270960 0.716423 0.019405 -0.010081 495799.000000 0 0 1
-24.851663 -7.257847 31.267176 40.594554 0.284144 0.691593 0.029533 -0.005421 -976973.000000 0 0 1
-26.096823 -7.672947 31.984416 41.987155 0.285960 0.704761 0.014213 -0.013018 -908150.000000 0 0 1
-26.697973 -8.825647 31.477536 42.207927 0.319265 0.729102 0.020999 -0.021659 -745039.000000 0 0 1
-27.986303 -8.981747 31.951296 43.414171 0.310550 0.743706 0.015278 -0.015901 -599401.000000 0 0 1
-28.969003 -9.639547 30.949546 43.474112 0.321229 0.778586 0.013811 -0.017114 -296720.000000 0 0 1
-28.668923 -11.009947 30.726216 43.442220 0.366670 0.785140 0.028864 -0.021958 108687.000000 0 0 1
-29.653723 -11.623547 29.918866 43.698841 0.373570 0.816659 0.017166 -0.018782 -166509.000000 0 0 1
-29.189993 -12.842047 29.124556 43.188119 0.414462 0.830692 0.032132 -0.021843 293309.000000 0 0 1
-28.277413 -12.582747 28.048346 41.768976 0.418667 0.834550 0.041923 -0.025780 118829.000000 0 0 1
-27.446233 -13.675547 27.743036 41.352054 0.462260 0.835376 0.051554 -0.026690 -804518.000000 0 0 1
-26.102653 -13.332347 27.119996 39.932370 0.472223 0.824195 0.049084 -0.025451 -727731.000000 0 0 1
-25.201503 -12.658847 27.989096 39.733508 0.465490 0.789190 0.043204 -0.027097 156993.000000 0 0 1
-25.510603 -11.328947 28.471086 39.871527 0.417926 0.775501 0.049824 -0.033713 -1081550.000000 0 0 1
-25.311423 -10.180947 27.458836 38.707977 0.382425 0.782172 0.049762 -0.033172 315909.000000 0 0 1
-23.983363 -9.860647 27.042676 37.466524 0.390077 0.764422 0.029803 -0.013312 547775.000000 0 0 1
-23.393063 -10.714247 26.064976 36.625312 0.429495 0.778930 0.030877 -0.018399 -12202.100000 0 0 1
-24.113463 -10.693447 24.659666 36.109667 0.417405 0.819057 0.038998 -0.010582 -1680910.000000 0 0 1
-25.366213 -11.217547 24.647596 37.105015 0.416369 0.844285 0.049245 -0.018347 -1188880.000000 0 0 1
-26.028873 -10.772547 23.430996 36.640982 0.392405 0.876981 0.050802 -0.015576 734516.000000 0 0 1
-27.469063 -11.363947 23.234296 37.729580 0.392260 0.907381 0.059576 -0.020197 -93030.500000 0 0 1
-28.492633 -10.886647 24.010286 38.818076 0.364969 0.903921 0.049770 -0.022534 -810805.000000 0 0 1
-28.543233 -11.116547 25.411226 39.799801 0.371390 0.878280 0.052713 -0.023672 -1083400.000000 0 0 1
-29.939283 -10.929247 26.010506 41.138249 0.350016 0.886316 0.024600 -0.017681 -570954.000000 0 0 1
-30.316753 -9.576847 26.016646 41.081473 0.305973 0.884994 0.023092 -0.020950 -68846.100000 0 0 1
-31.684623 -9.326547 26.284466 42.211053 0.286270 0.898618 0.021355 -0.005577 173465.000000 0 0 1
-32.193873 -9.418047 27.732596 43.522890 0.284600 0.879942 0.006805 0.002313 -316359.000000 0 0 1
-32.542743 -10.711747 28.114006 44.318946 0.317989 0.883621 0.001010 -0.007862 -297013.000000 0 0 1
-33.476463 -10.607947 29.134256 45.629015 0.306868 0.878245 -0.001334 -0.009524 -612482.000000 0 0 1
-33.953623 -11.944347 29.749786 46.696528 0.338263 0.880082 0.002048 -0.009736 429375.000000 0 0 1
-35.054197 -12.563847 29.084006 47.249618 0.344149 0.907726 -0.005908 -0.003032 732720.000000 0 0 1
34.274549 -12.427447 29.758656 47.061276 -0.347842 0.886228 -0.002424 0.003836 768051.000000 0 0 1
32.973829 -12.885147 29.034066 45.785122 -0.372523 0.883904 -0.000091 -0.002564 282783.000000 0 0 1
32.708069 -12.090747 27.886246 44.650270 -0.354078 0.896243 0.001685 0.005351 -5662.040000 0 0 1
31.924339 -12.667347 26.855376 43.598581 -0.377738 0.907181 -0.001980 0.012684 -287439.000000 0 0 1
32.075699 -12.023647 25.437516 42.667151 -0.358641 0.932055 -0.002075 0.004338 7754.690000 0 0 1
31.443709 -10.771647 25.313356 41.779196 -0.330040 0.919919 0.012222 -0.006217 160751.000000 0 0 1
31.681749 -10.229247 24.020916 41.053320 -0.312309 0.945774 0.007241 -0.001566 -170359.000000 0 0 1
31.221209 -8.734247 23.804496 40.220703 -0.272780 0.937448 0.018466 0.012794 -239431.000000 0 0 1
29.826619 -8.638047 23.835396 39.145487 -0.281896 0.916133 0.028777 0.000143 -630691.000000 0 0 1
29.416089 -7.307347 23.687296 38.468059 -0.243485 0.907439 0.032903 0.005947 -953328.000000 0 0 1
27.918179 -7.146647 23.702196 37.313447 -0.250604 0.882505 0.037256 0.016840 -770910.000000 0 0 1
27.301139 -7.706047 22.526696 36.224127 -0.275104 0.899668 0.030025 0.015852 -409197.000000 0 0 1
25.975009 -8.074047 22.719496 35.441033 -0.301371 0.874930 0.033141 -0.000866 -655227.000000 0 0 1
14.056637 -17.531847 25.869196 34.266164 -0.894973 0.715220 -0.011596 0.016128 119949.000000 0 0 1
13.343337 -18.767547 25.943416 34.688994 -0.952740 0.725924 -0.024240 0.021432 244295.000000 0 0 1
14.231137 -19.822347 25.997556 35.655625 -0.948135 0.753748 0.001763 0.012033 -317429.000000 0 0 1
13.390537 -21.156647 25.993796 36.091379 -1.006520 0.766674 -0.012960 0.004184 1066160.000000 0 0 1
12.593637 -21.493147 27.152356 36.848412 -1.040781 0.742373 -0.010390 0.000614 1867920.000000 0 0 1
11.436837 -20.641947 27.475426 36.218645 -1.064843 0.709636 -0.024555 0.013685 1189240.000000 0 0 1
10.807437 -21.066947 28.877386 37.343277 -1.096799 0.686774 -0.036663 0.012480 288602.000000 0 0 1
11.593437 -20.600747 29.983126 38.180969 -1.058203 0.667632 -0.032367 0.013060 156361.000000 0 0 1
11.054737 -19.469847 30.673066 37.975244 -1.054399 0.630535 -0.034011 0.023682 -216108.000000 0 0 1
10.995137 -18.121147 29.970796 36.708550 -1.025423 0.615556 -0.042229 0.024732 1517380.000000 0 0 1
12.236037 -17.357247 30.213056 36.929979 -0.956754 0.612667 -0.035228 0.031348 1500510.000000 0 0 1
12.197037 -16.101147 29.507366 35.758905 -0.922496 0.600284 -0.035829 0.028702 150101.000000 0 0 1
12.709437 -14.911747 30.289526 36.074165 -0.864962 0.574165 -0.032805 0.023751 184892.000000 0 0 1
12.285437 -13.676647 29.669306 34.903443 -0.838933 0.554736 -0.016204 0.020705 132380.000000 0 0 1
12.918337 -12.608547 30.285926 35.257569 -0.773263 0.537501 -0.006299 0.022011 -273603.000000 0 0 1
12.511937 -11.192947 29.749476 34.159361 -0.729813 0.513760 -0.007481 0.016057 -56395.400000 0 0 1
12.782737 -10.737047 28.443106 32.980188 -0.698639 0.530745 0.009174 0.008710 314358.000000 0 0 1
14.162137 -10.738147 28.086716 33.237592 -0.648747 0.564178 0.018193 0.004473 -133853.000000 0 0 1
14.445237 -9.626447 26.937726 32.046442 -0.587825 0.572436 0.022285 -0.000986 -50758.300000 0 0 1
14.582037 -8.306847 27.451556 32.174950 -0.517814 0.548713 0.028312 -0.003595 -655947.000000 0 0 1
15.745637 -8.045047 28.146416 33.239564 -0.472360 0.560904 0.026275 -0.004527 -1201300.000000 0 0 1
16.206837 -6.591047 27.881796 32.916531 -0.386254 0.560395 0.025011 -0.007489 -529602.000000 0 0 1
17.411337 -6.241147 28.497866 33.974033 -0.344185 0.575697 0.022718 -0.008262 -465885.000000 0 0 1
17.759037 -4.957847 28.129346 33.633670 -0.272242 0.580215 0.027490 -0.003236 1334240.000000 0 0 1
19.327337 -4.822647 27.877346 34.262958 -0.244531 0.620429 0.030137 -0.002264 618949.000000 0 0 1
19.732537 -5.603547 26.793786 33.744329 -0.276691 0.653397 0.025718 0.005009 1723340.000000 0 0 1
21.164337 -5.587947 26.523546 34.389719 -0.258136 0.689972 0.032261 0.008588 1957360.000000 0 0 1
22.269237 -5.935347 27.566086 35.930994 -0.260472 0.696340 0.039666 0.005042 -266746.000000 0 0 1
22.724137 -4.689247 28.139666 36.472130 -0.203499 0.689540 0.045336 -0.008034 332536.000000 0 0 1
23.736937 -4.928547 29.115376 37.887173 -0.204723 0.694341 0.058871 -0.021328 -23611.600000 0 0 1
24.267637 -3.598647 29.721466 38.538734 -0.147217 0.690056 0.065846 -0.023446 -64287.900000 0 0 1
25.177837 -2.979247 28.808266 38.375977 -0.117780 0.721698 0.056381 -0.016067 347126.000000 0 0 1
25.295737 -1.611947 29.087416 38.581737 -0.063638 0.716793 0.049240 -0.024586 -164617.000000 0 0 1
26.386037 -0.978347 28.183666 38.619932 -0.037061 0.752811 0.047136 -0.018604 781432.000000 0 0 1
27.716537 -1.396347 28.542986 39.810278 -0.050337 0.771343 0.055134 -0.017638 552113.000000 0 0 1
28.611137 -0.845147 27.575776 39.745878 -0.029530 0.804041 0.042398 -0.001176 -628770.000000 0 0 1
30.032237 -0.886947 28.091456 41.132127 -0.029525 0.818994 0.032588 -0.004648 -892366.000000 0 0 1
30.330037 0.190753 28.939986 41.922194 0.006289 0.808857 0.026793 0.002538 1121840.000000 0 0 1
31.715037 0.121053 29.368926 43.224901 0.003817 0.823791 0.025323 -0.000417 1210800.000000 0 0 1
32.021237 1.342453 30.242796 44.065729 0.041899 0.814392 0.018417 0.001952 -177815.000000 0 0 1
32.040437 2.536653 29.520296 43.640258 0.079006 0.827869 0.010239 0.008390 76548.300000 0 0 1
32.317537 3.575853 30.453936 44.549435 0.110199 0.818114 0.021121 0.008882 -7994.240000 0 0 1
32.105937 5.008853 29.882386 44.145632 0.154763 0.827247 0.012478 0.013627 -125085.000000 0 0 1
32.276937 5.989453 30.860226 45.055829 0.183478 0.816285 0.015064 0.017132 368579.000000 0 0 1
31.054537 6.513953 31.368816 44.618589 0.206761 0.791128 0.019199 0.013589 -664503.000000 0 0 1
31.229837 7.308653 32.659916 45.775422 0.229891 0.776342 0.027923 0.006171 -388234.000000 0 0 1
31.407737 6.489853 33.756623 46.562579 0.203765 0.759801 0.026651 0.008040 102156.000000 0 0 1
31.655437 7.273953 -34.152391 47.131337 0.225864 2.381282 0.012468 -0.003334 -286591.000000 0 0 1
31.789237 6.620753 -32.739186 46.111216 0.205335 2.360301 0.018642 0.001194 519589.000000 0 0 1
30.572937 5.961053 -32.344846 44.904651 0.192562 2.375032 0.020082 0.002341 819814.000000 0 0 1
30.537437 4.695453 -32.884466 45.121729 0.152566 2.387356 0.021695 0.000940 -203436.000000 0 0 1
31.039537 3.655653 -31.875956 44.641833 0.117234 2.366045 0.021981 0.002186 -103798.000000 0 0 1
31.418437 2.379653 -32.389226 45.186756 0.075596 2.369978 0.023634 0.001948 227234.000000 0 0 1
31.738637 1.435753 -31.402496 44.671235 0.045206 2.350360 0.027936 -0.001101 -35547.500000 0 0 1
32.054237 0.015053 -31.930366 45.244034 0.000470 2.354258 0.038270 -0.012981 764453.000000 0 0 1
33.273537 -0.042547 -32.722106 46.667615 -0.001279 2.347839 0.044598 -0.005707 1005440.000000 0 0 1
33.922237 -1.303147 -32.672136 47.115654 -0.038397 2.337056 0.045756 -0.003330 729184.000000 0 0 1
34.918737 -1.642647 -31.503956 47.058641 -0.047007 2.304280 0.047803 0.003187 -382040.000000 0 0 1
34.276937 -1.574847 -30.263936 45.752534 -0.045912 2.293574 0.041352 0.000876 57265.000000 0 0 1
35.082437 -1.578447 -29.092976 45.603401 -0.044962 2.262638 0.027820 0.007073 7070.600000 0 0 1
34.159037 -1.309047 -27.878656 44.110916 -0.038303 2.254944 0.032055 0.001971 229094.000000 0 0 1
33.559637 -0.023347 -27.821276 43.592123 -0.000696 2.262978 0.018492 0.009701 500491.000000 0 0 1
32.702137 0.100653 -26.668366 42.197650 0.003078 2.254911 0.027236 0.000353 266151.000000 0 0 1
31.949437 1.449753 -26.617026 41.609307 0.045345 2.264890 0.020166 0.001185 -472720.000000 0 0 1
30.970737 1.637153 -27.583466 41.505595 0.052812 2.297718 0.020413 -0.006589 -268948.000000 0 0 1
30.393937 2.900853 -27.366906 41.001877 0.095154 2.301582 0.006416 -0.001630 109755.000000 0 0 1
29.359137 3.243953 -28.477756 41.030047 0.110046 2.337925 0.018976 -0.003989 -191710.000000 0 0 1
28.723237 4.471753 -28.342256 40.599315 0.154444 2.343532 0.002622 -0.004736 42684.500000 0 0 1
28.112737 4.903953 -29.552166 41.081690 0.172701 2.373664 0.006377 -0.006610 -549877.000000 0 0 1
27.052337 5.999053 -29.381626 40.386849 0.218226 2.385474 0.019607 -0.007453 -907501.000000 0 0 1
25.894337 5.405753 -28.888956 39.170278 0.205806 2.400190 0.012843 -0.007894 -809414.000000 0 0 1
25.003137 6.353953 -28.349196 38.330230 0.248858 2.403278 0.010235 -0.002945 95803.800000 0 0 1
23.678937 5.558353 -28.065626 37.138480 0.230564 2.427522 0.008839 -0.002113 344866.000000 0 0 1
22.855037 5.399453 -29.234156 37.498569 0.231994 2.464835 0.025442 -0.006141 201723.000000 0 0 1
21.552037 5.089253 -28.781286 36.314642 0.231890 2.485781 0.023706 -0.000194 61190.400000 0 0 1
20.658837 4.472853 -29.894946 36.612863 0.213219 2.526145 0.017888 0.001558 14344.700000 0 0 1
21.070437 3.203753 -30.428496 37.149976 0.150894 2.530587 0.029209 -0.007684 769819.000000 0 0 1
20.131537 2.664153 -31.411086 37.403647 0.131573 2.567687 0.015127 -0.008516 575519.000000 0 0 1
20.284837 3.232153 -32.803476 38.703869 0.158010 2.582149 0.027724 -0.009520 -723905.000000 0 0 1
21.490937 3.047253 -33.447136 39.873011 0.140854 2.565948 0.051095 -0.015517 -963109.000000 0 0 1
21.469037 3.524653 34.270254 40.593017 0.162722 0.565651 0.056442 -0.021671 1415490.000000 0 0 1
22.936837 3.473053 33.628509 40.853852 0.150277 0.603875 0.062892 -0.022698 1544570.000000 0 0 1
23.339737 2.122953 33.363397 40.772129 0.090709 0.612368 0.069833 -0.026964 1205440.000000 0 0 1
24.747937 1.933953 33.071933 41.351582 0.077988 0.643877 0.062648 -0.028526 972937.000000 0 0 1
25.080637 0.374353 33.117713 41.544692 0.014925 0.648222 0.054293 -0.026542 -362460.000000 0 0 1
24.548237 -0.374947 32.034356 40.360333 -0.015273 0.653914 0.064076 -0.031142 979848.000000 0 0 1
23.128537 -0.381447 31.844176 39.358941 -0.016491 0.628227 0.074364 -0.037239 280659.000000 0 0 1
22.235437 -1.185647 32.778576 39.626449 -0.053272 0.596709 0.064445 -0.038787 -618433.000000 0 0 1
22.218637 -2.546647 32.478116 39.433251 -0.114120 0.603027 0.079032 -0.044766 370821.000000 0 0 1
21.462037 -3.268547 33.457688 39.883823 -0.151133 0.575576 0.057463 -0.031082 30784.600000 0 0 1
21.375937 -4.775447 33.034397 39.635930 -0.219794 0.585482 0.051999 -0.022799 -421345.000000 0 0 1
22.586537 -5.461447 33.027201 40.382856 -0.237247 0.613128 0.064560 -0.013498 -659335.000000 0 0 1
22.366237 -6.743747 32.474636 40.004108 -0.292846 0.623598 0.051593 -0.013144 -57321.100000 0 0 1
23.639937 -7.604247 32.282706 40.728912 -0.311217 0.655696 0.062253 -0.021823 336416.000000 0 0 1
24.358637 -7.213747 31.104876 40.160860 -0.287919 0.684861 0.063966 -0.019892 -133238.000000 0 0 1
25.479037 -7.989647 30.790906 40.756541 -0.303866 0.714404 0.054731 -0.015287 78342.900000 0 0 1
26.039337 -7.932147 29.362926 40.039324 -0.295691 0.747557 0.046147 -0.015290 564581.000000 0 0 1
25.131137 -8.585847 28.486806 38.945974 -0.329209 0.750359 0.035419 -0.008726 217155.000000 0 0 1
25.734037 -8.507347 27.230676 38.420376 -0.319277 0.783063 0.040380 -0.000481 81595.600000 0 0 1
25.038737 -9.341947 26.166476 37.401802 -0.357104 0.795952 0.027604 -0.001316 -100852.000000 0 0 1
23.806237 -8.794747 25.704076 36.121794 -0.353879 0.779031 0.024849 0.002562 -89868.700000 0 0 1
23.234637 -9.642747 24.792436 35.319907 -0.393384 0.792679 0.031296 -0.002424 -1071620.000000 0 0 1
21.945637 -9.020347 24.266006 33.938425 -0.389980 0.774171 0.018686 0.006360 -1107870.000000 0 0 1
20.981037 -9.129147 25.257946 34.080919 -0.410406 0.736064 0.014262 0.005394 -122532.000000 0 0 1
19.744837 -8.676347 24.691776 32.784469 -0.414024 0.717952 0.008100 0.012045 1028060.000000 0 0 1
18.448837 -8.743347 25.561596 32.713925 -0.442570 0.673942 0.008368 0.010570 358084.000000 0 0 1
17.882937 -9.989447 25.955866 33.065019 -0.509424 0.668109 0.014998 0.004193 213764.000000 0 0 1
18.602037 -10.812847 26.895066 34.442677 -0.526535 0.674748 0.013726 0.004741 -18395.600000 0 0 1
17.707437 -11.846347 27.621446 34.883141 -0.589619 0.657000 0.020839 0.003779 -18478.800000 0 0 1
17.002337 -12.794147 26.820596 34.236151 -0.645095 0.670679 0.010841 0.005694 42364.800000 0 0 1
16.251037 -13.667747 27.605626 34.827778 -0.699268 0.655682 0.010023 0.009647 -394943.000000 0 0 1
16.944237 -14.826847 28.390006 36.234445 -0.718851 0.670504 0.018437 0.014556 -274956.000000 0 0 1
15.942937 -15.573747 29.033006 36.601015 -0.773685 0.654702 0.005491 0.014623 688779.000000 0 0 1
16.559837 -16.678047 29.758426 37.920303 -0.788955 0.668484 0.012176 0.015326 85397.400000 0 0 1
16.752237 -18.001247 28.881336 37.931700 -0.821322 0.705321 0.015910 0.013540 -326576.000000 0 0 1
17.729737 -17.898147 27.881146 37.577194 -0.790125 0.734793 0.030347 0.008470 168007.000000 0 0 1
18.138937 -19.164547 27.318956 37.981920 -0.812885 0.768057 0.026302 0.012614 1071880.000000 0 0 1
19.363137 -18.816547 26.349776 37.726704 -0.771083 0.797583 0.040484 0.005356 1500830.000000 0 0 1
20.641237 -18.473747 26.894136 38.608736 -0.730041 0.800174 0.054102 -0.001130 548892.000000 0 0 1
21.439537 -17.927647 25.880266 38.089926 -0.696425 0.823781 0.042121 0.001477 806537.000000 0 0 1
22.921137 -17.548247 26.244906 39.014287 -0.653406 0.832945 0.037163 0.002213 991488.000000 0 0 1
23.785937 -18.648647 26.453506 40.166289 -0.664921 0.851840 0.027395 -0.001873 980452.000000 0 0 1
25.051837 -18.324847 27.063356 41.180332 -0.631541 0.853710 0.016281 -0.000969 791092.000000 0 0 1
25.878937 -19.592847 27.326696 42.430500 -0.648027 0.871036 0.004202 0.003004 -406902.000000 0 0 1
25.446437 -20.387847 28.400246 43.240715 -0.675476 0.854237 0.007379 0.000081 275344.000000 0 0 1
26.199137 -21.597047 28.559806 44.367665 -0.689408 0.871463 0.015843 0.000470 52739.400000 0 0 1
25.484537 -22.544947 29.499626 45.032923 -0.724271 0.856524 0.023435 0.006127 -167087.000000 0 0 1
25.480937 -22.172447 30.914786 45.788858 -0.716081 0.829615 0.028264 0.002069 -161532.000000 0 0 1
25.086637 -23.333147 31.593906 46.604184 -0.749200 0.825867 0.030847 0.011097 -757928.000000 0 0 1
24.277837 -23.075947 32.871446 46.930210 -0.760023 0.794793 0.036374 0.002867 -189975.000000 0 0 1
24.014737 -24.322747 33.519278 47.873224 -0.791770 0.795164 0.037341 0.002305 51791.800000 0 0 1
23.730937 -24.303147 -34.139518 48.159184 -0.797310 2.358718 0.025041 0.005823 -378452.000000 0 0 1
23.461437 -25.742417 -33.702836 48.466403 -0.831723 2.339753 0.020078 0.002843 1191840.000000 0 0 1
22.141337 -26.305267 -33.885016 48.274219 -0.871136 2.348897 0.028037 -0.003013 724636.000000 0 0 1
21.681937 -26.503057 33.790200 48.107131 -0.885121 0.792040 0.027406 -0.003560 877091.000000 0 0 1
20.350737 -27.357027 33.733058 47.963305 -0.931214 0.790754 0.046230 -0.006833 888223.000000 0 0 1
20.624937 -28.655577 34.081884 49.072446 -0.946936 0.803041 0.051849 -0.011947 1329800.000000 0 0 1
19.442737 -29.555147 34.064562 49.111313 -0.988925 0.804295 0.053605 -0.010382 1311260.000000 0 0 1
19.726637 -31.080947 34.225997 50.265140 -1.005262 0.821793 0.045826 -0.009867 -139658.000000 0 0 1
20.204837 -31.494977 -33.540326 50.250597 -1.000402 2.301591 0.029934 -0.017010 274527.000000 0 0 1
21.209237 -32.478607 -33.664656 51.361471 -0.992300 2.285569 0.008892 -0.003847 43722.700000 0 0 1
21.795637 -32.975937 -32.296366 51.044270 -0.986758 2.255848 -0.000591 -0.002182 248577.000000 0 0 1
22.934237 -33.858397 -32.419466 52.186129 -0.975429 2.241105 -0.005933 0.001040 796297.000000 0 0 1
23.337337 -34.352185 -31.178336 51.930651 -0.974061 2.214778 -0.015784 0.008751 207179.000000 0 0 1
24.510137 -33.529307 -30.561056 51.564904 -0.939562 2.205168 -0.016265 0.001945 -423078.000000 0 0 1
24.960137 -34.072398 -29.382526 51.451623 -0.938549 2.178606 -0.012068 0.008938 166453.000000 0 0 1
25.683937 -33.040857 -28.652906 50.718358 -0.910027 2.171159 -0.008788 0.002366 -243355.000000 0 0 1
25.664137 -33.375627 -27.134586 50.088583 -0.915278 2.143293 -0.004253 -0.000114 605486.000000 0 0 1
26.752537 -34.254579 -26.831386 51.078348 -0.907754 2.123862 -0.001231 0.013696 863701.000000 0 0 1
27.981437 -33.585587 -26.520406 51.130073 -0.876173 2.116109 0.001547 0.000360 437135.000000 0 0 1
-26.380893 -30.614418 8.874094 41.375641 0.859540 1.354641 -0.001671 -0.012313 -76874.200000 0 0 1
-26.473203 -31.832218 9.496194 42.477032 0.877053 1.345330 0.002719 -0.014974 418960.000000 0 0 1
-25.334413 -32.017918 10.356694 42.121736 0.901409 1.322374 0.004578 -0.018089 485974.000000 0 0 1
-25.334743 -33.272418 11.286794 43.316218 0.920018 1.307186 0.003877 -0.018410 -133234.000000 0 0 1
-25.145303 -34.499618 10.686294 44.008031 0.940964 1.325518 0.009534 -0.013041 18741.200000 0 0 1
-25.261693 33.624653 11.674794 43.647122 -0.926473 1.300018 0.004879 -0.006851 184159.000000 0 0 1
-25.007263 32.163853 11.258594 42.268577 -0.909929 1.301183 0.010429 -0.001907 948618.000000 0 0 1
-26.173213 31.811853 10.471794 42.505171 -0.882336 1.321868 0.021767 -0.006574 844009.000000 0 0 1
-26.254363 30.485053 10.089094 41.477944 -0.859824 1.325092 0.030222 -0.003989 -22924.700000 0 0 1
-25.733423 30.307653 8.628394 40.684298 -0.866840 1.357092 0.030152 -0.007182 1112010.000000 0 0 1
-24.292763 30.322753 8.521194 39.777110 -0.895361 1.354899 0.017143 -0.000881 908318.000000 0 0 1
-23.994063 30.092153 7.162994 39.147940 -0.897672 1.386787 0.025915 0.002539 897124.000000 0 0 1
-22.487263 29.654253 6.973894 37.864059 -0.921995 1.385556 0.008485 0.005008 989416.000000 0 0 1
-22.249363 28.247953 7.152694 36.662543 -0.903634 1.374442 0.022229 0.006413 121358.000000 0 0 1
-22.617863 27.480853 6.025594 36.098100 -0.882163 1.403089 0.017101 0.000637 -842668.000000 0 0 1
-22.760263 25.913753 6.399794 35.078620 -0.850096 1.387327 0.020545 -0.005977 -120654.000000 0 0 1
-23.921163 25.637953 7.206494 35.797490 -0.820026 1.368098 0.022740 -0.002132 743518.000000 0 0 1
-24.030863 24.318853 7.633094 35.030746 -0.791354 1.351137 0.032215 -0.017521 -100707.000000 0 0 1
-24.588963 23.302553 6.592094 34.512053 -0.758544 1.378607 0.020977 -0.027929 574315.000000 0 0 1
-26.005293 23.445153 6.349794 35.584693 -0.733673 1.391394 0.018812 -0.023449 991828.000000 0 0 1
-26.477363 22.889653 5.127994 35.373483 -0.712851 1.425317 0.014174 -0.027369 45113.900000 0 0 1
-26.184043 23.671853 3.802894 35.502433 -0.735052 1.463474 -0.002710 -0.024497 -620371.000000 0 0 1
-24.821163 23.815753 3.539994 34.580512 -0.764729 1.468247 -0.001205 -0.025874 -419316.000000 0 0 1
-24.536863 24.505053 2.339494 34.756705 -0.784750 1.503435 -0.005404 -0.014840 -449003.000000 0 0 1
-23.169863 25.169553 2.330094 34.289624 -0.826742 1.502791 0.010946 -0.011345 -546562.000000 0 0 1
-22.921963 25.953653 1.182194 34.646877 -0.847347 1.536668 0.004496 -0.009995 -944908.000000 0 0 1
-21.726363 26.643353 1.317794 34.404065 -0.886704 1.532484 0.020349 -0.014366 -1170550.000000 0 0 1
-21.236863 27.201753 -0.000006 34.509995 -0.907925 1.570797 0.029967 -0.017533 -95194.400000 0 0 1
-20.858263 26.182253 -0.922906 33.487748 -0.898097 1.598359 0.024936 -0.016955 -209195.000000 0 0 1
-19.561763 25.640953 -0.846206 32.262008 -0.919083 1.597029 0.034951 -0.016738 -404496.000000 0 0 1
-19.247363 24.801353 -2.081606 31.462695 -0.910824 1.637006 0.033307 -0.011219 -162963.000000 0 0 1
-20.134763 23.721853 -2.299706 31.199738 -0.867008 1.644572 0.018723 -0.011100 237356.000000 0 0 1
-19.544063 22.699053 -3.099206 30.113494 -0.859946 1.673896 0.025794 -0.004043 -22436.600000 0 0 1
-20.644163 21.906753 -3.846506 30.346053 -0.815062 1.697893 0.012245 0.002687 273897.000000 0 0 1
-21.281863 22.797453 -4.759706 31.548318 -0.819768 1.722245 0.007709 -0.000527 -248893.000000 0 0 1
-22.412763 22.224553 -5.356506 32.014917 -0.781182 1.738900 0.013070 -0.001306 -89008.500000 0 0 1
-22.875163 23.021553 -6.583506 33.115066 -0.788588 1.770937 0.009239 0.007420 366647.000000 0 0 1
-21.964663 22.945553 -7.697106 32.683181 -0.807236 1.808536 0.000773 0.007666 438479.000000 0 0 1
-22.255763 23.930653 -8.688506 33.815460 -0.821646 1.830650 0.005969 0.003468 78879.500000 0 0 1
-21.573363 23.634453 -10.086506 33.551975 -0.830958 1.876142 -0.001373 0.009625 -49814.900000 0 0 1
-22.231163 22.620953 -10.848806 33.520572 -0.794089 1.900377 -0.017603 0.016848 338775.000000 0 0 1
-21.307263 21.801953 -11.557006 32.601979 -0.796873 1.933163 -0.015845 0.014575 205108.000000 0 0 1
-21.735363 21.812953 -13.014906 33.430805 -0.787180 1.970677 -0.012821 0.023716 977398.000000 0 0 1
-22.997663 21.129953 -13.171906 33.894934 -0.743098 1.969919 -0.023275 0.017581 640433.000000 0 0 1
-22.957963 20.255553 -14.270706 33.778818 -0.722943 2.006971 -0.002568 0.023930 -426895.000000 0 0 1
-24.037163 19.204753 -14.314306 33.933864 -0.674107 2.006259 -0.002941 0.017576 -572224.000000 0 0 1
-23.861863 18.352953 -15.379506 33.804565 -0.655634 2.043116 -0.001047 0.015721 -240427.000000 0 0 1
-24.846863 17.353253 -15.514906 34.047237 -0.609657 2.043941 0.018319 0.013982 -214350.000000 0 0 1
-24.715763 16.316353 -16.650206 33.975310 -0.583484 2.082964 0.025341 0.011739 -270753.000000 0 0 1
-23.585363 15.516153 -16.390406 32.644537 -0.581889 2.096807 0.038402 0.004600 -45818.300000 0 0 1
-23.532163 14.529453 -17.391406 32.669997 -0.553137 2.132154 0.039362 -0.010417 77687.300000 0 0 1
-22.656363 13.288453 -17.080806 31.331258 -0.530450 2.147386 0.038703 -0.013582 854936.000000 0 0 1
-21.243763 13.509053 -17.125506 30.447906 -0.566404 2.168146 0.032931 -0.020605 695027.000000 0 0 1
-20.421663 12.374753 -17.043406 29.336948 -0.544792 2.190696 0.039765 -0.022137 -541333.000000 0 0 1
-19.267963 12.540953 -16.087206 28.059368 -0.576987 2.181358 0.039079 -0.025902 -304647.000000 0 0 1
-18.306863 13.529053 -16.501906 28.115644 -0.636434 2.198058 0.026714 -0.015723 65070.400000 0 0 1
-17.380563 13.774053 -15.501606 27.057500 -0.670149 2.180852 0.024824 -0.010238 -541179.000000 0 0 1
-16.494463 14.999353 -15.757206 27.300869 -0.737961 2.186054 0.010867 0.001932 -195129.000000 0 0 1
-15.352063 14.774953 -16.552506 26.980929 -0.766245 2.231268 0.020606 -0.000549 -204859.000000 0 0 1
-14.869063 15.921353 -17.216506 27.766646 -0.819561 2.239593 0.003963 0.008100 145146.000000 0 0 1
-14.177863 15.520953 -18.583706 28.058260 -0.830591 2.294715 -0.003058 0.004544 1070390.000000 0 0 1
-13.007463 14.710153 -18.341206 26.869733 -0.846751 2.322107 -0.007121 0.004480 316491.000000 0 0 1
-12.252663 14.488553 -19.490306 27.201433 -0.868816 2.369594 -0.003475 0.000129 191142.000000 0 0 1
-11.356863 13.240953 -19.341106 26.045721 -0.861845 2.407715 -0.005306 -0.010732 211241.000000 0 0 1
-11.974363 12.118853 -19.931206 26.220316 -0.791395 2.434330 0.005095 -0.011478 74294.000000 0 0 1
-11.205263 10.975453 -19.679106 25.165169 -0.775038 2.468661 -0.007337 0.004462 -235162.000000 0 0 1
-11.598363 9.858753 -20.641906 25.647716 -0.704501 2.506176 0.000739 0.001471 -51455.600000 0 0 1
-11.210463 10.169353 -21.958206 26.669328 -0.736741 2.538086 -0.001012 -0.002322 -276222.000000 0 0 1
-11.594763 9.210353 -22.849806 27.228345 -0.671289 2.566592 -0.001070 0.013480 -231501.000000 0 0 1
-11.228663 9.356453 -24.322906 28.376572 -0.694698 2.600502 0.000194 0.001218 -226604.000000 0 0 1
-9.839363 9.099253 -24.589006 28.004084 -0.746339 2.642570 -0.011560 0.002417 562085.000000 0 0 1
-9.632863 8.435853 -25.832676 28.831976 -0.719247 2.681414 -0.019681 -0.003700 -301649.000000 0 0 1
-9.643363 9.289053 -27.149726 30.271911 -0.766686 2.683419 0.003091 -0.005330 -506285.000000 0 0 1
-8.519063 10.049753 -27.466076 30.462392 -0.867646 2.694340 -0.007646 -0.014342 -303113.000000 0 0 1
-8.374663 11.275553 -26.726106 30.192016 -0.931966 2.657730 -0.015996 -0.009852 -647459.000000 0 0 1
-6.938963 11.795253 -26.692216 29.995860 -1.039036 2.667842 -0.003451 -0.006759 -568641.000000 0 0 1
-6.474163 12.128653 -27.999156 31.192495 -1.080483 2.685147 -0.014089 -0.010868 168261.000000 0 0 1
-5.134663 12.580153 -27.868576 31.004557 -1.183279 2.687944 0.009598 -0.013704 79061.300000 0 0 1
-4.451063 12.532453 -29.287506 32.165702 -1.229529 2.715336 0.004156 -0.014897 177599.000000 0 0 1
-3.086963 12.963053 -29.210596 32.106526 -1.337015 2.713604 0.020591 -0.022067 521794.000000 0 0 1
-2.547263 13.125753 -30.536806 33.335724 -1.379113 2.728886 0.016740 -0.020250 314555.000000 0 0 1
-1.012663 12.943653 -30.560126 33.203689 -1.492719 2.739856 0.034275 -0.030613 -7551.590000 0 0 1
-0.612663 11.677953 -30.085356 32.278145 -1.518381 2.770870 0.021972 -0.019595 1751860.000000 0 0 1
0.838537 11.429853 -30.122406 32.228932 1.497564 2.778038 0.043444 -0.025291 2083060.000000 0 0 1
1.420137 10.828853 -31.411446 33.255974 1.440397 2.806973 0.048051 -0.021003 -307306.000000 0 0 1
1.533837 11.811053 -32.406546 34.525902 1.441655 2.789391 0.046843 -0.026883 207932.000000 0 0 1
1.709437 11.091753 -33.647626 35.469873 1.417882 2.819659 0.037357 -0.026738 -77754.800000 0 0 1
1.776937 12.028353 34.185442 36.283374 1.424128 0.341721 0.041023 -0.025373 -537042.000000 0 0 1
3.002937 12.689853 33.948112 36.366528 1.338430 0.366747 0.044195 -0.023737 -118080.000000 0 0 1
2.956837 13.435653 32.753466 35.525332 1.354176 0.397646 0.046984 -0.015813 -228031.000000 0 0 1
4.363937 13.691053 32.198676 35.259660 1.262233 0.419759 0.059454 -0.016762 -223471.000000 0 0 1
5.017137 12.444753 31.909506 34.615894 1.187575 0.398055 0.054848 -0.014324 95299.600000 0 0 1
6.314137 12.730053 31.416536 34.480739 1.110352 0.424771 0.065730 -0.005887 291583.000000 0 0 1
7.143637 11.434953 31.077716 33.876454 1.012399 0.409339 0.038919 -0.000333 207595.000000 0 0 1
6.609337 10.678653 29.987276 32.510824 1.016574 0.396604 0.025880 -0.000135 -423911.000000 0 0 1
7.523637 9.749153 29.562976 32.025313 0.913537 0.394698 0.026914 0.007028 -411907.000000 0 0 1
7.035037 8.779553 28.446036 30.590019 0.895265 0.376622 0.015722 0.007754 -470579.000000 0 0 1
6.175837 7.801953 28.847636 30.515530 0.901213 0.332152 0.021614 0.003999 -490946.000000 0 0 1
5.635637 7.024753 27.785646 29.208726 0.894682 0.313439 0.036019 0.002281 172838.000000 0 0 1
4.956437 5.728753 28.305306 29.301455 0.857552 0.261499 0.047391 -0.011107 557839.000000 0 0 1
5.937937 4.896653 28.934946 29.941066 0.689585 0.259974 0.030442 -0.007151 757414.000000 0 0 1
5.323637 4.277053 30.049066 30.815267 0.676816 0.223464 0.032617 -0.008971 -48754.300000 0 0 1
6.169537 3.118453 30.543556 31.316078 0.468006 0.222579 0.046081 -0.003999 -124133.000000 0 0 1
5.992737 1.867353 29.866346 30.518823 0.302067 0.207153 0.041204 -0.001805 -337041.000000 0 0 1
6.942237 1.620253 28.875306 29.742279 0.229286 0.242042 0.027580 -0.000206 -361187.000000 0 0 1
6.945037 0.178653 28.395336 29.232868 0.025718 0.239951 0.019745 -0.001695 -238583.000000 0 0 1
7.449237 -0.723247 29.273436 30.215034 -0.096787 0.250306 0.002570 -0.006213 -97032.300000 0 0 1
7.500837 -2.015747 28.691536 29.724233 -0.262534 0.264370 0.008974 -0.005190 -385659.000000 0 0 1
8.023037 -3.105647 29.725946 30.945857 -0.369329 0.281718 0.003990 -0.006556 322228.000000 0 0 1
9.410337 -3.201247 29.990136 31.594472 -0.327903 0.320046 0.003238 -0.014620 36834.000000 0 0 1
10.152337 -3.918547 29.045796 31.017466 -0.368358 0.358473 0.009927 -0.006490 -872184.000000 0 0 1
11.661537 -3.824347 29.288276 31.755632 -0.316894 0.396802 0.007438 -0.004991 -244125.000000 0 0 1
12.310237 -4.989747 28.745586 31.666200 -0.385095 0.432863 0.013647 -0.004570 221635.000000 0 0 1
12.544037 -6.108747 29.634576 32.754813 -0.453181 0.440028 0.019474 -0.004060 -58894.200000 0 0 1
11.760037 -7.383547 29.157106 32.294768 -0.560647 0.444460 0.020844 0.000082 445839.000000 0 0 1
10.351937 -7.297247 29.217176 31.844243 -0.614018 0.409041 0.017406 0.002243 108749.000000 0 0 1
9.582837 -8.449747 28.862056 31.563385 -0.722645 0.416734 0.014322 -0.002304 409900.000000 0 0 1
8.104437 -8.050247 28.682306 30.873339 -0.782044 0.379010 0.015360 -0.002519 -38963.900000 0 0 1
7.455937 -7.687047 29.907946 31.767388 -0.800659 0.343840 0.010730 0.001298 -55049.600000 0 0 1
6.103737 -7.468347 29.555066 31.089126 -0.885607 0.315453 0.001675 0.005747 10579.000000 0 0 1
5.308737 -6.752447 30.674946 31.854835 -0.904530 0.273022 -0.002833 0.000740 44344.600000 0 0 1
5.339937 -7.456547 31.911176 33.202984 -0.949320 0.279862 -0.008477 -0.003697 10592.900000 0 0 1
4.689937 -6.865247 33.002648 34.033835 -0.971474 0.246792 -0.003875 -0.000225 -184757.000000 0 0 1
5.461737 -5.702747 33.655900 34.569806 -0.806982 0.230451 0.017718 0.004891 8393.760000 0 0 1
5.540737 -4.569247 32.752666 33.530806 -0.689600 0.215857 0.014061 0.002167 25115.200000 0 0 1
6.334437 -3.635747 33.454083 34.242071 -0.521056 0.214947 0.013611 0.001766 -169034.000000 0 0 1
6.337037 -2.286047 32.737446 33.423411 -0.346214 0.202949 0.014659 0.001281 464374.000000 0 0 1
5.012037 -1.739147 32.671176 33.099107 -0.333994 0.160977 0.018928 -0.000722 466484.000000 0 0 1
4.952037 -0.504147 31.945086 32.330564 -0.101456 0.154575 0.023106 0.002001 -305263.000000 0 0 1
3.526337 0.028353 31.808526 32.003409 0.008040 0.110414 0.021696 -0.006188 -199078.000000 0 0 1
2.899837 0.370153 33.004585 33.133800 0.126960 0.088344 0.027052 -0.001254 -69902.200000 0 0 1
1.550437 0.777253 32.851096 32.896846 0.464697 0.052745 0.035215 0.003569 322806.000000 0 0 1
0.830837 0.882653 34.196790 34.218267 0.815629 0.035432 0.032368 0.003046 -303063.000000 0 0 1
1.052237 2.120153 -34.190707 34.272536 1.110111 3.072476 0.032137 0.004079 -160807.000000 0 0 1
0.310037 2.446953 -33.035246 33.127197 1.444765 3.067068 0.022664 0.011240 -275627.000000 0 0 1
0.922837 3.583553 -32.211506 32.423365 1.318753 3.027214 0.021104 0.012262 622334.000000 0 0 1
2.098937 3.149353 -31.498426 31.724987 0.982933 3.022011 0.018025 0.015973 907474.000000 0 0 1
2.808637 4.217953 -30.809676 31.223640 0.983341 2.978575 0.017719 0.013073 393281.000000 0 0 1
3.957937 3.641053 -29.945366 30.424456 0.743722 2.963894 0.029147 0.008011 -126359.000000 0 0 1
3.525637 2.892653 -28.817426 29.176045 0.687094 2.984642 0.040828 -0.012475 181958.000000 0 0 1
4.572937 2.179753 -28.186396 28.638017 0.444805 2.963764 0.047965 -0.018776 -237345.000000 0 0 1
4.171337 1.501053 -26.832246 27.196004 0.345422 2.977853 0.048818 -0.019908 -145840.000000 0 0 1
3.279837 0.434653 -26.975276 27.177413 0.131755 3.019552 0.049702 -0.016031 -189798.000000 0 0 1
2.957837 -0.263747 -25.746896 25.917581 -0.088934 3.026763 0.042341 -0.014236 -46437.000000 0 0 1
3.721237 -1.599447 -25.409566 25.730369 -0.405943 2.983518 0.053449 -0.023049 -355041.000000 0 0 1
5.000637 -1.583447 -24.875906 25.422911 -0.306660 2.933776 0.045721 -0.024539 -581821.000000 0 0 1
5.553437 -2.895447 -24.967506 25.741030 -0.480604 2.895821 0.037820 -0.024856 -370399.000000 0 0 1
6.981937 -3.206947 -24.504706 25.680977 -0.430578 2.837760 0.031367 -0.024790 186810.000000 0 0 1
7.889237 -2.621047 -25.463056 26.785764 -0.320758 2.826021 0.020896 -0.015460 94773.400000 0 0 1
9.212037 -2.937847 -25.040006 26.842028 -0.308717 2.773084 0.007898 -0.007453 349382.000000 0 0 1
-28.649203 -4.699747 17.902696 34.108225 0.162596 1.018223 0.039560 -0.002332 81998.200000 0 0 1
-30.041653 -4.524247 17.992296 35.308532 0.149476 1.036107 0.032485 -0.005479 -349618.000000 0 0 1
-30.621743 -5.187147 19.071096 36.445910 0.167801 1.020111 0.021705 -0.003855 -222409.000000 0 0 1
-32.074243 -4.760447 19.298596 37.734000 0.147344 1.033939 0.028762 -0.004167 -664227.000000 0 0 1
-32.934743 -4.990847 18.248596 37.981800 0.150393 1.069621 0.026569 -0.003017 -1198720.000000 0 0 1
-34.226700 -4.795947 18.690396 39.291208 0.139217 1.075049 0.015476 0.002351 -773618.000000 0 0 1
35.249498 -4.928147 17.594396 39.703608 -0.138907 1.111694 0.008822 0.000011 1109540.000000 0 0 1
33.903319 -4.954547 18.112796 38.756366 -0.145110 1.084505 0.004814 0.005669 933283.000000 0 0 1
32.951089 -4.802347 17.059096 37.414563 -0.144723 1.097359 0.010720 0.000271 1035330.000000 0 0 1
31.499589 -5.244247 17.471096 36.400074 -0.164973 1.070171 0.013677 0.006913 730995.000000 0 0 1
30.928299 -4.409147 18.493296 36.304300 -0.141606 1.036313 0.018101 -0.000561 440368.000000 0 0 1
29.837539 -5.063147 19.129596 35.803011 -0.168089 1.007115 0.017613 -0.000799 226328.000000 0 0 1
29.343879 -4.388447 20.459196 36.040261 -0.148452 0.967116 0.018498 0.005133 -60575.600000 0 0 1
28.518279 -3.238347 20.306096 35.158451 -0.113069 0.955060 0.018572 0.002491 -169409.000000 0 0 1
29.106759 -2.071347 19.821296 35.275737 -0.071044 0.974120 0.015792 -0.000732 -633102.000000 0 0 1
28.209119 -0.828947 19.984696 34.580769 -0.029377 0.954627 0.004793 0.007799 -425034.000000 0 0 1
28.700869 0.389353 19.466996 34.682206 0.013565 0.974845 0.009734 0.002205 151334.000000 0 0 1
27.794289 1.456953 19.780096 34.145240 0.052371 0.952935 0.007082 0.000994 411674.000000 0 0 1
28.116899 2.782553 18.993096 34.044681 0.098643 0.978958 0.009532 0.011533 63311.300000 0 0 1
27.807309 2.716853 17.617596 33.030401 0.097394 1.008211 0.010404 0.005423 -178212.000000 0 0 1
28.090499 3.876053 16.923496 33.022789 0.137119 1.032727 0.006783 0.007172 76992.200000 0 0 1
27.595839 3.840253 15.435496 31.851725 0.138273 1.064885 0.014253 0.004139 -472488.000000 0 0 1
27.455659 5.130953 14.902196 31.657785 0.184750 1.080681 0.015318 -0.002659 127958.000000 0 0 1
27.088249 5.086853 13.528796 30.703055 0.185626 1.114492 0.016574 -0.000524 -385988.000000 0 0 1
26.406179 6.356753 13.106396 30.157457 0.236235 1.121204 0.020039 0.002005 -349944.000000 0 0 1
25.194439 6.566253 13.783196 29.459326 0.254952 1.083915 0.007634 0.003418 -144954.000000 0 0 1
24.624639 7.837253 13.514796 29.162392 0.308132 1.088932 0.019639 -0.002855 -877133.000000 0 0 1
23.499939 8.258353 14.446396 28.794893 0.337939 1.045234 0.021893 0.001406 -615483.000000 0 0 1
22.302939 7.571453 14.180696 27.492547 0.327274 1.028853 0.033736 0.003111 118380.000000 0 0 1
22.114539 6.200853 14.560396 27.193906 0.273377 1.005781 0.041116 0.001100 -1714640.000000 0 0 1
20.713739 5.746453 14.239596 25.784623 0.270617 0.985734 0.047671 -0.004027 -1049030.000000 0 0 1
20.408239 5.837653 12.860696 24.818781 0.278604 1.026070 0.036770 -0.004472 -363420.000000 0 1 0
19.305939 5.069953 12.593796 23.601428 0.256812 1.007941 0.031746 -0.003380 -1227680.000000 0 1 0
19.215739 4.885253 11.028496 22.687839 0.248958 1.063178 0.043485 -0.004937 289941.000000 0 1 0
20.273839 4.115753 10.425496 23.165900 0.200286 1.103990 0.042537 -0.002531 1041920.000000 0 1 0
20.029239 3.970953 9.054796 22.336701 0.195720 1.153405 0.052744 -0.004955 -198482.000000 0 1 0
21.171839 3.238753 8.326496 22.979704 0.151798 1.200018 0.057411 -0.007494 -1004970.000000 0 1 0
21.335839 1.912753 8.662496 23.106611 0.089411 1.186515 0.062101 -0.010561 853021.000000 0 1 0
22.229939 1.200753 7.776996 23.581638 0.053963 1.234715 0.055729 -0.003483 142437.000000 0 1 0
23.745639 1.491653 7.847996 25.053372 0.062736 1.252182 0.047146 -0.007669 -325449.000000 0 0 1
24.429839 0.989853 9.013196 26.058291 0.040496 1.217613 0.038527 0.001267 576810.000000 0 0 1
24.309039 1.857053 10.187896 26.422930 0.076245 1.174971 0.040629 -0.001658 -533656.000000 0 0 1
25.037339 1.349553 11.439496 27.559965 0.053850 1.142769 0.021754 -0.006895 -830464.000000 0 0 1
26.409529 1.171953 11.341396 28.765673 0.044347 1.165525 0.027272 -0.012473 -852088.000000 0 0 1
26.835369 0.528553 12.502896 29.609775 0.019694 1.134864 0.009782 -0.016052 -463147.000000 0 0 1
28.363319 0.374053 12.555196 31.020166 0.013187 1.154099 0.018850 -0.016465 -303522.000000 0 0 1
28.868359 1.607353 12.884396 31.653963 0.055621 1.151586 0.014409 -0.009885 -1217540.000000 0 0 1
30.234609 1.641353 13.091696 32.988151 0.054234 1.162702 0.006875 -0.005719 -836216.000000 0 0 1
30.779659 3.056753 13.313896 33.674782 0.098986 1.164329 0.012031 -0.006086 -474594.000000 0 0 1
30.918459 3.797053 12.107396 33.420918 0.122197 1.200094 0.015924 -0.014904 -60393.100000 0 0 1
31.452979 5.055653 12.340596 34.163428 0.159374 1.201218 0.020283 -0.010347 -420721.000000 0 0 1
32.950409 5.082653 12.028696 35.443650 0.153045 1.224544 0.018385 -0.007111 -448125.000000 0 0 1
33.727739 4.176253 12.826596 36.325239 0.123195 1.209909 0.013409 -0.007262 936655.000000 0 0 1
35.120363 4.303453 12.490196 37.522854 0.121927 1.231452 0.022811 -0.003174 834727.000000 0 0 1
-34.574525 3.281753 13.261096 37.175588 -0.094635 1.206047 0.037147 0.001848 -418413.000000 0 0 1
-34.496337 1.957753 12.696896 36.810885 -0.056692 1.218640 0.037501 0.000337 187856.000000 0 0 1
34.988492 1.069653 12.936296 37.318715 0.030562 1.216806 0.034624 0.007822 -34467.700000 0 0 1
34.794164 0.660753 14.456596 37.683731 0.018988 1.177073 0.038058 0.001305 17048.200000 0 0 1
-34.867205 -0.305147 14.996996 37.956883 0.008751 1.164613 0.034172 0.000866 317722.000000 0 0 1
-35.216546 -0.515547 16.364496 38.836422 0.014638 1.135841 0.040164 0.001034 -336403.000000 0 0 1
-34.276563 -1.341647 17.284796 38.411547 0.039122 1.104043 0.034591 -0.000344 -541085.000000 0 0 1
-33.158313 -0.556047 17.596596 37.542284 0.016768 1.082962 0.033326 0.005093 -330835.000000 0 0 1
-32.242693 -1.252947 18.422396 37.155697 0.038840 1.052022 0.027456 0.001464 -84234.900000 0 0 1
-32.315813 -1.112247 19.961396 38.000082 0.034404 1.017730 0.022601 -0.000278 -625395.000000 0 0 1
-33.399133 -1.762647 20.551396 39.255177 0.052726 1.019803 0.016412 -0.009573 -251517.000000 0 0 1
-33.429803 -1.543447 21.910996 40.000321 0.046137 0.991099 0.016850 -0.003365 -173906.000000 0 0 1
-34.145877 -2.676247 22.581596 41.024769 0.078217 0.987907 0.011231 0.001107 -289077.000000 0 0 1
-33.413133 -3.918047 22.562596 40.507522 0.116728 0.980030 0.018788 0.000860 225287.000000 0 0 1
-33.756293 -4.979347 23.502796 41.432628 0.146453 0.967630 0.018429 0.002589 -197190.000000 0 0 1
-33.590983 -4.730147 25.025946 42.154791 0.139896 0.935187 0.020922 0.001916 -647894.000000 0 0 1
-32.294543 -4.341647 25.373686 41.299048 0.133638 0.909185 0.022202 -0.009747 -781955.000000 0 0 1
-31.999393 -4.440147 26.749196 41.942765 0.137877 0.879217 0.018407 -0.012115 698332.000000 0 0 1
-30.767793 -3.556447 27.197826 41.219257 0.115079 0.850200 0.021631 -0.011771 494358.000000 0 0 1
-30.910973 -2.153447 26.963886 41.075257 0.069554 0.854692 0.021349 -0.011045 -136489.000000 0 0 1
-30.629013 -1.720047 25.622626 39.970164 0.056099 0.874939 0.021362 -0.006324 -164922.000000 0 0 1
-30.826083 -0.177247 25.467296 39.985772 0.005750 0.880314 0.015068 0.003078 -56532.700000 0 0 1
-32.143803 0.307153 25.285616 40.898421 -0.009555 0.904277 0.018696 0.001499 -198969.000000 0 0 1
-32.202823 1.707353 25.143336 40.891616 -0.052969 0.908566 0.022552 0.003402 -11430.200000 0 0 1
-33.634513 2.272553 24.985216 41.960767 -0.067464 0.932980 0.019314 0.001772 257686.000000 0 0 1
-34.288899 1.836053 23.793996 41.776237 -0.053495 0.964828 0.011095 0.005876 75735.200000 0 0 1
-35.274447 2.732053 23.290696 42.358084 -0.077297 0.988609 0.018766 0.010377 393980.000000 0 0 1
-34.671867 3.928953 22.406096 41.468159 -0.112837 0.999978 0.026793 0.012432 164759.000000 0 0 1
-34.079335 3.529753 21.183096 40.281308 -0.103207 1.017048 0.023504 -0.000150 -188370.000000 0 0 1
-34.979764 3.126053 20.196496 40.512400 -0.089131 1.048898 0.021815 0.003939 -383140.000000 0 0 1
-34.297360 2.288553 19.127196 39.336955 -0.066628 1.063015 0.023149 0.004192 -81468.600000 0 0 1
-33.304323 2.955453 18.388896 38.158409 -0.088509 1.067964 0.028127 0.015020 -40599.800000 0 0 1
-32.921763 2.309353 17.231396 37.230318 -0.070032 1.089609 0.038701 0.010524 4648.770000 0 0 1
-31.847693 3.151653 16.487996 36.000868 -0.098639 1.095065 0.028276 0.010074 130568.000000 0 0 1
-32.420393 4.305853 15.988296 36.403954 -0.132040 1.116098 0.024931 0.004675 568062.000000 0 0 1
-31.476793 4.998853 15.158696 35.292536 -0.157495 1.126840 0.037382 0.003042 466860.000000 0 0 1
-32.134593 6.336453 14.650996 35.880836 -0.194687 1.150179 0.031476 -0.001201 387775.000000 0 0 1
-31.247343 7.136853 13.871596 34.924953 -0.224547 1.162351 0.045106 -0.003940 -96125.700000 0 0 1
-31.847563 8.307153 13.374496 35.526796 -0.255156 1.184822 0.027768 0.001295 -318285.000000 0 0 1
-30.992303 9.329753 12.563996 34.719176 -0.292406 1.200518 0.038173 0.000735 45169.800000 0 0 1
-31.673323 10.532053 12.178696 35.530891 -0.321020 1.220939 0.021699 0.010887 174031.000000 0 0 1
-30.894183 11.146953 11.195396 34.699309 -0.346273 1.242279 0.019415 0.007424 16270.000000 0 0 1
-31.362623 12.588253 11.070996 35.561850 -0.381693 1.254218 0.007374 0.012468 158812.000000 0 0 1
-30.516513 13.359853 10.228496 34.847746 -0.412655 1.272890 0.018350 0.009558 224234.000000 0 0 1
-30.757133 14.706653 10.354696 35.630136 -0.446019 1.275926 0.005930 0.009563 -275273.000000 0 0 1
-29.937663 15.427753 9.302396 34.940146 -0.475836 1.301308 0.019690 0.002511 -211716.000000 0 0 1
-28.544493 15.442953 9.538296 33.826794 -0.495918 1.284945 0.020149 0.008404 46939.500000 0 0 1
-28.005913 16.557253 8.841296 33.714127 -0.533928 1.305450 0.020207 -0.008252 639390.000000 0 0 1
-26.450133 16.748453 9.040696 32.586108 -0.564480 1.289668 0.033286 -0.011270 1057240.000000 0 0 1
-26.056063 17.216453 10.328496 32.893807 -0.583893 1.251398 0.027293 -0.012668 218064.000000 0 0 1
-26.285683 18.600853 10.461796 33.858205 -0.615836 1.256667 0.031859 -0.023786 -329994.000000 0 0 1
-26.081853 19.078953 11.900396 34.436738 -0.631558 1.217947 0.042951 -0.013179 15689.100000 0 0 1
-24.740663 19.194753 12.347596 33.660097 -0.659834 1.195195 0.041981 -0.009213 252042.000000 0 0 1
-24.618363 19.806453 13.633296 34.412587 -0.677503 1.163453 0.047785 -0.013502 34895.500000 0 0 1
-25.051063 18.903253 14.806596 34.700491 -0.646432 1.129959 0.041265 -0.011045 -82765.200000 0 0 1
-24.230463 17.772853 14.932896 33.555641 -0.632852 1.109601 0.051128 -0.012478 -97248.600000 0 0 1
-24.717763 17.007353 16.001196 34.003767 -0.602669 1.080858 0.055264 -0.007221 -133127.000000 0 0 1
-23.748463 15.965853 16.571596 33.068350 -0.591886 1.045890 0.056384 -0.017900 -446848.000000 0 0 1
-22.618163 16.447453 17.221096 32.843054 -0.628735 1.018850 0.048161 -0.024246 -603019.000000 0 0 1
-21.673963 15.493353 17.625196 31.944518 -0.620615 0.986342 0.035642 -0.027837 -177235.000000 0 0 1
-22.072663 14.331853 18.661696 32.262414 -0.575885 0.953988 0.034902 -0.017980 -536889.000000 0 0 1
-22.262863 14.903753 19.948696 33.402207 -0.589923 0.930757 0.032146 -0.016926 173679.000000 0 0 1
-22.429963 14.000753 21.018296 33.777109 -0.558023 0.899164 0.019308 -0.005610 -656513.000000 0 0 1
-21.857263 14.415453 22.424396 34.473160 -0.583043 0.862569 0.023541 -0.006173 576961.000000 0 0 1
-20.437163 14.541453 22.371996 33.610084 -0.618416 0.842454 0.032561 -0.017008 438347.000000 0 0 1
-19.954563 15.854553 22.121896 33.748033 -0.671398 0.855949 0.027434 -0.008007 369650.000000 0 0 1
-18.413963 16.070653 22.314096 33.094695 -0.717550 0.830848 0.039992 -0.023308 662546.000000 0 0 1
-17.567763 15.393853 21.445896 31.709990 -0.719541 0.828050 0.024852 -0.016439 -409316.000000 0 0 1
-17.374263 15.935153 20.154196 31.015895 -0.742221 0.863472 0.028762 -0.034308 -2320860.000000 0 0 1
-16.331063 15.133753 19.427996 29.549639 -0.747364 0.853340 0.027198 -0.021521 1221600.000000 0 0 1
-15.055563 14.799153 20.063996 29.124712 -0.776810 0.810827 0.026289 -0.012536 1765160.000000 0 0 1
-14.449963 15.882753 20.834996 29.919231 -0.832599 0.800463 0.015430 -0.023118 -1790010.000000 0 0 1
-13.399863 15.409353 21.836296 29.896962 -0.855037 0.751911 -0.016052 -0.001778 306588.000000 0 0 1
-12.222563 14.948453 21.130896 28.624501 -0.885387 0.740383 0.005656 -0.003189 983634.000000 0 0 1
-11.432363 14.136153 22.069396 28.593496 -0.890753 0.689078 0.013655 0.004900 851086.000000 0 0 1
-10.116763 13.471553 21.592696 27.387519 -0.926673 0.662570 0.008716 0.009299 -856766.000000 0 0 1
-9.630463 12.367853 22.383896 27.326698 -0.909198 0.610918 0.014171 0.012051 -384456.000000 0 0 1
-8.435963 11.821653 21.978196 26.343084 -0.950999 0.583923 0.018708 0.006941 -376810.000000 0 0 1
-7.164663 12.719253 22.059296 26.452303 -1.057805 0.584610 0.009621 0.008325 -897713.000000 0 0 1
-6.978063 13.682853 21.013096 26.028140 -1.099192 0.631196 0.003687 0.005795 828527.000000 0 0 1
-6.075063 14.825253 21.328896 26.676138 -1.181889 0.644251 -0.009383 0.022320 858462.000000 0 0 1
-6.639863 15.755253 22.428096 28.201690 -1.171947 0.651335 -0.010702 0.014488 -133334.000000 0 0 1
-7.681563 16.597553 22.024596 28.628099 -1.137338 0.692997 -0.025411 0.018229 -440065.000000 0 0 1
-7.199263 17.786953 21.451196 28.781225 -1.186202 0.729783 -0.024949 0.033459 -1223090.000000 0 0 1
-7.941563 18.348253 20.234296 28.445625 -1.162317 0.779404 -0.022984 0.038435 1585580.000000 0 0 1
-9.312963 18.837153 20.362396 29.260841 -1.111644 0.801135 -0.014505 0.018472 1034120.000000 0 0 1
-10.269063 17.822453 20.590496 29.104330 -1.048071 0.784882 -0.012817 0.004036 -885083.000000 0 0 1
-11.592463 18.553153 20.873896 30.237795 -1.012323 0.808859 -0.016526 -0.004491 -634664.000000 0 0 1
-12.336163 18.885053 19.746696 29.979296 -0.992158 0.851736 -0.007437 -0.004468 -87264.800000 0 0 1
-13.541563 19.533553 20.137796 31.152279 -0.964617 0.867899 -0.006049 -0.011535 250883.000000 0 0 1
-14.535863 19.595253 18.959996 30.898976 -0.932560 0.910169 0.010443 -0.013091 -428552.000000 0 0 1
-15.185263 18.415453 18.578596 30.247072 -0.881238 0.909389 0.032356 -0.021858 445792.000000 0 0 1
-15.925363 18.673753 17.352596 30.057260 -0.864667 0.955356 0.044019 -0.029040 -231422.000000 0 0 1
-16.798063 17.514053 16.777596 29.502622 -0.806262 0.965894 0.041179 -0.035055 1005730.000000 0 0 1
-17.992163 17.160553 17.481996 30.394452 -0.761746 0.957984 0.039239 -0.036756 1002390.000000 0 0 1
-19.072463 18.117553 17.424396 31.553354 -0.759727 0.985771 0.042517 -0.032576 114939.000000 0 0 1
33.249879 -9.629647 12.081794 36.664073 -0.281902 1.234994 0.015204 -0.006467 716048.000000 0 0 1
31.896329 -9.910247 11.669694 35.380369 -0.301246 1.234667 -0.004662 0.001524 882841.000000 0 0 1
31.450589 -11.095347 12.351494 35.564106 -0.339155 1.216104 0.016999 0.001311 955748.000000 0 0 1
29.968679 -11.564847 12.047294 34.307501 -0.368290 1.211991 -0.012401 0.009769 707424.000000 0 0 1
29.031119 -10.617847 12.575294 33.371882 -0.350628 1.184432 -0.007315 0.005472 876068.000000 0 0 1
27.711359 -11.189447 12.634094 32.446008 -0.383766 1.170829 -0.004591 0.007563 770703.000000 0 0 1
27.415909 -12.082747 13.854694 33.008747 -0.415110 1.137651 -0.020209 0.010523 -777656.000000 0 0 1
27.578249 -11.313147 15.062394 33.397946 -0.389285 1.102914 -0.015061 0.000593 86106.000000 0 0 1
27.170619 -11.954247 16.241694 33.836949 -0.414481 1.070143 -0.008426 -0.003583 -285250.000000 0 0 1
25.723569 -11.602647 16.610894 32.745155 -0.423728 1.038773 0.018451 -0.017043 -350506.000000 0 0 1
25.594989 -10.186247 16.842194 32.288118 -0.378762 1.022045 0.013986 -0.011563 42609.100000 0 0 1
24.999939 -9.412847 15.768394 31.020007 -0.360098 1.037552 0.030636 -0.011499 121921.000000 0 0 1
24.779339 -7.913047 16.096394 30.589636 -0.309105 1.016666 0.036244 -0.018845 946441.000000 0 0 1
26.025459 -7.252547 16.375294 31.592312 -0.271776 1.025897 0.021362 -0.015562 898318.000000 0 0 1
25.631339 -5.909847 16.792594 31.207099 -0.226611 1.002613 0.008674 -0.002890 237156.000000 0 0 1
26.789529 -4.925047 16.630394 31.914024 -0.181812 1.022657 0.011379 -0.001071 -84621.000000 0 0 1
27.210479 -4.759047 15.290694 31.573153 -0.173146 1.065240 0.017168 -0.007898 -512802.000000 0 0 1
28.264239 -3.893247 15.148794 32.303413 -0.136883 1.082691 0.010486 -0.006654 -891736.000000 0 0 1
28.493879 -3.284447 13.768594 31.816079 -0.114762 1.123249 0.005963 -0.009481 -399708.000000 0 0 1
28.971159 -4.172347 12.781694 31.939133 -0.143034 1.159073 -0.015008 0.000348 378320.000000 0 0 1
28.892049 -3.569947 11.526794 31.310732 -0.122938 1.193787 -0.001960 -0.001638 -150876.000000 0 0 1
29.482519 -4.535347 10.449194 31.606549 -0.152635 1.233855 0.003248 0.000396 169925.000000 0 0 1
30.910889 -4.651647 10.427394 32.952259 -0.149365 1.248823 0.006841 0.000611 707500.000000 0 0 1
31.267569 -5.479147 9.373494 33.099007 -0.173473 1.283672 0.009967 0.005501 476940.000000 0 0 1
32.701859 -6.097247 9.434794 34.577497 -0.184333 1.294432 0.016112 0.002200 -216442.000000 0 0 1
33.733759 -5.356747 8.918394 35.301543 -0.157480 1.315394 0.026591 0.002605 -1185420.000000 0 0 1
34.845468 -6.197747 8.807394 36.471754 -0.176023 1.326900 0.041591 -0.004780 21940.700000 0 0 1
-34.478958 -5.462947 8.211494 35.861832 0.157137 1.339771 0.045725 0.000041 193192.000000 0 0 1
-34.693865 -4.912247 6.912894 35.715298 0.140653 1.376011 0.049993 0.002556 -429228.000000 0 0 1
-33.656353 -4.089947 6.502094 34.521805 0.120928 1.381317 0.040570 0.013450 -768353.000000 0 0 1
-33.775203 -3.416547 5.098194 34.328250 0.100813 1.421732 0.047949 0.001355 -261975.000000 0 0 1
-33.307903 -4.154447 3.965594 33.799434 0.124088 1.453198 0.049875 -0.005747 232326.000000 0 0 1
-33.412803 -3.446447 2.698894 33.698330 0.102784 1.490621 0.037245 -0.000467 122732.000000 0 0 1
-32.734493 -4.141847 1.453294 33.027473 0.125860 1.526780 0.059860 -0.010595 -143298.000000 0 0 1
-33.353553 -5.267047 1.037094 33.782789 0.156622 1.540093 0.064426 -0.011340 62092.700000 0 0 1
-34.471946 -5.135647 0.163594 34.852786 0.147893 1.566102 0.052707 -0.016371 -163148.000000 0 0 1
-34.006693 -5.176047 -1.309306 34.423261 0.151047 1.608841 0.070745 -0.015368 -994448.000000 0 0 1
-33.666253 -6.508347 -1.641406 34.328842 0.190964 1.618629 0.072260 -0.021031 847588.000000 0 0 1
-32.569953 -6.597147 -2.571906 33.330750 0.199849 1.648036 0.060182 -0.017299 768756.000000 0 0 1
-31.155903 -6.213147 -2.056406 31.835865 0.196839 1.635435 0.056769 -0.022393 -388656.000000 0 0 1
-30.598423 -7.173947 -1.183906 31.450447 0.230295 1.608449 0.068770 -0.020773 443601.000000 0 0 1
-29.604773 -6.655347 -0.274006 30.344873 0.221130 1.579826 0.046035 -0.018248 431995.000000 0 0 1
-29.113733 -7.816347 0.601194 30.150724 0.262291 1.550855 0.030131 -0.011256 -175097.000000 0 0 1
-28.503393 -8.817947 -0.203406 29.836906 0.300026 1.577614 0.029178 -0.008974 322974.000000 0 0 1
-27.948223 -9.790647 0.609494 29.619781 0.336954 1.550218 0.039405 -0.005697 -221257.000000 0 0 1
-27.518213 -11.068647 -0.133706 29.661168 0.382427 1.575304 0.013988 -0.004652 -79401.100000 0 0 1
-26.381263 -11.061747 -0.980006 28.623307 0.397035 1.605041 0.006937 -0.004297 258479.000000 0 0 1
-25.857023 -12.324747 -1.261406 28.671871 0.444794 1.614805 -0.002331 0.001875 -686327.000000 0 0 1
-26.631443 -13.252847 -2.141406 29.823771 0.461757 1.642660 0.007674 -0.002189 -1243750.000000 0 0 1
-27.810923 -13.795847 -1.653006 31.088668 0.460489 1.623992 0.015654 -0.005013 -175345.000000 0 0 1
-28.198073 -14.899447 -2.438606 31.985491 0.486097 1.647111 0.021124 -0.013746 -536687.000000 0 0 1
-29.071513 -15.876747 -1.677406 33.166815 0.499865 1.621393 0.032243 -0.009636 -593465.000000 0 0 1
-28.429723 -16.475947 -0.582906 32.864050 0.525234 1.588534 0.011339 0.001094 105168.000000 0 0 1
-29.247583 -17.290647 0.259794 33.977273 0.533910 1.563150 0.011485 0.006109 -13773.900000 0 0 1
-29.539603 -18.763447 -0.161106 34.995443 0.565898 1.575400 0.020250 0.004416 -403172.000000 0 0 1
-28.460723 -19.647847 -0.023506 34.583973 0.604220 1.571476 0.019926 -0.001168 -27703.100000 0 0 1
-28.805033 -21.051647 -0.157506 35.678096 0.631120 1.575211 0.028086 -0.003848 106698.000000 0 0 1
-29.662113 -21.618147 1.010994 36.717943 0.629803 1.543259 0.025232 -0.003705 -22829.800000 0 0 1
-28.950003 -21.836847 2.232994 36.330935 0.646244 1.509295 0.020620 -0.004511 -112144.000000 0 0 1
-29.884223 -21.983747 3.272394 37.243261 0.634241 1.482817 0.010651 0.006216 -269589.000000 0 0 1
-29.341103 -22.275147 4.655694 37.131630 0.649350 1.445082 -0.002571 0.007100 -642521.000000 0 0 1
-28.717093 -21.175647 5.219894 36.060043 0.635381 1.425530 -0.012657 0.008499 -151970.000000 0 0 1
-28.017903 -21.459647 6.410594 35.869416 0.653616 1.391111 -0.023765 0.008054 149178.000000 0 0 1
-27.340803 -20.118247 6.893194 34.637833 0.634372 1.370451 -0.019813 0.015494 260892.000000 0 0 1
-26.429153 -20.291147 7.958894 34.257477 0.654769 1.336328 -0.009356 0.012505 -291512.000000 0 0 1
-26.047043 -19.050747 8.552894 33.384598 0.631489 1.311715 -0.003053 0.002899 -83414.600000 0 0 1
-24.960063 -19.230547 9.581394 32.933596 0.656463 1.275597 0.003633 0.001732 -411154.000000 0 0 1
-25.556353 -19.834847 10.748194 34.089177 0.660011 1.250027 -0.002826 -0.000405 -5325.810000 0 0 1
-24.669063 -20.115347 11.835794 33.959915 0.684066 1.214802 0.004948 0.003394 -371019.000000 0 0 1
-24.332163 -18.950047 12.787294 33.386724 0.661684 1.177749 0.007594 -0.003383 -808114.000000 0 0 1
-23.376563 -18.064047 12.331694 32.013187 0.657898 1.175365 -0.000073 -0.006058 -615862.000000 0 0 1
-23.178963 -16.907847 13.096394 31.538154 0.630218 1.142573 0.008675 -0.007415 347096.000000 0 0 1
-22.405163 -17.072247 14.457294 31.661748 0.651123 1.096607 0.033870 -0.013438 -170482.000000 0 0 1
-23.168163 -17.787547 15.401994 33.020933 0.654770 1.085544 0.026847 -0.009728 -421180.000000 0 0 1
-22.498163 -17.923647 16.599494 33.210957 0.672708 1.047406 0.047338 -0.008619 104897.000000 0 0 1
-23.422363 -18.404647 17.783194 34.692652 0.666005 1.032595 0.041716 0.006554 405143.000000 0 0 1
-24.179963 -17.360147 18.361094 34.973920 0.622676 1.018088 0.046527 -0.000271 325921.000000 0 0 1
-25.308343 -17.899747 19.054494 36.386631 0.615586 1.019646 0.037282 0.015279 190589.000000 0 0 1
-26.200033 -16.843847 19.713194 36.861456 0.571364 1.006535 0.034278 0.007688 -209301.000000 0 0 1
-25.690403 -16.452447 20.978494 37.024006 0.569606 0.968400 0.048030 -0.002660 292146.000000 0 0 1
-26.334583 -15.301647 21.521194 37.293598 0.526367 0.955654 0.053280 -0.010030 -657047.000000 0 0 1
-25.651463 -14.785547 22.766794 37.348853 0.522887 0.915276 0.052756 -0.012441 1116110.000000 0 0 1
-24.381963 -14.213747 22.320294 35.982026 0.527797 0.901648 0.056319 -0.014847 766849.000000 0 0 1
-23.419863 -14.026747 23.288394 35.882989 0.539629 0.864515 0.046499 -0.018861 -882692.000000 0 0 1
-22.238063 -13.309547 22.671094 34.433326 0.539318 0.852098 0.043106 -0.007904 -686298.000000 0 0 1
-22.525263 -11.931147 22.504794 34.003022 0.487108 0.847517 0.046552 -0.011826 475763.000000 0 0 1
-21.560663 -11.274947 21.670694 32.582289 0.481831 0.843160 0.040641 -0.001848 -218289.000000 0 0 1
-21.392263 -9.775947 22.111494 32.281825 0.428648 0.816259 0.040185 0.003833 -96162.400000 0 0 1
-20.660463 -9.486547 23.268094 32.530808 0.430449 0.773796 0.034123 0.002587 416523.000000 0 0 1
-19.257563 -9.703147 23.183794 31.662171 0.466732 0.749215 0.028385 0.008457 201640.000000 0 0 1
-18.587463 -9.809547 24.590094 32.348009 0.485601 0.707216 0.012534 0.004653 450449.000000 0 0 1
-18.979863 -11.031647 25.266094 33.471001 0.526503 0.715348 0.020699 0.007553 425589.000000 0 0 1
-18.233063 -10.933147 26.479494 33.957943 0.540150 0.676493 0.009980 -0.000150 -625893.000000 0 0 1
-18.089163 -12.203047 27.359394 34.995265 0.593479 0.673245 0.024246 -0.014955 562213.000000 0 0 1
-19.279963 -12.566147 28.070794 36.298684 0.577620 0.686722 0.036829 -0.014156 612209.000000 0 0 1
-20.357263 -13.046347 27.292794 36.462610 0.569930 0.724977 0.020735 -0.008882 873930.000000 0 0 1
-21.713563 -13.533447 27.950794 37.893006 0.557355 0.741252 0.022218 -0.013776 1156960.000000 0 0 1
-21.610863 -14.737847 28.740194 38.861707 0.598519 0.738394 0.024929 -0.014973 -285221.000000 0 0 1
-20.900563 -14.549747 29.937694 39.303870 0.608132 0.704866 0.017194 -0.010898 171273.000000 0 0 1
-21.458963 -15.449947 31.124694 40.840354 0.624007 0.704236 0.025437 -0.010840 -149628.000000 0 0 1
-21.219663 -16.813747 30.974994 41.139111 0.670069 0.718289 0.033365 -0.008399 -4845.710000 0 0 1
-21.283463 -17.519247 32.213094 42.398033 0.688692 0.707825 0.033345 -0.003727 577544.000000 0 0 1
-22.729463 -18.007547 32.576594 43.613469 0.670001 0.727350 0.034221 -0.005022 793115.000000 0 0 1
-23.584563 -17.048947 33.161094 44.119795 0.625921 0.720289 0.038690 -0.016969 -431099.000000 0 0 1
-24.769863 -17.620747 33.641894 45.341083 0.618322 0.734787 0.031225 -0.015850 -245951.000000 0 0 1
-25.627893 -16.580947 34.393394 45.985022 0.574255 0.725864 0.026863 -0.021375 35539.200000 0 0 1
-25.055363 -16.316747 -33.352409 44.792752 0.577238 2.410723 0.026270 -0.018953 180426.000000 0 0 1
-25.778173 -15.272747 -32.713209 44.361301 0.534863 2.400049 0.012254 -0.013635 -141220.000000 0 0 1
-25.165003 -14.825347 -31.360409 42.854912 0.532385 2.391728 0.004396 -0.004908 -250941.000000 0 0 1
-25.604183 -15.614247 -30.297109 42.629728 0.547617 2.361294 0.000779 0.002516 67898.500000 0 0 1
-24.918663 -15.231247 -29.143509 41.258632 0.548642 2.355141 0.010432 0.008115 -488651.000000 0 0 1
-25.433923 -16.058847 -27.947709 41.059048 0.563185 2.319475 0.001408 0.007824 -421173.000000 0 0 1
-26.648153 -15.667847 -27.396709 41.305994 0.531514 2.295966 0.009213 -0.000062 -509234.000000 0 0 1
-26.705883 -14.393447 -26.811709 40.487569 0.494329 2.294575 0.015376 0.005820 -604072.000000 0 0 1
-25.883083 -14.079647 -25.505609 38.970585 0.498203 2.284296 0.014843 -0.000990 123411.000000 0 0 1
-24.525563 -13.859647 -25.847509 38.232012 0.514370 2.313212 -0.001890 -0.001978 592435.000000 0 0 1
-23.620863 -14.018747 -24.740209 36.966855 0.535619 2.304000 0.003172 -0.007875 695052.000000 0 0 1
-22.909163 -15.444947 -24.665509 37.037325 0.593188 2.299581 -0.004724 -0.008111 82885.600000 0 0 1
-22.045263 -15.794047 -25.749409 37.396224 0.621673 2.330293 -0.015484 0.001508 225108.000000 0 0 1
-21.657063 -17.141447 -25.609309 37.665558 0.669533 2.318441 -0.007594 0.000772 -30555.000000 0 0 1
-20.840863 -17.692747 -26.817909 38.295889 0.703881 2.346588 -0.008930 -0.002373 157711.000000 0 0 1
-21.531563 -17.849447 -28.073109 39.627142 0.692169 2.358069 0.001899 -0.003641 293583.000000 0 0 1
-22.380963 -18.974647 -28.185609 40.686278 0.703217 2.336098 0.006372 -0.008472 -167186.000000 0 0 1
-23.229763 -18.997847 -29.471509 42.060788 0.685515 2.347158 0.003540 -0.003071 -291919.000000 0 0 1
-22.545263 -19.421647 -30.626509 42.702134 0.711105 2.370590 0.018853 -0.011244 -24297.900000 0 0 1
-23.190863 -19.024147 -31.794509 43.710697 0.687015 2.385300 0.015377 -0.005287 -628039.000000 0 0 1
-22.380763 -19.264747 -33.070509 44.336075 0.710715 2.412689 0.029123 -0.014489 -718951.000000 0 0 1
-21.314663 -18.373947 -33.339709 43.628579 0.711439 2.440552 0.022809 -0.003564 1167640.000000 0 0 1
-19.982463 -18.832247 -32.999009 42.928859 0.755773 2.447588 0.022851 -0.005835 1012630.000000 0 0 1
-19.458263 -20.010647 -33.852609 43.875381 0.799393 2.452090 0.032519 -0.001351 -1328200.000000 0 0 1
-18.820763 -19.648647 34.002794 43.548598 0.806915 0.674849 0.025966 -0.002944 -5959.110000 0 0 1
-18.573363 -20.781847 33.170394 43.325858 0.841456 0.698819 0.036955 -0.008083 -337403.000000 0 0 1
-19.768363 -21.254847 32.337694 43.454380 0.821617 0.731496 0.047248 -0.007102 191566.000000 0 0 1
-20.756163 -21.986347 33.053294 44.796629 0.814171 0.740914 0.040926 -0.004283 1102510.000000 0 0 1
-21.890763 -22.516247 32.292694 45.044477 0.799482 0.771441 0.034108 0.000947 973426.000000 0 0 1
-21.786263 -23.745247 31.366294 44.970239 0.828396 0.798907 0.043698 0.003086 -420078.000000 0 0 1
-21.274163 -24.876047 32.041694 45.804780 0.863287 0.796061 0.034795 0.009530 61546.500000 0 0 1
-21.398563 -26.080187 31.299294 46.018696 0.883685 0.822839 0.039211 0.012856 -24460.400000 0 0 1
-20.727763 -27.274227 32.008894 46.883823 0.920941 0.819307 0.044694 0.005748 -258252.000000 0 0 1
-21.514363 -27.793257 33.046594 48.243241 0.912058 0.816193 0.035371 0.001041 3198.680000 0 0 1
-20.880563 -28.841437 33.803394 49.096800 0.944158 0.811371 0.034503 -0.010250 -224442.000000 0 0 1
-21.893763 -29.554617 -34.265409 50.268583 0.933216 2.320807 0.040847 -0.014198 54909.600000 0 0 1
-22.899263 -30.318317 34.085394 51.043027 0.923915 0.839577 0.040302 -0.012422 677781.000000 0 0 1
-24.039563 -29.629157 33.601894 50.841664 0.889174 0.848762 0.034960 -0.008900 -302186.000000 0 0 1
-25.062463 -29.152127 -34.375309 51.571653 0.860690 2.300373 0.026012 -0.001667 -277390.000000 0 0 1
-26.199263 -28.487117 34.092494 51.577275 0.827210 0.848648 0.018108 0.001181 416458.000000 0 0 1
-27.042773 -28.117587 -33.846809 51.648008 0.804881 2.285424 0.006840 0.010244 751527.000000 0 0 1
-28.256053 -27.172377 -34.258109 52.061124 0.765850 2.289004 0.003415 0.008026 785499.000000 0 0 1
-29.141193 -27.965927 33.976994 52.780094 0.764821 0.871412 0.008154 0.006664 297807.000000 0 0 1
-30.226513 -27.103967 33.565594 52.677473 0.730986 0.879949 -0.002151 0.008653 493929.000000 0 0 1
