# x y z rho theta phi s1 s2 stress_xx np intf bulk
-0.728805 -10.744286 -14.376659 17.962715 1.503068 2.498694 -0.000061 0.005543 129557.000000 1 0 0
2.180395 -13.304286 -13.025859 18.746496 -1.408354 2.338997 0.000399 0.007973 667328.000000 1 0 0
2.206195 -11.116486 -14.801759 18.642307 -1.374881 2.488137 0.002574 0.008972 1737900.000000 1 0 0
-5.569905 -6.131086 -16.391159 18.365297 0.833322 2.673670 0.018203 -0.011139 -1300070.000000 1 0 0
4.484095 -14.049086 -11.497159 18.699427 -1.261843 2.232980 -0.003633 -0.001792 -690933.000000 1 0 0
13.982495 -10.615386 -7.943859 19.269184 -0.649358 1.995726 0.040943 -0.014665 973529.000000 1 0 0
7.019995 10.863914 -10.862159 16.890573 0.997114 2.269323 0.025786 -0.012418 37330.400000 1 0 0
5.720895 -4.207486 -12.556759 14.425802 -0.634130 2.626887 -0.001703 0.003835 2593880.000000 1 0 0
13.754895 0.529814 -9.956559 16.988552 0.038499 2.197002 0.012936 0.001689 2693420.000000 1 0 0
14.212395 5.097414 -10.372259 18.318284 0.344369 2.172714 0.002491 0.004752 421100.000000 1 0 0
4.154795 4.259114 -13.564759 14.812328 0.797796 2.728229 0.011143 0.000491 2234770.000000 1 0 0
10.374795 -5.029386 -13.659959 17.875278 -0.451389 2.440568 0.024162 -0.002297 -713255.000000 1 0 0
2.591995 -7.539786 -12.004459 14.410893 -1.239677 2.555328 -0.006427 0.006958 1712800.000000 1 0 0
-5.562205 -1.975686 -15.134259 16.244607 0.341298 2.769719 0.016050 -0.013668 665990.000000 1 0 0
10.709295 0.179714 -9.660959 14.424126 0.016780 2.304706 0.011969 0.002916 1954640.000000 1 0 0
-1.586205 -9.368386 -16.930059 19.414159 1.403072 2.630166 0.024582 -0.006908 780792.000000 1 0 0
8.612595 1.839314 -18.049059 20.083037 0.210400 2.687642 0.017634 -0.002105 -863730.000000 1 0 0
16.284595 -5.915286 -8.778059 19.422485 -0.348425 2.039750 0.045808 -0.010165 -1724130.000000 1 0 0
10.172795 7.602514 -9.873459 16.086304 0.641795 2.231637 0.017137 -0.004256 2707670.000000 1 0 0
13.857495 -2.301086 -10.608959 17.603271 -0.164552 2.217639 0.024141 0.000468 601565.000000 1 0 0
7.339695 -1.850086 -13.728959 15.677316 -0.246922 2.637724 0.014737 -0.000686 705723.000000 1 0 0
-2.822205 6.598414 -13.816059 15.568795 -1.166633 2.662514 0.006931 -0.006092 368664.000000 1 0 0
11.359295 1.855314 -13.896259 18.043885 0.161901 2.449852 0.019282 0.004313 862574.000000 1 0 0
-2.366505 10.727214 -12.862259 16.914821 -1.353667 2.434746 0.013986 -0.004856 -1580660.000000 1 0 0
2.942095 -1.149986 -15.319059 15.641354 -0.372614 2.938238 0.009182 -0.007403 1437290.000000 1 0 0
-9.074905 0.376814 -15.177559 17.687684 -0.041499 2.602327 0.022679 -0.011297 -2025460.000000 1 0 0
2.358995 -1.920586 -18.025959 18.280828 -0.683312 2.974413 0.016320 -0.015722 1017600.000000 1 0 0
1.028495 7.858114 -13.255759 15.444187 1.440653 2.602746 0.008602 -0.004926 -375816.000000 1 0 0
9.387895 -9.062086 -9.737059 16.280795 -0.767741 2.211887 0.013925 -0.003232 -1226920.000000 1 0 0
3.982295 7.243214 -13.511059 15.838925 1.068109 2.592558 0.011354 -0.004266 1616470.000000 1 0 0
-2.741005 9.024214 -15.435859 18.089093 -1.275913 2.593124 0.008052 -0.005489 145428.000000 1 0 0
5.582895 -7.613586 -15.283859 17.964736 -0.938082 2.588245 0.007612 -0.000920 719456.000000 1 0 0
4.167495 7.378714 -16.461459 18.514671 1.056662 2.666179 0.023770 -0.000270 -884579.000000 1 0 0
-0.282405 5.048114 -13.516059 14.430768 -1.514912 2.783634 0.012957 -0.008285 1531780.000000 1 0 0
8.859995 4.355314 -16.774159 19.463830 0.456882 2.609627 0.018509 0.002298 1177880.000000 1 0 0
5.399795 0.331614 -14.434459 15.414971 0.061335 2.783001 0.009099 0.000359 1247130.000000 1 0 0
6.258795 7.938614 -11.594959 15.383016 0.903169 2.424547 0.008751 -0.002593 483883.000000 1 0 0
2.828395 -8.304486 -15.057859 17.427088 -1.242532 2.614055 -0.002519 0.002482 373482.000000 1 0 0
4.086595 11.223414 -13.749159 18.212761 1.221604 2.426327 0.017571 -0.019148 -401865.000000 1 0 0
0.698395 -4.470686 -13.783659 14.507378 -1.415832 2.824396 0.004334 -0.001169 842139.000000 1 0 0
8.588895 -0.022186 -11.743759 14.549415 -0.002583 2.510128 0.007715 0.003100 1329120.000000 1 0 0
-0.882705 -4.939086 -16.355159 17.107453 1.393945 2.843932 0.006231 -0.008976 115878.000000 1 0 0
4.446595 0.956014 -11.789059 12.635983 0.211775 2.773388 0.003608 0.000852 -247572.000000 1 0 0
-2.883405 -7.054486 -15.536059 17.304592 1.182784 2.685544 0.010340 -0.003994 1984570.000000 1 0 0
11.403095 -3.740186 -11.336559 16.508698 -0.316941 2.327739 0.022611 -0.004375 460080.000000 1 0 0
6.539495 -7.067986 -12.501559 15.780063 -0.824217 2.485264 0.003301 0.002718 -350210.000000 1 0 0
3.497695 -3.992586 -14.638659 15.571285 -0.851373 2.793737 0.007600 -0.003412 1186280.000000 1 0 0
-0.589405 -1.663686 -18.307359 18.392244 1.230316 3.045480 0.026346 -0.021782 813243.000000 1 0 0
14.984495 2.969014 -8.422459 17.443851 0.195606 2.074683 0.001781 0.003776 -848819.000000 1 0 0
6.948195 4.364514 -14.443059 16.611091 0.560862 2.624951 0.011639 0.002768 2328180.000000 1 0 0
10.243895 -9.598286 -13.913759 19.765048 -0.752872 2.351751 0.036559 -0.009721 -3762670.000000 1 0 0
9.169095 -3.167386 -15.631359 18.396848 -0.332608 2.586167 0.031384 -0.006247 -334567.000000 1 0 0
-5.318305 -1.985086 -18.062259 18.933307 0.357240 2.837082 0.016453 -0.009396 -324613.000000 1 0 0
5.026195 -9.164186 -11.107459 15.251904 -1.069136 2.386586 -0.009074 0.006849 1325150.000000 1 0 0
-2.508005 3.951014 -17.228859 17.853128 -1.005199 2.876366 0.008354 -0.004924 1834190.000000 1 0 0
9.468895 9.424114 -14.434259 19.667784 0.783028 2.394848 0.045289 -0.010666 38056.600000 1 0 0
9.754495 10.063414 -11.573459 18.176012 0.800985 2.261064 0.024967 -0.012781 429384.000000 1 0 0
12.017395 -5.909386 -9.641359 16.501346 -0.457015 2.194785 0.024501 -0.005241 -1140030.000000 1 0 0
8.125195 6.936114 -13.718359 17.387404 0.706612 2.479948 0.013290 -0.000306 904891.000000 1 0 0
4.067195 -4.259186 -17.554659 18.516176 -0.808452 2.817913 0.021010 -0.012959 1421950.000000 1 0 0
9.361595 -7.417186 -12.223559 17.090040 -0.670028 2.367770 0.015675 -0.005117 471547.000000 1 0 0
12.056395 -8.623586 -8.710459 17.192876 -0.620901 2.102070 0.031763 -0.012968 108339.000000 1 0 0
-2.914805 -2.432386 -13.865059 14.375411 0.695422 2.874333 0.008379 -0.009759 -1970060.000000 1 0 0
-0.357905 6.122614 -17.648659 18.683941 -1.512406 2.807139 0.023675 -0.003193 981259.000000 1 0 0
1.179895 -8.417686 -17.479459 19.436591 -1.431535 2.688978 0.014789 -0.008426 1870940.000000 1 0 0
0.050295 8.575214 -16.038259 18.186879 1.564931 2.650586 0.019530 -0.003807 696209.000000 1 0 0
1.761495 3.387414 -15.022359 15.499958 1.091268 2.892705 0.015197 -0.004580 1616930.000000 1 0 0
-1.950205 -0.494086 -15.915859 16.042505 0.248130 3.015856 0.014890 -0.012783 1692060.000000 1 0 0
14.062895 -4.222886 -8.376159 16.904372 -0.291719 2.089210 0.028280 -0.005697 160066.000000 1 0 0
0.570495 0.629314 -14.653259 14.677857 0.834383 3.083690 0.008272 -0.008947 1363240.000000 1 0 0
8.917395 2.863614 -12.691059 15.772862 0.310725 2.505821 0.008989 0.006213 1936770.000000 1 0 0
5.922695 1.123014 -17.219859 18.244533 0.187388 2.804852 0.024728 -0.001712 892226.000000 1 0 0
15.441895 1.532514 -12.258759 19.775689 0.098920 2.239399 0.026692 -0.003576 -525674.000000 1 0 0
8.967195 -11.201986 -11.798359 18.576768 -0.895750 2.258952 0.026167 -0.006555 1506820.000000 1 0 0
-4.603105 0.774614 -15.000359 15.709849 -0.166719 2.839910 0.013200 -0.013961 2027050.000000 1 0 0
2.366795 5.192114 -17.363559 18.277115 1.143093 2.824085 0.028287 -0.003899 2864110.000000 1 0 0
6.057595 -11.689486 -12.396159 18.083232 -1.092688 2.326094 0.004937 0.004926 477040.000000 1 0 0
12.841795 7.114314 -8.623959 17.026386 0.505907 2.101923 0.008485 -0.001668 102449.000000 1 0 0
-5.038305 3.598614 -15.687359 16.864986 -0.620226 2.765681 0.009583 -0.010337 796104.000000 1 0 0
-0.505605 -4.474186 -19.172059 19.693700 1.458269 2.910918 0.029223 -0.019120 -83954.200000 1 0 0
9.807995 4.508414 -10.246759 14.883502 0.430864 2.330166 0.003366 0.004153 694626.000000 1 0 0
13.497995 3.623014 -12.816559 18.962760 0.262231 2.312955 0.014989 -0.001460 -184585.000000 1 0 0
-6.340705 5.820414 -17.043859 19.093844 -0.742641 2.673956 0.011908 -0.004181 216195.000000 1 0 0
-10.198805 3.083314 -15.429659 18.750915 -0.293585 2.537249 0.029954 -0.010246 -106331.000000 1 0 0
10.740795 13.656914 -8.281259 19.247213 0.904358 2.015574 0.065905 -0.019005 2293070.000000 1 0 0
7.343695 13.506414 -12.324659 19.704068 1.072788 2.246553 0.053501 -0.016653 -122267.000000 1 0 0
5.138495 15.233914 -11.321859 19.663691 1.245474 2.184348 0.032549 -0.012516 -167851.000000 1 0 0
14.281195 9.525014 -9.730359 19.732164 0.588207 2.086471 0.056993 -0.015188 -1308760.000000 1 0 0
8.308395 -17.123486 -2.000259 19.137508 -1.119055 1.675508 0.031496 -0.010620 -1244060.000000 1 0 0
0.799895 -15.930186 0.016641 15.950264 -1.520626 1.569753 0.009896 -0.009499 1776120.000000 1 0 0
-9.115405 -11.683586 7.639341 16.672022 0.908253 1.094812 0.028711 -0.012311 89080.800000 1 0 0
2.091695 -15.909186 -2.625659 16.259503 -1.440069 1.732991 0.011807 -0.009429 1925660.000000 1 0 0
-1.198605 -10.957786 -9.432959 14.508288 1.461846 2.278614 0.004038 0.005801 -260381.000000 1 0 0
-4.654805 -12.574486 -12.995059 18.672344 1.216259 2.340541 0.024758 0.000174 2489010.000000 1 0 0
-8.214005 -17.899086 -1.920059 19.787212 1.140561 1.667985 0.027078 -0.014499 -2286070.000000 1 0 0
-11.445205 -7.100386 -8.918859 16.154078 0.555271 2.155691 0.020832 -0.007248 3171590.000000 1 0 0
-13.464205 -11.563986 -4.650059 18.347578 0.709620 1.827034 0.007593 -0.003554 -1181590.000000 1 0 0
-5.857205 -13.384786 9.799341 17.592226 1.158301 0.979995 0.029269 -0.016190 -95696.600000 1 0 0
0.184595 -14.018886 -3.661059 14.490223 -1.557630 1.826222 0.011575 -0.007753 357276.000000 1 0 0
-14.723605 -11.667486 2.008041 18.893041 0.670110 1.464310 0.012044 0.000417 642313.000000 1 0 0
-4.080505 -16.620486 -7.500359 18.685461 1.330047 1.983842 0.012391 -0.006026 920144.000000 1 0 0
0.473395 -15.290186 -9.278159 17.891286 -1.539846 2.115992 0.003248 0.000141 476604.000000 1 0 0
4.575495 -14.213386 -2.625659 15.160790 -1.259358 1.744861 0.008331 -0.004410 403604.000000 1 0 0
-3.577605 -17.901186 -2.339359 18.404464 1.373542 1.698249 0.009079 -0.018376 212949.000000 1 0 0
-0.886605 -13.465186 0.643141 13.509660 1.505047 1.523172 0.010252 -0.005366 1552710.000000 1 0 0
-8.417205 -11.372386 -10.604559 17.681549 0.933633 2.213988 0.020329 -0.003303 865934.000000 1 0 0
-3.705605 -14.069886 -0.421459 14.555783 1.313273 1.599755 0.003703 -0.002364 4448000.000000 1 0 0
-1.700405 -14.958186 -7.265159 16.715897 1.457605 2.020419 0.002507 -0.002576 301730.000000 1 0 0
-14.175905 -7.949586 -1.850959 16.357819 0.511083 1.684194 0.003227 0.001258 786413.000000 1 0 0
-10.600505 -7.358786 -11.689659 17.411794 0.606817 2.306845 0.035846 -0.011531 -926249.000000 1 0 0
-9.418605 -14.677486 6.860541 18.740484 1.000275 1.196002 0.028371 -0.008693 -276659.000000 1 0 0
-2.344905 -14.285486 -12.318459 19.008369 1.408101 2.275823 0.022412 0.003880 -200585.000000 1 0 0
2.307595 -17.739086 -4.771759 18.514044 -1.441437 1.831476 0.025553 -0.016892 519770.000000 1 0 0
-6.549705 -9.718586 -9.228959 14.917212 0.977778 2.237856 0.011727 -0.005776 -57736.700000 1 0 0
-10.880105 -15.504786 0.357941 18.944740 0.958913 1.551901 0.018348 -0.008595 710624.000000 1 0 0
-12.649605 -11.136586 4.168841 17.361316 0.721875 1.328304 0.021300 -0.001496 1729740.000000 1 0 0
-16.941605 -9.004086 -1.545159 19.247833 0.488512 1.651160 0.003846 -0.004531 625043.000000 1 0 0
-1.621105 -19.171286 -4.035559 19.658380 1.486438 1.777551 0.010781 -0.015849 1820830.000000 1 0 0
3.224695 -14.344486 -8.792859 17.131179 -1.349669 2.109783 0.001739 0.001495 1191280.000000 1 0 0
-4.220705 -7.948886 -12.992159 15.804914 1.082672 2.535768 0.009590 0.000346 654808.000000 1 0 0
5.575795 -16.567686 1.359841 17.533592 -1.246157 1.493162 0.020076 -0.002235 3106810.000000 1 0 0
-2.769505 -13.764386 -3.284959 14.419411 1.372239 1.800629 0.004122 -0.006889 -902524.000000 1 0 0
-0.364205 -13.927286 3.658741 14.404455 1.544652 1.313982 0.015635 -0.001746 -2834570.000000 1 0 0
1.319895 -16.048786 7.090141 17.594765 -1.488738 1.156038 0.025983 -0.018685 3047450.000000 1 0 0
-5.476505 -10.253686 -14.509959 18.592178 1.080241 2.466155 0.026291 -0.004784 -218527.000000 1 0 0
-0.384305 -17.260586 -5.880459 18.238840 1.548535 1.899075 0.019048 -0.013142 59882.500000 1 0 0
-6.535305 -13.452086 -1.296159 15.011624 1.118556 1.657248 0.004893 -0.004336 3332050.000000 1 0 0
-1.635805 -17.684286 -0.267159 17.761790 1.478558 1.585838 0.007865 -0.007407 1529900.000000 1 0 0
-9.543505 -9.799186 -4.799059 14.495982 0.798616 1.908224 0.012517 -0.001760 2446020.000000 1 0 0
-0.704405 -16.573786 4.900041 17.297311 1.528321 1.283580 0.028902 -0.010498 1887860.000000 1 0 0
-6.837805 -9.944786 -6.269159 13.599878 0.968457 2.049886 0.011104 -0.003195 2312180.000000 1 0 0
-6.078205 -14.550086 -8.565859 17.945013 1.175088 2.068421 0.015853 -0.003440 -935116.000000 1 0 0
-5.658805 -12.238486 -10.296959 16.965552 1.137697 2.222993 0.018905 -0.001546 1700730.000000 1 0 0
-10.570405 -12.105486 -8.713359 18.281107 0.852992 2.067616 0.024932 -0.015762 -79877.100000 1 0 0
4.185595 -17.035186 6.729741 18.788458 -1.329866 1.204473 0.035808 -0.016966 2071290.000000 1 0 0
-6.684005 -14.364786 -4.173759 16.384238 1.135288 1.828378 0.004413 -0.007963 -654770.000000 1 0 0
-2.861105 -12.187386 -7.122859 14.403243 1.340212 2.088092 0.008237 -0.000880 2895090.000000 1 0 0
-7.052105 -12.833386 4.479941 15.313323 1.068328 1.273902 0.007608 -0.000909 2086520.000000 1 0 0
2.636095 -16.385986 2.366341 16.764519 -1.411288 1.429172 0.014399 -0.007156 2298870.000000 1 0 0
-6.221705 -11.973786 7.261641 15.323596 1.091584 1.077098 0.012476 -0.005045 149372.000000 1 0 0
-11.227105 -12.906686 -0.902059 17.130211 0.854881 1.623480 0.014160 0.001112 528499.000000 1 0 0
-14.271105 -8.752986 4.596841 17.361168 0.550168 1.302823 0.024034 -0.004998 -2061870.000000 1 0 0
-7.941805 -15.569886 4.326241 18.005832 1.099121 1.328153 0.017054 0.001282 700516.000000 1 0 0
-16.432605 -9.222286 1.187941 18.881003 0.511416 1.507837 -0.005566 0.001815 133180.000000 1 0 0
-6.480205 -17.175886 2.326841 18.504548 1.210024 1.444718 0.013542 0.000500 1196460.000000 1 0 0
-11.538805 -15.056786 -4.555459 19.509050 0.916911 1.806477 0.030685 -0.003891 -1329950.000000 1 0 0
-10.032505 -10.060686 -12.705759 19.060558 0.786801 2.300434 0.032900 -0.002152 -1950780.000000 1 0 0
-4.374205 -15.999186 -4.513659 17.189553 1.303917 1.836493 0.004392 -0.009839 -1318360.000000 1 0 0
-11.793705 -8.286986 0.055941 14.414185 0.612510 1.566915 -0.000485 0.004298 1430260.000000 1 0 0
-9.633405 -11.217186 3.588341 15.215254 0.861211 1.332715 0.009355 0.005140 3018310.000000 1 0 0
-14.165305 -13.016786 -0.516259 19.244716 0.743170 1.597626 0.011015 0.002566 67437.100000 1 0 0
5.658995 -14.995786 -7.219859 17.579083 -1.209947 1.994026 0.012235 -0.007403 395832.000000 1 0 0
-7.499805 -10.633686 -1.142659 13.062466 0.956531 1.658385 0.003613 -0.000679 1077460.000000 1 0 0
-11.692305 -8.218286 -6.053359 15.520740 0.612656 1.971447 0.012957 -0.005029 1069030.000000 1 0 0
-14.442405 -6.647686 -9.301159 18.419727 0.431378 2.100128 0.046809 -0.012386 2279900.000000 1 0 0
-3.799605 -16.433886 1.376041 16.923448 1.343583 1.489397 0.005315 -0.004059 1366340.000000 1 0 0
-7.859005 -15.655986 0.157141 17.518520 1.105565 1.561826 0.023236 -0.007704 78987.700000 1 0 0
1.202895 -18.524086 3.813041 18.950672 -1.505951 1.368205 0.024599 -0.010934 965249.000000 1 0 0
-14.137805 -8.758686 -4.573759 17.248518 0.554651 1.839175 0.012600 -0.005543 -839665.000000 1 0 0
-3.319705 -14.394886 11.121341 18.491009 1.344142 0.925487 0.019468 -0.023699 1797640.000000 1 0 0
-10.811705 -12.220286 -3.696059 16.729889 0.846480 1.793560 0.016339 -0.005737 531259.000000 1 0 0
-9.998705 -10.712786 0.669541 14.669225 0.819862 1.525138 0.004429 0.004330 705773.000000 1 0 0
-0.015705 -13.122286 -11.120959 17.200882 1.569599 2.273829 0.008260 0.003682 -644090.000000 1 0 0
-5.832205 -12.629386 -6.349559 15.291595 1.138176 1.998994 0.003777 -0.003142 1505620.000000 1 0 0
1.895095 -15.782486 9.957041 18.756890 -1.451293 1.011196 0.024580 -0.017177 190985.000000 1 0 0
-8.975705 -15.728386 -5.530759 18.935012 1.052223 1.867209 0.030178 -0.008194 261089.000000 1 0 0
-3.343205 -15.474386 5.882741 16.889058 1.358019 1.215022 0.021152 -0.003913 -585087.000000 1 0 0
-17.402105 -5.651886 -6.540859 19.430901 0.314034 1.914123 0.025610 -0.002733 -1235190.000000 1 0 0
18.790395 5.464814 -3.014759 19.799795 0.283023 1.723653 0.033812 -0.004399 -235398.000000 1 0 0
12.799195 -12.488786 -5.926859 18.839236 -0.773124 1.890834 0.047727 -0.012656 -1682790.000000 1 0 0
10.981395 -13.515286 -1.633259 17.490612 -0.888470 1.664312 0.036460 -0.014914 3174680.000000 1 0 0
18.645895 -2.851586 4.506341 19.393505 -0.151758 1.336289 0.047293 -0.014471 540820.000000 1 0 0
8.861295 -16.772586 4.932641 19.600335 -1.084750 1.316400 0.035034 -0.022810 459434.000000 1 0 0
18.016495 -1.017786 6.652341 19.232359 -0.056432 1.217606 0.062779 -0.014851 -216856.000000 1 0 0
18.027195 -4.191686 -4.934059 19.154501 -0.228461 1.831326 0.048722 -0.009402 -1953760.000000 1 0 0
5.210395 -11.721686 14.813041 19.595212 -1.152518 0.713689 0.009393 0.000413 942809.000000 1 0 0
16.020595 -8.925686 -0.748059 18.354479 -0.508307 1.611564 0.054966 -0.014628 360444.000000 1 0 0
13.858395 -12.619586 -1.410959 18.796272 -0.738646 1.645933 0.054837 -0.010104 1391820.000000 1 0 0
11.139295 -2.122686 13.931341 17.963072 -0.188301 0.683203 0.010382 -0.000478 -355869.000000 1 0 0
17.048995 -6.166086 -1.353759 18.180250 -0.347032 1.645328 0.042299 -0.013619 -1306290.000000 1 0 0
17.761495 3.599914 -1.018959 18.151263 0.199972 1.626963 0.031597 -0.002182 -448248.000000 1 0 0
9.773195 -11.065686 9.497741 17.554823 -0.847342 0.999131 0.014469 -0.003009 569082.000000 1 0 0
9.070995 -11.032686 4.242041 14.899598 -0.882669 1.282094 0.004460 -0.007495 -567533.000000 1 0 0
14.059095 -10.221586 6.824241 18.673758 -0.628647 1.196685 0.025326 -0.008552 -725033.000000 1 0 0
16.308695 -0.511186 -4.628659 16.960522 -0.031334 1.847211 0.015655 0.001522 -1871110.000000 1 0 0
15.800795 -0.520286 -1.637959 15.893984 -0.032916 1.674035 0.018581 -0.002694 545999.000000 1 0 0
12.933595 -5.135686 -0.246059 13.918106 -0.377988 1.588476 0.012674 -0.007405 1500690.000000 1 0 0
14.371595 -7.501486 1.114941 16.249865 -0.481066 1.502130 0.037197 -0.008455 1180470.000000 1 0 0
15.543095 2.477414 3.608041 16.147549 0.158060 1.345452 0.031678 -0.002232 1629510.000000 1 0 0
15.962195 -7.110286 5.082541 18.198353 -0.419060 1.287746 0.045347 -0.017210 -1724010.000000 1 0 0
13.617995 -12.017186 3.223141 18.445898 -0.723033 1.395160 0.025569 -0.010403 558124.000000 1 0 0
13.940195 -0.923686 9.306641 16.786775 -0.066164 0.983151 0.025940 -0.005639 714816.000000 1 0 0
14.211495 -2.850686 -1.532259 14.575349 -0.197963 1.676118 0.008930 -0.001980 327259.000000 1 0 0
15.030595 1.799914 9.127641 17.676886 0.119183 1.028201 0.038871 -0.006173 -529064.000000 1 0 0
14.427695 -10.178786 -2.991159 17.908464 -0.614410 1.738608 0.055974 -0.012595 -666809.000000 1 0 0
7.328595 -12.548286 6.055541 15.742851 -1.042201 1.175964 -0.000554 -0.006065 356748.000000 1 0 0
12.486495 -4.636286 6.926541 15.012817 -0.355526 1.091252 0.008508 -0.006073 926825.000000 1 0 0
15.101995 -9.042386 -5.658159 18.489179 -0.539503 1.881812 0.064412 -0.013766 -532765.000000 1 0 0
14.277595 -4.631986 4.635941 15.709773 -0.313710 1.271237 0.021797 -0.011272 548460.000000 1 0 0
17.091395 -4.302886 0.998041 17.652951 -0.246632 1.514229 0.030115 -0.012579 -3704920.000000 1 0 0
10.121795 -14.423786 1.115241 17.656163 -0.958901 1.507590 0.026936 -0.010136 -754421.000000 1 0 0
16.388095 -2.506886 8.474941 18.619311 -0.151793 1.098234 0.048272 -0.013967 842074.000000 1 0 0
16.010695 -2.664586 3.190641 16.541540 -0.164914 1.376693 0.032256 -0.008512 1315430.000000 1 0 0
7.791295 -15.176286 2.706641 17.272806 -1.096497 1.413448 0.011256 -0.008840 1599390.000000 1 0 0
16.532995 -7.045586 7.975641 19.661919 -0.402847 1.153118 0.038936 -0.009371 -1371070.000000 1 0 0
10.295295 -8.560286 5.106641 14.330016 -0.693641 1.206427 0.005956 -0.008289 972632.000000 1 0 0
10.874395 -11.827586 2.118141 16.205887 -0.827361 1.439719 0.017305 -0.009514 -821071.000000 1 0 0
12.410295 -7.177386 12.016341 18.706222 -0.524342 0.873208 0.011466 -0.011099 287994.000000 1 0 0
15.145295 -9.821786 4.261941 18.547549 -0.575323 1.338940 0.031689 -0.013943 -202980.000000 1 0 0
7.422495 -10.206886 7.803241 14.837942 -0.942045 1.017026 0.003533 -0.001642 981431.000000 1 0 0
15.241795 -3.298686 -4.288359 16.173548 -0.213137 1.839152 0.022224 0.000011 445645.000000 1 0 0
11.912795 -8.966986 9.821041 17.854253 -0.645239 0.988351 0.011058 -0.006623 -859392.000000 1 0 0
17.009895 -6.713786 2.454841 18.450953 -0.375928 1.437354 0.049587 -0.014300 864540.000000 1 0 0
17.563795 3.974414 1.982241 18.116626 0.222537 1.461161 0.045521 -0.001375 818026.000000 1 0 0
14.757595 -4.837286 8.760241 17.830529 -0.316747 1.057208 0.033712 -0.011257 338078.000000 1 0 0
12.863895 -12.702586 6.066841 19.069400 -0.779089 1.247024 0.019438 -0.005329 -1789210.000000 1 0 0
18.269595 0.668414 -0.857159 18.301901 0.036570 1.617648 0.038871 -0.004487 -398430.000000 1 0 0
11.633695 -2.104086 11.046941 16.180388 -0.178927 0.819295 0.003634 -0.003591 613236.000000 1 0 0
5.798395 -12.465786 10.528041 17.316375 -1.135420 0.917280 0.007826 -0.000359 -2292010.000000 1 0 0
10.712395 -5.002886 11.016641 16.160156 -0.436916 0.820690 0.004572 -0.006618 1031230.000000 1 0 0
17.984295 1.338714 4.886841 18.684438 0.074301 1.306173 0.064095 -0.004191 307094.000000 1 0 0
12.338495 -7.716386 7.153941 16.216039 -0.558881 1.113900 0.013831 -0.011555 -292295.000000 1 0 0
10.858195 -7.878186 14.324041 19.625095 -0.627670 0.752644 0.039274 -0.010016 -721064.000000 1 0 0
14.174895 -0.272786 3.803841 14.678939 -0.019242 1.308669 0.012484 -0.003117 1033980.000000 1 0 0
11.693995 -7.730786 2.554941 14.249291 -0.584132 1.390518 0.011779 -0.006323 1611470.000000 1 0 0
9.228595 6.072514 3.564641 11.608146 0.581986 1.258672 0.004084 0.001339 1160590.000000 1 0 0
-3.821405 14.773714 -10.003959 18.246780 -1.317682 2.151077 0.010886 -0.005894 810036.000000 1 0 0
8.843195 -6.444586 9.201441 14.296898 -0.629770 0.871608 0.005374 -0.005050 -244370.000000 1 0 0
5.866195 -10.615886 -8.493759 14.807201 -1.065970 2.181719 -0.001956 0.001866 670025.000000 1 0 0
5.381295 1.082214 0.584541 5.520073 0.198459 1.464704 0.001412 -0.001076 3419860.000000 1 0 0
-0.487305 9.902014 11.020441 14.823545 -1.521623 0.732595 -0.002004 0.001777 -580256.000000 1 0 0
-6.379305 -5.218586 1.025141 8.305425 0.685650 1.447050 0.009086 -0.002860 3178030.000000 1 0 0
-1.032705 4.005914 -10.861259 11.622425 -1.318495 2.777673 0.011192 -0.007305 2229100.000000 1 0 0
10.912495 5.741814 1.269141 12.396035 0.484363 1.468234 0.007160 0.000799 1693980.000000 1 0 0
-10.125105 -1.864086 -13.641159 17.090166 0.182067 2.495077 0.029307 -0.012867 756135.000000 1 0 0
7.462595 10.922114 -6.050359 14.546125 0.971397 1.999776 0.005957 -0.004238 237191.000000 1 0 0
-12.485705 -2.892686 -9.642559 16.038685 0.227663 2.215806 0.025241 -0.006117 1609200.000000 1 0 0
-3.935205 -8.684086 2.453641 9.844772 1.145325 1.318908 0.013835 -0.002545 -463708.000000 1 0 0
8.072995 -6.625586 -5.870659 11.980662 -0.687242 2.082899 -0.000177 0.000205 2023840.000000 1 0 0
14.316095 3.149314 -4.153359 15.235457 0.216535 1.846902 0.008731 -0.000049 889265.000000 1 0 0
-2.546405 -4.915786 9.762241 11.222766 1.092848 0.515877 0.005028 0.000134 1579150.000000 1 0 0
3.571495 -1.856886 -4.558859 6.081677 -0.479455 2.418262 -0.001865 -0.000670 -1486240.000000 1 0 0
-4.082505 8.370714 -3.488059 9.944962 -1.117027 1.929154 0.002970 -0.001779 1166670.000000 1 0 0
5.922595 0.107114 11.757041 13.164977 0.018084 0.466708 -0.002036 -0.000005 1303550.000000 1 0 0
7.198295 4.749114 12.422241 15.122223 0.583203 0.606837 0.000720 0.000131 73547.200000 1 0 0
1.208295 -14.476886 12.463541 19.141057 -1.487526 0.861708 0.008246 -0.011888 -297247.000000 1 0 0
3.005195 8.708614 -9.079059 12.934468 1.238509 2.348896 0.005471 -0.002170 786614.000000 1 0 0
-4.450705 -8.916686 -4.556559 10.958024 1.107834 1.999640 0.014029 -0.004220 2174410.000000 1 0 0
5.729895 -6.487686 -4.013159 9.540817 -0.847343 2.004936 -0.000741 -0.002171 3659380.000000 1 0 0
-3.165005 3.500914 8.603741 9.813156 -0.835748 0.501722 0.001929 -0.001628 4232050.000000 1 0 0
-3.767005 3.176714 -11.081459 12.127678 -0.700591 2.723175 0.008481 -0.008937 1050910.000000 1 0 0
3.044195 -6.056886 8.530941 10.896327 -1.105070 0.671452 -0.000431 -0.000680 206730.000000 1 0 0
-5.164505 -8.701986 10.566641 14.630467 1.035180 0.763767 0.011814 -0.005020 798446.000000 1 0 0
-13.280105 -2.451986 6.600841 15.031452 0.182580 1.116160 0.017649 -0.001845 90645.100000 1 0 0
3.972595 -5.963386 -8.286959 10.955234 -0.983142 2.428647 -0.006697 0.004366 3674570.000000 1 0 0
3.029495 -0.505786 12.427941 12.801851 -0.165428 0.242284 -0.000466 0.000166 1337600.000000 1 0 0
1.594095 -1.441286 -7.614559 7.912013 -0.735098 2.866517 0.000721 -0.002793 411932.000000 1 0 0
3.602495 -3.497986 3.396441 6.062152 -0.770681 0.976085 0.002233 -0.002435 2455110.000000 1 0 0
1.541195 0.513014 -11.916159 12.026359 0.321332 3.006114 0.007311 -0.004324 645819.000000 1 0 0
4.090595 3.622214 -10.645659 11.965929 0.724745 2.667406 0.001789 0.000481 1996140.000000 1 0 0
2.862395 3.301714 3.404741 5.539575 0.856548 0.908890 -0.004582 0.003977 -763143.000000 1 0 0
-5.357205 0.935414 2.661641 6.054666 -0.172866 1.115641 0.002750 -0.002184 1967960.000000 1 0 0
-9.508705 -9.273786 5.762541 14.478448 0.772891 1.161452 0.006570 -0.001336 -1041600.000000 1 0 0
-3.074505 3.804914 -0.559259 4.923690 -0.891175 1.684627 0.004461 -0.004140 422571.000000 1 0 0
-15.898205 -6.594086 5.042941 17.935054 0.393173 1.285775 0.046240 -0.008714 -229261.000000 1 0 0
0.990195 6.713214 -8.034759 10.516895 1.424353 2.440264 0.007527 -0.005285 -51388.700000 1 0 0
-1.651205 6.508814 -9.446759 11.590185 -1.322350 2.523638 0.006922 -0.005054 748555.000000 1 0 0
2.068995 -0.366286 5.221041 5.627982 -0.175220 0.382610 0.002623 0.000227 2569140.000000 1 0 0
-3.411205 -0.575286 -6.267559 7.158880 0.167074 2.637254 0.013961 -0.008260 1315310.000000 1 0 0
1.896695 -1.095186 -2.477359 3.306688 -0.523650 2.417644 0.006716 -0.001951 -322242.000000 1 0 0
2.536695 -8.632886 -7.624159 11.793614 -1.285000 2.273738 -0.004787 0.004250 1648760.000000 1 0 0
-2.566705 13.925114 -5.592259 15.223999 -1.388520 1.946935 0.000241 0.002994 3564340.000000 1 0 0
6.900595 -5.055786 -8.158759 11.821358 -0.632310 2.332522 -0.001822 0.001017 3436820.000000 1 0 0
-14.274405 -5.017286 -2.193059 15.288601 0.338000 1.714737 0.002233 0.001937 532159.000000 1 0 0
-2.693205 6.842614 -6.742859 9.977017 -1.195825 2.312899 0.006537 -0.003982 -1070330.000000 1 0 0
-5.722205 -1.180986 -8.054259 9.950349 0.203529 2.514002 0.013433 -0.009633 669756.000000 1 0 0
-5.745405 -10.570786 3.493241 12.528125 1.072944 1.288219 0.006958 -0.000869 -2954600.000000 1 0 0
8.106695 -7.542786 6.647041 12.914924 -0.749380 1.030163 0.002301 -0.006003 -626179.000000 1 0 0
8.835395 -6.081086 13.191841 17.002014 -0.602806 0.682658 0.018226 -0.003574 19393.400000 1 0 0
-4.894505 9.505614 -0.824659 10.723477 -1.095295 1.647774 -0.000738 0.002430 949594.000000 1 0 0
2.905895 6.587614 12.071241 14.055453 1.155356 0.537815 -0.001621 0.000278 1100520.000000 1 0 0
6.053495 -2.862386 11.013141 12.889039 -0.441691 0.546290 0.000787 -0.000095 -230816.000000 1 0 0
-9.731805 -6.516186 -1.132359 11.766518 0.590014 1.667181 0.000555 0.000800 -1181240.000000 1 0 0
0.939095 -13.312886 6.248441 14.736276 -1.500373 1.132919 0.012804 -0.004969 1529480.000000 1 0 0
-0.458505 -3.153486 8.697541 9.262933 1.426412 0.351196 0.004072 -0.000514 1429390.000000 1 0 0
4.231695 0.736114 3.394041 5.474360 0.172229 0.902068 -0.002851 0.001818 529774.000000 1 0 0
-10.170305 5.623314 8.293741 14.277357 -0.505078 0.950960 -0.002223 -0.008644 1219020.000000 1 0 0
9.312095 7.971714 -0.057359 12.258329 0.708002 1.575475 0.001851 0.001490 487536.000000 1 0 0
4.284095 2.846714 8.245541 9.718344 0.586490 0.557744 -0.002732 0.001651 2756730.000000 1 0 0
1.342295 2.665614 -9.811559 10.255434 1.104305 2.846303 0.008932 -0.005266 2183660.000000 1 0 0
-1.405705 -10.151586 3.053141 10.693567 1.433200 1.281256 0.011960 -0.002850 -2212980.000000 1 0 0
-9.919405 9.559314 9.001441 16.456034 -0.766914 0.992021 0.012476 -0.014873 1946360.000000 1 0 0
9.782795 -1.903086 -7.631459 12.552449 -0.192134 2.224292 0.009252 0.002336 570550.000000 1 0 0
-5.196605 -1.937586 6.709741 8.705146 0.356890 0.690734 0.001321 0.001067 1202570.000000 1 0 0
3.157095 -7.884586 -4.920659 9.815641 -1.189934 2.095906 -0.005627 0.001181 1514360.000000 1 0 0
-5.073905 4.901814 -13.110159 14.887866 -0.768149 2.647910 0.002955 -0.009688 2544830.000000 1 0 0
-5.721805 9.648814 5.506841 12.496559 -1.035535 1.114453 -0.000974 -0.002959 2010430.000000 1 0 0
-0.377305 -1.704786 -9.377959 9.539117 1.352986 2.957515 0.006430 -0.004420 1212360.000000 1 0 0
-16.721705 0.170314 6.305641 17.871921 -0.010185 1.210209 0.043228 -0.009799 378158.000000 1 0 0
-6.064005 -2.867786 4.100441 7.861932 0.441749 1.022122 -0.001217 -0.000674 606273.000000 1 0 0
1.027295 -5.693786 -5.057159 7.684359 -1.392293 2.289103 0.003812 -0.000378 743474.000000 1 0 0
-6.925705 1.373014 -8.545059 11.084610 -0.195711 2.451040 0.010377 -0.006983 618224.000000 1 0 0
8.001495 1.899914 4.753941 9.499134 0.233128 1.046666 -0.000485 0.001252 454484.000000 1 0 0
0.527595 -8.071286 -0.480059 8.102744 -1.505522 1.630077 0.006215 -0.003701 339045.000000 1 0 0
5.393095 5.482814 -3.372259 8.397550 0.793647 1.984034 -0.000804 0.000205 205812.000000 1 0 0
-0.769805 -0.339586 -1.266359 1.520389 0.415455 2.555155 0.010189 -0.005304 1363870.000000 1 0 0
9.026295 6.386814 -6.371759 12.761846 0.615794 2.093566 0.004670 -0.000900 1731200.000000 1 0 0
-14.948805 -7.158486 2.506441 16.762844 0.446599 1.420710 0.001877 0.000201 178780.000000 1 0 0
-6.378305 6.892914 8.876741 12.922522 -0.824155 0.813554 -0.001268 -0.004815 342986.000000 1 0 0
-9.450705 -3.255286 -9.614859 13.869327 0.331721 2.336780 0.015324 -0.007540 1962250.000000 1 0 0
14.905695 3.420914 -1.236759 15.343141 0.225597 1.651490 0.013393 -0.002434 -104293.000000 1 0 0
12.070195 1.761514 -5.738359 13.480404 0.144916 2.010511 0.006392 0.002313 -835666.000000 1 0 0
1.682595 -9.434086 12.655841 15.874616 -1.394299 0.648091 -0.006458 -0.001929 -290849.000000 1 0 0
-3.611305 6.418014 7.866941 10.775955 -1.058268 0.752407 0.001102 -0.002491 -18810.200000 1 0 0
-4.092705 13.124314 -12.402659 18.515502 -1.268512 2.304807 0.014356 -0.007012 178300.000000 1 0 0
-10.223705 7.790714 6.469341 14.389988 -0.651153 1.104510 0.000821 -0.008568 -225090.000000 1 0 0
8.027795 -9.282286 -7.072459 14.164250 -0.857743 2.093607 0.003801 0.000914 956125.000000 1 0 0
5.849495 -3.742886 -0.302859 6.951079 -0.569217 1.614380 0.002506 -0.005025 -577541.000000 1 0 0
-1.606405 -4.465286 4.050541 6.239086 1.225458 0.864237 0.006879 -0.001220 2078620.000000 1 0 0
9.893395 -2.003986 -2.549759 10.411363 -0.199854 1.818214 0.005008 -0.002752 -3058680.000000 1 0 0
13.508995 7.034814 1.403841 15.295500 0.480110 1.478886 0.014174 -0.002906 297668.000000 1 0 0
5.448295 -3.634386 -3.178159 7.279654 -0.588281 2.022591 -0.000773 -0.005257 -3331380.000000 1 0 0
-12.344505 -5.929786 1.937341 13.831213 0.447811 1.430264 0.003105 0.002390 816646.000000 1 0 0
3.742195 -5.693786 -0.314559 6.820716 -0.989347 1.616931 0.004227 -0.004727 -906846.000000 1 0 0
-5.186105 3.749014 -8.663259 10.770462 -0.625928 2.505383 0.007450 -0.007986 347617.000000 1 0 0
-1.792005 -9.155986 7.273541 11.829952 1.377520 0.908612 0.010720 -0.002635 2589240.000000 1 0 0
-7.460605 -7.478086 2.611941 10.881389 0.786568 1.328392 0.008118 -0.001181 -3358630.000000 1 0 0
-5.778405 13.143714 -8.619359 16.746359 -1.156597 2.111455 0.008815 -0.009477 1662250.000000 1 0 0
9.253795 -13.969186 -4.189859 17.272110 -0.985723 1.815820 0.025605 -0.005793 1501330.000000 1 0 0
-6.545705 -5.199186 -6.681359 10.701324 0.671249 2.245094 0.014804 -0.004536 2443290.000000 1 0 0
3.443595 0.410714 -6.219759 7.121266 0.118708 2.632950 0.000608 -0.004316 2112550.000000 1 0 0
-3.569105 5.814014 4.988841 8.451616 -1.020234 0.939388 0.000740 0.001581 74817.500000 1 0 0
-2.642705 -10.800086 -2.838359 11.475279 1.330819 1.820736 0.013425 -0.004008 1910070.000000 1 0 0
-12.569805 -0.459886 1.735441 12.697372 0.036570 1.433690 0.001254 -0.000444 826775.000000 1 0 0
8.396495 -12.042586 -6.155559 15.919042 -0.961929 1.967824 0.014576 -0.007342 -967755.000000 1 0 0
6.111895 3.951414 0.976641 7.343212 0.573919 1.437402 -0.002251 0.000927 -312974.000000 1 0 0
3.464195 -4.807586 -10.945459 12.446549 -0.946399 2.645391 -0.004447 0.003152 385345.000000 1 0 0
-7.596205 4.351714 8.631641 12.294104 -0.520240 0.792460 -0.004352 -0.001438 876113.000000 1 0 0
8.167295 8.699914 4.088341 12.613792 0.816965 1.240718 0.003567 0.002414 2390300.000000 1 0 0
0.187895 10.513014 -6.361959 12.289560 1.552926 2.114924 0.003450 0.000116 3296400.000000 1 0 0
5.359295 8.094414 3.273941 10.245012 0.985963 1.245527 0.000891 0.002770 2531090.000000 1 0 0
7.990595 6.667914 -3.749559 11.062092 0.695409 1.916603 0.000531 -0.001631 -583697.000000 1 0 0
10.568095 2.668614 -8.216959 13.650075 0.247345 2.216764 0.007146 0.001516 -480133.000000 1 0 0
3.351295 -12.572886 -0.285759 13.015002 -1.310303 1.592754 -0.004216 -0.001628 -2053290.000000 1 0 0
0.632495 2.122114 5.241241 5.689818 1.281130 0.399742 0.001123 0.002665 759405.000000 1 0 0
-4.995805 13.414314 1.401541 14.382845 -1.214286 1.473196 0.001633 0.000213 1782180.000000 1 0 0
8.188295 4.080514 -8.032759 12.174727 0.462315 2.291335 0.002323 -0.000240 308096.000000 1 0 0
-13.873605 -0.629786 -3.697459 14.371665 0.045363 1.830997 0.003626 -0.001149 -1411380.000000 1 0 0
-8.618405 -0.047486 -0.436959 8.629606 0.005510 1.621453 -0.005366 -0.001500 -910991.000000 1 0 0
1.757095 -3.759686 -1.160159 4.309128 -1.133607 1.843393 0.008605 -0.003854 -1278220.000000 1 0 0
8.132395 -5.668186 -0.212559 9.915107 -0.608702 1.592236 0.005060 -0.005717 3336920.000000 1 0 0
-2.356405 -1.242286 7.369241 7.835920 0.485166 0.346863 0.004519 0.000971 1658530.000000 1 0 0
-5.798905 8.763714 -11.590159 15.644864 -0.986244 2.405099 0.004240 -0.010903 -1449050.000000 1 0 0
-6.193905 9.160114 -8.781759 14.120604 -0.976235 2.241977 0.006694 -0.005285 -82283.900000 1 0 0
-1.560405 13.844414 -8.371959 16.253995 -1.458560 2.111887 0.004925 -0.004136 -319037.000000 1 0 0
-1.478005 7.215414 9.751641 12.220524 -1.368751 0.646873 0.004320 -0.004750 -14332.100000 1 0 0
10.009895 2.374314 -4.013759 11.042899 0.232893 1.942786 0.003984 -0.000698 -2316680.000000 1 0 0
-2.930005 -7.435086 -6.890459 10.551959 1.195405 2.282339 0.012835 -0.001465 1948640.000000 1 0 0
-5.582905 -5.023586 -1.628959 7.684969 0.732713 1.784383 0.013658 -0.003144 290572.000000 1 0 0
5.693495 7.553414 -8.796459 12.916951 0.924890 2.319925 -0.002356 -0.000383 -433293.000000 1 0 0
-9.596805 5.238314 -7.477759 13.245961 -0.499643 2.170662 0.005070 -0.003570 302982.000000 1 0 0
-0.461805 6.078914 -5.324959 8.094544 -1.494974 2.288751 0.008953 -0.003845 -1121510.000000 1 0 0
-8.236405 2.800114 -6.366859 10.780348 -0.327710 2.202597 0.005057 -0.001724 568997.000000 1 0 0
3.677195 1.396514 -2.018459 4.421107 0.362952 2.044910 -0.001629 -0.003154 3033280.000000 1 0 0
-6.840705 12.358114 -3.635559 14.585456 -1.065240 1.822712 0.006810 -0.000203 2936890.000000 1 0 0
-6.615805 3.055214 -2.274559 7.633926 -0.432628 1.873345 0.002187 -0.000867 -1363720.000000 1 0 0
12.143495 4.047814 -0.817559 12.826444 0.321749 1.634580 0.004331 -0.002685 1006180.000000 1 0 0
2.270495 12.309014 -5.560259 13.696111 1.388389 1.988840 0.006858 -0.002059 1004290.000000 1 0 0
-9.219105 -1.445986 -4.231459 10.246366 0.155579 1.996511 -0.000943 -0.000344 -1623820.000000 1 0 0
-1.100605 5.758514 3.513841 6.835123 -1.381947 1.030855 0.001434 0.001863 1253160.000000 1 0 0
11.671595 2.679114 12.039341 16.980857 0.225633 0.782724 0.018353 0.000893 -752805.000000 1 0 0
-7.053705 -2.347886 -5.740559 9.392621 0.321323 2.228344 0.013241 -0.004570 -568794.000000 1 0 0
7.518195 -7.435986 10.808841 15.121117 -0.779901 0.774433 0.011996 -0.002767 -1244290.000000 1 0 0
-5.427805 -1.979386 -10.884559 12.322851 0.349688 2.653614 0.014202 -0.007858 -951570.000000 1 0 0
0.870395 -6.159786 4.401641 7.620695 -1.430423 0.955022 0.006652 -0.002640 673855.000000 1 0 0
-4.874705 -9.337486 7.488541 12.923995 1.089659 0.952768 0.007861 -0.003078 2045640.000000 1 0 0
-8.804705 9.395314 1.617741 12.977359 -0.817838 1.445812 0.002112 -0.002312 52496.300000 1 0 0
-8.192305 7.242914 -9.087159 14.217951 -0.723967 2.264166 0.005815 -0.005945 -865162.000000 1 0 0
-1.221005 -10.607786 -0.072659 10.678073 1.456196 1.577601 0.010040 -0.003683 -628629.000000 1 0 0
-3.973805 10.262814 7.751141 13.460932 -1.201369 0.957183 0.004457 -0.004173 3231910.000000 1 0 0
-7.587505 12.141914 1.891341 14.442074 -1.012268 1.439459 -0.002739 -0.004226 1637720.000000 1 0 0
-8.217805 -8.330886 -2.745559 12.019737 0.792231 1.801252 0.010398 -0.002613 744614.000000 1 0 0
5.392595 4.706714 -8.093159 10.804279 0.717589 2.417453 0.002132 -0.000415 1388170.000000 1 0 0
-8.913705 -0.234486 -10.170859 13.526104 0.026300 2.421801 0.015450 -0.008187 -1138300.000000 1 0 0
-15.132805 -2.243986 -1.606759 15.382423 0.147213 1.675441 0.000677 -0.000036 1211250.000000 1 0 0
-7.192105 -5.806286 8.825541 12.780044 0.679185 0.808517 0.001128 0.001664 -1006210.000000 1 0 0
8.134595 3.408414 -0.928859 8.868579 0.396780 1.675725 -0.000316 0.001521 715539.000000 1 0 0
11.764095 7.275914 -5.856859 15.021173 0.553901 1.971327 -0.000685 -0.001615 962528.000000 1 0 0
3.776595 13.279314 -9.540359 16.781576 1.293715 2.175480 0.005742 -0.006950 419472.000000 1 0 0
-9.784605 5.392014 -0.486659 11.182538 -0.503665 1.614330 -0.004006 -0.000083 763620.000000 1 0 0
11.263695 -1.245786 -5.125059 12.437404 -0.110154 1.995519 0.012713 -0.000857 -886735.000000 1 0 0
10.611195 1.705614 -1.244659 10.819230 0.159374 1.686093 0.004713 -0.001689 1087140.000000 1 0 0
14.634895 5.168714 4.757241 16.233518 0.339503 1.273380 0.025250 -0.005437 2849180.000000 1 0 0
0.924195 -0.859586 10.368341 10.444880 -0.749194 0.121135 0.003473 -0.000707 2110160.000000 1 0 0
-7.960805 1.359714 -12.506559 14.887486 -0.169169 2.568212 0.010758 -0.009799 -161997.000000 1 0 0
3.160895 -11.663886 -7.831659 14.400429 -1.306154 2.145813 -0.004705 0.003033 271071.000000 1 0 0
2.829695 5.023314 -6.745959 8.874053 1.057790 2.434400 0.004419 -0.002251 -1294530.000000 1 0 0
6.440495 7.991514 0.536441 10.277745 0.892458 1.518578 0.002948 0.002120 550777.000000 1 0 0
-9.113805 -5.462486 6.801941 12.616125 0.539952 1.001373 -0.000860 0.002262 -940552.000000 1 0 0
-0.221405 -6.833086 -11.805159 13.641915 1.538406 2.616663 0.000600 0.005622 1830810.000000 1 0 0
6.470595 -13.504986 -4.699259 15.695103 -1.123987 1.874870 0.009654 -0.002945 2260070.000000 1 0 0
-3.285005 -0.283986 10.052641 10.579580 0.086235 0.316942 0.003552 0.001730 -1437120.000000 1 0 0
8.631095 8.461314 6.980641 13.957757 0.775465 1.047052 -0.003594 0.002097 -754618.000000 1 0 0
-8.020405 5.657614 -2.641059 10.164187 -0.614343 1.833652 0.001847 -0.003270 -265317.000000 1 0 0
-5.449105 5.853314 -6.452359 10.275552 -0.821146 2.249691 0.004496 -0.003670 -1428240.000000 1 0 0
3.363395 -13.673586 2.500841 14.301523 -1.329607 1.395027 0.006006 -0.005976 -1930340.000000 1 0 0
-11.366905 -7.061886 6.577441 14.911053 0.555911 1.113959 0.016357 -0.003907 -995696.000000 1 0 0
-12.884105 -3.725186 -6.797359 15.035999 0.281455 2.039884 0.010212 -0.002898 706044.000000 1 0 0
6.072895 0.418014 -7.333759 9.530939 0.068724 2.448805 -0.002578 0.003313 -1042910.000000 1 0 0
-1.430105 2.186714 -2.541159 3.644778 -0.991616 2.342288 0.008693 -0.004885 4144970.000000 1 0 0
7.602395 1.036614 -5.029059 9.174007 0.135518 2.150990 0.001024 0.001784 1155670.000000 1 0 0
3.654295 -4.484386 10.861841 12.306225 -0.887040 0.489369 -0.002106 0.000275 63554.900000 1 0 0
6.077195 -2.542986 2.082541 6.909128 -0.396307 1.264616 0.004286 -0.004405 -800679.000000 1 0 0
-6.363105 7.778514 1.188041 10.119577 -0.885154 1.453125 -0.003033 -0.000160 992778.000000 1 0 0
6.036995 -3.498386 8.033641 10.640649 -0.525203 0.715149 -0.000063 -0.002773 219107.000000 1 0 0
6.780095 -2.187486 -7.916359 10.650047 -0.312090 2.408811 -0.001324 0.001935 -371490.000000 1 0 0
12.212995 -8.116186 -5.762159 15.755386 -0.586538 1.945209 0.029173 -0.009310 782932.000000 1 0 0
5.618795 -9.597786 9.975141 14.939605 -1.041162 0.839684 0.002020 0.001224 800336.000000 1 0 0
-6.719105 7.542814 -4.473459 11.047726 -0.843090 1.987689 0.005284 -0.002096 -911948.000000 1 0 0
-1.288805 -7.524686 9.727941 12.365871 1.401165 0.665389 0.009142 -0.003939 -314205.000000 1 0 0
10.067695 -9.209886 0.704541 13.662974 -0.740930 1.519208 0.009162 -0.004734 -383950.000000 1 0 0
11.140395 6.064914 9.787641 16.021533 0.498539 0.913593 0.010640 -0.005700 1285490.000000 1 0 0
-15.311105 -4.224486 -5.014759 16.656051 0.269212 1.876618 0.007316 -0.000894 2403010.000000 1 0 0
-4.721505 -4.647286 7.812241 10.243095 0.777476 0.703344 0.005911 -0.000137 915835.000000 1 0 0
2.946195 10.863514 -11.012059 15.746792 1.305966 2.345243 0.004686 -0.005106 241008.000000 1 0 0
9.877395 -1.339186 1.616441 10.097981 -0.134759 1.410029 0.001864 -0.003331 244318.000000 1 0 0
-1.630205 -2.569686 0.671341 3.116336 1.005467 1.353668 0.009262 -0.005163 124459.000000 1 0 0
1.552595 3.016614 0.932041 3.518411 1.095473 1.302692 -0.000547 0.000056 1215180.000000 1 0 0
-8.944705 -2.388986 4.282341 10.200659 0.260992 1.137560 -0.002932 -0.000732 3393360.000000 1 0 0
9.873895 4.838314 -2.718859 11.326750 0.455624 1.813202 0.001205 -0.001035 1815430.000000 1 0 0
2.519795 8.516814 2.537241 9.237050 1.283141 1.292538 -0.000739 0.002190 1037040.000000 1 0 0
-8.123105 -0.033586 2.501041 8.499481 0.004135 1.272117 -0.006524 -0.001449 738104.000000 1 0 0
6.964895 2.100714 13.766641 15.570587 0.292937 0.486138 -0.004642 -0.000978 -1398050.000000 1 0 0
6.828995 4.347214 3.803641 8.944335 0.566885 1.131550 -0.003687 0.002102 995503.000000 1 0 0
-0.279805 3.361114 7.775541 8.475519 -1.487740 0.409269 0.000057 -0.001097 1255100.000000 1 0 0
2.736595 -10.261486 9.246841 14.081588 -1.310176 0.854412 0.002768 -0.003428 1797090.000000 1 0 0
1.327495 -4.522786 6.804541 8.277658 -1.285302 0.605817 0.003295 -0.001713 -723054.000000 1 0 0
-0.249205 10.773214 -1.981059 10.956680 -1.547669 1.752605 0.006414 -0.001155 3561190.000000 1 0 0
8.781995 5.480014 8.022941 13.096625 0.557884 0.911455 -0.003327 0.001799 -930815.000000 1 0 0
2.547095 11.437814 -2.970059 12.088529 1.351681 1.819030 0.009665 -0.004747 1199950.000000 1 0 0
1.489595 2.451014 -6.787459 7.368579 1.024701 2.741784 0.005009 -0.003451 1326560.000000 1 0 0
-13.618805 -2.219686 3.630241 14.268059 0.161566 1.313537 0.006366 -0.001268 778555.000000 1 0 0
-0.922705 -10.661586 -5.303259 11.943423 1.484467 2.030890 0.006596 -0.002112 894662.000000 1 0 0
-5.708105 2.789814 0.434341 6.368217 -0.454604 1.502539 0.002788 -0.001796 727597.000000 1 0 0
3.699195 7.257414 -5.027959 9.572590 1.099409 2.123800 0.002975 -0.002095 -1767050.000000 1 0 0
2.925595 9.704814 -6.506959 12.045042 1.278002 2.141493 0.005869 -0.001779 1758560.000000 1 0 0
-12.182605 1.672014 -2.559659 12.560388 -0.136394 1.776022 -0.000524 -0.002132 465893.000000 1 0 0
-2.618005 9.578814 -5.771459 11.485529 -1.304000 2.097282 0.002011 -0.002270 987807.000000 1 0 0
-1.381605 3.337414 1.854241 4.060219 -1.178301 1.096531 0.002542 -0.001062 1584950.000000 1 0 0
12.869695 3.696114 9.659541 16.510513 0.279668 0.945850 0.025305 -0.003765 1001750.000000 1 0 0
-2.583505 -9.548586 11.559141 15.213932 1.306559 0.707832 0.005430 -0.007938 -37622.200000 1 0 0
-0.360105 -8.901786 -7.412159 11.589286 1.530365 2.264735 0.004652 0.002845 2063250.000000 1 0 0
2.285695 7.640314 -0.483359 7.989521 1.280108 1.631332 0.002662 0.001435 2866660.000000 1 0 0
-11.744905 -1.260986 -5.644059 13.091535 0.106955 2.016533 0.002413 0.004458 -686370.000000 1 0 0
-6.074805 -7.196886 -10.895359 14.401641 0.869744 2.428796 0.011896 -0.004840 1662090.000000 1 0 0
-4.766105 -2.328086 -1.391559 5.483810 0.454379 1.827359 0.009379 -0.004484 -1410330.000000 1 0 0
-10.399605 3.657314 4.545541 11.924332 -0.338169 1.179704 -0.002525 -0.006292 3067670.000000 1 0 0
6.746995 9.317114 -3.605159 12.055195 0.944045 1.874498 -0.000035 0.001917 229394.000000 1 0 0
1.363795 -2.614286 -11.577759 11.947339 -1.089963 2.892214 0.003202 -0.002246 -907649.000000 1 0 0
1.264895 8.853814 7.618141 11.748450 1.428892 0.865265 -0.002584 0.001358 934349.000000 1 0 0
10.354195 0.428214 10.560741 14.796012 0.041333 0.775950 0.002946 -0.000328 316526.000000 1 0 0
-5.296105 -0.855586 -3.874259 6.617449 0.160166 2.196245 0.011398 -0.005657 -402136.000000 1 0 0
11.638495 5.629114 5.437341 14.025198 0.450493 1.172679 0.005180 0.001727 4268300.000000 1 0 0
9.938895 -3.465186 3.703441 11.158164 -0.335471 1.232475 0.008764 -0.008347 -2841230.000000 1 0 0
7.324795 -1.590986 -3.385559 8.224710 -0.213883 1.995041 0.001453 -0.000915 -2360100.000000 1 0 0
2.430395 9.296014 10.464041 14.206297 1.315075 0.742800 -0.002885 0.003560 2580550.000000 1 0 0
2.455095 -10.788586 6.356341 12.760256 -1.347043 1.049349 0.000911 -0.001763 1916460.000000 1 0 0
5.930995 -7.512386 -1.271859 9.655582 -0.902493 1.702903 -0.000514 -0.004243 2233190.000000 1 0 0
-0.251505 -5.574986 -2.299959 6.036019 1.525714 1.961716 0.008786 -0.001776 2502660.000000 1 0 0
7.754795 -5.061586 2.704941 9.647445 -0.578274 1.286607 0.003512 -0.007985 1091870.000000 1 0 0
-2.722205 -12.483486 4.668241 13.602952 1.356093 1.220497 0.012487 0.000132 12506.800000 1 0 0
4.866995 -10.307786 -1.115659 11.453505 -1.129662 1.668359 -0.001821 -0.004846 116273.000000 1 0 0
0.981695 0.209314 1.114841 1.500136 0.210072 0.733015 0.000783 -0.000866 -1416600.000000 1 0 0
-1.610005 8.539714 2.464341 9.032819 -1.384452 1.294472 0.002036 0.002744 457004.000000 1 0 0
-7.586705 0.582914 -3.055359 8.199579 -0.076683 1.952631 0.000466 -0.000737 -179625.000000 1 0 0
4.445995 -6.356586 12.825441 14.988829 -0.960452 0.543959 0.002568 0.000088 -412539.000000 1 0 0
-5.142905 12.996414 8.375741 16.294456 -1.193987 1.030927 0.011486 -0.007138 375331.000000 1 0 0
0.615695 6.114714 8.202741 10.249575 1.470444 0.643000 0.000961 0.001073 -443175.000000 1 0 0
7.949895 -0.531286 -0.699059 7.998236 -0.066730 1.658310 0.003020 -0.002370 3608250.000000 1 0 0
2.418795 -9.282586 -2.302159 9.864933 -1.315891 1.806336 -0.000662 -0.001835 890557.000000 1 0 0
-7.201805 12.134214 4.778441 14.897606 -1.035161 1.244273 0.004646 -0.007656 1916770.000000 1 0 0
-14.873105 0.280314 0.059641 14.875866 -0.018845 1.566787 0.009875 -0.003461 506243.000000 1 0 0
6.830495 -0.553186 3.970441 7.919980 -0.080811 1.045673 -0.000066 -0.000117 737642.000000 1 0 0
-4.201105 -5.047286 5.040741 8.278493 0.876639 0.916128 0.007400 -0.001107 725947.000000 1 0 0
2.923895 5.141614 6.889941 9.080565 1.053730 0.709394 -0.002365 0.002233 569455.000000 1 0 0
2.135195 -7.132886 1.755141 7.649682 -1.279940 1.339294 0.003617 -0.003425 2210230.000000 1 0 0
-2.517805 6.376114 -1.780859 7.082770 -1.194711 1.824959 0.004766 0.000146 344263.000000 1 0 0
2.746595 -3.868286 -6.529859 8.071336 -0.953371 2.513276 -0.003636 -0.000484 -680525.000000 1 0 0
-5.080205 0.891414 -12.137159 13.187635 -0.173700 2.739755 0.009807 -0.006823 492996.000000 1 0 0
-7.472305 6.356314 -11.924059 15.440895 -0.704871 2.453154 0.004361 -0.009827 3313940.000000 1 0 0
-1.082105 11.034114 -9.066359 14.322063 -1.473040 2.256263 0.003358 -0.003595 879476.000000 1 0 0
4.563195 5.860314 -0.650659 7.455829 0.909203 1.658176 -0.000058 0.001886 208099.000000 1 0 0
-2.773705 13.418814 3.522841 14.148089 -1.366964 1.319151 0.003384 0.000920 1213520.000000 1 0 0
1.516095 -7.852786 10.181141 12.946831 -1.380078 0.665868 -0.002679 -0.001844 -174056.000000 1 0 0
13.017095 -0.275086 -1.023159 13.060141 -0.021129 1.649219 0.007025 -0.001225 529050.000000 1 0 0
-1.011505 3.065314 -5.451459 6.335432 -1.252063 2.606991 0.008593 -0.006048 395444.000000 1 0 0
6.632495 1.116014 7.313641 9.936037 0.166703 0.743547 -0.003108 0.001597 1799490.000000 1 0 0
5.473295 -6.145486 6.844341 10.703689 -0.843188 0.877030 -0.000868 -0.002556 1348110.000000 1 0 0
12.151095 -4.916386 2.578841 13.359280 -0.384469 1.376539 0.011460 -0.007929 -1614510.000000 1 0 0
4.360895 -9.161386 13.787941 17.118870 -1.126526 0.634407 0.003870 -0.001147 -469801.000000 1 0 0
-2.780605 -4.372486 -1.378959 5.362082 1.004374 1.830887 0.014332 -0.005587 2040990.000000 1 0 0
-9.373105 -5.224686 -7.586459 13.141796 0.508516 2.186187 0.013116 -0.003800 -1147680.000000 1 0 0
-10.586805 -3.122386 7.913441 13.581321 0.286801 0.948785 0.001535 0.001591 825576.000000 1 0 0
12.032895 -0.519186 1.738741 12.168949 -0.043120 1.427422 0.007429 -0.005844 646090.000000 1 0 0
-7.526005 4.683614 4.383941 9.889183 -0.556673 1.111512 -0.004185 -0.002768 2147070.000000 1 0 0
-1.094405 10.643314 6.903141 12.733076 -1.468331 0.997812 -0.001168 0.002871 1758570.000000 1 0 0
7.440395 -9.914486 1.839841 12.531621 -0.927003 1.423448 0.000019 -0.003916 1566420.000000 1 0 0
-4.368305 -1.720786 1.655941 4.978487 0.375259 1.231717 0.004350 -0.001380 2090110.000000 1 0 0
6.645995 -14.932986 -0.867359 16.368128 -1.152063 1.623812 0.021348 -0.007903 -2898950.000000 1 0 0
-10.414205 1.687214 2.409841 10.821724 -0.160615 1.346228 -0.009230 0.000183 -594596.000000 1 0 0
-3.012005 8.245514 -11.394259 14.383665 -1.220565 2.485147 0.005748 -0.005253 -245333.000000 1 0 0
-1.219505 -5.098386 -6.883759 8.652564 1.336013 2.490751 0.004980 -0.001249 -1141090.000000 1 0 0
12.853095 -0.503686 6.494241 14.409404 -0.039168 1.103253 0.013186 -0.004860 2378690.000000 1 0 0
5.940095 -13.240786 3.759241 14.991165 -1.149090 1.317327 -0.001336 -0.006409 -96368.000000 1 0 0
-5.645005 3.550214 -4.886559 8.267319 -0.561408 2.203180 0.006805 -0.004040 1568680.000000 1 0 0
-4.428005 8.013614 3.380541 9.759780 -1.065990 1.217092 -0.000349 0.000653 -1587630.000000 1 0 0
13.902395 6.124714 -3.966559 15.701028 0.414968 1.826194 0.016127 0.000555 1545500.000000 1 0 0
-6.754005 -8.423186 5.369641 12.058179 0.894937 1.109275 0.010917 -0.001837 261081.000000 1 0 0
1.546495 11.396714 2.726441 11.819908 1.435924 1.338035 0.000829 -0.001320 1311870.000000 1 0 0
-7.416605 7.216714 5.970241 11.946999 -0.771739 1.047512 -0.003568 -0.006470 -807010.000000 1 0 0
-17.442005 -4.150886 5.157241 18.656113 0.233636 1.290712 0.051937 -0.008589 -618226.000000 1 0 0
7.594595 -13.132486 -8.627059 17.451825 -1.046481 2.087867 0.014069 -0.008890 -1269580.000000 1 0 0
-2.381205 12.835614 -2.785059 13.348396 -1.387366 1.780984 0.000783 0.005112 2028490.000000 1 0 0
-5.587005 13.865114 -5.784759 16.028707 -1.187746 1.940029 0.011912 -0.000703 2490200.000000 1 0 0
-5.686005 2.504014 7.471641 9.717313 -0.414827 0.693677 -0.001129 -0.001588 279813.000000 1 0 0
-7.458205 5.089414 1.448241 9.144636 -0.598810 1.411756 -0.003364 -0.001404 2097780.000000 1 0 0
10.791295 -5.717086 -4.977059 13.187427 -0.487192 1.957794 0.012481 -0.003660 2764620.000000 1 0 0
-9.471005 -0.799886 6.811341 11.693337 0.084256 0.948998 -0.005630 -0.000488 1894490.000000 1 0 0
-11.378105 -4.551186 -2.566459 12.520434 0.380502 1.777241 -0.001000 0.001227 864221.000000 1 0 0
6.599395 -4.344686 13.548641 15.684195 -0.582220 0.527952 0.005317 -0.004025 488939.000000 1 0 0
0.215095 10.221614 -11.733859 15.563133 1.549756 2.424854 0.004056 -0.001627 -1475610.000000 1 0 0
-11.832405 -3.215186 1.519341 12.355227 0.265321 1.447513 0.000132 -0.001170 1861700.000000 1 0 0
5.230895 6.008114 5.468241 9.662368 0.854442 0.969233 -0.004224 0.003447 -5596820.000000 1 0 0
-7.006005 -0.010386 8.126941 10.729930 0.001482 0.711461 -0.002110 0.001202 191918.000000 1 0 0
1.757095 2.055214 9.728441 10.097220 0.863439 0.271099 0.002438 -0.000581 2983040.000000 1 0 0
10.549495 -4.947486 -1.997459 11.821983 -0.438524 1.740572 0.008951 -0.002638 891280.000000 1 0 0
-9.735005 -2.413186 -1.598059 10.156160 0.242989 1.728802 -0.004669 0.000164 151523.000000 1 0 0
-1.905405 -5.108286 -9.913759 11.314051 1.213778 2.638787 0.012704 -0.003543 1448450.000000 1 0 0
7.647995 -1.638586 6.630941 10.254081 -0.211060 0.867594 -0.000202 -0.002874 3784340.000000 1 0 0
1.522295 -11.861786 -2.535659 12.224929 -1.443158 1.779730 0.000667 -0.002587 -3284550.000000 1 0 0
-0.781005 -1.514586 4.827141 5.119105 1.094702 0.339366 0.006166 -0.000250 2842730.000000 1 0 0
7.638095 1.547014 9.923941 12.618176 0.199836 0.665708 -0.002869 0.001527 527472.000000 1 0 0
-3.909005 10.697314 -8.032859 13.936989 -1.220452 2.185076 0.009183 -0.000288 2584210.000000 1 0 0
-9.644005 12.660014 6.242841 17.095493 -0.919806 1.196976 0.013098 -0.014219 1150630.000000 1 0 0
-2.475805 -2.315986 -11.056459 11.564544 0.752058 2.844069 0.013117 -0.007139 -2227910.000000 1 0 0
1.213595 -11.891786 11.075441 16.295790 -1.469095 0.823510 -0.001604 -0.001091 2687780.000000 1 0 0
1.393595 3.388814 -1.979659 4.164759 1.180643 2.066142 0.002929 -0.002582 2850100.000000 1 0 0
-1.867105 -9.335286 -12.015059 15.329555 1.373396 2.471532 -0.000721 0.005534 1616110.000000 1 0 0
1.309795 -2.649886 1.531641 3.329171 -1.111732 1.092726 0.010030 -0.003760 2006180.000000 1 0 0
-0.962505 -2.140786 -6.612659 7.016882 1.148272 2.800509 0.007755 -0.006331 1540520.000000 1 0 0
1.831095 5.888914 4.064141 7.385761 1.269334 0.988112 -0.004553 0.004204 -1501200.000000 1 0 0
-11.005305 8.632314 3.584041 14.438800 -0.665142 1.319951 0.001619 -0.008610 1693090.000000 1 0 0
-16.417505 -1.621186 3.910341 16.954453 0.098428 1.338063 0.034011 -0.002912 -163815.000000 1 0 0
-12.187405 0.227814 6.845041 13.979962 -0.018690 1.059128 -0.005417 0.000397 573096.000000 1 0 0
-5.031205 3.056114 4.730541 7.551880 -0.545866 0.893863 -0.002042 -0.001653 1133120.000000 1 0 0
5.254995 -6.006186 3.953541 8.906162 -0.852006 1.110838 -0.002596 -0.004968 599858.000000 1 0 0
9.928595 3.336114 6.268441 12.206556 0.324158 1.031502 -0.002120 0.004482 -1024650.000000 1 0 0
-12.068405 5.794914 3.183641 13.760923 -0.447660 1.337327 0.004851 -0.006307 908278.000000 1 0 0
-4.952405 12.289914 -1.351259 13.318942 -1.187737 1.672425 -0.001578 0.005344 1020160.000000 1 0 0
-1.730605 -12.201586 10.294041 16.057427 1.429902 0.874896 0.014514 -0.010892 2299410.000000 1 0 0
5.259195 6.422014 13.915441 16.203114 0.884617 0.537849 0.001035 0.002928 824071.000000 1 0 0
12.933995 -3.672886 -5.863259 14.668201 -0.276688 1.982014 0.008856 -0.001411 2103690.000000 1 0 0
3.538295 -2.551486 6.386141 7.733848 -0.624751 0.599285 -0.000745 0.000601 1367180.000000 1 0 0
7.227895 -11.771886 -0.682859 13.830620 -1.020149 1.620189 0.005639 -0.004499 -1912100.000000 1 0 0
-6.140205 -6.625086 -4.101559 9.920517 0.823364 1.997027 0.014820 -0.004951 -42338.800000 1 0 0
0.283195 -8.863486 5.101141 10.230504 -1.538856 1.048789 0.007921 -0.002721 2377800.000000 1 0 0
-10.302905 2.422414 -0.288759 10.587792 -0.230925 1.598072 -0.006556 0.000825 -2251160.000000 1 0 0
-2.002305 8.968114 -0.372059 9.196452 -1.351130 1.611264 0.004526 0.002374 762760.000000 1 0 0
-3.583505 2.345914 -6.533059 7.811893 -0.579632 2.561289 0.013481 -0.009895 -189999.000000 1 0 0
-12.584405 2.975914 6.453041 14.452165 -0.232211 1.107935 0.001875 -0.005880 -400013.000000 1 0 0
11.327195 1.569814 7.950641 13.927755 0.137711 0.963257 0.010001 -0.006269 -1442900.000000 1 0 0
6.028795 2.622114 -3.188759 7.306848 0.410253 2.022398 -0.002522 -0.000720 890596.000000 1 0 0
10.565695 -2.428886 6.365441 12.571883 -0.225958 1.039880 0.008281 -0.006448 3885120.000000 1 0 0
-1.064105 11.062014 4.071341 11.835384 -1.474897 1.219625 0.005180 0.001524 1124940.000000 1 0 0
-1.606605 -12.141686 7.409341 14.314330 1.439239 1.026733 0.013660 -0.002895 130653.000000 1 0 0
8.050095 8.701814 -7.783259 14.181139 0.824283 2.151779 0.005882 -0.001966 1516460.000000 1 0 0
-4.582205 -5.939286 -8.672859 11.466917 0.913672 2.428492 0.016378 -0.004727 1581110.000000 1 0 0
-8.436805 -5.361786 -11.666259 15.363268 0.566131 2.433126 0.015255 -0.008025 627682.000000 1 0 0
6.079795 -0.589086 -10.031959 11.745259 -0.096591 2.594669 -0.000222 0.005935 -942775.000000 1 0 0
-11.198005 -5.457986 -5.334559 13.551474 0.453523 1.975397 0.001905 -0.003688 -890831.000000 1 0 0
3.905995 8.913814 -2.741159 10.110729 1.157802 1.845346 0.008191 -0.003190 1039000.000000 1 0 0
11.727995 -10.437086 -4.043759 16.212051 -0.727223 1.822887 0.028551 -0.008907 1022200.000000 1 0 0
3.924495 -11.227186 3.783841 12.480738 -1.234520 1.262774 0.000712 -0.003487 544578.000000 1 0 0
-1.012005 0.855114 3.232341 3.493337 -0.701567 0.389003 0.003674 -0.000355 -1964650.000000 1 0 0
-10.692005 -5.123486 4.567041 12.705391 0.446860 1.203110 0.003836 -0.001209 3853180.000000 1 0 0
4.637495 -8.606486 2.744241 10.154251 -1.076564 1.297138 -0.002085 -0.003330 4507020.000000 1 0 0
-3.755505 -5.732286 2.538341 7.307947 0.990809 1.216063 0.010053 -0.001816 2145490.000000 1 0 0
10.104995 5.169714 12.283941 16.725193 0.472884 0.745930 0.009767 0.005446 268760.000000 1 0 0
1.663595 -12.359886 -5.285759 13.545241 -1.437004 1.971678 0.000852 -0.003159 716705.000000 1 0 0
9.809995 -10.716686 -1.785059 14.637957 -0.829541 1.693048 0.013779 -0.009337 154336.000000 1 0 0
9.680995 -4.402786 -9.175259 14.046051 -0.426827 2.282635 0.011674 -0.000564 2286170.000000 1 0 0
-7.418805 -3.045486 -13.079359 15.342206 0.389533 2.591562 0.015350 -0.009668 2985090.000000 1 0 0
0.402895 6.159914 -2.488859 6.655921 1.505483 1.954041 0.005833 -0.001553 3102220.000000 1 0 0
-5.934005 -9.554286 0.999141 11.291372 1.015019 1.482193 0.009745 -0.001071 -446999.000000 1 0 0
-9.055805 -4.149386 0.665141 9.983357 0.429654 1.504122 -0.004621 -0.000713 1841880.000000 1 0 0
1.908895 3.877614 12.095241 12.844245 1.113339 0.343191 0.003763 -0.003992 367992.000000 1 0 0
6.669295 4.295514 9.640041 12.484444 0.572198 0.688556 -0.004963 0.002574 2206700.000000 1 0 0
-8.401005 9.830814 -3.692459 13.448273 -0.863662 1.848936 -0.000835 -0.000028 1308230.000000 1 0 0
16.454295 2.205414 -5.954059 17.636850 0.133239 1.915154 0.015017 0.003106 -410572.000000 1 0 0
-11.016805 2.637814 -5.129659 12.435492 -0.235011 1.995995 -0.000485 0.001333 2813140.000000 1 0 0
-13.655805 4.056114 1.416441 14.315704 -0.288725 1.471691 0.006490 -0.003748 -1189100.000000 1 0 0
-17.629105 10.257314 3.163841 20.639955 -0.526959 1.416902 0.059903 -0.017197 -88610.200000 1 0 0
-14.294205 2.877414 -1.260559 14.635328 -0.198645 1.657034 0.008836 -0.004804 123695.000000 1 0 0
-14.323505 5.062014 5.137541 16.036868 -0.339706 1.244689 0.006753 -0.008849 820685.000000 1 0 0
-17.590405 7.287114 3.092941 19.289652 -0.392744 1.409759 0.040521 -0.008076 -2583660.000000 1 0 0
-15.031205 12.463714 -3.434259 19.826130 -0.692288 1.744893 0.048002 -0.011162 -1083210.000000 1 0 0
-8.571305 12.588314 -9.541459 17.971432 -0.973009 2.130486 0.015077 -0.017292 880807.000000 1 0 0
-12.345505 8.797114 -9.867359 18.087717 -0.619117 2.147815 0.015593 -0.006472 -1758520.000000 1 0 0
-13.986105 -3.516786 -12.276759 18.939317 0.246342 2.276035 0.051642 -0.007976 -1172510.000000 1 0 0
-14.841705 5.708014 -7.733959 17.682527 -0.367154 2.023478 0.033037 -0.004561 1596240.000000 1 0 0
-10.955805 13.602214 -8.373859 19.369342 -0.892745 2.017866 0.026990 -0.011886 -185824.000000 1 0 0
-10.964005 13.590414 3.833341 17.877452 -0.891956 1.354695 0.017003 -0.011007 -1337760.000000 1 0 0
-15.030105 3.193814 2.993441 15.654559 -0.209380 1.378393 0.010674 -0.001909 -154401.000000 1 0 0
-11.181905 9.388114 -12.505059 19.223636 -0.698414 2.279045 0.027668 -0.013293 650700.000000 1 0 0
-13.048205 11.557014 -9.195059 19.707089 -0.724868 2.056224 0.019487 -0.012991 -358460.000000 1 0 0
-8.934405 14.467314 -3.524059 17.365073 -1.017566 1.775155 0.012953 -0.009605 -239917.000000 1 0 0
-16.767005 8.076814 -4.106359 19.058583 -0.448908 1.787959 0.046032 -0.006691 -696201.000000 1 0 0
-17.018505 6.560514 0.295541 18.241634 -0.367938 1.554594 0.033837 -0.003428 -1215300.000000 1 0 0
-10.494705 2.746814 -12.521359 16.567083 -0.255991 2.427667 0.014553 -0.013709 -175789.000000 1 0 0
-16.788305 0.830414 2.236441 16.956959 -0.049424 1.438522 0.030238 -0.006844 -149650.000000 1 0 0
-12.739005 1.246814 -7.068459 14.621898 -0.097563 2.075349 0.009445 -0.002709 -705451.000000 1 0 0
-12.467305 8.972414 -5.554159 16.333603 -0.623809 1.917761 0.013118 -0.000482 90603.500000 1 0 0
-9.747105 14.051714 1.250241 17.147007 -0.964338 1.497818 0.017204 -0.008943 -866160.000000 1 0 0
-12.301405 11.118114 2.685441 16.797281 -0.734915 1.410234 0.012344 -0.010075 -438640.000000 1 0 0
-12.638005 6.893914 -3.709759 14.866322 -0.499375 1.823003 0.002496 0.001509 1883320.000000 1 0 0
-16.023305 3.700814 -9.567759 19.025886 -0.226984 2.097725 0.048689 -0.010261 -1474060.000000 1 0 0
-15.164905 5.742214 -4.731959 16.891975 -0.361968 1.854726 0.022073 0.002603 1130750.000000 1 0 0
-17.959805 5.290314 7.464741 20.156002 -0.286462 1.191412 0.035811 -0.018279 1123130.000000 1 0 0
-15.889305 9.992914 -2.053559 18.882412 -0.561405 1.679767 0.043097 -0.005158 -89968.300000 1 0 0
-8.741205 10.009314 -8.380959 15.711000 -0.852926 2.133465 0.005953 -0.008308 381779.000000 1 0 0
-16.970805 4.122314 -1.322559 17.514305 -0.238291 1.646381 0.016630 -0.002870 -57424.300000 1 0 0
-10.251205 5.422414 -4.598759 12.475511 -0.486541 1.948323 -0.001632 0.000035 230397.000000 1 0 0
-18.199205 2.731314 6.041241 19.369248 -0.148967 1.253606 0.052357 -0.009909 -510453.000000 1 0 0
-10.430505 10.085814 -5.886959 15.658077 -0.768599 1.956239 0.002302 -0.002723 1212110.000000 1 0 0
-15.323805 0.437514 -6.014559 16.467706 -0.028544 1.944680 0.014950 -0.002141 -985850.000000 1 0 0
-16.488205 -4.202586 -8.942459 19.222128 0.249570 2.054676 0.044839 -0.010376 -918653.000000 1 0 0
-9.966005 9.578414 -1.118459 13.867885 -0.765569 1.651535 -0.000656 0.000335 972018.000000 1 0 0
-17.339505 -3.018386 -3.234159 17.894940 0.172349 1.752525 0.023697 -0.000977 -152641.000000 1 0 0
-12.024805 5.014814 -11.576659 17.428807 -0.395108 2.297254 0.020802 -0.010262 -300937.000000 1 0 0
-16.346305 7.036614 5.732441 18.696966 -0.406496 1.259180 0.027226 -0.011849 -578217.000000 1 0 0
-12.147305 6.003714 -8.810659 16.162590 -0.459031 2.147337 0.016405 -0.006902 1214180.000000 1 0 0
-14.618705 8.284314 -0.004659 16.802870 -0.515569 1.571074 0.027427 -0.003623 612011.000000 1 0 0
-15.070205 11.748214 3.786541 19.479978 -0.662156 1.375170 0.028153 -0.016073 2310540.000000 1 0 0
-17.269005 3.909314 -4.136959 18.182841 -0.222625 1.800326 0.023793 -0.006062 -456704.000000 1 0 0
-13.884505 13.363614 -0.863059 19.290167 -0.766284 1.615552 0.037794 -0.003405 -176533.000000 1 0 0
-10.121105 6.786514 -13.105959 17.895801 -0.590673 2.392560 0.004946 -0.014546 1218240.000000 1 0 0
-15.849005 -1.194186 -8.436559 17.994237 0.075206 2.058782 0.021345 -0.006048 -223111.000000 1 0 0
-11.477805 11.863914 -0.063659 16.507469 -0.801938 1.574653 0.025140 -0.007812 635558.000000 1 0 0
-12.042205 7.405314 -0.931259 14.167591 -0.551337 1.636575 0.000232 0.001472 2031760.000000 1 0 0
-11.416105 0.114114 -11.695759 16.344150 -0.009996 2.368269 0.022860 -0.012186 -780296.000000 1 0 0
-19.095305 -1.406786 -4.926459 19.770678 0.073539 1.822630 0.034027 -0.004060 -1359920.000000 1 0 0
-17.977305 1.289014 -5.258559 18.774917 -0.071580 1.854678 0.024739 -0.002230 178759.000000 1 0 0
-13.249205 -0.064086 -9.502759 16.304845 0.004837 2.192989 0.020522 -0.008278 -121769.000000 1 0 0
-6.178705 11.208214 -13.097659 18.312540 -1.066982 2.367748 0.000122 -0.011289 -1597880.000000 1 0 0
16.394395 5.897014 6.990841 18.772928 0.345287 1.189214 0.051489 -0.009470 -401265.000000 1 0 0
14.822895 10.177214 -5.523359 18.809609 0.601667 1.868835 0.047969 -0.011950 1066250.000000 1 0 0
2.370195 16.853414 4.354641 17.567536 1.431077 1.320305 0.014868 -0.009712 2591670.000000 1 0 0
-3.949205 18.216114 -6.037359 19.592671 -1.357303 1.884038 0.012051 -0.008105 -319375.000000 1 0 0
5.416895 14.582114 5.651041 16.550380 1.215119 1.222343 0.011779 -0.008802 -1454580.000000 1 0 0
9.962795 6.048614 15.069441 19.050750 0.545639 0.658329 0.024572 0.003005 -1343200.000000 1 0 0
4.590295 12.732414 -1.160059 13.584216 1.224780 1.656298 0.010914 -0.004881 1941910.000000 1 0 0
3.501295 13.711914 12.949041 19.182110 1.320792 0.829753 0.011664 -0.005612 -1192770.000000 1 0 0
-0.778005 12.393914 9.217441 15.465304 -1.508105 0.932276 0.001137 0.001408 737313.000000 1 0 0
-7.838305 13.807914 8.284741 17.909061 -1.054490 1.089870 0.019361 -0.017172 2498620.000000 1 0 0
11.412595 12.790014 -4.108459 17.627003 0.842249 1.806038 0.048181 -0.012158 1006500.000000 1 0 0
-5.875905 16.157014 0.883241 17.214979 -1.221991 1.519467 0.009590 -0.000574 1320490.000000 1 0 0
3.317495 10.595714 6.760541 12.999225 1.267367 1.023860 -0.003053 0.002926 2086210.000000 1 0 0
-1.319705 15.598414 2.422141 15.840421 -1.486392 1.417285 0.005103 -0.003487 -2379660.000000 1 0 0
9.914495 8.806114 9.477041 16.299054 0.726261 0.950290 0.013266 -0.005236 1860050.000000 1 0 0
7.155295 12.318014 6.285341 15.570396 1.044554 1.155269 0.007630 -0.006406 -17147.500000 1 0 0
11.780495 14.107014 -1.542859 18.443653 0.875028 1.654547 0.048083 -0.013666 -296467.000000 1 0 0
9.696295 16.094714 -1.149759 18.824981 1.028576 1.631911 0.037745 -0.011591 243784.000000 1 0 0
10.013195 13.725614 2.971941 17.247869 0.940528 1.397624 0.029827 -0.012250 1734620.000000 1 0 0
-6.116105 14.509714 6.210841 16.926698 -1.171879 1.195094 -0.000071 -0.007757 -409474.000000 1 0 0
-0.986505 18.169214 -6.368559 19.278280 -1.516554 1.907470 0.014645 0.001076 2112920.000000 1 0 0
-3.657605 15.724714 5.419541 17.029861 -1.342258 1.246927 0.004017 -0.004696 2739280.000000 1 0 0
7.164795 12.267014 10.648941 17.754264 1.042172 0.927550 0.005409 -0.001210 2545960.000000 1 0 0
1.448695 14.643414 6.223141 15.976727 1.472186 1.170694 0.002806 -0.003883 1351110.000000 1 0 0
17.473695 7.546414 -1.452959 19.088988 0.407678 1.646985 0.044004 -0.004544 1956260.000000 1 0 0
1.846695 16.188814 -3.345159 16.633643 1.457215 1.773285 0.009494 -0.008736 1905070.000000 1 0 0
6.614995 11.119514 0.567441 12.950820 1.034136 1.526967 0.011719 -0.001443 805552.000000 1 0 0
12.682895 9.370714 3.130541 16.076890 0.636325 1.374821 0.020372 -0.001607 -755415.000000 1 0 0
6.005495 14.297214 -3.411959 15.878217 1.173129 1.787368 0.013322 -0.005627 1333490.000000 1 0 0
2.976195 16.425514 1.570041 16.766642 1.391548 1.477018 0.017362 -0.015972 -1880110.000000 1 0 0
2.472095 19.003614 -2.544359 19.331900 1.441437 1.702794 0.018925 -0.012511 -487556.000000 1 0 0
4.004295 11.965014 10.640441 16.504997 1.247846 0.870192 0.004234 -0.001726 2698270.000000 1 0 0
7.944495 11.558614 3.380841 14.427289 0.968630 1.334260 0.006709 0.000324 1715110.000000 1 0 0
0.715995 12.538214 0.143541 12.559462 1.513753 1.559367 0.006254 -0.002337 -1204120.000000 1 0 0
11.935395 9.885914 -4.621459 16.172286 0.691752 1.860600 0.029360 -0.003503 2323930.000000 1 0 0
-1.377205 16.473514 9.968141 19.303814 -1.487389 1.028176 0.005659 0.002833 -260555.000000 1 0 0
8.107895 14.821814 -7.980559 18.684578 1.070240 2.012102 0.036796 -0.008872 1001500.000000 1 0 0
14.445895 7.610114 -1.328259 16.381758 0.484858 1.651967 0.024394 -0.000453 52774.200000 1 0 0
12.492195 8.265114 5.949241 16.117088 0.584502 1.192728 0.015904 -0.002782 -1616210.000000 1 0 0
-3.082505 14.165314 10.177341 17.712602 -1.356527 0.958703 0.004118 -0.003429 1749010.000000 1 0 0
-4.788605 17.192114 -3.212259 18.133343 -1.299147 1.748883 0.023795 -0.003711 -621526.000000 1 0 0
-7.242505 16.375514 -1.812359 17.997111 -1.154384 1.671670 0.018327 -0.006856 442327.000000 1 0 0
8.297195 11.253214 -1.835359 14.101306 0.935461 1.701322 0.011001 -0.002386 -120867.000000 1 0 0
8.542595 12.998614 -4.114559 16.089422 0.989381 1.829400 0.025717 -0.002287 600598.000000 1 0 0
2.603295 14.784814 -7.343059 16.711924 1.396504 2.025716 0.003577 -0.002063 -411117.000000 1 0 0
11.333095 11.349514 9.744041 18.766909 0.786122 1.024865 0.030805 -0.011129 2680260.000000 1 0 0
8.563395 15.766214 1.501641 18.004449 1.073229 1.487295 0.021153 -0.011641 1922030.000000 1 0 0
6.088495 9.971414 7.803141 14.049480 1.022623 0.981947 0.000172 0.005045 910442.000000 1 0 0
14.447595 11.466014 2.442341 18.605577 0.670843 1.439147 0.040217 -0.008200 1584130.000000 1 0 0
12.083695 12.722014 1.089541 17.579887 0.811125 1.508780 0.037180 -0.007494 1868180.000000 1 0 0
5.025395 15.909814 8.183741 18.583606 1.264846 1.114781 0.016543 -0.005881 -901723.000000 1 0 0
11.628895 14.979814 5.040841 19.622337 0.910672 1.310990 0.040190 -0.015406 1302430.000000 1 0 0
5.855195 16.723514 1.680341 17.798393 1.234017 1.476246 0.012664 -0.021945 1249020.000000 1 0 0
-0.821605 16.157114 -4.279659 16.734481 -1.519989 1.829408 0.000568 -0.001763 1030300.000000 1 0 0
16.050395 6.500214 2.464141 17.491139 0.384799 1.429447 0.022610 -0.003614 -280666.000000 1 0 0
7.632095 16.773014 -3.150959 18.695225 1.143774 1.740148 0.030602 -0.014930 103435.000000 1 0 0
14.868195 8.231614 7.454541 18.557825 0.505633 1.157432 0.047486 -0.011269 -685436.000000 1 0 0
2.100795 12.916814 8.581841 15.649455 1.409568 0.990371 0.004284 0.001457 1675860.000000 1 0 0
15.912895 7.503714 -5.794859 18.523130 0.440629 1.888983 0.020279 -0.000261 -1925840.000000 1 0 0
-3.057005 17.097414 0.675741 17.381700 -1.393867 1.531910 0.005925 -0.002320 2208070.000000 1 0 0
-2.914205 18.560214 4.669241 19.359131 -1.415054 1.327204 0.014084 -0.007899 1046910.000000 1 0 0
-0.906505 19.073514 0.974141 19.119876 -1.523305 1.519825 0.016026 -0.013572 -500412.000000 1 0 0
6.887195 16.756614 -6.068559 19.106150 1.180832 1.894018 0.029660 -0.013621 563208.000000 1 0 0
10.963395 10.112514 0.788541 14.935889 0.745048 1.517977 0.016084 -0.001341 -1552240.000000 1 0 0
9.103395 8.766614 14.363841 19.132309 0.766554 0.721579 0.019513 0.004511 210867.000000 1 0 0
6.371795 12.429114 -8.402859 16.300021 1.097079 2.112402 0.020779 -0.009258 -262739.000000 1 0 0
6.364795 9.040914 13.340341 17.326669 0.957392 0.692063 0.005999 0.000314 846459.000000 1 0 0
16.636495 9.496614 2.632341 19.336180 0.518695 1.434237 0.032423 -0.011496 -2651090.000000 1 0 0
2.536595 14.745314 -0.843759 14.985678 1.400437 1.627130 0.012157 -0.005585 -67995.600000 1 0 0
9.095595 12.947714 8.297441 17.866748 0.958404 1.087832 0.018836 -0.010598 835435.000000 1 0 0
7.270795 9.404814 10.530941 15.881301 0.912679 0.845839 0.002463 -0.002382 412620.000000 1 0 0
4.258795 15.877914 -5.211159 17.245338 1.308743 1.877773 0.020070 -0.006459 2323210.000000 1 0 0
0.232095 16.252714 -8.217259 18.213400 1.556517 2.038867 -0.000215 0.000875 1191440.000000 1 0 0
-2.598405 15.715614 -2.060059 16.061634 -1.406940 1.699410 -0.000695 0.001825 -909323.000000 1 0 0
13.312795 10.519614 7.570441 18.579676 0.668729 1.151127 0.040900 -0.017186 1711730.000000 1 0 0
-1.070005 15.942314 7.054141 17.466059 -1.503780 1.155045 0.006060 -0.001861 3700000.000000 1 0 0
13.357895 13.279514 6.658141 19.977730 0.782456 1.231018 0.047068 -0.019312 -1461180.000000 1 0 0
5.392895 17.357414 4.440741 18.710514 1.269555 1.331170 0.016465 -0.016310 1471760.000000 1 0 0
10.820995 9.524814 -1.859659 14.535279 0.721777 1.699089 0.015882 0.000926 -371344.000000 1 0 0
3.212295 12.790314 4.712041 14.004082 1.324735 1.227624 0.000852 0.000934 1872860.000000 1 0 0
-0.207105 18.005114 3.564041 18.355638 -1.559294 1.375389 0.009176 -0.011425 2170050.000000 1 0 0
-7.790105 15.909514 -5.708659 18.611480 -1.115462 1.882550 0.035951 -0.014406 929441.000000 1 0 0
-12.442305 -9.118786 8.289241 17.512131 0.632458 1.077715 0.032675 -0.011234 -1189980.000000 1 0 0
-13.384105 -11.664286 6.970541 19.072972 0.716846 1.196662 0.044821 -0.009225 126633.000000 1 0 0
-6.714305 -12.284086 12.330441 18.655306 1.070578 0.848697 0.036197 -0.017386 -1311450.000000 1 0 0
-1.860005 -10.664886 14.321641 17.952961 1.398128 0.647273 0.006937 -0.014289 672815.000000 1 0 0
-8.800005 2.940914 11.000741 14.391156 -0.322526 0.700671 -0.001197 0.000393 1492080.000000 1 0 0
0.624695 10.014714 15.216241 18.226869 1.508499 0.582982 0.005145 -0.002902 -547621.000000 1 0 0
0.994395 -6.777886 16.611841 17.968913 -1.425124 0.391136 -0.001675 -0.011162 1388320.000000 1 0 0
6.027995 2.417514 17.746641 18.897735 0.381409 0.350829 0.006049 -0.010140 1276610.000000 1 0 0
-5.056305 -2.948086 17.654241 18.599185 0.527864 0.320130 0.033354 -0.022358 -943110.000000 1 0 0
-4.321405 8.160214 13.053641 15.989409 -1.083773 0.615659 0.008435 0.000332 248126.000000 1 0 0
0.082995 -4.942786 18.648841 19.292934 -1.554007 0.259123 0.009310 -0.020506 -87128.000000 1 0 0
-11.609005 2.133814 11.169541 16.250564 -0.181778 0.812986 0.012340 -0.006493 581186.000000 1 0 0
-3.307805 -6.102186 14.368841 15.957501 1.074063 0.450006 0.018396 -0.012814 1101220.000000 1 0 0
-7.489805 -2.261486 14.677941 16.632903 0.293237 0.489721 0.020936 -0.005371 1074650.000000 1 0 0
-6.137705 -1.074586 10.674341 12.359924 0.173323 0.528379 0.004191 0.001430 -64025.800000 1 0 0
-3.945005 2.504014 11.084141 12.028772 -0.565566 0.398951 0.003032 0.003727 -54564.300000 1 0 0
-6.460605 6.320214 13.606041 16.334286 -0.774414 0.586335 0.003343 0.001362 1217980.000000 1 0 0
-9.082905 5.552914 12.522441 16.436106 -0.548730 0.704576 0.010652 -0.003463 321844.000000 1 0 0
-12.324105 -2.374686 15.781441 20.163745 0.190353 0.671862 0.033808 -0.006148 1228630.000000 1 0 0
-3.461605 -7.566786 17.050041 18.972160 1.141745 0.454029 0.031648 -0.018153 -579130.000000 1 0 0
-0.502005 -5.318486 14.534941 15.485568 1.476686 0.352212 0.003302 -0.004488 2455830.000000 1 0 0
-14.294305 -2.311286 13.711641 19.941873 0.160305 0.812645 0.034012 -0.007822 377151.000000 1 0 0
-6.462205 1.546514 12.118641 13.820755 -0.234899 0.501539 0.004324 0.002432 38798.900000 1 0 0
2.286195 -2.165586 14.607641 14.943214 -0.758312 0.212325 -0.001700 0.000388 848856.000000 1 0 0
-12.485905 4.045114 9.129141 15.987558 -0.313304 0.963054 0.002287 -0.007161 -1584470.000000 1 0 0
-9.058605 -3.067486 12.624541 15.838145 0.326507 0.648324 0.007094 0.002381 566427.000000 1 0 0
-7.160405 -7.281586 15.499441 18.561400 0.793789 0.582598 0.031990 -0.013682 -363532.000000 1 0 0
-3.282805 5.881514 19.377041 20.514355 -1.061713 0.334544 0.025280 -0.009985 667809.000000 1 0 0
0.740295 5.399314 16.107641 17.004610 1.434537 0.326248 0.007804 -0.003924 129004.000000 1 0 0
3.467995 1.455614 16.798841 17.214728 0.397397 0.220258 -0.006482 -0.005038 1066730.000000 1 0 0
-11.776505 11.261814 7.681441 18.014413 -0.763061 1.130281 0.014741 -0.024468 -732219.000000 1 0 0
0.578995 -9.458786 15.349841 18.039443 -1.509660 0.553092 -0.012173 -0.004197 -17504.900000 1 0 0
-2.487505 -3.678486 18.751041 19.269678 0.976202 0.232535 0.032942 -0.031609 1856880.000000 1 0 0
-12.963305 2.245814 13.766141 19.041996 -0.171541 0.762754 0.027398 -0.013250 -67337.100000 1 0 0
-5.332105 -0.544586 15.820541 16.703816 0.101780 0.326654 0.021312 -0.001778 1882210.000000 1 0 0
-4.415805 -5.985786 11.728441 13.888315 0.935204 0.565198 0.009567 -0.002936 1245540.000000 1 0 0
2.461795 1.844314 13.964841 14.299606 0.642973 0.216807 0.001093 -0.004473 -596762.000000 1 0 0
0.125795 3.269314 14.228541 14.599850 1.532338 0.226013 0.011863 -0.002996 -302233.000000 1 0 0
-13.059405 6.948214 12.162441 19.150737 -0.488955 0.882671 0.023429 -0.013702 -1206230.000000 1 0 0
0.978295 1.412414 18.305141 18.385597 0.965027 0.093586 0.010384 -0.006416 914022.000000 1 0 0
-2.021505 6.450414 12.499741 14.210484 -1.267099 0.495746 0.002533 -0.001002 377996.000000 1 0 0
-13.437905 -2.628486 10.952041 17.533780 0.193163 0.896145 0.030173 -0.008756 -17863.100000 1 0 0
-2.528405 3.609514 13.441941 14.145926 -0.959746 0.316810 0.008344 -0.000626 -391087.000000 1 0 0
3.546095 6.035614 16.305941 17.745060 1.039598 0.405513 -0.000791 -0.004372 839046.000000 1 0 0
-3.709705 12.274514 12.307741 17.773748 -1.277297 0.805893 0.016383 -0.008513 -423235.000000 1 0 0
3.824995 -1.471686 17.015441 17.502048 -0.367295 0.236358 0.003488 -0.010339 -433687.000000 1 0 0
-15.750505 0.587814 9.069841 18.184773 -0.037303 1.048629 0.037589 -0.007883 345834.000000 1 0 0
-4.717905 4.611114 15.173841 16.545890 -0.773951 0.410112 0.016005 -0.003143 2636320.000000 1 0 0
-7.997305 -8.207586 10.555841 15.580345 0.798374 0.826424 0.012473 -0.009544 3465180.000000 1 0 0
-2.556205 -0.488286 14.761441 14.989088 0.188746 0.174506 0.014095 -0.002123 1598520.000000 1 0 0
-1.715005 0.879014 17.221941 17.329431 -0.473632 0.111437 0.006992 -0.007046 2088940.000000 1 0 0
-0.645205 -2.489986 14.383741 14.611924 1.317253 0.176958 0.009562 -0.002257 574249.000000 1 0 0
4.884495 -8.216186 16.480341 19.051657 -1.034433 0.525577 0.002558 -0.000448 276657.000000 1 0 0
-4.523105 9.981014 10.672641 15.296549 -1.145309 0.798593 0.007020 -0.004392 -877260.000000 1 0 0
-6.197805 2.101614 15.140041 16.493951 -0.326923 0.408004 0.016303 -0.000810 209294.000000 1 0 0
-5.013505 6.882314 17.291841 19.274576 -0.941223 0.457562 0.019599 0.006318 -195941.000000 1 0 0
-4.116705 9.224014 15.745241 18.706746 -1.151021 0.570395 0.019611 -0.000099 -245051.000000 1 0 0
-4.688705 -9.849886 18.280541 21.288081 1.126519 0.538026 0.060382 -0.034055 -125072.000000 1 0 0
-6.795705 -4.093986 11.205541 13.729766 0.542210 0.616081 0.004353 0.003324 1663190.000000 1 0 0
-2.198405 -0.849386 19.585841 19.727129 0.368697 0.119755 0.020141 -0.012112 -645140.000000 1 0 0
-5.730605 -4.579986 15.331541 16.996243 0.674262 0.446290 0.021803 -0.012093 37578.400000 1 0 0
-12.862305 0.005314 9.721041 16.122580 -0.000413 0.923608 0.011514 -0.001710 689974.000000 1 0 0
-14.427305 8.717514 10.436041 19.825568 -0.543529 1.016444 0.013534 -0.017866 -2630860.000000 1 0 0
-8.345205 10.576514 12.912041 18.660813 -0.902779 0.806633 0.017729 -0.012768 -8536.740000 1 0 0
-10.528305 7.214814 10.720241 16.668003 -0.600777 0.872175 0.014612 -0.008857 -1667310.000000 1 0 0
-9.875205 -6.598386 14.992941 19.127119 0.589048 0.669942 0.037294 -0.011138 199441.000000 1 0 0
-0.813105 -13.478586 14.444841 19.773387 1.510544 0.751714 0.003112 -0.014234 486043.000000 1 0 0
3.772095 -5.579586 16.887841 18.181300 -0.976324 0.379479 0.007153 -0.007977 2222010.000000 1 0 0
-7.318305 9.357714 10.489841 15.848066 -0.907090 0.847445 0.008432 -0.010009 2060080.000000 1 0 0
-10.234705 -6.774086 11.987441 17.156229 0.584677 0.797186 0.031239 -0.013471 655872.000000 1 0 0
-10.913705 -4.008986 10.795741 15.865969 0.352034 0.822442 0.018088 0.000615 -793660.000000 1 0 0
-10.176905 -10.223686 9.911741 17.502450 0.787691 0.968779 0.036173 -0.014901 741321.000000 1 0 0
-9.887705 -3.699086 15.318041 18.603557 0.357990 0.603432 0.037943 -0.014376 2591120.000000 1 0 0
5.686295 -3.324886 16.081841 17.378563 -0.529108 0.388749 0.007156 -0.003872 111254.000000 1 0 0
-11.385105 0.376314 15.342241 19.108810 -0.033041 0.638672 0.029182 -0.008033 -220503.000000 1 0 0
-3.179305 3.030614 18.766541 19.273704 -0.761459 0.229913 0.011031 -0.005051 -3278.320000 1 0 0
0.576895 7.306014 13.876541 15.692962 1.491998 0.485905 0.004600 -0.003622 1515530.000000 1 0 0
-13.012805 -7.457586 12.268041 19.376623 0.520402 0.885198 0.037509 -0.019388 674116.000000 1 0 0
-1.529005 -1.136686 12.137541 12.286164 0.639273 0.155700 0.008479 -0.000210 710970.000000 1 0 0
2.058395 -4.820886 13.094341 14.104599 -1.167255 0.380783 -0.003573 -0.001211 1279030.000000 1 0 0
-14.685305 -3.992486 8.626141 17.493097 0.265453 1.055127 0.044410 -0.015357 -2122970.000000 1 0 0
8.084995 1.033614 16.292141 18.217282 0.127154 0.463880 0.011459 -0.005532 -770123.000000 1 0 0
-1.251805 11.229814 13.449141 17.565738 -1.459783 0.698751 0.000613 -0.002518 780470.000000 1 0 0
2.921695 -12.140386 -13.840959 18.641282 -1.334628 2.407576 0.001414 0.008075 -184209.000000 1 0 0
0.841995 -10.626586 -14.091459 17.669252 -1.491727 2.493958 -0.004350 0.010863 -705973.000000 1 0 0
3.270295 -14.305186 -12.449159 19.243563 -1.346049 2.274342 0.006610 0.004176 -1532100.000000 1 0 0
-5.188405 -10.195086 -16.125959 19.771339 1.100044 2.524601 0.028252 -0.007731 128147.000000 1 0 0
-1.137705 -12.122386 -15.165259 19.448179 1.477219 2.465107 0.015548 0.005782 198076.000000 1 0 0
5.572295 -15.072386 -12.035759 20.077021 -1.216678 2.213647 0.006416 -0.003396 -428509.000000 1 0 0
1.950095 -11.948786 -16.169659 20.199856 -1.409018 2.498898 0.004010 0.009925 -380930.000000 1 0 0
1.265995 -14.248886 -13.962159 19.989381 -1.482180 2.344066 0.019062 0.009714 -200695.000000 1 0 0
-1.155705 -10.535386 -15.937359 19.139734 1.461536 2.554734 0.015795 -0.005890 -38156.000000 1 0 0
-5.920905 -5.669186 -14.903459 17.009111 0.763683 2.638726 0.014787 -0.010131 -195775.000000 1 0 0
-6.309705 -7.495186 -16.557259 19.238841 0.871062 2.607275 0.016011 -0.006609 257219.000000 1 0 0
5.049495 -12.562286 -11.497359 17.762254 -1.188604 2.274822 -0.006885 0.007527 314142.000000 1 0 0
-1.754905 -15.488786 -13.183659 20.415460 1.457976 2.272826 0.017528 0.006364 -100123.000000 1 0 0
15.506095 -7.326886 -8.981159 19.359324 -0.441420 2.053210 0.029278 -0.002719 -15114.500000 1 0 0
19.171095 -3.617286 -4.011259 19.917475 -0.186492 1.773577 0.042729 -0.013172 77622.700000 1 0 0
14.775495 -11.601686 -8.968359 20.816960 -0.665650 2.016197 0.043406 -0.016078 398543.000000 1 0 0
18.040695 -3.458286 -6.392159 19.449578 -0.189396 1.905673 0.063525 -0.006606 752270.000000 1 0 0
9.633695 -9.162186 -15.342759 20.301575 -0.760318 2.427583 0.047462 -0.015210 131914.000000 1 0 0
1.272395 1.865814 -15.393159 15.557943 0.972287 2.995919 0.010535 -0.008944 557024.000000 1 0 0
4.857995 -4.366286 -13.958859 15.411499 -0.732143 2.703926 0.002043 0.000901 -707449.000000 1 0 0
13.059295 -5.440586 -8.594559 16.553295 -0.394740 2.116717 0.026191 -0.005408 -2003830.000000 1 0 0
2.977795 1.062114 -12.286859 12.687090 0.342612 2.889745 0.006088 -0.001984 -3578250.000000 1 0 0
0.682895 6.277314 -13.081759 14.525957 1.462435 2.691894 0.013997 -0.006636 439126.000000 1 0 0
3.197695 -1.206186 -16.872159 17.214815 -0.360702 2.941737 0.016043 -0.008681 -153770.000000 1 0 0
13.368195 4.212614 -11.369859 18.047948 0.305272 2.252325 0.004023 0.000005 574564.000000 1 0 0
-3.934605 9.406614 -16.421659 19.329676 -1.174631 2.585941 0.005199 -0.000628 -422690.000000 1 0 0
-0.114805 -5.039086 -17.745959 18.447889 1.548017 2.864850 0.014499 -0.012123 532787.000000 1 0 0
-0.422205 -8.452286 -17.566659 19.498894 1.520886 2.692647 0.021822 -0.008858 -488170.000000 1 0 0
5.564595 -10.165886 -12.206559 16.831816 -1.069967 2.382132 -0.003868 0.004787 688919.000000 1 0 0
1.843995 -9.832586 -17.918159 20.521707 -1.385411 2.632387 0.024415 -0.010336 -69101.800000 1 0 0
11.012995 8.953414 -14.504259 20.293427 0.682609 2.367030 0.047646 -0.017565 238871.000000 1 0 0
11.100295 -3.805786 -12.924959 17.457236 -0.330295 2.404429 0.028400 -0.004787 569601.000000 1 0 0
4.919195 7.348714 -12.214359 15.079544 0.980907 2.514940 0.004228 -0.001736 -649006.000000 1 0 0
9.648595 -5.899786 -12.540759 16.887080 -0.548808 2.407777 0.014831 -0.002936 -1481480.000000 1 0 0
-3.286205 0.388214 -15.838059 16.180048 -0.117590 2.935625 0.015735 -0.012282 -893337.000000 1 0 0
-0.795905 10.762514 -12.808159 16.748555 -1.496979 2.441422 0.006837 -0.001755 -2203490.000000 1 0 0
6.689995 -5.472886 -12.442359 15.149944 -0.685663 2.534449 0.003130 0.002468 59595.200000 1 0 0
17.625495 -6.227986 -7.971959 20.322352 -0.339657 1.973900 0.028795 -0.012011 -194589.000000 1 0 0
13.277195 4.756814 -13.901159 19.802863 0.344023 2.348966 0.024436 -0.007129 316161.000000 1 0 0
14.307195 0.802514 -11.447659 18.340903 0.056033 2.244852 0.015636 0.004417 -350636.000000 1 0 0
15.058195 6.299614 -11.062159 19.718157 0.396226 2.166406 0.019711 -0.006950 396615.000000 1 0 0
8.385695 1.556814 -11.863859 14.611457 0.183561 2.518291 0.004637 0.006475 877129.000000 1 0 0
9.999395 1.402214 -8.961459 13.500438 0.139321 2.296671 0.004957 0.001282 177859.000000 1 0 0
-0.012705 -5.773286 -13.003459 14.227471 1.568596 2.723755 -0.000631 -0.000800 625132.000000 1 0 0
10.590995 -5.657486 -8.974359 14.990511 -0.490615 2.212635 0.015746 -0.004744 -1506660.000000 1 0 0
10.198195 8.573614 -11.139359 17.366501 0.699070 2.267154 0.024890 -0.013869 655423.000000 1 0 0
8.421195 8.230014 -14.605459 18.760839 0.773917 2.463081 0.031658 -0.006477 645727.000000 1 0 0
8.592895 10.633314 -10.662559 17.337686 0.891129 2.233174 0.035989 -0.012525 -1067550.000000 1 0 0
7.031895 1.955914 -18.003959 19.427189 0.271291 2.756438 0.026981 0.001017 -1548430.000000 1 0 0
12.291795 2.617814 -12.868059 17.986887 0.209837 2.368012 0.015539 0.001327 -1342870.000000 1 0 0
2.669595 -1.142286 -19.412259 19.628228 -0.404314 2.993112 0.023352 -0.016518 -473464.000000 1 0 0
10.510395 -2.281686 -15.575259 18.927841 -0.213771 2.537250 0.038162 -0.002116 613739.000000 1 0 0
8.396595 -0.828886 -13.102759 15.584355 -0.098398 2.569488 0.014289 0.002467 300982.000000 1 0 0
0.485595 4.242414 -14.656959 15.266313 1.456830 2.858102 0.013332 -0.008108 -316459.000000 1 0 0
4.049695 -7.577186 -15.735659 17.928322 -1.079963 2.641834 0.007469 -0.004523 -1226670.000000 1 0 0
11.549495 -5.890386 -14.304059 19.305273 -0.471625 2.405266 0.044542 -0.006158 -587437.000000 1 0 0
-5.917105 4.315714 -16.790659 18.318399 -0.630162 2.730290 0.015559 -0.011855 -22889.600000 1 0 0
11.463495 7.804514 -8.964259 16.513028 0.597733 2.144635 0.022489 -0.007462 -1420920.000000 1 0 0
9.559295 6.210114 -13.490559 17.661846 0.576123 2.440015 0.013299 0.002562 301767.000000 1 0 0
12.148195 0.738114 -10.105259 15.818966 0.060685 2.263742 0.008380 0.005693 191886.000000 1 0 0
5.582195 -7.415086 -13.740259 16.581288 -0.925495 2.547507 0.004734 0.001328 -567789.000000 1 0 0
8.684495 -10.134986 -10.628459 17.061726 -0.862320 2.243294 0.015811 -0.003455 -101309.000000 1 0 0
10.274595 4.688914 -16.004959 19.588566 0.428130 2.527083 0.034129 0.000759 1340840.000000 1 0 0
10.004495 -0.267686 -11.022359 14.888047 -0.026750 2.404386 0.010361 0.004258 -104963.000000 1 0 0
-1.697905 5.499014 -14.063559 15.195582 -1.271317 2.753158 0.008874 -0.009832 -758722.000000 1 0 0
1.412195 -0.681186 -15.100059 15.181241 -0.449436 3.038129 0.010754 -0.007290 314817.000000 1 0 0
11.608495 -10.262386 -14.102659 20.951341 -0.723928 2.309209 0.063158 -0.017513 -2188700.000000 1 0 0
9.311095 -7.701586 -10.606159 16.077982 -0.691072 2.291176 0.015747 -0.004477 -408162.000000 1 0 0
14.076895 -1.028786 -9.649159 17.097474 -0.072954 2.170456 0.012081 0.005204 849286.000000 1 0 0
4.027895 11.120614 -12.151759 16.957513 1.223294 2.369712 0.017619 -0.012284 -1629100.000000 1 0 0
-1.411305 2.811814 -17.116759 17.403491 -1.105614 2.959818 0.010298 -0.009177 -362970.000000 1 0 0
5.871895 -0.378286 -17.850459 18.795242 -0.064334 2.823178 0.008132 0.001514 101553.000000 1 0 0
6.556895 -6.594586 -16.066459 18.563742 -0.788264 2.616895 0.020372 -0.001455 419330.000000 1 0 0
-1.621305 -5.487486 -19.797059 20.607393 1.283514 2.860228 0.030753 -0.020697 255276.000000 1 0 0
0.074195 -4.258786 -15.254359 15.837873 -1.553377 2.869301 0.005011 -0.007369 197458.000000 1 0 0
0.497195 0.760814 -13.092959 13.124466 0.991962 3.072287 0.007366 -0.006840 537119.000000 1 0 0
15.834995 0.574214 -13.494959 20.813233 0.036246 2.276256 0.036113 -0.006523 648810.000000 1 0 0
-0.048705 7.071514 -16.422359 17.880228 -1.563909 2.734977 0.019659 -0.003627 -639951.000000 1 0 0
-4.920205 -0.419986 -18.277359 18.932687 0.085153 2.877717 0.018555 -0.013981 -226094.000000 1 0 0
10.441595 -8.380086 -12.895459 18.588856 -0.676305 2.337437 0.017189 -0.014288 293270.000000 1 0 0
4.063095 8.821114 -17.241359 19.788513 1.139154 2.628603 0.036469 -0.016458 -408656.000000 1 0 0
9.172495 0.733814 -17.054659 19.378713 0.079832 2.646810 0.018058 0.002931 -145625.000000 1 0 0
3.315295 4.953814 -18.664559 19.593295 0.981014 2.832465 0.030165 -0.002668 -130956.000000 1 0 0
1.530395 -8.025786 -15.971559 17.940068 -1.382374 2.668741 -0.001206 -0.003557 516024.000000 1 0 0
4.499395 7.670114 -14.943459 17.389139 1.040278 2.604805 0.015728 -0.003755 344026.000000 1 0 0
-5.718905 -0.400286 -15.091859 16.144048 0.069879 2.778562 0.012607 -0.012418 127862.000000 1 0 0
2.899095 3.327114 -13.883159 14.567654 0.854035 2.833827 0.011555 -0.002560 202332.000000 1 0 0
-2.378505 -10.098086 -18.109359 20.870493 1.339472 2.621356 0.040498 -0.009323 88939.600000 1 0 0
6.265695 -9.031586 -15.356859 18.885486 -0.964275 2.520351 0.006803 -0.005293 34896.000000 1 0 0
-1.759805 5.407514 -17.342659 18.251190 -1.256169 2.824740 0.008899 -0.004985 792062.000000 1 0 0
10.116895 -12.251286 -11.332459 19.515895 -0.880531 2.190358 0.046624 -0.014854 436412.000000 1 0 0
10.943295 3.782714 -9.324359 14.866348 0.332808 2.248765 0.006343 0.000147 -844712.000000 1 0 0
4.848095 -0.449686 -11.043059 12.068777 -0.092490 2.726330 0.002315 0.000610 417878.000000 1 0 0
6.243295 9.552514 -11.422659 16.146405 0.991911 2.356670 0.019586 -0.011186 -66429.100000 1 0 0
10.838395 -9.513086 -9.249459 17.132486 -0.720369 2.141089 0.025837 -0.010464 -746624.000000 1 0 0
3.281095 -2.442986 -14.494159 15.060358 -0.640013 2.866517 0.008742 -0.006150 -162969.000000 1 0 0
9.376795 -4.488086 -14.747859 18.043462 -0.446412 2.527596 0.031113 -0.004720 -44946.900000 1 0 0
-4.015905 -6.369286 -16.416859 18.061244 1.008244 2.711567 0.009552 -0.011396 -2084390.000000 1 0 0
5.905495 -7.780586 -11.212059 14.870193 -0.921558 2.424920 -0.001813 0.004367 589552.000000 1 0 0
5.446395 6.572614 -16.975859 19.001112 0.878829 2.675685 0.022052 -0.003797 -826659.000000 1 0 0
8.888495 1.265714 -19.478959 21.448478 0.141448 2.709698 0.023468 -0.009230 433795.000000 1 0 0
13.093895 5.731214 -9.421659 17.119128 0.412579 2.153590 -0.003432 0.000415 346115.000000 1 0 0
-1.701705 -1.039886 -17.406459 17.520330 0.548530 3.027519 0.017842 -0.013405 -310208.000000 1 0 0
-0.395805 -0.620086 -19.507659 19.521524 1.002685 3.103900 0.024707 -0.023240 -102949.000000 1 0 0
2.855295 6.536314 -16.632959 18.097829 1.158944 2.736481 0.024061 -0.000181 -1638840.000000 1 0 0
7.746295 3.869914 -15.728359 17.954459 0.463314 2.638331 0.016455 0.003008 154531.000000 1 0 0
3.140295 -9.846186 -15.121859 18.316097 -1.262060 2.542070 0.002800 0.010290 114853.000000 1 0 0
9.267595 -10.617386 -13.223359 19.325486 -0.853174 2.324364 0.038317 -0.005733 -325403.000000 1 0 0
3.865995 0.011814 -14.804459 15.300917 0.003056 2.886159 0.008664 -0.004911 -1018080.000000 1 0 0
-1.131205 -2.997086 -19.073259 19.340407 1.209892 2.975190 0.028368 -0.013850 663044.000000 1 0 0
9.206495 10.140714 -13.045659 18.915148 0.833648 2.331862 0.043379 -0.017401 27261.300000 1 0 0
4.581895 2.116514 -10.711359 11.840887 0.432730 2.701255 0.002299 0.002042 -133575.000000 1 0 0
-0.528705 6.999714 -18.963259 20.220799 -1.495407 2.787062 0.028001 -0.001633 -56146.100000 1 0 0
0.829795 -1.897286 -17.590559 17.712030 -1.158504 3.024409 0.022474 -0.019057 -1173730.000000 1 0 0
-4.437005 -2.331886 -14.110759 14.974586 0.483881 2.800273 0.011478 -0.011146 -4308790.000000 1 0 0
10.015695 6.092614 -10.430759 15.691871 0.546505 2.297920 0.006602 0.003460 119912.000000 1 0 0
8.296595 5.641714 -17.431659 20.112810 0.597179 2.619333 0.040117 -0.009314 -456177.000000 1 0 0
11.397095 0.280614 -13.598759 17.745387 0.024617 2.443900 0.016815 0.009270 330752.000000 1 0 0
6.696695 12.134914 -11.793759 18.198753 1.066531 2.275822 0.034983 -0.018149 -660138.000000 1 0 0
-0.837305 0.485614 -15.335959 15.366474 -0.525564 3.078561 0.009670 -0.013183 -1579310.000000 1 0 0
-4.359205 -2.840586 -18.985059 19.685122 0.577520 2.874101 0.020355 -0.013542 -384732.000000 1 0 0
5.922395 -12.144486 -13.954159 19.423744 -1.117068 2.372306 0.002150 -0.000461 213031.000000 1 0 0
2.231095 -4.778586 -14.065059 15.021269 -1.133982 2.782861 0.003306 -0.000116 -1429740.000000 1 0 0
11.999695 2.062414 -15.354959 19.596453 0.170209 2.471168 0.036517 -0.000222 489932.000000 1 0 0
9.832195 2.363414 -13.896159 17.186070 0.235900 2.512516 0.013908 0.003591 126608.000000 1 0 0
-2.127205 -3.974686 -16.476159 17.081772 1.079396 2.874515 0.003432 -0.009746 -1308890.000000 1 0 0
-2.918305 10.045114 -14.236359 17.666203 -1.288059 2.507911 0.010415 -0.010280 474236.000000 1 0 0
3.613495 5.735314 -13.680359 15.267724 1.008579 2.681545 0.010066 -0.001555 -53239.100000 1 0 0
-5.086805 -2.491386 -16.594259 17.534309 0.455433 2.812661 0.014167 -0.011886 656483.000000 1 0 0
-4.336005 6.152514 -13.728259 15.656291 -0.956887 2.640072 0.004670 -0.005105 -918772.000000 1 0 0
6.048195 -1.074686 -14.189859 15.462461 -0.175852 2.733041 0.009725 0.002945 -1415810.000000 1 0 0
6.797695 -2.980186 -12.695659 14.706118 -0.413175 2.612551 0.005053 -0.000114 1897120.000000 1 0 0
2.846695 -3.450486 -18.272159 18.811733 -0.880989 2.901505 0.020402 -0.017163 563393.000000 1 0 0
7.556695 -11.927186 -11.958359 18.503073 -1.006059 2.273509 0.010958 -0.003200 -1229750.000000 1 0 0
-6.169605 -5.207786 -17.542059 19.310849 0.701061 2.710248 0.037850 -0.014451 234234.000000 1 0 0
0.445995 8.669414 -11.987059 14.800244 1.519397 2.514817 0.006239 -0.002737 116036.000000 1 0 0
0.549195 8.645714 -14.545159 16.929608 1.507359 2.604413 0.015070 -0.001319 -92401.600000 1 0 0
7.880895 -2.438386 -15.104459 17.210430 -0.300062 2.641700 0.019366 -0.005862 -334388.000000 1 0 0
14.444595 1.532614 -8.942259 17.057527 0.105707 2.122620 0.008777 0.006491 192702.000000 1 0 0
2.804695 10.552414 -14.521659 18.168608 1.311015 2.496879 0.018858 -0.008626 225168.000000 1 0 0
6.159095 1.054914 -15.620759 16.824250 0.169632 2.761060 0.018534 -0.002293 369875.000000 1 0 0
16.711895 -5.365486 -10.227859 20.314649 -0.310662 2.098409 0.069985 -0.015553 360323.000000 1 0 0
4.934595 -4.242486 -11.193659 12.947853 -0.710124 2.614988 -0.001631 0.005290 -1624400.000000 1 0 0
8.917895 -3.535886 -17.157759 19.657569 -0.377480 2.631772 0.024413 -0.005582 537908.000000 1 0 0
13.387595 -9.455986 -8.849259 18.626667 -0.614958 2.065857 0.051539 -0.017814 -854504.000000 1 0 0
2.409795 -7.719686 -13.594859 15.818370 -1.268219 2.604960 -0.004736 0.005387 199187.000000 1 0 0
-6.882105 -2.202386 -18.429659 19.795610 0.309718 2.767932 0.017241 -0.013641 62878.700000 1 0 0
-1.491805 -6.284586 -15.782759 17.053356 1.337735 2.753131 0.008172 -0.006171 446715.000000 1 0 0
1.801295 -7.311386 -18.492659 19.966959 -1.329239 2.754904 0.026517 -0.010931 -70058.000000 1 0 0
5.403695 10.575214 -14.405359 18.669479 1.098405 2.452148 0.036184 -0.029764 -210997.000000 1 0 0
5.427995 -3.372786 -17.495159 18.625772 -0.555984 2.791376 0.015184 -0.008819 210305.000000 1 0 0
4.146495 12.773214 -14.193259 19.539627 1.256904 2.383841 0.021570 -0.014093 436036.000000 1 0 0
9.206995 10.600614 -15.507559 20.919516 0.855640 2.405796 0.058547 -0.022774 145255.000000 1 0 0
2.462795 3.980014 -16.311959 16.970146 1.016675 2.862170 0.020198 -0.005071 207882.000000 1 0 0
16.738395 1.733414 -11.312559 20.276897 0.103191 2.162654 0.035658 -0.002329 313013.000000 1 0 0
9.996295 -3.700486 -10.552259 14.998989 -0.354543 2.351151 0.016800 -0.000475 258394.000000 1 0 0
14.801695 -2.127086 -11.955659 19.145559 -0.142728 2.245238 0.042280 0.001287 943954.000000 1 0 0
-2.661705 -8.506586 -16.135659 18.433832 1.267548 2.636911 0.013839 0.001356 194154.000000 1 0 0
14.033295 8.110614 -8.972559 18.526258 0.524052 2.076377 0.036520 -0.005750 290948.000000 1 0 0
-8.279705 -0.008686 -16.530359 18.488006 0.001049 2.677242 0.012773 -0.012340 -463127.000000 1 0 0
-3.486605 3.860314 -15.958659 16.785030 -0.836220 2.826499 0.010736 -0.009289 -619893.000000 1 0 0
15.233395 4.117614 -9.547759 18.443719 0.263993 2.114922 0.007938 0.004566 832718.000000 1 0 0
5.419995 1.137414 -13.043459 14.170457 0.206854 2.740074 0.006235 0.003681 283971.000000 1 0 0
7.919995 -7.796586 -12.795359 16.947987 -0.777546 2.426417 0.018023 -0.001792 -2248440.000000 1 0 0
3.276395 -6.102086 -11.863359 13.737157 -1.078043 2.613156 -0.001653 0.003655 -1137080.000000 1 0 0
-3.367905 3.698314 -18.577959 19.239565 -0.832123 2.878584 0.017145 -0.005739 -72693.300000 1 0 0
0.827795 5.115514 -17.887859 18.623351 1.410367 2.859615 0.028917 -0.009952 -208608.000000 1 0 0
6.388695 7.250514 -10.170659 14.029529 0.848501 2.381753 0.000489 -0.000278 -100745.000000 1 0 0
9.758295 3.813714 -11.708759 15.711899 0.372566 2.411655 0.011793 0.004202 123792.000000 1 0 0
4.478095 1.847414 -17.493659 18.151980 0.391274 2.871450 0.023972 -0.005270 702343.000000 1 0 0
2.595295 7.988014 -13.182959 15.631197 1.256656 2.574330 0.008883 -0.006452 -1402360.000000 1 0 0
14.386995 -3.598286 -9.821959 17.787753 -0.245079 2.155768 0.028690 0.000342 -95305.500000 1 0 0
-1.368005 9.347914 -16.142959 18.704279 -1.425484 2.612098 0.016178 -0.002332 -1088380.000000 1 0 0
-5.237605 2.051214 -15.751059 16.725305 -0.373272 2.798593 0.011457 -0.014489 601516.000000 1 0 0
4.609095 4.212314 -12.034359 13.557770 0.740449 2.662982 0.004301 -0.000331 474728.000000 1 0 0
9.289495 3.257014 -17.861959 20.394912 0.337221 2.637897 0.023552 0.004235 919787.000000 1 0 0
-4.306105 14.335114 -13.456459 20.127452 -1.278983 2.303070 0.020763 -0.008868 -460202.000000 1 0 0
15.468095 -4.820386 -7.919759 18.033875 -0.302096 2.025460 0.034620 -0.008189 -81194.700000 1 0 0
1.129895 9.258114 -16.990259 19.381905 1.449353 2.639556 0.021812 -0.002772 -1161910.000000 1 0 0
0.531395 -3.119186 -12.899659 13.282051 -1.402053 2.901054 0.001434 -0.002435 617130.000000 1 0 0
7.627095 3.725914 -13.148059 15.650126 0.454414 2.568310 0.008804 0.003380 418629.000000 1 0 0
-2.920405 7.506114 -15.073659 17.090515 -1.199748 2.650864 0.006849 -0.005384 474381.000000 1 0 0
12.177395 -5.089286 -10.987659 17.173189 -0.395866 2.265053 0.032840 -0.007433 -1182800.000000 1 0 0
0.794995 -4.475986 -20.131359 20.638267 -1.395016 2.919499 0.034983 -0.020175 -257723.000000 1 0 0
3.669595 -4.600586 -16.079859 17.122884 -0.897498 2.790757 0.013905 -0.010857 608171.000000 1 0 0
-5.641005 4.095014 -14.340359 15.944779 -0.627922 2.689137 0.007447 -0.006727 249694.000000 1 0 0
12.141895 -7.497386 -9.837759 17.332567 -0.553174 2.174370 0.021300 -0.005972 -524719.000000 1 0 0
-1.927505 -1.752786 -14.961759 15.186894 0.737959 2.969191 0.010745 -0.009344 1289410.000000 1 0 0
7.065495 5.940214 -14.334059 17.049123 0.699091 2.569464 0.012864 0.001466 -352021.000000 1 0 0
4.375495 -5.642486 -18.337759 19.678821 -0.911202 2.770282 0.025549 -0.016271 53890.900000 1 0 0
7.623095 7.391914 -12.237859 16.202381 0.770003 2.426927 0.010771 -0.005490 230758.000000 1 0 0
12.317195 -2.505386 -11.027359 16.721031 -0.200668 2.290937 0.021139 -0.000300 -457767.000000 1 0 0
7.461895 -0.553386 -10.731359 13.082361 -0.074026 2.532718 0.002742 0.005516 -1748900.000000 1 0 0
5.405495 3.967014 -14.538359 16.010011 0.633108 2.709471 0.010875 0.002280 -259092.000000 1 0 0
14.865895 2.823414 -12.999359 19.948680 0.187690 2.280541 0.020446 -0.003859 31262.800000 1 0 0
-6.758005 6.558314 -15.698659 18.306556 -0.770403 2.601270 0.012700 -0.004228 515910.000000 1 0 0
-11.198805 3.736514 -16.556659 20.334643 -0.322038 2.522163 0.054014 -0.021838 305968.000000 1 0 0
-5.048705 6.566014 -17.703359 19.545098 -0.915299 2.703989 0.006202 0.001460 625837.000000 1 0 0
-10.061705 1.524114 -15.600359 18.626111 -0.150334 2.563586 0.039888 -0.017898 -353724.000000 1 0 0
-7.675405 5.921414 -17.921759 20.375584 -0.657107 2.645755 0.012859 -0.006177 131425.000000 1 0 0
-8.739205 3.723214 -15.527659 18.202863 -0.402748 2.592568 0.010529 -0.006524 -996260.000000 1 0 0
8.790495 13.640914 -11.623159 19.961091 0.998353 2.192340 0.069990 -0.037536 -687298.000000 1 0 0
13.985395 9.312514 -11.287759 20.241731 0.587454 2.162346 0.042918 -0.013313 445996.000000 1 0 0
8.191395 15.946914 -9.088359 20.099783 1.096275 2.039984 0.053097 -0.020055 192503.000000 1 0 0
7.547595 13.440114 -13.877859 20.741211 1.059112 2.303788 0.056852 -0.020530 139919.000000 1 0 0
4.302595 15.945814 -12.474759 20.697848 1.307247 2.217687 0.049619 -0.022587 -54794.600000 1 0 0
10.982495 11.135914 -11.435959 19.375369 0.792334 2.202142 0.059312 -0.020631 728168.000000 1 0 0
15.783595 9.925014 -9.418959 20.888862 0.561340 2.038579 0.062057 -0.010254 -745616.000000 1 0 0
13.340295 10.679614 -9.089559 19.355560 0.675078 2.059645 0.074457 -0.021106 84855.400000 1 0 0
10.296195 12.116414 -8.298359 17.935492 0.866434 2.051810 0.038744 -0.003303 120608.000000 1 0 0
5.443395 16.299714 -10.153159 19.959906 1.248485 2.104445 0.035780 -0.013925 -518669.000000 1 0 0
6.505995 14.783414 -11.975759 20.107116 1.156216 2.208806 0.039620 0.003284 -1462360.000000 1 0 0
10.988195 14.092214 -9.816459 20.388570 0.908535 2.073126 0.083631 -0.018259 -160255.000000 1 0 0
8.244195 -18.516386 -1.209659 20.304841 -1.151910 1.630407 0.049600 -0.002828 -226672.000000 1 0 0
7.334895 -17.256186 -3.271059 19.033561 -1.168876 1.743511 0.037170 -0.011855 -414490.000000 1 0 0
4.839595 -18.189086 5.805041 19.696777 -1.310750 1.271633 0.039383 -0.007689 382772.000000 1 0 0
9.793395 -16.905686 -2.540859 19.701998 -1.045740 1.700121 0.049930 -0.010660 -1033620.000000 1 0 0
-9.620605 -12.204486 -10.006759 18.483526 0.903240 2.142883 0.025805 -0.006054 -271960.000000 1 0 0
-5.009405 -6.921586 -12.072159 14.789844 0.944317 2.525680 0.007262 -0.002482 329185.000000 1 0 0
-10.838505 -9.517186 -5.714859 15.514820 0.720578 1.948028 0.010326 -0.004106 -328495.000000 1 0 0
-4.458305 -11.350086 -13.979859 18.550940 1.196513 2.424307 0.022135 -0.004432 -181834.000000 1 0 0
-2.976905 -15.497186 7.448041 17.449872 1.381015 1.129817 0.018197 -0.007176 344732.000000 1 0 0
-4.685605 -12.052386 -11.500459 17.305359 1.200008 2.297702 0.013320 0.001685 -363716.000000 1 0 0
-14.172505 -12.899586 -4.136959 19.605449 0.738413 1.783405 0.017892 -0.006752 -407070.000000 1 0 0
-3.240305 -12.225586 -3.252859 13.059311 1.311710 1.822530 0.010588 -0.006105 775018.000000 1 0 0
-2.347705 -17.212986 -1.612559 17.447032 1.435241 1.663354 -0.001429 -0.010876 -870717.000000 1 0 0
-5.832005 -12.097086 3.743341 13.941462 1.121571 1.298956 0.004366 -0.000458 630981.000000 1 0 0
-8.806205 -10.801386 -12.050659 18.423831 0.886805 2.283762 0.027862 -0.000392 -309041.000000 1 0 0
-9.687705 -11.763586 -7.425259 16.951933 0.881870 2.024189 0.021707 -0.012996 -522841.000000 1 0 0
-10.792605 -14.778286 6.044241 19.272024 0.940022 1.251785 0.053055 -0.021379 -708067.000000 1 0 0
-9.340105 -15.786686 0.650841 18.354307 1.036543 1.535329 0.023763 -0.004046 -2102180.000000 1 0 0
-14.816605 -7.711686 -8.202159 18.608527 0.479894 2.027257 0.027630 -0.010643 -256730.000000 1 0 0
-2.276705 -16.468286 5.140741 17.401581 1.433419 1.270903 0.022911 -0.008784 436989.000000 1 0 0
4.659695 -15.640486 6.114441 17.427677 -1.281244 1.212321 0.026041 -0.013442 -402444.000000 1 0 0
4.025495 -14.695086 -10.093159 18.276269 -1.303421 2.155863 -0.007203 0.000198 17822.000000 1 0 0
-7.525005 -14.190486 -0.304359 16.065124 1.083215 1.589743 0.008258 0.001511 654222.000000 1 0 0
3.199295 -14.862086 9.640741 18.001693 -1.358766 1.005642 0.023349 -0.014011 107646.000000 1 0 0
2.438395 -17.237286 10.463441 20.311410 -1.430268 1.029613 0.040932 -0.021550 -135756.000000 1 0 0
-8.252705 -17.131486 -5.806659 19.882460 1.121873 1.867165 0.028206 -0.008936 -392239.000000 1 0 0
-6.508205 -9.246386 -7.674659 13.665752 0.957481 2.167112 0.012207 -0.005282 520312.000000 1 0 0
-6.002505 -13.054586 -4.789559 15.145697 1.139822 1.892552 0.000536 -0.005482 175422.000000 1 0 0
2.083095 -19.325886 -4.839259 20.031165 -1.463423 1.814797 0.021060 -0.018868 -21893.300000 1 0 0
-5.482605 -12.787086 8.393141 16.248487 1.165744 1.027981 0.017733 -0.010686 977406.000000 1 0 0
2.321095 -17.401786 3.565341 17.914276 -1.438196 1.370436 0.020502 -0.011620 155687.000000 1 0 0
-17.382905 -10.214286 -2.492259 20.315225 0.531256 1.693786 0.012170 -0.012276 593086.000000 1 0 0
-3.335805 -15.394586 2.511841 15.950869 1.357408 1.412664 0.005456 -0.001041 35032.300000 1 0 0
-10.104705 -10.376586 -14.309959 20.360587 0.798672 2.350159 0.039134 -0.008734 -254485.000000 1 0 0
6.053295 -14.649486 -5.725759 16.853312 -1.178955 1.917438 0.005746 -0.009851 456845.000000 1 0 0
-7.196705 -12.345986 -10.836459 17.934457 1.043031 2.219590 0.017799 -0.003570 -320340.000000 1 0 0
-7.262805 -14.252686 3.842241 16.451450 1.099518 1.335069 0.009673 0.001477 698348.000000 1 0 0
3.294895 -14.983686 -3.153559 15.662442 -1.354343 1.773527 0.010133 -0.007698 -660984.000000 1 0 0
-7.558805 -11.397686 7.856341 15.772282 0.985206 1.049378 0.015268 -0.012862 -2213530.000000 1 0 0
-12.749505 -12.498386 -1.069259 17.885828 0.775452 1.630614 0.012108 0.004995 -1188650.000000 1 0 0
-1.850105 -13.600186 4.004041 14.297562 1.435591 1.286949 0.012624 0.001797 -2956250.000000 1 0 0
-3.177005 -13.981786 5.217141 15.257859 1.347366 1.221825 0.012196 -0.000278 526674.000000 1 0 0
-14.412805 -10.304686 -4.349559 18.243743 0.620701 1.811528 0.009931 -0.005844 640734.000000 1 0 0
-6.014405 -8.696486 -10.343659 14.791660 0.965737 2.345200 0.012219 -0.004023 125444.000000 1 0 0
1.050395 -19.434386 2.527641 19.626198 -1.516801 1.441648 0.031438 -0.010612 41680.200000 1 0 0
6.443595 -14.105786 -8.248259 17.564933 -1.142298 2.059619 0.012283 -0.009458 -2131270.000000 1 0 0
-4.063005 -16.811686 -5.887459 18.270275 1.333666 1.898894 0.009537 -0.008631 41753.000000 1 0 0
-3.455305 -13.614886 -13.253159 19.311925 1.322255 2.327142 0.034481 0.002053 -778818.000000 1 0 0
-8.171705 -14.665886 -4.618859 17.412605 1.062449 1.839269 0.009670 -0.006417 -1302870.000000 1 0 0
-4.651605 -14.328586 10.177241 18.180265 1.256892 0.976657 0.030862 -0.012871 410179.000000 1 0 0
-0.214605 -12.061286 -9.923959 15.620679 1.553005 2.259205 0.006439 0.004522 -127150.000000 1 0 0
2.564795 -17.048686 6.862041 18.555955 -1.421477 1.192000 0.026135 -0.022146 647156.000000 1 0 0
-3.079705 -19.035586 -3.314959 19.565967 1.410399 1.741042 0.003411 -0.019733 910208.000000 1 0 0
0.656395 -15.440386 -3.097059 15.761603 -1.528310 1.768577 0.006745 -0.006295 -545970.000000 1 0 0
6.063395 -17.878886 0.584241 18.888108 -1.243831 1.539860 0.024710 -0.005435 -380645.000000 1 0 0
-6.911405 -16.723086 3.848141 18.499657 1.178890 1.361255 0.013595 0.000480 831929.000000 1 0 0
-5.306705 -13.619186 -9.581859 17.477281 1.199245 2.151062 0.016420 0.000401 -344587.000000 1 0 0
5.734495 -15.205786 -2.111859 16.387809 -1.210163 1.700023 0.015190 -0.004892 -1172370.000000 1 0 0
-8.854805 -10.270286 -0.321759 13.564287 0.859275 1.594520 0.004088 0.003378 -268309.000000 1 0 0
-7.307605 -18.186886 -3.187159 19.857540 1.188734 1.731995 0.019492 -0.024035 -89129.400000 1 0 0
7.892195 -15.917386 -1.069059 17.798674 -1.110496 1.630896 0.023630 -0.007754 -360166.000000 1 0 0
-8.030405 -10.180286 -9.607059 16.137571 0.902910 2.208463 0.019688 -0.006819 -747535.000000 1 0 0
-9.151505 -14.979886 -6.955659 18.881954 1.022386 1.948058 0.028014 -0.011214 -416859.000000 1 0 0
-11.363605 -10.488986 -11.985059 19.565070 0.745396 2.230110 0.047535 0.001682 -1478470.000000 1 0 0
6.596295 -16.257286 2.572641 17.732144 -1.185348 1.425199 0.019289 -0.004666 343883.000000 1 0 0
-2.230105 -11.237286 -6.019659 12.941648 1.374886 2.054587 0.009132 -0.002598 130894.000000 1 0 0
-12.239805 -15.593586 -3.216659 20.082819 0.905315 1.731659 0.016100 -0.000572 -129195.000000 1 0 0
-0.516905 -19.782586 -3.004559 20.016125 1.544673 1.721473 0.027450 -0.010608 467670.000000 1 0 0
-5.877605 -15.650086 -4.697159 17.364755 1.211531 1.844708 0.002257 -0.009332 -3309320.000000 1 0 0
2.046195 -15.920886 -0.989459 16.082305 -1.442974 1.632360 0.014105 -0.009215 491568.000000 1 0 0
-13.246505 -12.002686 5.381041 18.667886 0.736176 1.278396 0.031650 -0.005191 293835.000000 1 0 0
1.943495 -15.299186 -8.754959 17.733910 -1.444441 2.087118 0.004597 0.000794 -2202680.000000 1 0 0
-11.685505 -16.842786 -0.026359 20.499540 0.964244 1.572082 0.045946 -0.016617 511606.000000 1 0 0
-7.610505 -16.668986 -1.038859 18.353585 1.142495 1.627429 0.027358 -0.008418 697942.000000 1 0 0
-2.962605 -14.377186 -1.786659 14.787584 1.367578 1.691914 0.003704 -0.005712 390461.000000 1 0 0
-1.699205 -10.448986 -13.174759 16.900972 1.409588 2.464706 0.004414 0.005240 -382155.000000 1 0 0
1.692495 -19.400786 5.035541 20.114962 -1.483778 1.317767 0.042902 -0.021698 -136477.000000 1 0 0
-17.352305 -9.470686 2.526341 19.929345 0.499604 1.443689 0.030657 -0.009125 281134.000000 1 0 0
-2.793605 -15.810086 -8.029759 17.951046 1.395904 2.034556 0.009621 -0.000717 -651146.000000 1 0 0
-10.620105 -12.126886 0.356241 16.123737 0.851542 1.548700 0.008605 0.003586 708748.000000 1 0 0
-6.942105 -11.495186 -6.544059 14.938434 1.027504 2.024245 0.007952 -0.003076 151949.000000 1 0 0
-2.341705 -13.649386 -6.680459 15.375885 1.400889 2.020253 0.002790 -0.003257 404812.000000 1 0 0
-14.388105 -14.539986 -0.972559 20.478638 0.790648 1.618306 0.040191 -0.002155 592209.000000 1 0 0
-9.615705 -11.317086 -4.252159 15.447300 0.866498 1.849666 0.014032 -0.005078 473593.000000 1 0 0
9.612295 -15.278086 -5.089259 18.754110 -1.009214 1.845610 0.031420 -0.008527 472869.000000 1 0 0
-5.603005 -10.980786 -9.283159 15.432056 1.098978 2.216237 0.014242 -0.004150 -975270.000000 1 0 0
-10.417405 -16.075586 -4.922559 19.778230 0.995810 1.822328 0.032060 -0.006159 -1600410.000000 1 0 0
2.286295 -17.357586 -3.232859 17.803491 -1.439833 1.753395 0.021901 -0.011595 443948.000000 1 0 0
-0.529405 -14.544786 -8.250059 16.730048 1.534414 2.086478 0.000386 -0.000536 18028.700000 1 0 0
-0.607505 -18.268586 -7.142559 19.624638 1.537554 1.943311 0.021987 -0.012033 225126.000000 1 0 0
-1.548705 -9.891486 -10.531559 14.531129 1.415488 2.381480 0.000982 0.003934 214211.000000 1 0 0
-4.918805 -17.356886 2.128741 18.165562 1.294645 1.453341 0.010768 -0.001099 -828489.000000 1 0 0
0.284595 -12.831786 -2.626959 13.101016 -1.548621 1.772681 0.005974 -0.005694 -1816430.000000 1 0 0
2.677295 -14.964286 3.066441 15.508089 -1.393757 1.371753 0.012985 -0.004463 -1149690.000000 1 0 0
-9.321905 -13.065186 6.900841 17.470507 0.951073 1.164729 0.026133 -0.010833 -666921.000000 1 0 0
-1.076805 -17.771486 -4.539859 18.373773 1.510279 1.820466 0.014992 -0.015400 -67300.500000 1 0 0
-9.705805 -17.543386 -2.287359 20.179322 1.065465 1.684392 0.041783 -0.019865 -1612220.000000 1 0 0
1.350795 -16.180986 1.463641 16.303104 -1.487509 1.480898 0.012330 -0.010424 -484839.000000 1 0 0
-0.258605 -17.933886 4.190041 18.418675 1.556377 1.341298 0.023711 -0.013810 989658.000000 1 0 0
-17.383705 -9.336586 -0.047859 19.732393 0.492876 1.573222 0.011000 -0.005042 456848.000000 1 0 0
-14.836305 -7.271886 -10.719159 19.695092 0.455730 2.146298 0.059689 -0.015933 694627.000000 1 0 0
2.821195 -12.820186 -8.883859 15.850528 -1.354190 2.165758 -0.003999 0.002871 446210.000000 1 0 0
-11.524805 -14.921686 1.708141 18.931339 0.913142 1.480445 0.023621 -0.000262 -72169.800000 1 0 0
-2.299605 -15.442986 10.506541 18.819176 1.422973 0.978474 0.030239 -0.019473 -185801.000000 1 0 0
-6.893005 -15.965986 1.375541 17.444722 1.163239 1.491863 0.020275 -0.004326 -1623670.000000 1 0 0
-12.632605 -15.184686 -5.704759 20.559710 0.876886 1.851959 0.033075 -0.006634 7748.460000 1 0 0
0.972595 -13.740386 -5.031059 14.664777 -1.500131 1.920981 0.008590 -0.006162 200207.000000 1 0 0
6.092695 -16.485586 -7.525259 19.118707 -1.216788 1.975348 0.031524 -0.017706 167307.000000 1 0 0
-6.489605 -12.873086 5.985441 15.609510 1.103857 1.177269 0.015188 -0.003995 125348.000000 1 0 0
-2.497305 -13.474686 0.514941 13.713820 1.387542 1.533238 0.008939 -0.003147 1743400.000000 1 0 0
-4.238605 -15.465686 0.148541 16.036685 1.303299 1.561534 0.001896 -0.003484 -148283.000000 1 0 0
-17.704705 -7.739886 -2.169459 19.443996 0.412130 1.682604 0.014456 -0.004422 421754.000000 1 0 0
1.253095 -12.641486 -11.898659 17.405616 -1.471994 2.323494 0.004342 0.007810 -747674.000000 1 0 0
1.174995 -17.046186 -5.659959 17.999672 -1.501975 1.890671 0.022033 -0.016442 -1255930.000000 1 0 0
-12.842305 -6.371986 -9.279459 17.077335 0.460580 2.145253 0.030807 -0.005814 1462190.000000 1 0 0
-11.368005 -13.513386 -8.507759 19.601660 0.871410 2.019760 0.027150 -0.009852 339020.000000 1 0 0
-4.307905 -9.878786 3.487141 11.327339 1.159581 1.257862 0.012701 -0.000885 -4409110.000000 1 0 0
-7.170005 -14.278386 9.564141 18.621334 1.105424 1.031407 0.031857 -0.017478 -965452.000000 1 0 0
-5.392905 -15.897886 -8.059959 18.622275 1.243756 2.018407 0.010661 -0.009275 -577535.000000 1 0 0
-0.233805 -13.496986 2.106741 13.662417 1.553475 1.415979 0.012229 -0.004753 744615.000000 1 0 0
-11.009405 -13.568886 -4.522059 18.049118 0.889160 1.824036 0.030433 -0.005199 -1124760.000000 1 0 0
-9.700905 -10.486586 6.771341 15.809083 0.824298 1.128164 0.025116 -0.005411 -270663.000000 1 0 0
-15.580305 -8.199386 -4.917059 18.279861 0.484439 1.843138 0.023219 -0.006145 -589658.000000 1 0 0
-14.531905 -7.401486 5.437541 17.190844 0.471081 1.248965 0.031498 -0.008800 270614.000000 1 0 0
-1.510905 -19.286686 -0.232859 19.347178 1.492617 1.582832 0.020542 -0.009256 -469297.000000 1 0 0
-15.345105 -12.240086 -1.216159 19.666494 0.673309 1.632675 0.014570 0.001549 -285607.000000 1 0 0
-4.445205 -12.080986 -6.891259 14.601353 1.218220 2.062309 0.005569 -0.003461 -1273750.000000 1 0 0
-7.286405 -18.504686 1.915941 19.979638 1.195681 1.474754 0.026706 -0.000953 178401.000000 1 0 0
-2.389605 -11.668486 -8.611759 14.697828 1.368798 2.196812 0.003346 0.002652 183795.000000 1 0 0
-1.730605 -20.204886 -5.233959 20.943417 1.485352 1.823383 0.026987 -0.018384 -307381.000000 1 0 0
-5.283205 -8.785586 -13.851359 17.232496 1.029385 2.504440 0.018087 -0.000724 497884.000000 1 0 0
-8.126305 -19.213786 -0.970659 20.884170 1.170671 1.617291 0.030678 -0.006444 227646.000000 1 0 0
-17.046405 -7.394786 5.781041 19.459785 0.409303 1.269167 0.054583 -0.014030 -1123260.000000 1 0 0
-3.553805 -14.649786 -4.351859 15.690265 1.332809 1.851842 0.002882 -0.006909 -2335920.000000 1 0 0
-2.848605 -14.735186 -10.876259 18.534650 1.379832 2.197906 0.015742 -0.003689 -823390.000000 1 0 0
0.001895 -16.619086 6.352241 17.791711 -1.570682 1.205706 0.037598 -0.018264 236725.000000 1 0 0
-11.140705 -11.659286 3.988241 16.612054 0.808139 1.328347 0.018793 -0.000853 439867.000000 1 0 0
-0.131005 -14.632886 -0.152259 14.634264 1.561844 1.581201 0.003210 -0.004239 1012030.000000 1 0 0
-7.333105 -9.590886 -2.332359 12.296317 0.918022 1.761632 0.009648 0.000483 149659.000000 1 0 0
-10.961105 -14.492086 -0.822759 18.189098 0.923243 1.616045 0.013437 -0.009936 430029.000000 1 0 0
0.366395 -14.598986 -10.675259 18.089383 -1.545704 2.202028 0.003268 0.002280 -351545.000000 1 0 0
-1.364105 -13.989086 -3.919859 14.591799 1.473592 1.842771 0.003487 -0.007788 -3552060.000000 1 0 0
-11.577305 -7.971786 -7.617959 15.988016 0.603014 2.067442 0.018707 -0.007559 622209.000000 1 0 0
-0.138805 -17.133886 -0.312459 17.137296 1.562695 1.589030 0.009980 -0.013680 -484009.000000 1 0 0
-12.912005 -9.578586 4.602341 16.722761 0.638255 1.291984 0.025817 -0.000791 -648681.000000 1 0 0
4.003995 -16.820286 1.595741 17.363766 -1.337100 1.478766 0.017980 -0.007928 891327.000000 1 0 0
-4.072005 -18.117186 -8.054959 20.240948 1.349711 1.980081 0.023160 -0.009767 67379.300000 1 0 0
-13.342005 -11.341986 2.728241 17.722670 0.704550 1.416241 0.008352 -0.000271 -71100.100000 1 0 0
-8.525605 -12.140686 4.356841 15.461703 0.958572 1.285145 0.013863 -0.002972 1264830.000000 1 0 0
-8.266705 -9.456486 -5.754359 13.815794 0.852429 2.000395 0.011757 -0.004938 196222.000000 1 0 0
3.704995 -17.429886 -5.514459 18.653073 -1.361348 1.870914 0.015225 -0.007529 -133756.000000 1 0 0
-2.620605 -12.972186 11.358141 17.439970 1.371462 0.861539 0.015040 -0.014976 343283.000000 1 0 0
0.093695 -16.809386 -9.517359 19.316944 -1.565222 2.085980 0.011588 -0.001388 -10575.800000 1 0 0
-7.012305 -10.678386 -14.325159 19.194023 0.989738 2.413334 0.029016 -0.004998 -981677.000000 1 0 0
-4.568505 -18.603386 -1.307259 19.200680 1.329988 1.638933 0.019069 -0.023593 -1017650.000000 1 0 0
-2.469705 -17.268786 1.012741 17.473867 1.428744 1.512806 0.011714 -0.008947 339672.000000 1 0 0
4.110695 -14.874286 -7.575559 17.191023 -1.301164 2.027141 0.006162 0.000541 -625268.000000 1 0 0
-1.061705 -15.851686 -6.152459 17.036898 1.503919 1.940271 0.005671 -0.009778 -180930.000000 1 0 0
-9.518205 -15.351486 8.326741 19.889670 1.015787 1.138842 0.043069 -0.011262 -515254.000000 1 0 0
-7.273605 -12.094686 -1.711159 14.216709 1.029356 1.691451 0.002323 -0.003826 638934.000000 1 0 0
-7.409405 -15.025986 -9.301759 19.162522 1.112679 2.077633 0.027321 -0.006518 -328137.000000 1 0 0
-4.997305 -13.140186 -0.735659 14.077597 1.207381 1.623078 0.006358 -0.003246 3180370.000000 1 0 0
-6.467605 -13.756186 -7.246259 16.839561 1.131305 2.015634 0.008213 -0.005179 364744.000000 1 0 0
5.707895 -15.369486 0.344741 16.398780 -1.215205 1.549772 0.012327 -0.002909 -56257.600000 1 0 0
-14.368705 -12.875486 1.040841 19.321521 0.730644 1.516901 0.004494 -0.003282 978891.000000 1 0 0
0.934995 -15.191786 11.071341 18.821242 -1.509328 0.941920 0.022183 -0.018638 208297.000000 1 0 0
-9.314005 -10.850786 2.076941 14.450049 0.861462 1.426564 0.007367 0.004375 121721.000000 1 0 0
-9.550705 -8.843086 -3.501159 13.478659 0.746947 1.833566 0.005587 0.000260 237799.000000 1 0 0
-12.054705 -7.195486 -12.315359 18.675090 0.538139 2.290888 0.051402 -0.013381 -796929.000000 1 0 0
-13.211905 -8.475186 -0.677559 15.711216 0.570363 1.613935 0.000157 0.001279 -32422.000000 1 0 0
-11.202905 -9.651786 0.635341 14.800869 0.711157 1.527857 0.000480 0.006389 640486.000000 1 0 0
-15.841505 -12.249886 3.033341 20.253744 0.658233 1.420464 0.046657 -0.000553 583159.000000 1 0 0
-10.439805 -12.387086 -2.184359 16.346279 0.870499 1.704828 0.018321 -0.005651 651887.000000 1 0 0
-3.394205 -8.840886 -12.022059 15.303979 1.204227 2.474383 0.005488 0.003392 -865526.000000 1 0 0
-0.127605 -15.498486 3.903241 15.982948 1.562563 1.324088 0.021284 -0.008768 -1081410.000000 1 0 0
-15.761505 -7.760886 1.257141 17.613540 0.457545 1.499362 -0.001116 0.001350 867466.000000 1 0 0
-6.020005 -13.450886 -13.321959 19.865582 1.149978 2.305820 0.023243 -0.003226 1002520.000000 1 0 0
-15.269205 -10.384786 1.198941 18.504860 0.597254 1.505960 0.001548 0.000466 1137400.000000 1 0 0
-9.823405 -8.472686 -12.506659 18.019495 0.711706 2.337913 0.029328 -0.008484 353369.000000 1 0 0
-13.254705 -11.791486 -6.249859 18.809228 0.727044 1.909512 0.023254 -0.003497 -80785.200000 1 0 0
-12.121705 -11.336386 -3.873759 17.042752 0.751933 1.800097 0.011032 -0.002724 -3109500.000000 1 0 0
-11.625705 -10.949286 -8.995159 18.329123 0.755444 2.083756 0.027301 -0.015064 3508.490000 1 0 0
-13.232405 -8.595686 -5.829759 16.821666 0.576089 1.924700 0.011884 -0.003671 -1117530.000000 1 0 0
-13.506505 -8.113186 -3.267759 16.091231 0.540925 1.775296 0.004938 -0.002833 -1224.120000 1 0 0
-4.394705 -16.870486 -3.184159 17.721896 1.315963 1.751451 0.005436 -0.016933 -136680.000000 1 0 0
-15.345205 -8.992586 -1.731659 17.870102 0.530076 1.667851 0.005069 -0.001589 -1570590.000000 1 0 0
-9.356605 -15.753786 3.569941 18.667413 1.034854 1.378372 0.026600 -0.005778 -336196.000000 1 0 0
4.757295 -17.217586 8.216741 19.661942 -1.301218 1.139663 0.036288 -0.023218 95671.400000 1 0 0
-8.321005 -15.425786 5.920541 18.499913 1.076111 1.245034 0.022022 -0.000247 417396.000000 1 0 0
1.055095 -16.025286 8.643141 18.238062 -1.505052 1.077074 0.023701 -0.017495 110198.000000 1 0 0
-10.831005 -7.854586 -10.165959 16.803330 0.627436 2.220558 0.029152 -0.010074 1096710.000000 1 0 0
-4.827305 -15.998886 5.876041 17.714262 1.277755 1.232678 0.019271 -0.005065 -1533190.000000 1 0 0
-1.259305 -13.165886 -12.074459 17.908628 1.475437 2.310712 0.004857 0.002769 -1871730.000000 1 0 0
-6.525305 -14.328486 -2.640759 15.964295 1.143454 1.736977 0.007388 -0.005542 604886.000000 1 0 0
-17.571205 -7.153786 -7.118159 20.263072 0.386639 1.929742 0.037695 -0.010996 146020.000000 1 0 0
-17.348705 -4.146186 -10.323659 20.609375 0.234591 2.095458 0.059993 -0.012074 774863.000000 1 0 0
-15.338505 -5.322086 -9.099459 18.611676 0.333978 2.081638 0.037481 -0.014595 398876.000000 1 0 0
-16.062105 -5.448886 -5.752859 17.910247 0.327056 1.897798 0.016269 -0.004420 -602949.000000 1 0 0
-15.407105 -4.201286 -12.456759 20.253408 0.266213 2.233239 0.082700 -0.016377 -947080.000000 1 0 0
-18.625205 -5.342086 -5.537859 20.152023 0.279322 1.849182 0.029413 -0.007463 114398.000000 1 0 0
-17.433705 -4.614686 -7.751159 19.629311 0.258765 1.976730 0.036791 -0.008922 503776.000000 1 0 0
12.255895 -7.856986 8.720041 16.969923 -0.570078 1.031127 0.012474 -0.008296 430228.000000 1 0 0
16.026395 -3.488286 1.791641 16.499195 -0.214316 1.461992 0.030861 -0.012655 -1042400.000000 1 0 0
11.974795 -2.296486 12.593541 17.529029 -0.189476 0.769240 0.007872 -0.003509 397906.000000 1 0 0
9.722895 -9.983786 5.203141 14.875595 -0.798636 1.213463 0.002274 -0.008491 205612.000000 1 0 0
16.712295 -1.821186 7.091341 18.245674 -0.108544 1.171621 0.038116 -0.015839 119747.000000 1 0 0
5.159795 -12.820486 9.107641 16.551056 -1.188167 0.988102 0.010810 -0.000485 -579360.000000 1 0 0
15.127495 -9.085786 -2.057459 17.765859 -0.540871 1.686866 0.046749 -0.012263 619234.000000 1 0 0
11.115495 -8.487186 6.434741 15.394559 -0.652114 1.139567 0.013136 -0.010662 -1679190.000000 1 0 0
19.960395 -3.192086 3.595841 20.531362 -0.158578 1.394749 0.069836 -0.023974 1040610.000000 1 0 0
13.626295 -8.619986 6.874641 17.528284 -0.564045 1.167771 0.018548 -0.010258 -1096440.000000 1 0 0
8.316795 -10.985986 8.898041 16.402320 -0.922807 0.997402 0.007968 -0.001402 -2050360.000000 1 0 0
16.842995 0.035114 -0.573359 16.852787 0.002085 1.604824 0.026490 -0.006305 -995071.000000 1 0 0
12.357395 -12.323186 2.260641 17.597631 -0.784012 1.441978 0.022005 -0.011055 -1423720.000000 1 0 0
10.392395 -11.579686 3.572941 15.964238 -0.839382 1.345075 0.009741 -0.008417 -555553.000000 1 0 0
16.334995 2.957614 2.341841 16.764956 0.179120 1.430651 0.030893 -0.001947 308356.000000 1 0 0
18.173895 -3.241586 0.562241 18.469284 -0.176509 1.540350 0.025894 -0.015832 -805651.000000 1 0 0
13.492895 -11.593186 -0.248959 17.791069 -0.709815 1.584790 0.051484 -0.011602 -310335.000000 1 0 0
17.008095 -7.653786 -0.753659 18.666112 -0.422861 1.611183 0.050915 -0.017195 446882.000000 1 0 0
10.204395 -5.794586 9.737341 15.248695 -0.516446 0.878159 0.007412 -0.006949 -232525.000000 1 0 0
11.439395 -13.391586 6.058841 18.625356 -0.863856 1.239467 0.020205 -0.005628 -968738.000000 1 0 0
13.035295 -1.755386 10.420441 16.780521 -0.133859 0.900798 0.013690 -0.002327 203692.000000 1 0 0
15.574495 -2.045186 -1.284859 15.760664 -0.130569 1.652410 0.013374 -0.005944 -437990.000000 1 0 0
10.554695 -12.364486 8.853341 18.511179 -0.864199 1.072113 0.017353 -0.012530 759251.000000 1 0 0
14.565995 1.231514 3.359641 14.999067 0.084347 1.344890 0.017528 -0.003602 838389.000000 1 0 0
14.925195 -5.932786 5.314841 16.917651 -0.378351 1.251225 0.033059 -0.014606 -726401.000000 1 0 0
14.406295 -3.557386 -2.948559 15.129121 -0.242090 1.766945 0.012132 -0.001694 1115030.000000 1 0 0
14.079195 0.622614 9.675441 17.094606 0.044194 0.969158 0.028198 0.000232 413271.000000 1 0 0
15.417395 -3.597886 4.306941 16.407029 -0.229262 1.305178 0.033053 -0.013534 -1502340.000000 1 0 0
18.401395 4.729214 -4.399059 19.502013 0.251559 1.798324 0.023687 -0.002905 388266.000000 1 0 0
18.246795 -5.770486 -5.088059 19.802332 -0.306294 1.830653 0.059994 -0.012018 576205.000000 1 0 0
17.483895 0.203514 5.839541 18.434431 0.011640 1.248470 0.064535 -0.006265 686340.000000 1 0 0
17.062195 -6.648886 4.043441 18.753015 -0.371583 1.353474 0.051811 -0.021082 196979.000000 1 0 0
9.679395 -6.805686 14.285841 18.549752 -0.612811 0.691741 0.020665 -0.004332 -863563.000000 1 0 0
8.562895 -12.263186 5.050541 15.786604 -0.961239 1.245145 0.003175 -0.006762 -1340680.000000 1 0 0
16.943295 -10.216386 -0.476959 19.790838 -0.542604 1.594899 0.067356 -0.014319 462490.000000 1 0 0
15.016095 -8.798386 0.481141 17.410519 -0.530010 1.543158 0.053786 -0.016633 -2175.680000 1 0 0
9.942895 -12.936186 1.504141 16.385008 -0.915490 1.478867 0.016352 -0.010511 -349355.000000 1 0 0
16.710995 -8.307886 8.930141 20.688783 -0.461366 1.124484 0.039426 -0.008431 646348.000000 1 0 0
19.167595 -0.303286 -1.745959 19.249339 -0.015822 1.661623 0.054199 -0.007771 -71278.800000 1 0 0
13.383995 -1.185086 7.829341 15.551023 -0.088315 1.043196 0.014376 -0.006549 -303568.000000 1 0 0
12.882495 -9.867486 -3.097459 16.520296 -0.653638 1.759407 0.032512 -0.007309 -1650280.000000 1 0 0
8.815595 -15.276586 1.474241 17.699214 -1.047411 1.487406 0.026110 -0.002850 -633700.000000 1 0 0
11.531795 -8.260086 11.140241 18.036526 -0.621574 0.905047 0.020282 -0.007048 778065.000000 1 0 0
14.003095 -3.935686 -0.399759 14.551154 -0.273990 1.598272 0.013241 -0.007540 -164396.000000 1 0 0
7.147895 -13.339286 10.508441 18.424339 -1.078879 0.963857 0.015604 -0.000682 -367354.000000 1 0 0
15.473595 -6.717186 1.926841 16.978381 -0.409558 1.457063 0.038687 -0.014294 -449160.000000 1 0 0
16.122395 -6.209586 -2.640059 17.477428 -0.367642 1.722432 0.053066 -0.010233 -134448.000000 1 0 0
11.159095 -8.603686 3.776341 14.587993 -0.656808 1.308948 0.013858 -0.012253 -1817.660000 1 0 0
10.601495 -14.517186 -0.432559 17.981309 -0.940041 1.594855 0.041038 -0.012388 829924.000000 1 0 0
13.473595 -12.833086 4.584241 19.163536 -0.761055 1.329237 0.020361 -0.006374 415228.000000 1 0 0
12.841295 -11.190286 6.548841 18.248525 -0.716804 1.203740 0.016446 -0.007182 -377634.000000 1 0 0
10.849495 -10.483286 1.297741 15.142488 -0.768233 1.484989 0.012263 -0.007261 472901.000000 1 0 0
13.993695 -7.446186 11.888041 19.814003 -0.489004 0.927318 0.020008 -0.011200 -26173.300000 1 0 0
15.367195 -1.773386 -4.784159 16.192089 -0.114893 1.870736 0.012450 0.002720 -326666.000000 1 0 0
12.833195 -11.494386 -7.176859 18.663308 -0.730421 1.965510 0.047948 -0.011369 1088240.000000 1 0 0
17.667495 -5.395886 2.010141 18.582159 -0.296416 1.462408 0.049212 -0.017104 32371.300000 1 0 0
10.669495 -9.785586 9.212441 17.159979 -0.742213 1.004090 0.009826 -0.005939 -286003.000000 1 0 0
16.476395 1.742814 9.852741 19.276553 0.105385 1.034302 0.061642 -0.008823 809641.000000 1 0 0
18.120495 3.740214 0.535641 18.510225 0.203549 1.541855 0.034264 -0.001390 569904.000000 1 0 0
13.355995 -3.995886 5.772041 15.088610 -0.290707 1.178249 0.016973 -0.011563 -1476560.000000 1 0 0
12.213795 -6.208586 6.618741 15.216145 -0.470286 1.120779 0.011179 -0.010703 -455181.000000 1 0 0
16.502195 -10.291286 3.526741 19.765396 -0.557614 1.391406 0.027220 -0.011667 149963.000000 1 0 0
16.421295 -8.175786 -5.776659 19.232061 -0.461948 1.875873 0.066091 -0.011134 -257941.000000 1 0 0
14.061095 -0.371986 5.419741 15.074029 -0.026449 1.203020 0.016555 -0.003059 774951.000000 1 0 0
18.125195 -4.206986 5.163041 19.310060 -0.228069 1.300128 0.049800 -0.015339 -152158.000000 1 0 0
13.767495 -13.588686 7.039641 20.585258 -0.778862 1.221779 0.039506 -0.008422 -176520.000000 1 0 0
15.006195 -13.588486 -0.804159 20.260293 -0.735859 1.610498 0.055220 -0.006712 764576.000000 1 0 0
17.791495 -6.087586 8.182941 20.507475 -0.329676 1.160346 0.055985 -0.008040 -532623.000000 1 0 0
14.373695 3.275214 9.255041 17.406491 0.224037 1.010189 0.031500 -0.005879 528044.000000 1 0 0
18.817195 3.786214 2.980741 19.424393 0.198559 1.416734 0.067807 -0.002346 300796.000000 1 0 0
14.796195 -10.765086 8.077241 20.001407 -0.628983 1.155093 0.019348 -0.010314 -562038.000000 1 0 0
14.943895 -4.688786 10.337241 18.766013 -0.304032 0.987415 0.032937 -0.014486 101295.000000 1 0 0
17.880995 -7.957386 1.996541 19.673234 -0.418704 1.469136 0.074474 -0.020447 19486.200000 1 0 0
18.581995 -6.039586 -1.848959 19.626150 -0.314253 1.665145 0.048833 -0.010349 185000.000000 1 0 0
14.283595 -12.890186 -5.568559 20.029648 -0.734165 1.852524 0.063629 -0.018708 -1536260.000000 1 0 0
15.398495 -1.530086 9.312541 18.060405 -0.099041 1.029050 0.048525 -0.012222 -515343.000000 1 0 0
13.156495 -9.916586 10.173941 19.363396 -0.645891 1.017586 0.012262 -0.014958 -991426.000000 1 0 0
16.650895 2.207514 4.724641 17.448428 0.131808 1.296596 0.046074 -0.002584 -57586.000000 1 0 0
14.960795 2.404514 0.019641 15.152803 0.159358 1.569500 0.014198 -0.003850 -1162330.000000 1 0 0
15.076795 -10.030086 -6.928959 19.388729 -0.587033 1.936247 0.061588 -0.015186 1019770.000000 1 0 0
16.113095 0.010414 -3.151659 16.418431 0.000646 1.763954 0.010591 -0.000300 134006.000000 1 0 0
12.232395 2.492714 13.525241 18.405903 0.201027 0.745378 0.034514 0.000189 -405377.000000 1 0 0
17.670395 -3.020186 9.329041 20.208795 -0.169282 1.090961 0.060471 -0.021917 509900.000000 1 0 0
8.101995 -18.162186 4.513341 20.393076 -1.151198 1.347631 0.051497 -0.016137 40566.700000 1 0 0
6.830195 -11.094986 6.594441 14.602634 -1.018977 1.102247 0.003022 -0.005090 397676.000000 1 0 0
18.005895 2.108914 -1.580159 18.197710 0.116592 1.657739 0.029201 0.000342 505847.000000 1 0 0
17.516695 -2.270086 3.542041 18.014826 -0.128877 1.372889 0.034381 -0.010209 -766591.000000 1 0 0
12.596795 -13.527486 -1.935559 18.585438 -0.821009 1.675129 0.047977 -0.011413 2311530.000000 1 0 0
15.071895 -8.259686 4.437241 17.750311 -0.501321 1.318136 0.033153 -0.012018 -92086.600000 1 0 0
11.619495 -3.098886 15.068941 19.279231 -0.260631 0.673545 0.016985 -0.001240 -69608.600000 1 0 0
12.131095 -13.857086 -6.423059 19.504819 -0.851715 1.906365 0.040494 -0.014854 -314610.000000 1 0 0
10.615495 -11.992086 -1.196359 16.060203 -0.846214 1.645358 0.028567 -0.013530 -342222.000000 1 0 0
13.197995 -8.030486 2.070641 15.587281 -0.546619 1.437561 0.026947 -0.008138 -25740.700000 1 0 0
8.722595 -7.901586 9.880541 15.366971 -0.736052 0.872423 0.012051 -0.001679 -1317080.000000 1 0 0
15.666995 -3.794186 7.997641 17.994800 -0.237602 1.110245 0.043896 -0.016308 -1095560.000000 1 0 0
10.437595 -16.990486 5.187041 20.604014 -1.019914 1.316309 0.044946 -0.022575 80441.000000 1 0 0
15.176495 -6.331486 8.404941 18.467722 -0.395237 1.098295 0.032208 -0.005872 -563331.000000 1 0 0
16.679995 -4.960086 -0.380159 17.406010 -0.289040 1.592639 0.033508 -0.010771 -675625.000000 1 0 0
13.881495 -10.428786 3.489841 17.709728 -0.644315 1.372440 0.030807 -0.013831 182760.000000 1 0 0
15.093595 -9.988086 -4.376959 18.620854 -0.584586 1.808073 0.065143 -0.019465 386133.000000 1 0 0
13.735895 -6.519586 0.006441 15.204599 -0.443153 1.570373 0.029464 -0.010285 729279.000000 1 0 0
17.846895 -0.830386 -4.816459 18.504039 -0.046495 1.834121 0.034987 -0.003774 -791222.000000 1 0 0
14.436395 0.239714 -1.522559 14.518441 0.016603 1.675860 0.008700 -0.000612 -2320930.000000 1 0 0
4.912295 -12.973286 11.731641 18.167779 -1.208832 0.868806 0.007754 0.001118 -550520.000000 1 0 0
12.108895 -7.321686 13.569041 19.604879 -0.543834 0.806366 0.024365 -0.010516 -631060.000000 1 0 0
12.063095 -5.723786 11.489441 17.614972 -0.443030 0.860242 0.010818 -0.009178 433760.000000 1 0 0
13.258295 -4.554486 8.301341 16.292268 -0.330890 1.036162 0.016409 -0.010841 -1334870.000000 1 0 0
15.217895 -1.283386 3.170641 15.597576 -0.084135 1.366092 0.029584 -0.003601 -242085.000000 1 0 0
15.197495 -10.416586 5.736241 19.296983 -0.600870 1.268974 0.030112 -0.012451 212792.000000 1 0 0
13.809195 -8.098586 -5.691759 16.990499 -0.530407 1.912398 0.044931 -0.010995 -565503.000000 1 0 0
9.546295 -2.244986 13.702341 16.850100 -0.230971 0.621183 0.002596 -0.002258 -33757.800000 1 0 0
10.302795 -9.230586 13.710241 19.476191 -0.730562 0.789854 0.046443 -0.002242 -181811.000000 1 0 0
20.244095 6.129614 -3.299059 21.407460 0.294010 1.725521 0.082073 -0.014018 448746.000000 1 0 0
11.127895 -3.519286 10.478541 15.684873 -0.306305 0.839189 0.004833 -0.003461 1012660.000000 1 0 0
10.191095 -14.066686 -2.905759 17.611743 -0.943826 1.736544 0.031223 -0.010065 373273.000000 1 0 0
14.882495 -12.683486 2.517441 19.715399 -0.705794 1.442758 0.034063 -0.008469 -315413.000000 1 0 0
11.427595 -0.639286 14.409341 18.401840 -0.055884 0.671261 0.028185 -0.000476 307069.000000 1 0 0
19.032195 -1.848286 5.725741 19.960579 -0.096810 1.279857 0.079713 -0.015781 1095490.000000 1 0 0
18.837395 -0.449686 7.915841 20.437960 -0.023867 1.173083 0.078945 -0.019511 218547.000000 1 0 0
19.020495 0.885114 0.532241 19.048515 0.046501 1.542851 0.051899 -0.009619 12811.600000 1 0 0
18.556395 0.790014 3.469041 18.894395 0.042548 1.386147 0.056012 -0.009172 573109.000000 1 0 0
16.662595 -3.970286 -4.229759 17.643585 -0.233914 1.812888 0.028231 -0.004749 -2894830.000000 1 0 0
11.285295 -8.200286 15.851541 21.115727 -0.628379 0.721678 0.048812 -0.009322 417830.000000 1 0 0
16.572395 -7.549486 6.465741 19.324720 -0.427456 1.229633 0.040784 -0.013760 428393.000000 1 0 0
19.155395 2.202114 5.599841 20.078264 0.114458 1.288147 0.084921 -0.009260 599515.000000 1 0 0
15.350395 1.638414 7.534341 17.178048 0.106332 1.116753 0.036399 -0.007820 335286.000000 1 0 0
8.686995 -15.557786 3.945841 18.250431 -1.061550 1.352870 0.019543 -0.017694 275159.000000 1 0 0
11.268395 -15.100586 1.992941 18.946668 -0.929717 1.465414 0.032544 -0.006006 -295559.000000 1 0 0
8.217595 -16.157386 6.317141 19.196256 -1.100295 1.235465 0.027967 -0.012025 314257.000000 1 0 0
14.561095 -11.705686 -2.551859 18.856313 -0.677115 1.706545 0.057074 -0.013556 977905.000000 1 0 0
13.583095 -4.880586 3.215041 14.787057 -0.344947 1.351623 0.018410 -0.007028 -2452500.000000 1 0 0
-1.151305 10.132614 -5.550559 11.610516 -1.457658 2.069244 0.002135 0.002418 -613433.000000 1 0 0
8.282095 -1.723086 -8.044159 11.673500 -0.205123 2.331037 -0.000343 0.002431 -4204930.000000 1 0 0
3.102695 -10.362386 7.730241 13.295201 -1.279873 0.950310 0.000544 -0.003734 415845.000000 1 0 0
-6.379805 1.419214 8.350241 10.603896 -0.218890 0.664104 -0.002790 0.000887 -532918.000000 1 0 0
7.380995 -6.119386 -7.145159 11.957393 -0.692219 2.211240 -0.002427 0.000804 -241869.000000 1 0 0
-11.367505 -4.396386 -4.134259 12.870139 0.369032 1.897823 0.001756 -0.000204 242245.000000 1 0 0
2.109795 -3.288886 2.764741 4.786627 -1.000425 0.955014 0.006397 -0.002867 1473950.000000 1 0 0
-3.537805 -4.233586 8.799541 10.386108 0.874691 0.560026 0.004006 0.000860 -2570630.000000 1 0 0
-4.818405 -1.110386 -2.373759 5.484954 0.226493 2.018367 0.008186 -0.003025 122678.000000 1 0 0
5.006995 -5.112786 -3.595559 8.008659 -0.795852 2.036396 0.002348 -0.003558 564936.000000 1 0 0
2.886295 14.389014 -8.882059 17.154166 1.372833 2.115049 0.012205 -0.003277 -526718.000000 1 0 0
5.412395 -5.427186 13.651241 15.655822 -0.786763 0.511606 0.004661 -0.003320 -862571.000000 1 0 0
-4.756905 -0.753986 10.014041 11.112051 0.157196 0.448295 0.005946 0.001531 -5561130.000000 1 0 0
-1.007605 12.044014 -2.581459 12.358701 -1.487330 1.781224 0.002116 0.002225 -61000.800000 1 0 0
3.053095 9.346714 -10.539059 14.413681 1.255074 2.390853 0.007362 -0.004742 -394856.000000 1 0 0
-10.712505 2.720514 1.220841 11.119776 -0.248699 1.460784 -0.008630 -0.000344 -545771.000000 1 0 0
5.696195 -8.977286 -0.723759 10.656553 -1.005386 1.638765 -0.001782 -0.004248 853958.000000 1 0 0
-6.854005 5.503714 9.397941 12.868161 -0.676563 0.751999 -0.001138 -0.003358 245140.000000 1 0 0
-5.634305 -1.810186 5.194641 7.874419 0.310863 0.850396 0.001463 -0.001547 439433.000000 1 0 0
6.639695 -3.673386 -7.366159 10.575424 -0.505332 2.341354 -0.001834 0.001495 636010.000000 1 0 0
6.376595 4.776814 11.082041 13.648830 0.642936 0.623327 0.000035 -0.000683 -128100.000000 1 0 0
3.766595 -9.859786 3.054241 10.987766 -1.205889 1.289119 -0.003700 -0.002833 857507.000000 1 0 0
-6.648105 6.621914 -5.778459 11.019875 -0.783424 2.122768 0.001224 -0.004111 -659768.000000 1 0 0
-11.031105 8.395514 5.193641 14.803508 -0.650552 1.212330 0.003210 -0.010552 253110.000000 1 0 0
-9.252605 -5.559086 5.167641 11.967400 0.541017 1.124298 0.000027 -0.000533 -748391.000000 1 0 0
3.298895 9.773714 -8.002359 13.055495 1.245276 2.230584 0.005619 -0.003511 466552.000000 1 0 0
-8.158205 -8.486386 6.076441 13.247573 0.805113 1.094283 0.002863 -0.001489 -1938540.000000 1 0 0
-7.865205 -5.646186 -7.547859 12.276442 0.622618 2.232960 0.011105 -0.006243 -473291.000000 1 0 0
9.268295 -1.657086 6.993541 11.728463 -0.176921 0.931927 0.002134 -0.006354 3740650.000000 1 0 0
-4.131705 -0.473286 -4.838559 6.380175 0.114053 2.431611 0.014452 -0.008349 -1097170.000000 1 0 0
9.118495 1.161914 -4.516659 10.241933 0.126741 2.027505 0.001006 0.001409 -2310640.000000 1 0 0
-1.920005 -10.644186 10.596941 15.142004 1.392335 0.795626 0.004185 -0.006730 508143.000000 1 0 0
-12.904505 0.247114 -2.807159 13.208613 -0.019147 1.784954 0.000761 -0.003855 -249891.000000 1 0 0
-9.823005 -5.194186 -6.082159 12.667425 0.486404 2.071613 0.008093 -0.003505 -985392.000000 1 0 0
-5.844305 8.386414 -0.267959 10.225442 -0.962169 1.597004 -0.001725 0.002353 429682.000000 1 0 0
6.217795 9.555614 0.285541 11.404046 0.993932 1.545755 0.008282 -0.000412 456022.000000 1 0 0
-0.513205 -12.043186 0.038141 12.054176 1.528208 1.567632 0.010177 -0.003467 -607693.000000 1 0 0
6.203595 4.716514 2.398341 8.153658 0.650053 1.272238 -0.001946 0.001756 273724.000000 1 0 0
3.562295 -7.530386 -8.243159 11.719484 -1.128935 2.350927 -0.004948 0.002235 627388.000000 1 0 0
-6.611505 -9.806786 4.606841 12.692834 0.977613 1.199366 0.008413 -0.000288 -1918400.000000 1 0 0
-0.100705 6.595214 -9.198459 11.318950 -1.555528 2.519499 0.007162 -0.005415 -1856120.000000 1 0 0
-17.377805 -2.844586 4.219741 18.107623 0.162252 1.335597 0.055127 -0.008175 353777.000000 1 0 0
-8.305605 0.824914 -9.184959 12.410763 -0.098996 2.403986 0.011413 -0.007005 1066060.000000 1 0 0
-9.908405 -5.889386 -11.764759 16.470304 0.536279 2.366421 0.020083 -0.010664 -1356270.000000 1 0 0
2.251695 9.431914 6.516741 11.683281 1.336451 0.979083 -0.002802 0.002607 -54237.700000 1 0 0
-11.276905 1.578014 -1.205259 11.450387 -0.139031 1.676251 -0.004027 -0.001244 -1060280.000000 1 0 0
-6.047105 -5.357386 -3.142159 8.668461 0.724994 1.941726 0.017674 -0.004588 722781.000000 1 0 0
-6.876005 -8.320786 1.387741 10.883049 0.880185 1.442934 0.010153 -0.001136 -501791.000000 1 0 0
-0.036105 10.751914 -7.906559 13.346109 -1.567438 2.204861 0.004856 -0.000733 466971.000000 1 0 0
-2.991005 9.254314 -4.228759 10.605227 -1.258192 1.980942 0.004257 -0.001418 -108351.000000 1 0 0
3.427195 -4.735586 9.340041 11.018521 -0.944334 0.559223 0.001234 -0.003684 -1239030.000000 1 0 0
-9.010805 1.506314 -0.309759 9.141091 -0.165636 1.604689 -0.009847 0.000399 -2033850.000000 1 0 0
2.480795 3.606314 -10.494859 11.371099 0.968235 2.746449 0.005551 -0.002960 604592.000000 1 0 0
-13.642005 0.492114 1.068841 13.692659 -0.036058 1.492657 0.006054 -0.002074 -743441.000000 1 0 0
9.444295 -12.681986 -5.111559 16.617927 -0.930695 1.883459 0.027975 -0.008598 -1650890.000000 1 0 0
-4.718205 9.388614 -8.304259 13.392843 -1.105114 2.239605 0.005933 -0.004366 -2189150.000000 1 0 0
-2.373705 7.255614 8.389941 11.343259 -1.254617 0.738259 0.004231 -0.002718 -916135.000000 1 0 0
-10.729405 -1.216086 -4.423459 11.669018 0.112860 1.959595 -0.001050 -0.000035 -4009950.000000 1 0 0
2.795395 -7.179686 9.616141 12.322025 -1.199506 0.675487 -0.001379 0.000318 -1575400.000000 1 0 0
-16.128705 -6.676186 3.455341 17.794549 0.392459 1.375375 0.027975 -0.004918 -550068.000000 1 0 0
-10.725405 -0.036886 6.165841 12.371470 0.003439 1.049053 -0.006668 -0.000474 552940.000000 1 0 0
-8.457605 10.028514 9.520041 16.209052 -0.870172 0.943042 0.012353 -0.011609 1499440.000000 1 0 0
0.311495 -6.103686 -3.704359 7.146627 -1.519807 2.115701 0.005559 -0.000685 73542.300000 1 0 0
5.006395 1.422014 -2.906959 5.961252 0.276751 2.080184 -0.004089 -0.000695 153541.000000 1 0 0
0.377395 5.323114 3.874441 6.594640 1.500017 0.942813 0.000219 0.003339 -2630850.000000 1 0 0
6.007795 -11.300686 -1.573559 12.894773 -1.082165 1.693132 -0.003033 -0.005119 -2479190.000000 1 0 0
6.245195 -13.446386 5.297941 15.744076 -1.135990 1.227595 0.001670 -0.008440 -486726.000000 1 0 0
8.161095 -8.195786 -5.891859 12.980307 -0.787519 2.041942 0.000680 -0.000577 662661.000000 1 0 0
-13.046305 -1.333086 -4.797659 13.964266 0.101828 1.921509 0.002402 0.002119 -3607810.000000 1 0 0
-6.814005 -1.463786 -6.991059 9.871587 0.211604 2.357742 0.012610 -0.005963 -979849.000000 1 0 0
-5.749605 12.654914 -4.779659 14.698638 -1.144341 1.901995 0.005499 0.002067 475005.000000 1 0 0
-4.295705 6.866214 -6.764959 10.552850 -1.011745 2.266669 0.004366 -0.003594 -1603750.000000 1 0 0
-9.430705 -3.721686 -8.098559 12.975970 0.375873 2.244801 0.011242 -0.003072 696201.000000 1 0 0
-2.244005 -6.368986 9.218241 11.426964 1.232044 0.632234 0.007123 -0.001841 -290465.000000 1 0 0
7.518795 -6.023286 10.030941 13.907984 -0.675410 0.765211 0.006703 -0.001814 234376.000000 1 0 0
9.684195 -5.066086 12.244641 16.412803 -0.481979 0.728698 0.011096 -0.002636 -487110.000000 1 0 0
-6.395105 2.779914 -9.114459 11.476003 -0.410053 2.488517 0.007379 -0.007305 -264684.000000 1 0 0
7.452895 5.480714 8.875241 12.820054 0.634079 0.806134 -0.005112 0.000865 -574308.000000 1 0 0
12.757395 3.424114 11.211841 17.325734 0.262222 0.866995 0.027182 -0.001416 -1009360.000000 1 0 0
-7.516305 -7.369386 -3.830559 11.201601 0.775529 1.919804 0.014063 -0.006460 -838446.000000 1 0 0
2.299695 1.439214 -5.848959 6.447500 0.559195 2.707298 0.001200 -0.001964 -29904.700000 1 0 0
12.810895 6.935914 -7.018159 16.170358 0.496222 2.019740 0.006052 -0.000022 514041.000000 1 0 0
0.871495 -7.827286 1.047641 7.945027 -1.459912 1.438550 0.003883 -0.003355 917830.000000 1 0 0
-10.191905 -6.148986 -8.543559 14.651872 0.542857 2.193340 0.015689 -0.004145 401145.000000 1 0 0
-6.787905 0.368514 3.269341 7.543213 -0.054237 1.122518 0.000257 -0.001564 715693.000000 1 0 0
10.818595 -7.919586 1.220941 13.463006 -0.631904 1.479983 0.006699 -0.006087 38496.800000 1 0 0
6.265195 1.126514 10.583741 12.350598 0.177904 0.541490 -0.000235 0.000584 -662583.000000 1 0 0
-12.881705 5.341814 1.891341 14.073041 -0.393099 1.435994 0.007928 -0.005428 -362458.000000 1 0 0
2.113195 7.420914 3.684341 8.550435 1.293377 1.125312 -0.004746 0.003798 -416503.000000 1 0 0
10.107595 -9.343786 -0.935159 13.796533 -0.746151 1.638630 0.008964 -0.005314 957100.000000 1 0 0
6.888695 -11.767986 -9.042659 16.361824 -1.041199 2.156359 0.002676 -0.003925 50124.700000 1 0 0
10.394995 3.624114 12.053841 16.324375 0.335463 0.740109 0.003717 0.004491 -1146450.000000 1 0 0
-11.167205 -3.093086 -1.923559 11.746222 0.270205 1.735297 -0.001414 0.002600 537965.000000 1 0 0
12.318295 0.987514 6.821341 14.115462 0.079995 1.066430 0.012238 -0.002419 72353.400000 1 0 0
-9.628705 9.256214 2.985141 13.685779 -0.765676 1.350909 0.001653 -0.005199 276294.000000 1 0 0
-6.693605 7.655314 -8.750259 13.415484 -0.852321 2.281346 0.006488 -0.007570 -1358510.000000 1 0 0
8.552195 5.459414 12.058641 15.759317 0.568152 0.699483 0.003070 0.002966 -2375250.000000 1 0 0
1.320195 4.853514 -2.650159 5.685319 1.305214 2.055720 0.004062 -0.002467 387087.000000 1 0 0
1.248595 0.524614 9.602041 9.697083 0.397767 0.140122 0.003960 0.000083 739321.000000 1 0 0
2.504095 12.603414 -4.037159 13.469046 1.374667 1.875212 0.008864 -0.003651 293280.000000 1 0 0
2.127695 0.655014 12.976941 13.166516 0.298645 0.169899 0.002294 -0.005419 -356149.000000 1 0 0
-12.198305 -1.797186 0.882441 12.361522 0.146278 1.499349 -0.002843 -0.001835 -233213.000000 1 0 0
3.238095 8.667514 -1.288359 9.341891 1.213263 1.709149 0.006870 -0.001172 449985.000000 1 0 0
3.728995 -2.849886 -5.795859 7.457830 -0.652559 2.460922 -0.002667 -0.000178 -988262.000000 1 0 0
-7.732205 -7.206486 9.343641 14.107589 0.750221 0.846894 0.003984 -0.001729 -242099.000000 1 0 0
-7.162105 10.777314 -3.593659 13.429841 -0.984258 1.841685 0.004270 0.002041 -518189.000000 1 0 0
0.348195 0.492614 2.553141 2.623440 0.955501 0.232022 0.003079 -0.000285 -2522250.000000 1 0 0
-7.195305 4.501714 -1.930059 8.704193 -0.559064 1.794394 0.002725 -0.001479 -991806.000000 1 0 0
-6.840005 -3.878986 -5.897559 9.829211 0.515879 2.214301 0.013022 -0.002937 335331.000000 1 0 0
2.971995 -6.119186 13.364741 14.996450 -1.118666 0.470826 -0.003162 -0.001110 -1361320.000000 1 0 0
-5.501805 -0.543186 -11.544859 12.800339 0.098410 2.694987 0.013382 -0.009204 -1068870.000000 1 0 0
11.868695 2.438614 -0.647159 12.133902 0.202646 1.624156 0.001632 -0.001286 -1495270.000000 1 0 0
6.145495 -10.918186 10.683041 16.465153 -1.058128 0.864754 0.010604 -0.000674 -80578.200000 1 0 0
-8.185305 6.382614 -10.466259 14.740406 -0.662280 2.360350 0.006394 -0.010398 795758.000000 1 0 0
3.034295 7.918614 11.085641 13.957179 1.204869 0.653006 -0.001191 0.001379 998805.000000 1 0 0
-6.233405 -10.192986 -0.353559 11.953129 1.021936 1.600379 0.013439 -0.000285 -910091.000000 1 0 0
11.208195 4.187114 6.039341 13.402582 0.357522 1.103347 0.003748 0.001599 -1331000.000000 1 0 0
-8.139205 10.785614 1.235641 13.568454 -0.924335 1.479603 -0.003024 0.001189 221970.000000 1 0 0
4.283195 -2.726886 -3.474959 6.152804 -0.566931 2.170959 -0.001505 -0.002903 -5345420.000000 1 0 0
6.388395 6.517614 6.348341 11.117208 0.795410 0.963027 -0.002678 0.003336 -5292570.000000 1 0 0
-0.481305 10.257914 -10.289959 14.537528 -1.523910 2.357204 0.004974 -0.003172 -544518.000000 1 0 0
14.016795 6.592714 -2.449859 15.682354 0.439643 1.727656 0.014890 0.000390 671399.000000 1 0 0
1.367395 9.436014 -6.150059 11.345984 1.426886 2.143668 0.007894 -0.003932 433589.000000 1 0 0
0.611095 7.436314 7.276641 10.422174 1.488803 0.797932 -0.001760 0.001784 349563.000000 1 0 0
12.208995 6.309614 1.966141 13.882957 0.476997 1.428696 0.008369 -0.000565 -1093050.000000 1 0 0
-6.925405 6.632414 -3.155259 10.094841 -0.763791 1.888685 0.001491 -0.002592 -409880.000000 1 0 0
1.082995 9.855614 11.113541 14.893516 1.461349 0.728461 -0.000961 0.001781 -1498540.000000 1 0 0
-3.437005 13.666014 -11.063359 17.915660 -1.324406 2.236388 0.008504 -0.003496 59510.200000 1 0 0
-10.104205 -5.518486 -2.292159 11.738937 0.499888 1.767320 0.000587 0.000550 614938.000000 1 0 0
-3.965905 3.879814 -12.485759 13.662925 -0.774426 2.723444 0.006535 -0.009246 180678.000000 1 0 0
-3.197605 8.368214 2.511241 9.303657 -1.205804 1.297487 0.001916 0.002401 -2707950.000000 1 0 0
7.115895 8.972314 7.158441 13.504876 0.900280 1.012121 0.003013 0.004117 -730178.000000 1 0 0
-1.259305 -2.227586 -8.178259 8.569241 1.056265 2.838352 0.007951 -0.005593 -1183530.000000 1 0 0
0.831995 -1.288786 4.752041 4.993504 -0.997545 0.312250 0.005329 -0.001111 582699.000000 1 0 0
2.863395 -8.916886 -6.077459 11.164469 -1.260077 2.146419 -0.003428 0.001111 350079.000000 1 0 0
5.289095 3.956214 8.870741 11.059666 0.642216 0.640026 -0.002193 0.002487 768926.000000 1 0 0
6.257795 -7.445086 -2.839659 10.131779 -0.871828 1.854874 0.000178 -0.003313 1090050.000000 1 0 0
1.859795 2.275814 -8.340759 8.843439 0.885655 2.802803 0.005028 -0.004194 222395.000000 1 0 0
-5.579105 10.951214 -0.762459 12.314092 -1.099617 1.632754 -0.000948 0.002391 817749.000000 1 0 0
-5.442005 3.347914 -3.331859 7.205917 -0.551520 2.051472 0.004497 -0.001686 678668.000000 1 0 0
2.022695 13.558114 -6.498359 15.170446 1.422702 2.013469 -0.000184 -0.001038 757947.000000 1 0 0
-5.322505 -2.512886 2.694541 6.473346 0.441100 1.141477 0.000903 -0.002382 877505.000000 1 0 0
10.338495 -3.387886 -1.803459 11.027906 -0.316669 1.735070 0.003970 -0.001808 356878.000000 1 0 0
2.371095 -3.359386 7.016841 8.132873 -0.956180 0.530063 0.001531 -0.001542 -2463950.000000 1 0 0
-2.913505 9.822514 -11.722259 15.568611 -1.282448 2.423317 0.009170 -0.003033 -3570600.000000 1 0 0
0.575295 -2.080786 9.352441 9.598375 -1.301055 0.226859 0.003689 0.000139 488263.000000 1 0 0
9.457295 2.553514 4.952741 10.976817 0.263716 1.102687 0.000715 0.000564 -134993.000000 1 0 0
13.451095 2.067614 -5.000859 14.498813 0.152520 1.922945 0.005059 0.000919 -1624310.000000 1 0 0
-6.449905 3.906614 7.645841 10.738799 -0.544590 0.778478 -0.004341 -0.003248 -227128.000000 1 0 0
10.543395 0.106314 1.892341 10.712396 0.010083 1.393215 0.002934 -0.001690 1616320.000000 1 0 0
15.284495 6.625014 -4.647059 17.294558 0.409003 1.842840 0.018312 -0.002652 311975.000000 1 0 0
8.105195 -4.825586 -9.218459 13.189406 -0.537008 2.344695 0.005048 0.002893 1760880.000000 1 0 0
4.351995 5.659414 -2.213959 7.474653 0.915256 1.871503 0.001578 -0.001076 -246636.000000 1 0 0
-1.542505 -10.474986 1.531541 10.698143 1.424591 1.427143 0.008973 -0.001825 -859083.000000 1 0 0
-2.924705 12.231714 -12.974759 18.069673 -1.336095 2.371779 0.012910 -0.005519 -505662.000000 1 0 0
8.388195 4.195614 -9.598259 13.419820 0.463792 2.367750 0.006486 0.000477 -1704560.000000 1 0 0
4.129995 7.646214 -8.929959 12.460562 1.075558 2.369795 0.005361 -0.003750 -2829510.000000 1 0 0
-1.811005 -5.123186 -2.438659 5.955991 1.231014 1.992643 0.013605 -0.004825 1147330.000000 1 0 0
-3.368605 -8.889186 7.194841 11.921865 1.208562 0.922913 0.010063 -0.001422 -623550.000000 1 0 0
0.956095 7.201814 -1.380759 7.395049 1.438811 1.758613 0.005004 -0.000495 1765900.000000 1 0 0
0.394095 -0.719986 -2.300959 2.442970 -1.069979 2.798948 0.007776 -0.003030 -2141610.000000 1 0 0
4.135295 -6.676086 7.534341 10.882880 -1.016220 0.806109 0.000740 -0.001609 -670135.000000 1 0 0
-13.821005 3.830014 6.017441 15.553096 -0.270332 1.173533 0.001197 -0.002716 -824858.000000 1 0 0
4.371495 6.317614 12.609341 14.765423 0.965491 0.547214 0.000299 0.001799 -1955370.000000 1 0 0
8.359795 10.109614 -7.112759 14.922527 0.879858 2.067631 0.018470 -0.005972 219315.000000 1 0 0
12.510995 5.275014 9.486041 16.563084 0.399013 0.960974 0.026091 -0.001668 386638.000000 1 0 0
7.528695 4.115814 0.316941 8.586130 0.500294 1.533875 0.000817 0.000773 -1648450.000000 1 0 0
-10.836605 -7.637686 -1.023859 13.297163 0.613943 1.647871 0.003218 0.001423 -1982830.000000 1 0 0
10.345295 6.782014 0.205341 12.371864 0.580277 1.554198 0.008248 -0.000672 -14325.300000 1 0 0
14.645995 3.709814 4.097241 15.654241 0.248081 1.305978 0.021749 -0.002283 584041.000000 1 0 0
2.133895 5.669814 8.190941 10.187827 1.210833 0.636816 -0.001345 0.001714 -873702.000000 1 0 0
4.344395 0.186614 11.880041 12.650849 0.042929 0.350880 0.000442 -0.000810 -1935230.000000 1 0 0
-1.523905 -1.523786 -0.539259 2.221488 0.785359 1.815992 0.013268 -0.007274 -812587.000000 1 0 0
3.158995 -5.259886 -9.447159 11.264744 -1.029949 2.565593 -0.007616 0.004766 172385.000000 1 0 0
-4.043305 -5.337786 -1.306959 6.822640 0.922520 1.763550 0.014206 -0.004979 -1081510.000000 1 0 0
-1.182705 -8.649786 8.655741 12.293878 1.434907 0.789685 0.010089 -0.003269 -318871.000000 1 0 0
3.921095 8.562614 -5.901359 11.113927 1.141366 2.130562 0.006065 -0.002116 569077.000000 1 0 0
-14.213605 -1.844186 -2.826359 14.608761 0.129027 1.765494 0.001136 0.000493 -820994.000000 1 0 0
8.829695 -10.590486 -6.664659 15.314685 -0.875819 2.021036 0.001925 -0.003965 219515.000000 1 0 0
14.798195 6.114514 1.554541 16.086965 0.391828 1.474012 0.015128 -0.002177 -934463.000000 1 0 0
-5.751305 0.324414 -8.533459 10.295760 -0.056347 2.547814 0.012912 -0.009033 -751474.000000 1 0 0
-7.895705 -4.566786 -13.006059 15.885693 0.524377 2.529988 0.016891 -0.008335 739086.000000 1 0 0
0.843795 -10.585786 11.906441 15.954128 -1.491254 0.728322 -0.005022 -0.000691 -120908.000000 1 0 0
0.121895 11.783214 3.308641 12.239531 1.560452 1.297067 0.002941 -0.000266 -1425290.000000 1 0 0
5.194295 -13.273486 -3.738359 14.735720 -1.197788 1.827293 0.004816 -0.004201 877483.000000 1 0 0
-7.401005 1.675714 -7.054159 10.360697 -0.222663 2.319729 0.006755 -0.002947 581908.000000 1 0 0
1.514195 2.776914 4.055541 5.143098 1.071584 0.662364 -0.000816 0.002549 -1236140.000000 1 0 0
17.249195 5.519514 2.206341 18.244662 0.309691 1.449569 0.038196 -0.003674 -380827.000000 1 0 0
2.526495 -8.296586 -3.525859 9.362061 -1.275196 1.956932 -0.002563 -0.000864 709122.000000 1 0 0
-0.441405 -9.357286 -0.658559 9.390811 1.523659 1.640982 0.010793 -0.002844 -1173170.000000 1 0 0
0.743795 11.799814 -5.587659 13.077109 1.507845 2.012285 0.006620 -0.001650 -36305.300000 1 0 0
6.011395 -5.072886 7.888041 11.139669 -0.700929 0.783987 -0.000868 -0.001165 -1394870.000000 1 0 0
-5.958605 -2.098486 -9.395859 11.322137 0.338613 2.549664 0.017309 -0.006415 -288215.000000 1 0 0
2.236895 -1.214186 11.218241 11.503342 -0.497298 0.223102 -0.003672 0.000344 54655.300000 1 0 0
18.014295 2.216514 -5.581559 18.988985 0.122427 1.869139 0.024047 0.001126 -384019.000000 1 0 0
-8.832105 4.895114 7.758941 12.734575 -0.506093 0.915642 -0.005788 -0.008083 -329002.000000 1 0 0
11.543495 -7.118586 -4.733959 14.364432 -0.552590 1.906635 0.015239 -0.004667 561844.000000 1 0 0
10.898695 0.460614 9.016441 14.152382 0.042238 0.880070 0.005206 0.000142 27774.900000 1 0 0
-8.456805 -7.374986 -1.454659 11.314769 0.717172 1.699716 0.008294 -0.003501 -1517350.000000 1 0 0
10.307995 -10.542886 -3.265559 15.102022 -0.796663 1.788751 0.022066 -0.007915 1121260.000000 1 0 0
7.675395 -14.122486 -3.831859 16.523905 -1.072967 1.804825 0.018755 -0.002772 -483796.000000 1 0 0
1.775495 -1.069386 -11.660059 11.842843 -0.542111 2.965672 0.004203 -0.004164 -210390.000000 1 0 0
-11.743005 -2.627286 -6.436159 13.646426 0.220107 2.061943 0.006786 -0.001160 506044.000000 1 0 0
2.742195 -12.331086 -6.413159 14.167001 -1.351976 2.040568 -0.001984 0.000950 17645.000000 1 0 0
-5.556205 1.394514 1.138841 5.840638 -0.245904 1.374553 0.001947 -0.003423 250857.000000 1 0 0
0.183495 6.672114 -3.986659 7.774589 1.543302 2.109217 0.008669 -0.002979 758855.000000 1 0 0
5.443395 -11.752386 3.645641 13.455104 -1.137041 1.296418 -0.004594 -0.007872 -1398670.000000 1 0 0
-4.368105 -9.307986 1.056741 10.336133 1.132021 1.468380 0.015039 -0.001882 -954551.000000 1 0 0
7.144195 -6.117186 -4.708159 10.517901 -0.708109 2.034913 0.002152 -0.002558 669382.000000 1 0 0
-6.948105 -6.069586 2.218741 9.488880 0.718014 1.334786 0.007389 -0.001503 -255284.000000 1 0 0
-5.885505 -0.666986 7.244441 9.357669 0.112845 0.685391 -0.001065 0.002466 -663846.000000 1 0 0
4.269195 -4.983186 3.216641 7.307869 -0.862414 1.115018 -0.000071 -0.003657 -370080.000000 1 0 0
-2.553305 10.454714 -8.878559 13.951675 -1.331260 2.260592 0.003056 -0.003911 -250398.000000 1 0 0
-2.331705 -4.916886 2.669741 6.061364 1.127981 1.114694 0.007758 0.000247 1420790.000000 1 0 0
15.142395 5.196614 6.276341 17.195621 0.330589 1.197167 0.035791 -0.010147 57933.800000 1 0 0
6.781495 0.281814 0.142841 6.788851 0.041532 1.549754 0.000428 -0.002386 4119240.000000 1 0 0
-9.702205 9.136814 0.369641 13.332322 -0.755395 1.543068 -0.002481 -0.002959 -1900770.000000 1 0 0
7.157395 10.479114 -2.616559 12.957103 0.971561 1.774135 0.002606 0.001681 -364512.000000 1 0 0
1.690295 -4.264386 -5.356859 7.052518 -1.193419 2.433443 0.001112 -0.000468 -442146.000000 1 0 0
1.010195 -8.135786 -7.735159 11.271388 -1.447262 2.327138 -0.003669 0.005071 190388.000000 1 0 0
-10.370905 0.276714 -10.520459 14.775395 -0.026675 2.363175 0.017591 -0.009162 -3705650.000000 1 0 0
5.880795 -2.392986 0.493941 6.368210 -0.386454 1.493155 0.001311 -0.003500 -572568.000000 1 0 0
-3.407105 5.265814 -1.114059 6.370110 -0.996516 1.746589 0.004698 -0.002317 894409.000000 1 0 0
-0.383005 4.507614 -5.221659 6.908763 -1.486031 2.427675 0.007127 -0.004427 -1079870.000000 1 0 0
4.042695 -9.707186 10.029741 14.531639 -1.176178 0.809031 -0.000358 -0.000978 -1746860.000000 1 0 0
7.261895 -13.403886 -0.688059 15.260167 -1.074290 1.615900 0.014625 -0.008383 848853.000000 1 0 0
12.994095 -0.058586 0.556541 13.006140 -0.004509 1.527993 0.004334 -0.004889 457062.000000 1 0 0
9.292495 2.397814 -0.588659 9.614910 0.252529 1.632058 0.001309 -0.000533 159536.000000 1 0 0
-0.685305 -5.723586 4.449541 7.281998 1.451630 0.913431 0.006104 -0.001234 552901.000000 1 0 0
11.419795 -3.754786 3.321941 12.471785 -0.317662 1.301185 0.008952 -0.007409 -2680670.000000 1 0 0
1.811595 -8.204786 11.666841 14.377607 -1.353486 0.624152 -0.008907 -0.000285 54053.500000 1 0 0
9.483195 -5.830486 -5.861259 12.580934 -0.551247 2.055430 0.004643 -0.001767 -405686.000000 1 0 0
3.185495 6.355614 -0.118859 7.110228 1.106182 1.587514 -0.001973 0.003455 -1345400.000000 1 0 0
6.440895 -1.349986 11.325941 13.099028 -0.206605 0.526363 -0.000331 -0.001459 414081.000000 1 0 0
-4.959605 -7.622586 -3.764759 9.842505 0.993967 1.963297 0.017182 -0.006533 -321971.000000 1 0 0
-3.391105 -8.465486 -5.702159 10.755401 1.189790 2.129594 0.014835 -0.000757 297784.000000 1 0 0
9.731895 5.343014 2.251041 11.328052 0.502091 1.370751 0.003639 -0.000596 -4956.470000 1 0 0
8.866295 -1.454686 0.332941 8.991003 -0.162620 1.533757 0.002250 -0.002454 1343250.000000 1 0 0
-3.878005 9.723214 9.229041 13.955466 -1.191290 0.848218 0.004084 -0.004122 371503.000000 1 0 0
-14.309705 -3.505986 -6.078959 15.937796 0.240274 1.962126 0.009697 -0.000104 496105.000000 1 0 0
10.571695 6.206514 -5.969859 13.635276 0.530871 2.023974 0.000572 -0.001140 -603045.000000 1 0 0
-1.827505 4.552414 2.751341 5.624423 -1.189052 1.059650 0.002897 -0.000500 298182.000000 1 0 0
7.020295 -3.638886 2.688141 8.351774 -0.478210 1.243098 0.002849 -0.006381 -2153580.000000 1 0 0
8.322795 -11.169286 -1.657859 14.027485 -0.930406 1.689260 0.012760 -0.008568 -2902630.000000 1 0 0
4.522395 0.463314 1.834841 4.902383 0.102093 1.187181 0.000496 0.000338 187569.000000 1 0 0
-10.793705 2.291314 3.815241 11.675199 -0.209177 1.237900 -0.008428 -0.003777 137591.000000 1 0 0
-0.827005 -3.082386 4.344441 5.390660 1.308669 0.633568 0.007572 -0.001198 559050.000000 1 0 0
8.588095 -8.656886 -8.434859 14.827133 -0.789387 2.175940 0.007050 0.000160 -488654.000000 1 0 0
12.024295 -4.718286 0.997441 12.955338 -0.373934 1.493729 0.008146 -0.005919 431849.000000 1 0 0
2.991895 4.897314 3.567641 6.757454 1.022382 1.014604 -0.006269 0.003482 -620140.000000 1 0 0
5.991695 7.460414 1.957341 9.766748 0.894149 1.369021 -0.000209 0.002727 -164353.000000 1 0 0
-1.621005 -1.241486 -10.257559 10.458798 0.653583 2.945108 0.010784 -0.005268 1002020.000000 1 0 0
-0.962705 -8.487086 6.065941 10.476310 1.457847 0.953276 0.005506 -0.002887 535353.000000 1 0 0
-4.375705 -0.259786 2.316041 4.957654 0.059300 1.084715 0.003454 -0.002277 362089.000000 1 0 0
-8.513705 6.307414 -7.903159 13.218418 -0.637622 2.211662 0.003676 -0.006617 -632090.000000 1 0 0
6.443495 11.147714 -9.344659 15.909519 1.046703 2.198593 0.016178 -0.011498 295903.000000 1 0 0
-11.331105 -5.784986 3.240041 13.128514 0.472044 1.321426 0.005109 0.001980 1518010.000000 1 0 0
1.657095 -6.245486 3.039141 7.140619 -1.311445 1.131157 0.000652 -0.003450 223268.000000 1 0 0
10.026795 2.154714 7.284441 12.579447 0.211676 0.953203 0.003874 0.000494 -1969150.000000 1 0 0
-3.966205 -2.424286 -10.636259 11.607667 0.548640 2.729571 0.014977 -0.009394 -4434020.000000 1 0 0
-8.378305 11.774414 5.838541 15.585936 -0.952348 1.186828 0.009352 -0.010509 474924.000000 1 0 0
6.848395 5.978714 -2.966659 9.562772 0.717702 1.886231 0.001943 -0.000166 -3366950.000000 1 0 0
3.917295 -9.862686 -2.244659 10.846947 -1.192720 1.779242 -0.004933 -0.003323 -1657130.000000 1 0 0
8.561795 -12.960086 -7.418259 17.213329 -0.986986 2.016353 0.016883 -0.007908 -13693.300000 1 0 0
-1.263805 9.533714 3.641341 10.283398 -1.439003 1.208846 0.001301 0.002507 -23047.700000 1 0 0
0.580695 -13.085986 4.697341 13.915647 -1.526450 1.226475 0.013273 -0.003994 -430617.000000 1 0 0
-11.211605 -7.035786 -5.079059 14.177419 0.560427 1.937189 0.004907 -0.004373 210725.000000 1 0 0
3.559295 10.320114 -3.346059 11.417944 1.238682 1.868214 0.010915 -0.003837 -732503.000000 1 0 0
11.735695 -7.980686 -7.297159 15.958270 -0.597201 2.045714 0.029525 -0.009558 470015.000000 1 0 0
11.790295 -4.838386 -5.889859 14.039639 -0.389414 2.003709 0.010251 -0.001999 620061.000000 1 0 0
1.304095 -10.344186 -2.577059 10.739836 -1.445388 1.813114 0.000403 -0.001189 -1471080.000000 1 0 0
2.371395 -11.992586 -3.907659 12.834150 -1.375576 1.880182 0.000883 -0.001948 -1382010.000000 1 0 0
-7.671405 -5.758186 7.343541 12.080346 0.643887 0.917394 0.000759 0.003313 -2196220.000000 1 0 0
-7.164805 -0.829486 9.487141 11.917564 0.115259 0.650033 0.002619 0.001588 -158946.000000 1 0 0
16.249795 2.644114 -7.490459 18.087403 0.161303 1.997778 0.012714 0.003939 -378839.000000 1 0 0
-2.057205 6.254914 -5.418359 8.527289 -1.253046 2.259341 0.004788 -0.002768 -199527.000000 1 0 0
7.716395 1.220414 8.448741 11.507102 0.156859 0.746280 0.000489 -0.000430 -972329.000000 1 0 0
7.910595 8.250214 -3.742259 12.026972 0.806410 1.887205 0.000691 0.001690 -172040.000000 1 0 0
8.040495 0.514414 3.957641 8.976475 0.063891 1.114206 -0.001587 -0.001533 803403.000000 1 0 0
-6.964905 5.823514 5.377441 10.551782 -0.696382 1.036049 -0.001235 -0.006851 -48233.900000 1 0 0
-6.080405 -2.097286 -4.544059 7.875176 0.332147 2.185860 0.011373 -0.004400 -871239.000000 1 0 0
-15.158505 -2.209086 3.141441 15.637423 0.144714 1.368527 0.016319 -0.000828 -576470.000000 1 0 0
1.029195 1.331414 -10.642659 10.774882 0.912732 2.984770 0.008933 -0.007163 429845.000000 1 0 0
1.534895 -9.226086 9.310641 13.197144 -1.405941 0.787662 0.001147 -0.003308 -993238.000000 1 0 0
-0.099305 -6.736086 -1.157359 6.835509 1.556055 1.740932 0.007613 -0.001986 643083.000000 1 0 0
-0.347405 -10.194086 -8.338459 13.174595 1.536730 2.256115 0.001135 0.004950 -351111.000000 1 0 0
-4.386105 6.502414 3.788641 8.710518 -0.977366 1.120813 -0.000929 0.000674 188374.000000 1 0 0
10.733195 -1.042986 -8.632159 13.813162 -0.096870 2.245829 0.015063 0.001154 696074.000000 1 0 0
3.065895 -1.010786 6.281941 7.062874 -0.318465 0.474697 0.000400 0.000393 615565.000000 1 0 0
2.064195 -12.276986 6.680241 14.128372 -1.404219 1.078303 0.007404 -0.004356 300371.000000 1 0 0
2.885295 -4.879486 -1.382059 5.834757 -1.036790 1.809936 0.007225 -0.004396 -793720.000000 1 0 0
-1.228905 9.530214 -1.698459 9.758071 -1.442556 1.745744 0.005330 -0.000655 606879.000000 1 0 0
4.559895 -2.527986 2.588341 5.820899 -0.506212 1.109998 0.001711 -0.002976 -554579.000000 1 0 0
17.716395 6.627414 -2.740159 19.112868 0.357967 1.714659 0.032683 -0.003912 561496.000000 1 0 0
-7.196005 3.446614 -5.338759 9.600208 -0.446676 2.160493 0.003637 -0.003003 270646.000000 1 0 0
-13.893405 -5.991286 2.328041 15.308233 0.407138 1.418126 0.001377 0.001221 -293688.000000 1 0 0
6.733695 -6.093286 3.348041 9.678851 -0.735513 1.217585 0.000750 -0.006767 -290212.000000 1 0 0
-4.632705 2.052014 3.537941 6.179786 -0.416968 0.961242 0.002525 -0.003096 138076.000000 1 0 0
6.983895 -12.184786 -5.426359 15.056200 -1.050342 1.939500 0.010448 -0.004550 -1074700.000000 1 0 0
2.909595 -12.283586 3.182241 13.018405 -1.338214 1.323852 0.003308 -0.004347 -597385.000000 1 0 0
3.295895 11.232614 -6.134959 13.216364 1.285385 2.053521 0.006526 -0.003081 -392018.000000 1 0 0
-5.632105 -8.352286 6.512241 11.995440 0.977515 0.996918 0.008923 -0.000455 -610524.000000 1 0 0
-3.982105 6.656914 6.307641 9.997900 -1.031708 0.888088 0.002371 -0.001363 377544.000000 1 0 0
4.275895 4.437014 -7.036459 9.353188 0.803888 2.422352 0.002105 -0.001502 -1948270.000000 1 0 0
-0.283905 -2.670586 1.535341 3.093526 1.464886 1.051456 0.008485 -0.003361 -1013300.000000 1 0 0
-13.219205 -0.891386 6.606841 14.805145 0.067329 1.108222 0.007397 0.000415 -1091820.000000 1 0 0
-0.396805 -9.270786 -5.873259 10.981807 1.528021 2.135088 0.003663 0.002292 716862.000000 1 0 0
2.112995 -1.610886 -3.939059 4.751408 -0.651372 2.548167 0.001430 -0.001066 -726241.000000 1 0 0
11.375295 -1.905786 1.263941 11.602883 -0.165996 1.461646 0.006569 -0.004544 1481600.000000 1 0 0
0.444695 -4.221686 -1.914259 4.656691 -1.465848 1.994432 0.009308 -0.004065 -1697290.000000 1 0 0
1.185195 -7.343186 -11.260459 13.495369 -1.410776 2.557829 -0.007032 0.006571 -888998.000000 1 0 0
-4.434005 4.152814 -10.003359 11.703566 -0.752663 2.595822 0.006124 -0.008820 -10336.100000 1 0 0
-1.141105 5.770514 -2.174059 6.271163 -1.375567 1.924821 0.005695 -0.001405 -1266220.000000 1 0 0
-11.252005 1.786114 -3.813159 12.014075 -0.157424 1.893773 -0.000954 0.000945 -252384.000000 1 0 0
-1.806605 -11.222186 4.141241 12.097568 1.411181 1.221411 0.015415 -0.002368 87555.300000 1 0 0
-3.465605 -5.335786 -9.637359 11.548147 0.994771 2.558089 0.010807 0.000019 -593160.000000 1 0 0
-12.887105 -3.748986 -8.365359 15.814917 0.283096 2.128163 0.023356 -0.002741 205041.000000 1 0 0
11.462595 4.415514 0.582441 12.297442 0.367692 1.523416 0.008308 0.000342 625807.000000 1 0 0
-8.922405 -2.346886 -2.994759 9.699782 0.257207 1.884670 -0.000011 -0.001443 130512.000000 1 0 0
-2.428505 -5.994686 -6.423359 9.115560 1.185893 2.352738 0.009429 -0.001602 -1166510.000000 1 0 0
0.028695 2.607414 -1.950259 3.256216 1.559792 2.212966 0.007848 -0.003809 -385624.000000 1 0 0
8.024795 6.022114 -5.173959 11.288624 0.643782 2.046916 0.000665 -0.001459 -65629.900000 1 0 0
-9.785205 -1.056786 -0.762959 9.871633 0.107581 1.648161 -0.007003 -0.001194 -920314.000000 1 0 0
6.127595 0.583714 -8.934759 10.849795 0.094973 2.538342 -0.001128 0.003250 357093.000000 1 0 0
-4.191105 2.470014 7.927741 9.301367 -0.532549 0.550391 -0.001263 0.000296 -1753310.000000 1 0 0
-10.231205 -3.412786 1.543341 10.895254 0.321960 1.428666 -0.002482 -0.000877 885496.000000 1 0 0
-1.741605 -8.160686 -7.688059 11.346199 1.360536 2.315276 0.005044 -0.000384 -443440.000000 1 0 0
-9.455105 -9.824786 4.260041 14.285425 0.804570 1.267981 0.004461 -0.000091 -146775.000000 1 0 0
-1.243905 -10.642286 7.315041 12.973641 1.454441 0.971770 0.012825 -0.004707 42085.400000 1 0 0
9.393595 3.773014 -3.812359 10.817085 0.381935 1.930972 0.001928 -0.000268 -1205520.000000 1 0 0
12.783995 -0.667386 3.134241 13.179507 -0.052157 1.330684 0.009917 -0.006378 -785367.000000 1 0 0
6.526795 11.971714 -6.867959 15.267280 1.071658 2.037392 0.005077 -0.003909 720994.000000 1 0 0
-11.861005 -0.023686 -6.623659 13.585171 0.001997 2.080095 0.004828 0.001055 715119.000000 1 0 0
-7.510305 -6.644486 -11.379659 15.167416 0.724306 2.419267 0.017937 -0.008235 -731544.000000 1 0 0
4.182795 6.062714 6.597241 9.888168 0.966867 0.840373 -0.005168 0.003149 -3090730.000000 1 0 0
-4.256705 -1.412686 -7.354259 8.613962 0.320436 2.593961 0.012277 -0.008607 1057300.000000 1 0 0
9.595295 9.257714 0.850441 13.360322 0.767494 1.507099 0.010337 0.000629 -764385.000000 1 0 0
-8.822905 3.821314 4.873141 10.779314 -0.408722 1.101697 -0.006127 -0.004472 1565640.000000 1 0 0
-6.969005 7.825614 -12.167659 16.057995 -0.843234 2.430627 0.004454 -0.010584 -248014.000000 1 0 0
11.247895 -3.647086 7.217941 13.853341 -0.313550 1.022745 0.006916 -0.005498 -64836.000000 1 0 0
11.808195 6.892314 6.407041 15.099260 0.528340 1.132576 0.007754 -0.000428 -42095.300000 1 0 0
-9.995005 -0.779186 -14.761159 17.843740 0.077800 2.544984 0.028281 -0.010083 -479651.000000 1 0 0
1.685295 -12.982686 12.139341 17.853682 -1.441707 0.823122 0.000663 -0.003106 -10198.300000 1 0 0
2.942295 3.029814 13.020341 13.688176 0.800052 0.313659 0.000124 -0.002898 -1314160.000000 1 0 0
-2.563105 -1.395786 10.961341 11.343224 0.498663 0.260218 0.008328 0.001602 -337232.000000 1 0 0
2.643595 -10.168886 -8.216759 13.338289 -1.316457 2.234487 -0.008957 0.006478 -1192370.000000 1 0 0
13.982195 3.683414 -7.412859 16.248686 0.257584 2.044531 0.005565 0.001508 -3548620.000000 1 0 0
7.267895 -1.661386 5.088441 9.026335 -0.224731 0.971898 -0.002361 -0.001583 626610.000000 1 0 0
-1.113205 8.736714 10.101641 13.401961 -1.444062 0.717056 0.004873 -0.002239 277056.000000 1 0 0
-12.274505 -4.666186 0.938741 13.165030 0.363280 1.499430 0.000997 0.001744 -308759.000000 1 0 0
-4.958605 4.875314 -5.342459 8.769169 -0.776929 2.225888 0.006139 -0.004964 -478111.000000 1 0 0
-11.227505 0.368114 2.038941 11.417078 -0.032775 1.391246 -0.007653 0.000709 -1518060.000000 1 0 0
-1.309705 2.179914 -4.154059 4.870683 -1.029785 2.592253 0.008596 -0.006130 780547.000000 1 0 0
3.146095 -9.812086 13.087341 16.656934 -1.260518 0.666971 -0.001041 -0.000135 -3445240.000000 1 0 0
8.900495 4.641514 -1.502059 10.149810 0.480691 1.719331 0.000399 -0.001635 -1222590.000000 1 0 0
4.089295 2.301814 3.712141 5.983367 0.512684 0.901531 -0.006598 0.002796 338349.000000 1 0 0
-5.609905 -3.299286 7.469241 9.906861 0.531637 0.716748 0.003144 0.000978 889390.000000 1 0 0
1.706095 -5.798886 7.715141 9.801084 -1.284659 0.664586 0.001671 -0.002934 -278321.000000 1 0 0
-5.778905 -6.207586 -9.716359 12.897189 0.821147 2.423969 0.015417 -0.005326 223658.000000 1 0 0
-11.790205 -5.829086 5.630441 14.306958 0.459158 1.166311 0.010916 -0.000731 -380615.000000 1 0 0
10.458995 6.171014 4.520041 12.957730 0.533049 1.214474 0.002202 0.001963 -1703290.000000 1 0 0
1.535695 -3.677986 0.368741 4.002737 -1.175264 1.478543 0.010130 -0.004675 -676676.000000 1 0 0
8.821895 4.271714 6.976241 12.030848 0.450942 0.952236 -0.002107 0.004266 -15351.100000 1 0 0
-8.026105 12.107514 3.395241 14.917706 -0.985404 1.341186 0.003218 -0.008225 365109.000000 1 0 0
-6.235305 13.296714 -7.133259 16.326819 -1.132307 2.022951 0.011233 -0.008210 222822.000000 1 0 0
4.451795 -6.943286 -0.963859 8.304018 -1.000657 1.687130 0.001966 -0.005150 180056.000000 1 0 0
-1.917705 -8.170986 11.050741 13.876653 1.340272 0.649552 0.006399 -0.003950 -168971.000000 1 0 0
11.502295 8.872914 -5.799859 15.641923 0.657059 1.950655 0.015774 -0.004177 257705.000000 1 0 0
-3.371405 -2.981786 -1.865159 4.871985 0.724148 1.963658 0.014653 -0.005653 -1909620.000000 1 0 0
-1.992005 5.958814 4.814941 7.915757 -1.248180 0.916913 -0.000911 0.001623 -401850.000000 1 0 0
0.405495 -11.458786 -5.637859 12.777075 -1.535424 2.027785 0.001640 -0.003034 -129739.000000 1 0 0
-8.939905 6.230814 -1.514059 11.001697 -0.608687 1.708855 -0.001404 -0.002321 -1225190.000000 1 0 0
2.903895 -0.023786 3.880541 4.846831 -0.008191 0.642442 -0.000496 0.001552 -297294.000000 1 0 0
-10.072805 3.858414 -0.966559 10.829728 -0.365812 1.660166 -0.001409 -0.000165 -191623.000000 1 0 0
6.629095 5.697014 13.555141 16.128941 0.709923 0.572732 0.006995 0.001334 -727921.000000 1 0 0
-8.734205 -1.706686 5.718641 10.578373 0.192971 0.999649 -0.003045 -0.000759 184872.000000 1 0 0
12.951595 -1.853086 -1.460059 13.164707 -0.142113 1.681932 0.007546 -0.003189 -1137740.000000 1 0 0
5.342695 -5.430886 5.454641 9.369739 -0.793584 0.949420 -0.002079 -0.004818 7173.670000 1 0 0
-9.073605 -1.173286 3.213341 9.697034 0.128594 1.233037 -0.007853 0.000188 737929.000000 1 0 0
1.984695 5.433114 5.604041 8.053759 1.220560 0.801222 -0.001287 0.001851 -740727.000000 1 0 0
9.289195 3.077514 -7.419659 12.280536 0.319920 2.219533 0.005770 -0.001423 -1398800.000000 1 0 0
2.232295 -2.368086 -1.604859 3.628573 -0.814907 2.028940 0.006208 -0.002026 -280282.000000 1 0 0
-6.297305 0.345214 -3.964359 7.449253 -0.054765 2.131972 0.003076 -0.000374 -1782850.000000 1 0 0
-4.006805 4.242914 5.104741 7.753399 -0.814011 0.852122 -0.000571 -0.000970 281886.000000 1 0 0
-6.414405 1.748614 -12.408859 14.077714 -0.266140 2.649729 0.008200 -0.008706 -995852.000000 1 0 0
-0.151405 3.074814 6.233841 6.952567 -1.521596 0.458710 0.000371 0.000250 1223790.000000 1 0 0
-8.831205 9.366214 -2.227959 13.064454 -0.814790 1.742170 -0.001974 0.000615 86312.000000 1 0 0
-1.219305 -3.659986 -6.158359 7.266882 1.249215 2.581970 0.005368 -0.001958 362370.000000 1 0 0
-3.407805 6.978514 -2.984259 8.319772 -1.116530 1.937666 0.004164 -0.000105 1128110.000000 1 0 0
7.072495 -0.344186 -4.368859 8.320190 -0.048627 2.123619 0.000298 0.001182 -91294.500000 1 0 0
-5.148105 -10.832986 7.010641 13.892648 1.127164 1.041843 0.007996 -0.002941 520468.000000 1 0 0
9.814495 8.369214 -1.537259 12.989658 0.706083 1.689419 0.004901 0.001846 -54380.800000 1 0 0
13.612295 4.576614 -4.188659 14.959439 0.324339 1.854592 -0.001454 -0.004912 483402.000000 1 0 0
4.792595 1.139514 -6.742459 8.350342 0.233431 2.510608 -0.004164 0.000547 -515154.000000 1 0 0
9.006995 -4.744886 3.614341 10.802933 -0.484857 1.229647 0.002614 -0.008385 -946997.000000 1 0 0
-8.915505 -3.372886 -0.676059 9.556131 0.361675 1.641602 -0.006450 0.000133 29762.300000 1 0 0
-8.532205 -4.264686 -10.484359 14.174196 0.463515 2.403390 0.013435 -0.009182 282937.000000 1 0 0
10.385495 -1.091286 10.949441 15.130753 -0.104694 0.761713 0.004559 -0.003193 1208120.000000 1 0 0
2.363095 -11.566086 9.968441 15.450837 -1.369258 0.869548 0.001807 -0.002662 479478.000000 1 0 0
-6.404005 -10.582086 2.074941 12.541818 1.026581 1.404590 0.010653 0.000816 -923956.000000 1 0 0
-3.606305 -1.817486 6.628641 7.761931 0.466822 0.547182 0.003869 -0.001308 -2018660.000000 1 0 0
4.760395 -7.558286 3.920141 9.754822 -1.008735 1.157241 -0.003414 -0.003387 444659.000000 1 0 0
11.596795 -9.521086 -5.333259 15.924207 -0.687421 1.912312 0.027113 -0.005094 796846.000000 1 0 0
11.357095 1.230614 11.505841 16.213649 0.107935 0.781810 0.004934 0.001103 -74243.200000 1 0 0
-10.246005 -3.473286 4.469541 11.705603 0.326832 1.179022 -0.000774 -0.000378 2732530.000000 1 0 0
2.088795 8.778814 9.013141 12.754112 1.337204 0.785994 -0.004497 0.002136 177817.000000 1 0 0
6.536195 8.752114 4.177741 11.695079 0.929338 1.205504 0.001629 0.002614 1195360.000000 1 0 0
-4.289805 3.526514 0.394241 5.567240 -0.688053 1.499922 0.005475 -0.002725 -1194130.000000 1 0 0
4.846795 6.966514 4.285041 9.507120 0.962944 1.103225 -0.001652 0.003377 -1589740.000000 1 0 0
-8.383605 13.305014 1.111941 15.765299 -1.008532 1.500207 0.000499 0.000337 -993325.000000 1 0 0
8.844995 8.239414 -9.097259 15.128846 0.749967 2.215947 0.009141 -0.006436 404762.000000 1 0 0
7.078595 1.873114 6.048541 9.497364 0.258688 0.880371 -0.003445 0.001581 -1018300.000000 1 0 0
11.534695 -6.261386 3.026241 13.468937 -0.497322 1.344179 0.008735 -0.006769 -78384.500000 1 0 0
11.362795 4.684414 -2.088959 12.466779 0.391030 1.739153 0.004269 -0.002954 573111.000000 1 0 0
-4.074105 14.347014 -6.001159 16.076351 -1.294111 1.953350 0.006052 0.002081 -28714.500000 1 0 0
7.162695 -3.098686 7.016041 10.494326 -0.408302 0.838531 -0.000188 -0.003774 -798108.000000 1 0 0
-7.954105 -0.463986 0.967041 8.026098 0.058267 1.450016 -0.002427 -0.000757 95350.900000 1 0 0
-3.156005 1.170814 10.707941 11.224580 -0.355242 0.304581 0.004804 0.003364 140364.000000 1 0 0
7.082195 -1.204586 -1.860859 7.421004 -0.168474 1.824257 0.004740 -0.002189 -1884670.000000 1 0 0
-7.861805 5.326014 2.995641 9.957323 -0.595434 1.265215 -0.005200 -0.001635 859176.000000 1 0 0
9.517395 -2.130586 2.952441 10.190049 -0.220231 1.276844 0.003132 -0.005655 -1744420.000000 1 0 0
0.218595 3.481314 1.701541 3.881054 1.508088 1.116954 0.001515 0.001488 -1430190.000000 1 0 0
-7.596005 -3.112586 3.887641 9.083019 0.388897 1.128504 0.000974 -0.000864 -2165690.000000 1 0 0
-2.279405 8.382214 -6.738159 10.993634 -1.305283 2.230540 0.002971 -0.003581 -391004.000000 1 0 0
4.585995 9.784514 7.387041 13.089555 1.132501 0.971155 -0.003680 0.002968 -560128.000000 1 0 0
-11.894105 -3.183786 6.955941 14.141830 0.261546 1.056560 0.008585 -0.002179 134306.000000 1 0 0
-4.756405 2.395814 -5.471359 7.635384 -0.466605 2.369682 0.010328 -0.007404 -785996.000000 1 0 0
-2.728505 2.943914 -1.885859 4.434843 -0.823355 2.010020 0.006848 -0.003070 1803320.000000 1 0 0
2.390395 5.249514 11.426741 12.800071 1.143498 0.467474 0.003916 -0.002979 11481.600000 1 0 0
-0.679605 1.596014 4.573541 4.891463 -1.168236 0.362524 0.002636 0.000250 -455063.000000 1 0 0
5.128395 1.632514 7.650141 9.353620 0.308186 0.613079 -0.001136 0.001562 970290.000000 1 0 0
3.495195 -8.020386 1.769341 8.926004 -1.159823 1.371251 0.001346 -0.003472 2186250.000000 1 0 0
5.008895 6.404914 -4.692259 9.387718 0.907103 2.094198 0.003959 -0.001820 -1967980.000000 1 0 0
-4.070905 2.909214 -7.932659 9.378852 -0.620481 2.578864 0.012626 -0.011294 -357091.000000 1 0 0
-8.755305 -2.144886 -12.857059 15.702225 0.240250 2.530122 0.020781 -0.012122 395370.000000 1 0 0
-7.850205 8.173414 1.469041 11.427533 -0.805566 1.441887 -0.000358 0.001230 -2917990.000000 1 0 0
7.369595 0.948114 -6.612059 9.946314 0.127949 2.297989 -0.001565 0.003404 -572725.000000 1 0 0
8.975395 8.829214 5.463541 13.724541 0.777188 1.161367 0.000816 0.002853 438076.000000 1 0 0
9.409595 -1.044386 -1.350559 9.563222 -0.110539 1.712494 0.002937 -0.002767 999596.000000 1 0 0
5.391295 0.079314 4.243341 6.861363 0.014711 0.904040 -0.004299 0.001495 -1600750.000000 1 0 0
-4.054205 -7.249786 -8.018759 11.545409 1.060904 2.338578 0.018889 -0.006768 -230164.000000 1 0 0
-2.165305 7.440114 -0.663159 7.777122 -1.287588 1.656170 0.004616 0.000400 387667.000000 1 0 0
13.357095 -3.272486 -7.336459 15.586685 -0.240267 2.060866 0.016671 -0.004476 628978.000000 1 0 0
-4.837405 -5.046786 1.549541 7.160420 0.806578 1.352667 0.010471 -0.002012 1497530.000000 1 0 0
-8.876105 1.374314 2.543241 9.334991 -0.153613 1.294866 -0.008165 -0.000700 -1796470.000000 1 0 0
-1.013005 11.198714 10.197441 15.179763 -1.480585 0.834189 -0.001642 -0.001863 285817.000000 1 0 0
-8.358805 0.257914 7.283841 11.090108 -0.030846 0.854246 -0.003545 -0.001047 557111.000000 1 0 0
-6.112305 12.860614 -2.268459 14.418793 -1.127125 1.728779 -0.001734 0.001752 521301.000000 1 0 0
-13.011505 -0.793386 3.238941 13.432032 0.060900 1.327260 0.005582 -0.002420 436101.000000 1 0 0
-6.678305 12.641014 8.562341 16.664594 -1.084762 1.031183 0.012641 -0.011500 438009.000000 1 0 0
-8.094705 0.776014 -13.994559 16.185615 -0.095575 2.615209 0.010091 -0.011081 -426250.000000 1 0 0
7.276395 2.821214 3.750041 8.658405 0.369877 1.122856 -0.001704 0.001739 -662194.000000 1 0 0
-1.676505 0.682914 -2.099459 2.772141 -0.386821 2.430029 0.009295 -0.005720 686608.000000 1 0 0
-6.203805 9.639514 -10.298059 15.409654 -0.998947 2.302699 0.005017 -0.009598 -649576.000000 1 0 0
-10.140405 13.723214 5.163941 17.827527 -0.934422 1.276924 0.006064 -0.010734 -38234.800000 1 0 0
-5.622805 8.347814 2.462141 10.361664 -0.978032 1.330881 -0.001409 -0.000507 -2107150.000000 1 0 0
-2.394005 -10.692986 -1.220959 11.025513 1.350543 1.681763 0.012666 -0.003640 411181.000000 1 0 0
-2.298505 -12.415786 8.806941 15.394709 1.387741 0.961762 0.010842 -0.005233 445230.000000 1 0 0
-14.743905 -6.475686 -1.681559 16.190889 0.413846 1.674842 0.006332 -0.000259 299779.000000 1 0 0
-2.693905 -9.232886 3.330841 10.178301 1.286904 1.237405 0.011301 -0.002092 544856.000000 1 0 0
4.695095 -2.701186 7.536441 9.281070 -0.522075 0.623186 -0.001396 0.000615 331375.000000 1 0 0
-14.786605 -1.216686 -0.454559 14.843539 0.082098 1.601424 -0.001432 -0.000386 -158650.000000 1 0 0
5.480895 8.766614 -2.853259 10.725429 1.012053 1.840066 0.002830 -0.000133 -2365000.000000 1 0 0
-5.643205 -5.731886 8.562941 11.748372 0.793194 0.754138 0.006833 0.002414 -2248900.000000 1 0 0
3.506695 3.629514 7.082141 8.696379 0.802607 0.619139 -0.002844 0.002101 306187.000000 1 0 0
3.329295 2.256114 9.393341 10.218078 0.595572 0.404532 0.002802 -0.001192 432325.000000 1 0 0
9.906195 -3.247686 5.206041 11.652597 -0.316802 1.107644 0.008680 -0.007623 -275331.000000 1 0 0
6.523795 10.022914 -5.116559 13.007609 0.993797 1.975070 0.002953 -0.000982 244376.000000 1 0 0
-4.634105 12.017514 -8.627759 15.502703 -1.202754 2.161003 0.005986 -0.006199 -164075.000000 1 0 0
-3.483705 -7.196986 1.986841 8.238953 1.119989 1.327243 0.010710 -0.001375 1000140.000000 1 0 0
-7.526105 -4.088286 1.151941 8.641951 0.497618 1.437102 0.002413 -0.002378 1658680.000000 1 0 0
-1.930105 -3.859486 -10.949259 11.768908 1.107074 2.766175 0.011551 -0.004136 -571124.000000 1 0 0
-5.338305 8.205014 -4.470959 10.761470 -0.993989 1.999245 0.005713 -0.003543 -2427790.000000 1 0 0
-10.994905 -3.267686 -10.115859 15.293669 0.288886 2.293535 0.026484 -0.006525 969662.000000 1 0 0
4.731295 -11.488586 -7.764659 14.651371 -1.180137 2.129351 0.000928 0.000622 -1528270.000000 1 0 0
-9.404605 -4.014486 7.346241 12.590868 0.403448 0.947816 -0.003012 0.001162 -478344.000000 1 0 0
-5.751205 -9.678986 -5.108159 12.363349 1.034656 1.996728 0.013322 -0.004704 312882.000000 1 0 0
4.883295 4.456014 -9.568159 11.629802 0.739679 2.536989 0.002302 0.000989 155338.000000 1 0 0
-3.266805 -7.112786 -13.989959 16.030679 1.140247 2.631500 0.003033 0.000110 32110.700000 1 0 0
0.778095 -0.756786 -8.775959 8.842828 -0.771516 3.018536 0.004767 -0.006818 310558.000000 1 0 0
-7.782605 2.181314 -2.824959 8.561978 -0.273269 1.907039 0.000587 -0.001296 -845633.000000 1 0 0
-2.337505 7.401814 -12.581259 14.783060 -1.264906 2.588796 0.006642 -0.006942 -193158.000000 1 0 0
-9.699605 8.862514 7.559741 15.158371 -0.740332 1.048678 0.005030 -0.012627 -519106.000000 1 0 0
-10.599905 -3.183586 -14.364259 18.133536 0.291770 2.485100 0.036701 -0.005646 -361705.000000 1 0 0
-3.168805 4.938314 7.944341 9.876277 -1.000294 0.636155 0.001271 -0.002090 -422613.000000 1 0 0
8.737695 -2.258886 -3.530159 9.690815 -0.252983 1.943655 0.002488 -0.000057 -5211790.000000 1 0 0
1.936695 -8.388286 -1.106859 8.679819 -1.343891 1.698665 0.002532 -0.002251 -1364500.000000 1 0 0
-13.512305 -2.873886 5.096941 14.724823 0.209564 1.217336 0.022425 -0.005253 566090.000000 1 0 0
7.057795 2.713414 -1.934159 7.804874 0.367035 1.821220 -0.000279 -0.000744 798486.000000 1 0 0
-11.014805 4.411814 8.867441 14.812885 -0.380967 0.929006 0.000176 -0.004885 -3888520.000000 1 0 0
-1.759505 -2.344386 8.290741 8.793657 0.926963 0.339836 0.004360 -0.000530 -1492060.000000 1 0 0
2.941695 11.931514 -9.857759 15.754047 1.329069 2.246862 0.004007 -0.006232 901977.000000 1 0 0
3.621195 -5.129386 -6.942559 9.360703 -0.956075 2.406354 -0.007159 0.002439 -468500.000000 1 0 0
8.293495 -13.913786 -9.845659 18.955539 -1.033277 2.116954 0.018669 -0.005597 -26395.700000 1 0 0
-6.391805 -5.765086 -0.470659 8.620493 0.733891 1.625421 0.012183 -0.003396 -614357.000000 1 0 0
-1.125205 -4.132286 9.776641 10.673546 1.304946 0.412879 0.002127 -0.000980 1514630.000000 1 0 0
2.816295 3.385414 1.844541 4.774398 0.876910 1.174136 -0.004585 0.002829 278870.000000 1 0 0
-9.202405 13.262814 7.633241 17.856452 -0.964210 1.129095 0.015055 -0.023395 211353.000000 1 0 0
4.078195 -11.141186 -0.008159 11.864137 -1.219898 1.571484 -0.005207 -0.003722 -31341.000000 1 0 0
-12.427005 -1.391386 -9.123959 15.479439 0.111500 2.201142 0.020643 -0.003545 300913.000000 1 0 0
-4.209105 0.957314 -13.477359 14.151756 -0.223635 2.831631 0.010894 -0.010050 429378.000000 1 0 0
3.926595 -3.122986 4.937341 7.039071 -0.671894 0.793409 -0.000295 0.000957 -257897.000000 1 0 0
1.797895 -1.178486 1.066441 2.399698 -0.580219 1.110285 0.003493 -0.002319 667730.000000 1 0 0
8.229395 -8.919286 7.383241 14.205240 -0.825606 1.024232 0.005412 -0.004791 -1215230.000000 1 0 0
-0.053505 2.257014 -6.461559 6.844612 -1.547095 2.805455 0.006011 -0.005936 -514154.000000 1 0 0
-3.783505 -9.799986 -3.358559 11.028805 1.202354 1.880237 0.014657 -0.003349 560104.000000 1 0 0
-9.470105 2.327414 -5.545959 11.218619 -0.240988 2.087887 -0.000032 0.000175 50213.400000 1 0 0
8.946095 -7.646686 5.278941 12.898513 -0.707246 1.149145 0.004543 -0.006617 1876350.000000 1 0 0
-5.546105 -4.269086 4.655441 8.405802 0.656018 0.983831 0.004978 -0.000585 62191.500000 1 0 0
-0.126105 -12.419786 10.340041 16.161171 1.560643 0.876548 0.013022 -0.006074 825373.000000 1 0 0
-14.157905 -8.348986 3.106441 16.727278 0.532815 1.384001 0.006892 -0.002465 -1220550.000000 1 0 0
10.902095 -1.266086 -3.528159 11.528510 -0.115614 1.881825 0.010698 0.000984 -727622.000000 1 0 0
-13.495005 3.001714 2.609141 14.068869 -0.218868 1.384261 0.005933 -0.004236 -2105740.000000 1 0 0
-6.321005 6.156714 1.123841 8.895126 -0.772232 1.444114 -0.001020 -0.000876 540481.000000 1 0 0
7.114295 -6.863986 -0.403859 9.893967 -0.767493 1.611626 0.001110 -0.005136 55002.300000 1 0 0
-6.948505 7.894814 9.987841 14.504027 -0.849065 0.811205 0.005158 -0.007825 423892.000000 1 0 0
-12.690505 -5.192386 -2.014959 13.858927 0.388374 1.716704 -0.002996 -0.000418 -2314090.000000 1 0 0
-9.507005 -5.626386 0.213941 11.049214 0.534379 1.551433 -0.001102 0.000277 -929868.000000 1 0 0
-1.863305 1.863114 2.329841 3.517281 -0.785347 0.846780 0.004277 0.000282 7722.110000 1 0 0
-7.100205 7.361014 7.547841 12.710915 -0.803431 0.935013 -0.000972 -0.007622 -445725.000000 1 0 0
5.590695 7.101714 -0.460059 9.049965 0.903890 1.621654 0.002248 0.000558 -1131530.000000 1 0 0
-0.011505 -3.926586 7.350041 8.333146 1.567866 0.490654 0.004663 -0.000194 -1281480.000000 1 0 0
6.599595 0.669114 13.088241 14.673256 0.101042 0.469091 -0.003324 -0.001997 369327.000000 1 0 0
5.835395 6.234614 -7.982659 11.689529 0.818461 2.322507 -0.001673 -0.000223 -175034.000000 1 0 0
9.998095 5.293114 9.025441 14.471957 0.486900 0.897393 0.000244 -0.001285 -2080070.000000 1 0 0
-1.099205 -4.931286 -8.510159 9.896900 1.351477 2.605833 0.013027 -0.001789 926320.000000 1 0 0
10.079495 -3.436886 -7.931359 13.278360 -0.328615 2.210945 0.012098 -0.003737 690640.000000 1 0 0
8.425195 -5.512086 1.339641 10.156851 -0.579349 1.438516 0.004634 -0.007894 1172870.000000 1 0 0
15.696195 3.239714 -4.949759 16.773979 0.203543 1.870341 0.005671 0.000652 -564003.000000 1 0 0
-6.901505 3.639414 1.054841 7.873297 -0.485277 1.436415 -0.001726 -0.001645 320583.000000 1 0 0
-1.775905 3.781314 0.389741 4.195721 -1.131720 1.477772 0.006368 -0.003441 19403.200000 1 0 0
-2.581405 10.067814 6.930641 12.492331 -1.319802 0.982684 0.003004 0.000019 523281.000000 1 0 0
5.544195 -5.724886 -8.685459 11.787688 -0.801431 2.399158 -0.004324 0.003477 751851.000000 1 0 0
-1.207605 -0.950586 6.260241 6.446126 0.666866 0.240734 0.004382 -0.000275 805511.000000 1 0 0
-5.748505 5.009614 -7.808159 10.913702 -0.716824 2.368058 0.004697 -0.005336 130375.000000 1 0 0
6.742795 -1.231186 2.580841 7.324059 -0.180603 1.210685 -0.001110 -0.000915 -1313490.000000 1 0 0
8.722295 7.527514 3.157141 11.946106 0.712004 1.303337 0.002458 0.002123 -312122.000000 1 0 0
-5.248105 -4.922886 -7.601959 10.467434 0.753434 2.383645 0.017751 -0.006640 1246080.000000 1 0 0
-2.236005 7.885814 -10.036259 12.958097 -1.294501 2.456747 0.006150 -0.006775 233992.000000 1 0 0
-2.835005 -2.213086 1.644541 3.954683 0.662817 1.141923 0.005555 -0.001582 110043.000000 1 0 0
6.086195 -2.037786 -9.345959 11.337605 -0.323089 2.539819 -0.003987 0.005133 895249.000000 1 0 0
1.227595 -7.559486 5.122841 9.213920 -1.409810 0.981244 0.003068 -0.002116 1008500.000000 1 0 0
1.723895 11.908814 1.224441 12.095079 1.427037 1.469388 0.005491 -0.001961 645016.000000 1 0 0
-1.091005 7.090014 2.637041 7.642813 -1.418115 1.218520 0.002968 0.002565 220785.000000 1 0 0
8.614495 7.885814 -6.629959 13.429517 0.741265 2.087119 0.010454 -0.002406 -326193.000000 1 0 0
3.607995 -10.903886 5.267641 12.635679 -1.251246 1.140779 0.003731 -0.001094 296979.000000 1 0 0
8.032095 -7.172386 12.312441 16.357074 -0.728915 0.718599 0.016918 -0.003696 425084.000000 1 0 0
-8.717705 0.003914 -3.989059 9.587022 -0.000449 1.999937 -0.001400 -0.000169 -1297740.000000 1 0 0
-3.210805 -5.043486 11.205441 12.700706 1.003882 0.490135 0.007814 -0.002367 604890.000000 1 0 0
-8.148105 0.120314 -11.519759 14.110667 -0.014765 2.525922 0.014481 -0.009650 -2266910.000000 1 0 0
1.437195 -5.004686 5.309841 7.436856 -1.291151 0.775616 0.004136 -0.002174 -630154.000000 1 0 0
6.689095 3.846914 -7.679459 10.886543 0.521911 2.353795 -0.000964 -0.000701 -1274980.000000 1 0 0
16.300195 4.127114 -1.334459 16.867430 0.247983 1.649994 0.027029 -0.001195 -2327930.000000 1 0 0
7.848995 7.436614 0.064641 10.812684 0.758426 1.564818 0.001617 -0.000210 -2655580.000000 1 0 0
5.416695 -10.362486 13.996041 18.237622 -1.089137 0.695978 0.009836 -0.002107 214717.000000 1 0 0
-5.290705 -9.177286 9.043341 13.928250 1.047835 0.864158 0.006813 -0.004092 76191.500000 1 0 0
-12.629205 -3.154286 2.915141 13.339580 0.244754 1.350485 0.002292 0.001078 -846887.000000 1 0 0
-2.008505 -1.218686 -5.884459 6.336098 0.545377 2.761741 0.013303 -0.008844 -686485.000000 1 0 0
-2.682805 12.901714 -4.363459 13.881335 -1.365776 1.890558 0.003660 0.005343 443716.000000 1 0 0
4.016795 -0.407886 -4.983959 6.414114 -0.101198 2.460730 -0.002523 0.000054 -357806.000000 1 0 0
-8.811305 3.837614 -7.436859 12.152088 -0.410758 2.229361 0.007898 -0.003966 798527.000000 1 0 0
-4.553505 7.851914 -11.278459 14.477244 -1.045270 2.463941 0.008807 -0.007611 -2281910.000000 1 0 0
-10.170105 -6.501086 7.455141 14.187117 0.568770 1.017509 0.003035 0.001271 -1070290.000000 1 0 0
8.095495 5.225414 4.262741 10.536269 0.573185 1.154279 -0.001743 0.002246 -1664090.000000 1 0 0
-6.801505 -7.511386 4.073341 10.921241 0.834955 1.188584 0.008817 -0.001011 -273934.000000 1 0 0
-4.227305 11.781814 8.083741 14.900609 -1.226304 0.997373 0.004671 -0.002195 -658801.000000 1 0 0
-7.213005 10.021414 -7.844659 14.628563 -0.946932 2.136792 0.004411 -0.007487 320004.000000 1 0 0
13.070895 5.504014 4.634341 14.920442 0.398554 1.254968 0.010666 0.000216 1562580.000000 1 0 0
5.352695 3.955414 -3.737159 7.633020 0.636396 2.082432 0.000586 -0.000975 315203.000000 1 0 0
-2.852005 -4.205886 5.042341 7.158814 0.974921 0.789283 0.005581 -0.000541 -463447.000000 1 0 0
12.411995 -2.314886 -5.288559 13.688870 -0.184386 1.967457 0.009646 -0.001922 -1728490.000000 1 0 0
-5.301605 9.665614 7.029341 13.074508 -1.069104 1.003164 0.000119 -0.004009 523089.000000 1 0 0
1.717995 3.837414 -0.418259 4.225186 1.149860 1.669950 0.001277 -0.001114 586954.000000 1 0 0
-0.102405 9.655714 7.668941 12.331098 -1.560191 0.899606 -0.002281 0.002069 -141418.000000 1 0 0
-5.579205 2.156714 5.932341 8.424466 -0.368869 0.789529 -0.001972 -0.003236 735285.000000 1 0 0
8.894495 0.990714 10.724441 13.968078 0.110928 0.695424 0.007004 0.000119 -1868850.000000 1 0 0
0.507695 -2.756386 -10.245159 10.621614 -1.388649 2.874558 0.003632 -0.002642 -1725470.000000 1 0 0
1.161595 10.648614 -2.772859 11.064856 1.462142 1.824097 0.009343 -0.002905 471609.000000 1 0 0
2.269895 -4.265686 11.598741 12.565003 -1.081777 0.394734 -0.002664 -0.000489 -666710.000000 1 0 0
6.573795 -3.159986 9.519441 11.992500 -0.448084 0.653792 0.000370 -0.001049 657873.000000 1 0 0
-10.723405 -8.233386 5.724541 14.681636 0.654793 1.170261 0.008083 -0.002155 -778177.000000 1 0 0
-3.061105 0.884614 -6.828959 7.535754 -0.281321 2.705024 0.014652 -0.009408 679577.000000 1 0 0
11.074895 2.713314 -5.053359 12.472041 0.240264 1.987967 0.002951 -0.000043 -3593270.000000 1 0 0
-2.031805 -3.964086 -0.011159 4.454473 1.097157 1.573301 0.009365 -0.004786 844398.000000 1 0 0
-1.262505 -6.342886 -10.661559 12.469761 1.374321 2.596334 0.004489 0.001986 1131740.000000 1 0 0
0.308195 6.766414 -6.577059 9.441242 1.525280 2.341487 0.008841 -0.003114 -4109180.000000 1 0 0
2.085695 3.783214 -6.172259 7.533897 1.066954 2.530924 0.002687 -0.002617 -1642160.000000 1 0 0
1.693195 -14.656886 6.488341 16.117995 -1.455784 1.156493 0.017324 -0.010066 10491.400000 1 0 0
-1.711905 5.449914 -10.608259 12.048541 -1.266440 2.647628 0.008813 -0.009028 -354941.000000 1 0 0
13.704295 4.364914 -0.876859 14.409339 0.308348 1.631687 0.005127 -0.004198 -1074580.000000 1 0 0
-2.433105 3.312614 -6.041659 7.307192 -0.937291 2.544209 0.010707 -0.008257 -2282180.000000 1 0 0
5.619995 7.896314 14.219041 17.208058 0.952245 0.598288 0.004488 0.002013 765369.000000 1 0 0
15.956895 0.671814 -5.660359 16.944423 0.042077 1.911398 0.008972 0.001326 73559.300000 1 0 0
6.155395 -8.229586 10.591641 14.757975 -0.928603 0.770318 0.006599 0.002395 -205553.000000 1 0 0
0.078795 -5.851486 -6.350559 8.635721 -1.557331 2.397027 0.003745 -0.000178 -1078640.000000 1 0 0
8.625795 5.520314 -7.555859 12.726712 0.569297 2.206446 0.002341 0.000959 -661819.000000 1 0 0
-16.025105 -0.823186 5.266841 16.888495 0.051323 1.253647 0.034102 -0.007135 -267381.000000 1 0 0
-0.361605 3.981814 -12.348859 12.979981 -1.480231 2.828473 0.009551 -0.006263 744410.000000 1 0 0
-11.220405 3.583814 5.904241 13.175784 -0.309160 1.106143 0.000865 -0.007688 -643105.000000 1 0 0
5.149595 -9.823786 -9.657159 14.706658 -1.087979 2.287167 -0.011165 0.008095 -277295.000000 1 0 0
1.513095 11.075214 -11.688459 16.173123 1.435017 2.378510 0.004898 -0.003327 -2308790.000000 1 0 0
5.956795 2.395514 1.224141 6.536086 0.382357 1.382394 -0.000349 0.000817 -310231.000000 1 0 0
5.696295 4.586714 4.929841 8.819811 0.677910 0.977676 -0.005232 0.002359 93705.800000 1 0 0
0.527995 -1.510586 -6.370759 6.568654 -1.234540 2.895504 0.003167 -0.002599 979581.000000 1 0 0
12.623895 6.846914 -4.596459 15.078806 0.496972 1.880555 0.006590 -0.003738 226246.000000 1 0 0
7.587695 3.291314 12.887841 15.313469 0.409275 0.570554 -0.000317 -0.000398 -276198.000000 1 0 0
-2.714905 -0.200786 8.570941 8.992890 0.073822 0.307544 0.005558 0.001377 461293.000000 1 0 0
2.226695 -15.321686 13.335741 20.434143 -1.426477 0.859758 0.007973 -0.005506 -493278.000000 1 0 0
18.828995 4.449114 -1.815659 19.432506 0.232035 1.664367 0.029478 -0.000757 425840.000000 1 0 0
-0.326105 -13.109886 7.244741 14.982047 1.545927 1.066077 0.013590 -0.007430 95642.500000 1 0 0
4.355695 1.631114 -0.540359 4.682371 0.358313 1.686457 -0.000038 -0.002407 938950.000000 1 0 0
2.885795 -0.518486 -7.406759 7.965972 -0.177772 2.764665 -0.002271 -0.001927 49926.500000 1 0 0
7.308095 -11.207986 0.847541 13.406920 -0.992986 1.507537 -0.000656 -0.003540 203230.000000 1 0 0
-11.852805 -7.284086 1.253741 13.968492 0.551046 1.480920 0.004896 0.002308 -40664.700000 1 0 0
0.160895 -6.988286 10.070441 12.258704 -1.547777 0.606772 0.002464 -0.003226 -847975.000000 1 0 0
-4.679405 -7.198486 10.668941 13.694573 0.994383 0.677626 0.007874 0.000379 -1177820.000000 1 0 0
11.890995 0.721914 -1.610359 12.021238 0.060637 1.705160 0.000783 -0.001744 1211540.000000 1 0 0
6.489195 -9.639186 -7.399459 13.775904 -0.978277 2.137828 -0.004560 0.000052 66147.100000 1 0 0
-10.920305 4.807814 3.569241 12.454221 -0.414728 1.280132 -0.002017 -0.005770 -707452.000000 1 0 0
6.067495 -9.052886 2.037641 11.086984 -0.980332 1.385959 -0.002362 -0.003753 2858200.000000 1 0 0
11.629195 -1.333686 5.852941 13.087162 -0.114185 1.107133 0.011016 -0.008010 147556.000000 1 0 0
-6.344405 3.688614 4.115641 8.414028 -0.526628 1.059692 -0.004584 -0.002539 -1818140.000000 1 0 0
9.427495 6.321414 -3.170759 11.785230 0.590672 1.843198 0.004413 -0.001501 -113595.000000 1 0 0
-2.289905 6.576814 10.934741 12.964055 -1.235745 0.567093 0.002368 -0.003644 -253832.000000 1 0 0
1.838695 9.835514 3.068541 10.465854 1.385985 1.273229 0.000206 0.000272 -59438.400000 1 0 0
2.750495 6.117614 -5.582159 8.726450 1.148273 2.264882 0.003061 -0.002588 -2937650.000000 1 0 0
11.795195 0.152814 -5.662359 13.084811 0.012955 2.018329 0.006834 -0.000719 11579.800000 1 0 0
-2.600505 -12.554786 6.236841 14.257751 1.366552 1.118052 0.013879 -0.001207 -359.090000 1 0 0
10.788395 1.789214 -2.783559 11.284456 0.164350 1.820041 0.002570 -0.001637 299818.000000 1 0 0
-8.912905 5.375814 0.820841 10.440931 -0.542732 1.492097 -0.005720 -0.000501 335610.000000 1 0 0
1.109495 -10.035086 5.807141 11.647180 -1.460682 1.048828 0.004928 -0.004281 598557.000000 1 0 0
9.463295 -5.774886 -1.181459 11.148950 -0.547915 1.676966 0.009932 -0.005081 1548320.000000 1 0 0
-7.871305 8.628814 -4.579359 12.545294 -0.831275 1.944457 -0.000166 -0.003142 -316422.000000 1 0 0
-7.516805 -0.110886 -1.597959 7.685579 0.014751 1.780241 -0.002224 -0.000339 -1218110.000000 1 0 0
4.086995 8.883914 2.735141 10.154234 1.139621 1.298068 0.002102 0.000372 128337.000000 1 0 0
-1.324505 -10.523886 -3.765259 11.255383 1.445598 1.911902 0.010974 -0.001650 315362.000000 1 0 0
3.165295 7.856514 -3.683559 9.236477 1.187803 1.981010 0.006366 -0.002599 -111103.000000 1 0 0
-4.355305 1.719814 -11.032159 11.984781 -0.376083 2.740190 0.009645 -0.010009 -728620.000000 1 0 0
1.329895 2.811314 11.065641 11.494369 1.128940 0.273982 0.003478 -0.001863 445006.000000 1 0 0
2.059395 5.573414 -8.073459 10.024210 1.216853 2.507140 0.004625 -0.002722 -471310.000000 1 0 0
15.552495 6.279314 3.969241 17.235567 0.383735 1.338417 0.026858 -0.006113 811263.000000 1 0 0
-4.538005 9.025314 4.617141 11.107105 -1.104904 1.142092 0.002060 0.000818 141700.000000 1 0 0
-0.860505 -8.144986 -12.401759 14.862196 1.465538 2.557930 -0.001008 0.003504 -93166.700000 1 0 0
14.310195 -4.182486 -5.217959 15.795631 -0.284353 1.907462 0.020439 -0.003570 467277.000000 1 0 0
-6.211305 -6.359786 -5.647859 10.532117 0.797209 2.136786 0.015093 -0.004019 738735.000000 1 0 0
-8.945505 2.569114 -12.239259 15.376016 -0.279669 2.491449 0.012421 -0.011278 -1138140.000000 1 0 0
10.628295 5.567514 13.748941 18.248048 0.482536 0.717507 0.025933 0.007228 639079.000000 1 0 0
-0.416805 10.946714 5.535041 12.273588 -1.532739 1.102943 -0.000175 0.004152 884331.000000 1 0 0
0.283695 11.243414 -0.613759 11.263727 1.545570 1.625313 0.007301 -0.000997 98874.600000 1 0 0
-1.529305 -0.549286 3.742741 4.080270 0.344823 0.409606 0.005073 0.000162 464913.000000 1 0 0
-4.791905 6.713514 8.836541 12.087932 -0.950888 0.750978 0.000377 -0.004448 -1905760.000000 1 0 0
3.508995 -8.743486 -11.361159 14.759319 -1.189147 2.449264 -0.011687 0.009053 77720.500000 1 0 0
6.842495 -3.799686 12.020541 14.344015 -0.506909 0.577156 0.010573 -0.002057 -3604.970000 1 0 0
-2.425705 -1.725786 -12.528959 12.877779 0.618374 2.908311 0.009227 -0.010793 1211420.000000 1 0 0
-16.099305 -5.032186 5.263741 17.669677 0.302950 1.268308 0.039710 -0.007993 595297.000000 1 0 0
-8.979005 7.206514 5.773441 12.879791 -0.676322 1.105983 -0.000227 -0.007298 -4148700.000000 1 0 0
-12.736605 1.477114 6.013141 14.161951 -0.115458 1.132278 -0.002229 -0.002705 425662.000000 1 0 0
-3.531505 3.659014 10.122441 11.328007 -0.803129 0.465546 0.004120 0.000039 468223.000000 1 0 0
2.037895 -12.359786 -1.110959 12.575832 -1.407385 1.659252 -0.001128 -0.003430 -3011880.000000 1 0 0
10.246495 -5.141486 -3.570759 12.007325 -0.465071 1.872745 0.013629 -0.002273 1082510.000000 1 0 0
3.225795 -13.576386 0.914641 13.984297 -1.337519 1.505345 0.000072 -0.001335 203920.000000 1 0 0
10.035895 -1.626486 -6.081459 11.846889 -0.160670 2.109866 0.010248 0.000271 -101692.000000 1 0 0
12.009495 -5.365686 -1.529659 13.242296 -0.420179 1.686568 0.011462 -0.005392 -693694.000000 1 0 0
1.490495 0.961214 5.907141 6.167644 0.572779 0.291677 0.000787 0.000089 331215.000000 1 0 0
-10.829705 11.608214 6.439341 17.131791 -0.820080 1.185460 0.011437 -0.016655 -422687.000000 1 0 0
4.787595 -14.050786 3.099841 15.164256 -1.242399 1.364928 0.002790 -0.008190 -4048900.000000 1 0 0
5.277595 -3.304486 -1.642259 6.439693 -0.559415 1.828666 0.002430 -0.004145 -1468630.000000 1 0 0
2.169195 -2.969586 -7.701759 8.534690 -0.939912 2.696118 -0.003627 0.000812 31286.900000 1 0 0
-2.835605 14.691614 -8.778859 17.347984 -1.380132 2.101389 0.004980 -0.011322 -1976100.000000 1 0 0
-2.332505 6.011314 -8.071559 10.330854 -1.200661 2.467552 0.007877 -0.006344 -192878.000000 1 0 0
2.649095 -3.485386 -11.387059 12.199620 -0.920889 2.774555 -0.003169 0.002345 -1948210.000000 1 0 0
14.648895 2.668414 -2.629859 15.120407 0.180182 1.745613 0.010814 0.001999 622575.000000 1 0 0
-3.635805 13.087214 2.196341 13.759294 -1.299816 1.410485 -0.001761 0.002141 96289.300000 1 0 0
7.904295 -5.137586 13.991141 16.870824 -0.576357 0.592925 0.009010 -0.005217 -1499760.000000 1 0 0
-11.447605 7.238314 2.868041 13.844368 -0.563831 1.362122 0.002475 -0.005997 930912.000000 1 0 0
-2.384705 11.953814 4.042441 12.842190 -1.373888 1.250573 0.003819 0.002151 -42422.400000 1 0 0
1.842195 1.459514 0.787741 2.478790 0.670009 1.247396 -0.002163 -0.000298 -1304350.000000 1 0 0
-6.909405 8.578614 5.259241 12.206233 -0.892758 1.125345 -0.003033 -0.005023 -647626.000000 1 0 0
-1.180605 9.129114 0.988241 9.258033 -1.442187 1.463848 0.004134 0.003025 588370.000000 1 0 0
4.925995 12.974714 -8.499559 16.274248 1.207945 2.120308 0.014966 -0.013924 -3563750.000000 1 0 0
8.959695 6.864814 7.203441 13.389973 0.653781 1.002766 -0.005194 0.001952 -1538980.000000 1 0 0
7.174195 -13.672686 2.811341 15.694427 -1.087577 1.390694 0.008358 -0.009450 141951.000000 1 0 0
4.237295 -13.365886 -1.329059 14.084316 -1.263796 1.665301 -0.002783 -0.000187 -4045510.000000 1 0 0
12.121395 -11.867786 -4.601759 17.576937 -0.774827 1.835690 0.032313 -0.009701 -656458.000000 1 0 0
2.880395 0.020614 -1.899559 3.450423 0.007157 2.153794 0.001790 -0.003846 589867.000000 1 0 0
-13.659605 -3.137486 -10.759359 17.668968 0.225775 2.225521 0.036411 -0.010400 1222200.000000 1 0 0
-6.690705 13.647014 4.972241 15.991552 -1.114964 1.254626 0.008255 -0.009455 355712.000000 1 0 0
7.293295 -4.375286 -0.587859 8.525306 -0.540350 1.639806 0.000070 -0.002654 -461459.000000 1 0 0
11.808395 2.286414 -7.254659 14.046208 0.191259 2.113538 0.008818 0.000268 -1185850.000000 1 0 0
-7.492605 -4.595786 9.842141 13.195762 0.550197 0.728977 0.003240 0.003319 673081.000000 1 0 0
1.052495 2.911114 8.556141 9.098895 1.223875 0.347140 0.002991 -0.000972 -945953.000000 1 0 0
1.599295 8.035014 -8.704359 11.953454 1.374323 2.386470 0.007904 -0.004562 -393382.000000 1 0 0
-8.618405 -2.196786 -5.517059 10.466170 0.249580 2.126019 0.009534 -0.003474 -764627.000000 1 0 0
6.677795 -0.475186 7.240241 9.861026 -0.071039 0.746267 -0.000577 -0.000049 849936.000000 1 0 0
-10.962205 6.596314 7.263241 14.711764 -0.541692 1.054454 0.002846 -0.008405 644682.000000 1 0 0
-5.962405 11.122114 4.931741 13.548940 -1.078699 1.198243 -0.004257 -0.002138 455966.000000 1 0 0
6.091595 -1.147786 -6.939659 9.305042 -0.186238 2.412525 -0.002537 0.002950 -807483.000000 1 0 0
4.485995 -5.778386 11.361741 13.513070 -0.910649 0.572044 0.002355 -0.000927 -971114.000000 1 0 0
-9.048205 -7.341586 2.643441 11.948083 0.681645 1.347706 0.003878 0.000397 -1330420.000000 1 0 0
-1.289505 12.589114 -9.341359 15.729260 -1.468722 2.206674 0.007738 -0.003161 590897.000000 1 0 0
-4.733105 9.247714 -2.399859 10.662168 -1.097743 1.797823 -0.000398 0.000031 139675.000000 1 0 0
-3.431405 9.639514 -0.196559 10.233935 -1.228810 1.590004 0.003458 0.001456 -1094650.000000 1 0 0
-3.531405 10.690114 -6.472159 12.986077 -1.251739 2.092539 0.008805 -0.000840 430650.000000 1 0 0
4.856795 -4.787886 0.322141 6.827597 -0.778253 1.523597 0.001351 -0.005305 -1540060.000000 1 0 0
-2.195305 2.918314 -10.833159 11.432115 -0.925856 2.816458 0.010900 -0.006687 -206857.000000 1 0 0
-3.642905 12.014514 -2.218059 12.749082 -1.276398 1.745664 -0.001637 0.004525 -343577.000000 1 0 0
-0.159205 0.341514 0.041741 0.379105 -1.134573 1.460467 0.002096 -0.003542 -1395530.000000 1 0 0
-4.928205 -1.755186 0.118341 5.232771 0.342144 1.548179 0.003894 -0.002271 338904.000000 1 0 0
2.650995 2.505814 -2.599759 4.479467 0.757252 2.189982 -0.005890 -0.001001 2113100.000000 1 0 0
6.143495 -9.591586 8.504841 14.215251 -1.001122 0.929431 0.003735 -0.000756 -716166.000000 1 0 0
-4.261205 -5.456286 6.565741 9.541377 0.907766 0.811883 0.006965 -0.001448 260225.000000 1 0 0
-6.254005 5.276414 -12.090159 14.598804 -0.700817 2.546615 0.004361 -0.007321 1073130.000000 1 0 0
-12.819005 3.044414 8.002841 15.415603 -0.233172 1.024953 0.005601 -0.006171 545242.000000 1 0 0
4.678195 -7.392886 -4.843659 10.000065 -1.006610 2.076431 -0.002727 -0.000568 397525.000000 1 0 0
-6.008905 2.350814 -1.034559 6.534798 -0.372916 1.729781 0.003531 -0.001835 -623280.000000 1 0 0
-6.888805 -2.693886 -14.572959 16.342698 0.372769 2.671907 0.014038 -0.011104 386490.000000 1 0 0
2.671795 -6.056286 0.762541 6.663224 -1.155317 1.456105 0.004329 -0.003365 -475193.000000 1 0 0
4.888095 -7.868986 12.997941 15.961231 -1.014945 0.619197 0.005307 -0.000706 -254749.000000 1 0 0
-9.986105 -1.659286 8.061841 12.940974 0.164655 0.898262 -0.000603 0.001292 -43624.700000 1 0 0
-4.547305 13.260014 -0.126259 14.018627 -1.240431 1.579803 -0.002941 0.004566 689625.000000 1 0 0
6.822595 2.320414 -4.511959 8.502346 0.327835 2.130190 -0.001791 0.001192 -1492420.000000 1 0 0
4.994495 4.466714 -0.030259 6.700555 0.729672 1.575312 -0.003445 0.000434 -623593.000000 1 0 0
-5.994605 12.277614 1.853141 13.788011 -1.116589 1.435986 -0.004077 -0.000010 -887762.000000 1 0 0
6.566795 -7.279886 6.595241 11.815953 -0.836852 0.978625 0.000953 -0.004184 -1995460.000000 1 0 0
-0.268005 4.932714 7.673941 9.126493 -1.516517 0.571959 0.001213 -0.000650 -1058020.000000 1 0 0
-5.892605 -3.420686 -1.557359 6.989224 0.525961 1.795505 0.007331 -0.003204 -432174.000000 1 0 0
2.236695 -6.657986 -5.204859 8.741975 -1.246700 2.208544 -0.003565 0.001398 -1848470.000000 1 0 0
-14.417705 -4.859586 -3.804459 15.683102 0.325098 1.815824 0.002885 -0.002805 251499.000000 1 0 0
-12.360305 -5.122286 -6.321759 14.797959 0.392870 2.012195 0.011609 -0.008764 -1739720.000000 1 0 0
-14.834005 -3.763586 -1.302159 15.359294 0.248471 1.655678 0.000658 0.001045 142266.000000 1 0 0
11.908595 2.834014 8.744341 15.043596 0.233635 0.950512 0.013421 -0.003598 -1399510.000000 1 0 0
8.730595 -6.449686 7.630941 13.268496 -0.636259 0.958049 0.007556 -0.006375 -81061.700000 1 0 0
-8.786905 -1.805686 -9.664459 13.186052 0.202676 2.393416 0.011428 -0.006100 -140090.000000 1 0 0
-8.859105 5.123814 -3.890559 10.948683 -0.524361 1.934079 0.002760 -0.001237 -1160790.000000 1 0 0
-4.142805 -6.206086 4.013141 8.472523 0.982190 1.077348 0.009001 -0.000689 -961901.000000 1 0 0
-0.174305 -9.308986 3.604741 9.984075 1.552074 1.201404 0.007053 -0.003780 -11162.100000 1 0 0
7.979095 -10.408586 3.239841 13.509300 -0.916763 1.328613 0.000148 -0.005847 -30133.400000 1 0 0
-0.105305 6.419114 9.592841 11.542908 -1.554393 0.589787 0.001636 -0.002292 -103444.000000 1 0 0
0.062095 3.614814 -9.744459 10.393518 1.553620 2.786320 0.009780 -0.006477 -376777.000000 1 0 0
4.512795 -3.190486 11.161041 12.454451 -0.615400 0.459783 0.001242 -0.001947 -2160170.000000 1 0 0
8.580695 -9.053686 1.184141 12.529953 -0.812214 1.476150 0.001499 -0.004360 -1951190.000000 1 0 0
-0.224405 -0.547486 11.435941 11.451238 1.181799 0.051693 0.007927 -0.000128 -1253990.000000 1 0 0
10.914695 6.045014 11.323541 16.849194 0.505788 0.833819 0.018002 -0.001725 -596285.000000 1 0 0
-6.256805 -2.937586 -11.920159 13.779231 0.438953 2.616109 0.013379 -0.009111 1262930.000000 1 0 0
-1.620705 2.914014 8.547941 9.175264 -1.063224 0.371927 0.003602 -0.003467 1915900.000000 1 0 0
-1.692905 13.363714 -6.839559 15.107427 -1.444788 2.040619 0.005030 -0.003385 985300.000000 1 0 0
7.696195 3.106214 9.858341 12.886694 0.383609 0.699753 -0.002090 0.001935 375431.000000 1 0 0
6.445395 8.648314 -7.892659 13.365273 0.930324 2.202518 0.003329 -0.004586 46324.000000 1 0 0
6.617895 -2.937086 -3.931459 8.238894 -0.417694 2.068243 0.002077 -0.000157 -2243130.000000 1 0 0
2.022995 8.263314 0.990541 8.564814 1.330702 1.454885 0.001969 0.003079 733028.000000 1 0 0
-17.640205 6.404714 6.347941 19.811451 -0.348275 1.244626 0.037169 -0.011629 -1072870.000000 1 0 0
-14.804905 3.030414 -10.374759 18.330419 -0.201901 2.172425 0.045990 -0.010674 -444063.000000 1 0 0
-18.268805 -0.077486 -4.572659 18.832537 0.004241 1.816054 0.037345 -0.004965 324574.000000 1 0 0
-13.158905 7.787414 0.114641 15.290970 -0.534367 1.563299 0.008264 -0.002764 -2569550.000000 1 0 0
-12.810405 -4.399386 -12.885159 18.694609 0.330803 2.331242 0.056181 -0.006775 -350812.000000 1 0 0
-17.256605 -0.595086 -8.907959 19.429263 0.034471 2.047082 0.028811 -0.009445 -280179.000000 1 0 0
-16.683305 -2.083686 -2.074759 16.940456 0.124253 1.693578 0.022794 -0.002664 961649.000000 1 0 0
-15.236805 4.038914 1.653041 15.849467 -0.259117 1.466310 0.014338 -0.002800 -1282460.000000 1 0 0
-13.155705 5.878514 4.394341 15.064520 -0.420224 1.274791 0.004841 -0.008597 692094.000000 1 0 0
-10.161805 14.356814 2.731541 17.800049 -0.954852 1.416731 0.022054 -0.007876 -248656.000000 1 0 0
-11.968305 2.468614 -6.411759 13.800182 -0.203410 2.053995 0.004412 -0.003370 238082.000000 1 0 0
-16.081205 10.527714 3.525841 19.541481 -0.579644 1.389374 0.034535 -0.013624 415423.000000 1 0 0
-12.782105 1.204214 -8.641459 15.476019 -0.093934 2.163225 0.017458 -0.003743 618433.000000 1 0 0
-12.348305 14.392714 4.005941 19.382426 -0.861702 1.362617 0.038307 -0.018369 206710.000000 1 0 0
-10.393005 11.107414 -1.009759 15.244961 -0.818614 1.637080 0.009366 -0.001966 844607.000000 1 0 0
-17.182905 5.651914 8.863041 20.143234 -0.317779 1.115197 0.032090 -0.015645 700055.000000 1 0 0
-11.716405 12.432514 -9.106759 19.359097 -0.815043 2.060554 0.019421 -0.017491 -1412310.000000 1 0 0
-17.158705 -0.549286 2.996641 17.427069 0.032001 1.397984 0.035843 -0.005110 690105.000000 1 0 0
-13.257605 14.866514 -0.781759 19.934606 -0.842543 1.610023 0.048719 -0.010459 238247.000000 1 0 0
-16.631905 4.760414 -10.625959 20.302532 -0.278769 2.121610 0.064388 -0.012743 641077.000000 1 0 0
-11.869605 7.539914 -8.977359 16.683249 -0.565921 2.138985 0.012240 -0.007727 -110280.000000 1 0 0
-14.857405 13.372614 -2.114459 20.100752 -0.732850 1.676184 0.053022 -0.012605 670327.000000 1 0 0
-11.966505 10.521614 -5.611759 16.893592 -0.721235 1.909413 0.015140 -0.004957 1195410.000000 1 0 0
-17.595005 2.721514 -0.935659 17.828806 -0.153459 1.623301 0.024607 -0.003850 -507575.000000 1 0 0
-9.613405 15.476514 0.532241 18.226995 -1.014962 1.541591 0.026711 -0.012188 74234.200000 1 0 0
-8.222605 13.119914 -3.983859 15.987949 -1.010956 1.822629 0.007160 -0.004474 -54189.000000 1 0 0
-18.196605 11.327014 2.091141 21.535798 -0.556785 1.473542 0.108582 -0.016358 198545.000000 1 0 0
-8.060105 15.708214 -7.315659 19.111048 -1.096713 1.963619 0.045107 -0.024569 -19166.800000 1 0 0
-6.358005 15.241314 -5.315859 17.348782 -1.175588 1.882217 0.013777 -0.006885 295672.000000 1 0 0
-17.386405 5.141614 -0.227159 18.132151 -0.287531 1.583325 0.033602 -0.004716 789697.000000 1 0 0
-5.387405 12.230914 -12.217959 18.107952 -1.155892 2.311394 0.001015 -0.011189 -1209800.000000 1 0 0
-11.133605 3.630114 -11.409559 16.349707 -0.315181 2.343180 0.011126 -0.011715 987944.000000 1 0 0
-12.023205 10.950014 1.124141 16.301042 -0.738717 1.501780 0.015067 -0.008763 600392.000000 1 0 0
-12.860605 0.223414 -11.005059 16.927977 -0.017370 2.278526 0.019766 -0.011113 478183.000000 1 0 0
-14.038505 -2.120786 -13.068659 19.296818 0.149935 2.314807 0.051708 -0.013883 225202.000000 1 0 0
-18.725705 -2.330986 -3.687459 19.227139 0.123843 1.763776 0.029137 -0.003587 983940.000000 1 0 0
-18.294105 4.624014 -5.164159 19.563342 -0.247574 1.837933 0.041850 -0.009507 365246.000000 1 0 0
-8.147505 15.180114 -2.331059 17.385383 -1.078204 1.705283 0.016117 -0.012395 -261670.000000 1 0 0
-16.261505 8.959914 -5.349559 19.321863 -0.503602 1.851327 0.043317 -0.003625 78861.800000 1 0 0
-18.109205 1.691814 1.976441 18.295133 -0.093153 1.462554 0.039979 -0.007148 -116188.000000 1 0 0
-15.769205 -2.770586 -8.661359 18.203382 0.173921 2.066682 0.025498 -0.005856 207362.000000 1 0 0
-9.815305 10.481414 -7.310859 16.113625 -0.818205 2.041717 0.010120 -0.006398 89415.100000 1 0 0
-14.102205 11.918114 -8.041059 20.138825 -0.701657 1.981529 0.035892 -0.010233 34990.300000 1 0 0
-11.059405 6.605914 -3.933359 13.469219 -0.538441 1.867141 -0.000270 0.000181 198593.000000 1 0 0
-13.177005 4.956814 -12.640959 18.920817 -0.359797 2.302446 0.044271 -0.019537 -752094.000000 1 0 0
-17.746605 8.787814 2.557641 19.967704 -0.459786 1.442355 0.044224 -0.021131 688551.000000 1 0 0
-13.591805 8.692014 -6.674059 17.459420 -0.568961 1.963038 0.017160 -0.003071 -286494.000000 1 0 0
-15.882505 6.800914 -3.852759 17.701699 -0.404579 1.790201 0.025526 -0.001704 -1654120.000000 1 0 0
-14.823105 -0.369286 -9.396959 17.554591 0.024908 2.135658 0.026688 -0.010666 196057.000000 1 0 0
-10.095305 5.808714 -6.102659 13.149099 -0.522126 2.053429 0.000744 -0.002672 348161.000000 1 0 0
-12.759005 12.206514 -0.901259 17.680596 -0.763272 1.621793 0.028993 -0.005913 -518879.000000 1 0 0
-10.673005 3.380014 -13.957259 17.892529 -0.306696 2.465559 0.022446 -0.013575 194512.000000 1 0 0
-11.048005 6.178614 -11.963059 17.416902 -0.509918 2.327963 0.013017 -0.011918 -902378.000000 1 0 0
-5.908305 11.478114 -14.646559 19.523751 -1.095422 2.419148 0.009539 -0.018209 -220582.000000 1 0 0
-15.717705 13.118614 3.359541 20.746827 -0.695509 1.408150 0.038650 -0.017381 221529.000000 1 0 0
-15.023405 10.935514 -3.030959 18.827504 -0.629205 1.732486 0.039569 -0.006097 1149680.000000 1 0 0
-18.247805 7.512114 -4.463159 20.232005 -0.390528 1.793225 0.048637 -0.008093 695376.000000 1 0 0
-3.866705 16.273414 -10.656159 19.832527 -1.337514 2.138037 0.016875 -0.008516 -190886.000000 1 0 0
-15.741805 4.301114 -4.415959 16.905760 -0.266719 1.835072 0.023563 0.000682 16275.400000 1 0 0
-18.704905 -2.068086 -6.337659 19.857401 0.110117 1.895638 0.031900 -0.004528 383016.000000 1 0 0
-10.954105 8.553814 -5.978659 15.129591 -0.662972 1.977042 0.006772 -0.001226 1364780.000000 1 0 0
-11.362805 13.612814 -6.831759 19.002499 -0.875244 1.938549 0.027240 -0.007156 191889.000000 1 0 0
-9.598705 10.487714 -4.554859 14.928966 -0.829629 1.880842 -0.005912 0.000045 97620.400000 1 0 0
-11.066005 6.330014 -0.244459 12.750895 -0.519594 1.589969 -0.000685 -0.000545 -579086.000000 1 0 0
-14.741505 9.188914 -1.296559 17.419219 -0.557402 1.645298 0.031321 -0.001077 449871.000000 1 0 0
-18.696205 3.335114 4.690441 19.561987 -0.176528 1.328664 0.056752 -0.009537 466646.000000 1 0 0
-14.803005 13.125014 0.422041 19.788206 -0.725388 1.549467 0.034228 -0.005485 202983.000000 1 0 0
-17.068305 2.549214 -9.212259 19.562496 -0.148258 2.061123 0.049383 -0.012392 175182.000000 1 0 0
-9.155405 8.521114 -8.908559 15.355561 -0.749530 2.189712 0.008704 -0.005282 -2050700.000000 1 0 0
-17.664905 4.549114 -2.723259 18.443412 -0.252046 1.718993 0.026746 -0.003231 1306380.000000 1 0 0
-13.581905 5.895614 -4.555459 15.491243 -0.409535 1.869275 0.011284 0.001211 -375777.000000 1 0 0
-12.211005 9.638014 3.263441 15.894969 -0.668176 1.364013 0.005539 -0.006416 532660.000000 1 0 0
-17.571505 2.348214 -4.172659 18.212166 -0.132851 1.801963 0.032698 -0.001312 1004530.000000 1 0 0
-11.299205 1.392014 -12.631359 17.004734 -0.122578 2.408060 0.026411 -0.008829 47258.900000 1 0 0
-11.235005 12.048514 3.396541 16.820480 -0.820323 1.367469 0.012953 -0.011677 -191116.000000 1 0 0
-16.481905 12.795614 -4.032159 21.251806 -0.660149 1.761686 0.060272 -0.012116 261658.000000 1 0 0
-11.137505 4.104814 -4.581459 12.723336 -0.353111 1.939153 -0.002863 -0.000986 20455.600000 1 0 0
-11.372205 14.980714 -9.050159 20.872332 -0.921482 2.019276 0.049890 -0.020974 344806.000000 1 0 0
-15.612205 7.017114 -0.242259 17.118398 -0.422408 1.584949 0.028380 -0.000623 -486468.000000 1 0 0
-12.929705 8.451314 -4.135159 15.990670 -0.578927 1.832367 0.006436 0.003330 838173.000000 1 0 0
-19.239705 1.869014 -6.036959 20.251033 -0.096840 1.873504 0.049777 -0.006351 -5718.030000 1 0 0
-12.655705 10.019514 -8.896259 18.430978 -0.669659 2.074508 0.019547 -0.012629 656116.000000 1 0 0
-16.861005 10.811114 -1.029159 20.055744 -0.570157 1.622134 0.055751 -0.005664 1169890.000000 1 0 0
-10.737405 6.451814 -14.539659 19.191651 -0.541061 2.430430 0.023890 -0.019233 -330607.000000 1 0 0
-13.891705 12.910014 -4.446059 19.478588 -0.748787 1.801080 0.041992 -0.006749 -426199.000000 1 0 0
-18.243505 7.504814 -0.112159 19.727146 -0.390269 1.576482 0.066906 -0.007353 164295.000000 1 0 0
-12.765405 6.612314 -2.154059 14.536789 -0.477933 1.719524 0.000630 0.002018 869076.000000 1 0 0
-13.749905 8.534514 -10.589459 19.339971 -0.555498 2.150221 0.026626 -0.010126 -844282.000000 1 0 0
-14.959605 1.437514 -1.055959 15.065566 -0.095799 1.640945 0.009632 -0.003855 -1184760.000000 1 0 0
-13.326005 2.765814 -2.499059 13.837537 -0.204645 1.752393 -0.001044 -0.002038 -540560.000000 1 0 0
-11.256005 9.228414 -10.913459 18.192440 -0.686737 2.214160 0.015756 -0.013490 -742395.000000 1 0 0
-15.497305 4.314314 -8.204859 18.058225 -0.271516 2.042445 0.035374 -0.010895 797155.000000 1 0 0
-18.415505 10.289614 4.562841 21.583015 -0.509534 1.357780 0.076236 -0.022957 320044.000000 1 0 0
-15.475505 6.022114 -6.300259 17.760923 -0.371108 1.933417 0.030215 0.000266 771578.000000 1 0 0
-7.716205 11.146014 -12.705959 18.579958 -0.965268 2.323827 0.004002 -0.018129 -1401530.000000 1 0 0
-16.861105 9.023914 -2.862959 19.337126 -0.491403 1.719398 0.047614 -0.007152 953988.000000 1 0 0
-20.655505 -1.058186 -4.905659 21.256414 0.051185 1.803681 0.056064 -0.008173 120102.000000 1 0 0
-15.298305 4.260614 4.153041 16.414589 -0.271619 1.315007 0.015142 -0.006156 102135.000000 1 0 0
-6.982905 12.628414 -9.514959 17.285030 -1.065690 2.153728 0.008527 -0.010492 -1161420.000000 1 0 0
-17.141805 1.572414 5.717941 18.138601 -0.091474 1.250091 0.042322 -0.011588 234673.000000 1 0 0
-10.379805 14.107014 -2.982259 17.766319 -0.936452 1.739455 0.029505 -0.014333 -523306.000000 1 0 0
-10.047205 8.371714 -13.005359 18.443733 -0.694682 2.353413 0.002090 -0.010794 -200624.000000 1 0 0
-13.777605 11.670814 2.789741 18.270549 -0.702800 1.417506 0.027235 -0.011522 -164421.000000 1 0 0
-16.918805 6.456214 1.889341 18.207094 -0.364544 1.466840 0.024878 -0.002076 1181400.000000 1 0 0
-9.390205 13.354814 -8.379559 18.350587 -0.957971 2.045008 0.026430 -0.017811 -749927.000000 1 0 0
-5.590305 9.762214 -12.820959 17.056650 -1.050732 2.421386 0.003405 -0.011054 -949121.000000 1 0 0
-15.753205 1.765914 2.987641 16.130962 -0.111633 1.384509 0.013807 -0.003689 -817646.000000 1 0 0
-18.682505 -5.017686 4.608241 19.885901 0.262385 1.336936 0.067400 -0.008488 428366.000000 1 0 0
-5.248805 14.471114 -9.343459 18.007313 -1.222845 2.116325 0.008251 -0.005191 -328714.000000 1 0 0
-15.375505 -0.850386 -6.964259 16.900598 0.055252 1.995523 0.017069 -0.004540 728158.000000 1 0 0
-8.941905 11.039614 -9.559759 17.123660 -0.889997 2.163105 0.006955 -0.014351 501664.000000 1 0 0
-16.698605 1.165114 -6.258559 17.870939 -0.069660 1.928590 0.022107 -0.004651 -116032.000000 1 0 0
-11.277305 8.752314 -1.478159 14.351501 -0.659997 1.673976 0.000678 0.000434 -260896.000000 1 0 0
-10.917305 10.889214 -13.009359 20.174389 -0.784110 2.271617 0.030748 -0.008648 -211619.000000 1 0 0
-13.633105 11.753714 -10.649159 20.914491 -0.711503 2.105024 0.032211 -0.014339 -143787.000000 1 0 0
-13.216505 5.619514 -7.724559 16.307169 -0.402031 2.064273 0.017907 -0.001626 349504.000000 1 0 0
-9.030605 15.378714 -4.873459 18.488031 -1.039831 1.837549 0.029714 -0.010759 364693.000000 1 0 0
-8.651205 6.150914 -12.992459 16.777398 -0.618063 2.456566 0.004442 -0.010855 209744.000000 1 0 0
-16.500105 7.266214 4.200341 18.512002 -0.414820 1.341905 0.034794 -0.010359 -456157.000000 1 0 0
-12.682905 5.442714 -10.202959 17.163321 -0.405370 2.207394 0.021826 -0.010369 420719.000000 1 0 0
-12.541105 8.864814 -13.212759 20.259350 -0.615316 2.281254 0.052441 -0.024241 -679588.000000 1 0 0
-10.817905 5.147114 -8.465959 14.669435 -0.444097 2.185989 0.003136 -0.005046 -551364.000000 1 0 0
-17.643705 -4.468586 -2.476259 18.368463 0.248052 1.706018 0.014729 -0.002086 250706.000000 1 0 0
-9.103305 13.138614 -10.959959 19.380765 -0.964874 2.171844 0.032736 -0.021096 -1895.080000 1 0 0
-15.142205 6.047014 6.057141 17.393727 -0.379944 1.215106 0.017958 -0.014253 -864565.000000 1 0 0
-16.414805 -3.197286 -4.519059 17.323116 0.192372 1.834718 0.014917 -0.001853 -1119520.000000 1 0 0
-11.146705 -1.236286 -12.555759 16.835216 0.110459 2.412536 0.027589 -0.008748 112486.000000 1 0 0
-15.350405 6.910714 -8.679859 18.940245 -0.423018 2.046851 0.027385 -0.003216 -51412.500000 1 0 0
-15.028905 9.120814 1.332941 17.630485 -0.545466 1.495120 0.033421 -0.008574 -296368.000000 1 0 0
-19.580005 5.442614 7.704041 21.733636 -0.271123 1.208443 0.071430 -0.021219 1607280.000000 1 0 0
-16.229805 0.310014 0.850941 16.255054 -0.019099 1.518423 0.023481 -0.004158 -749255.000000 1 0 0
-17.540605 3.849414 6.991541 19.271027 -0.216033 1.199525 0.038141 -0.008577 680683.000000 1 0 0
-15.379705 4.016914 -1.483559 15.964707 -0.255476 1.663858 0.012729 -0.002352 -901764.000000 1 0 0
-10.866405 13.242114 0.440941 17.135542 -0.883623 1.545061 0.025568 -0.015251 -431452.000000 1 0 0
-13.429905 3.376514 -0.006359 13.847861 -0.246312 1.571255 0.005512 -0.002911 -620500.000000 1 0 0
-15.034105 0.065614 -4.454559 15.680297 -0.004364 1.858850 0.009398 -0.001611 -1196250.000000 1 0 0
-19.004805 6.695414 3.507341 20.452693 -0.338723 1.398459 0.046194 -0.010897 -115953.000000 1 0 0
-14.153905 1.368914 -6.461259 15.619053 -0.096416 1.997287 0.015065 -0.001850 -2973420.000000 1 0 0
-14.643205 11.823614 5.360841 19.569362 -0.679265 1.293308 0.023600 -0.016688 393782.000000 1 0 0
17.687795 5.547914 6.110641 19.518642 0.303939 1.252376 0.050673 -0.013049 -383260.000000 1 0 0
18.510695 7.254714 -0.245259 19.883080 0.373522 1.583132 0.053443 -0.009606 469193.000000 1 0 0
16.604795 5.302414 8.470341 19.379925 0.309095 1.118460 0.055411 -0.006789 338258.000000 1 0 0
11.702695 12.398414 10.930241 20.252010 0.814257 1.000702 0.041293 -0.013218 648759.000000 1 0 0
-2.480005 16.301414 -0.624959 16.500822 -1.419820 1.608680 -0.000385 -0.000756 144012.000000 1 0 0
14.948695 12.727114 3.356741 19.917596 0.705298 1.401457 0.045275 -0.013481 345616.000000 1 0 0
13.448195 11.778414 6.622741 19.064252 0.719303 1.216009 0.042263 -0.010163 842166.000000 1 0 0
-0.753705 15.918714 8.603141 18.110428 -1.523485 1.075789 0.004632 0.005220 -3233.340000 1 0 0
0.702895 12.923114 9.361841 15.973260 1.516459 0.944566 0.000886 0.001498 -948081.000000 1 0 0
0.526195 15.384014 -3.900859 15.879593 1.536606 1.818989 0.003975 -0.002356 543728.000000 1 0 0
5.402095 10.298014 13.480341 17.803127 1.087682 0.711797 0.010535 -0.006052 -26070.100000 1 0 0
-1.514805 16.474814 -2.890459 16.794907 -1.479107 1.743761 -0.001176 0.001309 -1349910.000000 1 0 0
8.468495 10.054514 3.365141 13.569556 0.870814 1.320189 0.007111 -0.000150 449381.000000 1 0 0
12.607895 13.649414 -4.762759 19.182007 0.825043 1.821714 0.071631 -0.023123 599170.000000 1 0 0
2.460095 11.608014 7.701841 14.146251 1.361956 0.995070 0.003109 0.001862 728997.000000 1 0 0
-0.294205 14.771014 -8.605559 17.097516 -1.550881 2.098235 0.003602 -0.002871 -1026110.000000 1 0 0
2.307595 15.921414 0.216841 16.089234 1.426862 1.557318 0.015695 -0.008789 -433532.000000 1 0 0
1.877195 13.426714 5.295041 14.554655 1.431886 1.198448 0.003321 0.000487 176469.000000 1 0 0
17.762195 9.069514 -1.854459 20.029745 0.472098 1.663514 0.054039 -0.009961 886326.000000 1 0 0
-7.267805 14.861514 7.223641 18.051776 -1.115959 1.159102 0.014079 -0.015197 -1551420.000000 1 0 0
8.562195 15.934514 -0.083759 18.089415 1.077728 1.575427 0.025169 -0.017236 -882501.000000 1 0 0
15.625795 10.511314 1.947441 18.932663 0.592161 1.467753 0.037848 -0.008343 -740150.000000 1 0 0
14.164695 7.562014 8.716241 18.270071 0.490370 1.073470 0.040493 -0.007942 -773046.000000 1 0 0
3.861195 18.610714 -1.841759 19.096062 1.366227 1.667394 0.023416 -0.018459 -779176.000000 1 0 0
-0.527205 17.549114 -4.985759 18.251223 -1.540764 1.847487 0.006531 -0.000679 -158453.000000 1 0 0
1.304395 13.756714 -0.758459 13.839216 1.476260 1.625629 0.006066 -0.003110 -540701.000000 1 0 0
10.322695 14.755314 4.144041 18.478377 0.960344 1.344608 0.033528 -0.018820 207260.000000 1 0 0
-1.736105 15.230614 -5.221959 16.194275 -1.457298 1.899120 0.002815 0.001314 114247.000000 1 0 0
15.096695 8.787814 -6.229059 18.545540 0.527155 1.913335 0.033401 -0.007100 -78974.400000 1 0 0
-2.377005 18.507314 1.022541 18.687334 -1.443060 1.516051 0.009726 -0.008686 -1386350.000000 1 0 0
-3.692205 19.388814 3.516441 20.048039 -1.382620 1.394483 0.009972 -0.015718 37786.900000 1 0 0
1.607695 17.634714 -2.681259 17.909690 1.479881 1.721071 0.010654 -0.012531 -241041.000000 1 0 0
2.776695 12.271514 3.270341 12.999817 1.348272 1.316496 0.002501 0.000241 766027.000000 1 0 0
-2.684805 16.147714 1.899241 16.479198 -1.406038 1.455289 0.006974 -0.006371 -1672900.000000 1 0 0
11.737795 12.821314 -2.538359 17.567162 0.829488 1.715798 0.031752 -0.007338 319398.000000 1 0 0
7.067795 11.734014 4.752341 14.499157 1.028662 1.236858 0.005723 -0.000157 572708.000000 1 0 0
7.013795 15.631214 1.953641 17.243692 1.149020 1.457257 0.015105 -0.015814 528254.000000 1 0 0
5.575695 12.216114 10.349941 16.954147 1.142615 0.914147 0.007015 0.004579 761139.000000 1 0 0
-1.463605 14.196414 3.109241 14.606427 -1.468062 1.356287 0.003100 -0.000308 -793087.000000 1 0 0
4.479195 15.967014 1.552041 16.655857 1.297298 1.477478 0.011662 -0.017004 -2986110.000000 1 0 0
7.335595 13.269514 11.925941 19.290387 1.065794 0.904305 0.014210 0.001048 363923.000000 1 0 0
0.662195 17.057814 -9.537459 19.554300 1.531995 2.080298 0.007102 -0.000061 71216.000000 1 0 0
9.780595 9.710414 15.447941 20.702441 0.781798 0.728477 0.029708 0.002280 -360434.000000 1 0 0
13.480095 7.449714 -0.107759 15.402039 0.504872 1.577793 0.010752 0.000012 -303740.000000 1 0 0
12.252595 13.807614 -0.067159 18.460249 0.844998 1.574434 0.042864 -0.012601 408782.000000 1 0 0
9.318595 12.371414 3.376941 15.852187 0.925227 1.356124 0.014320 -0.002318 267349.000000 1 0 0
-0.713405 12.909114 0.730541 12.949435 -1.515589 1.514351 0.006275 -0.001629 -617466.000000 1 0 0
15.954795 7.275214 -0.939759 17.560392 0.427823 1.624338 0.028319 -0.001361 91382.500000 1 0 0
-4.292505 18.457414 -2.319159 19.091366 -1.342295 1.692574 0.018418 -0.010003 62727.000000 1 0 0
11.645395 9.272414 -3.163259 15.218380 0.672438 1.780181 0.022415 -0.002222 -204103.000000 1 0 0
14.743495 9.815314 7.664341 19.299046 0.587360 1.162402 0.044696 -0.017958 -338488.000000 1 0 0
4.469395 13.800514 4.629541 15.227027 1.257598 1.261872 0.008773 -0.001714 422880.000000 1 0 0
2.176095 15.989014 5.690641 17.110446 1.435528 1.231755 0.006593 -0.000807 317554.000000 1 0 0
6.129995 18.550314 5.260441 20.232727 1.251641 1.307778 0.025993 -0.019094 -173149.000000 1 0 0
10.717795 17.216314 -0.598659 20.288691 1.013970 1.600308 0.060373 -0.026203 -918401.000000 1 0 0
10.004095 13.553614 -4.356559 17.400057 0.934947 1.823865 0.049553 -0.012670 -138545.000000 1 0 0
16.519095 7.993414 2.050741 18.465663 0.450676 1.459510 0.021920 -0.009629 -100013.000000 1 0 0
3.947195 14.059014 -0.606859 14.615215 1.297084 1.612331 0.012922 -0.006008 -337965.000000 1 0 0
5.585095 13.139714 -2.316059 14.464076 1.168880 1.731613 0.011077 -0.004530 -586200.000000 1 0 0
-6.306505 16.970114 -2.954259 18.343512 -1.214989 1.732553 0.023058 -0.000966 -2680160.000000 1 0 0
18.051795 10.080614 2.226141 20.795235 0.509290 1.463540 0.046938 -0.017102 -757377.000000 1 0 0
7.878395 12.921014 9.367541 17.798105 1.023249 1.016527 0.016811 -0.004433 781352.000000 1 0 0
-2.659305 15.802114 6.704741 17.370443 -1.404071 1.174520 0.002767 -0.002683 1434140.000000 1 0 0
11.267095 16.068814 6.181941 20.575972 0.959280 1.265637 0.038487 -0.012063 93893.700000 1 0 0
13.495295 12.023214 1.256841 18.117956 0.727775 1.501371 0.042058 -0.005902 -450102.000000 1 0 0
17.326295 8.018314 -5.279759 19.808324 0.433433 1.840600 0.037257 0.005376 -850069.000000 1 0 0
9.560995 9.256314 7.979541 15.516606 0.769208 1.030654 0.010617 -0.001490 -733949.000000 1 0 0
-2.176905 14.198114 -2.010859 14.504100 -1.418658 1.709885 -0.001015 0.001794 508628.000000 1 0 0
10.900995 11.686614 0.697441 15.996721 0.820165 1.527183 0.019920 0.001227 596478.000000 1 0 0
11.673495 9.829814 -0.553759 15.270965 0.699868 1.607066 0.016106 -0.000076 -2092130.000000 1 0 0
-0.351805 16.168214 11.200941 19.672214 -1.549041 0.965046 0.010157 0.001921 368133.000000 1 0 0
1.745995 20.108214 -1.697259 20.255110 1.484184 1.654689 0.032693 -0.024542 -678827.000000 1 0 0
9.237395 14.389414 1.778241 17.191476 1.000096 1.467174 0.022826 -0.011206 -846319.000000 1 0 0
8.442695 11.769614 -5.172559 15.380451 0.948534 1.913789 0.017005 -0.001440 -1166420.000000 1 0 0
10.588995 10.000914 10.233441 17.800798 0.756844 0.958331 0.017020 -0.008510 -121644.000000 1 0 0
-5.208705 15.792714 5.889341 17.641564 -1.252214 1.230429 0.000158 -0.005870 1003370.000000 1 0 0
14.479795 9.147414 -1.790559 17.220504 0.563429 1.674963 0.037790 -0.000925 47952.300000 1 0 0
12.187395 9.522214 6.893341 16.932906 0.663244 1.151522 0.015470 -0.008441 -686393.000000 1 0 0
3.226195 12.964514 9.697541 16.508461 1.326902 0.942919 0.005764 0.000904 -403979.000000 1 0 0
8.475995 12.609914 -2.562559 15.408411 0.978994 1.737882 0.022001 -0.004756 -782774.000000 1 0 0
9.401995 17.004214 2.142941 19.548223 1.065713 1.460952 0.022272 -0.017319 130729.000000 1 0 0
9.638795 14.585914 -7.545759 19.041894 0.986846 1.978249 0.055370 -0.013707 613400.000000 1 0 0
6.351895 11.485714 7.394041 15.064530 1.065633 1.057760 0.001296 0.001612 -1109910.000000 1 0 0
5.414895 16.920214 -5.510259 18.600476 1.261071 1.871553 0.037124 -0.008418 -1773670.000000 1 0 0
-4.245705 17.343214 -4.741759 18.474235 -1.330713 1.830370 0.014160 0.001617 689789.000000 1 0 0
-0.207505 18.275414 -0.293959 18.278956 -1.559442 1.586879 0.014517 -0.021988 -369504.000000 1 0 0
6.625795 15.592014 -2.699559 17.155165 1.168970 1.728814 0.022359 -0.009906 822904.000000 1 0 0
-0.789605 20.651514 0.686841 20.678014 -1.532580 1.537574 0.025911 -0.019537 -15270.600000 1 0 0
-1.338205 18.790114 4.384741 19.341281 -1.499698 1.342104 0.009227 -0.010502 129979.000000 1 0 0
7.219395 13.790714 -4.364259 16.166330 1.088528 1.844148 0.023274 -0.003717 -77540.100000 1 0 0
-1.060005 11.980514 7.726341 14.295198 -1.482549 0.999783 0.000124 0.003431 630752.000000 1 0 0
7.840195 10.864514 10.880241 17.259374 0.945698 0.888733 0.005814 -0.003421 -18948.600000 1 0 0
1.513995 15.957514 -7.281259 17.605430 1.476203 1.997179 0.004862 -0.004424 319426.000000 1 0 0
8.942295 7.245414 14.851841 18.789302 0.680954 0.659267 0.017128 0.006032 -44284.500000 1 0 0
11.304395 11.355014 -4.807059 16.728225 0.787632 1.862268 0.044383 -0.008058 -299283.000000 1 0 0
-3.463105 17.070714 4.564441 18.006569 -1.370644 1.314512 0.009631 -0.005894 144604.000000 1 0 0
3.958495 15.299814 -6.674159 17.155127 1.317620 1.970394 0.025422 -0.010838 -327396.000000 1 0 0
-4.519505 13.977814 9.498241 17.493479 -1.258072 0.996840 0.013538 -0.007980 -167647.000000 1 0 0
6.134295 17.762514 0.443241 18.797153 1.238270 1.547214 0.017850 -0.023569 -72965.500000 1 0 0
9.759795 10.676214 -2.120259 14.619530 0.830212 1.716339 0.021353 -0.002393 -501584.000000 1 0 0
7.001795 18.180614 -2.756159 19.676287 1.203179 1.711334 0.031729 -0.015380 238941.000000 1 0 0
3.598995 10.416514 10.320941 15.098953 1.238128 0.818176 -0.000751 0.001410 939667.000000 1 0 0
0.020495 18.720014 2.182641 18.846838 1.569702 1.454726 0.014454 -0.014128 496.356000 1 0 0
-0.974005 16.966414 -7.464259 18.561332 -1.513451 1.984650 0.009096 -0.000577 -3123.450000 1 0 0
9.975695 8.813914 13.021041 18.621146 0.723646 0.796433 0.020657 -0.001076 -115231.000000 1 0 0
3.726495 11.488214 5.495741 13.269100 1.257129 1.143759 -0.000392 0.001647 669629.000000 1 0 0
13.125595 13.815314 8.130541 20.718346 0.810994 1.167522 0.048286 -0.023597 -66867.800000 1 0 0
-0.482605 17.375714 6.673041 18.619287 -1.543029 1.204249 0.004141 -0.005306 -600967.000000 1 0 0
12.142295 13.617114 5.713541 19.118203 0.842589 1.267305 0.033988 -0.014056 -406457.000000 1 0 0
4.746495 14.660314 -4.286559 15.994643 1.257682 1.842112 0.015875 -0.003890 -930975.000000 1 0 0
3.797695 17.616914 4.544141 18.585677 1.358475 1.323795 0.018168 -0.010611 938039.000000 1 0 0
6.940595 11.535514 2.096841 13.624856 1.029148 1.416284 0.011879 -0.001795 935708.000000 1 0 0
6.534095 8.705514 11.791841 16.047676 0.926931 0.745424 0.004592 0.001443 442270.000000 1 0 0
-5.531805 14.876614 1.788141 15.972225 -1.214794 1.458608 0.003828 0.000044 54939.800000 1 0 0
6.681695 13.815914 6.157741 16.536091 1.120336 1.189222 0.011702 -0.007720 -1265400.000000 1 0 0
5.889095 15.902814 4.887441 17.648457 1.216137 1.290195 0.012552 -0.013438 631610.000000 1 0 0
1.183795 17.920414 4.365741 18.482487 1.504834 1.332333 0.016739 -0.010586 -220801.000000 1 0 0
7.340895 17.973914 -7.000859 20.638856 1.183053 1.916871 0.040564 -0.017108 501314.000000 1 0 0
-2.478305 18.774214 -6.149159 19.910431 -1.439549 1.884771 0.016173 -0.001426 -909222.000000 1 0 0
13.545195 10.092614 -4.516959 17.485310 0.640362 1.832088 0.034383 -0.005951 683146.000000 1 0 0
-1.643705 18.034914 9.848141 20.614213 -1.479907 1.072721 0.011849 0.001269 -280435.000000 1 0 0
3.315095 11.841014 -1.617959 12.402309 1.297818 1.701625 0.009979 -0.004404 635779.000000 1 0 0
4.349195 13.901614 -10.880459 18.181165 1.267588 2.212357 0.014175 -0.019633 -258229.000000 1 0 0
11.452395 13.423014 2.362441 17.802129 0.864453 1.437698 0.033537 -0.014083 -370168.000000 1 0 0
16.137495 6.499914 -7.060659 18.775530 0.382904 1.956333 0.021230 0.002839 301430.000000 1 0 0
2.399795 15.984614 2.986841 16.437401 1.421778 1.388071 0.012268 -0.010026 -174966.000000 1 0 0
13.458395 10.711414 3.457641 17.544745 0.672230 1.372422 0.030086 -0.002772 -268011.000000 1 0 0
-4.969305 19.443914 -5.928859 20.926327 -1.320581 1.858051 0.013669 -0.013374 55082.300000 1 0 0
5.391395 12.036714 0.073641 13.189202 1.149680 1.565213 0.011001 -0.003014 678570.000000 1 0 0
4.197795 15.658414 9.575641 18.828179 1.308870 1.037261 0.008980 0.007886 92108.200000 1 0 0
7.702995 9.465314 14.092341 18.641953 0.887689 0.713696 0.005905 0.002501 -1749860.000000 1 0 0
-5.018405 13.620914 6.967041 16.101347 -1.217795 1.123312 0.000194 -0.003392 -961007.000000 1 0 0
-4.668305 17.206914 0.744241 17.844463 -1.305869 1.529077 0.012995 -0.001530 17126.600000 1 0 0
-0.680205 16.518714 3.458241 16.890531 -1.529642 1.364594 0.007435 -0.007815 -1344270.000000 1 0 0
7.854295 16.752614 -4.722959 19.095716 1.132386 1.820721 0.037917 -0.018539 1279260.000000 1 0 0
2.933195 16.406414 -4.491759 17.261227 1.393882 1.834049 0.013603 -0.007411 109316.000000 1 0 0
9.421695 14.509414 8.094141 19.099910 0.994878 1.133183 0.023623 -0.008393 180064.000000 1 0 0
12.753395 10.832314 9.066041 19.031059 0.704127 1.074262 0.039587 -0.021239 2214350.000000 1 0 0
3.617395 12.328314 12.149841 17.683086 1.285386 0.813322 0.008857 -0.002215 734741.000000 1 0 0
-3.374105 19.187014 6.072741 20.405987 -1.396723 1.268623 0.016147 -0.006033 -42711.500000 1 0 0
-2.755205 15.730214 10.189141 18.943321 -1.397402 1.002882 0.008531 -0.001394 -688753.000000 1 0 0
1.992695 14.248814 7.667841 16.303231 1.431848 1.081136 0.007099 -0.001991 -267241.000000 1 0 0
4.626195 17.362514 7.735441 19.562608 1.310399 1.164272 0.033212 -0.008833 79061.400000 1 0 0
-1.933805 13.476914 9.337241 16.509116 -1.428279 0.969659 0.004283 -0.000264 -828508.000000 1 0 0
5.797595 17.674614 2.933141 18.831023 1.253837 1.414398 0.010384 -0.022164 500577.000000 1 0 0
7.138995 15.355014 -6.881959 18.278486 1.135597 1.956818 0.027982 -0.010462 -301055.000000 1 0 0
11.022295 7.627514 9.461541 16.407033 0.605342 0.956142 0.011577 -0.004888 617400.000000 1 0 0
9.063995 16.740414 -2.436659 19.192050 1.074546 1.698102 0.043782 -0.007756 -154508.000000 1 0 0
14.633195 11.398214 -6.554459 19.672585 0.661760 1.910468 0.075512 -0.010531 374542.000000 1 0 0
11.142095 6.539014 16.053341 20.606182 0.530713 0.677640 0.048660 -0.004229 133379.000000 1 0 0
8.521395 8.483614 10.238241 15.792640 0.783176 0.865457 0.002636 -0.001933 -386457.000000 1 0 0
16.421095 9.548114 4.207741 19.455691 0.526671 1.352801 0.044336 -0.013619 79867.300000 1 0 0
-3.509605 14.332614 4.623041 15.463301 -1.330653 1.267185 0.001983 -0.001499 -1494530.000000 1 0 0
4.713095 14.713114 12.675841 19.984143 1.260791 0.883700 0.016094 0.000906 -476091.000000 1 0 0
16.019595 10.567514 -4.517859 19.715751 0.583137 1.802000 0.056737 -0.019725 84300.300000 1 0 0
14.763195 13.879114 6.226241 21.197826 0.754542 1.272679 0.049928 -0.017509 -499155.000000 1 0 0
6.246095 9.572114 9.313341 14.743724 0.992644 0.887076 0.000244 0.001962 259138.000000 1 0 0
10.426595 12.205114 8.701841 18.259265 0.863822 1.074046 0.026226 -0.010028 -23988.000000 1 0 0
7.885095 11.429314 -0.308559 13.888814 0.966880 1.593014 0.008015 -0.002008 -923104.000000 1 0 0
7.373795 13.607814 -8.721059 17.765200 1.074209 2.083927 0.032628 -0.012246 -443615.000000 1 0 0
2.549095 15.276714 -2.290259 15.656346 1.405458 1.717606 0.012604 -0.006519 249168.000000 1 0 0
12.191495 13.855814 -7.537359 19.935594 0.849207 1.958524 0.070024 -0.026786 1468310.000000 1 0 0
-8.097605 14.531314 9.658641 19.235895 -1.062402 1.044753 0.031301 -0.017810 229485.000000 1 0 0
11.439895 9.701214 2.213841 15.161987 0.703341 1.424260 0.022865 -0.000544 -1771670.000000 1 0 0
12.168595 8.699614 4.488341 15.617400 0.620672 1.279292 0.014646 -0.000618 328382.000000 1 0 0
14.032995 7.969114 6.125741 17.261415 0.516470 1.208010 0.026503 -0.007898 -2976880.000000 1 0 0
16.234595 7.485814 7.159641 19.257724 0.432048 1.189870 0.056505 -0.013623 -607105.000000 1 0 0
13.593595 8.346414 2.285841 16.114389 0.550647 1.428465 0.018365 -0.002009 -1946140.000000 1 0 0
-4.173505 17.263614 -7.303159 19.203819 -1.333596 1.960914 0.018407 -0.016408 -43015.700000 1 0 0
2.726095 19.547914 -4.057259 20.149787 1.432233 1.773537 0.022241 -0.015193 416775.000000 1 0 0
-0.158005 14.882814 6.231641 16.135566 -1.560180 1.174282 0.005919 -0.000413 1277080.000000 1 0 0
6.602295 15.940814 8.461741 19.217204 1.178130 1.114840 0.024989 -0.009974 -808809.000000 1 0 0
12.758895 15.296614 -2.085559 20.028114 0.875606 1.675117 0.077334 -0.024383 102826.000000 1 0 0
12.760895 15.606014 4.008441 20.553728 0.885361 1.374516 0.054687 -0.023030 784570.000000 1 0 0
2.835295 18.022814 1.408841 18.298786 1.414758 1.493729 0.024505 -0.020375 -327748.000000 1 0 0
10.316395 14.686914 -1.452959 18.006792 0.958447 1.651574 0.039085 -0.008760 -1766750.000000 1 0 0
-6.343505 15.773214 -0.630659 17.012704 -1.188421 1.607875 0.008201 -0.003279 53687.000000 1 0 0
-4.058005 15.913214 -2.619259 16.630043 -1.321109 1.728957 0.011260 -0.000099 -1662000.000000 1 0 0
-7.063405 16.963914 1.580741 18.443558 -1.176251 1.484984 0.019762 -0.013160 -299106.000000 1 0 0
-0.011405 19.288414 -6.965059 20.507440 -1.570205 1.917326 0.021877 -0.003359 -171623.000000 1 0 0
4.672595 14.895414 7.023441 17.118272 1.266825 1.148025 0.014620 -0.006828 -1260200.000000 1 0 0
8.627795 12.386614 6.873841 16.586644 0.962395 1.143491 0.015959 -0.007742 -830546.000000 1 0 0
-7.745305 17.483414 -5.485559 19.893489 -1.153772 1.850162 0.045097 -0.018053 228193.000000 1 0 0
-8.146905 17.594514 -1.297459 19.432509 -1.137154 1.637613 0.050357 -0.019618 85696.500000 1 0 0
-13.708205 -9.136986 9.274541 18.905463 0.587911 1.058047 0.051964 -0.021787 -194108.000000 1 0 0
-12.612205 -12.845486 7.773841 19.608846 0.794561 1.163154 0.048534 -0.015468 290716.000000 1 0 0
-3.916805 -15.008086 12.503041 19.922601 1.315511 0.892354 0.028640 -0.022823 714425.000000 1 0 0
-2.126605 -14.295486 14.794341 20.682260 1.423119 0.773721 0.036484 -0.016964 -1325370.000000 1 0 0
-7.430805 -13.645186 12.631541 20.024080 1.072129 0.888190 0.047620 -0.026093 -540897.000000 1 0 0
-9.902305 -11.519986 9.004941 17.659408 0.860769 1.035701 0.034597 -0.015082 547278.000000 1 0 0
-10.693305 -10.733886 11.347841 18.929780 0.787292 0.927957 0.061327 -0.021576 277620.000000 1 0 0
-6.172905 -12.226086 10.844541 17.469574 1.103239 0.901075 0.028647 -0.014647 688443.000000 1 0 0
-12.493505 -10.354586 7.292641 17.790102 0.692055 1.148422 0.027100 -0.010032 -64.947400 1 0 0
-7.745105 -11.074986 12.599541 18.476753 0.960518 0.820421 0.031275 -0.022265 -200576.000000 1 0 0
-14.916905 -11.587686 7.472241 20.313122 0.660443 1.194097 0.059573 -0.010600 540506.000000 1 0 0
-11.168005 -9.194786 9.197441 17.142385 0.688797 1.004474 0.034475 -0.010136 -1376270.000000 1 0 0
-5.467205 -12.084386 13.290341 18.776472 1.145933 0.784391 0.034599 -0.020306 -785259.000000 1 0 0
3.731795 -12.386786 14.543241 19.464445 -1.278173 0.727003 0.001444 -0.004076 857544.000000 1 0 0
6.350595 -12.781586 14.437341 20.301128 -1.109668 0.779650 0.014675 0.003189 30307.200000 1 0 0
6.399295 -8.738686 16.216641 19.501155 -0.938723 0.588862 0.000648 0.005699 -85494.500000 1 0 0
0.768895 -1.727386 14.449041 14.572229 -1.152008 0.130119 0.004779 -0.002622 -1293610.000000 1 0 0
-0.184505 -6.400186 15.616741 16.878360 1.541976 0.389096 0.002398 -0.007476 -659010.000000 1 0 0
-1.429605 -4.746886 18.196941 18.860153 1.278269 0.265980 0.024404 -0.032263 -1504330.000000 1 0 0
-5.173105 12.618414 12.753041 18.671515 -1.181729 0.818905 0.024521 -0.012165 -1526230.000000 1 0 0
-4.128905 8.774214 11.640141 15.150168 -1.130967 0.694588 0.005505 -0.002296 -219124.000000 1 0 0
-0.544705 -3.904886 15.170941 15.674894 1.432197 0.254260 0.005942 -0.004037 93983.600000 1 0 0
-4.379805 9.271014 14.183541 17.501636 -1.129456 0.625941 0.013264 -0.002331 247943.000000 1 0 0
-13.558905 -2.586086 16.777741 21.726122 0.188466 0.688440 0.038747 -0.006082 -494909.000000 1 0 0
-0.111705 0.717014 17.314741 17.329941 -1.416246 0.041886 0.006661 -0.004558 688933.000000 1 0 0
-3.196805 -7.233986 15.480541 17.383822 1.154686 0.472322 0.023551 -0.015239 217057.000000 1 0 0
-7.493005 5.697414 12.600441 15.728216 -0.650101 0.641605 0.003121 0.001856 -1245050.000000 1 0 0
-9.876005 10.295914 13.361641 19.546734 -0.806212 0.818148 0.028540 -0.014274 668110.000000 1 0 0
-5.502605 2.269314 11.104441 12.599090 -0.391156 0.492045 0.003090 0.003835 -2313990.000000 1 0 0
-7.091805 -7.432686 17.091941 19.941740 0.808863 0.541195 0.041946 -0.022146 -416393.000000 1 0 0
-4.745605 2.683814 18.638741 19.419740 -0.514693 0.284567 0.020026 -0.000244 -225326.000000 1 0 0
1.019895 -8.401186 16.501641 18.545195 -1.449989 0.473875 -0.000653 -0.007128 505394.000000 1 0 0
-15.168405 -3.668686 13.821841 20.846656 0.237306 0.845945 0.058783 -0.019856 562724.000000 1 0 0
-14.308005 1.975714 12.936941 19.390382 -0.137217 0.840375 0.016903 -0.009645 -674453.000000 1 0 0
-5.492005 0.994114 16.107541 17.047090 -0.179072 0.333553 0.023608 -0.003270 785844.000000 1 0 0
4.647795 5.711514 15.187141 16.878171 0.887722 0.451463 -0.000772 0.001607 139946.000000 1 0 0
-1.116405 -12.032586 13.883841 18.406263 1.478279 0.716209 0.003798 -0.012487 -26868.100000 1 0 0
-5.947205 -4.009086 16.828241 18.292942 0.593140 0.402892 0.033638 -0.018091 248889.000000 1 0 0
-12.942305 -1.562386 9.886841 16.361355 0.120138 0.921934 0.014651 -0.001373 -686037.000000 1 0 0
-14.501805 10.326214 10.411341 20.623508 -0.618777 1.041613 0.016080 -0.007482 663703.000000 1 0 0
-3.552905 -3.319586 17.556041 18.216953 0.751461 0.270191 0.029117 -0.025978 -2401230.000000 1 0 0
-7.952705 9.399214 11.942641 17.152768 -0.868569 0.800634 0.008293 -0.005707 334362.000000 1 0 0
-4.104605 10.689714 16.376841 19.982961 -1.204179 0.610188 0.018690 -0.007137 229000.000000 1 0 0
-12.614005 12.572714 7.997241 19.522862 -0.783759 1.148743 0.028215 -0.027181 -409144.000000 1 0 0
-12.585705 3.231314 10.516541 16.716430 -0.251317 0.890383 0.008080 -0.005341 523352.000000 1 0 0
-10.100005 -3.512086 13.744341 17.414126 0.334652 0.661187 0.025299 -0.003523 -1697650.000000 1 0 0
-4.265805 -6.415586 17.842641 19.434935 0.984009 0.407611 0.041474 -0.021150 -405768.000000 1 0 0
0.873695 -3.734986 17.952941 18.358147 -1.341006 0.210494 0.000359 -0.014371 -890242.000000 1 0 0
-5.933105 1.917414 13.597741 14.959171 -0.312578 0.429941 0.009701 0.002545 -988143.000000 1 0 0
-10.578205 8.684514 10.166341 17.049156 -0.687404 0.931917 0.019289 -0.016933 126893.000000 1 0 0
4.528695 2.581614 17.204741 17.977123 0.518112 0.294197 -0.004589 -0.004964 -639504.000000 1 0 0
0.582795 -5.375086 13.326641 14.381605 -1.462793 0.385409 0.001150 -0.002981 -518448.000000 1 0 0
-4.246805 5.546714 20.639341 21.789534 -0.917358 0.326366 0.044680 -0.010324 134949.000000 1 0 0
-10.907005 10.796314 8.928841 17.755207 -0.780298 1.043862 0.022964 -0.020728 119976.000000 1 0 0
0.658095 4.144114 13.016041 13.675676 1.413309 0.311856 0.009262 -0.001308 -2949840.000000 1 0 0
-3.128805 7.130914 13.379341 15.480508 -1.157323 0.527099 0.008765 0.001013 -648735.000000 1 0 0
0.838695 8.854014 14.157641 16.719324 1.476353 0.560888 0.003497 -0.000378 238698.000000 1 0 0
-4.067005 -6.646886 13.157341 15.291738 1.021697 0.534700 0.016280 -0.008086 -364003.000000 1 0 0
-5.117305 8.263414 16.519141 19.166452 -1.016326 0.531835 0.023215 0.002644 -263091.000000 1 0 0
1.414995 -10.783886 15.647841 19.056478 -1.440328 0.607409 -0.011356 -0.002267 -563075.000000 1 0 0
-15.151505 -1.131386 14.406341 20.937785 0.074533 0.811991 0.038525 -0.008053 675252.000000 1 0 0
-13.708905 -5.272486 8.387641 16.914069 0.367163 1.051928 0.046256 -0.012710 219254.000000 1 0 0
-14.240705 -2.012986 12.191541 18.854270 0.140424 0.867652 0.036603 -0.006264 933209.000000 1 0 0
9.306295 1.420014 17.222641 19.627607 0.151419 0.500234 0.025845 -0.001856 -1123230.000000 1 0 0
4.890495 -6.646186 16.592341 18.530907 -0.936423 0.461496 0.008882 -0.009154 -31710.600000 1 0 0
-6.093605 -2.627386 11.117941 12.947733 0.407086 0.538111 0.005631 0.001733 441497.000000 1 0 0
0.586195 -6.329186 18.069241 19.154626 -1.478442 0.338254 0.007723 -0.018782 -155287.000000 1 0 0
-8.370205 11.943514 12.090141 18.944112 -0.959523 0.878638 0.016503 -0.014674 120006.000000 1 0 0
-6.689905 -5.800186 15.034041 17.447618 0.714284 0.532250 0.029443 -0.013060 -764446.000000 1 0 0
-4.383105 -8.853786 17.066241 19.719476 1.111113 0.524746 0.044536 -0.027259 -331033.000000 1 0 0
2.393095 -6.108386 16.186341 17.465306 -1.197403 0.385073 -0.004410 -0.008096 43069.300000 1 0 0
2.280495 5.145214 15.938041 16.902516 1.153590 0.339447 0.004034 -0.004965 -2704010.000000 1 0 0
0.882695 -8.922186 13.908041 16.547452 -1.472185 0.572601 -0.005660 -0.003039 -740736.000000 1 0 0
-9.910705 -2.903786 11.354941 15.348900 0.285018 0.738040 0.003244 0.000540 -812129.000000 1 0 0
-1.199505 10.016514 12.437941 16.014736 -1.451611 0.681457 0.000147 -0.000454 -300845.000000 1 0 0
-12.371005 -3.739186 11.387441 17.224898 0.293523 0.848508 0.024056 -0.000158 -1083330.000000 1 0 0
-1.885905 6.529214 19.869441 20.999571 -1.289608 0.329565 0.024835 -0.011056 -37105.800000 1 0 0
0.182095 -13.510386 15.722541 20.730702 -1.557319 0.709914 0.004226 -0.011005 -297592.000000 1 0 0
3.949295 -8.608186 15.246041 17.948247 -1.140662 0.555864 0.001908 -0.002465 -500526.000000 1 0 0
4.438995 -4.344586 16.148641 17.301986 -0.774650 0.367189 0.004065 -0.002867 -139385.000000 1 0 0
7.968495 1.920714 14.979541 17.075500 0.236527 0.500686 -0.002148 0.002229 29212.300000 1 0 0
-6.332105 -0.038286 11.914341 13.492537 0.006046 0.488512 0.005685 0.003522 189826.000000 1 0 0
-3.551005 -10.967486 18.353741 21.673837 1.257672 0.560827 0.054677 -0.024592 -557837.000000 1 0 0
3.342095 -1.453186 13.623341 14.102368 -0.410153 0.261388 -0.000468 -0.000263 657817.000000 1 0 0
-2.604305 8.693314 15.957741 18.357713 -1.279729 0.517080 0.018805 0.001569 -475180.000000 1 0 0
-3.307305 3.929714 14.801841 15.667656 -0.871191 0.334000 0.011041 -0.003025 244339.000000 1 0 0
-4.755805 -9.062386 19.683741 22.185450 1.087518 0.479477 0.071319 -0.033155 42456.100000 1 0 0
-5.570005 -2.952486 19.173041 20.182855 0.487412 0.317667 0.046539 -0.024646 -1092740.000000 1 0 0
-6.602605 -8.636986 11.236441 15.634882 0.918107 0.768897 0.011388 -0.011079 -1072870.000000 1 0 0
-11.725305 2.304014 12.771141 17.489806 -0.194027 0.752175 0.026239 -0.013304 -347695.000000 1 0 0
-11.477305 -7.722186 11.744841 18.146680 0.592252 0.866868 0.038244 -0.013909 183589.000000 1 0 0
-11.109705 -7.232986 15.825741 20.644508 0.577114 0.697293 0.052675 -0.028705 415210.000000 1 0 0
0.299395 5.622214 17.648341 18.524656 1.517594 0.308814 0.006679 -0.003265 59031.300000 1 0 0
-2.204305 -0.198286 13.236141 13.419900 0.089712 0.165677 0.011511 0.000116 -69161.100000 1 0 0
-6.154705 -10.528586 18.160741 21.875649 1.041799 0.591365 0.074601 -0.032152 239683.000000 1 0 0
0.318995 2.653014 19.071241 19.257531 1.451132 0.139206 0.011607 -0.011003 -743929.000000 1 0 0
-0.694205 10.845014 14.895241 18.438126 -1.506872 0.630301 0.008850 -0.003025 -366469.000000 1 0 0
-12.779205 -2.412786 14.258541 19.298591 0.186609 0.739451 0.030544 -0.006909 -133214.000000 1 0 0
-13.772105 8.318414 11.827341 19.968798 -0.543359 0.936897 0.024894 -0.014826 118267.000000 1 0 0
-18.038305 -0.570486 6.913941 19.326368 0.031616 1.204943 0.077425 -0.015505 663847.000000 1 0 0
-2.057605 -7.827986 17.794341 19.548649 1.313758 0.426886 0.026853 -0.020874 -1025150.000000 1 0 0
5.669795 2.672814 14.413341 15.717345 0.440518 0.410217 -0.000027 -0.002729 -3471840.000000 1 0 0
-13.842705 -6.664786 11.173741 18.997167 0.448710 0.941991 0.036101 -0.022606 491457.000000 1 0 0
3.172495 7.588314 16.311641 18.267920 1.174805 0.467025 0.003744 -0.006850 -632405.000000 1 0 0
1.049195 2.081014 14.596941 14.781818 1.103815 0.158323 0.009038 -0.003939 -3014060.000000 1 0 0
-14.302105 0.673814 9.719041 17.305028 -0.047078 0.974441 0.021313 -0.004442 -1908100.000000 1 0 0
-9.547805 -5.195986 15.643641 19.049472 0.498385 0.607266 0.037178 -0.012352 -676671.000000 1 0 0
-2.460305 -0.184986 18.166041 18.332823 0.075047 0.134991 0.015638 -0.010120 352803.000000 1 0 0
6.860195 3.761114 17.525641 19.192612 0.501500 0.419862 0.018950 -0.003651 -546243.000000 1 0 0
-4.085205 -0.891886 14.921441 15.496250 0.214948 0.273222 0.017658 0.000183 -1394230.000000 1 0 0
4.282995 -8.822786 17.851041 20.367751 -1.118859 0.502385 0.001241 0.000625 -151555.000000 1 0 0
2.020895 6.897914 13.346541 15.159004 1.285800 0.494014 0.007212 -0.000422 -1129840.000000 1 0 0
-3.561005 -0.807086 20.418741 20.742641 0.222880 0.176952 0.031291 -0.015672 -1022430.000000 1 0 0
-10.724005 1.433414 16.354341 19.609270 -0.132877 0.584459 0.030516 -0.006422 23994.400000 1 0 0
-3.978805 7.016914 18.494641 20.177209 -1.054972 0.411278 0.026834 -0.000449 -277576.000000 1 0 0
-12.752805 1.018514 14.842841 19.595442 -0.079697 0.711376 0.036024 -0.007362 -166501.000000 1 0 0
-16.116305 -4.621586 8.582841 18.835061 0.279270 1.097656 0.065893 -0.015011 -2139400.000000 1 0 0
-2.202005 0.727614 15.713841 15.884051 -0.319138 0.146526 0.016341 -0.001950 197206.000000 1 0 0
-13.639005 -8.919986 12.456641 20.512351 0.579186 0.918170 0.057919 -0.035927 367618.000000 1 0 0
6.291395 -3.180386 14.613341 16.224865 -0.468049 0.449474 0.008013 -0.003305 589382.000000 1 0 0
-15.674505 0.311014 7.508641 17.382938 -0.019839 1.124137 0.035943 -0.008332 81558.800000 1 0 0
-14.139805 5.873414 12.329841 19.658486 -0.393696 0.892841 0.026380 -0.017329 -1344680.000000 1 0 0
0.553495 9.421414 16.719741 19.199457 1.512115 0.513879 0.010409 -0.008453 -104710.000000 1 0 0
-10.416405 -5.499086 11.028041 16.135648 0.485738 0.818307 0.022972 -0.005273 143647.000000 1 0 0
-3.231705 -10.996886 15.070641 18.934087 1.284969 0.650216 0.030178 -0.020006 -958327.000000 1 0 0
-3.538805 2.797514 12.601341 13.384433 -0.668937 0.343765 0.008304 0.000757 -2186620.000000 1 0 0
-12.480105 -7.720086 7.556741 16.506274 0.553978 1.095266 0.035133 -0.008303 684367.000000 1 0 0
-8.205905 -1.835586 13.311241 15.744695 0.220068 0.563402 0.009726 -0.000090 284787.000000 1 0 0
-9.825605 6.413514 9.602941 15.162195 -0.578295 0.884925 0.002853 -0.007332 -898490.000000 1 0 0
-18.012705 -3.677086 6.598841 19.532619 0.201372 1.226179 0.077795 -0.014555 967390.000000 1 0 0
-1.141405 0.033414 20.427841 20.459732 -0.029267 0.055841 0.015052 -0.013563 -1032400.000000 1 0 0
-2.627505 2.537914 20.208941 20.536458 -0.768056 0.178833 0.017513 -0.006147 -521382.000000 1 0 0
-3.687105 11.229614 11.172941 16.264489 -1.253549 0.813508 0.005887 -0.006499 -809990.000000 1 0 0
-4.245405 -4.869286 14.891141 16.232052 0.853739 0.409321 0.019354 -0.013103 -306122.000000 1 0 0
-0.208105 -14.348186 13.219841 19.510970 1.556293 0.826357 0.011892 -0.018107 44741.900000 1 0 0
-12.082605 0.387714 8.418141 14.731082 -0.032078 0.962519 -0.001251 -0.000522 -557969.000000 1 0 0
-7.791305 2.035114 15.326941 17.313615 -0.255495 0.483757 0.015170 -0.002128 -452723.000000 1 0 0
3.704295 -2.191386 18.442941 18.938481 -0.534205 0.229263 0.002426 -0.007965 -213053.000000 1 0 0
-2.081305 4.903614 12.701441 13.773303 -1.169397 0.397121 0.003991 -0.000670 -670050.000000 1 0 0
-10.351205 -6.302386 13.494241 18.137311 0.546905 0.731753 0.024839 -0.009050 -1135460.000000 1 0 0
2.459495 -3.721486 14.180641 14.865704 -0.986803 0.304768 -0.005225 -0.002894 -281988.000000 1 0 0
6.731795 1.156114 17.058441 18.375094 0.170080 0.380859 0.001250 -0.004822 -2312770.000000 1 0 0
-1.898005 -5.632286 13.882941 15.101693 1.245761 0.404506 0.007578 -0.006702 -2936880.000000 1 0 0
-13.135705 3.683614 14.446541 19.870036 -0.273405 0.756779 0.028111 -0.007771 136802.000000 1 0 0
-13.129605 -6.637486 13.643541 20.064620 0.468066 0.823061 0.035648 -0.021027 -1122220.000000 1 0 0
-9.595005 6.942914 11.970041 16.838945 -0.626388 0.780084 0.014394 -0.006520 -595756.000000 1 0 0
-1.089905 -2.508186 12.828541 13.116797 1.160874 0.210033 0.009051 -0.000545 610706.000000 1 0 0
0.200195 6.645114 15.278741 16.662460 1.540679 0.410413 0.005685 -0.002254 496622.000000 1 0 0
-16.603405 -0.493686 9.872341 19.323041 0.029725 1.034553 0.063961 -0.009083 -238084.000000 1 0 0
-1.271205 2.695514 13.762441 14.081426 -1.130126 0.213255 0.009988 -0.001699 -1591410.000000 1 0 0
-11.235705 -3.456586 16.186841 20.005072 0.298454 0.628115 0.034882 -0.012025 332102.000000 1 0 0
-5.202305 -1.446386 17.149841 17.979796 0.271179 0.305025 0.034700 -0.009931 420194.000000 1 0 0
-11.947805 6.637214 11.065041 17.585159 -0.507069 0.890239 0.023187 -0.009688 -2163760.000000 1 0 0
-3.004505 4.592914 18.573741 19.367648 -0.991502 0.287314 0.019683 -0.004644 208226.000000 1 0 0
5.185195 -1.807186 16.317841 17.216972 -0.335363 0.324606 0.001408 -0.005168 -1427250.000000 1 0 0
-8.011405 -4.212086 12.249641 15.230824 0.484043 0.636356 0.013350 -0.001388 -1239940.000000 1 0 0
-11.608405 -0.967286 16.137341 19.902374 0.083134 0.625236 0.042845 -0.011746 533772.000000 1 0 0
2.135095 2.014414 17.446441 17.691659 0.756323 0.166690 0.003078 -0.006231 -2274250.000000 1 0 0
-8.854105 -7.514286 11.741741 16.514483 0.703726 0.779882 0.017748 -0.012825 -187527.000000 1 0 0
-7.256705 6.951214 14.867841 17.945246 -0.763900 0.594352 0.007059 0.000163 -227669.000000 1 0 0
-5.775705 3.513314 15.731841 17.122879 -0.546494 0.405864 0.017536 0.000511 746307.000000 1 0 0
-9.324205 4.316814 11.569541 15.473525 -0.433586 0.726206 -0.002915 -0.003098 -69159.400000 1 0 0
-10.354705 0.057714 14.131841 17.519480 -0.005574 0.632358 0.017254 -0.001377 -98033.600000 1 0 0
8.218095 -0.498286 15.874841 17.882840 -0.060559 0.478441 0.004419 -0.000772 -136317.000000 1 0 0
-8.628705 -7.573986 14.972341 18.867719 0.720395 0.654187 0.035883 -0.012296 -1985260.000000 1 0 0
-0.072205 4.144314 15.559941 16.102557 -1.553375 0.260340 0.011661 -0.005000 215751.000000 1 0 0
-8.078205 3.205114 9.656041 12.991124 -0.377711 0.732836 -0.004967 0.000032 -938665.000000 1 0 0
-2.109505 -9.730986 13.031941 16.400414 1.357317 0.652431 0.005887 -0.008156 236002.000000 1 0 0
-6.047605 10.329914 10.487941 15.914697 -1.041147 0.851295 0.016005 -0.009889 -2140090.000000 1 0 0
-8.638405 -2.719586 15.663741 18.093396 0.305002 0.524217 0.033098 -0.014673 174432.000000 1 0 0
4.092495 5.545614 17.738141 19.030082 0.935039 0.370599 0.005957 -0.008552 41783.200000 1 0 0
-6.768905 -0.947386 15.197141 16.663395 0.139058 0.422644 0.020582 -0.001898 848508.000000 1 0 0
-0.956505 -9.880486 15.373141 18.299518 1.474290 0.573357 -0.003914 -0.011883 -1089800.000000 1 0 0
-4.400005 5.834614 16.192841 17.765441 -0.924663 0.423929 0.014839 0.000563 317721.000000 1 0 0
3.850495 0.050714 17.417241 17.837858 0.013170 0.217593 0.001041 -0.006827 -842980.000000 1 0 0
1.581995 0.332314 19.342841 19.410272 0.207050 0.083378 0.006409 -0.007782 -407349.000000 1 0 0
-6.447405 6.374914 17.821941 19.995754 -0.779745 0.470622 0.018310 0.000023 -636504.000000 1 0 0
-12.035705 0.631914 10.884541 16.239789 -0.052455 0.836265 0.011233 -0.005646 -470257.000000 1 0 0
-5.409205 5.141314 13.819341 15.705630 -0.760012 0.495150 0.008887 -0.000891 -521561.000000 1 0 0
-8.782505 -9.508286 10.060441 16.393669 0.825057 0.910085 0.026834 -0.009993 -1014000.000000 1 0 0
6.829995 -3.624386 17.157041 18.818849 -0.487871 0.423407 0.007303 0.000916 -506063.000000 1 0 0
-16.362005 2.090914 9.250341 18.911794 -0.127102 1.059703 0.035972 -0.012150 547013.000000 1 0 0
-4.153705 -9.564386 11.430941 15.472465 1.161084 0.739519 0.011029 -0.009596 -1527370.000000 1 0 0
-11.002005 -3.863586 9.261841 14.891377 0.337718 0.899553 0.011468 0.000045 193452.000000 1 0 0
3.774595 -5.294086 18.461541 19.573028 -0.951410 0.338622 -0.000029 -0.009775 -11859.300000 1 0 0
2.555595 -1.947586 16.161641 16.477949 -0.651192 0.196253 -0.001029 -0.006089 -388641.000000 1 0 0
-3.054205 -4.373086 20.061441 20.758456 0.961138 0.259873 0.047831 -0.032743 -1435340.000000 1 0 0
-6.294705 -3.348886 14.478741 16.139154 0.488931 0.457592 0.019607 -0.004134 921536.000000 1 0 0
-9.653805 5.183714 13.988641 17.769326 -0.492777 0.664484 0.024418 -0.005409 233678.000000 1 0 0
-5.822905 -5.219986 11.864141 14.209586 0.730854 0.582774 0.008783 0.000815 356988.000000 1 0 0
6.028195 2.120114 19.318841 20.348259 0.338188 0.319444 0.018460 -0.018192 199039.000000 1 0 0
-2.751805 11.750814 13.522441 18.124859 -1.340762 0.728654 0.016614 -0.013201 -438060.000000 1 0 0
3.378395 1.361914 15.189741 15.620391 0.383197 0.235361 -0.002583 -0.003559 -964100.000000 1 0 0
-5.740105 7.516514 12.887141 15.985156 -0.918606 0.633105 0.002590 -0.002835 -1580140.000000 1 0 0
-1.720505 -1.748586 15.274141 15.469877 0.793492 0.159245 0.013318 -0.004597 -471680.000000 1 0 0
-7.327905 10.659714 14.192841 19.203241 -0.968550 0.739084 0.029700 -0.013912 724634.000000 1 0 0
-10.116205 2.111114 10.628641 14.824386 -0.205734 0.771350 -0.000430 -0.001044 -1091820.000000 1 0 0
-13.507005 5.299014 8.992641 17.070042 -0.373865 1.015955 0.011684 -0.013469 99655.900000 1 0 0
0.167295 -4.968386 20.222441 20.824504 -1.537137 0.241046 0.007968 -0.022735 -466725.000000 1 0 0
-14.497505 -2.915286 7.484741 16.574013 0.198442 1.102244 0.035152 -0.007669 118860.000000 1 0 0
-2.253305 2.363014 17.670941 17.970069 -0.809159 0.182714 0.007011 -0.004957 20979.200000 1 0 0
-6.223205 -8.374786 14.805141 18.112358 0.931733 0.613904 0.023152 -0.013985 -264995.000000 1 0 0
-7.949805 2.055514 12.052641 14.583920 -0.253020 0.598053 0.000200 0.001942 -912103.000000 1 0 0
-14.520605 -3.428486 10.105741 18.020225 0.231865 0.975445 0.031637 -0.014307 350426.000000 1 0 0
-0.560805 7.000614 12.801241 14.601195 -1.490859 0.501785 0.005627 -0.001872 -619193.000000 1 0 0
-1.782505 -2.379786 19.385041 19.611745 0.927923 0.152197 0.025652 -0.018932 -165301.000000 1 0 0
-12.710605 10.117214 7.075441 17.719464 -0.672277 1.160039 0.010724 -0.026470 -318623.000000 1 0 0
-19.515805 2.083014 6.728041 20.747823 -0.106332 1.240549 0.080131 -0.015172 1037140.000000 1 0 0
-16.073405 8.435714 6.499141 19.280936 -0.483309 1.226987 0.025523 -0.015890 596625.000000 1 0 0
-12.336705 7.147714 13.548641 19.668498 -0.525124 0.810895 0.027512 -0.009416 -214540.000000 1 0 0
-15.929105 8.235214 10.364741 20.711905 -0.477148 1.046707 0.020037 -0.013042 -1181640.000000 1 0 0
1.894195 10.957914 15.067341 18.726683 1.399627 0.635808 0.010217 -0.005792 -803269.000000 1 0 0
2.050595 14.327114 12.696441 19.252812 1.428635 0.850697 0.007187 -0.003902 -556055.000000 1 0 0
-3.052105 13.565614 11.648941 18.139434 -1.349493 0.873446 -0.001834 -0.007229 195830.000000 1 0 0
9.175095 4.836314 15.736241 18.846793 0.485102 0.582744 0.025677 -0.000606 -221916.000000 1 0 0
-0.322805 12.452714 12.906941 17.937766 -1.544880 0.767657 -0.001507 -0.004748 -22397.100000 1 0 0
3.673495 13.447314 14.523141 20.130734 1.304126 0.764915 0.008491 0.000401 221294.000000 1 0 0
-2.755205 -4.013286 -13.718059 14.556193 0.969174 2.800593 0.003521 -0.010693 -224418.000000 1 0 0
5.319895 -11.497586 16.395241 20.719549 -1.137434 0.657875 -0.002672 0.001508 104050.000000 1 0 0
7.851595 -13.438486 7.256241 17.172463 -1.042029 1.134538 -0.001524 -0.006447 -199303.000000 1 0 0
-0.242705 15.562914 1.259441 15.615678 -1.555202 1.490056 0.004400 -0.005414 -2044560.000000 1 0 0
-13.659905 8.182414 9.142241 18.360978 -0.539691 1.049601 0.012043 -0.011416 244442.000000 1 0 0
-15.424005 -9.779686 4.919441 18.914098 0.565085 1.307677 0.035629 -0.010499 -2155690.000000 1 0 0
9.678095 -11.159686 11.106741 18.481445 -0.856380 0.926086 0.024446 -0.000864 63406.400000 1 0 0
-4.336505 -10.499986 -16.415359 19.962940 1.179133 2.536223 0.023283 -0.012953 -141450.000000 1 0 0
-0.620005 -12.901886 -15.001659 19.796283 1.522778 2.430734 0.022879 0.004699 -51082.000000 1 0 0
5.457495 -15.983486 -11.792259 20.598869 -1.241762 2.180313 0.018730 -0.007953 32118.800000 1 0 0
2.724595 -11.938186 -16.719759 20.724237 -1.346414 2.509467 0.022688 0.004106 263830.000000 1 0 0
1.711395 -14.915386 -14.472059 20.852771 -1.456556 2.337842 0.066428 0.034048 269159.000000 1 0 0
-6.422705 -6.256986 -14.351159 16.922079 0.772329 2.583134 0.013440 -0.009298 -100804.000000 1 0 0
-5.810505 -8.004686 -17.184659 19.827997 0.942906 2.619318 0.003297 -0.011655 -33916.900000 1 0 0
-2.206505 -16.282286 -12.921259 20.903120 1.436101 2.237183 0.024195 -0.004596 178176.000000 1 0 0
15.941795 -8.104086 -9.310659 20.161979 -0.470309 2.050812 0.044338 -0.004206 -181983.000000 1 0 0
18.784795 -3.298086 -3.204159 19.339403 -0.173801 1.737244 0.036242 -0.017884 34834.400000 1 0 0
15.723395 -11.639686 -8.918059 21.499749 -0.637250 1.998517 0.056772 -0.013247 152526.000000 1 0 0
18.403995 -4.049486 -7.041059 20.116706 -0.216582 1.928379 0.133119 -0.007115 -232179.000000 1 0 0
9.140695 -9.870386 -15.740259 20.705858 -0.823762 2.434392 0.053953 -0.002849 69646.200000 1 0 0
-4.791205 9.142714 -16.106859 19.130493 -1.088097 2.571678 0.006017 -0.011098 577989.000000 1 0 0
2.573495 -9.772886 -18.523759 21.101227 -1.313312 2.642155 0.029795 0.003958 238483.000000 1 0 0
11.119495 8.076414 -14.853759 20.236249 0.628179 2.395015 0.052911 -0.039918 443184.000000 1 0 0
18.213195 -6.748786 -8.506559 21.204436 -0.354858 1.983589 0.029141 -0.004838 80078.900000 1 0 0
12.584795 5.373614 -13.694659 19.359661 0.403557 2.356583 0.028561 -0.009977 45924.900000 1 0 0
15.697495 6.775814 -10.545359 20.087996 0.407489 2.123462 -0.000058 -0.009637 149320.000000 1 0 0
3.027995 -0.306886 -19.136159 19.376674 -0.101005 2.983869 0.026233 -0.016951 224763.000000 1 0 0
10.242495 -1.400186 -15.343659 18.501272 -0.135861 2.548704 0.022574 0.011483 272473.000000 1 0 0
12.343095 -6.073986 -13.815059 19.496182 -0.457304 2.358313 0.044360 -0.001482 438426.000000 1 0 0
10.202895 6.583414 -12.899859 17.715721 0.573029 2.386428 0.023012 -0.003824 549832.000000 1 0 0
10.784895 5.430014 -16.309459 20.292793 0.466430 2.504295 0.040860 -0.012200 489443.000000 1 0 0
11.950495 -9.996486 -14.948059 21.591399 -0.696599 2.335489 0.069916 -0.020460 186512.000000 1 0 0
-1.510005 2.090914 -17.727559 17.914195 -0.945343 2.997118 0.006757 -0.009466 304527.000000 1 0 0
6.117895 -1.040686 -17.215559 18.299921 -0.168492 2.795617 0.013872 0.004590 3972.970000 1 0 0
6.398995 -5.665686 -15.944859 18.091038 -0.724691 2.649546 -0.009584 -0.002832 153212.000000 1 0 0
-2.147605 -5.236786 -20.547159 21.312481 1.181614 2.872793 0.044571 -0.023312 314352.000000 1 0 0
16.165595 -0.278286 -13.237359 20.895731 -0.017213 2.256859 0.032560 0.000368 17970.300000 1 0 0
-3.977605 -0.347386 -18.370959 18.799844 0.087114 2.927581 0.014680 -0.021609 82663.300000 1 0 0
3.265095 8.856214 -17.755659 20.108625 1.217579 2.652985 0.035260 -0.024137 -367673.000000 1 0 0
9.352895 -0.058286 -17.547259 19.884323 -0.006232 2.651878 0.030115 0.004743 -34632.500000 1 0 0
4.209395 4.693114 -18.477359 19.523245 0.839680 2.812787 0.029850 -0.001747 470989.000000 1 0 0
-2.143505 -11.016286 -18.174259 21.360169 1.378622 2.588394 0.049955 -0.012434 201491.000000 1 0 0
6.608395 -9.337686 -16.188259 19.822285 -0.954913 2.526413 0.027459 -0.004703 270820.000000 1 0 0
10.012995 -13.137086 -11.659459 20.218458 -0.919537 2.185448 0.019494 0.033759 160252.000000 1 0 0
6.286295 7.012314 -17.037859 19.467375 0.839938 2.636647 0.039561 -0.011532 531863.000000 1 0 0
8.912295 1.781714 -20.276259 22.220040 0.197315 2.720203 0.047270 -0.011092 83329.000000 1 0 0
-0.995905 -0.869686 -20.200559 20.243783 0.717844 3.076233 0.030811 -0.022542 229551.000000 1 0 0
-1.018205 6.521414 -19.622159 20.702529 -1.415914 2.817106 0.018472 -0.009394 -8198.710000 1 0 0
8.941795 6.097014 -17.959859 20.968686 0.598445 2.599263 0.055442 -0.018629 -184138.000000 1 0 0
12.116295 0.036714 -13.027959 17.791393 0.003030 2.392434 0.010367 0.004672 97.123100 1 0 0
-4.025505 -2.327986 -19.711959 20.253037 0.524317 2.909922 0.011423 -0.020860 507275.000000 1 0 0
5.975995 -11.412286 -14.557159 19.438715 -1.088412 2.417158 0.001527 -0.004593 62598.300000 1 0 0
11.351995 2.232914 -16.028659 19.767943 0.194219 2.516384 0.026826 0.004625 -58590.000000 1 0 0
-2.794805 -4.015386 -17.150759 17.834875 0.962744 2.863722 0.005239 -0.010378 381283.000000 1 0 0
-6.754205 -4.605586 -17.096959 18.950902 0.598464 2.695573 0.025552 -0.023863 -1348.130000 1 0 0
2.822895 10.368614 -15.453559 18.822576 1.304985 2.533977 0.016430 -0.012657 276081.000000 1 0 0
17.007095 -6.069686 -10.793059 21.037406 -0.342801 2.109521 0.067444 -0.016334 -10387.800000 1 0 0
9.766495 -3.611586 -17.578059 20.430764 -0.354198 2.606796 0.026924 -0.011802 136793.000000 1 0 0
-7.257805 -1.361486 -18.662859 20.070667 0.185434 2.764821 0.013224 -0.012018 463568.000000 1 0 0
1.548195 -7.478986 -19.392859 20.842627 -1.366673 2.766414 0.031889 -0.019634 307969.000000 1 0 0
6.225995 10.680714 -13.941459 18.633436 1.043031 2.416135 0.039078 -0.014613 505473.000000 1 0 0
6.015995 -3.518186 -18.226959 19.513888 -0.529172 2.776388 0.019769 -0.008927 487389.000000 1 0 0
4.281895 12.989314 -15.108359 20.379387 1.252367 2.405883 0.036981 -0.012895 100097.000000 1 0 0
9.567595 11.440114 -15.247259 21.328244 0.874298 2.367257 0.079799 -0.030763 259448.000000 1 0 0
17.442595 1.126614 -11.508959 20.927721 0.064500 2.153087 0.055834 0.008749 151225.000000 1 0 0
15.427895 -2.823986 -12.112659 19.816945 -0.181040 2.228407 0.050694 -0.006758 176923.000000 1 0 0
-8.798305 0.096614 -17.319359 19.426263 -0.010981 2.671538 0.030081 -0.018653 405929.000000 1 0 0
-3.219505 4.365214 -19.237959 19.987980 -0.935320 2.866781 0.015409 -0.005876 -2076.210000 1 0 0
4.096895 2.035414 -16.644059 17.261290 0.461099 2.873364 0.024866 -0.014766 318075.000000 1 0 0
-5.173305 14.243114 -13.833259 20.518003 -1.222398 2.310679 0.021345 -0.015358 183663.000000 1 0 0
0.780395 9.870614 -17.626859 20.217423 1.491898 2.629793 0.022897 -0.000842 374350.000000 1 0 0
1.522995 -5.022686 -19.859959 20.541783 -1.276385 2.883223 0.034575 -0.012374 513484.000000 1 0 0
3.927595 -6.375286 -17.931659 19.432309 -1.018647 2.746019 0.025117 -0.023973 -76665.400000 1 0 0
-7.419705 7.226714 -15.831959 18.918994 -0.772222 2.562261 0.013708 -0.002262 135868.000000 1 0 0
-11.719605 3.042614 -16.943459 20.825164 -0.254010 2.521122 0.066367 -0.027777 161505.000000 1 0 0
-4.313605 6.619614 -17.103859 18.840607 -0.993269 2.708850 0.004759 0.000166 452219.000000 1 0 0
-8.354105 5.270614 -17.786459 20.345234 -0.562832 2.634648 0.022315 -0.011463 497190.000000 1 0 0
-8.521305 4.475514 -14.989959 17.814088 -0.483615 2.570788 0.001268 -0.021200 519925.000000 1 0 0
9.467195 13.668514 -12.289359 20.675696 0.965035 2.207299 0.078721 -0.045159 273620.000000 1 0 0
14.496695 9.941914 -11.782759 21.161976 0.601136 2.161312 0.082796 -0.025323 142914.000000 1 0 0
8.583295 15.669314 -9.908059 20.429635 1.069661 2.077142 0.059604 -0.026353 69422.100000 1 0 0
8.127795 14.128614 -14.181059 21.605120 1.048758 2.286800 0.066252 -0.027885 113792.000000 1 0 0
4.069895 15.345114 -13.172959 20.629188 1.311541 2.263421 0.036470 -0.016461 239061.000000 1 0 0
10.716195 12.032014 -11.605059 19.856575 0.843177 2.194991 0.059109 -0.015956 -78837.200000 1 0 0
15.897395 10.853914 -9.582259 21.502425 0.599053 2.032681 0.063597 -0.028496 307553.000000 1 0 0
12.772795 11.205514 -9.640859 19.535967 0.720129 2.086897 0.054006 -0.029070 295283.000000 1 0 0
10.269095 11.883314 -7.377859 17.352241 0.858138 2.009959 0.035466 -0.013931 80601.400000 1 0 0
5.331495 16.018014 -9.252859 19.251416 1.249487 2.072172 0.049297 -0.030639 125129.000000 1 0 0
11.883495 14.040814 -10.129959 20.999476 0.868423 2.074179 0.106797 -0.041959 -74441.700000 1 0 0
8.269195 -19.331586 -1.696959 21.094299 -1.166594 1.651330 0.046872 -0.004115 222809.000000 1 0 0
7.444795 -16.532086 -3.876059 18.540729 -1.147673 1.781406 0.038038 -0.027411 359228.000000 1 0 0
4.256895 -18.537186 5.140441 19.702095 -1.345069 1.306833 0.045002 -0.027210 157948.000000 1 0 0
10.387595 -17.352786 -1.949759 20.318042 -1.031398 1.666906 0.054685 -0.027863 302185.000000 1 0 0
-3.295305 -14.763286 7.960341 17.093293 1.351187 1.086371 0.037802 -0.039538 130528.000000 1 0 0
-15.113905 -12.900386 -4.264459 20.323279 0.706548 1.782199 0.017133 -0.005442 182511.000000 1 0 0
-9.403305 -12.516586 -6.920659 17.116734 0.926484 1.987033 0.022729 -0.011328 270522.000000 1 0 0
-11.451705 -15.423186 6.272541 20.207944 0.932113 1.255183 0.051305 -0.010101 324020.000000 1 0 0
-14.870205 -7.305986 -7.344859 18.123117 0.456677 1.988077 0.052520 -0.026450 -181930.000000 1 0 0
5.448795 -15.395186 6.583041 17.607883 -1.230626 1.187619 0.029101 -0.017332 208939.000000 1 0 0
3.162595 -14.204986 8.955541 17.087579 -1.351730 1.019142 0.019233 -0.007894 136706.000000 1 0 0
3.013995 -17.727086 9.887941 20.520846 -1.402385 1.068033 0.026030 -0.009548 182519.000000 1 0 0
-7.378805 -17.304886 -5.476959 19.593440 1.167740 1.854101 -0.018781 -0.015066 -53979.000000 1 0 0
2.388095 -19.731886 -4.036359 20.281580 -1.450355 1.771150 0.041623 -0.017117 164889.000000 1 0 0
-17.152405 -11.043286 -2.089659 20.506727 0.572028 1.672875 -0.055167 -0.006128 -352391.000000 1 0 0
-4.059705 -14.899086 2.876541 15.707910 1.304774 1.386630 0.007201 0.001331 134275.000000 1 0 0
-10.415505 -9.568286 -14.700659 20.399613 0.743028 2.375513 0.047085 -0.011820 127269.000000 1 0 0
0.693495 -20.301686 2.679241 20.489453 -1.536650 1.439659 0.034664 -0.009410 235725.000000 1 0 0
5.286695 -18.392586 0.396241 19.141404 -1.290905 1.550094 0.012206 -0.002742 209332.000000 1 0 0
-7.417205 -19.075686 -3.504159 20.764774 1.199956 1.740363 0.009875 -0.022268 105690.000000 1 0 0
-9.445305 -15.574786 -7.635459 19.750645 1.025649 1.967731 0.037921 -0.010097 1057.240000 1 0 0
-11.613405 -11.345986 -12.310059 20.374987 0.773751 2.219526 0.033391 0.006226 366072.000000 1 0 0
-13.104205 -15.199686 -3.205059 20.322968 0.859298 1.729164 0.021862 -0.005649 58818.200000 1 0 0
-0.770405 -20.675986 -2.804059 20.879479 1.533553 1.705501 0.029648 -0.007631 550351.000000 1 0 0
-11.832605 -16.869386 -0.964559 20.628066 0.959115 1.617573 0.036447 -0.009755 120144.000000 1 0 0
1.242495 -19.170286 5.839741 20.078501 -1.506073 1.275686 0.048894 -0.042777 87593.600000 1 0 0
-18.288205 -9.508786 2.367741 20.748052 0.479473 1.456428 0.062249 -0.000431 53844.000000 1 0 0
-15.200305 -14.963086 -0.719959 21.341545 0.777534 1.604538 0.057356 -0.007729 -94562.900000 1 0 0
10.465495 -15.662886 -4.926959 19.471196 -0.981753 1.826616 0.041744 -0.005869 -77219.800000 1 0 0
-0.165605 -19.076986 -6.910659 20.290786 1.562116 1.918331 0.031130 -0.017627 76413.600000 1 0 0
-10.262405 -18.309986 -2.358159 21.121871 1.059942 1.682675 0.040192 0.032432 453468.000000 1 0 0
-14.474105 -6.772586 -11.441559 19.653928 0.437648 2.192168 0.053074 -0.015316 20430.100000 1 0 0
-12.361405 -15.278586 1.982441 19.752711 0.890551 1.470264 0.042670 -0.015208 33242.500000 1 0 0
-2.723205 -16.284686 10.385541 19.505545 1.405105 1.009315 0.034915 -0.024866 366244.000000 1 0 0
-12.400305 -14.709886 -6.494159 20.305723 0.870385 1.896335 0.023186 -0.003491 252278.000000 1 0 0
5.637495 -17.151386 -7.023359 19.372118 -1.253230 1.941799 0.034786 -0.018948 -156538.000000 1 0 0
-18.178705 -7.884086 -2.980059 20.037587 0.409216 1.720074 0.040849 -0.006263 14121.500000 1 0 0
-11.956405 -13.654186 -9.240159 20.365975 0.851593 2.041716 0.037385 -0.017960 118009.000000 1 0 0
-7.982405 -13.876586 9.848941 18.795746 1.048780 1.019258 0.046610 -0.015833 476509.000000 1 0 0
-16.007305 -8.740286 -5.570859 19.069895 0.499781 1.867248 0.042338 0.002706 194475.000000 1 0 0
-0.705005 -19.532786 -0.671659 19.557041 1.534719 1.605147 0.021105 -0.010954 136909.000000 1 0 0
-15.024605 -11.847686 -2.019759 19.240214 0.667721 1.675966 0.010789 0.013610 -2268.840000 1 0 0
-6.866105 -19.003286 1.225141 20.242758 1.224080 1.510237 0.026422 -0.013995 216723.000000 1 0 0
-2.596805 -20.203586 -5.624059 21.131926 1.442965 1.840183 0.030595 -0.020779 137920.000000 1 0 0
-8.895605 -19.763486 -0.878059 21.690969 1.147857 1.611288 0.030808 -0.007354 53394.700000 1 0 0
-17.721505 -7.570086 5.136041 19.943341 0.403707 1.310330 0.058624 -0.011722 -180685.000000 1 0 0
-3.122005 -15.644886 -10.857059 19.297282 1.373829 2.168349 0.021288 0.000846 53236.500000 1 0 0
-3.392205 -18.244386 -8.706159 20.497850 1.386964 2.009466 0.016171 -0.003174 201976.000000 1 0 0
3.673495 -17.744986 -6.410159 19.221582 -1.366664 1.910797 0.016125 0.024357 317657.000000 1 0 0
0.732595 -17.401786 -9.138759 19.669157 -1.528722 2.054006 0.014519 -0.002202 -52904.300000 1 0 0
-7.643205 -10.199986 -14.850159 19.570015 0.927721 2.432299 0.023580 -0.006142 387598.000000 1 0 0
-5.358205 -18.976486 -1.680959 19.789972 1.295600 1.655839 0.029211 -0.026999 86610.800000 1 0 0
-10.408505 -15.524986 8.609241 20.578659 0.980189 1.139160 0.055085 -0.028636 171847.000000 1 0 0
-7.174605 -15.189886 -10.207559 19.657106 1.129531 2.116806 0.022499 -0.006687 296441.000000 1 0 0
-12.499605 -8.016186 -12.491559 19.404597 0.570246 2.270175 0.056232 -0.013253 214610.000000 1 0 0
-15.549005 -12.981086 3.564541 20.566626 0.695633 1.396600 0.047667 -0.004847 38502.700000 1 0 0
-5.848705 -14.382286 -13.396959 20.506974 1.184561 2.282715 -0.003937 0.006124 405513.000000 1 0 0
-13.802905 -11.235586 -6.791059 19.049332 0.683220 1.935314 0.023030 -0.021749 332810.000000 1 0 0
-11.224705 -10.135386 -9.276959 17.742097 0.734444 2.121021 0.012682 -0.005705 193449.000000 1 0 0
-9.794305 -14.925086 3.414041 18.175320 0.990053 1.381834 0.021151 0.000450 375464.000000 1 0 0
5.057495 -18.096986 8.414441 20.588394 -1.298283 1.149769 0.044352 -0.025240 145110.000000 1 0 0
-4.895205 -16.930786 5.704241 18.524387 1.289341 1.257778 0.016004 0.018043 580776.000000 1 0 0
-17.844205 -7.765386 -6.444359 20.499918 0.410459 1.890579 0.020723 -0.026155 56033.900000 1 0 0
-17.192505 -4.781686 -11.012259 20.969420 0.271270 2.123697 0.076909 -0.001688 -369342.000000 1 0 0
-15.950405 -3.893486 -13.172759 21.049851 0.239418 2.246939 0.083354 -0.015736 437532.000000 1 0 0
-19.490705 -5.527786 -5.882659 21.096201 0.276354 1.853392 0.061645 -0.006699 348639.000000 1 0 0
5.604195 -13.524486 8.650141 17.004225 -1.177960 1.037116 0.024107 -0.005463 122501.000000 1 0 0
20.008395 -2.675786 2.799841 20.379764 -0.132944 1.432977 0.057993 -0.019984 107027.000000 1 0 0
18.192495 -2.869386 -0.311559 18.420025 -0.156435 1.587711 0.040279 -0.009612 179669.000000 1 0 0
14.252395 -11.357286 0.270541 18.226132 -0.672829 1.555952 0.053575 -0.008705 29397.900000 1 0 0
11.475395 -14.102286 5.429441 18.974667 -0.887742 1.280599 0.034663 0.006519 458256.000000 1 0 0
10.424195 -12.428886 7.914541 18.049404 -0.872895 1.116875 0.032279 -0.031146 -190560.000000 1 0 0
17.548895 4.965414 -4.745359 18.845092 0.275740 1.825345 0.011000 0.007258 -72314.100000 1 0 0
18.785395 -6.187186 -4.425759 20.267206 -0.318172 1.790941 0.041637 -0.016638 -88660.100000 1 0 0
17.695495 -10.058486 0.081241 20.354613 -0.516876 1.566805 0.073566 -0.013764 339847.000000 1 0 0
17.331495 -8.996086 8.720641 21.385973 -0.478779 1.150782 0.065488 -0.014646 -36413.900000 1 0 0
19.367395 -0.057786 -2.641659 19.546807 -0.002984 1.706356 0.033739 -0.001555 -47887.800000 1 0 0
7.264895 -13.734686 11.364241 19.250098 -1.084262 0.939307 0.011191 0.004704 232047.000000 1 0 0
16.526595 -6.698886 -3.346959 18.144022 -0.385101 1.756325 0.064418 -0.011469 130100.000000 1 0 0
14.422895 -7.078786 11.124241 19.541695 -0.456262 0.965195 0.025747 -0.041417 460759.000000 1 0 0
17.138895 1.093414 9.648341 19.698420 0.063711 1.058933 0.105456 -0.027481 466388.000000 1 0 0
16.395695 -10.294786 2.582741 19.531307 -0.560679 1.438172 0.019654 -0.014098 247606.000000 1 0 0
16.469595 -7.271486 -6.063559 18.997073 -0.415771 1.895664 0.063620 -0.008090 82298.600000 1 0 0
18.844095 -4.827086 5.130841 20.117808 -0.250767 1.312907 0.159745 -0.028456 -152748.000000 1 0 0
13.582895 -13.636886 7.970341 20.832331 -0.787382 1.178193 0.042055 -0.010462 -33029.100000 1 0 0
15.523695 -14.023786 -1.471359 20.971804 -0.734679 1.641013 0.070362 -0.014240 163466.000000 1 0 0
18.635395 -6.409586 7.888441 21.227064 -0.331272 1.190041 0.079459 -0.023741 252096.000000 1 0 0
19.616595 3.459614 2.584841 20.086342 0.174567 1.441752 0.076288 -0.004277 340548.000000 1 0 0
15.740995 -10.699586 8.150841 20.704982 -0.596990 1.166180 0.047220 -0.025601 299988.000000 1 0 0
14.301895 -4.175886 10.814041 18.409935 -0.284084 0.942951 0.023124 -0.010228 -74145.800000 1 0 0
18.813595 -7.846586 1.852941 20.468357 -0.395135 1.480145 0.078232 -0.021563 232812.000000 1 0 0
19.171195 -6.212186 -1.124059 20.183891 -0.313361 1.626516 0.059448 -0.018561 168732.000000 1 0 0
14.832095 -13.196786 -6.280959 20.822983 -0.727121 1.877204 0.080901 -0.023979 434139.000000 1 0 0
13.964895 -9.459886 9.972841 19.595032 -0.595400 1.036835 0.015419 -0.020406 398672.000000 1 0 0
14.268695 2.412714 0.670441 14.486764 0.167507 1.524500 0.007919 -0.004022 -115151.000000 1 0 0
13.144495 2.753314 13.473241 19.023320 0.206480 0.783782 0.043387 -0.010983 -68010.800000 1 0 0
17.983295 -3.845486 8.977641 20.464230 -0.210664 1.116646 0.058388 -0.020837 -62590.900000 1 0 0
7.480795 -18.528386 5.131741 20.630030 -1.187063 1.319406 0.044335 -0.025250 357424.000000 1 0 0
12.551695 -3.003586 15.224741 19.958941 -0.234880 0.703159 0.013699 0.008752 241620.000000 1 0 0
11.359295 -13.708786 -6.956759 19.114415 -0.878850 1.943305 0.035957 -0.019493 126410.000000 1 0 0
11.082195 -16.981486 4.489241 20.768707 -0.992592 1.352923 0.048868 -0.021960 672807.000000 1 0 0
18.189595 -0.463386 -5.622859 19.044491 -0.025470 1.870512 0.038057 0.000172 175846.000000 1 0 0
4.201395 -13.549386 11.476141 18.246627 -1.270118 0.890600 0.006410 -0.009529 626.310000 1 0 0
9.157295 -2.678886 14.452641 17.317948 -0.284600 0.583486 0.006295 -0.001411 396829.000000 1 0 0
9.357995 -9.325786 13.681341 19.018976 -0.783674 0.767927 0.045789 -0.017520 284502.000000 1 0 0
20.882695 5.438414 -3.429159 21.849998 0.254768 1.728389 0.094672 -0.014446 435595.000000 1 0 0
14.722895 -13.304086 1.816141 19.926382 -0.734818 1.479527 0.039663 -0.012697 193498.000000 1 0 0
10.829495 -0.044686 13.971941 17.677531 -0.004126 0.659370 0.013210 -0.024307 197216.000000 1 0 0
19.723795 -0.130486 7.794341 21.208415 -0.006616 1.194464 0.123248 -0.026557 126484.000000 1 0 0
19.872195 1.286114 0.404641 19.917880 0.064629 1.550479 0.069620 -0.008864 244178.000000 1 0 0
17.941895 0.390414 2.864741 18.173353 0.021757 1.412502 0.050166 -0.006179 -55468.800000 1 0 0
10.569295 -8.611486 16.321341 21.266261 -0.683679 0.695902 0.053925 0.000581 227092.000000 1 0 0
19.583995 2.838214 5.039341 20.420168 0.143923 1.321438 0.099205 -0.011540 155954.000000 1 0 0
15.623995 2.400914 7.038141 17.303440 0.152476 1.151905 0.043923 -0.006017 83690.600000 1 0 0
11.258595 -16.041386 1.860841 19.686156 -0.958832 1.476130 0.010548 -0.001544 224822.000000 1 0 0
8.821295 -16.149586 7.050641 19.706240 -1.070857 1.204899 0.030975 -0.008396 223978.000000 1 0 0
6.123095 6.813714 7.211141 11.658454 0.838732 0.903922 -0.001461 0.002981 -1143860.000000 1 0 0
18.463895 2.614314 -6.317859 19.689220 0.140656 1.897454 0.028820 0.003458 169550.000000 1 0 0
14.206695 4.604314 -7.349159 16.644519 0.313413 2.028106 0.004762 0.002800 362845.000000 1 0 0
-10.668705 -3.931886 -13.783159 17.867749 0.353098 2.451833 0.033553 -0.013181 -280287.000000 1 0 0
7.698095 -14.101086 -10.561859 19.226392 -1.071089 2.152373 0.009224 -0.006065 -40799.600000 1 0 0
2.074595 -16.172586 13.730041 21.315968 -1.443215 0.870924 0.010667 -0.012525 172431.000000 1 0 0
-9.530705 -8.107186 2.354141 12.731959 0.704865 1.384826 0.004206 0.003020 453434.000000 1 0 0
-14.025205 2.961414 -9.836459 17.384829 -0.208093 2.172208 0.037701 -0.010794 289256.000000 1 0 0
-13.140605 -5.170286 -13.331359 19.419899 0.374855 2.327432 0.068952 -0.010099 228926.000000 1 0 0
-18.027605 -1.086986 -8.650859 20.025320 0.060223 2.017501 0.067918 -0.024060 480956.000000 1 0 0
-12.252305 15.041214 4.693541 19.959620 -0.887227 1.333422 0.039627 -0.024407 316858.000000 1 0 0
-17.125905 6.566514 9.113541 20.481025 -0.366137 1.109650 0.009352 -0.015160 83506.800000 1 0 0
-13.517705 15.329814 0.005741 20.438483 -0.848133 1.570515 0.055766 -0.024174 117040.000000 1 0 0
-16.561105 5.678714 -10.393159 20.360151 -0.330331 2.106523 0.082999 -0.023318 -115253.000000 1 0 0
-18.316505 2.731114 -0.317759 18.521726 -0.148016 1.587953 0.057047 -0.005048 3361.910000 1 0 0
-10.039305 15.498714 -0.316659 18.468841 -0.996004 1.587943 0.026920 -0.014576 34599.900000 1 0 0
-18.761905 11.943814 2.541141 22.385736 -0.566897 1.457035 0.129618 -0.025952 27216.300000 1 0 0
-8.731305 16.296414 -7.641359 20.004979 -1.078936 1.962726 0.065846 -0.034139 100266.000000 1 0 0
-14.881505 -1.717386 -12.897859 19.767736 0.114896 2.281636 0.058204 -0.028689 154806.000000 1 0 0
-19.197705 4.546014 -4.881559 20.323576 -0.232517 1.813360 0.066298 -0.013767 -112643.000000 1 0 0
-16.561905 8.668114 -6.202259 19.695201 -0.482174 1.891160 0.037018 -0.006759 -15872.900000 1 0 0
-18.965805 1.284614 2.030141 19.117361 -0.067630 1.464402 0.058426 -0.009142 491859.000000 1 0 0
-13.731905 12.076314 -7.180659 19.645978 -0.721336 1.944969 0.028452 -0.000731 187332.000000 1 0 0
-14.014705 4.571214 -12.412859 19.271404 -0.315292 2.270652 0.085947 -0.039434 184251.000000 1 0 0
-14.167305 9.422914 -6.866559 18.348119 -0.586929 1.954371 0.025359 -0.004054 331749.000000 1 0 0
-6.712905 11.481014 -15.151659 20.160594 -1.041706 2.421202 0.019639 -0.027949 8049.850000 1 0 0
-15.053505 13.753814 3.119041 20.627745 -0.740312 1.419008 0.047257 -0.025840 19755.500000 1 0 0
-18.813805 8.223314 -4.739459 21.072367 -0.412066 1.797651 0.075761 -0.013439 216492.000000 1 0 0
-4.701505 16.455614 -11.071459 20.383047 -1.292502 2.145004 0.011735 -0.003232 114082.000000 1 0 0
-19.264905 -2.781086 -6.621359 20.559995 0.143370 1.898691 0.031396 -0.007413 -102531.000000 1 0 0
-12.012505 14.235614 -6.527559 19.737326 -0.869892 1.907864 0.053134 -0.000849 161680.000000 1 0 0
-19.481205 2.918614 4.354441 20.174162 -0.148711 1.353242 0.077139 -0.009052 -85685.400000 1 0 0
-15.171605 12.249414 0.432641 19.504178 -0.679231 1.548613 0.035318 -0.010840 59478.800000 1 0 0
-16.857005 2.124514 -8.389159 18.948619 -0.125371 2.029440 -0.002685 -0.017966 104481.000000 1 0 0
-16.794505 13.680414 -3.883959 22.006687 -0.683566 1.748216 0.050559 0.029051 208369.000000 1 0 0
-10.807705 15.686914 -8.758459 20.966554 -0.967516 2.001747 0.050596 -0.020918 143520.000000 1 0 0
-19.101905 2.143614 -6.935859 20.434872 -0.111752 1.917089 0.051057 -0.012751 184987.000000 1 0 0
-17.288605 10.353914 -0.314659 20.154365 -0.539600 1.586409 0.059014 -0.005415 98213.900000 1 0 0
-11.570105 6.035214 -14.351159 19.397085 -0.480795 2.403661 0.031760 -0.032754 271748.000000 1 0 0
-13.169205 12.303114 -4.556759 18.589208 -0.751410 1.818449 0.038394 -0.013153 288349.000000 1 0 0
-19.025005 7.086414 0.229341 20.303219 -0.356559 1.559500 0.072900 -0.014814 133291.000000 1 0 0
-14.519805 8.704514 -10.059459 19.692283 -0.540046 2.106949 0.031734 -0.014112 508918.000000 1 0 0
-18.607905 11.144014 4.930941 22.243142 -0.539600 1.347256 0.073120 -0.026815 176857.000000 1 0 0
-8.253705 11.703914 -13.255859 19.514688 -0.956583 2.317572 0.006614 -0.024650 518917.000000 1 0 0
-21.021105 -1.005086 -5.780959 21.824677 0.047777 1.838878 0.052089 -0.007171 125956.000000 1 0 0
-10.659205 13.206614 -3.099259 17.252209 -0.891734 1.751421 0.024417 -0.008075 362489.000000 1 0 0
-18.888805 -4.932286 3.684841 19.866868 0.255419 1.384239 0.067114 -0.011741 -66455.900000 1 0 0
-11.725005 11.389014 -13.028559 20.902840 -0.770863 2.243741 0.050565 -0.016618 336699.000000 1 0 0
-14.550105 11.520214 -10.732859 21.438637 -0.669697 2.095125 0.051221 -0.005661 220385.000000 1 0 0
-12.404205 8.937414 -14.150059 20.831847 -0.624362 2.317538 0.054887 -0.023924 425035.000000 1 0 0
-18.029705 -5.191886 -2.956059 18.993795 0.280377 1.727064 -0.004535 0.000161 -275888.000000 1 0 0
-9.835105 12.643014 -11.308359 19.607501 -0.909672 2.185524 0.038922 -0.021478 217247.000000 1 0 0
-15.471805 7.754114 -8.259559 19.176114 -0.464589 2.016088 0.018319 -0.003387 38632.300000 1 0 0
-14.681705 8.635414 2.072141 17.158573 -0.531679 1.449737 0.031163 -0.007516 24738.800000 1 0 0
-19.807905 6.344814 7.895341 22.247386 -0.309991 1.208002 0.078088 -0.018327 283568.000000 1 0 0
-18.974105 5.799914 3.822941 20.205706 -0.296655 1.380448 0.044297 -0.011199 214740.000000 1 0 0
-15.185605 12.450814 5.824341 20.482879 -0.686763 1.282466 0.052540 -0.022062 -128077.000000 1 0 0
18.050795 6.271714 5.613841 19.916847 0.334400 1.285060 0.048999 -0.015058 241357.000000 1 0 0
18.838295 8.013214 0.223641 20.472981 0.402183 1.559872 0.081678 -0.001963 83305.300000 1 0 0
16.170995 5.707014 9.212341 19.466338 0.339271 1.077826 0.035531 0.018214 39266.000000 1 0 0
12.065595 13.199014 10.569941 20.772969 0.830230 1.036969 0.052538 -0.018891 54621.100000 1 0 0
15.364795 12.499014 4.179741 20.242839 0.682909 1.362820 0.050238 -0.014724 125697.000000 1 0 0
5.051695 10.387314 14.358841 18.428029 1.118142 0.677432 0.013510 0.000258 255707.000000 1 0 0
12.317495 14.382914 -5.292159 19.662041 0.862600 1.843313 0.044400 0.013410 197233.000000 1 0 0
17.453395 9.180614 -2.745959 19.910926 0.484236 1.709149 0.024202 -0.016037 -175317.000000 1 0 0
14.214895 7.991614 9.562041 18.904015 0.512162 1.040463 0.033570 -0.005887 117851.000000 1 0 0
4.519795 19.254414 -2.074959 19.886339 1.340230 1.675327 0.021167 -0.015678 562540.000000 1 0 0
-4.557405 19.067714 3.290941 19.879084 -1.336186 1.404483 0.010719 -0.023215 133355.000000 1 0 0
6.697095 13.231714 12.628441 19.478370 1.102249 0.865405 0.015082 0.011781 -243262.000000 1 0 0
-0.025705 17.631414 -9.854259 20.198363 -1.569338 2.080449 0.007368 0.018601 109374.000000 1 0 0
10.340295 9.157214 15.980041 21.121979 0.724794 0.712760 0.033544 0.001651 146597.000000 1 0 0
-1.238805 12.171514 1.017841 12.276661 -1.469367 1.487792 0.003546 0.001562 459015.000000 1 0 0
-5.016205 19.059314 -2.191159 19.829800 -1.313443 1.681521 0.027168 -0.009392 168982.000000 1 0 0
6.117395 18.466914 6.206741 20.419919 1.250911 1.261955 0.030776 -0.017731 96956.200000 1 0 0
11.316095 17.606014 -1.225259 20.964899 0.999542 1.629273 0.070273 -0.023987 349354.000000 1 0 0
18.586395 10.307714 2.977941 21.460922 0.506356 1.431586 0.057440 -0.015118 221992.000000 1 0 0
11.722995 16.891714 6.049441 21.432554 0.964103 1.284653 0.050676 -0.005162 -54470.300000 1 0 0
17.760595 8.616814 -5.876259 20.596568 0.451709 1.860119 0.032487 0.020435 195921.000000 1 0 0
0.120595 15.344114 11.215341 19.006322 1.562937 0.939632 0.005417 0.006478 376084.000000 1 0 0
0.825595 20.194714 -1.916059 20.302201 1.529937 1.665314 0.030611 -0.019812 306420.000000 1 0 0
13.984795 9.772114 -1.273559 17.108204 0.609898 1.645307 0.032571 -0.009257 -370998.000000 1 0 0
10.243795 17.073114 1.708041 19.983593 1.030380 1.485220 0.051201 -0.031834 89327.700000 1 0 0
0.388195 17.587114 -0.022159 17.591412 1.548727 1.572056 0.013881 -0.008088 -146696.000000 1 0 0
0.034495 21.049014 0.942741 21.070144 1.569158 1.526038 0.033088 -0.017994 290345.000000 1 0 0
5.360195 18.140714 0.042841 18.916105 1.283493 1.568532 0.014210 -0.012340 -169094.000000 1 0 0
7.491995 18.630514 -2.078059 20.187728 1.188450 1.673916 0.038735 -0.024078 39098.800000 1 0 0
9.970395 9.667614 12.604341 18.754758 0.769981 0.833808 0.017737 -0.006972 50705.200000 1 0 0
12.507395 14.536514 8.145741 20.835025 0.860288 1.169118 0.043998 -0.027007 205691.000000 1 0 0
0.287195 17.702514 7.123841 19.084303 1.554574 1.188251 0.005310 0.000336 288113.000000 1 0 0
6.910095 17.998714 -7.847159 20.815404 1.204227 1.957339 0.040805 -0.020463 70582.300000 1 0 0
-1.297305 18.405714 9.045041 20.549114 -1.500429 1.115012 0.033878 -0.011840 263010.000000 1 0 0
16.141195 6.877914 -7.932259 19.255249 0.402810 1.995393 0.036580 0.005168 -347907.000000 1 0 0
-5.222105 19.677414 -6.814359 21.468733 -1.311390 1.893792 0.012571 -0.018923 186205.000000 1 0 0
3.261795 15.768314 9.455941 18.673347 1.366816 1.039807 0.013253 0.001725 248519.000000 1 0 0
8.691095 14.842114 7.586241 18.798259 1.041055 1.155391 0.017925 -0.009707 115856.000000 1 0 0
-2.992405 20.048014 6.196941 21.196213 -1.422628 1.274102 0.027119 0.000143 139263.000000 1 0 0
4.974495 18.032114 8.312341 20.469435 1.301623 1.152630 0.032844 -0.008646 -35008.800000 1 0 0
14.926495 12.196714 -6.131359 20.227547 0.685092 1.878761 0.062127 -0.008582 108568.000000 1 0 0
11.905095 6.853714 15.582941 20.773366 0.522357 0.722522 0.056181 -0.007440 209583.000000 1 0 0
16.817895 10.231214 4.735341 20.247044 0.546539 1.334732 0.032697 -0.017001 25805.700000 1 0 0
4.910195 14.924114 11.770841 19.631401 1.252941 0.927804 0.002785 -0.017532 456426.000000 1 0 0
15.926295 10.417814 -3.584359 19.365571 0.579271 1.756959 0.065250 -0.026880 6200.390000 1 0 0
15.335995 14.129414 6.941541 21.977672 0.744472 1.249449 0.052750 0.001633 325233.000000 1 0 0
12.888795 14.404414 -7.877159 20.872417 0.840872 1.957779 0.111775 -0.036343 463075.000000 1 0 0
-8.562505 15.350214 9.533041 19.995611 -1.061977 1.073835 0.041184 -0.015452 177785.000000 1 0 0
-3.745305 17.576914 -8.091259 19.708975 -1.360855 1.993839 0.004805 0.033607 34908.400000 1 0 0
1.920095 19.709114 -4.533659 20.314773 1.473681 1.795862 0.016900 -0.017435 70364.300000 1 0 0
6.818795 16.009314 9.384141 19.770084 1.168141 1.076214 0.021433 -0.019124 527411.000000 1 0 0
13.354995 15.577314 -1.401159 20.566280 0.862059 1.638978 0.090646 -0.033128 167218.000000 1 0 0
12.565195 16.499414 3.751541 21.075788 0.919942 1.391840 0.064650 -0.032684 357434.000000 1 0 0
2.604695 18.315014 0.534741 18.507029 1.429527 1.541898 0.028172 -0.024284 -44930.700000 1 0 0
-7.025205 17.887714 1.362141 19.266013 -1.196565 1.500036 -0.005271 0.006820 298945.000000 1 0 0
0.253195 19.994014 -6.386459 20.990750 1.558133 1.879948 0.029395 -0.001488 222368.000000 1 0 0
-7.124905 17.880214 -6.085559 20.186638 -1.191601 1.877025 0.042144 -0.029167 -47017.300000 1 0 0
-7.711905 18.388214 -1.008659 19.965403 -1.173684 1.621338 0.055822 -0.019172 27851.600000 1 0 0
-14.553205 -8.925886 8.895041 19.250688 0.550162 1.090476 0.063732 -0.022482 388441.000000 1 0 0
-12.962005 -13.728386 7.797741 20.427602 0.814104 1.179134 0.043494 -0.012237 -9089.720000 1 0 0
-3.605405 -15.883886 12.699541 20.653695 1.347593 0.908563 0.041288 -0.017908 -42844.300000 1 0 0
-1.953405 -15.229186 14.820041 21.339576 1.443226 0.803091 0.030718 -0.022776 440539.000000 1 0 0
-6.984505 -14.248286 13.214241 20.649773 1.115020 0.876400 0.014855 -0.013906 87251.800000 1 0 0
-10.033005 -11.274886 11.764741 19.136180 0.843615 0.908676 0.050493 -0.017522 -59140.200000 1 0 0
-7.788705 -10.832786 13.517041 18.992724 0.947436 0.778887 0.037479 -0.003636 470473.000000 1 0 0
-15.301605 -12.360886 7.868041 21.185766 0.679489 1.190298 0.057729 -0.002016 403545.000000 1 0 0
-4.611005 -11.988386 12.890241 18.197282 1.203616 0.783623 0.033388 -0.036542 407751.000000 1 0 0
3.642495 -13.082886 13.902941 19.435057 -1.299256 0.773666 0.002113 0.013478 362806.000000 1 0 0
6.613795 -13.347686 15.153441 21.249230 -1.110754 0.776845 0.027081 0.008094 232015.000000 1 0 0
6.764695 -9.116986 17.007741 20.448564 -0.932443 0.588575 0.013039 0.008759 513818.000000 1 0 0
-5.367205 13.542414 12.858741 19.430675 -1.193462 0.847612 0.025503 -0.013329 419299.000000 1 0 0
-13.536305 -1.955886 17.488241 22.201253 0.143499 0.663707 0.043570 -0.014535 424893.000000 1 0 0
-10.292105 9.545914 12.953041 19.100607 -0.747802 0.825556 0.027357 -0.013330 322275.000000 1 0 0
-7.574705 -8.186386 17.410241 20.676305 0.824188 0.569745 0.049490 -0.020880 165207.000000 1 0 0
-4.983405 1.769914 18.741741 19.473567 -0.341266 0.275021 0.024351 0.005462 597560.000000 1 0 0
-16.051305 -3.431386 13.563541 21.292921 0.210606 0.880199 0.070392 -0.033193 -68517.400000 1 0 0
-14.493505 2.749614 12.418041 19.282890 -0.187485 0.871090 0.021971 -0.006084 217474.000000 1 0 0
-14.135105 10.801214 9.674941 20.250233 -0.652490 1.072683 -0.021518 0.002535 -193133.000000 1 0 0
-4.277305 11.311414 15.679641 19.801379 -1.209275 0.656971 0.020932 -0.010087 289360.000000 1 0 0
-13.543405 12.430314 7.861641 19.993548 -0.742570 1.166677 0.034891 -0.047148 43349.500000 1 0 0
-3.890205 -6.293386 18.706641 20.116631 1.017144 0.376630 0.048354 -0.025483 224344.000000 1 0 0
1.291595 -3.126986 18.551541 18.857517 -1.179093 0.180387 0.012187 -0.006126 283055.000000 1 0 0
-4.754505 6.219514 21.077641 22.484542 -0.918111 0.355628 0.040848 -0.006762 293110.000000 1 0 0
1.835895 -10.850886 16.496941 19.830817 -1.403191 0.588302 -0.008163 -0.002559 272496.000000 1 0 0
-14.955405 -0.309586 13.972041 20.468950 0.020698 0.819486 0.015402 -0.005453 -45874.300000 1 0 0
-14.083705 -5.797886 7.690541 17.061965 0.390529 1.103200 0.043897 -0.012129 -9170.140000 1 0 0
10.169995 1.389114 16.828141 19.711539 0.135749 0.547708 0.032085 0.009327 479711.000000 1 0 0
-7.516705 12.216414 11.774641 18.557581 -1.019206 0.883445 0.022926 -0.015403 23554.300000 1 0 0
-1.856705 7.471714 19.753541 21.200855 -1.327232 0.371639 0.035383 -0.021015 420621.000000 1 0 0
1.040395 -13.883786 15.560241 20.879728 -1.496000 0.729914 -0.005178 -0.004031 479762.000000 1 0 0
-3.476105 -11.523886 17.587441 21.312000 1.277832 0.600175 0.051978 -0.032425 459412.000000 1 0 0
-2.199405 8.750514 16.815241 19.083009 -1.324551 0.492480 0.022659 -0.008539 636781.000000 1 0 0
-5.638005 -8.995786 20.029741 22.669402 1.010948 0.487389 0.125354 -0.050931 177059.000000 1 0 0
-6.499505 -3.068486 19.331041 20.623975 0.441088 0.355969 0.048022 -0.019315 417193.000000 1 0 0
-10.792705 -7.769386 16.542841 21.225255 0.623940 0.677098 0.058965 -0.030317 242560.000000 1 0 0
-0.510505 6.111614 17.731641 18.762291 -1.487459 0.332994 0.018972 -0.012714 74410.900000 1 0 0
-6.217705 -11.306086 18.703041 22.722042 1.067997 0.603907 0.089412 -0.038465 556766.000000 1 0 0
0.422795 3.501714 18.657241 18.987718 1.450639 0.186845 0.014841 -0.010263 141699.000000 1 0 0
-17.778205 -1.323486 7.431541 19.314347 0.074307 1.175840 0.041280 -0.003998 272602.000000 1 0 0
-1.522905 -8.544486 17.472941 19.509771 1.394416 0.461019 0.022656 -0.021410 300978.000000 1 0 0
5.871495 3.446214 14.926841 16.406140 0.530761 0.427916 0.001474 -0.003682 411296.000000 1 0 0
-13.255205 -6.201786 10.588041 18.062924 0.437619 0.944466 0.021285 -0.020362 -16969.800000 1 0 0
3.567195 8.130414 16.984641 19.165244 1.157340 0.481673 0.011596 0.001063 240892.000000 1 0 0
6.720495 4.290614 18.301941 19.963353 0.568204 0.410862 0.026065 -0.001331 377643.000000 1 0 0
4.255195 -9.767886 17.759141 20.710031 -1.159956 0.540379 -0.011984 -0.005226 404863.000000 1 0 0
-4.367405 -0.775986 19.917541 20.405510 0.175842 0.219132 0.027010 -0.012408 800631.000000 1 0 0
-11.059405 1.331814 17.237341 20.523404 -0.119847 0.573721 0.045454 -0.006530 155186.000000 1 0 0
-16.802805 -4.068586 8.937041 19.461715 0.237565 1.093689 0.069808 -0.017735 344744.000000 1 0 0
-13.381805 -9.492086 11.743241 20.176127 0.616959 0.949566 0.078236 -0.042774 124562.000000 1 0 0
-14.908405 6.180714 12.796041 20.596127 -0.393011 0.900416 0.033204 -0.018577 307169.000000 1 0 0
1.171395 9.849614 17.300441 19.942225 1.452424 0.520585 0.012854 0.001021 201529.000000 1 0 0
-3.896205 -10.318786 15.105541 18.703880 1.209762 0.630699 0.037188 -0.024177 748567.000000 1 0 0
-18.210705 -4.404686 7.176641 20.063281 0.237316 1.204992 0.109187 -0.003192 -205603.000000 1 0 0
-0.566605 -0.391386 21.053741 21.065001 0.604494 0.032697 0.019260 -0.012298 330537.000000 1 0 0
-1.710205 2.697214 20.397841 20.646348 -1.005706 0.155310 0.014956 -0.008018 27087.300000 1 0 0
-8.061005 1.861914 16.221241 18.209207 -0.226997 0.471636 0.014493 0.008034 579154.000000 1 0 0
3.127295 -1.777186 19.073841 19.410043 -0.516771 0.186394 0.009138 -0.000240 77764.500000 1 0 0
-12.439405 4.317214 14.318941 19.452743 -0.334053 0.743523 0.004014 -0.005951 207680.000000 1 0 0
-13.068205 -5.695286 13.538141 19.659490 0.410993 0.811196 0.021885 -0.013003 40024.200000 1 0 0
-17.500305 -0.400886 9.573141 19.951602 0.022903 1.070349 0.079070 -0.022085 215602.000000 1 0 0
-7.270305 7.895914 14.967141 18.417875 -0.826625 0.622125 0.013568 0.001266 -11925.100000 1 0 0
-9.719705 0.755114 14.018541 17.075198 -0.077533 0.607656 0.023760 -0.003809 265588.000000 1 0 0
7.364695 -0.841886 15.638341 17.306219 -0.113820 0.442637 -0.000057 0.002894 -13930.500000 1 0 0
3.654095 4.833614 18.189241 19.171978 0.923482 0.321568 0.004189 -0.038985 10763.100000 1 0 0
1.510395 0.594914 20.253041 20.317995 0.375220 0.079982 0.005515 -0.002936 191769.000000 1 0 0
-7.106505 6.867514 17.347241 19.964768 -0.768297 0.517835 0.015446 -0.006136 504555.000000 1 0 0
7.693595 -3.588086 16.762941 18.789943 -0.436386 0.468774 0.005553 0.005659 318694.000000 1 0 0
-15.835605 2.720814 8.772241 18.306323 -0.170155 1.071063 0.019170 -0.016679 120595.000000 1 0 0
3.665795 -6.103386 18.946941 20.240453 -1.029924 0.359443 -0.004224 -0.015484 33516.400000 1 0 0
-3.625505 -3.777686 20.532141 21.189243 0.805951 0.249691 0.046590 -0.028146 345807.000000 1 0 0
-9.903405 5.877414 14.587841 18.585655 -0.535607 0.668265 0.027385 -0.003214 36919.800000 1 0 0
6.825695 2.388414 19.759941 21.041623 0.336599 0.350829 0.045996 -0.016406 103294.000000 1 0 0
-7.211005 11.553214 14.493541 19.888140 -1.012804 0.754297 0.024125 -0.017415 289559.000000 1 0 0
-14.279405 5.271814 9.544941 17.966618 -0.353667 1.010709 0.016238 -0.011597 383318.000000 1 0 0
0.320795 -5.869986 20.479341 21.306409 -1.516201 0.279541 0.004372 -0.016115 118602.000000 1 0 0
-6.340805 -8.255286 13.870041 17.341672 0.915818 0.643818 0.024866 -0.008408 372210.000000 1 0 0
-12.732105 9.966814 6.137641 17.294928 -0.664171 1.208010 -0.004330 -0.023665 29955.700000 1 0 0
-19.452305 2.073114 7.675841 21.014484 -0.106173 1.196880 0.053731 -0.011485 33451.600000 1 0 0
-16.746205 9.054514 6.240341 20.034008 -0.495668 1.254038 0.062852 -0.016599 140776.000000 1 0 0
-12.738905 7.775914 14.136941 20.557180 -0.548036 0.812496 0.021732 -0.008925 161673.000000 1 0 0
-16.584305 8.700514 10.871341 21.654658 -0.483152 1.044849 0.027756 -0.015329 450593.000000 1 0 0
2.584495 10.537414 14.568241 18.164536 1.330276 0.640134 0.009892 -0.040003 264281.000000 1 0 0
1.548095 14.342514 13.502641 19.759191 1.463275 0.818441 0.011479 -0.013875 376308.000000 1 0 0
8.398095 5.149014 16.184641 18.946846 0.550009 0.546761 0.020043 -0.012447 227562.000000 1 0 0
-0.286005 13.235014 13.444641 18.868116 -1.549190 0.777658 -0.003476 0.011877 149732.000000 1 0 0
4.485195 13.122014 14.894341 20.350569 1.241439 0.749707 0.028875 0.012169 70778.400000 1 0 0
-3.529005 -4.541386 -13.560159 14.729425 0.910190 2.740454 0.002843 -0.011457 118659.000000 1 0 0
4.979395 -12.237886 16.883641 21.438693 -1.184370 0.664004 -0.032892 0.023384 207678.000000 1 0 0
8.755795 -13.713386 7.158841 17.775542 -1.002558 1.156293 0.006209 -0.006333 210029.000000 1 0 0
-0.499505 15.304014 0.382241 15.316934 -1.538169 1.545838 0.003580 -0.002022 -311245.000000 1 0 0
-14.218005 8.089114 8.379141 18.379213 -0.517264 1.097410 0.015970 -0.010178 46503.200000 1 0 0
-16.308605 -9.433986 4.896141 19.466456 0.524436 1.316549 0.052488 -0.008984 48774.800000 1 0 0
8.808095 -11.361986 11.430241 18.366482 -0.911346 0.899065 0.005228 0.011265 77569.300000 1 0 0
-25.867205 6.067214 30.907361 40.757679 -0.230388 0.710064 0.063287 -0.022615 435847.000000 0 0 1
-24.720805 5.239814 30.649881 39.723911 -0.208868 0.689487 0.062243 -0.021285 483465.000000 0 0 1
-23.935005 5.149814 31.815461 40.145095 -0.211927 0.655880 0.049294 -0.013895 59762.000000 0 0 1
-22.483605 4.651714 31.626891 39.082108 -0.204015 0.627935 0.052017 -0.015706 12276.300000 0 0 1
-22.430805 3.329214 31.070041 38.465207 -0.147346 0.630481 0.048802 -0.024248 135347.000000 0 0 1
-21.130705 2.788214 31.239391 37.817726 -0.131193 0.598731 0.052580 -0.018212 320036.000000 0 0 1
-20.859505 1.825914 32.405606 38.582071 -0.087311 0.573672 0.051207 -0.018219 -354496.000000 0 0 1
-21.301705 0.556714 32.010641 38.454567 -0.026129 0.587322 0.065395 -0.022553 120379.000000 0 0 1
-21.068005 -0.466486 33.006583 39.160095 0.022138 0.568215 0.057872 -0.013111 -63747.800000 0 0 1
-21.952405 -1.717786 32.832051 39.532296 0.078091 0.590770 0.071539 -0.031849 -248034.000000 0 0 1
-21.474805 -2.660786 31.865591 38.518345 0.123274 0.596542 0.099850 -0.032734 93523.800000 0 0 1
-21.626405 -3.998686 32.304217 39.080089 0.182833 0.597729 0.095861 -0.028901 513429.000000 0 0 1
-23.063705 -4.620586 32.190191 39.868442 0.197723 0.631047 0.066236 -0.018526 907824.000000 0 0 1
-24.116605 -4.117086 33.015949 41.092748 0.169086 0.637730 0.054212 -0.011910 515483.000000 0 0 1
-24.181005 -4.640686 -33.711489 41.745915 0.189609 2.510765 0.041872 -0.011842 183460.000000 0 0 1
-25.495405 -4.163686 -33.008759 41.915750 0.161882 2.477542 0.040919 -0.004993 433374.000000 0 0 1
-25.672895 -4.725486 -31.728849 41.087073 0.182028 2.453147 0.044558 -0.006758 531758.000000 0 0 1
-26.786525 -4.284786 -30.945299 41.152021 0.158617 2.421850 0.059567 -0.006922 152515.000000 0 0 1
-26.994325 -4.978386 -29.554989 40.335781 0.182374 2.393112 0.052792 -0.019279 -528771.000000 0 0 1
-27.250975 -6.336886 -29.627109 40.749691 0.228477 2.384813 0.047631 -0.001399 508269.000000 0 0 1
-26.888365 -6.925486 -28.397469 39.716026 0.252085 2.367439 0.030351 -0.008999 -141351.000000 0 0 1
-27.080735 -8.458386 -28.437539 40.169691 0.302739 2.357367 0.033939 -0.002991 -122534.000000 0 0 1
-28.425995 -8.880986 -28.436259 41.176813 0.302816 2.333100 0.043429 -0.002466 -169091.000000 0 0 1
-28.514275 -10.246586 -28.207819 41.397312 0.344979 2.320460 0.043489 -0.001331 -337235.000000 0 0 1
-29.923535 -10.713386 -27.879649 42.278474 0.343806 2.290855 0.078742 -0.004416 -295591.000000 0 0 1
-29.989945 -11.625086 -26.785509 41.856934 0.369800 2.265204 0.087333 -0.011019 -452244.000000 0 0 1
-31.234025 -11.546986 -26.144649 42.337216 0.354109 2.236399 0.085966 -0.009637 -303551.000000 0 0 1
-31.234605 -12.250786 -24.777059 41.708332 0.373780 2.206887 0.083288 -0.011379 14354.400000 0 0 1
-30.620385 -11.564486 -23.684859 40.401953 0.361112 2.197194 0.077812 -0.012512 259447.000000 0 0 1
-30.499655 -12.215886 -22.507359 39.825093 0.380959 2.171418 0.080449 -0.017926 -176909.000000 0 0 1
-29.873065 -11.231186 -21.466059 38.462075 0.359615 2.162902 0.086153 -0.023415 -90888.100000 0 0 1
-29.928465 -11.686286 -20.126959 37.912752 0.372267 2.130430 0.091378 -0.026855 289937.000000 0 0 1
-29.059585 -12.770086 -19.790459 37.405840 0.414042 2.128305 0.084096 -0.030417 -201012.000000 0 0 1
-28.939055 -13.046786 -18.259559 36.621019 0.423549 2.092789 0.082817 -0.035228 367931.000000 0 0 1
-28.231105 -11.943286 -17.637859 35.365682 0.400221 2.092927 0.072793 -0.036560 554817.000000 0 0 1
-27.885345 -12.103686 -16.267159 34.477705 0.409513 2.062146 0.092416 -0.040622 68677.200000 0 0 1
-27.546925 -10.774686 -15.531259 33.408785 0.372845 2.054302 0.081772 -0.029007 -406554.000000 0 0 1
-26.307185 -10.243786 -15.908859 32.405168 0.371328 2.083960 0.072655 -0.031875 -107780.000000 0 0 1
-26.095655 -9.042586 -15.226459 31.537226 0.333568 2.074656 0.079267 -0.038992 -231472.000000 0 0 1
-24.662905 -8.460086 -15.262859 30.212362 0.330451 2.100394 0.090481 -0.035428 172288.000000 0 0 1
-23.676305 -9.307286 -14.703759 29.383559 0.374549 2.094866 0.083016 -0.032700 -213518.000000 0 0 1
-22.459005 -8.629686 -14.592959 28.139524 0.366848 2.116001 0.122427 -0.052784 -179877.000000 0 0 1
-21.451905 -9.307686 -13.622359 27.062629 0.409373 2.098284 0.105686 -0.034046 94597.000000 0 0 1
-20.697405 -10.382886 -14.181859 27.153490 0.464968 2.120325 0.096495 -0.024508 -133360.000000 0 0 1
-19.659705 -10.708586 -13.325259 26.052645 0.498763 2.107696 0.107666 -0.018285 -353667.000000 0 0 1
-18.528305 -11.554586 -13.954159 25.913801 0.557605 2.139433 0.100850 -0.006176 153853.000000 0 0 1
-17.880805 -11.042686 -15.085959 25.869871 0.553240 2.193395 0.125490 -0.020743 81577.100000 0 0 1
-18.575705 -11.351386 -16.247659 27.164263 0.548532 2.211957 0.110509 -0.025628 -520666.000000 0 0 1
-18.101905 -10.635286 -17.512759 27.340172 0.531195 2.266011 0.137566 -0.027846 -326092.000000 0 0 1
-18.750805 -10.987986 -18.692859 28.666208 0.530062 2.281130 0.099948 -0.020114 135297.000000 0 0 1
-18.318805 -10.148086 -19.727659 28.770519 0.505887 2.326348 0.107926 -0.021545 41286.800000 0 0 1
-19.098405 -10.458286 -21.030459 30.272182 0.500999 2.338816 0.123006 -0.021472 779788.000000 0 0 1
-20.414205 -9.897086 -21.070259 30.962039 0.451425 2.319267 0.097149 -0.036345 244760.000000 0 0 1
-21.304905 -10.684386 -21.825559 32.317334 0.464846 2.312237 0.106463 -0.023305 824504.000000 0 0 1
-22.334905 -9.732486 -22.607759 33.236727 0.410943 2.318837 0.070716 -0.024200 693946.000000 0 0 1
-21.671705 -8.945386 -23.592059 33.260607 0.391465 2.359314 0.081275 -0.031459 -180897.000000 0 0 1
-22.520205 -8.399286 -24.522059 34.337137 0.356987 2.366213 0.067731 -0.020337 -797275.000000 0 0 1
-21.768105 -7.591386 -25.595819 34.447431 0.335551 2.408398 0.076171 -0.030072 -662743.000000 0 0 1
-20.955505 -8.465186 -26.262569 34.648450 0.383915 2.430995 0.082690 -0.034076 -482145.000000 0 0 1
-20.189505 -7.747886 -27.191579 34.742306 0.366427 2.469732 0.075543 -0.041830 -8677.080000 0 0 1
-18.986205 -8.492486 -27.811319 34.728486 0.420604 2.499462 0.074844 -0.037365 -56133.900000 0 0 1
-19.428605 -9.336586 -28.867289 36.027252 0.447974 2.500199 0.069860 -0.022181 1414100.000000 0 0 1
-18.340305 -10.039886 -29.557439 36.205086 0.500862 2.525927 0.060476 -0.020492 837356.000000 0 0 1
-18.872405 -11.153786 -30.462569 37.530557 0.533783 2.517808 0.062721 -0.015978 -9966.270000 0 0 1
-19.396305 -10.753386 -31.742739 38.722776 0.506218 2.531759 0.057670 -0.012460 359081.000000 0 0 1
-19.821305 -11.826986 -32.478869 39.845183 0.537975 2.523744 0.045519 -0.011280 -134406.000000 0 0 1
-20.548905 -11.556686 -33.795389 41.206101 0.512313 2.532478 0.046474 -0.010139 -600936.000000 0 0 1
-19.728405 -10.911786 33.359228 40.263074 0.505220 0.594316 0.048691 -0.014632 -300638.000000 0 0 1
-20.153305 -11.150986 32.055972 39.472592 0.505379 0.623042 0.049135 -0.018566 -522650.000000 0 0 1
-19.529005 -12.374886 31.339531 38.944654 0.564807 0.635593 0.059417 -0.025900 -548515.000000 0 0 1
-18.166205 -12.221886 31.049221 37.992626 0.592224 0.614185 0.068105 -0.028273 -21669.700000 0 0 1
-17.557105 -13.216686 30.228201 37.372140 0.645280 0.628614 0.067040 -0.028847 197586.000000 0 0 1
-17.507105 -14.720386 30.749461 38.323855 0.699142 0.639560 0.067503 -0.015756 -405840.000000 0 0 1
-18.712705 -15.348286 30.311711 38.788336 0.686941 0.673787 0.053456 -0.017533 502436.000000 0 0 1
-18.981905 -16.639486 30.891121 39.892939 0.719734 0.685108 0.074869 -0.020199 -85829.600000 0 0 1
-19.292705 -16.781586 32.382891 41.261140 0.715901 0.668378 0.037041 -0.023648 -446904.000000 0 0 1
-18.178805 -16.457486 33.176515 41.255290 0.735742 0.636508 0.067295 -0.014419 57190.600000 0 0 1
-18.581905 -16.020686 -33.609329 41.611736 0.711515 2.511018 0.050743 -0.012989 103631.000000 0 0 1
-17.282005 -15.736786 -32.835859 40.305182 0.738634 2.522975 0.061707 -0.011193 148856.000000 0 0 1
-16.618805 -14.593686 -33.391209 40.051631 0.720607 2.556578 0.058819 -0.012524 135090.000000 0 0 1
-15.494905 -14.106186 -32.660769 38.804669 0.738518 2.571167 0.066190 -0.015010 315876.000000 0 0 1
-15.774105 -13.566086 -31.203759 37.503808 0.710284 2.553528 0.065054 -0.013087 -327967.000000 0 0 1
-16.098205 -14.563886 -30.284509 37.261380 0.735400 2.519668 0.060213 -0.013282 -195845.000000 0 0 1
-16.353405 -13.937186 -29.007419 36.098606 0.705799 2.504050 0.055733 -0.013754 -276765.000000 0 0 1
-16.603305 -14.982586 -27.902399 35.758796 0.734132 2.465933 0.062781 -0.012780 1145550.000000 0 0 1
-15.455105 -15.769886 -27.448349 35.227282 0.795479 2.464151 0.076282 -0.030353 780433.000000 0 0 1
-14.761005 -16.489586 -28.439839 36.036344 0.840655 2.480300 0.075604 -0.028730 -676875.000000 0 0 1
-13.457105 -17.074386 -27.848299 35.329252 0.903325 2.478757 0.100563 -0.026386 -127785.000000 0 0 1
-12.421705 -16.106686 -27.908339 34.534033 0.913856 2.511784 0.075992 -0.027737 -609049.000000 0 0 1
-11.272505 -16.622686 -27.294439 33.887600 0.974893 2.507214 0.095083 -0.031795 -450731.000000 0 0 1
-9.991005 -15.882286 -27.651269 33.416460 1.009279 2.545391 0.082891 -0.039148 -217193.000000 0 0 1
-9.866905 -14.501186 -27.236539 32.395513 0.973332 2.569464 0.076240 -0.034614 -18703.600000 0 0 1
-8.502905 -14.152186 -27.046579 31.687555 1.029775 2.593537 0.097476 -0.037727 114628.000000 0 0 1
-8.228805 -12.650286 -27.197929 31.104184 0.994081 2.635023 0.092933 -0.045529 -223057.000000 0 0 1
-7.896305 -12.282386 -28.475009 32.000543 0.999431 2.667766 0.108274 -0.044380 148151.000000 0 0 1
-7.857305 -10.874386 -28.687729 31.669785 0.945095 2.704153 0.096513 -0.040801 -114924.000000 0 0 1
-6.986005 -10.594186 -29.938489 32.516982 0.987828 2.740675 0.098836 -0.029271 646672.000000 0 0 1
-5.589605 -10.874586 -29.676589 32.096732 1.096007 2.750776 0.105408 -0.030523 1320860.000000 0 0 1
-4.728405 -10.638086 -30.776949 32.905125 1.152543 2.779970 0.093031 -0.026202 127476.000000 0 0 1
-4.315405 -9.143986 -30.897649 32.509997 1.129848 2.825330 0.091119 -0.020819 442973.000000 0 0 1
-3.162605 -8.876786 -31.764499 33.132805 1.228539 2.853200 0.077422 -0.029340 1123220.000000 0 0 1
-3.111005 -7.516886 -32.174629 33.187176 1.178391 2.893937 0.064180 -0.027303 274615.000000 0 0 1
-1.746605 -7.048586 -32.758209 33.553441 1.327894 2.923443 0.070781 -0.029947 431370.000000 0 0 1
-1.387005 -7.456986 33.971935 34.808372 1.386897 0.219666 0.072478 -0.038617 271152.000000 0 0 1
-0.165605 -6.807486 33.593981 34.277177 1.546474 0.199990 0.067358 -0.030961 559467.000000 0 0 1
0.506795 -7.279486 32.280023 33.094526 -1.501289 0.222320 0.054635 -0.030100 -4655.250000 0 0 1
-0.139005 -6.943186 31.053961 31.820994 1.550779 0.220009 0.048124 -0.024345 149284.000000 0 0 1
0.628395 -7.618486 30.086711 31.042654 -1.488500 0.248813 0.045798 -0.030627 153375.000000 0 0 1
0.349195 -7.086486 28.673931 29.538695 -1.521560 0.242568 0.050929 -0.027486 -64460.900000 0 0 1
0.939895 -5.865886 28.325351 28.941623 -1.411916 0.206735 0.040328 -0.024053 -51333.600000 0 0 1
0.615695 -5.460386 26.998661 27.552179 -1.458514 0.200786 0.039333 -0.019913 -144223.000000 0 0 1
-0.639505 -4.609186 26.804261 27.205183 1.432931 0.171891 0.049167 -0.014220 71561.100000 0 0 1
-1.887105 -5.224086 26.969951 27.535985 1.224151 0.203111 0.058855 -0.017129 -257230.000000 0 0 1
-2.997705 -4.404086 26.665061 27.192052 0.973165 0.197197 0.063918 -0.020862 45030.500000 0 0 1
-4.356505 -4.966186 27.061691 27.856368 0.850703 0.239434 0.071987 -0.017800 -358690.000000 0 0 1
-4.820005 -6.063886 26.306691 27.423442 0.899191 0.286363 0.077750 -0.014454 -472399.000000 0 0 1
-6.164605 -6.287086 26.650631 28.067524 0.795234 0.319099 0.067403 -0.018371 257339.000000 0 0 1
-6.673505 -7.731086 26.601601 28.494746 0.858686 0.366572 0.081167 -0.018186 451586.000000 0 0 1
-5.982105 -8.477486 27.609061 29.494298 0.956291 0.359476 0.082069 -0.022505 125504.000000 0 0 1
-6.384305 -9.829586 27.603991 29.989338 0.994773 0.401540 0.084396 -0.024216 503738.000000 0 0 1
-5.551105 -10.558586 28.731171 31.109141 1.086767 0.393532 0.080585 -0.030083 339370.000000 0 0 1
-5.766805 -11.954786 28.872511 31.777269 1.121340 0.430900 0.089230 -0.032144 109803.000000 0 0 1
-5.023805 -12.538486 29.945141 32.850627 1.189712 0.423747 0.084830 -0.033400 74862.200000 0 0 1
-4.863405 -14.048386 29.862111 33.357990 1.237520 0.461914 0.088782 -0.039008 32888.900000 0 0 1
-6.084005 -14.748186 29.654791 33.673888 1.179539 0.493571 0.106720 -0.036824 -84505.200000 0 0 1
-6.121705 -16.177286 29.684721 34.356404 1.209036 0.527590 0.091250 -0.034720 -204017.000000 0 0 1
-6.333205 -16.656386 31.142351 35.880227 1.207451 0.519731 0.097494 -0.025802 558125.000000 0 0 1
-7.664405 -16.448886 31.630111 36.466051 1.134755 0.520873 0.097212 -0.031252 369643.000000 0 0 1
-7.801105 -16.591786 32.994065 37.745899 1.131289 0.507196 0.104460 -0.025844 -858378.000000 0 0 1
-9.239505 -16.717786 33.494779 38.558436 1.065902 0.518273 0.109774 -0.014913 -183753.000000 0 0 1
-9.801305 -18.005686 33.239349 39.052844 1.072305 0.552647 0.104253 -0.010609 11530.800000 0 0 1
-10.327705 -18.172586 31.930361 38.163494 1.054002 0.579616 0.103752 -0.019255 -780387.000000 0 0 1
-10.933605 -19.527686 31.706171 38.809219 1.060382 0.614650 0.122076 -0.015602 -866544.000000 0 0 1
-12.044005 -19.719186 32.504971 39.880791 1.022491 0.617975 0.116066 -0.014588 -508466.000000 0 0 1
-12.642005 -20.996886 32.317852 40.560240 1.028842 0.648838 0.100686 -0.010422 -96828.000000 0 0 1
-12.036905 -22.165486 33.136709 41.644175 1.073307 0.650617 0.094899 -0.004163 129183.000000 0 0 1
-10.695305 -22.474186 32.751749 41.135819 1.126620 0.649832 0.084705 -0.006606 315135.000000 0 0 1
-10.031505 -23.236686 33.757696 42.191903 1.163256 0.643336 0.075950 -0.009644 71700.600000 0 0 1
-10.416505 -24.695786 -33.998559 43.293041 1.171645 2.473997 0.089012 -0.009188 -409607.000000 0 0 1
-9.970705 -25.502726 33.005923 42.885836 1.198102 0.692546 0.081731 -0.004889 -50363.600000 0 0 1
-10.169305 -26.868896 33.081722 43.814982 1.208979 0.715093 0.083343 -0.008404 -389685.000000 0 0 1
-9.246205 -27.559956 32.017791 43.245605 1.247102 0.737174 0.074943 -0.008647 1611440.000000 0 0 1
-7.811705 -27.381276 31.967501 42.809790 1.292886 0.727659 0.090042 -0.021811 917309.000000 0 0 1
-7.180005 -27.974556 33.039147 43.882952 1.319557 0.718350 0.086435 -0.017714 -1324690.000000 0 0 1
-5.697605 -27.761596 33.323504 43.744997 1.368374 0.704760 0.095292 -0.029712 -176699.000000 0 0 1
-5.388605 -26.480796 33.897898 43.351322 1.370046 0.673033 0.086566 -0.019049 -19380.000000 0 0 1
-5.075105 -25.550706 32.897859 41.962654 1.374720 0.669746 0.091321 -0.012252 -191520.000000 0 0 1
-4.796805 -24.085586 33.439601 41.488934 1.374212 0.633453 0.091105 -0.020802 459939.000000 0 0 1
-3.511705 -24.042686 -34.006381 41.794937 1.425761 2.521197 0.074492 -0.023799 277083.000000 0 0 1
-3.292305 -22.869786 -33.291759 40.524160 1.427820 2.534883 0.072488 -0.024281 -60590.200000 0 0 1
35.242419 -15.262386 2.600241 38.493243 -0.408685 1.503194 0.117061 -0.041689 -418561.000000 0 0 1
35.162949 -16.501786 3.238141 38.977268 -0.438783 1.487623 0.134277 -0.039596 155580.000000 0 0 1
35.277309 -16.563686 4.674741 39.251718 -0.438974 1.451416 0.116747 -0.047093 208251.000000 0 0 1
36.669899 -16.220686 5.285941 40.444200 -0.416468 1.439724 0.102808 -0.018279 272497.000000 0 0 1
-36.255555 -17.231886 5.198741 40.477526 0.443685 1.442005 0.099843 -0.019221 -8354.080000 0 0 1
-35.486302 -17.284286 6.402441 39.987691 0.453250 1.409994 0.097845 -0.015803 536585.000000 0 0 1
-34.363874 -18.349086 6.493841 39.493478 0.490449 1.405618 0.057685 -0.024858 131144.000000 0 0 1
-34.840481 -19.607186 6.897141 40.569341 0.512595 1.399958 0.074872 -0.028101 95533.600000 0 0 1
-33.739455 -20.411186 7.276541 40.098820 0.544062 1.388320 0.067400 -0.017708 94181.600000 0 0 1
-34.039655 -21.917386 7.344541 41.146230 0.572059 1.391336 0.064348 -0.010335 -484948.000000 0 0 1
-33.870875 -22.487286 6.061941 41.105490 0.586093 1.422784 0.077669 -0.011184 208157.000000 0 0 1
-34.143315 -23.887986 6.163341 42.123492 0.610483 1.423953 0.092864 -0.014768 -166263.000000 0 0 1
-33.631035 -24.758386 4.972341 42.056490 0.634595 1.452289 0.094805 -0.012192 -52441.900000 0 0 1
-34.151963 -24.377586 3.709241 42.123411 0.619926 1.482626 0.091355 -0.015562 49773.500000 0 0 1
-33.712855 -25.256236 2.683441 42.209417 0.642962 1.507179 0.085850 -0.007275 -279377.000000 0 0 1
-34.352661 -25.102526 1.299441 42.566779 0.631054 1.540264 0.083515 -0.013428 -201736.000000 0 0 1
-35.557739 -25.895656 1.168841 44.003454 0.629449 1.544231 0.081157 -0.010925 959354.000000 0 0 1
-36.110165 -25.721426 -0.160259 44.334653 0.618936 1.574411 0.066826 -0.012963 83886.600000 0 0 1
-36.835495 -24.361386 -0.323759 44.163737 0.584317 1.578127 0.074532 -0.023128 -1462370.000000 0 0 1
35.728779 -24.409986 0.077141 43.271226 -0.599363 1.569014 0.058434 -0.005784 -499865.000000 0 0 1
35.199829 -23.131586 0.336241 42.121387 -0.581386 1.562814 0.078962 -0.020460 -161992.000000 0 0 1
33.676659 -23.000386 0.514241 40.784795 -0.599210 1.558187 0.055075 -0.006071 -17784.400000 0 0 1
33.076989 -23.283886 -0.724159 40.456778 -0.613359 1.588697 0.041612 -0.012592 213825.000000 0 0 1
31.667869 -23.072786 -0.733759 39.188592 -0.629655 1.589521 0.032553 -0.008465 586103.000000 0 0 1
31.077799 -23.072286 -2.159359 38.766258 -0.638622 1.626527 0.039764 -0.013247 19381.400000 0 0 1
31.289639 -21.798286 -2.695659 38.229221 -0.608482 1.641368 0.063300 -0.023549 89958.700000 0 0 1
30.847069 -21.717086 -4.032459 37.939876 -0.613422 1.677283 0.066212 -0.037930 60445.200000 0 0 1
30.975679 -20.345886 -4.695259 37.356300 -0.581165 1.696818 0.058924 -0.039385 446072.000000 0 0 1
30.010629 -19.535986 -4.023259 36.034416 -0.577056 1.682680 0.069272 -0.038221 347015.000000 0 0 1
30.065099 -18.122386 -4.365959 35.375028 -0.542455 1.694531 0.066949 -0.033879 344291.000000 0 0 1
29.157349 -17.339786 -3.321159 34.085910 -0.536511 1.668386 0.081632 -0.023487 408658.000000 0 0 1
29.671799 -17.121686 -1.996559 34.315507 -0.523363 1.629012 0.080643 -0.020145 383517.000000 0 0 1
30.213739 -18.262286 -1.223159 35.325305 -0.543675 1.605429 0.074416 -0.018420 257979.000000 0 0 1
29.230839 -19.454386 -0.964359 35.126130 -0.587224 1.598254 0.058783 -0.014899 -216718.000000 0 0 1
28.221789 -19.075986 -0.073559 34.064175 -0.594389 1.572956 0.060188 -0.000772 -387919.000000 0 0 1
27.630689 -20.184186 0.516241 34.221672 -0.630903 1.555711 0.052856 -0.007760 -1523770.000000 0 0 1
26.403789 -19.945686 1.307741 33.116470 -0.646955 1.531297 0.055181 -0.002545 -1637180.000000 0 0 1
25.903289 -21.160486 1.936641 33.503688 -0.684963 1.512960 0.043030 0.003704 650552.000000 0 0 1
24.946689 -20.946586 2.991941 32.711595 -0.698457 1.479204 0.043102 -0.000048 507829.000000 0 0 1
23.503689 -20.488786 2.708141 31.297727 -0.716973 1.484160 0.038944 -0.005543 -503023.000000 0 0 1
23.421989 -19.200586 2.149141 30.362326 -0.686679 1.499954 0.075680 -0.018079 111799.000000 0 0 1
23.577789 -18.173686 3.103241 29.930337 -0.656679 1.466928 0.094961 -0.025096 -444663.000000 0 0 1
23.220389 -16.758986 2.526241 28.747729 -0.625165 1.482807 0.086014 -0.016090 706247.000000 0 0 1
21.843489 -16.532186 2.216041 27.483850 -0.647869 1.490078 0.082172 -0.013519 412533.000000 0 0 1
21.719489 -15.240386 1.694541 26.587159 -0.611860 1.507018 0.101163 -0.031903 369356.000000 0 0 1
20.356489 -14.827486 1.082441 25.207392 -0.629527 1.527842 0.087466 -0.021973 -606889.000000 0 0 1
19.258189 -14.674786 1.911541 24.287469 -0.651138 1.492010 0.078165 -0.021848 -28247.700000 0 1 0
18.415489 -13.607286 1.493941 22.946030 -0.636362 1.505643 0.090255 -0.026921 -68330.800000 0 1 0
18.845889 -12.225286 1.995941 22.552359 -0.575459 1.482178 0.113489 -0.029111 -731766.000000 0 1 0
19.921089 -11.689186 1.288741 23.133259 -0.530638 1.515058 0.120593 -0.029641 185379.000000 0 1 0
20.483089 -10.578186 1.977841 23.137994 -0.476709 1.485212 0.117610 -0.026507 40151.700000 0 1 0
21.465589 -9.651186 1.261441 23.569220 -0.422531 1.517250 0.132153 -0.025292 -36788.600000 0 1 0
20.794889 -9.105486 0.138741 22.701465 -0.412722 1.564685 0.121226 -0.025154 836826.000000 0 1 0
21.698689 -8.536886 -0.774359 23.330476 -0.374829 1.603993 0.113634 -0.015036 -555566.000000 0 1 0
21.049289 -8.254086 -2.114159 22.708416 -0.373705 1.664032 0.128471 -0.017984 -535952.000000 0 1 0
21.843389 -7.604186 -3.093059 23.335044 -0.335002 1.703738 0.113088 -0.020983 1196160.000000 0 1 0
22.888989 -8.383486 -3.758159 24.663990 -0.351093 1.723767 0.108926 -0.019320 493483.000000 0 1 0
22.377089 -9.598386 -4.645659 24.788006 -0.405202 1.759327 0.086508 -0.021624 -375827.000000 0 1 0
21.717489 -9.247286 -5.836459 24.315136 -0.402547 1.813197 0.087792 -0.030782 -157632.000000 0 1 0
20.332289 -9.067686 -5.710359 22.983322 -0.419501 1.821883 0.080034 -0.021666 -712145.000000 0 1 0
19.652889 -9.017786 -7.092759 22.756619 -0.430192 1.887756 0.086084 -0.025231 -421634.000000 0 1 0
19.643389 -10.240786 -7.867859 23.508288 -0.480570 1.912067 0.085631 -0.017227 258058.000000 0 1 0
20.882989 -10.616986 -8.424259 24.895536 -0.470348 1.915996 0.091494 -0.012785 -322137.000000 0 1 0
20.894889 -12.036686 -9.098459 25.773244 -0.522630 1.931593 0.084395 -0.016833 -344314.000000 0 0 1
20.032089 -12.157486 -10.191759 25.553101 -0.545478 1.981055 0.105410 -0.024442 158050.000000 0 0 1
19.778089 -13.497886 -10.570459 26.174421 -0.598861 1.986514 0.097583 -0.016568 -273554.000000 0 0 1
18.787089 -13.742586 -11.701659 26.052681 -0.631550 2.036614 0.120218 -0.013994 -109664.000000 0 0 1
18.263689 -15.046086 -11.738259 26.414650 -0.689101 2.031283 0.107717 -0.019373 611446.000000 0 0 1
17.306189 -15.199886 -12.802559 26.352347 -0.720691 2.078100 0.115945 -0.018002 337743.000000 0 0 1
17.221389 -16.635686 -13.263459 27.372278 -0.768101 2.076654 0.109010 -0.019769 -188327.000000 0 0 1
16.591589 -17.415486 -12.257259 26.996673 -0.809621 2.042078 0.105228 -0.020928 326842.000000 0 0 1
16.519789 -18.784686 -12.671559 28.041687 -0.849464 2.039671 0.105425 -0.025524 98775.700000 0 0 1
15.535689 -19.665886 -11.825559 27.711884 -0.902194 2.011673 0.095321 -0.021421 1208800.000000 0 0 1
14.152589 -19.503786 -12.153059 26.988706 -0.943073 2.037899 0.083193 -0.018210 252878.000000 0 0 1
13.230789 -20.255586 -11.437959 26.761342 -0.992180 2.012418 0.069721 -0.007493 -450658.000000 0 0 1
11.813489 -20.032986 -11.976459 26.159407 -1.037983 2.046345 0.063862 -0.018970 120700.000000 0 0 1
10.898089 -20.725186 -11.095259 25.911511 -1.086693 2.013294 0.059458 -0.019647 -394047.000000 0 0 1
9.558289 -20.550986 -11.442859 25.389819 -1.135455 2.038331 0.039383 -0.015401 -340990.000000 0 0 1
8.605889 -21.191986 -10.426159 25.136952 -1.185050 1.998491 0.027976 -0.019861 -271522.000000 0 0 1
8.644189 -22.647786 -10.456859 26.400570 -1.206183 1.978045 0.051219 -0.017997 -535607.000000 0 0 1
7.774389 -23.161786 -9.520659 26.221220 -1.246957 1.942378 0.047335 -0.029014 -311054.000000 0 0 1
7.780189 -24.676986 -9.466359 27.551713 -1.265380 1.921528 0.058291 -0.023668 526140.000000 0 0 1
9.017089 -25.192156 -8.990959 28.227468 -1.227072 1.894962 0.058548 -0.016866 -140087.000000 0 0 1
9.152189 -26.508276 -9.540959 29.622308 -1.238352 1.898729 0.048946 -0.013402 185906.000000 0 0 1
10.586789 -27.076986 -9.519759 30.591977 -1.198083 1.887236 0.047093 -0.008195 268761.000000 0 0 1
11.131789 -27.136176 -8.179359 30.449805 -1.181511 1.842754 0.057795 -0.014053 -45808.700000 0 0 1
12.449489 -27.649616 -8.154359 31.400391 -1.147727 1.833497 0.072614 -0.004487 -105887.000000 0 0 1
12.962489 -27.865476 -6.672659 31.448930 -1.135390 1.784596 0.065901 -0.016340 127677.000000 0 0 1
12.401789 -28.966716 -5.952959 32.067315 -1.166270 1.757519 0.080796 -0.024534 556031.000000 0 0 1
11.002789 -29.051086 -5.689059 31.581519 -1.208751 1.751924 0.076946 -0.021617 463276.000000 0 0 1
10.660589 -30.284406 -4.752359 32.455790 -1.232327 1.717750 0.084980 -0.019337 201758.000000 0 0 1
10.776889 -31.568056 -5.365659 33.785703 -1.241816 1.730286 0.102010 -0.023892 1873610.000000 0 0 1
9.501789 -31.921266 -6.062859 33.852761 -1.281485 1.750863 0.111091 -0.031623 2190280.000000 0 0 1
9.397189 -33.464826 -6.365359 35.337225 -1.297039 1.751917 0.114009 -0.029074 -6071.630000 0 0 1
9.366289 33.906047 -5.124259 35.547228 1.301275 1.715454 0.100242 -0.031435 -117159.000000 0 0 1
9.617889 32.548437 -5.344159 34.357890 1.283478 1.726974 0.105381 -0.026271 33650.400000 0 0 1
9.172789 31.544081 -4.239159 33.123097 1.287808 1.699130 0.077792 -0.018858 400875.000000 0 0 1
7.760289 31.404401 -4.232859 32.624770 1.328541 1.700907 0.071086 -0.019814 -267182.000000 0 0 1
7.436589 30.364841 -3.350359 31.441236 1.330616 1.677558 0.051032 -0.016599 532335.000000 0 0 1
6.016389 29.736291 -3.565659 30.547633 1.371166 1.687788 0.048298 -0.015704 594046.000000 0 0 1
5.921289 29.039231 -4.793359 30.021907 1.369647 1.731145 0.054355 -0.018167 110444.000000 0 0 1
5.585189 29.872481 -5.885259 30.954737 1.385963 1.762085 0.062201 -0.025159 -413374.000000 0 0 1
5.572289 29.198261 -7.251259 30.596889 1.382221 1.810066 0.083662 -0.031932 -322514.000000 0 0 1
4.671289 28.144731 -7.443559 29.484799 1.406322 1.826012 0.077134 -0.031725 88075.900000 0 0 1
5.210289 26.889331 -7.004259 28.270884 1.379400 1.821159 0.072861 -0.025336 -58125.000000 0 0 1
4.345989 25.677751 -7.484259 27.097023 1.403134 1.850637 0.072012 -0.038702 -548222.000000 0 0 1
3.052189 25.628961 -6.937159 26.726086 1.452263 1.833368 0.070707 -0.037564 107322.000000 0 0 1
1.983889 26.219461 -7.702759 27.399424 1.495275 1.855766 0.074364 -0.040332 664261.000000 0 0 1
1.535289 25.464301 -8.969859 27.041563 1.510577 1.908908 0.066836 -0.031799 -626622.000000 0 0 1
2.583589 25.290821 -9.912259 27.286507 1.468994 1.942567 0.056495 -0.032553 -164427.000000 0 0 1
2.283389 24.722101 -11.138259 27.211339 1.478695 1.992510 0.063536 -0.029499 -931821.000000 0 0 1
2.024889 23.245301 -11.086859 25.833363 1.483906 2.014368 0.067329 -0.020735 384052.000000 0 0 1
0.712489 22.935111 -10.615659 25.282784 1.539741 2.004106 0.072401 -0.019352 165175.000000 0 0 1
0.658689 21.563111 -10.360959 23.932219 1.540259 2.018536 0.037693 -0.010640 99921.500000 0 1 0
-0.487911 21.258211 -9.361059 23.233145 -1.547849 1.985499 0.043599 -0.009390 -174797.000000 0 1 0
-1.734811 21.070311 -9.950359 23.366156 -1.488647 2.010692 0.048636 -0.012774 -999745.000000 0 1 0
-2.644111 20.477011 -9.052359 22.544279 -1.442381 1.983991 0.038130 -0.014328 -62215.300000 0 1 0
-3.816011 19.934311 -9.918659 22.590230 -1.381655 2.025358 0.034151 -0.025772 517714.000000 0 1 0
-4.928711 19.483611 -9.120559 22.070068 -1.323027 1.996822 0.045958 -0.028734 892022.000000 0 1 0
-5.944511 19.059111 -10.058159 22.355167 -1.268459 2.037478 0.054415 -0.030845 -278426.000000 0 1 0
-6.806311 17.924911 -9.418059 21.361839 -1.207901 2.027378 0.052875 -0.036406 386092.000000 0 1 0
-7.838211 18.346711 -8.510659 21.690336 -1.167041 1.974004 0.078213 -0.033050 746603.000000 0 1 0
-9.019111 18.772711 -9.176759 22.758997 -1.122921 1.985823 0.081366 -0.034761 179970.000000 0 1 0
-10.217111 19.115111 -8.230159 23.184313 -1.079928 1.933698 0.093111 -0.034518 466661.000000 0 1 0
-10.740611 17.932511 -7.633559 22.253245 -1.031152 1.920938 0.091151 -0.031288 -218339.000000 0 1 0
-11.649211 18.314311 -6.608659 22.689039 -1.004275 1.866351 0.097808 -0.023413 180287.000000 0 1 0
-12.041011 17.063911 -5.704459 21.649570 -0.956294 1.837435 0.075387 -0.025340 -143717.000000 0 1 0
-12.884811 17.464311 -4.678559 22.201564 -0.935162 1.783119 0.082764 -0.021639 -362500.000000 0 1 0
-13.394611 16.305311 -4.042259 21.485312 -0.883090 1.760065 0.073800 -0.018294 207464.000000 0 1 0
-14.655311 16.588711 -3.179459 22.362300 -0.847200 1.713459 0.064093 -0.016339 437070.000000 0 1 0
-15.861711 16.713511 -3.918459 23.372840 -0.811541 1.739242 0.099288 -0.027032 443335.000000 0 1 0
-16.975611 16.995611 -3.091959 24.219463 -0.785987 1.698810 0.100688 -0.021283 1360280.000000 0 1 0
-18.397211 17.023211 -3.797759 25.350938 -0.746626 1.721170 0.097785 -0.029694 1084660.000000 0 0 1
-18.483211 18.149411 -4.616259 26.312356 -0.776286 1.747150 0.096527 -0.027178 372620.000000 0 0 1
-19.818011 18.412511 -5.037459 27.516361 -0.748651 1.754906 0.068012 -0.028255 426761.000000 0 0 1
-19.800311 19.276211 -6.328959 28.349257 -0.771987 1.795943 0.066064 -0.014946 6059.230000 0 0 1
-19.421711 20.626211 -6.128859 28.986314 -0.815466 1.783844 0.070721 -0.025345 159865.000000 0 0 1
-19.642511 21.333411 -7.313859 29.907110 -0.826640 1.817854 0.068345 -0.013918 35487.000000 0 0 1
-19.662111 22.879011 -7.044859 30.978667 -0.860873 1.800213 0.067932 -0.014752 1258610.000000 0 0 1
-18.358011 23.451961 -6.720559 30.531573 -0.906636 1.792732 0.080836 -0.013982 1352200.000000 0 0 1
-18.114911 23.661651 -5.312159 30.269503 -0.917398 1.747205 0.064819 -0.014966 -398159.000000 0 0 1
-16.816411 24.413431 -5.061859 30.073738 -0.967615 1.739916 0.071282 -0.012739 -780784.000000 0 0 1
-16.537811 24.788261 -3.721659 30.030116 -0.982450 1.695047 0.054478 -0.014948 637498.000000 0 0 1
-15.240311 25.336721 -3.461859 29.769128 -1.029267 1.687350 0.066778 -0.012645 578197.000000 0 0 1
-14.725411 26.608141 -4.206659 30.700601 -1.065333 1.708251 0.075388 -0.009573 -447937.000000 0 0 1
-15.455611 27.775491 -3.956859 32.031400 -1.063016 1.694643 0.086641 -0.011567 6260.320000 0 0 1
-14.914911 28.822531 -4.744559 32.797923 -1.093267 1.715966 0.075539 -0.004157 14617.000000 0 0 1
-15.598911 30.190301 -4.412159 34.267294 -1.093889 1.699912 0.083789 -0.001973 -83145.300000 0 0 1
-16.855811 30.356631 -5.008659 35.081763 -1.063924 1.714057 0.089141 -0.011796 -274155.000000 0 0 1
-17.425411 31.585251 -4.634659 36.369673 -1.066653 1.698576 0.096238 -0.012053 -124487.000000 0 0 1
12.854595 -8.356086 18.885871 24.325725 -0.576408 0.681903 0.070015 -0.012808 -71519.900000 0 1 0
12.864495 -9.749186 19.146171 25.042318 -0.648498 0.700449 0.058358 -0.011967 -25018.300000 0 0 1
13.444295 -10.421886 18.016471 24.778176 -0.659429 0.756693 0.063437 -0.018857 -245531.000000 0 1 0
13.943395 -11.800086 18.423971 25.944228 -0.702333 0.781103 0.098338 -0.032676 217485.000000 0 0 1
15.058395 -11.611786 19.336671 27.120023 -0.656880 0.777024 0.083481 -0.028512 884365.000000 0 0 1
15.312595 -12.848386 20.016371 28.288013 -0.698116 0.784712 0.089496 -0.030406 224281.000000 0 0 1
16.185095 -13.960486 19.335071 28.821822 -0.711736 0.835444 0.090478 -0.027065 -166133.000000 0 0 1
15.519895 -14.471186 18.199071 27.955116 -0.750445 0.861882 0.097214 -0.038344 318387.000000 0 0 1
15.969295 -15.750186 17.796771 28.632355 -0.778491 0.900062 0.108069 -0.042603 -449466.000000 0 0 1
15.277195 -16.225486 16.538571 27.752178 -0.815491 0.932363 0.101405 -0.046240 -777720.000000 0 0 1
13.951495 -16.610386 16.738571 27.399432 -0.872180 0.913588 0.137133 -0.044920 -162095.000000 0 0 1
13.174295 -16.446386 15.539971 26.182749 -0.895419 0.935372 0.145586 -0.043978 266930.000000 0 0 1
12.653495 -17.688786 14.769671 26.289679 -0.949849 0.974230 0.111342 -0.037144 -238702.000000 0 0 1
13.718495 -18.325086 14.122871 26.897237 -0.928180 1.018002 0.112552 -0.044938 167424.000000 0 0 1
13.295095 -19.358786 13.259771 26.969309 -0.969003 1.056800 0.106256 -0.044053 102300.000000 0 0 1
14.501995 -20.191186 12.723771 27.926442 -0.947937 1.097731 0.114547 -0.042900 330238.000000 0 0 1
15.150595 -20.910686 13.774471 29.266591 -0.943791 1.080763 0.102744 -0.037781 104329.000000 0 0 1
15.709295 -22.136086 13.335271 30.242647 -0.953611 1.114148 0.092062 -0.037173 -473659.000000 0 0 1
16.460695 -22.920386 14.384071 31.673333 -0.947981 1.099392 0.089484 -0.035548 431512.000000 0 0 1
17.760995 -22.345886 14.596871 32.060258 -0.899221 1.098093 0.043940 -0.028628 443377.000000 0 0 1
18.347795 -22.818686 15.766271 33.255214 -0.893579 1.076856 0.041105 -0.021960 -167256.000000 0 0 1
19.793195 -22.363586 16.093371 33.924874 -0.846295 1.076534 0.022101 -0.017836 753318.000000 0 0 1
20.712895 -22.958886 15.142471 34.430057 -0.836782 1.115416 0.018728 -0.023208 943539.000000 0 0 1
21.980995 -22.261786 15.098371 34.737761 -0.791745 1.121159 0.020005 -0.018657 200096.000000 0 0 1
23.035595 -23.075686 14.427571 35.655023 -0.786268 1.154207 0.012571 -0.016069 -723985.000000 0 0 1
23.429495 -24.203186 15.185671 36.950508 -0.801640 1.147275 0.018964 -0.013273 982774.000000 0 0 1
24.603695 -24.829986 14.596871 37.880584 -0.789976 1.175221 0.027361 -0.018720 761000.000000 0 0 1
25.005895 -26.061756 15.399171 39.263779 -0.806071 1.167777 0.038039 -0.019615 -264392.000000 0 0 1
25.717495 -25.702826 16.595471 39.967917 -0.785113 1.142612 0.051573 -0.016072 468117.000000 0 0 1
26.157495 -26.808176 17.392271 41.296294 -0.797682 1.136074 0.064145 -0.002329 179080.000000 0 0 1
26.524995 -26.500256 18.879971 41.979664 -0.784932 1.104321 0.057065 -0.004005 871394.000000 0 0 1
25.366195 -26.063336 19.624071 41.326087 -0.798953 1.075992 0.059680 0.000826 959309.000000 0 0 1
25.740995 -25.812156 21.010171 42.074855 -0.786779 1.047945 0.062264 0.000054 341629.000000 0 0 1
24.478695 -25.609526 21.877171 41.637302 -0.807971 1.017585 0.055932 -0.005230 169806.000000 0 0 1
23.773595 -26.778586 22.181971 42.122634 -0.844772 1.016195 0.055298 -0.004140 -362837.000000 0 0 1
22.696595 -26.564906 23.049171 41.858021 -0.863763 0.987652 0.047672 -0.003807 -215382.000000 0 0 1
21.908095 -27.875846 23.286161 42.417834 -0.904702 0.989664 0.052387 -0.002173 -350819.000000 0 0 1
22.675295 -28.871006 23.917721 43.815081 -0.905021 0.993359 0.051605 -0.004035 173408.000000 0 0 1
22.551595 -30.154506 23.282471 44.271233 -0.928661 1.017017 0.064030 -0.009750 -95508.700000 0 0 1
23.617695 -31.177366 23.790391 45.779977 -0.922495 1.024334 0.045043 0.000765 136132.000000 0 0 1
23.590895 -31.288386 25.228971 46.604660 -0.924751 0.998766 0.039361 -0.004529 318473.000000 0 0 1
24.746295 -31.950506 25.697521 47.891299 -0.911786 1.004417 0.030994 -0.004307 -716136.000000 0 0 1
24.599795 -32.311066 27.151631 48.850444 -0.920075 0.981458 0.027410 -0.020617 313000.000000 0 0 1
23.931695 -33.555346 27.406721 49.495612 -0.951266 0.983971 0.025393 -0.013874 -283989.000000 0 0 1
22.586795 -33.616206 27.068391 48.712528 -0.979178 0.981620 0.031196 -0.015156 -1534210.000000 0 0 1
21.881395 33.199403 27.507701 48.349451 0.988057 0.965586 0.062460 -0.031448 -173260.000000 0 0 1
21.321695 33.204576 28.831411 48.871350 0.999973 0.939806 0.050252 -0.030016 235458.000000 0 0 1
21.118195 31.848351 29.273631 48.137730 0.985277 0.917103 0.068491 -0.042316 -40054.900000 0 0 1
20.728095 31.789931 30.790271 48.870179 0.992993 0.889189 0.058845 -0.040423 -232287.000000 0 0 1
21.750095 32.167451 31.683681 50.116536 0.976255 0.886407 0.049649 -0.035803 -51464.100000 0 0 1
21.327995 32.384349 32.999947 50.917835 0.988406 0.865707 0.048625 -0.034656 -385069.000000 0 0 1
22.581895 32.472560 33.879926 52.079348 0.963154 0.862495 0.034066 -0.021434 201851.000000 0 0 1
23.215695 31.218381 -34.017901 51.679526 0.931369 2.289284 0.035271 -0.016955 -855621.000000 0 0 1
24.500895 31.277851 -33.523679 51.984948 0.906303 2.271653 0.025216 -0.014223 -735595.000000 0 0 1
25.100395 29.885521 -33.246389 51.268865 0.872204 2.276371 0.027923 -0.012782 -146681.000000 0 0 1
25.334195 29.199531 33.593461 51.214789 0.856160 0.855379 0.040391 -0.011738 191401.000000 0 0 1
24.563995 28.024541 33.718835 50.256587 0.851108 0.835329 0.048100 -0.022034 -36713.700000 0 0 1
24.747295 27.029061 32.610134 49.055271 0.829439 0.843620 0.076011 -0.026404 -361188.000000 0 0 1
26.051195 26.521311 32.508608 49.384758 0.794340 0.852275 0.063878 -0.026510 -29836.800000 0 0 1
26.148495 25.555041 31.426241 48.212162 0.773921 0.860798 0.087373 -0.036649 -440342.000000 0 0 1
27.476395 24.781681 31.443831 48.557167 0.733878 0.866414 0.067134 -0.027486 -203153.000000 0 0 1
27.580795 23.890381 32.520608 48.877812 0.713822 0.842840 0.082530 -0.027503 100557.000000 0 0 1
28.083095 24.458671 33.685717 50.215678 0.716526 0.835481 0.081321 -0.034014 -1263300.000000 0 0 1
27.870895 23.632101 -33.046419 49.267928 0.703281 2.306015 0.068648 -0.026775 -128001.000000 0 0 1
26.619295 23.871901 -32.424669 48.268143 0.731038 2.307380 0.070857 -0.024251 1086670.000000 0 0 1
25.441195 23.290851 -33.031299 47.757563 0.741301 2.334561 0.065538 -0.022211 302730.000000 0 0 1
25.358095 21.743711 -32.965759 46.931473 0.708813 2.349593 0.046315 -0.015364 -846717.000000 0 0 1
25.227795 21.290011 -31.645639 45.729122 0.700948 2.335085 0.029391 -0.023930 407004.000000 0 0 1
25.109295 19.813911 -31.575739 44.945467 0.668063 2.349749 0.026069 -0.012977 -252232.000000 0 0 1
24.977595 19.216211 -30.152079 43.615259 0.655763 2.334110 0.026884 -0.008089 159456.000000 0 0 1
23.754395 19.425611 -29.449359 42.531052 0.685482 2.335634 0.023140 -0.009189 375355.000000 0 0 1
23.836195 18.995911 -28.134749 41.479789 0.672870 2.316210 0.034692 -0.009421 -483095.000000 0 0 1
22.509795 19.114811 -27.382039 40.272111 0.704016 2.318457 0.054268 -0.015245 -301404.000000 0 0 1
22.437495 18.519211 -26.128229 39.103538 0.690020 2.302557 0.064830 -0.011181 297339.000000 0 0 1
23.150195 19.210311 -25.052559 39.148413 0.692657 2.265214 0.059940 -0.013920 279437.000000 0 0 1
23.462195 18.350711 -23.771759 38.109312 0.663755 2.244364 0.081728 -0.024071 -341473.000000 0 0 1
24.387495 17.338411 -23.986159 38.349788 0.618041 2.246514 0.071542 -0.022266 -239089.000000 0 0 1
24.376195 16.445611 -22.897059 37.268382 0.593515 2.232400 0.084047 -0.033042 238100.000000 0 0 1
25.403395 15.252411 -22.930159 37.466794 0.540720 2.229400 0.109427 -0.028977 936333.000000 0 0 1
26.730695 15.499611 -22.457259 38.198121 0.525466 2.199276 0.126286 -0.033627 727940.000000 0 0 1
27.587595 14.361211 -22.382859 38.318561 0.479966 2.194599 0.125568 -0.035060 85576.100000 0 0 1
27.332395 13.348511 -21.190459 37.071257 0.454306 2.179268 0.117403 -0.028876 44550.600000 0 0 1
26.014895 12.814411 -21.262759 35.959544 0.457694 2.203462 0.106736 -0.026604 95684.200000 0 0 1
25.711495 11.982511 -20.160059 34.800711 0.436110 2.188666 0.079918 -0.036954 580669.000000 0 0 1
24.171495 11.725511 -20.318059 33.683412 0.451654 2.218312 0.089928 -0.031562 726784.000000 0 0 1
23.355595 12.878411 -20.162759 33.434624 0.503922 2.218116 0.115590 -0.033878 258361.000000 0 0 1
22.047795 12.564311 -20.653459 32.718993 0.517968 2.253944 0.102347 -0.029408 946391.000000 0 0 1
21.023695 13.730411 -20.480459 32.403227 0.578546 2.254992 0.106047 -0.034954 -321277.000000 0 0 1
21.396295 14.837611 -21.307159 33.644482 0.606328 2.256610 0.095205 -0.033267 143406.000000 0 0 1
20.517695 15.934611 -21.304259 33.597010 0.660326 2.257656 0.083212 -0.034446 -131611.000000 0 0 1
19.188695 15.801511 -22.073659 33.243648 0.688895 2.296947 0.066758 -0.017339 -2388.000000 0 0 1
18.268295 14.883011 -21.505259 31.901579 0.683635 2.310559 0.055914 -0.018999 247458.000000 0 0 1
17.248895 14.553611 -22.438559 31.824847 0.700850 2.353310 0.063874 -0.023350 225633.000000 0 0 1
16.038595 13.793611 -21.817759 30.389387 0.710286 2.371635 0.047647 -0.014842 403175.000000 0 0 1
14.874895 14.074411 -22.559759 30.467922 0.757754 2.404526 0.048504 -0.011252 -1156300.000000 0 0 1
13.753095 13.407611 -22.157559 29.323524 0.772679 2.427403 0.059470 -0.010726 -715801.000000 0 0 1
12.522195 13.732111 -23.032159 29.594874 0.831450 2.462668 0.051617 -0.012304 -192733.000000 0 0 1
12.112395 15.078811 -23.036759 30.079443 0.894063 2.443180 0.055021 -0.010081 -108234.000000 0 0 1
11.644495 15.463911 -24.283459 31.055002 0.925371 2.468584 0.059500 -0.025499 -910361.000000 0 0 1
11.353795 16.959411 -24.364459 31.782969 0.980856 2.444308 0.061497 -0.025723 -842676.000000 0 0 1
12.316395 17.944111 -24.302259 32.623373 0.969273 2.411232 0.054604 -0.021746 -598218.000000 0 0 1
13.467595 17.755711 -25.134979 33.591793 0.921881 2.416213 0.063348 -0.026699 80716.200000 0 0 1
13.290995 17.760211 -26.701369 34.713668 0.928347 2.448367 0.073245 -0.038890 -206307.000000 0 0 1
14.529495 17.527211 -27.346859 35.583142 0.878640 2.447343 0.058619 -0.038964 79417.200000 0 0 1
14.259295 17.127611 -28.653709 36.300380 0.876531 2.480546 0.075221 -0.043683 291570.000000 0 0 1
15.401095 17.368111 -29.704629 37.698939 0.845353 2.478258 0.058007 -0.034084 637375.000000 0 0 1
16.453595 16.405911 -29.706859 37.714349 0.783947 2.477831 0.034522 -0.025908 -99391.300000 0 0 1
17.279895 16.704311 -30.803409 39.070177 0.768463 2.479020 0.034300 -0.014380 -41739.200000 0 0 1
18.607195 15.911111 -30.838659 39.375297 0.707451 2.470589 0.042501 -0.014669 -539536.000000 0 0 1
19.495195 16.105711 -29.741669 39.038742 0.690476 2.436961 0.042744 -0.008523 -746207.000000 0 0 1
20.608195 15.316111 -29.886289 39.401411 0.639138 2.431817 0.051490 -0.005274 -290516.000000 0 0 1
21.812295 15.959111 -30.650899 40.864985 0.631658 2.418938 0.050645 -0.012444 -337843.000000 0 0 1
21.459595 16.526011 -31.930999 41.871374 0.656241 2.438115 0.046750 -0.007646 -451708.000000 0 0 1
22.604795 17.081311 -32.471949 43.094958 0.647107 2.424162 0.040995 0.002913 -543585.000000 0 0 1
22.417495 17.481211 -33.937399 44.270575 0.662303 2.444311 0.040334 0.013561 273720.000000 0 0 1
23.439495 18.376111 33.687379 44.965886 0.664896 0.723979 0.041603 0.010954 486935.000000 0 0 1
23.343595 18.585811 32.311559 43.981731 0.672410 0.745633 0.066316 -0.002037 -764579.000000 0 0 1
24.162095 19.772911 31.822901 44.581071 0.685827 0.775857 0.074531 -0.005403 -876060.000000 0 0 1
25.524195 19.446511 31.714161 45.115843 0.651064 0.791260 0.063789 -0.005584 -427834.000000 0 0 1
26.192395 20.693611 31.537941 45.922857 0.668652 0.813775 0.075811 -0.019621 -348996.000000 0 0 1
27.700495 20.564011 31.311171 46.589542 0.638600 0.833803 0.060509 -0.017342 -410764.000000 0 0 1
28.351795 19.930111 32.373961 47.424750 0.612708 0.819429 0.057802 -0.015249 852105.000000 0 0 1
29.776095 19.864111 32.132114 48.100639 0.588314 0.839254 0.066952 -0.008365 1251800.000000 0 0 1
30.601295 19.290711 33.319306 49.180758 0.562465 0.826456 0.040157 -0.004020 27140.800000 0 0 1
30.577995 20.084211 -33.549959 49.638584 0.581154 2.312961 0.037175 -0.007807 168481.000000 0 0 1
29.458095 19.803211 -32.729639 48.282251 0.591858 2.315673 0.042542 -0.018115 -123739.000000 0 0 1
29.800495 20.078011 -31.275389 47.637653 0.592889 2.287001 0.062955 -0.017321 -80011.700000 0 0 1
30.725495 19.148311 -30.775629 47.516872 0.557308 2.275329 0.067027 -0.026297 -167385.000000 0 0 1
31.122195 19.573611 -29.485639 47.128761 0.561419 2.246748 0.050543 -0.024600 1327020.000000 0 0 1
32.526095 18.924511 -29.016839 47.519058 0.526949 2.227660 0.097209 -0.016397 2397550.000000 0 0 1
33.605795 19.589511 -29.765089 48.980189 0.527766 2.223953 0.055983 -0.008129 527635.000000 0 0 1
34.815595 19.282611 -29.106799 49.306698 0.505794 2.202253 0.082132 -0.012435 -60051.500000 0 0 1
36.006195 20.149511 -29.545299 50.748138 0.510193 2.192222 0.073094 -0.011603 -140094.000000 0 0 1
36.668395 19.957011 -30.773059 51.863615 0.498423 2.206005 0.056556 -0.008167 -692930.000000 0 0 1
-36.117899 20.775011 -30.779839 51.802531 -0.521984 2.207038 0.055650 -0.018285 -545861.000000 0 0 1
-35.218699 20.433711 -31.998469 51.786053 -0.525730 2.236862 0.052932 -0.022097 -8161.080000 0 0 1
-34.580299 19.160011 -31.937049 50.822025 -0.505965 2.250303 0.082724 -0.011069 135084.000000 0 0 1
-33.636399 18.963411 -32.968679 50.773537 -0.513359 2.277497 0.081691 -0.007257 55067.300000 0 0 1
-32.756799 17.708911 -32.721999 49.571591 -0.495612 2.291743 0.062891 -0.003119 87126.000000 0 0 1
-33.602499 16.588411 -32.566679 49.647678 -0.458568 2.286244 0.069657 -0.003780 -157339.000000 0 0 1
-32.894299 15.388311 -32.480919 48.722121 -0.437566 2.300510 0.052979 -0.003866 -57440.000000 0 0 1
-33.697999 14.144411 -32.894119 49.169529 -0.397407 2.303651 0.055667 -0.004728 272254.000000 0 0 1
-32.936999 12.937011 -32.682429 48.170046 -0.374267 2.316488 0.066036 -0.017461 163351.000000 0 0 1
-33.717599 11.773911 -32.930609 48.579074 -0.335955 2.315667 0.063624 -0.017883 -379206.000000 0 0 1
-32.981399 10.427511 -32.916779 47.749555 -0.306219 2.331406 0.071123 -0.012585 -264969.000000 0 0 1
-32.251899 10.137011 33.997009 47.945183 -0.304531 0.782603 0.052397 -0.015949 65462.600000 0 0 1
-32.766299 8.914011 33.476124 47.683759 -0.265620 0.792532 0.094053 -0.027881 -149110.000000 0 0 1
-31.991199 8.414511 32.259473 46.205134 -0.257200 0.797945 0.105794 -0.028134 -273243.000000 0 0 1
-30.663299 8.116511 32.602206 45.486476 -0.258763 0.771673 0.063009 -0.014669 -605353.000000 0 0 1
-30.031399 7.409211 31.599691 44.219021 -0.241885 0.774719 0.070043 -0.021210 -238209.000000 0 0 1
21.041195 -4.248986 -31.159399 37.837731 -0.199257 2.538351 0.078187 -0.036231 -20720.200000 0 0 1
22.170595 -4.301686 -32.014669 39.178805 -0.191645 2.527233 0.072622 -0.039456 976049.000000 0 0 1
23.289495 -3.431186 -31.655109 39.448948 -0.146275 2.502156 0.065156 -0.036529 897354.000000 0 0 1
23.160195 -1.912286 -32.050959 39.589334 -0.082381 2.514242 0.065833 -0.028122 -875705.000000 0 0 1
24.170495 -1.180886 -31.446089 39.679513 -0.048818 2.485697 0.062759 -0.025149 -326591.000000 0 0 1
23.996395 0.230814 -31.655329 39.723294 0.009618 2.492936 0.052311 -0.024249 -140555.000000 0 0 1
25.215995 0.920014 -31.028719 39.993427 0.036469 2.458850 0.058372 -0.016850 -63631.400000 0 0 1
26.396695 0.738114 -31.762949 41.306358 0.027955 2.448010 0.073137 -0.022862 -447802.000000 0 0 1
27.466995 1.475814 -31.227739 41.614727 0.053679 2.419465 0.072128 -0.016984 186694.000000 0 0 1
28.833195 1.313214 -31.945909 43.053673 0.045514 2.406848 0.062142 -0.018119 176420.000000 0 0 1
28.885095 1.942014 -33.184109 44.037543 0.067131 2.424229 0.053911 -0.012838 -105802.000000 0 0 1
29.928695 1.334014 -33.901099 45.241473 0.044544 2.417856 0.045444 -0.004325 -276048.000000 0 0 1
30.679695 2.355214 33.308717 45.346018 0.076618 0.745800 0.065963 -0.001208 -31027.700000 0 0 1
29.868495 2.981714 32.299950 44.094267 0.099498 0.748779 0.071698 0.001074 404642.000000 0 0 1
29.408795 4.250114 32.748314 44.219823 0.143525 0.736863 0.056207 0.001897 194254.000000 0 0 1
28.514095 4.913914 31.637711 42.873592 0.170657 0.740798 0.050335 -0.004072 15002.000000 0 0 1
28.522295 6.286214 31.861021 43.222245 0.216928 0.741962 0.063962 -0.022040 195307.000000 0 0 1
27.827395 7.036614 30.890511 42.167541 0.247675 0.748712 0.056236 -0.022452 -517490.000000 0 0 1
27.982695 8.634814 31.052741 42.683298 0.299307 0.756103 0.055809 -0.021846 804339.000000 0 0 1
29.312295 9.066814 30.720591 43.418573 0.299983 0.784778 0.066940 -0.029291 539045.000000 0 0 1
29.575895 10.410614 31.018711 44.105270 0.338452 0.790784 0.061159 -0.030237 831168.000000 0 0 1
30.983895 10.843714 30.450731 44.775383 0.336656 0.822928 0.064134 -0.028899 932840.000000 0 0 1
32.110795 10.336414 31.190651 45.943458 0.311424 0.824544 0.083743 -0.031010 -10096.100000 0 0 1
33.350995 10.680414 30.673731 46.553602 0.309923 0.851453 0.080414 -0.031611 -419026.000000 0 0 1
33.878795 12.089114 30.942181 47.448266 0.342750 0.860413 0.078618 -0.019692 -738586.000000 0 0 1
34.135395 12.437314 32.328242 48.631545 0.349403 0.843626 0.084371 -0.028610 598779.000000 0 0 1
34.801995 13.727714 32.436001 49.514878 0.375714 0.856513 0.082179 -0.012205 559584.000000 0 0 1
33.864595 14.980414 32.256765 49.109291 0.416484 0.854181 0.064815 -0.007376 -383805.000000 0 0 1
33.761595 15.350314 30.870841 48.254391 0.426729 0.876621 0.068679 -0.017856 500873.000000 0 0 1
32.756595 16.313314 30.536301 47.661141 0.462059 0.875392 0.065943 -0.010845 1474370.000000 0 0 1
31.250195 15.893014 30.780841 46.654290 0.470483 0.850291 0.052608 -0.003355 225722.000000 0 0 1
30.692595 15.069814 29.827791 45.374352 0.456415 0.853471 0.058345 -0.001313 -64773.600000 0 0 1
29.492295 14.515814 30.329241 44.725464 0.457380 0.825594 0.046118 -0.000186 359013.000000 0 0 1
28.554595 13.875814 29.248311 43.166733 0.452336 0.826348 0.048533 0.001834 218756.000000 0 0 1
28.951695 12.623014 28.793451 42.738787 0.411153 0.831582 0.048122 -0.003717 -278696.000000 0 0 1
27.931495 12.090514 27.992991 41.351620 0.408512 0.827185 0.050839 -0.013817 -262237.000000 0 0 1
27.804595 10.563814 27.769401 40.691882 0.363086 0.819713 0.051927 -0.000508 234286.000000 0 0 1
28.872895 9.936714 27.040321 40.786778 0.331457 0.846020 0.055595 -0.005585 464892.000000 0 0 1
28.771895 8.552514 27.209211 40.513067 0.288934 0.834409 0.060457 -0.004059 433430.000000 0 0 1
30.098395 7.761614 26.962711 41.147829 0.252376 0.856264 0.047477 -0.014476 238127.000000 0 0 1
30.367995 7.761014 25.594581 40.466418 0.250210 0.886033 0.061253 -0.014592 779771.000000 0 0 1
31.606695 7.142714 25.198341 41.048239 0.222254 0.909841 0.091289 -0.014292 758141.000000 0 0 1
32.187895 7.560414 23.837181 40.760663 0.230702 0.946152 0.093702 -0.011254 -791921.000000 0 0 1
32.398495 8.945214 23.666441 41.106931 0.269388 0.957301 0.078272 -0.018617 -185065.000000 0 0 1
31.325395 9.719314 23.210171 40.180312 0.300852 0.954949 0.086954 -0.016460 -491431.000000 0 0 1
30.979795 9.517314 21.692271 38.998482 0.298059 0.980950 0.078336 0.006178 -433464.000000 0 0 1
31.896795 10.023614 20.753871 39.352275 0.304480 1.015274 0.088696 -0.004696 75804.900000 0 0 1
31.400295 10.006914 19.394971 38.239793 0.308513 1.038871 0.087754 -0.004157 -735148.000000 0 0 1
32.325195 10.768614 18.401071 38.723128 0.321571 1.075610 0.102868 -0.025478 1206300.000000 0 0 1
33.576695 10.153614 18.013471 39.433177 0.293658 1.096390 0.105649 -0.018100 1183330.000000 0 0 1
34.533495 10.136614 19.080171 40.735318 0.285510 1.083324 0.108049 -0.011662 -354361.000000 0 0 1
35.902995 9.559814 18.621671 41.559376 0.260230 1.106187 0.120936 -0.015737 266950.000000 0 0 1
35.757995 8.209814 18.225571 40.965921 0.225683 1.109738 0.108389 -0.015563 1002880.000000 0 0 1
36.892395 7.923314 17.373471 41.541126 0.211555 1.139308 0.124935 -0.013086 563296.000000 0 0 1
-36.951699 6.384814 17.047571 41.192397 -0.171099 1.144115 0.128590 -0.014662 -236673.000000 0 0 1
35.751395 5.832714 16.558571 39.829249 0.161722 1.142041 0.097372 -0.015630 118311.000000 0 0 1
35.990295 4.503214 16.118371 39.691084 0.124476 1.152619 0.114982 -0.020248 140213.000000 0 0 1
34.701695 3.618214 16.101771 38.426112 0.103891 1.138417 0.083759 -0.012869 342659.000000 0 0 1
34.447495 3.101714 17.396771 38.715606 0.089800 1.104761 0.085119 0.003319 -4630.890000 0 0 1
33.224395 2.427014 17.554171 37.655009 0.072920 1.085824 0.063499 0.002133 12044.000000 0 0 1
33.158995 1.668914 18.870271 38.188890 0.050288 1.053963 0.065016 -0.011719 392017.000000 0 0 1
34.132695 0.623014 18.851971 38.997767 0.018251 1.066249 0.076819 -0.014162 274323.000000 0 0 1
34.022995 -0.229386 19.948671 39.440668 -0.006742 1.040500 0.089820 -0.021462 364743.000000 0 0 1
34.751995 -1.611686 19.850171 40.054063 -0.046344 1.052289 0.095428 -0.017274 167336.000000 0 0 1
34.301095 -2.471186 20.861971 40.223049 -0.071920 1.025517 0.109286 -0.012861 62670.100000 0 0 1
34.974095 -3.724586 20.863571 40.894357 -0.106096 1.035400 0.080094 -0.015481 -311295.000000 0 0 1
34.499395 -4.652986 22.024271 41.193774 -0.134063 1.006702 0.086050 -0.016394 -328269.000000 0 0 1
34.961695 -4.304786 23.280171 42.223425 -0.122512 0.986807 0.081963 -0.018470 -14749.000000 0 0 1
34.083895 -4.603786 24.342251 42.136112 -0.134260 0.954882 0.093100 -0.025479 -13498.800000 0 0 1
34.488795 -3.869386 25.660281 43.161315 -0.111725 0.934127 0.070396 -0.021966 -54158.500000 0 0 1
33.660095 -4.151186 26.751151 43.195583 -0.122707 0.902942 0.087753 -0.014048 -147780.000000 0 0 1
34.105895 -3.509386 27.946231 44.232563 -0.102536 0.886920 0.085313 -0.012474 -325828.000000 0 0 1
33.268395 -3.884286 29.117181 44.381122 -0.116230 0.855195 0.093349 -0.011646 -398475.000000 0 0 1
33.429195 -5.235686 29.492591 44.885815 -0.155358 0.853887 0.096126 -0.015133 -229029.000000 0 0 1
32.480095 -5.724786 30.388811 44.846511 -0.174463 0.826277 0.107519 -0.025887 -212631.000000 0 0 1
32.749395 -7.229486 30.613711 45.409114 -0.217267 0.830949 0.103666 -0.027251 1037730.000000 0 0 1
33.910595 -7.547486 31.426141 46.845441 -0.219000 0.835445 0.096683 -0.020291 654624.000000 0 0 1
34.224295 -8.908086 31.273021 47.208666 -0.254635 0.846722 0.081550 -0.016997 170991.000000 0 0 1
35.497295 -9.414086 31.995351 48.707139 -0.259238 0.854107 0.067893 -0.015511 136290.000000 0 0 1
35.384795 -9.578386 33.392168 49.586954 -0.264357 0.831990 0.052434 -0.024485 185301.000000 0 0 1
36.604695 -9.827486 -33.974739 50.899568 -0.262291 2.301624 0.041917 -0.022252 244424.000000 0 0 1
36.375595 -10.065886 -32.440789 49.768571 -0.269965 2.280795 0.050066 -0.020039 -404751.000000 0 0 1
35.996095 -8.919686 -31.742809 48.814808 -0.242903 2.278736 0.050833 -0.023384 1349890.000000 0 0 1
-36.817099 -8.011686 -31.335429 49.006071 0.214267 2.264539 0.052803 -0.013822 1072190.000000 0 0 1
36.527895 -6.779986 -30.563019 48.107727 -0.183523 2.259198 0.058796 -0.022400 35666.400000 0 0 1
36.230195 -7.136586 -29.219919 47.088868 -0.194489 2.240211 0.049796 -0.014991 359732.000000 0 0 1
35.520395 -6.075686 -28.568979 45.986943 -0.169408 2.241122 0.063378 -0.026334 137043.000000 0 0 1
36.085495 -5.817786 -27.161709 45.538643 -0.159847 2.209872 0.069168 -0.021907 943902.000000 0 0 1
-36.487899 -5.265086 -27.176919 45.800358 0.143308 2.206045 0.062871 -0.019989 668396.000000 0 0 1
-36.028499 -5.039186 -25.855559 44.631335 0.138965 2.188683 0.064095 -0.012661 580091.000000 0 0 1
-34.622999 -4.361686 -25.743219 43.364613 0.125316 2.206378 0.094447 -0.009622 -320910.000000 0 0 1
-34.297799 -4.214386 -24.372059 42.285900 0.122263 2.185068 0.104605 -0.016137 279676.000000 0 0 1
-32.925299 -4.145186 -24.038959 40.977182 0.125238 2.197703 0.115464 -0.012668 509945.000000 0 0 1
-31.963899 -3.135686 -24.729559 40.534855 0.097788 2.226960 0.123289 -0.013146 -701171.000000 0 0 1
-31.532199 -3.597386 -25.961469 41.002666 0.113595 2.256432 0.113889 -0.009578 -325477.000000 0 0 1
-30.527599 -2.766086 -26.484169 40.509218 0.090363 2.283367 0.113913 -0.013953 96327.900000 0 0 1
-29.969699 -3.379186 -27.789039 41.010150 0.112279 2.315309 0.105863 -0.015121 -405182.000000 0 0 1
-30.978999 -3.470386 -28.742309 42.401206 0.111559 2.315652 0.106847 -0.014564 -425836.000000 0 0 1
-30.631699 -4.286986 -29.830829 42.971590 0.139049 2.338103 0.085118 -0.011061 -620258.000000 0 0 1
-31.834599 -4.619886 -30.808209 44.541338 0.144115 2.334605 0.066653 -0.010609 466560.000000 0 0 1
-32.768899 -5.550286 -30.207799 44.912331 0.167784 2.308506 0.059103 -0.009512 629763.000000 0 0 1
-33.647499 -4.957786 -29.245509 44.855698 0.146292 2.281004 0.075441 -0.015066 -251447.000000 0 0 1
-34.862199 -4.152286 -29.831579 46.071005 0.118547 2.275113 0.100404 -0.014716 -362809.000000 0 0 1
-34.591499 -2.936086 -30.507179 46.215586 0.084676 2.291756 0.099300 -0.009910 -188624.000000 0 0 1
-34.128299 -1.872086 -29.673709 45.263390 0.054799 2.285745 0.113361 -0.004068 176207.000000 0 0 1
-33.741799 -0.566486 -30.404599 45.423227 0.016787 2.304147 0.115290 -0.012418 -26836.600000 0 0 1
-34.914099 0.055114 -30.842459 46.585992 -0.001579 2.294353 0.117772 -0.007706 -268358.000000 0 0 1
-34.649599 1.261214 -31.536899 46.869621 -0.036383 2.308870 0.135392 -0.007356 85616.300000 0 0 1
-35.903099 2.005314 -32.040499 48.162718 -0.055796 2.298632 0.091005 -0.005027 -16519.200000 0 0 1
-36.514399 1.549914 -33.200069 49.375582 -0.042421 2.308241 0.086245 -0.001766 408647.000000 0 0 1
36.283495 2.339514 -33.632249 49.528713 0.064390 2.317258 0.062418 -0.000779 311965.000000 0 0 1
35.361295 1.911214 33.268819 48.588972 0.053996 0.816606 0.040901 -0.000794 28178.500000 0 0 1
35.774495 2.153014 31.912371 47.988013 0.060110 0.843293 0.063284 -0.010542 479432.000000 0 0 1
36.681295 1.187114 31.365941 48.277830 0.032352 0.863611 0.041471 -0.003669 143566.000000 0 0 1
-36.867099 1.417914 29.867571 47.468571 -0.038441 0.890263 0.077905 -0.009509 -369273.000000 0 0 1
-36.228399 2.620814 29.708271 46.924907 -0.072216 0.885242 0.100250 -0.017399 -191059.000000 0 0 1
-36.067799 3.050214 28.368511 45.988720 -0.084368 0.906052 0.118568 -0.021869 316159.000000 0 0 1
-35.420199 4.450614 28.069611 45.412570 -0.124997 0.904470 0.118776 -0.023144 428671.000000 0 0 1
-34.877199 4.598914 26.727671 44.180736 -0.131104 0.921078 0.119839 -0.022053 435533.000000 0 0 1
-34.111499 5.788714 26.655901 43.676546 -0.168098 0.914354 0.126544 -0.020166 75866.800000 0 0 1
-33.234099 5.980214 25.389991 42.248313 -0.178037 0.926082 0.126245 -0.017451 -76524.000000 0 0 1
-32.212999 5.042914 25.182331 41.197792 -0.155289 0.913152 0.116617 -0.017338 156578.000000 0 0 1
-31.485699 5.193214 23.970131 39.910975 -0.163467 0.926558 0.113087 -0.023489 160931.000000 0 0 1
-32.044099 4.459114 22.727271 39.537790 -0.138268 0.958407 0.139872 -0.030659 -48033.100000 0 0 1
-31.638199 3.093714 22.715171 39.070778 -0.097474 0.950366 0.149907 -0.032285 -157906.000000 0 0 1
-32.303299 2.370414 21.694171 38.984087 -0.073249 0.980644 0.167220 -0.028505 -238954.000000 0 0 1
-31.755099 0.966114 21.333171 38.267792 -0.030415 0.979460 0.148404 -0.031286 356508.000000 0 0 1
-30.540299 0.956614 20.564771 36.831166 -0.031313 0.978398 0.135095 -0.019671 558581.000000 0 0 1
-30.655399 1.353014 19.221871 36.208624 -0.044108 1.011176 0.162265 -0.021920 -401147.000000 0 0 1
-29.395899 1.164814 18.352471 34.674037 -0.039604 1.013038 0.162961 -0.021279 -275704.000000 0 0 1
-29.088399 -0.226986 18.194071 34.310504 0.007803 1.011869 0.163786 -0.023864 727909.000000 0 0 1
-27.941199 -0.565186 17.392271 32.916882 0.020225 1.014118 0.167286 -0.028848 373383.000000 0 0 1
-27.909499 -0.166886 15.870371 32.106645 0.005979 1.053765 0.181481 -0.026719 -423602.000000 0 0 1
-27.844599 1.222614 15.726271 32.002064 -0.043880 1.057083 0.197265 -0.023783 161099.000000 0 0 1
-27.987099 1.549014 14.365471 31.496729 -0.055291 1.097195 0.200777 -0.021106 -10829.900000 0 0 1
-27.133599 2.757414 13.923271 30.621774 -0.101276 1.098777 0.190199 -0.012599 315198.000000 0 0 1
-25.728299 2.604014 13.992871 29.402835 -0.100869 1.074807 0.171888 -0.019593 323455.000000 0 0 1
-25.044499 3.749414 13.461571 28.679242 -0.148606 1.082204 0.166135 -0.028185 980038.000000 0 0 1
-23.529999 3.490514 13.110971 27.161409 -0.147269 1.067055 0.123872 -0.031690 671256.000000 0 0 1
-22.693199 3.823314 14.199171 27.040996 -0.166911 1.017966 0.093777 -0.014893 555214.000000 0 0 1
-21.346099 4.018114 13.749371 25.706933 -0.186059 1.006465 0.052874 -0.013979 374391.000000 0 0 1
-20.494699 4.669814 14.872771 25.749547 -0.224030 0.955019 0.035508 -0.014146 -523085.000000 0 0 1
-20.805099 6.056014 15.203071 26.469999 -0.283256 0.958985 0.023680 -0.008469 396473.000000 0 0 1
-20.568599 6.326414 16.554271 27.150224 -0.298393 0.915078 0.024689 0.005262 -221485.000000 0 0 1
-20.827499 7.814814 16.900771 27.937289 -0.358960 0.921088 0.024200 -0.002469 -131652.000000 0 0 1
-19.864899 8.676814 16.271671 27.104771 -0.411815 0.926889 0.024190 -0.011595 786345.000000 0 0 1
-20.164799 10.076014 16.344571 27.844033 -0.463394 0.943443 0.031798 -0.007949 -211382.000000 0 0 1
-19.884299 10.837114 17.664071 28.720164 -0.499003 0.908359 0.044640 -0.008147 -118675.000000 0 0 1
-20.652799 10.437414 18.777671 29.800649 -0.467939 0.889102 0.061506 -0.012670 531435.000000 0 0 1
-19.987199 10.870314 19.964071 30.269060 -0.498120 0.850571 0.063539 -0.011909 -3082.850000 0 0 1
-12.486305 -33.286282 -19.886659 40.735287 1.211922 2.080814 0.136774 -0.046351 -414345.000000 0 0 1
-13.658305 -33.889082 -19.480759 41.406753 1.187681 2.060623 0.166329 -0.043659 -1270140.000000 0 0 1
-14.786205 -33.081982 -19.526059 41.162075 1.150476 2.065045 0.135955 -0.060882 -178921.000000 0 0 1
-15.911605 -33.740382 -18.679459 41.719477 1.130134 2.035032 0.122072 -0.053175 -837518.000000 0 0 1
-16.390805 33.109714 -19.205559 41.638506 -1.111120 2.050194 0.102339 -0.061026 436000.000000 0 0 1
-17.290905 32.395514 -18.349959 41.050770 -1.080519 2.034212 0.110887 -0.057194 -1290390.000000 0 0 1
-18.625705 32.921514 -18.042259 41.907829 -1.055933 2.015868 0.105248 -0.048129 -2499560.000000 0 0 1
-18.682405 -34.009582 -17.247859 42.463780 1.068469 1.989064 0.110362 -0.040403 1131060.000000 0 0 1
-20.034405 -33.881582 -16.724159 42.767236 1.036794 1.972569 0.073360 -0.027965 1176390.000000 0 0 1
-20.183205 33.709214 -15.322159 42.171572 -1.031301 1.942635 0.077100 -0.029993 -295117.000000 0 0 1
-20.003105 32.281014 -15.266259 40.929778 -1.016050 1.953022 0.080702 -0.039200 5052.410000 0 0 1
-20.575005 31.845014 -14.089859 40.447001 -0.997169 1.926610 0.078796 -0.033260 -328792.000000 0 0 1
-20.611805 30.335514 -13.854159 39.204944 -0.973988 1.931976 0.065400 -0.031878 -82747.300000 0 0 1
-19.394605 29.669314 -13.597259 37.964515 -0.991830 1.937090 0.083582 -0.042258 -309577.000000 0 0 1
-19.549505 28.267214 -13.498359 36.924575 -0.965733 1.945037 0.084258 -0.042836 -53368.500000 0 0 1
-18.230305 27.619314 -13.010059 35.558855 -0.987384 1.945368 0.101264 -0.037440 99609.400000 0 0 1
-17.224105 27.764814 -13.989559 35.542404 -1.015543 1.975343 0.126649 -0.047705 -459360.000000 0 0 1
-16.125605 26.911514 -13.755959 34.256257 -1.030959 1.984016 0.136644 -0.053421 -596145.000000 0 0 1
-14.845705 27.421714 -14.354059 34.327604 -1.074591 2.002203 0.121386 -0.050503 -900807.000000 0 0 1
-15.005005 27.690914 -15.724759 35.202343 -1.074213 2.033866 0.095302 -0.040641 -86032.900000 0 0 1
-13.861605 28.309514 -16.298959 35.485613 -1.115467 2.048017 0.121252 -0.053132 255060.000000 0 0 1
-13.868005 28.228414 -17.828259 36.152618 -1.114150 2.086490 0.135127 -0.055491 132963.000000 0 0 1
-13.720405 26.892314 -18.332959 35.320581 -1.099024 2.116529 0.108943 -0.051811 122304.000000 0 0 1
-13.964105 26.974714 -19.724959 36.217474 -1.093110 2.146739 0.096664 -0.050279 40746.000000 0 0 1
-13.283905 25.784914 -20.473659 35.503446 -1.095078 2.185439 0.063963 -0.029383 272667.000000 0 0 1
-11.931105 26.070314 -20.785359 35.412479 -1.141598 2.198083 0.046734 -0.024926 -278885.000000 0 0 1
-11.292905 24.940614 -21.335059 34.709490 -1.145623 2.232770 0.049279 -0.026112 1060420.000000 0 0 1
-9.992805 25.329014 -22.159359 35.106300 -1.195023 2.253905 0.064491 -0.030487 733986.000000 0 0 1
-10.301605 26.043614 -23.285659 36.422724 -1.194130 2.264406 0.058809 -0.030151 -198915.000000 0 0 1
-9.208305 26.352814 -24.132159 36.900200 -1.234635 2.283636 0.052329 -0.033677 -101618.000000 0 0 1
-9.598005 27.040914 -25.466579 38.365080 -1.229724 2.296679 0.049208 -0.028146 165706.000000 0 0 1
-10.363805 26.148714 -26.292369 38.502628 -1.193448 2.322483 0.051696 -0.022309 -41608.200000 0 0 1
-10.699705 26.853414 -27.506029 39.902020 -1.191628 2.331373 0.061862 -0.016892 -209115.000000 0 0 1
-12.036105 26.383914 -28.085509 40.370466 -1.142806 2.340182 0.051802 -0.018893 -288311.000000 0 0 1
-12.315105 26.931114 -29.288029 41.650154 -1.141903 2.350672 0.053480 -0.016657 -687993.000000 0 0 1
-13.614405 26.577914 -29.649519 42.081249 -1.097401 2.352624 0.052230 -0.014243 -480871.000000 0 0 1
-13.878705 26.830914 -31.149679 43.391461 -1.093432 2.371543 0.047387 -0.017280 192454.000000 0 0 1
-13.041605 26.087514 -32.064209 43.344612 -1.107215 2.403496 0.052812 -0.023511 361527.000000 0 0 1
-13.138305 24.693014 -32.025589 42.520564 -1.081826 2.423678 0.043565 -0.027147 -140947.000000 0 0 1
-12.381205 24.047514 -33.186629 42.812726 -1.095328 2.457762 0.040454 -0.021334 139522.000000 0 0 1
-12.958105 24.259714 33.578586 43.404696 -1.080210 0.686268 0.049010 -0.020985 -259245.000000 0 0 1
-12.242405 23.535614 32.656744 42.074512 -1.091147 0.682236 0.044127 -0.018952 -687220.000000 0 0 1
-12.674605 23.603614 31.176531 41.106597 -1.078006 0.709893 0.055155 -0.007820 1193000.000000 0 0 1
-14.060805 23.162814 31.021041 41.188921 -1.025215 0.717974 0.072356 -0.020952 1466470.000000 0 0 1
-14.601705 23.229814 29.723131 40.451188 -1.009630 0.745439 0.083555 -0.015896 -349605.000000 0 0 1
-15.783705 22.273314 29.647841 40.301617 -0.954297 0.744172 0.083440 -0.018113 -457486.000000 0 0 1
-15.491105 20.913414 29.653861 39.454996 -0.933257 0.720332 0.057780 -0.016086 -155902.000000 0 0 1
-16.656405 20.146214 29.814531 39.651129 -0.879940 0.719825 0.065965 -0.023561 159804.000000 0 0 1
-16.259805 18.639014 29.874691 38.785194 -0.853467 0.691547 0.043477 -0.024811 78400.200000 0 0 1
-15.793105 18.111514 28.657141 37.398942 -0.853672 0.697803 0.058379 -0.027881 -36602.600000 0 0 1
-15.564305 16.709214 28.758471 36.721861 -0.820858 0.671092 0.042498 -0.028397 -61364.300000 0 0 1
-14.999605 16.020714 27.500591 35.184286 -0.818304 0.673544 0.040200 -0.028303 -61927.300000 0 0 1
-13.817905 16.615214 27.026551 34.603964 -0.877057 0.674491 0.028199 -0.020843 -396928.000000 0 0 1
-13.457205 15.913014 25.901981 33.245045 -0.868820 0.677531 0.009444 -0.016877 11691.400000 0 0 1
-12.294805 16.548914 25.103301 32.483912 -0.931831 0.687568 0.016293 -0.010821 29674.400000 0 0 1
-12.653205 17.611214 24.255231 32.535745 -0.947779 0.729519 0.015763 -0.008098 -388199.000000 0 0 1
-12.955105 18.879514 24.809841 33.760910 -0.969393 0.745323 0.022690 -0.007602 444318.000000 0 0 1
-11.847005 19.732814 25.562381 34.397250 -1.030104 0.733028 0.013392 -0.007268 597768.000000 0 0 1
-11.469705 19.322114 26.910441 35.058096 -1.035092 0.695715 0.018716 -0.008819 367440.000000 0 0 1
-12.492205 19.548814 27.892711 36.279673 -1.002174 0.693795 0.049485 -0.008424 293943.000000 0 0 1
-12.077905 19.169514 29.318381 37.052848 -1.008568 0.657932 0.038353 -0.009306 -120612.000000 0 0 1
-11.035905 19.974314 29.822051 37.551553 -1.066032 0.653167 0.031100 -0.013116 -227258.000000 0 0 1
-10.992605 19.954414 31.208561 38.639233 -1.067273 0.630571 0.022816 -0.016469 581894.000000 0 0 1
-9.762105 20.698414 31.847241 39.216958 -1.130097 0.623091 0.011025 -0.017433 317162.000000 0 0 1
-8.556005 20.007614 31.892611 38.608917 -1.166694 0.598747 0.024280 -0.024212 -933801.000000 0 0 1
-7.549405 20.804014 32.428269 39.260580 -1.222692 0.598866 0.029063 -0.019218 762723.000000 0 0 1
-6.297805 20.016914 33.001132 39.107722 -1.265977 0.566374 0.044767 -0.017911 685979.000000 0 0 1
-6.625005 19.347214 -33.867449 39.562728 -1.240884 2.598364 0.040579 -0.027195 117141.000000 0 0 1
-5.550405 18.681014 -33.211939 38.507404 -1.281989 2.610950 0.042070 -0.028750 239295.000000 0 0 1
-4.934305 17.450214 -33.926529 38.469036 -1.295226 2.650712 0.025830 -0.024775 193859.000000 0 0 1
-5.821405 16.337614 33.996480 38.164998 -1.228503 0.471746 0.015839 -0.018699 203070.000000 0 0 1
-5.441305 15.689214 32.775126 36.741912 -1.236959 0.468965 0.037089 -0.010597 -33415.400000 0 0 1
-5.963605 14.281514 32.548541 36.040724 -1.175231 0.443851 0.042937 -0.018682 -504515.000000 0 0 1
-5.299405 13.296914 33.296452 36.242866 -1.191546 0.406011 0.048485 -0.016777 -241244.000000 0 0 1
-5.886905 12.058114 33.084557 35.702124 -1.116624 0.385307 0.054548 -0.012799 -20838.300000 0 0 1
-5.081205 10.903614 33.751537 35.831183 -1.134708 0.342375 0.072662 -0.033155 342360.000000 0 0 1
-5.205305 10.620114 -32.918099 34.978325 -1.115071 2.796665 0.073617 -0.041177 -52735.600000 0 0 1
-4.288405 9.586014 -32.532319 34.185287 -1.150139 2.829349 0.084642 -0.041767 472155.000000 0 0 1
-4.202905 9.303814 -31.026119 32.662600 -1.146496 2.823704 0.088844 -0.041369 961581.000000 0 0 1
-5.305005 8.458314 -30.583029 32.171537 -1.010621 2.826036 0.096369 -0.034754 645807.000000 0 0 1
-5.618205 8.802314 -29.315829 31.120135 -1.002715 2.799400 0.120924 -0.037188 2809.370000 0 0 1
-6.719105 7.840714 -28.795999 30.591383 -0.862281 2.797289 0.102530 -0.035362 201202.000000 0 0 1
-6.200105 6.540814 -28.544359 29.933325 -0.812133 2.835765 0.098619 -0.023078 563849.000000 0 0 1
-7.247005 5.729314 -27.979839 29.465497 -0.668969 2.822689 0.110066 -0.044317 227130.000000 0 0 1
-6.924405 5.099814 -26.584389 27.940745 -0.634804 2.828729 0.106381 -0.044766 -151620.000000 0 0 1
-7.031005 6.011514 -25.535479 27.159418 -0.707390 2.794034 0.076635 -0.026856 -283606.000000 0 0 1
-5.786505 6.565714 -25.228169 26.703047 -0.848397 2.807680 0.070220 -0.026976 -673510.000000 0 0 1
-5.866205 7.745114 -24.216659 26.093020 -0.922571 2.760045 0.030880 -0.010061 26640.100000 0 0 1
-6.113905 7.285514 -22.918959 24.814053 -0.872614 2.748237 0.024476 -0.005604 -70946.300000 0 1 0
-7.479305 7.363914 -22.565259 24.886907 -0.777624 2.706218 0.034387 0.000826 -134258.000000 0 1 0
-7.652705 7.634114 -21.041259 23.655405 -0.784182 2.667025 0.028333 0.002675 79236.900000 0 1 0
-7.097805 8.870614 -20.534359 23.467563 -0.895965 2.636253 0.014697 0.007428 90547.700000 0 1 0
-6.954005 9.029214 -19.152359 22.286717 -0.914513 2.604817 0.014458 0.002826 -750104.000000 0 1 0
-8.199405 9.264514 -18.301459 22.090832 -0.846312 2.547156 0.019318 0.003996 -841380.000000 0 1 0
-8.036405 9.299514 -16.891859 20.890181 -0.858130 2.512570 0.017327 0.002527 320276.000000 0 1 0
-9.194405 9.618714 -16.082959 20.873867 -0.807948 2.450395 0.021569 -0.005381 1116880.000000 0 1 0
-9.836905 11.067014 -16.157659 21.916055 -0.844176 2.399790 0.048676 -0.016931 499893.000000 0 1 0
-8.860105 12.001114 -15.620159 21.599018 -0.934842 2.379204 0.027423 -0.023137 528542.000000 0 1 0
-9.288105 13.348114 -15.667559 22.581263 -0.962870 2.337590 0.053876 -0.030940 23291.600000 0 1 0
-8.097405 14.364914 -15.690459 22.762013 -1.057501 2.331355 0.059099 -0.024302 507976.000000 0 1 0
-7.385805 14.521414 -14.455659 21.780442 -1.100281 2.296550 0.051098 -0.022949 225610.000000 0 1 0
-8.204705 14.970214 -13.393359 21.698077 -1.069437 2.236052 0.049966 -0.043699 -819836.000000 0 1 0
-7.388405 15.711614 -12.292659 21.273289 -1.131230 2.186882 0.035379 -0.042309 -65092.800000 0 1 0
-6.973505 17.053114 -12.575459 22.306516 -1.182617 2.169724 0.050079 -0.042166 100673.000000 0 1 0
-6.102905 17.207914 -13.671159 22.809172 -1.229979 2.213512 0.051473 -0.027838 -536181.000000 0 1 0
-6.015105 18.658814 -14.134859 24.168721 -1.258942 2.195480 0.074394 -0.012932 257099.000000 0 1 0
-5.555105 19.559514 -13.124359 24.200880 -1.294073 2.143979 0.077614 -0.026643 -111509.000000 0 1 0
-5.495205 20.890814 -13.649759 25.552677 -1.313579 2.134335 0.068988 -0.013895 90009.600000 0 0 1
-4.851705 21.924914 -12.654559 25.775546 -1.353018 2.083979 0.066291 -0.015148 -230300.000000 0 0 1
-5.036105 23.327914 -12.879959 27.119131 -1.358176 2.065692 0.067624 -0.016983 1220280.000000 0 0 1
-6.374505 23.912714 -12.855459 27.887543 -1.310281 2.049890 0.069270 -0.015149 1589740.000000 0 0 1
-7.216305 23.852214 -11.543859 27.463865 -1.277009 2.004604 0.055719 -0.022367 60152.200000 0 0 1
-7.610505 22.547814 -11.166059 26.286966 -1.245276 2.009510 0.063958 -0.020560 -187715.000000 0 0 1
-8.419605 22.386114 -10.037459 25.937973 -1.211054 1.968150 0.074465 -0.027591 103719.000000 0 0 1
-7.655505 22.548514 -8.681459 25.345808 -1.243495 1.920395 0.067399 -0.029837 145737.000000 0 0 1
-7.416305 23.902614 -8.477359 26.423515 -1.269943 1.897398 0.053464 -0.019235 -173871.000000 0 0 1
-6.979405 24.210514 -7.150459 26.191414 -1.290126 1.847314 0.054475 -0.023003 6788.600000 0 0 1
-7.168005 25.735314 -6.943359 27.602481 -1.299153 1.825076 0.057266 -0.018093 180257.000000 0 0 1
-6.346905 26.623214 -7.712159 28.435122 -1.336767 1.845456 0.046529 -0.021586 -90208.400000 0 0 1
-6.494005 26.703114 -9.134759 28.959838 -1.332235 1.891705 0.044966 -0.020091 43085.800000 0 0 1
-5.693605 27.835014 -9.840759 30.067353 -1.369031 1.904231 0.035487 -0.010651 277501.000000 0 0 1
-6.365605 29.082914 -9.857659 31.360967 -1.355317 1.890546 0.029077 -0.011036 127769.000000 0 0 1
-7.222405 29.240814 -10.999159 32.065088 -1.328646 1.920933 0.038452 -0.012242 86991.800000 0 0 1
-8.292905 30.293314 -10.733459 33.191329 -1.303589 1.900097 0.053969 -0.018570 2525.620000 0 0 1
-9.451505 29.855314 -10.048359 32.888300 -1.264202 1.881291 0.076782 -0.013119 388371.000000 0 0 1
-10.446305 30.869514 -9.896959 34.058802 -1.244491 1.865634 0.084963 -0.027780 1695920.000000 0 0 1
-11.734105 30.463414 -9.026759 33.870211 -1.203125 1.840567 0.098895 -0.024198 1185040.000000 0 0 1
-12.462705 29.463614 -9.684459 33.424726 -1.170633 1.864751 0.108157 -0.028678 -155648.000000 0 0 1
-13.687205 29.244614 -9.002659 33.520664 -1.133054 1.842705 0.115963 -0.019854 1165120.000000 0 0 1
-14.784905 28.344414 -9.684859 33.403529 -1.090006 1.864955 0.121797 -0.022482 929617.000000 0 0 1
-14.360105 27.000814 -9.473659 32.015728 -1.082003 1.871201 0.103485 -0.021553 265274.000000 0 0 1
-15.370305 26.093314 -9.872359 31.852328 -1.038466 1.885928 0.128977 -0.029604 22589.500000 0 0 1
-15.497305 24.800114 -9.050659 30.612523 -1.012277 1.870934 0.111817 -0.023126 -86061.400000 0 0 1
-14.399805 23.938614 -9.236059 29.423060 -1.029252 1.890100 0.115934 -0.022674 -46238.000000 0 0 1
-14.638605 22.648914 -8.741559 28.349196 -0.997008 1.884257 0.110436 -0.023479 135756.000000 0 0 1
-13.609405 21.601114 -9.262659 27.159177 -1.008586 1.918831 0.120457 -0.023357 36246.000000 0 0 1
-13.759605 21.294114 -10.645459 27.497124 -0.997119 1.968333 0.121819 -0.018059 384069.000000 0 0 1
-12.965105 20.143514 -10.946059 26.337641 -0.998907 1.999404 0.115137 -0.025392 128118.000000 0 0 1
-13.314405 19.595414 -12.364159 26.723137 -0.973985 2.051808 0.116889 -0.024273 269954.000000 0 0 1
-14.653205 19.173514 -12.530859 27.191221 -0.918242 2.049740 0.125502 -0.020135 -360061.000000 0 0 1
-14.849805 18.829414 -13.926359 27.730976 -0.903015 2.096932 0.130801 -0.017321 595904.000000 0 0 1
-16.331705 18.554114 -14.336459 28.574706 -0.849017 2.096381 0.121649 -0.009450 577399.000000 0 0 1
-17.097605 19.697214 -14.638459 29.909745 -0.855932 2.082222 0.090226 -0.011250 -440570.000000 0 0 1
-18.403705 19.280714 -14.952059 30.561518 -0.808666 2.082020 0.076621 -0.010023 -538503.000000 0 0 1
-19.182405 20.384614 -15.671359 32.079412 -0.815773 2.081186 0.055096 -0.010708 -347951.000000 0 0 1
-19.313805 21.612014 -14.998659 32.635288 -0.841495 2.048323 0.064761 -0.017047 246598.000000 0 0 1
-20.038405 22.526414 -15.775159 34.026940 -0.843784 2.052859 0.065741 -0.019881 -138234.000000 0 0 1
-20.523505 23.756714 -14.970559 34.780934 -0.858286 2.015759 0.069343 -0.020148 23674.300000 0 0 1
-21.674205 23.542114 -14.172059 34.997851 -0.826685 1.987710 0.083729 -0.022266 178264.000000 0 0 1
-22.077505 24.670714 -13.495459 35.751752 -0.840813 1.957866 0.079542 -0.030876 -68572.400000 0 0 1
-26.252825 -0.799186 3.716741 26.526660 0.030432 1.430220 0.195143 -0.041777 -196662.000000 0 0 1
-26.809105 -0.271186 4.856641 27.246810 0.010115 1.391592 0.192049 -0.040122 544398.000000 0 0 1
-28.196065 -0.585986 5.023441 28.646055 0.020780 1.394522 0.172594 -0.047273 597961.000000 0 0 1
-28.668065 0.123114 6.300141 29.352426 -0.004294 1.354475 0.185367 -0.040049 -337907.000000 0 0 1
-28.989765 1.495514 6.266041 29.696908 -0.051542 1.358199 0.198161 -0.042640 1490.580000 0 0 1
-29.354475 2.060914 7.495641 30.366383 -0.070093 1.321378 0.212211 -0.037995 -224398.000000 0 0 1
-28.301905 2.614314 8.503941 29.667314 -0.092111 1.280075 0.226928 -0.037322 11805.200000 0 0 1
-27.793685 1.510214 9.278041 29.340275 -0.054283 1.249052 0.212698 -0.041798 956468.000000 0 0 1
-26.781575 1.829114 10.281241 28.745475 -0.068192 1.205030 0.216145 -0.047105 498985.000000 0 0 1
-25.994725 0.577814 10.696241 28.115284 -0.022224 1.180522 0.207975 -0.037391 -211865.000000 0 0 1
-24.938805 0.234814 9.810241 26.800000 -0.009415 1.196031 0.198000 -0.032766 338729.000000 0 0 1
-25.118615 -0.952386 9.066741 26.721858 0.037897 1.224623 0.165904 -0.034077 -742361.000000 0 0 1
-23.834105 -1.315386 8.325841 25.280713 0.055133 1.235196 0.146752 -0.033866 -265561.000000 0 0 1
-22.810105 -1.710586 9.231841 24.666858 0.074852 1.187197 0.149209 -0.052625 40988.700000 0 1 0
-21.715605 -2.305786 8.581241 23.463202 0.105785 1.196377 0.158761 -0.036220 -769221.000000 0 1 0
-20.531305 -2.469786 9.500541 22.757298 0.119718 1.140134 0.128480 -0.033984 -506981.000000 0 1 0
-19.795205 -1.289486 9.840641 22.143874 0.065049 1.110297 0.107689 -0.024680 933451.000000 0 1 0
-20.453905 -0.559286 10.864641 23.167121 0.027337 1.082674 0.118284 -0.022888 -538152.000000 0 1 0
-20.103405 0.975714 10.894941 22.886648 -0.048497 1.074651 0.085991 -0.014862 -976746.000000 0 1 0
-20.555205 1.809014 9.879741 22.877900 -0.087781 1.124257 0.105176 -0.014097 480157.000000 0 1 0
-21.948105 1.954714 9.679641 24.067316 -0.088826 1.156888 0.122580 -0.020751 -147436.000000 0 1 0
-22.293805 3.349814 9.093541 24.309001 -0.149142 1.187390 0.117548 -0.034225 -215704.000000 0 1 0
-22.221305 4.386814 10.022941 24.768728 -0.194909 1.154188 0.097992 -0.032289 534339.000000 0 1 0
-22.571605 5.642814 9.424741 25.102679 -0.244975 1.185917 0.084484 -0.023050 -648381.000000 0 0 1
-22.493205 6.726414 10.463141 25.703429 -0.290578 1.151550 0.076396 -0.024013 -381593.000000 0 0 1
-23.453405 6.587714 11.471541 26.926873 -0.273829 1.130701 0.088948 -0.025484 61827.700000 0 0 1
-23.403405 7.611414 12.379441 27.548205 -0.314437 1.104732 0.097276 -0.024970 -1300.160000 0 0 1
-24.299305 7.273414 13.603041 28.781965 -0.290838 1.078531 0.125685 -0.023814 734282.000000 0 0 1
-25.686135 7.119314 13.277641 29.778481 -0.270378 1.108639 0.160327 -0.028419 815391.000000 0 0 1
-26.415925 6.894214 14.492541 30.908980 -0.255292 1.082776 0.166549 -0.029896 -875411.000000 0 0 1
-27.910445 6.855514 14.328941 32.114009 -0.240857 1.108293 0.168630 -0.026170 -741892.000000 0 0 1
-28.504735 5.688614 13.720041 32.142181 -0.196980 1.129784 0.191947 -0.025342 526673.000000 0 0 1
-29.753105 5.963514 13.089041 33.047448 -0.197812 1.163565 0.198068 -0.024050 393264.000000 0 0 1
-30.136305 4.733714 12.105841 32.820060 -0.155804 1.193020 0.206185 -0.026849 183037.000000 0 0 1
-30.686895 3.590714 12.797241 33.441713 -0.116482 1.178109 0.192712 -0.032586 555442.000000 0 0 1
-31.350595 2.672914 11.927841 33.649334 -0.085053 1.208444 0.181792 -0.025335 565588.000000 0 0 1
-32.625855 1.936014 12.451041 34.974605 -0.059270 1.206810 0.143783 -0.017921 353248.000000 0 0 1
-32.364025 0.813514 13.283041 34.993301 -0.025131 1.181445 0.148642 -0.014186 -3147.810000 0 0 1
-33.571055 0.172414 13.666841 36.246766 -0.005136 1.184187 0.117681 -0.013072 3187.430000 0 0 1
-33.493965 -0.966886 14.710941 36.594977 0.028859 1.157103 0.097867 -0.014161 -158143.000000 0 0 1
-33.212075 -2.249986 14.231941 36.202935 0.067643 1.166779 0.097954 -0.014210 148125.000000 0 0 1
-33.204015 -3.220886 15.281541 36.693409 0.096700 1.141242 0.104239 -0.008617 -260417.000000 0 0 1
-32.915605 -4.622686 14.714841 36.350142 0.139528 1.154027 0.087297 -0.010458 201591.000000 0 0 1
-33.882625 -5.064886 13.743541 36.913010 0.148385 1.189286 0.055302 -0.010645 643069.000000 0 0 1
-33.654045 -6.407786 13.460541 36.808160 0.188150 1.196417 0.055693 -0.011333 205279.000000 0 0 1
-34.796027 -7.032786 12.558241 37.655451 0.199428 1.230778 0.052687 -0.010605 3128240.000000 0 0 1
-36.208105 -7.114286 13.003941 39.124704 0.194012 1.231979 0.050839 -0.011834 2189840.000000 0 0 1
-36.862965 -5.892986 13.148941 39.579037 0.158521 1.232140 0.052577 -0.011511 -575657.000000 0 0 1
35.575899 -5.981786 12.683041 38.239847 -0.166583 1.232722 0.080143 -0.015965 243888.000000 0 0 1
34.603619 -6.516386 13.563941 37.733993 -0.186135 1.203105 0.072757 -0.011089 -238550.000000 0 0 1
33.318959 -6.464986 13.011841 36.349100 -0.191652 1.204705 0.100697 -0.018517 -214560.000000 0 0 1
32.340899 -7.496686 13.573441 35.866033 -0.227779 1.182677 0.098567 -0.024350 -67468.000000 0 0 1
31.845659 -7.277186 14.912041 35.909224 -0.224657 1.142556 0.095122 -0.015262 -222921.000000 0 0 1
30.795449 -8.134586 15.187641 35.287329 -0.258250 1.125861 0.095109 -0.013009 -515182.000000 0 0 1
30.299479 -8.062686 16.633841 35.492957 -0.260073 1.083032 0.100477 -0.013160 117236.000000 0 0 1
31.204479 -8.527386 17.619941 36.836098 -0.266761 1.072040 0.080095 -0.005424 283177.000000 0 0 1
30.550779 -8.530386 18.877341 36.911673 -0.272285 1.033961 0.095547 -0.013649 -127327.000000 0 0 1
31.503399 -9.057386 19.988341 38.393152 -0.279954 1.023216 0.089597 -0.017196 566950.000000 0 0 1
32.581479 -8.175886 20.300541 39.249329 -0.245860 1.027197 0.079820 -0.017205 388220.000000 0 0 1
33.809219 -8.525386 19.673541 40.034906 -0.247012 1.057089 0.027683 0.006629 434203.000000 0 0 1
35.084549 -7.867686 20.273841 41.277775 -0.220600 1.057380 0.019269 -0.005774 301044.000000 0 0 1
35.466489 -8.397186 21.485841 42.308698 -0.232483 1.038126 0.015131 -0.004425 64486.400000 0 0 1
36.789649 -8.021986 21.832241 43.525593 -0.214690 1.045354 0.009103 0.000822 -55572.200000 0 0 1
-36.757875 -8.602286 23.207841 44.314158 0.229888 1.019594 0.020297 -0.001365 -95020.600000 0 0 1
36.433959 -7.979986 24.265741 44.496514 -0.215621 0.994001 0.032053 -0.007291 236212.000000 0 0 1
36.635609 -8.723686 25.417641 45.434866 -0.233767 0.977098 0.039866 -0.011474 126215.000000 0 0 1
36.071399 -8.016086 26.672341 45.572110 -0.218675 0.945574 0.062732 -0.013627 1019190.000000 0 0 1
-36.734045 -7.599886 27.521041 46.524790 0.204011 0.937835 0.035375 -0.020757 987753.000000 0 0 1
36.684419 -6.805686 28.624041 47.025522 -0.183434 0.916386 0.048536 -0.022940 722842.000000 0 0 1
-35.998375 -6.415686 29.497941 46.980556 0.176370 0.891976 0.055903 -0.014626 768915.000000 0 0 1
-35.398601 -7.352386 30.369341 47.216686 0.204791 0.872138 0.057124 -0.010420 -779173.000000 0 0 1
-34.139517 -6.933686 30.777541 46.484833 0.200373 0.847181 0.043616 -0.022337 -589702.000000 0 0 1
-33.669565 -7.694986 32.000041 47.083491 0.224685 0.823518 0.036800 -0.014698 -53044.200000 0 0 1
-33.485615 -9.078986 31.776341 47.047320 0.264766 0.829273 0.047865 -0.016445 230344.000000 0 0 1
-33.024365 -9.696786 32.985641 47.672727 0.285598 0.806653 0.043140 -0.015103 8758.180000 0 0 1
-33.211035 -11.241386 32.947741 48.113359 0.326378 0.816475 0.051539 -0.015522 110075.000000 0 0 1
-34.576320 -11.625086 32.927341 49.141371 0.324342 0.836516 0.050712 -0.021694 186502.000000 0 0 1
-34.709715 -12.988386 33.346541 49.854331 0.358069 0.838096 0.056178 -0.028403 1835070.000000 0 0 1
-36.278785 -13.311086 33.420841 51.090977 0.351660 0.857746 0.044109 -0.028120 1716350.000000 0 0 1
-36.633105 -14.598286 33.869141 51.982815 0.379212 0.861177 0.042246 -0.041260 -60238.000000 0 0 1
35.865329 -14.725786 33.791741 51.430072 -0.389598 0.853908 0.028502 -0.034838 -108896.000000 0 0 1
35.605029 -16.241086 33.902941 51.777412 -0.427953 0.856902 0.026375 -0.021449 -175916.000000 0 0 1
35.779279 -16.880486 -32.913588 51.462723 -0.440830 2.264724 0.031510 -0.030025 108648.000000 0 0 1
35.519449 -18.279086 -32.999188 51.814116 -0.475277 2.261236 0.034047 -0.035628 -266333.000000 0 0 1
35.948019 -19.020086 -31.741488 51.590171 -0.486655 2.233515 0.032001 -0.026594 -28077.000000 0 0 1
35.048519 -18.811786 -30.680088 50.234945 -0.492602 2.227781 0.026560 -0.024969 -138398.000000 0 0 1
35.409669 -19.640186 -29.549788 50.127552 -0.506411 2.201226 0.020826 -0.023018 -659377.000000 0 0 1
34.400829 -19.593386 -28.350188 48.693438 -0.517737 2.192250 0.007864 -0.014576 369121.000000 0 0 1
33.148269 -20.214186 -28.552588 48.194100 -0.547602 2.204893 0.016585 -0.010492 201352.000000 0 0 1
32.308719 -19.404786 -29.354188 47.770989 -0.540864 2.232520 0.015548 -0.007299 -618898.000000 0 0 1
30.898849 -20.057186 -29.607288 47.261200 -0.575759 2.247801 0.022730 -0.002869 498486.000000 0 0 1
30.124799 -19.335386 -30.530188 47.047349 -0.570619 2.276967 0.020776 0.002307 133379.000000 0 0 1
28.882589 -19.989586 -30.750088 46.683566 -0.605403 2.289875 0.021842 0.000502 133123.000000 0 0 1
27.992289 -19.160186 -31.699588 46.427845 -0.600234 2.322345 0.022049 0.013568 -209063.000000 0 0 1
28.300689 -19.252086 -33.064888 47.590530 -0.597361 2.338909 0.018243 0.006902 73776.900000 0 0 1
27.183689 -19.275086 -33.935288 47.561388 -0.616786 2.365284 0.060924 -0.005451 167271.000000 0 0 1
27.711489 -19.590986 32.698941 47.127000 -0.615384 0.803978 0.069954 -0.009803 491392.000000 0 0 1
28.651389 -18.632086 32.192741 46.951350 -0.576588 0.815284 0.056003 -0.013785 555488.000000 0 0 1
28.720389 -18.803286 30.799741 46.119934 -0.579673 0.839522 0.054500 -0.012554 -216224.000000 0 0 1
27.744389 -17.942386 29.999041 44.627601 -0.574054 0.833609 0.069053 -0.014742 -118169.000000 0 0 1
28.106289 -16.550286 30.126141 44.401124 -0.532178 0.825078 0.079362 -0.024467 769290.000000 0 0 1
27.114789 -15.763686 29.476041 43.041173 -0.526607 0.816421 0.104870 -0.025498 281286.000000 0 0 1
26.823989 -14.434586 30.162141 42.867685 -0.493678 0.790331 0.111739 -0.034777 669652.000000 0 0 1
28.012089 -13.611086 30.160241 43.354111 -0.452304 0.801441 0.105575 -0.023943 1124770.000000 0 0 1
27.777489 -12.330986 30.728441 43.218968 -0.417786 0.779885 0.117548 -0.030792 -153478.000000 0 0 1
29.101809 -11.563986 30.779341 43.909098 -0.378231 0.794027 0.103215 -0.025413 -77641.900000 0 0 1
29.562689 -11.161286 29.461741 43.203253 -0.361001 0.820394 0.097315 -0.028854 108271.000000 0 0 1
30.960169 -10.956386 29.461941 44.120068 -0.340133 0.839591 0.082351 -0.022299 -58817.800000 0 0 1
31.381409 -10.237886 28.225541 43.431421 -0.315353 0.863360 0.087828 -0.022229 -216506.000000 0 0 1
30.830469 -8.912086 28.139241 42.682080 -0.281397 0.850942 0.093207 -0.016899 269057.000000 0 0 1
31.341679 -8.254386 26.995141 42.180248 -0.257520 0.876305 0.101513 -0.019639 3699.620000 0 0 1
30.931119 -6.802086 26.919841 41.565374 -0.216465 0.866299 0.102029 -0.026061 335247.000000 0 0 1
29.581049 -6.692786 26.487441 40.266815 -0.222506 0.852904 0.115307 -0.019595 94554.200000 0 0 1
29.267429 -5.306986 26.282041 39.692470 -0.179378 0.847123 0.123894 -0.021946 438218.000000 0 0 1
27.747489 -5.098286 26.039941 38.392632 -0.181712 0.825413 0.101053 -0.011089 255632.000000 0 0 1
27.290489 -5.247086 24.698441 37.179506 -0.189950 0.844236 0.118538 -0.022715 -384042.000000 0 0 1
25.922889 -4.964686 24.661941 36.122785 -0.189226 0.819310 0.109920 -0.017128 -674835.000000 0 0 1
25.312089 -5.291886 23.322841 34.823280 -0.206097 0.836926 0.108227 -0.021887 -411707.000000 0 0 1
25.715389 -4.382386 22.390441 34.377585 -0.168797 0.861488 0.123390 -0.019730 237701.000000 0 0 1
25.135389 -4.764886 21.150241 33.193744 -0.187346 0.879968 0.121771 -0.014034 181126.000000 0 0 1
25.524889 -3.757486 20.043141 32.670570 -0.146159 0.910321 0.141936 -0.013715 164373.000000 0 0 1
24.725889 -2.593986 20.097741 31.969009 -0.104527 0.890963 0.123299 -0.002828 -35645.400000 0 0 1
25.109589 -1.659486 19.140341 31.616420 -0.065994 0.920537 0.140010 -0.013283 -1084520.000000 0 0 1
24.022989 -0.858686 18.539541 30.357140 -0.035729 0.913834 0.098873 -0.006010 -769417.000000 0 0 1
22.997689 -1.641786 17.927841 29.206106 -0.071268 0.909882 0.115303 -0.006499 734457.000000 0 0 1
21.874889 -0.783386 17.608141 28.092189 -0.035797 0.893359 0.113102 -0.006827 751779.000000 0 0 1
20.754589 -1.620086 16.960041 26.851827 -0.077901 0.887161 0.087011 -0.008559 -106170.000000 0 0 1
21.091289 -2.096786 15.667041 26.357070 -0.099089 0.934258 0.121681 -0.016628 -26906.900000 0 0 1
20.005189 -2.807486 15.137741 25.243628 -0.139427 0.927713 0.107467 -0.022800 -62219.100000 0 0 1
20.371589 -3.343886 13.728641 24.792313 -0.162694 0.983940 0.120014 -0.038830 254709.000000 0 1 0
19.398289 -4.321986 13.372541 23.954082 -0.219222 0.978512 0.107340 -0.033880 746833.000000 0 1 0
19.419589 -4.616786 11.994341 23.287322 -0.233406 1.029720 0.098678 -0.033598 -241947.000000 0 1 0
18.301089 -5.589086 11.588841 22.371164 -0.296400 1.026255 0.056541 -0.027609 -273698.000000 0 1 0
18.574789 -6.891186 12.102741 23.216106 -0.355256 1.022413 0.096059 -0.030625 196424.000000 0 1 0
17.465789 -7.715286 12.208441 22.663306 -0.415961 1.001918 0.064873 -0.009204 -582194.000000 0 1 0
17.959389 -9.172486 12.507341 23.729891 -0.472199 1.015646 0.091651 -0.029863 -51982.800000 0 1 0
18.563689 -9.845186 11.431041 23.920847 -0.487629 1.072569 0.085034 -0.038729 340226.000000 0 1 0
18.086289 -11.148186 11.403741 24.113092 -0.552383 1.078186 0.080655 -0.035079 -71633.300000 0 1 0
18.619589 -11.945886 10.229641 24.372912 -0.570431 1.137667 0.066526 -0.038032 -159357.000000 0 1 0
18.176289 -11.404686 9.026341 23.279157 -0.560358 1.172614 0.074818 -0.036910 273019.000000 0 1 0
18.961889 -11.875886 7.968741 23.750594 -0.559536 1.228642 0.101476 -0.050064 -140574.000000 0 1 0
18.636889 -11.172286 6.633641 22.719128 -0.540031 1.274495 0.096011 -0.039964 -100348.000000 0 1 0
19.197889 -9.875186 6.633541 22.584997 -0.475093 1.272686 0.099996 -0.030418 717319.000000 0 1 0
19.450789 -9.454286 5.325741 22.272858 -0.452435 1.329344 0.070973 -0.035386 -242107.000000 0 1 0
20.150189 -8.069686 5.270141 22.336614 -0.380917 1.332609 0.104158 -0.030350 -142476.000000 0 1 0
20.742189 -7.734986 4.025341 22.500484 -0.356938 1.390928 0.107633 -0.033387 623295.000000 0 1 0
21.163389 -6.415686 4.046341 22.481613 -0.294344 1.389826 0.118344 -0.029808 -153356.000000 0 1 0
21.988289 -5.951586 2.809341 22.952094 -0.264337 1.448088 0.128743 -0.033535 353810.000000 0 1 0
21.134389 -5.819786 1.674641 21.984920 -0.268711 1.494550 0.108474 -0.040255 942284.000000 0 1 0
21.642989 -4.837486 0.809341 22.191784 -0.219898 1.534318 0.106266 -0.029485 70830.700000 0 1 0
-26.413825 -15.353086 0.235041 30.552621 0.526520 1.563103 0.136856 -0.015684 -297069.000000 0 0 1
-25.368635 -14.716486 -0.483059 29.332166 0.525663 1.587266 0.140345 -0.010541 706966.000000 0 0 1
-24.066605 -15.229486 -0.199159 28.481194 0.564193 1.577789 0.142990 -0.013414 915900.000000 0 0 1
-23.347205 -14.678486 1.083941 27.599363 0.561259 1.531512 0.158843 -0.024607 -101245.000000 0 0 1
-24.018605 -15.097386 2.239241 28.457664 0.561163 1.492028 0.137645 -0.000417 701614.000000 0 0 1
-23.143205 -14.791486 3.349841 27.669793 0.568695 1.449434 0.129697 0.004699 793367.000000 0 0 1
-23.551505 -15.581286 4.619041 28.614427 0.584475 1.408663 0.116642 0.004374 -468587.000000 0 0 1
-23.261205 -16.986286 4.574141 29.164025 0.630735 1.413304 0.138154 -0.013532 391139.000000 0 0 1
-23.801505 -17.755186 5.683541 30.233440 0.640916 1.381683 0.132790 -0.015742 96888.300000 0 0 1
-23.962805 -19.261586 5.332641 31.203554 0.677061 1.399055 0.107917 -0.010764 -63053.600000 0 0 1
-24.316205 -20.034086 6.404241 32.150532 0.689144 1.370259 0.092599 -0.020648 -114975.000000 0 0 1
-24.624505 -21.397186 6.100741 33.187721 0.715387 1.385920 0.112492 -0.031323 110033.000000 0 0 1
-25.291785 -22.230586 7.229441 34.440357 0.721071 1.359311 0.102358 -0.022620 50843.100000 0 0 1
-24.447605 -22.430686 8.307641 34.202894 0.742400 1.325449 0.094379 -0.016835 -551082.000000 0 0 1
-25.202875 -23.051386 9.275941 35.392010 0.740841 1.305608 0.100000 -0.017573 -504575.000000 0 0 1
-24.429005 -23.453586 10.473441 35.447707 0.765030 1.270858 0.073913 -0.024444 -367299.000000 0 0 1
-23.856005 -22.440986 11.225241 34.622433 0.754844 1.240611 0.084974 -0.020795 -270252.000000 0 0 1
-23.039305 -22.834786 12.260041 34.677740 0.780940 1.209441 0.087000 -0.020727 -321617.000000 0 0 1
-23.392805 -22.006086 13.526741 34.849159 0.754862 1.172172 0.068430 -0.012656 178808.000000 0 0 1
-24.684705 -22.266386 14.046441 36.089183 0.733936 1.171017 0.062565 -0.009869 97022.200000 0 0 1
-24.933405 -21.514586 15.199441 36.270858 0.711925 1.138393 0.061244 -0.000644 -229074.000000 0 0 1
-26.260445 -21.897286 15.911241 37.712991 0.695043 1.135253 0.039167 -0.000191 676530.000000 0 0 1
-27.472215 -21.556186 15.208941 38.088104 0.665313 1.160033 0.041263 -0.002331 796336.000000 0 0 1
-27.865985 -22.513186 14.245941 38.552607 0.679545 1.192304 0.030989 -0.010180 194427.000000 0 0 1
-28.983385 -23.510986 14.764841 40.134818 0.681526 1.194067 0.036766 -0.015301 292605.000000 0 0 1
-28.421945 -24.306686 15.779141 40.590679 0.707510 1.171535 0.034528 -0.011464 -304310.000000 0 0 1
-29.256985 -25.315196 16.214241 41.949159 0.713293 1.173940 0.029405 -0.012629 -574357.000000 0 0 1
-29.317195 -26.632876 15.340541 42.475172 0.737458 1.201280 0.044806 -0.010659 68865.800000 0 0 1
-29.877415 -26.604466 13.999441 42.384453 0.727516 1.234179 0.050901 -0.025374 -152943.000000 0 0 1
-31.186905 -27.119566 14.021341 43.642776 0.715753 1.243721 0.075248 -0.028118 -227245.000000 0 0 1
-31.667045 -27.389186 12.563041 43.712690 0.713087 1.279285 0.097320 -0.037044 -43610.600000 0 0 1
-31.029005 -28.493766 11.924841 43.782367 0.742831 1.294945 0.089522 -0.037479 149430.000000 0 0 1
-31.657505 -28.769126 10.708641 44.096885 0.737635 1.325500 0.083851 -0.023600 180174.000000 0 0 1
-31.091965 -30.050106 10.044041 44.391462 0.768360 1.342559 0.075996 -0.034503 87296.300000 0 0 1
-31.410225 -31.128536 10.871841 45.538829 0.780894 1.329730 0.086445 -0.018861 -21547.700000 0 0 1
-30.784995 -32.298396 10.430841 45.822535 0.809384 1.341147 0.084298 -0.026355 -287756.000000 0 0 1
-31.128375 -33.563116 11.229441 47.133415 0.823017 1.330235 0.082196 -0.021669 -699814.000000 0 0 1
-32.335605 33.886564 11.052441 48.125327 -0.808814 1.339068 0.078294 -0.015988 -700369.000000 0 0 1
-32.314135 32.643455 11.670141 47.391884 -0.790468 1.321990 0.095848 -0.019631 -316665.000000 0 0 1
-33.665435 32.158545 12.233841 48.137308 -0.762509 1.313833 0.100511 -0.016428 176235.000000 0 0 1
-34.776398 31.947651 11.402041 48.580416 -0.743029 1.333882 0.060700 -0.016267 547172.000000 0 0 1
-35.443550 33.118864 10.822641 49.701449 -0.751505 1.351285 0.081659 -0.017016 440718.000000 0 0 1
-36.886915 32.851487 10.289541 50.455321 -0.727597 1.365422 0.071827 -0.013351 477230.000000 0 0 1
36.905889 32.192447 9.034341 49.799775 0.717290 1.388373 0.056459 -0.020095 237551.000000 0 0 1
35.577379 32.264993 8.540341 48.782344 0.736612 1.394819 0.050042 -0.019698 65266.200000 0 0 1
35.397959 31.671761 7.106641 48.027287 0.729898 1.422280 0.052338 -0.025441 -180937.000000 0 0 1
35.411999 30.278201 7.073041 47.125439 0.707405 1.420137 0.070549 -0.029512 77205.400000 0 0 1
35.172469 29.842421 5.716241 46.479545 0.703599 1.447500 0.091847 -0.031344 71218.800000 0 0 1
35.666139 28.397381 5.420841 45.911548 0.672420 1.452449 0.094629 -0.031295 -48120.900000 0 0 1
34.922189 27.369201 6.061141 44.781356 0.664735 1.435030 0.088790 -0.028955 -45148.800000 0 0 1
35.380509 27.071091 7.359441 45.152915 0.653121 1.407077 0.069895 -0.026207 -416800.000000 0 0 1
34.465339 26.189941 8.183341 44.053827 0.649802 1.383953 0.082167 -0.016227 -320880.000000 0 0 1
34.355459 24.935391 7.467941 43.102685 0.627836 1.396658 0.085184 -0.023952 33456.800000 0 0 1
33.191159 24.191811 7.770241 41.800399 0.629836 1.383820 0.086080 -0.026755 -621720.000000 0 0 1
33.202289 22.846211 7.020741 40.910049 0.602689 1.398328 0.077385 -0.025150 -170970.000000 0 0 1
34.059149 21.861411 7.512141 41.162837 0.570636 1.387270 0.089947 -0.021176 302394.000000 0 0 1
35.432869 22.150511 7.221341 42.406145 0.558700 1.399672 0.084222 -0.025628 31458.900000 0 0 1
36.369819 20.926111 7.146741 42.564560 0.522112 1.402094 0.062906 -0.018702 -243687.000000 0 0 1
36.232339 20.043211 6.065841 41.848621 0.505286 1.425337 0.072955 -0.022482 -57150.200000 0 0 1
36.939729 18.852511 6.244941 41.939957 0.471900 1.421339 0.082318 -0.027652 -528771.000000 0 0 1
36.489999 17.763211 5.256641 40.922903 0.453029 1.441988 0.077959 -0.026904 -241163.000000 0 0 1
-36.885045 17.846811 3.930841 41.163901 -0.450644 1.475158 0.075899 -0.027835 227244.000000 0 0 1
36.457839 16.824911 3.100941 40.272416 0.432367 1.493721 0.072944 -0.025872 -999234.000000 0 0 1
-36.529215 16.289611 1.991141 40.046219 -0.419467 1.521055 0.080238 -0.019010 381105.000000 0 0 1
-35.390565 15.536711 2.429941 38.727072 -0.413675 1.508010 0.092624 -0.041667 332926.000000 0 0 1
-34.289174 16.339911 2.759841 38.083552 -0.444698 1.498265 0.103436 -0.046155 -457030.000000 0 0 1
-32.918945 15.609411 2.875141 36.545549 -0.442777 1.492042 0.094196 -0.043278 148705.000000 0 0 1
-32.876405 14.580311 3.845141 36.169443 -0.417426 1.464286 0.113978 -0.039809 619402.000000 0 0 1
-31.534705 14.212411 4.197141 34.843167 -0.423429 1.450045 0.114487 -0.047192 355280.000000 0 0 1
-31.315715 13.429911 5.445041 34.506304 -0.405132 1.412336 0.131290 -0.033447 -85530.700000 0 0 1
-31.790835 12.088711 5.346541 34.429343 -0.363372 1.414875 0.149072 -0.037303 264349.000000 0 0 1
-31.495205 11.363311 6.471341 34.102068 -0.346259 1.379875 0.153565 -0.022263 -200162.000000 0 0 1
-31.675605 9.822811 6.428441 33.781007 -0.300703 1.379331 0.171042 -0.031370 31150.500000 0 0 1
-33.009985 9.357811 6.479741 34.917257 -0.276237 1.384140 0.162533 -0.014027 -47934.900000 0 0 1
-33.046685 7.941711 6.610341 34.624425 -0.235846 1.378702 0.178415 -0.024632 -787175.000000 0 0 1
-34.395942 7.274511 6.443541 35.742392 -0.208422 1.389528 0.168227 -0.023184 -718608.000000 0 0 1
-35.079387 7.149511 7.666141 36.612138 -0.201056 1.359847 0.161912 -0.024799 15440.800000 0 0 1
-36.381585 6.639011 7.433141 37.721980 -0.180497 1.372448 0.122035 -0.016181 538955.000000 0 0 1
36.783659 5.978411 8.649041 38.256828 0.161120 1.342746 0.104313 -0.016465 149172.000000 0 0 1
36.296529 6.856411 9.724041 38.196929 0.186700 1.313387 0.118277 -0.020558 207488.000000 0 0 1
-36.653485 7.555311 10.505941 38.870754 -0.203281 1.297114 0.132747 -0.026251 -58974.200000 0 0 1
36.587649 8.646111 11.458541 39.302792 0.232055 1.274954 0.104815 -0.023980 107392.000000 0 0 1
35.803329 7.961511 12.451841 38.733866 0.218808 1.243513 0.092911 -0.026203 503077.000000 0 0 1
35.416959 8.947511 13.404441 38.911412 0.247456 1.219105 0.106065 -0.022202 -631913.000000 0 0 1
34.696379 8.239511 14.502341 38.497352 0.233156 1.184554 0.105660 -0.022936 21619.100000 0 0 1
33.307469 7.928911 14.329141 37.115757 0.233702 1.174433 0.092475 -0.023517 867744.000000 0 0 1
32.837549 7.427511 15.550641 37.084970 0.222446 1.138095 0.087621 -0.015840 488175.000000 0 0 1
31.321049 7.105911 15.733541 35.763758 0.223097 1.115276 0.078018 -0.003702 655370.000000 0 0 1
30.430819 8.215311 15.886841 35.297561 0.263681 1.103938 0.062996 -0.004017 1051530.000000 0 0 1
29.050169 7.880111 16.050041 34.111762 0.264885 1.080924 0.068642 0.000152 790118.000000 0 0 1
28.583689 7.307711 17.431241 34.267741 0.250299 1.037148 0.064115 -0.004541 -505097.000000 0 0 1
28.533889 8.261411 18.511241 35.001425 0.281824 1.013526 0.085178 -0.009887 549080.000000 0 0 1
27.794389 7.871311 19.699741 34.965203 0.275972 0.972289 0.086533 0.000419 315975.000000 0 0 1
28.508289 6.886911 20.659841 35.874519 0.237034 0.957102 0.084791 0.000978 -179710.000000 0 0 1
27.667389 6.700311 21.770741 35.837742 0.237599 0.917911 0.059770 0.007653 235554.000000 0 0 1
27.972689 5.516311 22.485641 36.311225 0.194705 0.903012 0.066543 0.006883 211726.000000 0 0 1
26.960589 5.375911 23.662641 36.272501 0.196817 0.860105 0.071494 0.011891 561661.000000 0 0 1
25.659189 4.992011 23.301541 35.018223 0.192150 0.842751 0.049482 0.005958 -542905.000000 0 0 1
24.666689 5.870511 23.719441 34.720604 0.233647 0.818727 0.061717 0.017495 518538.000000 0 0 1
23.181189 5.465111 23.418041 33.401192 0.231529 0.793838 0.066999 0.010022 532825.000000 0 0 1
22.942289 5.285311 22.039541 32.249411 0.226424 0.818374 0.063989 0.012182 447472.000000 0 0 1
21.597389 5.123711 21.634741 30.996155 0.232931 0.798221 0.060369 0.000939 -808048.000000 0 0 1
20.679989 3.936011 22.011441 30.457473 0.188080 0.763104 0.077004 0.000108 1001830.000000 0 0 1
19.426989 3.830711 21.279241 29.066963 0.194687 0.749431 0.063960 -0.008596 877853.000000 0 0 1
18.489689 4.801311 21.738041 28.938964 0.254064 0.720966 0.089904 -0.016020 -687934.000000 0 0 1
17.184189 4.624911 20.890641 27.442759 0.262908 0.705567 0.122130 -0.022956 121857.000000 0 0 1
16.536789 3.395811 21.260141 27.147569 0.202533 0.671109 0.108842 -0.016264 -577485.000000 0 0 1
15.607289 2.951011 20.364641 25.826625 0.186873 0.662408 0.114128 -0.016911 66922.900000 0 0 1
14.590889 1.830111 20.920941 25.572038 0.124777 0.612666 0.118804 -0.016134 510333.000000 0 0 1
14.905889 0.392311 20.738441 25.542560 0.026313 0.623368 0.093835 -0.014906 358606.000000 0 0 1
13.949889 -0.431389 21.407641 25.555285 -0.030914 0.577740 0.097287 -0.022444 153771.000000 0 0 1
14.211489 -1.936989 21.447441 25.801377 -0.135463 0.589441 0.071419 -0.009190 -81876.100000 0 0 1
13.735789 -2.610689 20.285041 24.636771 -0.187824 0.603482 0.056701 -0.008439 184936.000000 0 1 0
14.017089 -3.972789 20.322741 25.005512 -0.276182 0.621973 0.037925 -0.001797 -217748.000000 0 0 1
13.769889 -4.576489 18.968941 23.882521 -0.320870 0.653007 0.041693 -0.006040 287266.000000 0 1 0
12.374389 -4.636789 18.715641 22.910708 -0.358515 0.614789 0.040838 -0.011637 192019.000000 0 1 0
12.018289 -5.185589 17.470341 21.829852 -0.407342 0.643008 0.042803 -0.010778 718370.000000 0 1 0
10.467589 -5.308189 17.314341 20.917306 -0.469317 0.595707 0.045531 -0.007217 606406.000000 0 1 0
9.891589 -6.416189 17.920841 21.451517 -0.575426 0.581915 0.046643 -0.007992 -887921.000000 0 1 0
8.500689 -6.398889 17.805941 20.742686 -0.645258 0.538614 0.035369 -0.014876 -359134.000000 0 1 0
7.792189 -7.139489 18.958941 21.705574 -0.741714 0.508533 0.032608 -0.012829 -240015.000000 0 1 0
7.890089 -8.536689 18.876441 22.168640 -0.824740 0.551970 0.035822 -0.010229 836339.000000 0 1 0
9.131589 -9.105089 19.374941 23.273953 -0.783945 0.587240 0.061782 -0.017579 1068370.000000 0 1 0
9.409189 -10.571389 18.924741 23.631186 -0.843499 0.642104 0.077062 -0.026615 145346.000000 0 1 0
9.570189 -10.597889 17.534841 22.613589 -0.836311 0.683430 0.076270 -0.018001 -139801.000000 0 1 0
9.984089 -11.850589 17.119041 23.090692 -0.870674 0.735668 0.073379 -0.022086 35775.600000 0 1 0
9.836189 -12.037089 15.593441 22.018118 -0.885681 0.783837 0.067266 -0.019792 88474.900000 0 1 0
10.479589 -13.149889 15.103241 22.601975 -0.897928 0.838974 0.064317 -0.019202 -81880.400000 0 1 0
10.015689 -13.363989 13.780041 21.651784 -0.927645 0.880924 0.045815 -0.007882 -41586.400000 0 1 0
10.805289 -14.492289 13.083241 22.314836 -0.930124 0.944310 0.068027 -0.020102 996380.000000 0 1 0
12.176489 -14.250789 12.742641 22.665541 -0.863728 0.973749 0.047105 -0.021961 596174.000000 0 1 0
12.269489 -13.539389 11.482241 21.580020 -0.834563 1.009744 0.012849 -0.018439 -267753.000000 0 1 0
13.702489 -13.260689 10.951241 21.989401 -0.769014 1.049478 0.032923 -0.028109 328951.000000 0 1 0
14.308789 -14.434489 10.423741 22.841854 -0.789771 1.096914 0.047698 -0.029216 508192.000000 0 1 0
15.567589 -14.104289 9.829941 23.192855 -0.736122 1.133121 0.049479 -0.038013 448197.000000 0 1 0
16.521689 -15.319289 9.567141 24.478092 -0.747653 1.169247 0.056589 -0.045194 344105.000000 0 1 0
17.099889 -15.971689 10.668341 25.716037 -0.751298 1.143017 0.068046 -0.038938 481719.000000 0 0 1
16.207989 -16.928089 11.242541 25.993342 -0.807126 1.123515 0.095712 -0.033493 293227.000000 0 0 1
16.913189 -17.574589 12.434841 27.377863 -0.804574 1.099330 0.099862 -0.037705 -206041.000000 0 0 1
18.094389 -18.272789 12.118641 28.428211 -0.790304 1.130410 0.137589 -0.044760 -266127.000000 0 0 1
18.522989 -18.838389 13.260941 29.560761 -0.793840 1.105599 0.100666 -0.041235 -551932.000000 0 0 1
19.887489 -19.537889 13.192541 30.842899 -0.776531 1.128812 0.046857 -0.041476 -39985.900000 0 0 1
20.909389 -18.641289 12.821841 30.807463 -0.728114 1.141542 0.047202 -0.040272 327904.000000 0 0 1
22.176989 -19.254389 12.556541 31.940837 -0.714974 1.166775 0.032057 -0.035041 839051.000000 0 0 1
22.872489 -18.666089 11.268741 31.599971 -0.684477 1.206164 0.059138 -0.034518 -559790.000000 0 0 1
22.375789 -19.035489 9.970641 31.023208 -0.704911 1.243596 0.053176 -0.032271 853849.000000 0 0 1
21.040089 -18.629489 9.619441 29.703145 -0.724706 1.240998 0.063154 -0.037501 619505.000000 0 0 1
20.789089 -17.072189 9.505841 28.530805 -0.687540 1.231124 0.118503 -0.051786 -30990.000000 0 0 1
21.758689 -16.308589 8.762541 28.569087 -0.643194 1.259058 0.115931 -0.045876 367971.000000 0 0 1
21.628689 -14.947189 9.038141 27.801198 -0.604715 1.239680 0.128142 -0.053410 -98739.300000 0 0 1
-35.182978 25.108614 8.132241 43.982017 -0.619834 1.384827 0.096904 -0.026347 -426396.000000 0 0 1
-34.667501 24.091714 8.924541 43.149667 -0.607320 1.362465 0.107383 -0.030037 -439190.000000 0 0 1
-33.642945 24.719014 9.630741 42.844237 -0.633667 1.344074 0.113948 -0.020623 -735537.000000 0 0 1
-32.646935 23.786414 10.341341 41.696034 -0.629661 1.320163 0.124621 -0.034920 -332060.000000 0 0 1
-31.771905 23.221814 9.395841 40.459714 -0.631159 1.336430 0.137668 -0.030992 208327.000000 0 0 1
-30.957965 22.191814 10.007141 39.382929 -0.621937 1.313881 0.131781 -0.024430 699760.000000 0 0 1
-30.087605 21.364114 9.019741 37.987434 -0.617448 1.331067 0.119715 -0.029399 820738.000000 0 0 1
-31.003565 20.563314 8.215941 38.099510 -0.585638 1.353445 0.130123 -0.040303 925071.000000 0 0 1
-30.340085 19.656514 7.321241 36.884955 -0.574878 1.370981 0.126483 -0.040734 -301669.000000 0 0 1
-31.239865 18.928014 6.330041 37.071125 -0.544741 1.399202 0.120464 -0.040151 -191882.000000 0 0 1
-32.058695 17.872014 6.892841 37.345416 -0.508566 1.385162 0.120251 -0.037901 556246.000000 0 0 1
-33.127875 17.639314 6.005441 38.008774 -0.489278 1.412130 0.072546 -0.037604 -317860.000000 0 0 1
-33.990685 16.410314 6.365841 38.277788 -0.449784 1.403714 0.090895 -0.031451 -160815.000000 0 0 1
-34.817631 16.642214 7.507041 39.313947 -0.445879 1.378665 0.062815 -0.025565 331383.000000 0 0 1
-35.618071 15.512214 7.784341 39.621607 -0.410743 1.373043 0.074961 -0.026805 -662671.000000 0 0 1
-36.603925 15.774814 8.877341 40.835026 -0.406908 1.351651 0.082394 -0.025473 -734290.000000 0 0 1
36.407889 16.840314 8.603041 41.026124 0.433238 1.359532 0.096054 -0.029786 -17047.200000 0 0 1
35.824029 17.378014 9.770541 40.997804 0.451652 1.330162 0.115790 -0.024917 210392.000000 0 0 1
34.874859 18.598614 9.546141 40.660706 0.489928 1.333809 0.093406 -0.021602 -246038.000000 0 0 1
33.615329 18.251614 9.068741 39.310989 0.497418 1.338007 0.090080 -0.025398 -1013990.000000 0 0 1
32.716109 19.286814 9.161941 39.067456 0.532678 1.334076 0.091738 -0.023795 -275876.000000 0 0 1
31.414189 19.011014 8.359541 37.658357 0.544214 1.346948 0.091927 -0.031306 -126961.000000 0 0 1
30.461659 19.990314 8.712141 37.462337 0.580753 1.336090 0.091544 -0.021677 -9744.750000 0 0 1
29.108649 19.924214 8.344541 36.248022 0.600232 1.338506 0.086687 -0.028493 98522.800000 0 0 1
28.788089 19.825514 6.808041 35.611157 0.603082 1.378435 0.067507 -0.020700 -896108.000000 0 0 1
29.096879 18.498714 6.276541 35.046052 0.566301 1.390731 0.062062 -0.022962 169450.000000 0 0 1
28.893459 18.402114 4.871241 34.600560 0.567108 1.429542 0.057583 -0.026634 398119.000000 0 0 1
27.506289 18.786014 4.238241 33.577864 0.599206 1.444237 0.073807 -0.026703 -271367.000000 0 0 1
26.495089 17.899914 4.735341 32.323677 0.594157 1.423770 0.079056 -0.031893 651812.000000 0 0 1
25.163789 18.217214 4.368341 31.371413 0.626617 1.431096 0.083109 -0.036482 280798.000000 0 0 1
24.487689 19.534914 4.741541 31.681887 0.673364 1.420571 0.080488 -0.037676 -1053910.000000 0 0 1
25.057889 20.599614 4.054141 32.690640 0.688061 1.446461 0.077316 -0.039635 232766.000000 0 0 1
24.487089 21.826314 4.480041 33.107043 0.728010 1.435060 0.065384 -0.035803 120033.000000 0 0 1
25.417189 23.032514 4.145341 34.550167 0.736218 1.450526 0.049321 -0.023305 823981.000000 0 0 1
26.686589 23.012514 4.799541 35.563822 0.711606 1.435428 0.057460 -0.029658 748560.000000 0 0 1
27.585989 24.046914 4.453141 36.865585 0.716962 1.449707 0.065576 -0.021577 -1108180.000000 0 0 1
28.802589 24.089714 5.348641 37.927713 0.696530 1.429303 0.070951 -0.025916 -730657.000000 0 0 1
29.774369 23.051914 5.153941 38.006143 0.658823 1.434769 0.061973 -0.026538 593880.000000 0 0 1
30.504519 22.993914 3.939441 38.402669 0.645920 1.468033 0.068327 -0.031360 -560173.000000 0 0 1
31.429539 24.201014 3.573341 39.828053 0.656184 1.480956 0.081649 -0.039708 -756307.000000 0 0 1
30.780769 25.448114 3.381041 40.081089 0.690843 1.486341 0.080434 -0.033801 -350152.000000 0 0 1
31.561639 26.417914 2.732741 41.249377 0.696914 1.504498 0.109809 -0.032043 -787622.000000 0 0 1
30.969209 27.835014 2.870441 41.738703 0.732150 1.501970 0.098235 -0.022152 312701.000000 0 0 1
29.725849 28.132814 2.275241 40.990951 0.757872 1.515262 0.125969 -0.024262 427825.000000 0 0 1
28.587989 27.604914 2.937441 39.848877 0.767905 1.497015 0.112317 -0.019898 -836972.000000 0 0 1
27.207989 27.932514 2.411141 39.068064 0.798537 1.509041 0.067185 -0.006016 -451085.000000 0 0 1
26.842589 29.225614 2.878741 39.786282 0.827875 1.498378 0.065302 -0.007873 109847.000000 0 0 1
25.538389 29.620414 2.488041 39.188884 0.859268 1.507265 0.057888 0.000099 159952.000000 0 0 1
25.307689 31.152014 2.699041 40.227005 0.888544 1.503651 0.060080 -0.006157 -142745.000000 0 0 1
25.100489 31.595914 4.048141 40.555194 0.899466 1.470812 0.032164 -0.016183 599491.000000 0 0 1
26.238389 31.534614 4.953441 41.320958 0.876816 1.450630 0.051112 -0.023226 365383.000000 0 0 1
25.995789 31.377914 6.445641 41.254101 0.878933 1.413911 0.037651 -0.029921 -261892.000000 0 0 1
25.509689 30.085714 6.872741 40.039093 0.867522 1.398291 0.034607 -0.034314 564627.000000 0 0 1
26.337189 28.940114 6.490941 39.664973 0.832452 1.406413 0.075180 -0.042164 438950.000000 0 0 1
25.724189 27.614314 6.934541 38.371501 0.820820 1.389077 0.077194 -0.042812 88088.800000 0 0 1
24.469389 27.327414 6.351641 37.227435 0.840520 1.399340 0.042046 -0.047972 88412.500000 0 0 1
24.054789 25.983014 6.561541 36.011161 0.823914 1.387564 0.053931 -0.042060 -371737.000000 0 0 1
22.683689 25.681514 5.946741 34.777200 0.847302 1.398956 0.058734 -0.028772 -564800.000000 0 0 1
22.635489 25.486214 4.504641 34.383197 0.844569 1.439406 0.070745 -0.035966 140672.000000 0 0 1
23.055989 26.515114 3.636741 35.325002 0.855066 1.467663 0.060681 -0.036792 -402030.000000 0 0 1
23.462789 26.168814 2.175341 35.214222 0.839866 1.508982 0.056745 -0.022989 -1455040.000000 0 0 1
24.633789 25.500514 2.087641 35.517010 0.802685 1.511984 0.049521 -0.004244 -1229550.000000 0 0 1
24.761789 24.937414 0.790441 35.151751 0.788932 1.548308 0.057669 -0.004821 17487.400000 0 0 1
26.180889 24.486914 0.344741 35.849223 0.751978 1.561180 0.077203 -0.016216 -1212980.000000 0 0 1
26.982889 25.611514 0.021441 37.202505 0.759330 1.570220 0.082248 -0.014263 477207.000000 0 0 1
28.184289 25.303014 -0.676659 37.882114 0.731582 1.588659 0.083741 -0.007210 962812.000000 0 0 1
29.219459 24.293314 -0.042359 37.999259 0.693601 1.571911 0.078273 -0.016629 -777762.000000 0 0 1
28.812509 22.911214 -0.255759 36.812360 0.671797 1.577744 0.074299 -0.020185 441501.000000 0 0 1
29.305819 21.987714 0.711841 36.644199 0.643683 1.551369 0.068592 -0.019148 164984.000000 0 0 1
28.084989 21.336914 1.432141 35.299880 0.649697 1.530214 0.065958 -0.022988 456473.000000 0 0 1
27.356989 20.515714 0.510741 34.198834 0.643454 1.555861 0.073227 -0.033551 443851.000000 0 0 1
26.250889 19.953414 1.188541 32.994856 0.649937 1.534767 0.086379 -0.033056 -33876.000000 0 0 1
25.590189 18.699314 0.505541 31.698228 0.631049 1.554847 0.081755 -0.029083 -1017610.000000 0 0 1
24.370789 18.286614 0.973141 30.484137 0.643725 1.538868 0.094014 -0.035777 -599502.000000 0 0 1
23.940689 17.164414 0.142841 29.458345 0.622015 1.565947 0.106817 -0.041353 435860.000000 0 0 1
22.449289 16.770414 0.339541 28.023787 0.641601 1.558680 0.106885 -0.031829 -50235.300000 0 0 1
21.970589 15.721314 -0.510959 27.020873 0.621094 1.589707 0.118625 -0.032508 120828.000000 0 0 1
20.641389 15.381514 -0.228359 25.743156 0.640408 1.579667 0.139150 -0.038152 79836.400000 0 0 1
19.464189 16.181214 -0.857759 25.326312 0.693556 1.604671 0.148574 -0.047672 -100691.000000 0 0 1
19.306489 17.492714 -0.308759 26.054383 0.736150 1.582647 0.104868 -0.034568 -210163.000000 0 0 1
18.350489 18.160614 -1.061159 25.839396 0.780198 1.611875 0.095662 -0.038404 -304549.000000 0 0 1
18.176089 19.607914 -0.615859 26.743593 0.823275 1.593827 0.080416 -0.029327 -356177.000000 0 0 1
17.592789 19.702414 0.634841 26.421476 0.841904 1.546767 0.080661 -0.028283 -66644.800000 0 0 1
17.730289 20.994014 1.271041 27.508677 0.869481 1.524575 0.084022 -0.035245 70477.500000 0 0 1
16.701889 22.080514 0.880741 27.699782 0.923206 1.538995 0.073877 -0.040665 165847.000000 0 0 1
15.360189 21.908614 1.299141 26.788254 0.959331 1.522281 0.062517 -0.036635 619614.000000 0 0 1
14.544689 23.009914 0.822341 27.233809 1.007104 1.540596 0.047547 -0.030600 991733.000000 0 0 1
13.089189 23.089114 1.387541 26.577422 1.055072 1.518565 0.038525 -0.030986 532005.000000 0 0 1
12.926889 23.268914 2.793141 26.764687 1.063707 1.466247 0.038862 -0.014958 658086.000000 0 0 1
11.521989 23.160414 3.086741 26.051660 1.109162 1.452032 0.027911 -0.021684 959985.000000 0 0 1
11.271689 23.481114 4.532741 26.437841 1.123250 1.398496 0.043516 -0.019878 -89438.800000 0 0 1
11.740889 22.522414 5.465241 25.980310 1.090256 1.358852 0.046791 -0.032847 -150679.000000 0 0 1
11.153689 22.695114 6.703041 26.161112 1.114006 1.311685 0.035992 -0.011007 -1028820.000000 0 0 1
11.612289 21.746214 7.802541 25.857741 1.080327 1.264270 0.041367 -0.008205 902132.000000 0 0 1
12.925389 21.923314 8.350941 26.784989 1.038079 1.253734 0.057051 -0.006864 782969.000000 0 0 1
14.032989 21.696514 7.520841 26.911458 0.996684 1.287558 0.063923 -0.009240 247452.000000 0 0 1
15.420989 21.537914 8.257641 27.746663 0.949417 1.268610 0.080841 -0.018837 596490.000000 0 0 1
15.501889 20.348114 8.985841 27.112721 0.919764 1.232982 0.082386 -0.016282 676262.000000 0 0 1
16.806589 20.148414 9.542041 27.919000 0.875582 1.221990 0.081244 -0.020538 492459.000000 0 0 1
17.174189 20.999914 10.767441 29.187103 0.885282 1.192959 0.066248 -0.014996 -679824.000000 0 0 1
16.495989 20.702014 11.938841 29.038371 0.897991 1.147092 0.076658 -0.019178 -341678.000000 0 0 1
16.698789 21.554414 13.019841 30.215205 0.911657 1.125302 0.079748 -0.012182 375693.000000 0 0 1
17.748789 20.887914 14.035641 30.794865 0.866467 1.097550 0.073334 -0.005149 966635.000000 0 0 1
19.063689 21.063514 13.522941 31.463722 0.835194 1.126531 0.065411 -0.003082 -324645.000000 0 0 1
19.999589 20.567214 14.441541 32.117783 0.799390 1.104431 0.052853 -0.007479 981764.000000 0 0 1
21.442189 21.194114 14.216641 33.332729 0.779580 1.130169 0.049930 -0.004212 940104.000000 0 0 1
22.071789 20.712714 13.045741 32.960154 0.753643 1.163854 0.057919 -0.011902 491145.000000 0 0 1
23.417589 21.202414 12.963941 34.146590 0.735794 1.181372 0.064205 -0.014491 755142.000000 0 0 1
24.186389 20.639714 11.727041 33.889566 0.706442 1.217453 0.068379 -0.014179 124754.000000 0 0 1
23.661589 21.077614 10.477241 33.375278 0.727706 1.251475 0.078156 -0.015649 357419.000000 0 0 1
24.555889 20.682114 9.433641 33.462443 0.699976 1.285004 0.080919 -0.025135 -89446.600000 0 0 1
24.382689 21.487114 8.100841 33.493809 0.722356 1.326513 0.079401 -0.032169 35721.800000 0 0 1
24.803389 22.837114 8.302341 34.722770 0.744148 1.329354 0.065470 -0.022965 673675.000000 0 0 1
26.213489 23.048514 8.202441 35.856116 0.721239 1.339993 0.070214 -0.031702 221753.000000 0 0 1
26.739289 24.310114 8.925241 37.224067 0.737849 1.328667 0.099455 -0.033594 -584224.000000 0 0 1
28.046889 24.689814 8.623441 38.348124 0.721827 1.343984 0.093346 -0.031556 -237554.000000 0 0 1
28.454189 25.739914 9.504741 39.528776 0.735356 1.327966 0.099878 -0.027791 944409.000000 0 0 1
29.805679 26.420414 9.037141 40.842217 0.725263 1.347680 0.092464 -0.032841 991239.000000 0 0 1
29.702369 27.321714 7.997741 41.142079 0.743674 1.375157 0.103498 -0.038129 31172.700000 0 0 1
31.027549 27.655614 7.664141 42.264416 0.728001 1.388450 0.106970 -0.038131 -38676.600000 0 0 1
31.116829 28.558814 6.379541 42.714886 0.742559 1.420884 0.119550 -0.030278 218458.000000 0 0 1
30.702429 29.924714 6.586441 43.376363 0.772571 1.418363 0.123398 -0.032796 133528.000000 0 0 1
30.556839 30.624514 5.381341 43.595184 0.786504 1.447042 0.142846 -0.027715 163048.000000 0 0 1
30.634199 32.145514 5.602941 44.756912 0.809467 1.445281 0.094221 -0.027817 -202718.000000 0 0 1
29.492569 32.534014 6.295741 44.361132 0.834393 1.428395 0.085967 -0.035289 -297651.000000 0 0 1
29.479559 33.917914 6.375441 45.388496 0.855293 1.429866 0.062449 -0.021641 -102391.000000 0 0 1
28.148789 -33.568982 6.848941 44.341165 -0.872996 1.415715 0.063273 -0.032432 922718.000000 0 0 1
27.108689 -33.650882 5.823741 43.602510 -0.892658 1.436832 0.049106 -0.022990 1300350.000000 0 0 1
25.889889 -32.977982 6.208341 42.383690 -0.905228 1.423788 0.038401 -0.030327 1127470.000000 0 0 1
24.819689 -32.966282 5.074141 41.575710 -0.925454 1.448445 0.032392 -0.022499 -168591.000000 0 0 1
25.198889 -32.159282 4.054141 41.056540 -0.906157 1.471890 0.018068 -0.008275 90658.400000 0 0 1
24.257889 -32.171382 2.957141 40.400343 -0.924727 1.497535 0.031203 -0.011673 260190.000000 0 0 1
24.830089 -31.525282 1.655341 40.163626 -0.903647 1.529570 0.037981 -0.000705 -246537.000000 0 0 1
24.867889 -30.092882 1.729841 39.076666 -0.880181 1.526514 0.045962 -0.001806 -43916.300000 0 0 1
25.560589 -29.451682 0.677141 39.002613 -0.856012 1.553434 0.041214 0.002455 -284042.000000 0 0 1
25.772489 -27.963182 1.034341 38.042484 -0.826144 1.543604 0.039478 -0.009161 606730.000000 0 0 1
24.569589 -27.186082 1.147741 36.661493 -0.835910 1.539485 0.041955 -0.010203 593446.000000 0 0 1
23.918789 -26.877782 -0.096059 35.979617 -0.843584 1.573466 0.058615 -0.016744 666697.000000 0 0 1
22.644289 -25.949782 -0.070459 34.440673 -0.853316 1.572842 0.059503 -0.009638 784430.000000 0 0 1
22.901089 -24.535782 0.238641 33.563692 -0.819845 1.563686 0.065048 -0.020011 -45405.500000 0 0 1
23.182889 -24.239182 1.604941 33.579162 -0.807669 1.522982 0.047629 -0.009407 293824.000000 0 0 1
21.863489 -23.898782 2.342941 32.475426 -0.829844 1.498589 0.051447 -0.015893 196358.000000 0 0 1
22.019789 -23.546382 3.679941 32.447576 -0.818888 1.457140 0.050673 -0.017014 -465796.000000 0 0 1
20.806989 -23.120882 4.237341 31.392054 -0.838024 1.435402 0.054816 -0.015910 -427537.000000 0 0 1
20.798189 -22.186682 5.486441 30.901692 -0.817689 1.392305 0.048997 -0.017040 -470832.000000 0 0 1
21.230689 -20.847982 5.240941 30.213374 -0.776303 1.396450 0.078450 -0.021107 449366.000000 0 0 1
20.239789 -20.026182 4.614141 28.844190 -0.780093 1.410138 0.061690 -0.011968 -359790.000000 0 0 1
20.228589 -18.524282 5.079241 27.895224 -0.741448 1.387692 0.067765 -0.006948 128077.000000 0 0 1
19.742189 -18.204782 6.412341 27.609532 -0.744906 1.336405 0.085961 -0.024267 299870.000000 0 0 1
18.370089 -18.530982 6.568041 26.907185 -0.789758 1.324205 0.057301 -0.017473 45988.600000 0 0 1
19.186895 -26.481336 -12.248659 34.920305 -0.943787 1.929179 0.107385 -0.023668 96796.300000 0 0 1
19.410495 -25.133676 -12.611359 34.168923 -0.913181 1.948824 0.106071 -0.019975 -1036650.000000 0 0 1
18.279295 -24.544786 -13.118959 33.296940 -0.930675 1.975775 0.107999 -0.019591 -681580.000000 0 0 1
18.398995 -22.988786 -13.295759 32.307653 -0.895844 1.994935 0.104329 -0.027776 16346.300000 0 0 1
18.344895 -22.156286 -12.207259 31.248253 -0.879228 1.972138 0.114775 -0.031028 -12374.200000 0 0 1
19.608195 -21.902886 -11.609859 31.607064 -0.840621 1.946921 0.099982 -0.029059 -79767.800000 0 0 1
19.614795 -22.492786 -10.175659 31.531089 -0.853641 1.899396 0.103717 -0.023223 831042.000000 0 0 1
18.719395 -21.981686 -9.142859 30.285345 -0.865380 1.877471 0.099991 -0.021437 1132890.000000 0 0 1
17.312195 -22.189986 -9.285059 29.636462 -0.908258 1.889461 0.103833 -0.003696 510621.000000 0 0 1
16.445695 -21.726386 -8.124959 28.434339 -0.922865 1.860580 0.090932 -0.011231 -655599.000000 0 0 1
16.326895 -20.296486 -8.191359 27.305918 -0.893366 1.875473 0.078564 -0.018786 -12037.900000 0 0 1
15.491995 -19.731686 -7.217659 26.104327 -0.905187 1.850939 0.077774 -0.024798 193181.000000 0 0 1
13.989095 -19.687086 -7.587259 25.314869 -0.953010 1.875191 0.077216 -0.015296 -114965.000000 0 0 1
13.415295 -20.951086 -7.754659 26.058642 -1.001260 1.872958 0.066918 -0.012851 -276694.000000 0 0 1
12.015595 -20.791586 -7.914159 25.284352 -1.046780 1.889153 0.067244 -0.018526 307952.000000 0 0 1
11.156995 -22.071586 -7.807459 25.934337 -1.102765 1.876587 0.064019 -0.013456 20074.200000 0 0 1
11.282095 -22.576286 -6.470959 26.054705 -1.107363 1.821784 0.065527 -0.015781 400664.000000 0 0 1
10.519095 -23.775686 -6.407159 26.776599 -1.154255 1.812423 0.051963 -0.010427 408853.000000 0 0 1
11.056395 -24.523986 -5.135059 27.386832 -1.147244 1.759414 0.059482 -0.011138 1137700.000000 0 0 1
10.057895 -25.273986 -4.380459 27.552205 -1.192055 1.730461 0.054328 -0.010776 675929.000000 0 0 1
10.762295 -25.929016 -3.365859 28.274898 -1.177368 1.690120 0.052238 -0.010760 364475.000000 0 0 1
9.810695 -26.845666 -2.554759 28.696102 -1.220426 1.659942 0.058426 -0.008746 652676.000000 0 0 1
8.996995 -26.062196 -1.650359 27.620783 -1.238393 1.630583 0.048422 0.001730 -41215.000000 0 0 1
8.419495 -26.970396 -0.740259 28.263724 -1.268207 1.596990 0.046082 -0.000859 186097.000000 0 0 1
7.620995 -26.294056 0.421841 27.379461 -1.288689 1.555388 0.053694 -0.001419 898984.000000 0 0 1
6.348595 -25.720286 0.073841 26.492323 -1.328801 1.568009 0.054501 -0.006765 258669.000000 0 0 1
5.786095 -25.214936 1.284641 25.902165 -1.345230 1.521180 0.056266 -0.004917 553024.000000 0 0 1
4.308595 -24.785186 1.011041 25.177204 -1.398679 1.530629 0.047742 -0.009231 464274.000000 0 0 1
3.438695 -25.854936 0.801541 26.094919 -1.438573 1.540075 0.048403 -0.013280 1348100.000000 0 0 1
2.039595 -25.396546 0.852241 25.492563 -1.490658 1.537359 0.047042 -0.012887 2673810.000000 0 0 1
0.920095 -26.411396 0.375741 26.430088 -1.535973 1.556579 0.061264 -0.015024 776854.000000 0 0 1
0.588795 -27.510516 1.188541 27.542472 -1.549397 1.527630 0.065072 -0.012612 177738.000000 0 0 1
1.581895 -28.524116 1.047041 28.587127 -1.515395 1.534162 0.044780 -0.020595 -130006.000000 0 0 1
1.089595 -29.750126 1.797941 29.824315 -1.534188 1.510475 0.073053 -0.025634 62375.700000 0 0 1
1.014295 -29.339846 3.115141 29.522185 -1.536240 1.465081 0.059171 -0.025691 67846.700000 0 0 1
0.347695 -30.324936 3.902841 30.577030 -1.559331 1.442808 0.077391 -0.030012 127877.000000 0 0 1
0.644095 -30.179106 5.433541 30.671104 -1.549457 1.392701 0.066262 -0.031018 113698.000000 0 0 1
2.005695 -30.450596 5.768941 31.057081 -1.505024 1.383958 0.039560 -0.013933 296126.000000 0 0 1
2.148095 -30.349076 7.149741 31.253792 -1.500135 1.339989 0.046817 -0.013789 -656423.000000 0 0 1
3.449495 -30.707576 7.839341 31.879609 -1.458932 1.322344 0.054144 -0.014655 -482410.000000 0 0 1
3.712595 -32.019696 7.423241 33.077920 -1.455365 1.344452 0.052391 -0.020252 -336509.000000 0 0 1
4.976895 -32.550266 7.758641 33.830250 -1.419073 1.339396 0.036847 -0.016955 19251.400000 0 0 1
5.216495 -34.012576 7.521541 35.222730 -1.418613 1.355597 0.041218 -0.014861 -157618.000000 0 0 1
5.301995 33.731397 6.140841 34.693346 1.414889 1.392855 0.032152 -0.018797 -6739.870000 0 0 1
5.047395 32.353195 6.004141 33.290466 1.416035 1.389448 0.033197 -0.021922 -576196.000000 0 0 1
5.260195 31.911321 4.450941 32.646791 1.407428 1.434034 0.041155 -0.026147 610141.000000 0 0 1
6.616295 31.914411 3.997341 32.837231 1.366378 1.448762 0.034580 -0.022020 614881.000000 0 0 1
7.347995 30.772781 4.518141 31.958891 1.336403 1.428948 0.029745 -0.023868 -1348750.000000 0 0 1
8.708395 30.617351 3.935941 32.074132 1.293687 1.447772 0.016207 -0.016607 -1268990.000000 0 0 1
9.694595 31.472881 4.489841 33.236818 1.271989 1.435296 0.019914 -0.017394 -308694.000000 0 0 1
10.889095 31.292601 3.775941 33.347519 1.235925 1.457323 0.027424 -0.017175 -36599.100000 0 0 1
12.222295 31.736801 4.423841 34.295472 1.203188 1.441444 0.055699 -0.024775 90570.600000 0 0 1
12.685395 30.738591 5.291341 33.671628 1.179402 1.412997 0.058198 -0.019463 -246841.000000 0 0 1
13.693295 31.306011 6.101041 34.710162 1.158469 1.394107 0.081499 -0.019810 230222.000000 0 0 1
14.510695 30.346911 7.017241 34.361853 1.124772 1.365134 0.074256 -0.018840 282792.000000 0 0 1
13.755995 29.900171 8.154141 33.907782 1.139605 1.327936 0.064131 -0.016392 350114.000000 0 0 1
14.517095 28.979791 8.873641 33.605295 1.106398 1.303572 0.066732 -0.022241 134339.000000 0 0 1
14.041895 28.922331 10.352441 33.776458 1.118813 1.259284 0.053652 -0.010016 87898.500000 0 0 1
14.673695 29.870981 11.188941 35.111042 1.114185 1.246467 0.061943 -0.011102 223633.000000 0 0 1
14.346095 29.647711 12.525441 35.237535 1.120123 1.207393 0.053867 -0.006503 -717494.000000 0 0 1
15.107295 30.572901 13.390541 36.636583 1.111848 1.196630 0.055570 -0.009023 23824.100000 0 0 1
16.466795 30.194751 13.590141 36.980674 1.071528 1.194484 0.057920 -0.012409 507018.000000 0 0 1
17.015695 31.152931 14.501341 38.344855 1.070876 1.182964 0.059846 -0.005443 -11669.700000 0 0 1
18.314595 30.716781 15.199441 38.858307 1.033146 1.168915 0.066398 -0.009739 -909101.000000 0 0 1
19.455895 30.528531 14.489041 38.993017 1.003399 1.190086 0.049186 -0.009761 -686793.000000 0 0 1
20.031895 29.218851 14.689941 38.351173 0.969813 1.177714 0.042838 -0.010995 220352.000000 0 0 1
21.404495 29.067361 13.967841 38.706130 0.936072 1.201597 0.070682 -0.014348 -266082.000000 0 0 1
22.450895 29.138251 14.893141 39.684834 0.914307 1.186092 0.076157 -0.017348 -6804.920000 0 0 1
23.687395 28.954541 14.192541 40.011078 0.885122 1.208187 0.065212 -0.010701 17781.700000 0 0 1
24.909795 28.874291 15.104641 41.016738 0.858976 1.193664 0.076489 -0.011362 -449036.000000 0 0 1
24.884895 27.814291 16.065841 40.632549 0.840928 1.164300 0.071327 -0.004847 -735035.000000 0 0 1
25.804995 28.044581 17.048441 41.749798 0.826964 1.150153 0.064332 -0.007997 -791662.000000 0 0 1
26.581295 26.768051 17.442841 41.561358 0.788899 1.137694 0.035018 0.002449 -233381.000000 0 0 1
25.910995 25.795091 18.203041 40.842589 0.783157 1.108854 0.043880 0.000433 -148221.000000 0 0 1
25.788795 25.996251 19.612441 41.539317 0.789404 1.079078 0.063718 0.002224 -137020.000000 0 0 1
25.291695 24.732061 20.346041 40.808162 0.774211 1.048839 0.074572 -0.000434 -493790.000000 0 0 1
26.111995 23.605691 20.284641 40.626735 0.735030 1.048014 0.057399 -0.001399 -420832.000000 0 0 1
25.420295 22.393811 20.421941 39.556666 0.722186 1.028306 0.061245 -0.014957 -599595.000000 0 0 1
26.264895 21.147011 20.223441 39.319567 0.677869 1.030564 0.040430 -0.022106 -802467.000000 0 0 1
25.584395 19.937311 20.295741 38.261923 0.661976 1.011674 0.034155 -0.013122 -441879.000000 0 0 1
26.322495 18.755611 20.094541 38.058340 0.619087 1.014561 0.034122 -0.024281 23325.900000 0 0 1
27.218595 18.319011 21.294641 39.113934 0.592397 0.995092 0.074299 -0.017842 88501.700000 0 0 1
26.438495 17.903711 22.364641 38.983510 0.595248 0.959786 0.049348 -0.008753 90109.200000 0 0 1
27.247195 17.707611 23.493541 40.098823 0.576296 0.944817 0.082526 -0.002847 23593.200000 0 0 1
26.436895 16.928111 24.533941 39.841996 0.569541 0.907420 0.051337 0.011784 169786.000000 0 0 1
26.061595 15.666811 24.002441 38.739810 0.541261 0.902588 0.060015 -0.003124 -76523.900000 0 0 1
24.999995 15.119411 24.724941 38.274261 0.543924 0.868472 0.056207 0.002189 -186927.000000 0 0 1
24.500895 13.752011 24.130641 37.036462 0.511467 0.861187 0.064583 0.009595 -36993.100000 0 0 1
23.307995 13.299911 24.728941 36.492065 0.518533 0.826231 0.044284 0.009378 -46665.900000 0 0 1
22.754295 12.277511 23.980841 35.264372 0.494799 0.822992 0.055813 0.006066 -196812.000000 0 0 1
21.526495 11.582311 24.615441 34.690919 0.493622 0.781916 0.056481 -0.003977 336273.000000 0 0 1
20.353295 12.380211 24.597441 34.242669 0.546475 0.769401 0.061331 -0.008038 -80343.900000 0 0 1
19.200495 11.609011 24.845641 33.477366 0.543810 0.734505 0.064247 -0.011854 115582.000000 0 0 1
17.902795 12.442211 24.824341 33.038865 0.607354 0.720664 0.056963 -0.022334 -99054.100000 0 0 1
17.721795 13.154411 26.062841 34.152192 0.638538 0.702641 0.074918 -0.015856 -118088.000000 0 0 1
16.453995 13.752211 26.054841 33.744807 0.696191 0.688635 0.090276 -0.024783 -406315.000000 0 0 1
16.233195 14.196911 27.501041 34.948193 0.718581 0.665013 0.071285 -0.011031 -264578.000000 0 0 1
15.604395 13.144311 28.193041 34.801115 0.700034 0.626441 0.079716 -0.010252 -101966.000000 0 0 1
15.785995 13.110911 29.604641 36.021222 0.693088 0.606116 0.063478 -0.013066 -93500.300000 0 0 1
17.211895 12.760611 30.093341 36.941734 0.637964 0.618729 0.065437 0.004673 -223006.000000 0 0 1
18.091495 13.836411 30.077841 37.728305 0.652907 0.648117 0.080553 -0.009749 -90568.200000 0 0 1
19.450495 13.427511 30.019441 38.207155 0.604215 0.666966 0.073264 0.002633 12775.700000 0 0 1
20.313395 14.653311 29.641141 38.806582 0.624919 0.701589 0.079312 -0.000537 -431035.000000 0 0 1
20.249295 15.255711 28.369341 38.047210 0.645670 0.729309 0.078046 -0.009310 237475.000000 0 0 1
20.757595 14.459211 27.264741 37.192911 0.608423 0.747982 0.069012 -0.003664 75048.900000 0 0 1
20.387995 15.130611 25.954041 36.307272 0.638447 0.774395 0.069491 -0.008418 -435562.000000 0 0 1
21.225995 16.208711 25.795041 37.130167 0.652165 0.802767 0.065303 -0.004155 -93172.500000 0 0 1
21.012795 16.768111 24.480341 36.359238 0.673517 0.832146 0.048842 -0.009059 -172086.000000 0 0 1
22.150295 17.755511 24.205241 37.306668 0.675711 0.864766 0.051028 -0.016115 -210144.000000 0 0 1
22.057195 18.266311 22.869041 36.649298 0.691662 0.896949 0.050202 -0.024160 -33918.000000 0 0 1
23.149095 19.051111 22.430041 37.442385 0.688594 0.928476 0.051319 -0.023224 -132265.000000 0 0 1
23.220795 20.487411 22.981641 38.562873 0.722942 0.932345 0.064974 -0.031098 567885.000000 0 0 1
22.189195 21.357311 22.469141 38.122925 0.766297 0.940497 0.064754 -0.024532 576473.000000 0 0 1
22.476395 22.601511 22.998341 39.305729 0.788174 0.945775 0.074635 -0.023516 23296.300000 0 0 1
21.600695 23.730001 22.463341 39.170201 0.832336 0.960048 0.068217 -0.030225 39863.900000 0 0 1
22.166595 24.331121 21.299041 39.204726 0.831916 0.996460 0.076125 -0.024154 590898.000000 0 0 1
21.319495 25.448481 20.920241 39.240318 0.873456 1.008499 0.075373 -0.023599 268213.000000 0 0 1
21.795195 26.287971 19.742341 39.444239 0.878565 1.046605 0.075264 -0.018735 -235853.000000 0 0 1
21.618695 25.712531 18.493841 38.347417 0.871677 1.067551 0.062776 -0.013197 -314542.000000 0 0 1
22.194095 26.521021 17.559241 38.784912 0.873987 1.100967 0.069178 -0.020549 -305413.000000 0 0 1
22.288495 25.838791 16.179641 37.765076 0.859034 1.128043 0.057606 -0.009806 661769.000000 0 0 1
20.953095 25.508051 15.719041 36.562017 0.883124 1.126383 0.039798 -0.010501 905041.000000 0 0 1
20.935795 25.088961 14.391341 35.705380 0.875392 1.155940 0.046873 -0.003496 506199.000000 0 0 1
19.534995 24.490981 13.948041 34.292449 0.897496 1.151916 0.059022 -0.007401 1680330.000000 0 0 1
18.466595 25.353871 13.542941 34.164970 0.941293 1.163206 0.058821 -0.009343 137136.000000 0 0 1
17.932495 26.109461 14.613141 34.882979 0.968971 1.138542 0.059858 -0.013220 -1654480.000000 0 0 1
16.546695 26.649391 14.193741 34.430299 1.015148 1.145879 0.053323 -0.009638 309461.000000 0 0 1
15.631095 25.592981 13.778841 33.002853 1.022505 1.140099 0.057260 -0.017569 587116.000000 0 0 1
15.207895 24.625891 14.746741 32.483549 1.017567 1.099574 0.074971 -0.030174 -583731.000000 0 0 1
14.346695 25.031451 15.972741 32.977715 1.050356 1.065177 0.088770 -0.033224 -206487.000000 0 0 1
15.003295 25.902611 16.855541 34.353361 1.045797 1.057959 0.071218 -0.032226 236135.000000 0 0 1
14.075495 26.218771 17.873941 34.713417 1.078107 1.029905 0.068278 -0.026173 48829.100000 0 0 1
14.427095 27.538401 18.633841 36.245340 1.088220 1.030835 0.078342 -0.031888 -311464.000000 0 0 1
14.312395 28.631261 17.816341 36.633534 1.107239 1.062901 0.068424 -0.019265 170209.000000 0 0 1
14.782295 29.742321 18.530741 38.033016 1.109542 1.061884 0.059482 -0.010514 -195361.000000 0 0 1
14.659695 31.049901 17.746841 38.651693 1.129689 1.093761 0.045883 -0.007355 811365.000000 0 0 1
13.348795 31.644231 17.828041 38.696082 1.171605 1.091991 0.050310 -0.009873 803405.000000 0 0 1
13.339195 32.907767 17.178841 39.445758 1.185686 1.120197 0.048960 -0.000012 954594.000000 0 0 1
11.912595 33.607659 17.173241 39.576570 1.230153 1.121952 0.057591 -0.005840 968425.000000 0 0 1
12.010795 -33.213086 16.728741 39.079650 -1.223800 1.128443 0.054485 -0.002729 165835.000000 0 0 1
12.636295 -32.080636 17.387841 38.615802 -1.195567 1.103720 0.053401 -0.003166 65562.600000 0 0 1
12.434195 -32.007526 18.960641 39.224951 -1.200263 1.066282 0.059593 -0.016693 -891959.000000 0 0 1
13.260895 -32.850866 19.649541 40.510927 -1.187131 1.064384 0.074601 -0.011968 -237097.000000 0 0 1
12.945495 -32.809876 21.026341 41.063132 -1.194988 1.033228 0.074761 -0.019732 796550.000000 0 0 1
14.192495 -33.262056 21.904341 42.279917 -1.167497 1.026193 0.084891 -0.020173 586844.000000 0 0 1
15.250395 -32.350526 21.879541 41.926667 -1.130280 1.021775 0.087126 -0.012942 -664748.000000 0 0 1
16.323495 -32.855936 22.624041 43.102392 -1.109696 1.018210 0.081409 -0.015237 -134175.000000 0 0 1
17.661695 -32.149596 22.313241 42.934982 -1.068445 1.024298 0.085953 -0.012133 96381.600000 0 0 1
17.641595 -30.833066 22.832941 42.228509 -1.051095 0.999528 0.082349 -0.018558 -506964.000000 0 0 1
18.792195 -30.130526 22.539341 42.059685 -1.013138 1.005235 0.076029 -0.017195 -792436.000000 0 0 1
-5.136905 13.079614 18.877071 23.533124 -1.196563 0.639911 0.038993 0.000303 24027.300000 0 1 0
-4.646105 14.363014 18.565871 23.928519 -1.257943 0.682674 0.042896 -0.002114 -90423.500000 0 1 0
-5.615105 14.964814 17.748471 23.884792 -1.211832 0.733125 0.032568 -0.009213 -57305.600000 0 1 0
-5.372005 16.438914 17.382171 24.520119 -1.254950 0.782867 0.040225 -0.014361 -149156.000000 0 1 0
-5.282105 17.195014 18.530471 25.825327 -1.272758 0.770545 0.053434 -0.008700 56672.300000 0 0 1
-4.915905 18.505814 18.207971 26.422746 -1.311152 0.810547 0.051052 -0.011629 -510292.000000 0 0 1
-4.467605 19.188414 19.495871 27.717210 -1.342043 0.790648 0.057302 -0.013272 -937959.000000 0 0 1
-5.299605 19.439214 20.536471 28.770045 -1.304640 0.775867 0.041152 -0.010683 -831555.000000 0 0 1
-4.625405 20.190414 21.552771 29.892627 -1.345593 0.765543 0.034825 -0.000288 -13744.600000 0 0 1
-5.512105 20.565914 22.736071 31.149142 -1.308930 0.752606 0.016834 0.003395 -77985.900000 0 0 1
-6.028205 19.389114 23.338241 30.934617 -1.269364 0.715999 0.016590 -0.003993 -202199.000000 0 0 1
-6.704605 19.604214 24.594891 32.158756 -1.241268 0.700072 0.001417 -0.001413 251921.000000 0 0 1
-5.912205 20.134914 25.828941 33.279170 -1.285194 0.682292 -0.005128 -0.003786 -495872.000000 0 0 1
-5.602405 21.480114 25.736231 33.987289 -1.315662 0.711733 0.002576 -0.003217 -12000.200000 0 0 1
-4.674205 22.014314 26.692191 34.913483 -1.361578 0.700494 0.017776 -0.003726 1896030.000000 0 0 1
-3.158705 21.705414 26.272811 34.225181 -1.426285 0.695637 0.034153 0.001943 940482.000000 0 0 1
-2.708705 20.417114 26.666161 33.693913 -1.438898 0.657662 0.047696 0.008695 548151.000000 0 0 1
-1.434605 20.062114 26.117501 32.964684 -1.499410 0.656248 0.054344 0.009633 652129.000000 0 0 1
-0.741405 18.814014 26.700481 32.671586 -1.531410 0.614193 0.056062 0.017777 -215828.000000 0 0 1
-1.214905 17.593714 26.173291 31.560354 -1.501852 0.592926 0.064433 0.004768 -44537.700000 0 0 1
-0.656405 16.413814 26.772461 31.410330 -1.530827 0.550342 0.061226 0.001992 108662.000000 0 0 1
0.837195 16.106214 26.522961 31.041561 1.518863 0.546336 0.068298 0.001959 -105566.000000 0 0 1
1.168895 15.925314 25.155441 29.795606 1.497529 0.565601 0.065808 0.001308 -179024.000000 0 0 1
0.842395 14.628414 24.636281 28.664376 1.513274 0.536557 0.073946 -0.001693 -179082.000000 0 0 1
1.141695 14.489814 23.121801 27.310728 1.492166 0.561195 0.079986 -0.024248 256726.000000 0 0 1
2.529195 14.595014 22.862971 27.242003 1.399209 0.574886 0.066408 -0.026968 -110589.000000 0 0 1
2.870295 13.856914 21.707371 25.912596 1.366547 0.577711 0.060624 -0.026832 -452396.000000 0 0 1
4.335095 13.895014 21.303971 25.801621 1.268377 0.599384 0.055914 -0.021273 -546111.000000 0 0 1
4.657495 14.875314 20.342271 25.627626 1.267363 0.653825 0.040092 -0.018196 -438448.000000 0 0 1
6.040495 14.814414 20.121871 25.706889 1.183632 0.671736 0.050482 -0.014441 -305220.000000 0 0 1
6.612795 15.861814 19.145171 25.726713 1.175806 0.731498 0.053934 -0.017839 -57446.200000 0 0 1
6.389995 15.459514 17.784171 24.415269 1.178845 0.754807 0.052865 -0.024910 132803.000000 0 1 0
6.773895 16.494014 16.873571 24.549044 1.181110 0.812974 0.055910 -0.012508 -51937.400000 0 1 0
6.863095 15.922714 15.416871 23.201612 1.163833 0.844006 0.046664 -0.010139 290758.000000 0 1 0
7.966495 15.098014 15.049671 22.757585 1.085273 0.848241 0.046104 -0.009134 273814.000000 0 1 0
8.008095 13.849914 15.695371 22.411925 1.046556 0.794960 0.044275 -0.011075 -236147.000000 0 1 0
9.167495 13.075114 15.047271 21.941329 0.959305 0.815100 0.052387 -0.011884 -673229.000000 0 1 0
10.416795 13.657114 15.152371 22.904601 0.919193 0.847922 0.037924 -0.013934 -1070990.000000 0 1 0
11.227795 13.124414 14.147271 22.326193 0.863124 0.884518 0.046389 -0.012075 -437786.000000 0 1 0
12.673095 13.647014 14.161471 23.396487 0.822384 0.920676 0.052151 -0.001951 -1075190.000000 0 1 0
13.308995 13.228714 15.366971 24.254320 0.782373 0.884629 0.044916 -0.010870 1075540.000000 0 1 0
14.659995 13.758614 15.351471 25.295900 0.753691 0.918672 0.051175 -0.011849 1042420.000000 0 0 1
15.742195 13.096414 14.480671 25.080323 0.693910 0.955290 0.060983 -0.022314 -1131450.000000 0 0 1
17.011095 13.689614 14.604971 26.269527 0.677628 0.981271 0.063321 -0.028844 43142.500000 0 0 1
17.888695 13.010714 13.713071 26.025611 0.628824 1.015839 0.060340 -0.031692 -943279.000000 0 0 1
19.312995 13.495214 13.865471 27.337956 0.609896 1.038878 0.066595 -0.041184 -849341.000000 0 0 1
19.934395 13.278514 15.127171 28.328966 0.587618 1.007493 0.038549 -0.034504 -46859.100000 0 0 1
21.267595 13.718814 15.011671 29.425613 0.572893 1.035429 0.053531 -0.039457 -417761.000000 0 0 1
22.093995 13.413314 16.241671 30.526275 0.545625 1.009770 0.067060 -0.031498 -304459.000000 0 0 1
22.579595 12.044314 16.312871 30.348202 0.490022 1.003299 0.075678 -0.023389 112689.000000 0 0 1
23.465895 11.833914 17.349971 31.491447 0.467084 0.987303 0.062896 -0.025519 -592577.000000 0 0 1
23.675395 10.304514 17.482971 31.182713 0.410513 0.975611 0.078214 -0.015227 -776602.000000 0 0 1
22.605195 9.638114 18.047171 30.489153 0.403028 0.937356 0.065632 -0.010443 -185945.000000 0 0 1
22.475095 8.356714 17.499771 29.685123 0.355981 0.940340 0.065746 -0.000586 231050.000000 0 0 1
21.285795 7.507914 18.095871 28.929473 0.339095 0.895003 0.083542 -0.002182 435352.000000 0 0 1
21.262495 6.133414 17.756171 28.372417 0.280838 0.894607 0.094207 -0.011285 302946.000000 0 0 1
20.027495 5.685314 18.265071 27.695418 0.276599 0.850646 0.091237 -0.003573 -273173.000000 0 0 1
19.649095 4.262214 17.767471 26.831631 0.213607 0.847067 0.088205 0.000546 -500257.000000 0 0 1
19.139795 4.325514 16.452471 25.607140 0.222262 0.873046 0.092852 -0.016574 214532.000000 0 0 1
19.052595 3.057114 15.803071 24.941619 0.159100 0.884596 0.085747 -0.013319 -325713.000000 0 1 0
18.160995 1.903014 16.298671 24.476312 0.104405 0.842103 0.095503 -0.011645 -572893.000000 0 1 0
18.515695 1.138914 17.483871 25.491446 0.061433 0.814995 0.102139 -0.019916 -113475.000000 0 0 1
17.457495 0.565214 18.233871 25.249904 0.032365 0.763911 0.088299 -0.014927 -269100.000000 0 0 1
17.949995 -0.187486 19.489971 26.497102 -0.010444 0.744317 0.098311 -0.011580 104425.000000 0 0 1
18.463795 -1.521486 19.262371 26.725747 -0.082218 0.765924 0.097051 -0.009130 59961.300000 0 0 1
17.639895 -2.531486 19.793471 26.633734 -0.142536 0.732996 0.065257 -0.002998 -181058.000000 0 0 1
17.832195 -3.937786 19.121971 26.441314 -0.217337 0.762393 0.053748 -0.003502 -233742.000000 0 0 1
17.454195 -3.799586 17.781971 25.204846 -0.214345 0.787671 0.052260 -0.009255 275880.000000 0 0 1
17.236895 -5.012986 17.115171 24.802614 -0.283022 0.809231 0.062477 -0.018192 -258886.000000 0 1 0
16.789495 -4.839886 15.650571 23.457451 -0.280660 0.840367 0.044380 -0.018158 -137896.000000 0 1 0
15.437995 -4.444386 15.523571 22.339774 -0.280306 0.802537 0.023923 -0.020053 12989.600000 0 1 0
15.009795 -4.456786 14.177771 21.122643 -0.288633 0.834954 0.019328 -0.022356 105570.000000 0 1 0
15.485995 -3.279286 13.270871 20.656373 -0.208675 0.873094 0.022776 -0.015470 -226617.000000 0 1 0
15.004695 -2.054686 13.766771 20.466719 -0.136090 0.833023 0.026767 -0.004753 250330.000000 0 1 0
15.481095 -1.009386 12.978771 20.227003 -0.065109 0.874141 0.038135 -0.012398 12411.500000 0 1 0
14.603095 0.229514 13.283371 19.742112 0.015716 0.832749 0.039170 -0.004417 -297821.000000 0 1 0
14.895995 1.500814 12.685171 19.622861 0.100414 0.867876 0.042586 -0.006444 279227.000000 0 1 0
16.066395 2.168314 13.176771 20.891575 0.134149 0.888313 0.070128 -0.020590 270843.000000 0 1 0
16.276195 3.626714 12.647471 20.929073 0.219242 0.921907 0.073742 -0.021228 -130883.000000 0 1 0
15.273495 4.485614 13.128671 20.634010 0.285654 0.881151 0.072760 -0.011841 354986.000000 0 1 0
15.322695 5.656914 12.300671 20.447302 0.353663 0.925320 0.072431 -0.020928 371641.000000 0 1 0
14.213695 6.682214 12.725971 20.214634 0.439463 0.889832 0.064467 -0.013397 281280.000000 0 1 0
14.132495 7.773514 11.847171 20.012756 0.502878 0.937282 0.039052 -0.028989 -284856.000000 0 1 0
13.189595 8.705814 12.257671 20.000178 0.583409 0.911099 0.029165 -0.018005 -855905.000000 0 1 0
13.447195 9.597814 13.523671 21.350287 0.619889 0.884833 0.040323 -0.017505 -224595.000000 0 1 0
13.232695 8.988914 14.796871 21.791103 0.596695 0.824352 0.062034 -0.016109 535893.000000 0 1 0
13.572395 9.919414 15.853971 23.107425 0.631133 0.814684 0.069368 -0.019495 -49626.300000 0 1 0
13.281795 9.371014 17.265971 23.713619 0.614443 0.755245 0.079049 -0.016514 311134.000000 0 1 0
11.951795 9.652214 17.695171 23.433517 0.679355 0.714956 0.057847 -0.013292 375838.000000 0 1 0
11.510595 8.922014 18.838071 23.811112 0.659381 0.658116 0.077878 -0.006111 -89475.300000 0 1 0
12.003195 9.308114 20.236271 25.302655 0.659603 0.643887 0.101718 -0.012650 489769.000000 0 0 1
13.410695 9.036814 20.327071 25.974999 0.592960 0.672024 0.118096 -0.019477 606632.000000 0 0 1
13.929995 9.290314 21.620071 27.345606 0.588184 0.658970 0.107803 -0.010090 1306220.000000 0 0 1
15.496695 9.023414 21.512871 28.006663 0.527288 0.694875 0.094398 -0.015190 1481650.000000 0 0 1
16.248795 10.030514 20.826671 28.255703 0.553049 0.742059 0.094721 -0.011759 89302.300000 0 0 1
17.181395 9.402214 19.980071 27.978656 0.500716 0.775433 0.077604 -0.020770 94023.400000 0 0 1
18.107595 10.322014 19.146671 28.302367 0.518097 0.827791 0.075909 -0.015958 287627.000000 0 0 1
18.944095 11.176014 19.905971 29.665295 0.532995 0.835214 0.071729 -0.019997 384566.000000 0 0 1
20.037495 11.694514 19.157971 30.088049 0.528297 0.880546 0.075332 -0.021098 341796.000000 0 0 1
20.832295 12.710014 20.069171 31.595895 0.547821 0.882551 0.065724 -0.018776 -8351.660000 0 0 1
20.160995 13.944414 20.312071 31.835399 0.605102 0.878854 0.055023 -0.020553 761424.000000 0 0 1
20.933195 14.758114 21.237271 33.271944 0.614081 0.878517 0.049078 -0.017219 814816.000000 0 0 1
22.282295 15.427514 20.829571 34.181572 0.605584 0.915518 0.030586 -0.009308 522476.000000 0 0 1
23.356295 14.513114 20.770871 34.461226 0.555991 0.923876 0.013739 0.001423 650258.000000 0 0 1
24.608995 15.212814 20.609171 35.521406 0.553681 0.951834 0.022869 -0.009620 947876.000000 0 0 1
25.920595 14.415114 20.752471 36.198588 0.507534 0.960275 0.029425 -0.012506 36581.000000 0 0 1
26.091395 13.420114 19.787271 35.389214 0.475062 0.977457 0.040500 -0.019986 -952340.000000 0 0 1
27.292795 12.778714 19.908771 36.118573 0.437892 0.986987 0.061725 -0.021782 -1031740.000000 0 0 1
27.673595 11.870414 18.712571 35.452713 0.405206 1.014767 0.080621 -0.021224 -135832.000000 0 0 1
28.044495 12.620414 17.566371 35.416746 0.422866 1.051821 0.095141 -0.034210 182093.000000 0 0 1
28.274295 11.800614 16.410771 34.756347 0.395383 1.079050 0.117467 -0.037359 -566292.000000 0 0 1
27.076395 11.372014 15.575471 33.242280 0.397626 1.083154 0.100435 -0.036669 -582459.000000 0 0 1
26.704095 12.399014 14.632771 32.877990 0.434691 1.109552 0.109419 -0.041739 96699.400000 0 0 1
25.617095 11.955714 13.844471 31.477675 0.436661 1.115400 0.098347 -0.036800 183005.000000 0 0 1
25.056295 13.030414 12.865171 31.034211 0.479555 1.143350 0.079942 -0.040376 32615.800000 0 0 1
24.562995 14.183914 13.528271 31.425121 0.523674 1.125758 0.075092 -0.040122 305590.000000 0 0 1
24.266495 15.225614 12.598171 31.295303 0.560347 1.156487 0.059640 -0.038732 -84473.000000 0 0 1
23.443095 16.425914 13.151971 31.501805 0.611177 1.140105 0.062800 -0.035165 -89245.000000 0 0 1
22.091695 16.056414 13.373371 30.408855 0.628492 1.115437 0.072411 -0.033827 -356759.000000 0 0 1
21.242095 17.105914 13.545471 30.451908 0.677954 1.109828 0.061849 -0.025624 -1100160.000000 0 0 1
20.630595 17.720414 12.202671 29.808383 0.709661 1.149032 0.067145 -0.018385 -32826.100000 0 0 1
19.496695 17.036414 11.687571 28.407038 0.718156 1.146771 0.074017 -0.016821 640427.000000 0 0 1
18.298595 17.252714 12.426471 28.051950 0.755988 1.111876 0.069588 -0.011501 886904.000000 0 0 1
16.988295 16.564814 11.797371 26.498551 0.772778 1.109390 0.072599 -0.012788 1092850.000000 0 0 1
17.010695 15.134414 11.538871 25.525669 0.727095 1.101734 0.074591 -0.022289 949763.000000 0 0 1
15.752995 14.765714 10.939571 24.204491 0.753059 1.101830 0.077582 -0.028527 873798.000000 0 1 0
15.779195 13.359614 10.258171 23.080129 0.702552 1.110226 0.079180 -0.034365 8776.150000 0 1 0
16.108895 12.246614 11.097071 23.078584 0.650022 1.069186 0.088492 -0.025449 337222.000000 0 1 0
16.465695 11.150514 10.317371 22.403152 0.595257 1.092202 0.078024 -0.022877 -273629.000000 0 1 0
17.030195 10.027314 11.202271 22.717074 0.532141 1.055122 0.088438 -0.031026 -571934.000000 0 1 0
17.761595 9.035214 10.457971 22.505077 0.470578 1.087507 0.095097 -0.023366 840364.000000 0 1 0
18.350995 8.092814 11.414171 23.076740 0.415346 1.053401 0.109961 -0.013261 1083000.000000 0 1 0
19.579095 8.521214 12.318171 24.651357 0.410495 1.047549 0.093047 -0.027415 -321769.000000 0 1 0
19.172495 9.418714 13.292971 25.159487 0.456633 1.014142 0.080419 -0.034531 80465.600000 0 0 1
20.095595 9.572314 14.357571 26.487770 0.444540 0.997927 0.080342 -0.021362 -986564.000000 0 0 1
19.422895 9.834714 15.742671 26.866376 0.468712 0.944730 0.064627 -0.022431 2742.930000 0 0 1
18.794895 8.674514 16.283671 26.337297 0.432405 0.904251 0.069941 -0.017726 1257830.000000 0 0 1
17.616095 8.200814 15.582271 24.907575 0.435693 0.894891 0.078849 -0.026383 208611.000000 0 1 0
17.048095 6.796514 16.060371 24.387818 0.379357 0.851918 0.080254 -0.018930 10865.700000 0 1 0
16.423995 6.848414 17.351171 24.853803 0.395055 0.798015 0.107349 -0.012721 214413.000000 0 1 0
15.842295 5.650614 17.805771 24.493943 0.342613 0.756932 0.107569 0.002369 -80645.400000 0 1 0
14.307895 5.713514 17.576871 23.373200 0.379925 0.719691 0.087721 -0.007255 18170.700000 0 1 0
13.666795 4.450314 17.739571 22.831534 0.314801 0.680947 0.072177 0.000154 338124.000000 0 1 0
13.572995 3.683414 16.506871 21.685721 0.264996 0.705656 0.086951 -0.004511 -128385.000000 0 1 0
13.135595 2.204814 16.733571 21.387320 0.166300 0.672276 0.055789 -0.008147 287041.000000 0 1 0
14.154495 1.407214 17.333571 22.422815 0.099093 0.687188 0.054159 0.003355 412862.000000 0 1 0
14.014395 0.039514 16.913271 21.965053 0.002820 0.691942 0.050815 0.000877 325940.000000 0 1 0
12.914495 -0.783386 17.683371 21.911172 -0.060585 0.631660 0.037153 -0.004974 257584.000000 0 1 0
11.577195 -0.547186 17.378071 20.888470 -0.047229 0.588191 0.027929 -0.010181 -719337.000000 0 1 0
10.726095 -1.392786 18.107671 21.092101 -0.129128 0.538449 0.028848 -0.013295 -27994.000000 0 1 0
-26.516435 14.412514 28.614861 41.589087 -0.497863 0.812015 0.067110 -0.021183 -374211.000000 0 0 1
-25.429085 14.272014 29.491921 41.474115 -0.511438 0.779746 0.068860 -0.019882 86791.900000 0 0 1
-24.942505 12.943414 29.502701 40.743955 -0.478677 0.761068 0.064195 -0.014227 499407.000000 0 0 1
-23.667205 12.708414 30.390181 40.561108 -0.492779 0.723876 0.049813 -0.016215 429076.000000 0 0 1
-23.936505 12.954014 31.809491 41.864143 -0.496048 0.707750 0.056094 -0.025773 -222406.000000 0 0 1
-22.809105 12.901514 32.629837 41.849858 -0.514764 0.676629 0.041634 -0.015259 -965939.000000 0 0 1
-23.136505 13.067314 -33.922439 43.090421 -0.514129 2.477114 0.052134 -0.012299 163242.000000 0 0 1
-23.846205 11.993714 -33.282549 42.664022 -0.466014 2.465635 0.035777 -0.011115 341969.000000 0 0 1
-24.372705 12.345814 -31.995109 42.072971 -0.468868 2.434828 0.025426 -0.011160 257221.000000 0 0 1
-25.182505 11.289114 -31.165419 41.627947 -0.421433 2.416844 0.016486 -0.017513 215923.000000 0 0 1
-24.494005 10.207114 -30.527929 40.448682 -0.394836 2.426042 0.023670 -0.020628 46363.400000 0 0 1
-23.931905 9.242314 -31.375069 40.528402 -0.368547 2.456168 0.020646 -0.013396 -58010.400000 0 0 1
-23.254805 8.049814 -30.633309 39.293575 -0.333247 2.464825 0.031821 -0.003866 -547961.000000 0 0 1
-24.043005 7.375414 -29.679389 38.901529 -0.297646 2.438639 0.039344 -0.005882 -18956.400000 0 0 1
-23.314905 6.532914 -28.797479 37.623909 -0.273197 2.442465 0.035964 0.000656 -26733.800000 0 0 1
-24.191505 5.765314 -27.728729 37.247150 -0.233956 2.410511 0.044615 -0.008933 214051.000000 0 0 1
-24.946805 4.707114 -28.309939 38.025684 -0.186493 2.410575 0.063447 -0.021411 355277.000000 0 0 1
-25.432035 3.845614 -27.289189 37.500360 -0.150075 2.385766 0.103320 -0.017327 -417938.000000 0 0 1
-26.162175 2.589714 -27.875849 38.317476 -0.098666 2.385463 0.122449 -0.016306 548755.000000 0 0 1
-27.532835 2.728414 -28.215069 39.516976 -0.098774 2.365989 0.126430 -0.024896 376287.000000 0 0 1
-27.726315 3.466614 -29.391739 40.554165 -0.124384 2.381472 0.129216 -0.018246 279863.000000 0 0 1
-29.133875 3.294314 -30.086509 42.009918 -0.112597 2.369104 0.143921 -0.026868 974712.000000 0 0 1
-30.265895 3.675314 -29.304669 42.288248 -0.120843 2.336403 0.137835 -0.025249 498577.000000 0 0 1
-31.482995 3.858214 -29.992569 43.653396 -0.121941 2.328233 0.124565 -0.024513 233682.000000 0 0 1
-31.649115 5.190014 -30.771249 44.446288 -0.162539 2.335502 0.102622 -0.033897 -1004820.000000 0 0 1
-30.723775 5.349814 -31.827549 44.559665 -0.172398 2.366374 0.121599 -0.033345 213300.000000 0 0 1
-30.711355 6.661614 -32.461209 45.180687 -0.213602 2.372404 0.099531 -0.024869 -632426.000000 0 0 1
-30.366565 7.905014 -31.639679 44.561046 -0.254667 2.360337 0.078071 -0.027525 -633190.000000 0 0 1
-29.036185 7.979014 -31.192249 43.355750 -0.268176 2.373805 0.054097 -0.035019 -59976.200000 0 0 1
-28.741585 7.264714 -30.023939 42.193503 -0.247574 2.362537 0.044515 -0.028998 -900465.000000 0 0 1
-28.892335 8.175014 -28.799339 41.605286 -0.275740 2.335335 0.032643 -0.025458 -91788.800000 0 0 1
-30.196175 8.471414 -28.345019 42.273088 -0.273515 2.305708 0.051285 -0.029838 153540.000000 0 0 1
-30.817695 7.395314 -27.625799 42.042904 -0.235516 2.287743 0.063353 -0.015293 713161.000000 0 0 1
-32.227995 7.789414 -27.014639 42.768088 -0.237149 2.254481 0.042921 -0.015925 663145.000000 0 0 1
-32.145315 8.568614 -25.878689 42.147941 -0.260502 2.231910 0.018690 -0.009585 -116006.000000 0 0 1
-31.675855 7.953114 -24.725359 40.962851 -0.245993 2.218811 0.029591 -0.007458 -247536.000000 0 0 1
-31.097925 8.994914 -23.710959 40.127285 -0.281561 2.202962 0.023586 -0.003407 -818987.000000 0 0 1
-32.010525 9.894214 -23.137959 40.717740 -0.299778 2.175177 0.032955 -0.006693 -108711.000000 0 0 1
-31.347285 10.839614 -22.320659 39.979511 -0.332920 2.163135 0.033821 -0.005463 -148972.000000 0 0 1
-32.300535 11.830314 -21.608859 40.622945 -0.351084 2.131683 0.025969 -0.005833 -69724.900000 0 0 1
-33.064935 11.171814 -20.606059 40.530347 -0.325832 2.104134 0.022260 -0.008228 155342.000000 0 0 1
-33.530215 11.993914 -19.514559 40.607232 -0.343522 2.072099 0.014518 -0.008656 34656.300000 0 0 1
-32.500055 12.539814 -18.483759 39.435389 -0.368240 2.058626 0.010501 -0.000336 -136815.000000 0 0 1
-32.012305 11.627714 -17.486259 38.285254 -0.348409 2.045119 0.034552 0.005291 283462.000000 0 0 1
-32.902795 11.196414 -16.449459 38.451766 -0.327996 2.012848 0.031612 0.022016 41779.900000 0 0 1
-33.089805 12.233514 -15.257759 38.436874 -0.354122 1.978995 0.027043 0.014547 55942.800000 0 0 1
-33.696725 13.431914 -15.803059 39.567945 -0.379309 1.981648 0.005512 0.008356 481937.000000 0 0 1
-34.453200 14.161014 -14.833159 40.094637 -0.389972 1.949755 -0.003220 0.003095 130555.000000 0 0 1
-35.104122 15.367114 -15.503159 41.337580 -0.412627 1.955234 -0.010889 0.008935 -98782.700000 0 0 1
-36.004647 15.194614 -16.561159 42.443880 -0.399342 1.971634 -0.014827 0.000484 227425.000000 0 0 1
-36.647815 16.421514 -16.947759 43.588474 -0.421264 1.970139 -0.018423 -0.004156 64413.800000 0 0 1
36.725769 16.283814 -18.426259 44.198096 0.417343 2.000830 -0.014929 -0.003593 516794.000000 0 0 1
35.608619 15.404914 -18.468959 42.969612 0.408305 2.015084 0.028968 -0.011345 -3723.060000 0 0 1
34.356699 15.992814 -18.659259 42.241221 0.435663 2.028324 0.079048 -0.023312 -305677.000000 0 0 1
33.222369 14.943914 -18.791659 40.989911 0.422700 2.047042 0.100775 -0.028746 -119596.000000 0 0 1
33.272979 14.229214 -20.001059 41.347358 0.404114 2.075711 0.108995 -0.024710 -179425.000000 0 0 1
32.202149 13.373214 -20.187759 40.291027 0.393617 2.095606 0.067504 -0.019774 -490489.000000 0 0 1
32.479999 11.982714 -19.602459 39.784320 0.353435 2.086007 0.077009 -0.008112 22698.000000 0 0 1
32.448559 11.868714 -18.170459 39.037686 0.350654 2.054950 0.095986 -0.021481 26408.000000 0 0 1
32.973689 10.611114 -17.786159 38.938507 0.311340 2.045163 0.093193 -0.024153 -118522.000000 0 0 1
33.031349 10.424514 -16.256559 38.262464 0.305702 2.009614 0.079901 -0.016949 -378904.000000 0 0 1
31.789989 10.318114 -15.597059 36.882721 0.313844 2.007420 0.087825 -0.019061 168733.000000 0 0 1
32.071859 10.171014 -14.239759 36.535248 0.307099 1.971161 0.061892 -0.012528 47811.800000 0 0 1
31.295119 11.271614 -13.488459 35.893903 0.345708 1.956042 0.087035 -0.021871 296542.000000 0 0 1
29.880919 11.091514 -13.500059 34.614196 0.355427 1.971444 0.076147 -0.028469 364185.000000 0 0 1
29.271259 12.210914 -12.905759 34.241373 0.395215 1.957249 0.096904 -0.031177 727203.000000 0 0 1
27.701389 12.196514 -12.969359 32.929108 0.414746 1.975620 0.105736 -0.028403 451257.000000 0 0 1
27.118489 11.076314 -12.298059 31.770102 0.387762 1.968276 0.101329 -0.035365 76398.700000 0 0 1
25.730789 10.964814 -12.528459 30.647397 0.402832 1.991928 0.092724 -0.027708 117223.000000 0 0 1
25.242489 10.378314 -13.931359 30.642705 0.390077 2.042763 0.080871 -0.038022 -1005590.000000 0 0 1
25.575789 8.986414 -14.158759 30.583444 0.337890 2.052122 0.084733 -0.036759 239422.000000 0 0 1
26.920689 8.893114 -14.586859 31.883968 0.319059 2.045976 0.093969 -0.040942 -63745.100000 0 0 1
27.731689 7.843314 -13.776159 31.942866 0.275630 2.016702 0.088210 -0.032620 -165699.000000 0 0 1
27.230789 6.518914 -13.925659 31.271969 0.234973 2.032315 0.102058 -0.039747 268853.000000 0 0 1
26.487289 6.148314 -12.786559 30.047867 0.228084 2.010354 0.111316 -0.038794 -228828.000000 0 0 1
26.076689 4.685814 -12.969259 29.498343 0.177796 2.026017 0.114410 -0.031514 -31959.200000 0 0 1
25.312389 4.161714 -11.885059 28.271744 0.162956 2.004668 0.129410 -0.030473 627134.000000 0 0 1
24.960389 2.799614 -12.051859 27.858682 0.111695 2.018179 0.110925 -0.029371 -413760.000000 0 0 1
24.261889 2.204314 -10.824259 26.658260 0.090606 1.988910 0.106999 -0.023389 -27056.500000 0 0 1
25.069689 1.994714 -9.648259 26.936167 0.079400 1.937125 0.121351 -0.018728 688967.000000 0 0 1
24.266389 1.663814 -8.539659 25.778900 0.068457 1.908441 0.133011 -0.011050 -364751.000000 0 0 1
25.083689 1.343014 -7.247959 26.144369 0.053490 1.851704 0.163452 -0.009997 -183828.000000 0 0 1
25.242089 -0.012286 -6.864859 26.158927 -0.000487 1.836335 0.135840 -0.012575 428421.000000 0 0 1
25.874589 -0.867786 -7.786359 27.034696 -0.033526 1.862948 0.118795 -0.009162 -610048.000000 0 0 1
26.024689 -2.343186 -7.212659 27.107146 -0.089795 1.840120 0.125330 -0.021807 -636416.000000 0 0 1
27.018389 -2.453686 -6.258959 27.842206 -0.090567 1.797535 0.139761 -0.030241 -10516.700000 0 0 1
26.951989 -3.773186 -5.690459 27.803380 -0.139093 1.776921 0.154608 -0.042799 1428110.000000 0 0 1
28.293389 -4.031886 -4.810159 28.981193 -0.141550 1.737543 0.155686 -0.048093 2141730.000000 0 0 1
29.442969 -4.258386 -5.639359 30.279112 -0.143636 1.758136 0.156791 -0.038226 1238440.000000 0 0 1
30.573129 -4.763786 -4.908459 31.328945 -0.154573 1.728119 0.188556 -0.049340 1505230.000000 0 0 1
31.850229 -5.191386 -5.768559 32.782065 -0.161573 1.747684 0.187024 -0.049419 858722.000000 0 0 1
31.658829 -6.150186 -6.735259 32.946471 -0.191875 1.776678 0.155172 -0.042017 45093.100000 0 0 1
32.336039 -5.849786 -7.927159 33.803539 -0.178970 1.807507 0.158809 -0.052600 -962842.000000 0 0 1
32.012579 -6.956686 -8.966859 33.964764 -0.213984 1.837968 0.128416 -0.045933 -179773.000000 0 0 1
30.743899 -6.974786 -9.556059 32.941663 -0.223091 1.865118 0.116962 -0.034702 539444.000000 0 0 1
29.679619 -7.379386 -8.651059 31.783265 -0.243693 1.846464 0.105501 -0.021333 747119.000000 0 0 1
28.454289 -6.368386 -8.643859 30.412484 -0.220183 1.858990 0.092952 -0.022543 318889.000000 0 0 1
27.575589 -6.484386 -9.735759 29.954054 -0.230954 1.901832 0.065861 -0.010973 287781.000000 0 0 1
26.487189 -5.596186 -9.586059 28.719000 -0.208217 1.911116 0.085500 -0.006438 -178608.000000 0 0 1
25.086989 -6.197986 -9.547759 27.548715 -0.242209 1.924716 0.108084 -0.006159 -824220.000000 0 0 1
24.816589 -6.935186 -8.311359 27.074685 -0.272506 1.882813 0.092059 -0.011139 1074000.000000 0 0 1
23.479689 -7.369786 -8.034859 25.887612 -0.304141 1.886383 0.079949 -0.015826 158361.000000 0 0 1
22.607889 -6.245386 -7.404059 24.595560 -0.269526 1.876571 0.091759 -0.013579 -452515.000000 0 1 0
22.105889 -5.310286 -8.365159 24.224891 -0.235753 1.923368 0.091330 -0.012445 558565.000000 0 1 0
21.748789 -4.060686 -7.812659 23.463516 -0.184583 1.910248 0.083728 -0.011857 -84942.600000 0 1 0
21.620489 -3.032186 -8.924059 23.585557 -0.139337 1.958831 0.083173 -0.003773 -353517.000000 0 1 0
22.878589 -2.856886 -9.505559 24.938870 -0.124229 1.961841 0.087974 -0.000983 305731.000000 0 1 0
22.787489 -2.120886 -10.695059 25.261672 -0.092805 2.007959 0.089642 -0.002364 -86788.500000 0 0 1
24.081389 -2.085086 -11.554159 26.791033 -0.086370 2.016696 0.085018 -0.001506 231499.000000 0 0 1
25.078689 -1.228286 -11.005659 27.414847 -0.048938 1.983895 0.079839 -0.007771 1167290.000000 0 0 1
26.348989 -1.461786 -11.619859 28.834478 -0.055421 1.985572 0.084522 -0.005672 508889.000000 0 0 1
27.446989 -0.407286 -11.283059 29.678451 -0.014838 1.960784 0.087765 -0.001908 -1013210.000000 0 0 1
28.682989 -0.784286 -11.770959 31.014261 -0.027336 1.960089 0.085505 -0.010795 -875947.000000 0 0 1
29.727389 0.103714 -11.541559 31.889433 0.003489 1.941128 0.095617 -0.015442 -343674.000000 0 0 1
29.686689 1.483014 -12.262859 32.153950 0.049914 1.962084 0.102627 -0.020364 -826833.000000 0 0 1
30.060559 1.341414 -13.593159 33.018336 0.044594 1.995099 0.093043 -0.020850 332943.000000 0 0 1
30.167129 2.553214 -14.330659 33.495408 0.084434 2.012897 0.101680 -0.023146 -98406.000000 0 0 1
30.411099 2.302914 -15.821759 34.357916 0.075582 2.049353 0.097250 -0.022636 -291801.000000 0 0 1
29.241199 1.858914 -16.452959 33.603617 0.063486 2.082449 0.094619 -0.014166 -474117.000000 0 0 1
29.449939 1.637514 -17.841359 34.471647 0.055546 2.114800 0.059740 -0.014553 -607871.000000 0 0 1
28.332089 0.888014 -18.553559 33.878169 0.031333 2.150356 0.036418 -0.009401 -577504.000000 0 0 1
28.243889 -0.515586 -18.458059 33.744377 -0.018253 2.149569 0.056949 -0.007835 141178.000000 0 0 1
27.832889 -1.036486 -19.664159 34.094327 -0.037222 2.185550 0.032659 -0.003718 -297883.000000 0 0 1
27.608389 -2.538586 -19.645459 33.979576 -0.091692 2.187262 0.050064 -0.013783 6402.200000 0 0 1
26.430089 -2.829486 -18.905059 32.618351 -0.106649 2.189014 0.056006 -0.015428 481275.000000 0 0 1
26.065889 -4.219686 -18.901359 32.473030 -0.160493 2.192060 0.059677 -0.018647 268505.000000 0 0 1
26.991189 -5.173686 -18.057759 32.884250 -0.189383 2.152120 0.053660 -0.013209 33187.800000 0 0 1
28.306089 -5.297686 -18.524559 34.241194 -0.185017 2.142425 0.069418 -0.020100 89473.400000 0 0 1
29.196919 -5.529186 -17.428259 34.449617 -0.187159 2.101228 0.065731 -0.011588 233704.000000 0 0 1
30.701159 -5.295786 -17.653159 35.808386 -0.170814 2.086319 0.095706 -0.022164 -63418.200000 0 0 1
31.323069 -6.253686 -18.442059 36.882960 -0.197060 2.094413 0.080355 -0.028559 -401965.000000 0 0 1
32.658609 -5.959186 -18.733659 38.118848 -0.180483 2.084555 0.096063 -0.021909 -656168.000000 0 0 1
33.431559 -7.083486 -19.384959 39.288949 -0.208792 2.086785 0.095701 -0.019218 -340522.000000 0 0 1
34.001679 -7.947186 -18.421059 39.479201 -0.229607 2.056241 0.092693 -0.020500 125008.000000 0 0 1
34.992839 -8.760586 -19.016059 40.778145 -0.245311 2.055933 0.074957 -0.015230 -297866.000000 0 0 1
35.745599 -9.588086 -17.958359 41.136138 -0.262063 2.022567 0.062403 -0.012069 -930003.000000 0 0 1
34.920509 -10.375786 -17.145059 40.262289 -0.288818 2.010680 0.056955 -0.015325 173600.000000 0 0 1
35.581229 -11.229386 -16.191659 40.672998 -0.305705 1.980234 0.068372 -0.020496 -651866.000000 0 0 1
36.563279 -10.687186 -15.155559 40.997320 -0.284371 1.949452 0.079821 -0.023181 -309704.000000 0 0 1
-36.807635 -11.676686 -14.255559 41.162701 0.307193 1.924444 0.067943 -0.020625 635272.000000 0 0 1
-36.151365 -12.876086 -14.742259 41.110205 0.342162 1.937568 0.062767 -0.019075 -81915.100000 0 0 1
-34.683272 -12.571286 -15.154659 39.882706 0.347731 1.960572 0.065994 -0.022788 -186913.000000 0 0 1
-34.484410 -11.868786 -16.375259 39.977390 0.331479 1.992826 0.081770 -0.026777 384628.000000 0 0 1
-33.107055 -11.803686 -16.744659 38.933118 0.342481 2.015386 0.077768 -0.022494 470487.000000 0 0 1
-32.747125 -10.810886 -17.872759 38.841794 0.318867 2.048952 0.103485 -0.017702 128032.000000 0 0 1
-32.955405 -9.433586 -17.481159 38.479114 0.278798 2.042385 0.110123 -0.019192 -260101.000000 0 0 1
-34.126736 -8.947986 -18.055659 39.632151 0.256426 2.043821 0.114660 -0.023228 -501643.000000 0 0 1
-34.706605 -7.657186 -17.465759 39.600930 0.217147 2.027558 0.116074 -0.023914 -571021.000000 0 0 1
-35.985638 -7.425686 -17.958359 40.897550 0.203495 2.025400 0.116111 -0.021119 -752108.000000 0 0 1
-36.473495 -6.165486 -17.540159 40.938811 0.167457 2.013571 0.116167 -0.023201 -141711.000000 0 0 1
25.103595 27.672914 -27.617809 46.462071 0.834043 2.207336 0.040782 0.012306 247354.000000 0 0 1
25.630195 27.103114 -26.423019 45.712817 0.813322 2.187099 0.041188 0.010748 752241.000000 0 0 1
26.797795 26.286214 -26.700839 46.065406 0.775761 2.189069 0.040236 0.003972 764470.000000 0 0 1
27.209895 25.325414 -25.558599 45.110940 0.749543 2.173136 0.043949 0.002319 -250421.000000 0 0 1
27.768895 25.878714 -24.407459 45.128078 0.750179 2.142242 0.049020 0.006641 206072.000000 0 0 1
27.818895 24.873714 -23.442659 44.069840 0.729563 2.131690 0.058679 0.001007 -85201.100000 0 0 1
28.496095 25.286914 -22.122259 44.055077 0.725800 2.096880 0.060185 0.000288 312622.000000 0 0 1
27.669195 26.053014 -21.250259 43.542133 0.755323 2.080638 0.043737 -0.000879 320124.000000 0 0 1
28.441395 26.584314 -20.191559 43.855875 0.751662 2.049250 0.033966 -0.005348 23462.700000 0 0 1
27.695695 27.698314 -19.481759 43.746852 0.785445 2.032338 0.043086 -0.009298 -389138.000000 0 0 1
26.734095 27.233614 -18.568259 42.440097 0.794654 2.023632 0.048530 -0.011105 -382325.000000 0 0 1
25.906995 28.325014 -18.248259 42.502679 0.829955 2.014562 0.046491 -0.014925 -348914.000000 0 0 1
24.809695 28.046814 -17.223859 41.216575 0.846565 2.001914 0.051291 -0.016132 -173761.000000 0 0 1
23.804495 27.224214 -17.763559 40.290890 0.852314 2.027378 0.062117 -0.018789 141499.000000 0 0 1
22.698095 26.978914 -16.896859 39.096920 0.871359 2.017704 0.049242 -0.011864 448757.000000 0 0 1
21.675695 25.985414 -17.516259 38.103764 0.875577 2.048452 0.046991 -0.021840 -431005.000000 0 0 1
21.097995 26.548414 -18.658859 38.705254 0.899296 2.073819 0.042053 -0.016859 -442686.000000 0 0 1
20.321995 25.534014 -19.266659 37.896880 0.898573 2.104119 0.042343 -0.016922 153307.000000 0 0 1
19.586495 25.907414 -20.579859 38.449389 0.923454 2.135595 0.038205 -0.007623 397808.000000 0 0 1
18.551295 26.834214 -20.383659 38.467118 0.965913 2.129277 0.027413 -0.003707 158434.000000 0 0 1
17.496995 26.773914 -21.370459 38.466659 0.991958 2.159830 0.017329 -0.003989 -67356.400000 0 0 1
16.278795 27.557014 -20.990059 38.274936 1.037220 2.151249 0.023271 -0.003023 -804868.000000 0 0 1
15.574395 27.142514 -19.817959 37.040914 1.049864 2.135338 0.039317 -0.006056 499923.000000 0 0 1
14.590595 28.133514 -19.465459 37.192528 1.092364 2.121598 0.042909 -0.009746 581712.000000 0 0 1
14.152295 28.191714 -17.955059 36.296616 1.105548 2.088258 0.056603 -0.009369 74519.300000 0 0 1
13.462495 27.012314 -17.549159 34.912417 1.108443 2.097472 0.053128 -0.002550 -238019.000000 0 0 1
13.020995 27.141714 -16.221859 34.196018 1.123487 2.065054 0.081871 0.001011 -99356.300000 0 0 1
11.946295 26.071614 -15.929759 32.805491 1.141135 2.077825 0.096346 -0.007268 134693.000000 0 0 1
12.553895 24.781314 -15.826259 31.971617 1.101893 2.088642 0.072161 -0.008439 -60583.700000 0 0 1
11.619395 23.724014 -15.899459 30.832320 1.115363 2.112592 0.100474 -0.014973 330633.000000 0 0 1
12.317795 22.345814 -16.141059 30.192669 1.067005 2.134833 0.076587 -0.013633 -56289.600000 0 0 1
12.949195 22.245014 -17.372459 31.053577 1.043630 2.164500 0.071954 -0.008965 -206762.000000 0 0 1
13.986295 21.273814 -17.406359 30.841092 0.989207 2.170489 0.072040 -0.009606 74085.300000 0 0 1
13.542095 19.808114 -17.576359 29.743539 0.971118 2.203008 0.082393 -0.012627 162179.000000 0 0 1
12.679695 19.370514 -16.521359 28.441990 0.991203 2.190605 0.083675 -0.017309 329898.000000 0 0 1
12.172595 18.025214 -16.640259 27.385738 0.976834 2.223863 0.077952 -0.017417 625372.000000 0 0 1
13.290295 16.921614 -16.604859 27.178931 0.905019 2.228051 0.073773 -0.021036 299354.000000 0 0 1
13.900495 16.640514 -15.362259 26.573097 0.874875 2.187211 0.078032 -0.032424 -621082.000000 0 0 1
15.054195 15.929614 -15.676459 26.946850 0.813645 2.191681 0.080608 -0.033147 -1176390.000000 0 0 1
15.620395 15.078214 -14.532159 26.125331 0.767739 2.160660 0.114581 -0.028366 -813735.000000 0 0 1
16.299895 15.718514 -13.481759 26.353673 0.767242 2.107808 0.088241 -0.027677 1126110.000000 0 0 1
17.530195 16.442714 -13.681459 27.655974 0.753399 2.088288 0.066933 -0.029688 284808.000000 0 0 1
18.684295 15.771914 -14.458859 28.406245 0.701074 2.104822 0.065161 -0.032986 -851901.000000 0 0 1
19.232195 14.653414 -13.721159 27.800541 0.651087 2.086972 0.086041 -0.029702 732338.000000 0 0 1
20.353795 14.943614 -12.890259 28.350438 0.633308 2.042805 0.086148 -0.028495 -226235.000000 0 0 1
21.014895 13.699214 -12.291159 27.935047 0.577697 2.026385 0.097888 -0.036675 -535558.000000 0 0 1
20.264995 12.944814 -11.361959 26.595720 0.568445 2.012201 0.154169 -0.038182 51078.300000 0 0 1
20.918095 11.842714 -10.770559 26.340492 0.515155 1.992042 0.162719 -0.013249 -325465.000000 0 0 1
20.894495 10.571814 -11.626559 26.144216 0.468406 2.031645 0.123844 -0.020158 -300029.000000 0 0 1
21.842495 10.729014 -12.688859 27.444735 0.456582 2.051431 0.107983 -0.013338 664509.000000 0 0 1
21.873895 9.625214 -13.580259 27.487005 0.414534 2.087551 0.099089 -0.021682 -474806.000000 0 0 1
22.419595 8.229714 -13.063859 27.221881 0.351806 2.071340 0.106837 -0.003608 -162678.000000 0 0 1
21.525195 7.551214 -12.187659 25.862983 0.337395 2.061492 0.102547 -0.016079 578732.000000 0 0 1
22.195095 6.510914 -11.497959 25.830549 0.285344 2.032116 0.115696 -0.000051 -797853.000000 0 0 1
21.860695 5.126614 -12.026759 25.471849 0.230350 2.062535 0.102543 -0.005707 -313581.000000 0 0 1
20.528495 4.758214 -11.806559 24.154803 0.227764 2.081495 0.054458 -0.016262 390971.000000 0 1 0
19.500495 5.309214 -12.643559 23.839392 0.265818 2.129826 0.008185 -0.030911 68121.600000 0 1 0
18.666095 4.182714 -13.336159 23.318905 0.220439 2.179620 0.008336 -0.028382 22901.000000 0 1 0
19.538995 3.402314 -14.114259 24.342563 0.172401 2.189302 0.036758 -0.032548 437273.000000 0 1 0
19.127895 2.051714 -14.066359 23.831667 0.106854 2.202150 0.053049 -0.022018 -245157.000000 0 1 0
20.153395 1.115114 -14.754759 25.002114 0.055275 2.202029 0.075547 -0.015746 -783326.000000 0 0 1
21.325795 1.096114 -13.965159 25.515028 0.051353 2.149968 0.096923 -0.002986 340986.000000 0 0 1
22.458195 0.607514 -14.683759 26.839381 0.027044 2.149689 0.070424 -0.010072 215287.000000 0 0 1
22.477995 -0.896186 -14.817759 26.937508 -0.039848 2.153255 0.067949 -0.008153 -1026700.000000 0 0 1
21.481895 -1.366186 -15.707759 26.647175 -0.063512 2.201201 0.056395 -0.009936 211313.000000 0 0 1
21.999995 -2.299986 -16.664359 27.694594 -0.104166 2.216448 0.050573 -0.009198 -851608.000000 0 0 1
20.981395 -3.008886 -17.491959 27.481647 -0.142436 2.260743 0.040453 -0.016199 -826629.000000 0 0 1
20.211895 -3.967186 -16.798159 26.578890 -0.193816 2.254942 0.057573 -0.014185 345149.000000 0 0 1
19.425195 -4.720586 -17.721059 26.714379 -0.238392 2.296087 0.052122 -0.014781 480872.000000 0 0 1
18.755995 -6.025686 -17.109859 26.092978 -0.310852 2.285941 0.058742 -0.012088 806385.000000 0 0 1
19.805895 -6.964986 -16.905459 26.955130 -0.338155 2.248711 0.063574 -0.008155 706270.000000 0 0 1
19.197995 -8.099086 -16.291959 26.449690 -0.399218 2.234401 0.075931 -0.002203 -310128.000000 0 0 1
20.159795 -9.104686 -15.699759 27.125542 -0.424205 2.188030 0.105975 0.002344 -1031980.000000 0 0 1
20.770395 -9.789886 -16.696059 28.390307 -0.440457 2.199492 0.095370 0.000496 -461013.000000 0 0 1
21.614795 -10.681786 -16.065159 28.972214 -0.458988 2.158561 0.086902 -0.004350 -924789.000000 0 0 1
22.420895 -11.599586 -17.003459 30.436237 -0.477436 2.163564 0.084057 -0.004016 -100928.000000 0 0 1
23.305095 -10.832386 -17.800259 31.262073 -0.435099 2.176558 0.072296 -0.005461 106562.000000 0 0 1
23.825695 -11.558886 -18.898859 32.533651 -0.451692 2.190633 0.078916 -0.012525 278726.000000 0 0 1
22.809095 -11.572086 -20.108959 32.535184 -0.469507 2.237079 0.100872 -0.010331 1518090.000000 0 0 1
21.534295 -12.211086 -19.898559 31.761440 -0.515841 2.247852 0.112962 -0.028255 957665.000000 0 0 1
21.608495 -13.634886 -20.115159 32.518560 -0.562900 2.237724 0.108702 -0.019687 26948.000000 0 0 1
20.213095 -14.247186 -19.821159 31.692741 -0.613973 2.246461 0.115444 -0.020732 -218449.000000 0 0 1
19.266395 -13.847686 -20.727159 31.505039 -0.623198 2.288823 0.104364 -0.011301 -1022780.000000 0 0 1
17.987695 -14.328286 -20.370059 30.721266 -0.672640 2.295696 0.088872 -0.013251 150231.000000 0 0 1
16.913595 -13.860886 -21.380059 30.582687 -0.686525 2.344921 0.068296 -0.015933 -233064.000000 0 0 1
17.140295 -14.399886 -22.666759 31.857940 -0.698730 2.362419 0.060900 -0.011288 252140.000000 0 0 1
16.397395 -13.719286 -23.659659 31.888443 -0.696707 2.406772 0.061867 -0.012821 -261845.000000 0 0 1
16.399195 -14.539886 -24.954359 33.212375 -0.725375 2.420913 0.058655 -0.013891 -327645.000000 0 0 1
15.512295 -15.616786 -25.165589 33.433847 -0.788755 2.422947 0.053404 -0.017978 86448.600000 0 0 1
15.616095 -16.138186 -26.469889 34.712511 -0.801838 2.438036 0.057583 -0.010344 266262.000000 0 0 1
16.670995 -17.266286 -26.736519 35.928931 -0.802937 2.410058 0.057773 -0.009382 322066.000000 0 0 1
18.032095 -16.914886 -26.749729 36.425510 -0.753440 2.395531 0.065730 -0.002649 -453630.000000 0 0 1
18.833495 -17.989786 -27.163369 37.632187 -0.762490 2.377213 0.076907 -0.007572 8295.600000 0 0 1
20.324695 -17.610786 -27.066359 38.155219 -0.713980 2.359407 0.082081 0.001934 -296996.000000 0 0 1
20.722995 -17.366486 -25.746809 37.335445 -0.697504 2.331743 0.099401 -0.004122 -369187.000000 0 0 1
22.065195 -16.966786 -25.621669 37.831396 -0.655512 2.314828 0.091192 -0.000280 -299391.000000 0 0 1
22.455095 -16.444786 -24.228859 36.901217 -0.632103 2.287081 0.110132 -0.001776 72695.000000 0 0 1
22.200095 -15.095486 -23.934259 35.966187 -0.597159 2.298914 0.107730 -0.006021 435695.000000 0 0 1
20.803595 -14.782986 -23.955659 35.002854 -0.617803 2.324565 0.126476 -0.009724 438597.000000 0 0 1
20.436595 -13.365586 -23.487559 33.881539 -0.579184 2.336752 0.130993 -0.002321 -40769.900000 0 0 1
20.994895 -12.327486 -24.296759 34.396002 -0.530929 2.355172 0.133401 -0.012951 323331.000000 0 0 1
20.704195 -11.145086 -23.629559 33.335156 -0.493817 2.358660 0.125800 -0.019439 -119738.000000 0 0 1
21.185395 -9.850286 -24.339159 33.737868 -0.435222 2.376646 0.128365 -0.022026 -334649.000000 0 0 1
20.757395 -8.678586 -23.764459 32.725170 -0.396008 2.383550 0.120756 -0.026636 -74475.600000 0 0 1
20.895495 -7.463186 -24.467059 33.029650 -0.343046 2.404998 0.098591 -0.021541 -270663.000000 0 0 1
20.231695 -6.319486 -23.662759 31.767649 -0.302753 2.411136 0.094385 -0.026376 -602192.000000 0 0 1
18.872495 -6.545786 -23.433859 30.792273 -0.333859 2.435696 0.099289 -0.021797 -404410.000000 0 0 1
18.194695 -5.539586 -22.681459 29.600380 -0.295545 2.443790 0.086458 -0.020824 203145.000000 0 0 1
18.559495 -5.573386 -21.161959 28.694006 -0.291730 2.400164 0.073429 -0.020888 -570488.000000 0 0 1
18.038095 -6.635686 -20.355159 27.995315 -0.352506 2.384872 0.085187 -0.016685 45535.400000 0 0 1
18.587595 -7.912786 -20.680559 28.910143 -0.402466 2.367906 0.092207 -0.022528 -151447.000000 0 0 1
18.156595 -8.990586 -19.682659 28.247117 -0.459775 2.341726 0.082891 -0.021741 80226.300000 0 0 1
16.768095 -9.062086 -19.426759 27.215608 -0.495471 2.365719 0.076116 -0.016536 -83973.400000 0 0 1
16.468495 -10.221786 -18.690159 26.926163 -0.555492 2.338002 0.083191 -0.013018 -502836.000000 0 0 1
14.969895 -10.388986 -18.442759 25.926128 -0.606682 2.362225 0.088238 -0.015345 -26945.300000 0 0 1
14.316995 -9.664286 -17.337459 24.473705 -0.593765 2.358042 0.098139 -0.015450 635060.000000 0 1 0
14.346695 -8.218786 -17.335359 23.956017 -0.520232 2.379848 0.098230 -0.027491 52265.600000 0 1 0
13.049995 -7.492586 -16.810559 22.561828 -0.521191 2.411464 0.079070 -0.016044 305785.000000 0 1 0
11.928595 -7.662386 -17.625259 22.619754 -0.570982 2.464181 0.064321 -0.020574 -163379.000000 0 1 0
10.942595 -6.707086 -17.348159 21.579712 -0.549875 2.504638 0.046913 -0.016999 645288.000000 0 1 0
9.478895 -6.823086 -17.888159 21.363290 -0.623904 2.563180 0.036871 -0.012452 776949.000000 0 1 0
9.315695 -6.478386 -19.243459 22.339703 -0.607650 2.608819 0.033483 -0.018032 1132570.000000 0 1 0
7.911095 -6.284686 -19.536959 21.994896 -0.671326 2.664317 0.032642 -0.022213 1151560.000000 0 1 0
7.634595 -5.843886 -21.002859 23.098877 -0.653315 2.712296 0.041797 -0.028550 26760.900000 0 1 0
7.777595 -6.946386 -21.880059 24.237991 -0.729005 2.696841 0.042636 -0.022245 56778.400000 0 1 0
7.280195 -6.637786 -23.161759 25.169992 -0.739274 2.739421 0.049340 -0.025222 -397080.000000 0 0 1
7.295395 -7.884986 -24.052759 26.342570 -0.824218 2.721560 0.035537 -0.023528 -529785.000000 0 0 1
6.438295 -8.899786 -23.597459 26.028789 -0.944524 2.705930 0.047643 -0.028038 -79146.100000 0 0 1
6.273495 -9.818786 -24.649659 27.264830 -1.002244 2.700024 0.043944 -0.021371 56207.700000 0 0 1
5.413195 -11.086086 -24.421259 27.360589 -1.116563 2.673811 0.054023 -0.023671 458940.000000 0 0 1
6.090695 -12.071786 -23.668859 27.258750 -1.103524 2.622568 0.047211 -0.028361 80833.900000 0 0 1
5.234995 -13.177486 -23.629259 27.557089 -1.192647 2.601120 0.075265 -0.036347 -256219.000000 0 0 1
5.847495 -14.337386 -22.822659 27.579477 -1.183542 2.545478 0.077926 -0.030407 236842.000000 0 0 1
7.031795 -14.968086 -23.272359 28.549823 -1.131611 2.523783 0.043011 -0.021019 268838.000000 0 0 1
8.291195 -14.327886 -23.294159 28.577089 -1.046204 2.523757 0.049598 -0.024871 240900.000000 0 0 1
8.939595 -13.810586 -21.983859 27.457944 -0.996321 2.499155 0.050590 -0.024090 -518452.000000 0 0 1
9.402495 -14.890486 -21.188859 27.551791 -1.007577 2.448159 0.036113 -0.009497 437623.000000 0 0 1
8.392695 -15.472986 -20.357359 26.912314 -1.073799 2.428638 0.025025 -0.010911 316096.000000 0 0 1
8.878095 -15.596286 -18.879159 26.047789 -1.053298 2.381525 0.033710 -0.007151 -44940.100000 0 0 1
9.870595 -16.561986 -18.647759 26.822880 -1.033339 2.339520 0.052743 -0.010775 -395272.000000 0 0 1
10.164795 -16.802186 -17.265459 26.148280 -1.026731 2.292002 0.063417 -0.021710 -521385.000000 0 0 1
9.087795 -17.533586 -16.473059 25.717237 -1.092610 2.266005 0.034881 -0.014507 -624558.000000 0 0 1
8.819495 -18.939386 -16.742959 26.773316 -1.134988 2.246389 0.043206 -0.010627 122752.000000 0 0 1
8.226295 -19.266986 -18.024859 27.636646 -1.167264 2.281291 0.044491 -0.007483 397111.000000 0 0 1
6.694095 -18.989486 -18.064759 27.050822 -1.231882 2.302056 0.045532 -0.002433 140617.000000 0 0 1
6.372095 -17.596286 -18.107859 26.040879 -1.223359 2.339721 0.048867 -0.011202 -611632.000000 0 0 1
4.979295 -17.440486 -18.133359 25.647273 -1.292693 2.356084 0.051850 -0.005592 -154160.000000 0 0 1
4.542295 -15.935486 -17.999659 24.465483 -1.293118 2.397520 0.038060 -0.001524 -11687.000000 0 1 0
4.395295 -15.724086 -16.597959 23.282133 -1.298227 2.364429 0.004589 -0.000233 200454.000000 0 1 0
4.394695 -14.392186 -16.231159 22.133659 -1.274436 2.393996 0.003808 0.002613 -173727.000000 0 1 0
10.590395 29.580014 -17.970759 36.195053 1.226990 2.090356 0.092329 -0.021177 -705802.000000 0 0 1
9.783095 29.012314 -18.925959 35.994656 1.245565 2.124451 0.110752 -0.026155 -1450370.000000 0 0 1
8.689795 28.567914 -18.210459 34.975121 1.275509 2.118431 0.105332 -0.020290 -576296.000000 0 0 1
7.609695 28.002614 -19.203459 34.796935 1.305455 2.155404 0.115161 -0.022672 551754.000000 0 0 1
6.843095 29.065214 -19.821859 35.840211 1.339568 2.156831 0.125262 -0.033383 146477.000000 0 0 1
6.008495 28.546114 -20.833659 35.847231 1.363341 2.190973 0.110807 -0.030586 346164.000000 0 0 1
4.914395 29.484814 -21.420759 36.774372 1.405639 2.192587 0.102079 -0.039497 -133777.000000 0 0 1
3.836895 29.643514 -20.565259 36.282083 1.442077 2.173432 0.087195 -0.029750 -63803.900000 0 0 1
2.828995 30.514414 -21.100259 37.206903 1.478350 2.173784 0.084417 -0.037139 992728.000000 0 0 1
1.334395 30.362214 -20.632159 36.733236 1.526875 2.167206 0.074076 -0.025484 1054820.000000 0 0 1
0.647895 29.164114 -21.039659 35.967104 1.548585 2.195639 0.093001 -0.043307 86472.900000 0 0 1
0.076395 29.319514 -22.300259 36.836684 1.568191 2.221042 0.118970 -0.062269 -508579.000000 0 0 1
-0.744905 28.104914 -22.763959 36.175115 -1.544298 2.251411 0.130859 -0.060812 -388752.000000 0 0 1
-2.012805 27.868014 -22.263959 35.726201 -1.498695 2.243602 0.137031 -0.052807 -536079.000000 0 0 1
-2.539805 26.557414 -22.449159 34.867056 -1.475452 2.270316 0.148045 -0.063643 -20767.700000 0 0 1
-3.515905 26.153314 -21.326159 33.928786 -1.437163 2.250492 0.105439 -0.056296 1098660.000000 0 0 1
-4.810605 26.801314 -21.320159 34.583255 -1.393196 2.235071 0.091947 -0.054098 718752.000000 0 0 1
-5.687305 26.171014 -20.439859 33.690581 -1.356810 2.222691 0.076347 -0.050048 -25985.300000 0 0 1
-6.867405 27.089814 -20.033759 34.385619 -1.322522 2.192745 0.075481 -0.057106 -74168.700000 0 0 1
-7.804905 26.413514 -19.259459 33.608288 -1.283483 2.181027 0.079888 -0.040039 -278171.000000 0 0 1
-8.888505 27.267714 -18.832059 34.310060 -1.255686 2.151818 0.093294 -0.048339 1604480.000000 0 0 1
-10.139205 26.423914 -18.375559 33.744450 -1.204409 2.146649 0.103831 -0.037443 533809.000000 0 0 1
-9.776905 25.675314 -17.214059 32.421188 -1.206959 2.130519 0.112257 -0.047573 55659.700000 0 0 1
-10.946005 25.019214 -16.749659 32.036342 -1.158383 2.120967 0.079453 -0.032415 400282.000000 0 0 1
-10.757605 24.388614 -15.324359 30.746814 -1.155376 2.092554 0.086344 -0.019108 91599.900000 0 0 1
-9.952805 23.205614 -15.244659 29.495059 -1.165630 2.113969 0.089969 -0.018420 -19508.800000 0 0 1
-9.948105 22.587014 -13.934659 28.342772 -1.155925 2.084777 0.093208 -0.013345 -522687.000000 0 0 1
-9.215605 21.259814 -14.031359 27.088487 -1.161769 2.115287 0.089316 -0.010842 -188327.000000 0 0 1
-9.924705 20.029814 -14.290559 26.531365 -1.110758 2.139605 0.100659 -0.011231 -298499.000000 0 0 1
-10.306105 19.766414 -15.651159 27.237579 -1.090180 2.182932 0.097431 -0.000086 -2873.490000 0 0 1
-9.266905 19.749714 -16.804859 27.537793 -1.132077 2.227169 0.101675 -0.012616 26379.800000 0 0 1
-8.382405 18.635214 -16.649059 26.357676 -1.148096 2.254487 0.097822 -0.010582 242318.000000 0 0 1
-7.463405 18.637414 -17.750859 26.798295 -1.189900 2.294798 0.089987 -0.012340 455098.000000 0 0 1
-6.745105 17.267614 -17.928259 25.789327 -1.198401 2.339468 0.059182 -0.006786 151971.000000 0 0 1
-7.688405 16.241814 -18.128759 25.525673 -1.128678 2.360602 0.069050 -0.013421 -262235.000000 0 0 1
-7.592205 15.601114 -19.386759 26.016971 -1.117890 2.411568 0.069604 -0.026277 104291.000000 0 0 1
-6.474005 14.539414 -19.469959 25.147298 -1.151881 2.456304 0.040241 -0.012763 -230897.000000 0 0 1
-6.756605 13.341714 -18.757459 23.989483 -1.102020 2.468510 0.032581 -0.009552 874395.000000 0 1 0
-5.550505 12.675414 -18.343259 22.977149 -1.158054 2.495307 0.027155 -0.005558 1301340.000000 0 1 0
-4.552805 13.276614 -17.291859 22.271167 -1.240443 2.459767 0.023923 0.003477 275999.000000 0 1 0
-3.929805 14.467714 -17.715759 23.207892 -1.305570 2.439281 0.027112 -0.004922 -570981.000000 0 1 0
-3.451705 15.068414 -16.540359 22.639674 -1.345612 2.389984 0.028568 0.006725 267749.000000 0 1 0
-2.627605 16.395914 -16.634159 23.503735 -1.411888 2.357068 0.040703 0.002093 390371.000000 0 1 0
-3.388505 17.540814 -17.001159 24.661742 -1.379969 2.331421 0.051282 -0.001844 -209743.000000 0 1 0
-2.575905 18.655314 -17.164759 25.481071 -1.433585 2.309903 0.066728 -0.006364 139390.000000 0 0 1
-3.452705 19.903214 -17.516259 26.737211 -1.399031 2.285147 0.076398 -0.006379 523672.000000 0 0 1
-3.742305 19.855514 -18.880159 27.653331 -1.384505 2.322309 0.079794 -0.012062 104979.000000 0 0 1
-4.436905 21.000414 -19.444359 28.961813 -1.362581 2.306865 0.102547 -0.019584 146650.000000 0 0 1
-3.532705 22.223214 -19.688559 29.899676 -1.413151 2.289603 0.103628 -0.027600 -386939.000000 0 0 1
-2.574605 22.080014 -20.725159 30.392233 -1.454717 2.321185 0.111593 -0.021998 145159.000000 0 0 1
-1.442605 22.922014 -20.560959 30.826172 -1.507944 2.300967 0.107199 -0.031942 621948.000000 0 0 1
-0.371505 22.277014 -19.623559 29.689854 -1.554121 2.292883 0.124463 -0.029944 -485874.000000 0 0 1
-0.406105 22.608814 -18.270959 29.071487 -1.552836 2.250399 0.107030 -0.016944 363059.000000 0 0 1
0.698295 21.927514 -17.622559 28.139973 1.538961 2.247526 0.104861 -0.016302 758071.000000 0 0 1
0.639995 21.813214 -16.082859 27.108749 1.541465 2.205914 0.100309 -0.014404 -645654.000000 0 0 1
-0.454605 21.184114 -15.484359 26.243832 -1.549340 2.201879 0.078959 -0.004327 -491521.000000 0 0 1
-0.321505 21.193014 -14.045159 25.426634 -1.555627 2.156013 0.078385 -0.005348 -48576.000000 0 0 1
-1.269805 20.220614 -13.375459 24.277326 -1.508081 2.154292 0.053606 -0.002533 -124272.000000 0 1 0
-0.914805 18.845614 -13.545459 23.226569 -1.522292 2.193444 0.043693 0.001262 -326867.000000 0 1 0
-1.931005 17.984114 -13.151759 22.363495 -1.463833 2.199492 0.030352 0.006409 -150545.000000 0 1 0
-1.439005 16.524614 -13.237259 21.221655 -1.483933 2.244343 0.014289 0.011890 -129085.000000 0 1 0
-0.588105 16.178214 -12.156759 20.245179 -1.534461 2.214893 0.009141 0.003341 33321.700000 0 1 0
-0.274705 14.782314 -12.022259 19.055891 -1.552215 2.253502 0.006978 0.000032 -367503.000000 0 1 0
0.538195 14.048214 -13.057259 19.186818 1.532505 2.319286 0.015800 -0.002579 -678522.000000 0 1 0
-0.099105 13.888114 -14.266559 19.910405 -1.563660 2.369623 0.023614 -0.010020 -761916.000000 0 1 0
0.546995 12.983614 -15.044859 19.880171 1.528692 2.429165 0.018846 -0.012222 -342294.000000 0 1 0
-0.111205 12.655414 -16.450659 20.755627 -1.562009 2.485838 0.025253 -0.011881 173770.000000 0 1 0
-0.045605 13.699314 -17.387859 22.136190 -1.567467 2.474291 0.031884 -0.015951 -148098.000000 0 1 0
-0.413805 13.352414 -18.692659 22.975502 -1.539815 2.521098 0.037763 -0.024878 -439525.000000 0 1 0
-1.011805 14.498414 -19.472259 24.298079 -1.501122 2.500413 0.041726 -0.012716 -258130.000000 0 1 0
-0.147705 15.601814 -19.758359 25.176004 -1.561329 2.473184 0.048316 -0.019959 -136153.000000 0 0 1
-0.807605 16.848714 -20.013859 26.174146 -1.522900 2.441282 0.085609 -0.027731 123669.000000 0 0 1
0.182295 17.999314 -20.328759 27.152661 1.560669 2.416871 0.109291 -0.033316 224921.000000 0 0 1
0.800295 17.934214 -21.597059 28.083972 1.526202 2.448099 0.118848 -0.049872 -112834.000000 0 0 1
1.448795 19.134314 -21.916859 29.130219 1.495223 2.422457 0.126224 -0.047589 16207.900000 0 0 1
2.091595 19.101014 -23.330759 30.224954 1.461729 2.452627 0.129434 -0.058960 37906.300000 0 0 1
3.038695 18.069214 -23.485959 29.787924 1.404186 2.479063 0.110503 -0.053838 -172777.000000 0 0 1
3.478295 18.002514 -24.849759 30.882027 1.379937 2.505911 0.115262 -0.060860 352775.000000 0 0 1
4.549895 16.892314 -25.045649 30.550554 1.307693 2.531875 0.090878 -0.049555 621703.000000 0 0 1
5.853495 17.236414 -24.479259 30.505598 1.243416 2.502188 0.082466 -0.037655 1119300.000000 0 0 1
6.825495 16.225814 -24.702859 30.333079 1.172610 2.522468 0.074334 -0.027675 298984.000000 0 0 1
7.264595 16.095714 -26.196059 31.592402 1.146831 2.548451 0.076160 -0.038639 -1264640.000000 0 0 1
7.985895 17.255714 -26.680709 32.762698 1.137351 2.522426 0.074130 -0.034141 396157.000000 0 0 1
8.420595 17.233614 -28.029219 33.963819 1.116298 2.541471 0.080272 -0.049001 389020.000000 0 0 1
9.268795 16.012114 -28.540019 34.012219 1.046065 2.566443 0.079274 -0.042267 -1043230.000000 0 0 1
10.522595 15.866814 -27.979589 33.842845 0.985210 2.544103 0.069314 -0.034814 -943874.000000 0 0 1
11.019395 14.594714 -28.268479 33.668080 0.924086 2.567384 0.068191 -0.027395 -233899.000000 0 0 1
10.705895 13.451714 -27.307019 32.268221 0.898575 2.579705 0.067853 -0.028697 1034120.000000 0 0 1
9.299895 13.084714 -27.369679 31.730066 0.952895 2.611141 0.075683 -0.029152 1050120.000000 0 0 1
8.907595 12.311514 -26.257809 30.337949 0.944461 2.616965 0.067171 -0.027991 516272.000000 0 0 1
7.399095 11.919314 -26.167989 29.691418 1.015248 2.649470 0.074289 -0.030350 685479.000000 0 0 1
6.593695 13.080714 -25.945979 29.795565 1.103892 2.627624 0.102004 -0.028207 274193.000000 0 0 1
5.250295 12.662514 -25.666489 29.097655 1.177739 2.651058 0.109616 -0.038326 543978.000000 0 0 1
4.206995 13.516414 -26.393489 29.950100 1.269050 2.649294 0.122270 -0.041328 -470218.000000 0 0 1
4.157695 13.312214 -27.818719 31.118846 1.268074 2.676881 0.124360 -0.049085 198650.000000 0 0 1
4.023595 14.506614 -28.610059 32.329037 1.300235 2.657215 0.139345 -0.059052 -74444.800000 0 0 1
3.889995 14.186914 -30.067199 33.472930 1.303178 2.686577 0.160745 -0.059242 -795238.000000 0 0 1
5.040595 13.648914 -30.606139 33.888585 1.217029 2.697824 0.151146 -0.051759 -625028.000000 0 0 1
4.968495 13.301714 -31.964019 34.975992 1.213321 2.723548 0.151317 -0.054082 -851908.000000 0 0 1
6.062595 12.347214 -32.402829 35.201592 1.114367 2.740137 0.163938 -0.044739 264995.000000 0 0 1
7.423695 12.768514 -32.351499 35.563544 1.044161 2.713313 0.158176 -0.040219 781349.000000 0 0 1
8.073595 12.896914 -31.074759 34.599913 1.011471 2.686264 0.130662 -0.030571 -295034.000000 0 0 1
8.192795 11.716714 -30.085949 33.310172 0.960581 2.697978 0.128276 -0.028794 -795764.000000 0 0 1
9.195395 10.834214 -30.427049 33.581852 0.867036 2.704666 0.100193 -0.020805 -625353.000000 0 0 1
9.095595 9.637614 -29.696899 32.519521 0.814324 2.721871 0.093680 -0.020230 -337062.000000 0 0 1
10.071795 8.527014 -29.974389 32.750801 0.702530 2.726865 0.080705 -0.021162 -131934.000000 0 0 1
11.363095 8.579814 -29.402749 32.668865 0.646731 2.690620 0.062922 -0.020439 329289.000000 0 0 1
12.045595 7.334614 -29.494149 32.692472 0.546941 2.695569 0.050137 -0.016788 440582.000000 0 0 1
13.175795 7.192114 -28.381919 32.107030 0.499658 2.655101 0.043524 -0.002882 1052850.000000 0 0 1
13.964295 6.010814 -28.328539 32.150233 0.406471 2.649043 0.071291 -0.022340 101301.000000 0 0 1
14.916395 5.867814 -29.341829 33.434608 0.374787 2.641605 0.062278 -0.023800 -909575.000000 0 0 1
15.824595 4.660114 -29.139219 33.484751 0.286390 2.626452 0.074910 -0.033192 -90537.100000 0 0 1
16.638295 4.727814 -27.980219 32.894950 0.276855 2.587909 0.065908 -0.038454 326359.000000 0 0 1
17.350395 3.522514 -27.756929 32.922506 0.200300 2.573816 0.061587 -0.035179 53444.600000 0 0 1
18.257195 3.518614 -26.504459 32.375795 0.190391 2.529853 0.063026 -0.032673 635856.000000 0 0 1
19.394195 4.402514 -26.479079 33.115835 0.223219 2.497408 0.080570 -0.038035 758822.000000 0 0 1
19.864795 4.638514 -25.176439 32.403379 0.229394 2.460634 0.083392 -0.030738 241085.000000 0 0 1
20.934395 5.775314 -25.072689 33.169909 0.269181 2.427804 0.072069 -0.018985 109051.000000 0 0 1
20.401495 7.082914 -25.287279 33.254099 0.334157 2.434765 0.080714 -0.016741 382506.000000 0 0 1
21.274295 8.024614 -25.918499 34.478379 0.360696 2.421481 0.088377 -0.028050 -303249.000000 0 0 1
21.542995 7.910714 -27.446039 35.776599 0.351920 2.445184 0.101342 -0.031319 -214881.000000 0 0 1
20.468195 8.210314 -28.298279 35.876856 0.381476 2.479588 0.085820 -0.019710 98623.700000 0 0 1
19.456095 7.204714 -28.409759 35.178998 0.354649 2.510829 0.072763 -0.022431 -229889.000000 0 0 1
18.168295 7.883414 -28.898759 35.033889 0.409394 2.540786 0.073011 -0.017231 -497335.000000 0 0 1
18.203995 8.118214 -30.276609 36.248639 0.419487 2.559380 0.058077 -0.010862 926000.000000 0 0 1
17.006995 8.885514 -30.517949 36.049070 0.481456 2.580298 0.032076 -0.003400 618928.000000 0 0 1
16.454295 8.859514 -31.967519 37.029138 0.493918 2.612583 0.023560 -0.000218 -8958.430000 0 0 1
15.811295 7.626314 -32.271479 36.736985 0.449415 2.643398 0.039617 -0.005769 -1113620.000000 0 0 1
14.617495 7.865314 -32.869359 36.822942 0.493642 2.673948 0.031510 -0.002425 -1365350.000000 0 0 1
13.983295 6.601114 -33.440879 36.842904 0.441056 2.708474 0.047319 -0.005295 -213607.000000 0 0 1
13.592595 5.702614 -32.407509 35.602318 0.397235 2.714718 0.055604 -0.015985 322563.000000 0 0 1
12.531395 4.864414 -32.860459 35.503635 0.370274 2.753287 0.063397 -0.021292 279603.000000 0 0 1
12.111295 3.823714 -31.790939 34.234019 0.305811 2.761515 0.074962 -0.026701 -221269.000000 0 0 1
13.084295 2.860814 -31.488629 34.218661 0.215257 2.739433 0.084204 -0.036192 249533.000000 0 0 1
12.547595 1.901214 -30.512719 33.046675 0.150376 2.747439 0.079679 -0.034402 302503.000000 0 0 1
11.948095 0.607414 -31.107419 33.328627 0.050794 2.774443 0.082333 -0.025120 469875.000000 0 0 1
12.876795 -0.354086 -31.671869 34.191292 -0.027491 2.755304 0.074620 -0.023681 498675.000000 0 0 1
13.552995 -1.128686 -30.671929 33.551823 -0.083088 2.724241 0.071934 -0.030164 290153.000000 0 0 1
14.262995 -2.419186 -31.176969 34.369883 -0.168014 2.707142 0.079348 -0.028078 17607.800000 0 0 1
13.415395 -3.509486 -31.358989 34.288124 -0.255867 2.725247 0.079218 -0.023338 228530.000000 0 0 1
14.105895 -4.602986 -32.041829 35.310657 -0.315422 2.707915 0.098251 -0.020032 364057.000000 0 0 1
13.240695 -5.863786 -32.046649 35.166570 -0.416901 2.717182 0.086515 -0.020480 -101853.000000 0 0 1
13.277995 -6.588986 -30.830869 34.209097 -0.460630 2.693437 0.087860 -0.013003 -17915.500000 0 0 1
12.923995 -7.916886 -30.953359 34.464723 -0.549613 2.686265 0.073503 -0.018690 -129361.000000 0 0 1
13.004495 -8.552486 -29.554279 33.402354 -0.581739 2.656853 0.054570 -0.015586 878191.000000 0 0 1
14.313595 -8.557986 -28.926429 33.389465 -0.538868 2.618611 0.058521 -0.006866 1014510.000000 0 0 1
14.379095 -9.308886 -27.732709 32.596270 -0.574538 2.588291 0.058952 -0.009171 49414.200000 0 0 1
14.672995 -10.832586 -27.851029 33.291462 -0.635950 2.561810 0.056844 -0.008807 59738.600000 0 0 1
13.508195 -11.589386 -28.206499 33.352537 -0.709093 2.578686 0.034921 -0.009187 491202.000000 0 0 1
13.743595 -12.976386 -28.405809 34.119832 -0.756693 2.554457 0.040411 -0.015028 140383.000000 0 0 1
-9.976905 -2.631986 -17.674459 20.465886 0.257931 2.613175 0.027841 -0.014381 -644064.000000 0 1 0
-10.862905 -2.508986 -18.713759 21.783078 0.226988 2.604297 0.049575 -0.017275 -299911.000000 0 1 0
-11.947005 -3.428086 -18.758459 22.502499 0.279433 2.556420 0.063738 -0.026297 -20441.900000 0 1 0
-12.748905 -3.075086 -19.993659 23.911025 0.236683 2.561057 0.077796 -0.034050 26362.800000 0 1 0
-13.515305 -1.825786 -20.021459 24.225106 0.134277 2.543615 0.087155 -0.026882 382272.000000 0 1 0
-14.267505 -1.709386 -21.201859 25.612546 0.119241 2.545957 0.094107 -0.019606 -144983.000000 0 0 1
-15.329505 -0.623786 -21.140959 26.121313 0.040669 2.513820 0.092547 -0.015260 20415.400000 0 0 1
-14.744305 0.645214 -21.326059 25.934757 -0.043732 2.536231 0.095197 -0.014524 312667.000000 0 0 1
-15.642005 1.655414 -20.854459 26.121278 -0.105439 2.495381 0.100572 -0.010500 306005.000000 0 0 1
-15.292005 3.115114 -21.297959 26.403644 -0.200959 2.509224 0.126070 -0.021915 -488097.000000 0 0 1
-14.038205 3.523214 -20.867859 25.395901 -0.245894 2.535187 0.123212 -0.024654 -518094.000000 0 0 1
-13.661805 4.796014 -21.401559 25.839377 -0.337612 2.546780 0.131057 -0.032010 -685408.000000 0 0 1
-12.297405 5.256414 -20.957859 24.861374 -0.403936 2.573612 0.101454 -0.024664 -912217.000000 0 1 0
-12.374705 5.761414 -19.668359 23.941002 -0.435734 2.534893 0.102652 -0.029082 890052.000000 0 1 0
-11.126605 6.295114 -19.200359 23.066937 -0.514871 2.554177 0.074129 -0.018088 405395.000000 0 1 0
-11.227405 6.949214 -17.775159 22.142775 -0.554238 2.502692 0.072295 -0.017633 -63141.200000 0 1 0
-11.805905 8.223414 -17.826759 22.908454 -0.608407 2.462549 0.074002 -0.022143 -425845.000000 0 1 0
-12.977605 8.378614 -17.096159 23.041225 -0.573291 2.406817 0.103967 -0.017304 -521703.000000 0 1 0
-13.596105 9.785414 -16.969759 23.844939 -0.623840 2.362671 0.110304 -0.021877 -396087.000000 0 1 0
-12.930305 10.689514 -16.154259 23.289882 -0.690812 2.337295 0.072517 -0.010632 -469358.000000 0 1 0
-13.610405 11.908514 -16.175859 24.263434 -0.718805 2.300537 0.094999 -0.020965 -202895.000000 0 1 0
-13.004005 13.118214 -15.372859 24.031573 -0.789770 2.264897 0.101035 -0.012347 -397902.000000 0 1 0
-13.105405 13.180714 -13.963859 23.248059 -0.788263 2.215105 0.109290 -0.019241 -89863.200000 0 1 0
-12.563705 14.361614 -13.425659 23.331330 -0.852073 2.183932 0.101440 -0.023048 -702706.000000 0 1 0
-13.273705 14.767614 -12.047959 23.225568 -0.838623 2.116169 0.077533 -0.021656 1518800.000000 0 1 0
-14.638905 15.241314 -12.159959 24.381546 -0.805556 2.092936 0.069387 -0.014171 832710.000000 0 1 0
-15.549905 14.219414 -12.468059 24.483541 -0.740735 2.105101 0.069194 -0.015729 -1754330.000000 0 1 0
-16.909005 14.600614 -11.876959 25.301276 -0.712269 2.059432 0.053326 -0.008065 -960612.000000 0 0 1
-17.871005 13.680814 -12.314259 25.654989 -0.653367 2.071445 0.052892 -0.012651 -97991.500000 0 0 1
-19.015305 13.808514 -11.466359 26.148313 -0.628081 2.024739 0.103176 -0.021803 -37925.600000 0 0 1
-20.318905 13.457514 -12.208759 27.258327 -0.584984 2.035201 0.084846 -0.031527 -354293.000000 0 0 1
-20.524805 12.021614 -12.278159 26.768265 -0.529847 2.047309 0.098078 -0.029041 -346378.000000 0 0 1
-21.744705 11.787214 -12.884259 27.888613 -0.496737 2.051034 0.122409 -0.032329 -437912.000000 0 0 1
-22.555505 10.540214 -12.334859 27.784810 -0.437148 2.030790 0.113067 -0.026139 259547.000000 0 0 1
-21.773805 9.346014 -12.423459 26.754232 -0.405450 2.053702 0.109617 -0.028533 636909.000000 0 0 1
-22.277505 8.364314 -11.541159 26.447067 -0.359174 2.022376 0.105851 -0.026464 -136537.000000 0 0 1
-21.245605 7.219214 -11.342059 25.142297 -0.327557 2.038810 0.115537 -0.033747 6137.500000 0 0 1
-20.879705 6.651414 -12.605559 25.280497 -0.308395 2.092811 0.105532 -0.033207 380014.000000 0 0 1
-19.819505 5.731614 -12.451259 24.097677 -0.281511 2.113788 0.123753 -0.041674 -51774.800000 0 1 0
-19.882205 4.518614 -13.443359 24.422200 -0.223473 2.153707 0.131404 -0.048439 -9036.130000 0 1 0
-20.744905 3.477714 -12.992459 24.723462 -0.166097 2.124112 0.116743 -0.042649 542843.000000 0 1 0
-20.635505 2.378614 -13.891259 24.988977 -0.114762 2.160236 0.115583 -0.037698 -213235.000000 0 1 0
-21.561405 1.233214 -13.426059 25.429787 -0.057133 2.127000 0.124903 -0.038711 311003.000000 0 0 1
-22.856905 1.215914 -14.019859 26.841628 -0.053147 2.120363 0.094036 -0.029661 671763.000000 0 0 1
-23.353305 -0.134086 -13.973659 27.215032 0.005742 2.110001 0.089575 -0.039786 47339.600000 0 0 1
-24.690305 -0.371986 -14.716959 28.746103 0.015065 2.108265 0.093820 -0.029463 -365238.000000 0 0 1
-25.821415 0.207514 -14.151259 29.445656 -0.008036 2.072123 0.113873 -0.040194 -954856.000000 0 0 1
-26.908245 -0.238186 -14.868359 30.743755 0.008852 2.075585 0.106768 -0.024596 -436802.000000 0 0 1
-28.317135 0.182414 -14.369859 31.755098 -0.006442 2.040387 0.108427 -0.030755 255636.000000 0 0 1
-28.769095 -0.585586 -13.264059 31.684997 0.020352 2.002725 0.117939 -0.033397 462668.000000 0 0 1
-30.038435 -0.202786 -12.747159 32.631867 0.006751 1.972118 0.149316 -0.043417 357428.000000 0 0 1
-30.167405 -0.476986 -11.215259 32.188226 0.015810 1.926689 0.151220 -0.046270 -151034.000000 0 0 1
-30.417605 -1.809886 -10.748659 32.311609 0.059431 1.909915 0.145806 -0.041130 256388.000000 0 0 1
-29.401175 -2.729786 -11.026859 31.519398 0.092581 1.928200 0.142703 -0.045403 -395770.000000 0 0 1
-29.793645 -4.139386 -10.528059 31.869042 0.138051 1.907475 0.149957 -0.047650 -1141700.000000 0 0 1
-30.921655 -4.716086 -11.069059 33.180028 0.151351 1.910923 0.141769 -0.045755 -534207.000000 0 0 1
-31.288555 -5.963886 -10.573859 33.561110 0.188350 1.891319 0.159249 -0.048492 -174331.000000 0 0 1
-30.665305 -7.213186 -11.258659 33.453675 0.231023 1.914042 0.148750 -0.040858 -244226.000000 0 0 1
-29.298115 -7.408686 -11.034559 32.171877 0.247680 1.920892 0.132329 -0.037727 -197152.000000 0 0 1
-28.644015 -8.361386 -11.868559 32.113160 0.284015 1.949359 0.132056 -0.038274 286685.000000 0 0 1
-27.183055 -8.589886 -11.415359 30.708550 0.306072 1.951671 0.119646 -0.044171 -133979.000000 0 0 1
-26.282065 -7.527986 -11.746859 29.755776 0.278962 1.976620 0.083428 -0.030691 436274.000000 0 0 1
-24.933505 -7.709486 -11.397359 28.478336 0.299877 1.982544 0.116009 -0.030210 -13548.800000 0 0 1
-24.643105 -7.540086 -9.858059 27.591971 0.296926 1.936150 0.128056 -0.034696 -639694.000000 0 0 1
-24.694105 -6.179886 -9.382359 27.129660 0.245221 1.923924 0.111337 -0.029248 777702.000000 0 0 1
-26.017075 -5.819786 -8.994359 28.136393 0.220068 1.896177 0.125820 -0.041851 25978.400000 0 0 1
-26.108045 -4.394586 -8.377859 27.769244 0.166760 1.877267 0.130764 -0.042438 -273315.000000 0 0 1
-25.905105 -4.398686 -6.967359 27.183947 0.168196 1.829993 0.130500 -0.036265 434450.000000 0 0 1
-25.895795 -3.041686 -6.503859 26.872742 0.116923 1.815248 0.151049 -0.041416 -35143.700000 0 0 1
-25.746515 -2.986186 -4.946359 26.386868 0.115468 1.759367 0.142963 -0.034683 -854546.000000 0 0 1
-24.440405 -3.240586 -4.586559 25.077307 0.131822 1.754728 0.114728 -0.025929 -765165.000000 0 0 1
-24.295905 -3.079486 -3.240359 24.703728 0.126077 1.702344 0.083057 -0.017838 -831373.000000 0 1 0
-22.880305 -3.415886 -2.843359 23.307967 0.148199 1.693092 0.071509 -0.008907 -915589.000000 0 1 0
-22.554405 -4.752286 -2.976459 23.241014 0.207666 1.699218 0.083278 -0.010708 1441220.000000 0 1 0
-21.211405 -5.075586 -2.525959 21.955996 0.234869 1.686098 0.064956 -0.008929 899671.000000 0 1 0
-20.976505 -6.563286 -2.648459 22.138311 0.303238 1.690716 0.064374 -0.011220 -236939.000000 0 1 0
-21.697505 -7.292086 -1.659359 22.950157 0.324220 1.643162 0.079046 -0.007536 566856.000000 0 1 0
-22.281205 -8.478286 -2.165759 23.937919 0.363595 1.661394 0.086291 -0.016612 101320.000000 0 1 0
-22.876705 -9.218186 -0.951159 24.682449 0.383048 1.609342 0.120080 -0.023630 -272431.000000 0 1 0
-21.798605 -9.765686 -0.261859 23.887578 0.421186 1.581759 0.088606 -0.012339 262171.000000 0 1 0
-22.216105 -10.436886 0.914841 24.562590 0.439188 1.533542 0.077747 -0.006583 272548.000000 0 1 0
-21.024305 -11.077686 1.690841 23.824262 0.484935 1.499765 0.085083 -0.010399 315409.000000 0 1 0
-20.315205 -12.043486 0.924141 23.634871 0.535132 1.531686 0.084085 -0.001653 928627.000000 0 1 0
-19.177605 -12.520586 1.656041 22.962754 0.578394 1.498615 0.057543 -0.005909 352727.000000 0 1 0
-18.421805 -13.735586 1.077241 23.004123 0.640689 1.523951 0.053370 -0.004172 -428416.000000 0 1 0
-19.166905 -14.968486 0.991341 24.339445 0.663020 1.530055 0.070522 0.000989 336822.000000 0 1 0
-18.504605 -16.158486 0.655141 24.575319 0.717818 1.544135 0.070143 -0.005893 -728117.000000 0 1 0
-17.333305 -16.666386 1.475141 24.091242 0.765785 1.509527 0.072585 -0.009698 -438467.000000 0 1 0
-16.141405 -15.904786 1.334641 22.699966 0.778015 1.511968 0.059656 -0.015346 512051.000000 0 1 0
-15.020305 -16.406986 2.058341 22.339103 0.829493 1.478525 0.068837 -0.023613 231961.000000 0 1 0
-14.996805 -16.530586 3.593541 22.607034 0.834009 1.411162 0.060695 -0.025699 -595611.000000 0 1 0
-14.932505 -15.200486 4.153941 21.709208 0.794291 1.378264 0.055438 -0.016526 -161818.000000 0 1 0
-14.304905 -15.171786 5.380341 21.535122 0.814799 1.318281 0.049735 -0.012240 -221608.000000 0 1 0
-15.184305 -15.498586 6.621941 22.685224 0.795641 1.274578 0.077773 -0.021711 -44060.100000 0 1 0
-16.309805 -14.707686 7.013141 23.054499 0.733792 1.261699 0.082336 -0.013184 806120.000000 0 1 0
-16.744505 -15.035686 8.346341 24.002327 0.731680 1.215647 0.097224 -0.014875 128788.000000 0 1 0
-17.629705 -16.290686 8.627141 25.507264 0.745943 1.225768 0.082060 -0.008083 -264831.000000 0 0 1
-16.983705 -17.531186 8.374541 25.805458 0.801259 1.240286 0.080250 -0.016524 260153.000000 0 0 1
-17.480605 -18.575586 9.224341 27.124019 0.815758 1.223794 0.081953 -0.019325 -28581.100000 0 0 1
-16.983205 -18.556886 10.712341 27.341206 0.829648 1.168207 0.085918 -0.017211 273319.000000 0 0 1
-15.617805 -18.939086 10.801341 26.819280 0.881214 1.156282 0.071127 -0.017891 304513.000000 0 0 1
-15.221005 -19.064186 12.149641 27.253183 0.897027 1.108721 0.067073 -0.020429 27742.600000 0 0 1
-13.955805 -19.956186 12.307241 27.285198 0.960525 1.102844 0.059060 -0.013763 1227000.000000 0 0 1
-12.772405 -19.215986 11.869641 25.947578 0.984173 1.095674 0.070040 -0.021093 1291490.000000 0 0 1
-11.576205 -19.960286 12.175641 26.089610 1.045241 1.085257 0.067565 -0.017467 789184.000000 0 0 1
-10.353105 -19.097786 12.508041 25.067176 1.074031 1.048374 0.072969 -0.025672 -310674.000000 0 0 1
-9.685905 -18.489986 11.485241 23.824506 1.088254 1.067773 0.065437 -0.027842 -1270260.000000 0 1 0
-8.560505 -17.857186 11.928241 23.118051 1.123775 1.028656 0.058280 -0.024459 -784685.000000 0 1 0
-7.637305 -17.238486 10.859041 21.758047 1.153747 1.048258 0.042749 -0.025848 -144990.000000 0 1 0
-6.687905 -18.118986 10.357341 21.915753 1.217199 1.078560 0.041170 -0.020614 -644664.000000 0 1 0
-5.906705 -17.466186 9.402741 20.697061 1.244691 1.099206 0.038339 -0.013225 133382.000000 0 1 0
-4.802005 -18.286686 8.684441 20.805808 1.313998 1.140209 0.035584 -0.014235 202186.000000 0 1 0
-3.616405 -18.432286 9.420041 21.013441 1.377058 1.105949 0.041927 -0.017133 -665825.000000 0 1 0
-2.591305 -18.871386 8.588141 20.894981 1.434336 1.147230 0.048066 -0.021928 -284870.000000 0 1 0
-1.208005 -19.005986 9.234941 21.165323 1.507323 1.119287 0.051875 -0.034042 -232478.000000 0 1 0
-0.183705 -19.458686 8.404641 21.196985 1.561356 1.163093 0.056119 -0.028525 -328951.000000 0 1 0
0.988295 -19.758386 9.120141 21.784111 -1.520819 1.138827 0.058639 -0.030357 -60839.600000 0 1 0
2.130795 -20.347786 8.283941 22.072525 -1.466458 1.186070 0.061698 -0.040664 -117862.000000 0 1 0
1.858495 -21.651986 7.859841 23.109297 -1.485171 1.223756 0.065276 -0.035420 24710.600000 0 1 0
2.459295 -22.659986 8.664241 24.384260 -1.462689 1.207539 0.067268 -0.038124 -357075.000000 0 1 0
1.751295 -23.963986 8.456841 25.472687 -1.497846 1.232377 0.056272 -0.035693 -244634.000000 0 0 1
2.105895 -25.056666 9.298341 26.809148 -1.486948 1.216602 0.060853 -0.034083 -289004.000000 0 0 1
1.606695 -26.232286 8.767841 27.705402 -1.509624 1.248794 0.067718 -0.029460 -1037710.000000 0 0 1
1.752395 -27.437056 9.747841 29.169904 -1.507013 1.230067 0.060373 -0.026187 474701.000000 0 0 1
0.974595 -27.257186 10.940541 29.387063 -1.535056 1.189320 0.041373 -0.029600 807174.000000 0 0 1
-0.445805 -27.306766 10.805041 29.370174 1.554472 1.194056 0.037977 -0.022135 489796.000000 0 0 1
-1.212305 -27.460476 12.166541 30.059477 1.526678 1.154092 0.037321 -0.024701 105590.000000 0 0 1
-0.945905 -28.685776 12.812741 31.431430 1.537834 1.150927 0.032953 -0.023380 -107102.000000 0 0 1
-1.150205 -28.555796 14.183341 31.904915 1.530539 1.110124 0.039170 -0.023727 -357642.000000 0 0 1
-0.781205 -29.709036 15.131041 33.349445 1.544507 1.099870 0.029605 -0.009100 24354.300000 0 0 1
-0.863005 -29.311346 16.486441 33.640786 1.541362 1.058623 0.037624 -0.007830 89501.400000 0 0 1
-0.485805 -30.339586 17.370941 34.963925 1.554785 1.050860 0.036978 -0.003510 -112156.000000 0 0 1
-0.800605 -29.982136 18.871741 35.436027 1.544100 1.009176 0.041906 -0.011235 -180055.000000 0 0 1
-2.174805 -29.825926 19.115041 35.492259 1.498009 1.002058 0.036265 -0.007601 -207500.000000 0 0 1
-2.584205 -29.458226 20.388841 35.918937 1.483296 0.967166 0.057843 -0.015880 -495860.000000 0 0 1
-4.090405 -29.597296 20.553041 36.265119 1.433464 0.968248 0.083041 -0.022095 -1035940.000000 0 0 1
-4.906705 -28.635106 19.922241 35.226989 1.401092 0.969709 0.077490 -0.025429 -60417.400000 0 0 1
-6.253905 -28.635466 20.317141 35.663531 1.355775 0.964668 0.081140 -0.029124 72194.600000 0 0 1
-6.505905 -27.824506 21.624641 35.835109 1.341104 0.922978 0.106278 -0.034904 -406248.000000 0 0 1
-5.656905 -28.264086 22.697241 36.688198 1.373262 0.903770 0.095320 -0.028373 293947.000000 0 0 1
-5.646105 -27.311646 23.764741 36.641062 1.366939 0.865076 0.102838 -0.031132 -488918.000000 0 0 1
-4.542705 -27.588826 24.797541 37.372417 1.407603 0.845275 0.103227 -0.026135 -195306.000000 0 0 1
-4.733305 -28.767756 25.595141 38.795608 1.407722 0.850319 0.104620 -0.028207 62331.600000 0 0 1
-3.954505 -29.845926 25.139141 39.222364 1.439066 0.875075 0.091188 -0.026421 -168459.000000 0 0 1
-4.074605 -31.095146 25.997541 40.735521 1.440502 0.878634 0.087807 -0.016638 -148713.000000 0 0 1
-3.599305 -30.938866 27.310041 41.424712 1.454981 0.850950 0.103338 -0.018957 47379.700000 0 0 1
-3.749005 -32.106656 28.121541 42.845227 1.454555 0.854823 0.097609 -0.030306 -171481.000000 0 0 1
-3.081105 -31.912516 29.509441 43.574178 1.474546 0.826814 0.125777 -0.023438 -121726.000000 0 0 1
-1.676805 -31.875416 29.448141 43.428641 1.518240 0.825648 0.108549 -0.019852 -41814.100000 0 0 1
-1.096905 -31.815656 30.755641 44.264530 1.536333 0.802634 0.112342 -0.021789 24148.300000 0 0 1
-28.726365 2.923014 -9.619059 30.434756 -0.101405 1.892365 0.149700 -0.032744 -99942.900000 0 0 1
-29.401195 2.595214 -10.813159 31.433896 -0.088041 1.921966 0.151420 -0.045754 162927.000000 0 0 1
-30.120285 3.740214 -11.266459 32.375205 -0.123544 1.926230 0.139498 -0.045267 -262754.000000 0 0 1
-30.897725 3.579414 -12.558259 33.543874 -0.115333 1.954528 0.130060 -0.038941 -67612.500000 0 0 1
-32.069095 2.806614 -12.301359 34.461970 -0.087295 1.935802 0.136136 -0.041719 86774.100000 0 0 1
-32.879875 2.802714 -13.438759 35.630628 -0.085035 1.957534 0.117077 -0.034719 -759585.000000 0 0 1
-34.205734 2.087414 -13.210859 36.727596 -0.060950 1.938741 0.122350 -0.039343 -502932.000000 0 0 1
-34.073455 0.685414 -12.913759 36.444963 -0.020113 1.933000 0.136852 -0.041886 -744938.000000 0 0 1
-35.265075 0.095814 -12.570059 37.438497 -0.002717 1.913200 0.133907 -0.043703 -566616.000000 0 0 1
-34.907643 -1.364886 -12.195459 37.001834 0.039080 1.906666 0.132455 -0.053260 296812.000000 0 0 1
-34.666095 -2.290086 -13.210759 37.168627 0.065965 1.934168 0.122770 -0.045418 -83122.500000 0 0 1
-34.027585 -3.434686 -12.762559 36.504199 0.100598 1.927961 0.132277 -0.049210 -46815.100000 0 0 1
-34.548858 -4.708386 -13.468359 37.378994 0.135448 1.939406 0.124189 -0.036870 70546.100000 0 0 1
-34.266917 -5.903386 -12.718359 37.024698 0.170602 1.921448 0.116981 -0.038962 -7241.090000 0 0 1
-35.059020 -6.989886 -13.100759 38.073918 0.196794 1.922063 0.117000 -0.033759 -652048.000000 0 0 1
-34.707194 -8.316686 -12.428159 37.791741 0.235190 1.905892 0.119256 -0.038319 250131.000000 0 0 1
-33.336845 -8.660886 -12.619259 36.682446 0.254180 1.921984 0.114091 -0.036976 688233.000000 0 0 1
-32.971895 -9.206986 -13.905459 36.949645 0.272301 1.956634 0.099309 -0.028720 -574036.000000 0 0 1
-31.692885 -10.045486 -13.935259 36.049163 0.306946 1.967698 0.089795 -0.029317 -378016.000000 0 0 1
-31.884175 -11.370286 -13.548459 36.461552 0.342553 1.951509 0.085247 -0.026649 7897.200000 0 0 1
-30.693445 -12.112486 -13.543559 35.668303 0.375867 1.960278 0.102583 -0.028962 -410587.000000 0 0 1
-30.888965 -13.632686 -13.794859 36.472955 0.415633 1.958671 0.102017 -0.024829 -217696.000000 0 0 1
-31.044535 -13.880286 -15.204859 37.250681 0.420447 1.991252 0.091134 -0.026987 137106.000000 0 0 1
-31.198055 -15.235386 -15.626759 38.074023 0.454279 1.993723 0.091576 -0.022130 -296734.000000 0 0 1
-29.997825 -16.146186 -15.332959 37.358646 0.493774 1.993717 0.079043 -0.009964 -1264000.000000 0 0 1
-28.877305 -15.764086 -15.964759 36.568821 0.499689 2.022576 0.091227 -0.023157 -1632150.000000 0 0 1
-27.793005 -16.665786 -15.975659 36.130613 0.540154 2.028806 0.099990 -0.026590 -613181.000000 0 0 1
-26.497125 -16.039486 -16.366059 35.031566 0.544329 2.056895 0.107858 -0.035802 -979925.000000 0 0 1
-26.394475 -15.701586 -17.730459 35.462336 0.536647 2.094372 0.093068 -0.039045 625146.000000 0 0 1
-25.056605 -15.345286 -18.118059 34.519202 0.549505 2.123358 0.067409 -0.034083 641482.000000 0 0 1
-25.035405 -14.980186 -19.658459 35.180001 0.539213 2.163730 0.069878 -0.034019 -10665.500000 0 0 1
-25.429435 -16.091986 -20.457659 36.388514 0.564195 2.167841 0.083545 -0.035332 -445348.000000 0 0 1
-26.798675 -16.052286 -20.712659 37.481450 0.539681 2.156290 0.090810 -0.041715 -862416.000000 0 0 1
-27.299485 -17.308686 -21.488859 38.815249 0.565066 2.157500 0.092740 -0.041241 -105285.000000 0 0 1
-26.817285 -17.355586 -22.824359 39.259833 0.574390 2.191204 0.093781 -0.027796 304531.000000 0 0 1
-27.391465 -18.467686 -23.552359 40.571682 0.593209 2.190154 0.096127 -0.019869 227081.000000 0 0 1
-26.588745 -18.721686 -24.870559 40.939071 0.613486 2.223708 0.093278 -0.016722 1292370.000000 0 0 1
-25.254375 -19.260386 -24.745259 40.262560 0.651551 2.232672 0.091419 -0.020838 974304.000000 0 0 1
-25.198475 -20.646686 -24.276459 40.627518 0.686436 2.211223 0.090886 -0.019142 377269.000000 0 0 1
-23.678005 -21.028986 -24.149659 39.825522 0.726214 2.222305 0.090993 -0.008182 836254.000000 0 0 1
-23.117605 -21.193586 -25.430479 40.376986 0.742005 2.252126 0.081103 -0.005381 -576150.000000 0 0 1
-21.757605 -21.523686 -25.400889 39.772699 0.779994 2.263541 0.078462 -0.009779 -141669.000000 0 0 1
-21.138405 -21.325886 -26.791149 40.241660 0.789813 2.299304 0.082147 -0.009842 7143.160000 0 0 1
-21.702705 -22.288186 -27.702939 41.656013 0.798707 2.298344 0.127597 -0.008032 93962.100000 0 0 1
-21.910005 -21.620986 -28.926329 42.240358 0.778759 2.325130 0.109544 -0.012673 1113190.000000 0 0 1
-20.647405 -21.835786 -29.887639 42.383815 0.813364 2.353454 0.116242 -0.017517 1294490.000000 0 0 1
-20.546305 -23.181586 -30.322549 43.347359 0.845591 2.345528 0.127273 -0.018840 266059.000000 0 0 1
-19.846505 -23.279186 -31.583839 43.969798 0.864828 2.372163 0.129533 -0.024625 245899.000000 0 0 1
-19.466205 -24.664386 -32.084599 44.907533 0.902649 2.366647 0.133294 -0.023127 -194288.000000 0 0 1
-18.657105 -24.675686 -33.222989 45.395418 0.923407 2.391840 0.127008 -0.020891 -348363.000000 0 0 1
-19.404805 -24.794686 33.666353 46.094970 0.906743 0.751934 0.124536 -0.008467 -236118.000000 0 0 1
-18.544205 -24.753586 32.387179 44.783445 0.927838 0.762379 0.125064 -0.004148 -151039.000000 0 0 1
-18.089505 -23.481986 31.994251 43.614974 0.914394 0.747249 0.100053 -0.008814 -123805.000000 0 0 1
-17.510205 -23.487986 30.693031 42.430589 0.930184 0.762125 0.085572 -0.008617 119630.000000 0 0 1
-16.671705 -22.226386 30.380171 41.169318 0.927240 0.740795 0.068969 -0.004068 -98431.500000 0 0 1
-17.434305 -21.064986 30.138161 40.693947 0.879425 0.736825 0.074542 -0.009822 -53106.900000 0 0 1
-16.709105 -19.856786 30.011281 39.675724 0.871269 0.712983 0.074490 -0.012045 -138598.000000 0 0 1
-16.025205 -19.274686 31.261081 40.069638 0.877193 0.675861 0.086420 -0.012081 220766.000000 0 0 1
-15.470905 -17.965786 31.022011 39.044635 0.859875 0.652568 0.087935 -0.015674 -177188.000000 0 0 1
-14.855405 -17.435186 32.150558 39.475652 0.865121 0.619033 0.094384 -0.015682 -37745.200000 0 0 1
-14.188205 -16.107086 31.811181 38.375703 0.848653 0.593585 0.098300 -0.018969 144703.000000 0 0 1
-13.082305 -16.131086 30.906451 37.236640 0.889384 0.591687 0.098797 -0.027363 269397.000000 0 0 1
-12.685705 -14.808886 30.657581 36.333421 0.862467 0.566500 0.092819 -0.032707 745417.000000 0 0 1
-11.188405 -14.578586 30.236311 35.382906 0.916217 0.546121 0.104878 -0.034141 830585.000000 0 0 1
-10.905905 -13.215686 30.216261 34.736372 0.880863 0.515850 0.099275 -0.033279 29877.500000 0 0 1
-9.499705 -13.089386 30.370041 34.408078 0.942993 0.489341 0.097068 -0.030439 408407.000000 0 0 1
-9.097205 -11.590786 30.182381 33.586926 0.905352 0.454149 0.095369 -0.031181 -77994.700000 0 0 1
-9.561805 -10.752386 31.233151 34.388248 0.843939 0.431712 0.096079 -0.032067 134504.000000 0 0 1
-9.276305 -9.374986 30.959541 33.651647 0.790689 0.402714 0.081733 -0.026050 26584.600000 0 0 1
-9.934205 -8.467286 32.034381 34.591689 0.705849 0.386931 0.056667 -0.027603 480453.000000 0 0 1
-11.329705 -8.362086 31.766291 34.747431 0.635820 0.417253 0.066777 -0.031840 571251.000000 0 0 1
-12.185405 -7.776286 32.750594 35.798828 0.568010 0.415658 0.059106 -0.032273 308742.000000 0 0 1
-12.006205 -6.223986 33.002056 35.665427 0.478257 0.388909 0.037293 -0.019184 -396635.000000 0 0 1
-12.258405 -5.377086 31.905851 34.600070 0.413371 0.397239 0.036254 -0.020789 292035.000000 0 0 1
-12.652805 -4.104786 32.414477 35.037709 0.313705 0.389415 0.035117 -0.016714 -168789.000000 0 0 1
-12.092805 -2.930286 31.512501 33.880086 0.237734 0.376060 0.030285 -0.013469 -752595.000000 0 0 1
-10.732805 -2.738186 31.681731 33.562223 0.249794 0.336337 0.040249 -0.013668 -826453.000000 0 0 1
-10.363605 -1.616686 30.905051 32.636485 0.154749 0.327194 0.032692 -0.011096 -685780.000000 0 0 1
-8.896405 -1.261486 31.073291 32.346357 0.140858 0.281490 0.048052 -0.009305 -508979.000000 0 0 1
-8.534305 -0.833286 32.412592 33.527673 0.097331 0.258629 0.043816 -0.022441 446524.000000 0 0 1
-7.220605 -0.265786 32.385605 33.181850 0.036793 0.219513 0.055444 -0.020185 634742.000000 0 0 1
-6.768105 0.392114 33.720273 34.395026 -0.057871 0.198405 0.083177 -0.032639 49755.300000 0 0 1
-7.412105 1.640414 34.019877 34.856596 -0.217805 0.219551 0.077507 -0.033036 60388.500000 0 0 1
-6.748405 2.742314 33.437484 34.221727 -0.385981 0.214498 0.092708 -0.027287 69786.100000 0 0 1
-7.565705 4.072514 33.523631 34.607212 -0.493805 0.250901 0.094402 -0.037759 443786.000000 0 0 1
-8.815305 3.962314 32.861747 34.253525 -0.422422 0.286041 0.066825 -0.023785 150236.000000 0 0 1
-9.562805 5.175114 32.856668 34.609098 -0.496040 0.319588 0.044687 -0.014586 -78619.800000 0 0 1
-10.925905 4.950514 32.185510 34.348072 -0.425428 0.356741 0.028182 -0.008591 195132.000000 0 0 1
-11.880905 5.968414 32.482601 35.098394 -0.465529 0.388515 0.040943 -0.011049 559305.000000 0 0 1
-12.904305 6.167414 31.513161 34.606898 -0.445840 0.426054 0.010601 -0.006106 59607.500000 0 0 1
-13.733705 7.402314 31.716721 35.346277 -0.494350 0.457150 0.042301 -0.014672 -424736.000000 0 0 1
-14.648705 7.467714 32.771671 36.665157 -0.471446 0.465027 0.048524 -0.014679 70235.800000 0 0 1
-15.214305 8.764114 32.854360 37.251762 -0.522619 0.490803 0.048240 -0.005530 683019.000000 0 0 1
-16.208805 8.915814 -33.952519 38.665109 -0.502889 2.642710 0.048383 0.005860 977253.000000 0 0 1
-15.501705 9.226814 -32.725059 37.367987 -0.536892 2.637786 0.044719 0.003543 -530332.000000 0 0 1
-16.267605 9.789314 -31.750729 36.994249 -0.541718 2.602668 0.057554 0.002679 -1561660.000000 0 0 1
-15.640705 10.228714 -30.420589 35.702527 -0.579168 2.590699 0.086948 -0.008711 516865.000000 0 0 1
-14.726205 11.355314 -30.445639 35.675499 -0.656866 2.593279 0.076435 -0.010167 1896290.000000 0 0 1
-13.413705 11.094714 -31.051759 35.598201 -0.691059 2.630651 0.072346 -0.018451 1151150.000000 0 0 1
-12.596305 12.407414 -31.132619 35.802944 -0.777844 2.625096 0.072559 -0.019822 185246.000000 0 0 1
-13.043105 13.292214 -32.177059 37.177529 -0.794857 2.616939 0.066383 -0.024070 568980.000000 0 0 1
-12.166105 14.424614 -32.291849 37.401164 -0.870131 2.612750 0.064119 -0.033420 257273.000000 0 0 1
-12.420405 15.467214 -31.165909 36.943403 -0.894220 2.574772 0.071076 -0.030606 -18356.900000 0 0 1
-13.634705 16.173314 -31.230419 37.720291 -0.870358 2.546234 0.063341 -0.026639 -143012.000000 0 0 1
-13.707705 17.235414 -30.318249 37.472081 -0.898914 2.513397 0.034755 -0.021429 206453.000000 0 0 1
-15.126805 17.872114 -30.329799 38.316177 -0.868401 2.484164 0.020791 -0.025482 64467.900000 0 0 1
-15.458205 18.577314 -31.518739 39.717800 -0.876786 2.487445 0.027646 -0.028115 239805.000000 0 0 1
-16.773905 19.118314 -31.520929 40.502380 -0.850624 2.462669 0.027485 -0.024935 532470.000000 0 0 1
-17.175705 20.275214 -30.540569 40.482286 -0.867972 2.425563 0.015084 -0.037995 -835160.000000 0 0 1
-16.439905 21.450014 -30.867199 41.026303 -0.916864 2.422458 0.022569 -0.029109 91561.500000 0 0 1
-16.920005 22.702514 -30.478579 41.600895 -0.930315 2.392993 0.011273 -0.032159 -568070.000000 0 0 1
-18.283305 23.092514 -31.047319 42.795788 -0.901111 2.382522 0.024609 -0.034237 -271903.000000 0 0 1
-19.411505 22.466614 -30.453829 42.532235 -0.858222 2.368877 0.036168 -0.040957 303192.000000 0 0 1
-20.419405 22.307414 -31.434369 43.619862 -0.829557 2.375526 0.058755 -0.039511 583051.000000 0 0 1
-21.747805 21.529214 -31.027929 43.579886 -0.780347 2.363108 0.067821 -0.050805 119766.000000 0 0 1
-22.691605 22.064714 -30.219709 43.760614 -0.771392 2.333071 0.088970 -0.038897 -183052.000000 0 0 1
-23.516105 23.068214 -30.860399 45.138829 -0.775784 2.323586 0.093415 -0.038993 -457168.000000 0 0 1
-24.836905 22.609214 -31.466819 46.024006 -0.738481 2.323623 0.099947 -0.040048 -882147.000000 0 0 1
-24.716905 21.588314 -32.445359 46.148478 -0.717936 2.350494 0.120052 -0.042416 -221630.000000 0 0 1
-25.923175 21.384014 -33.127659 47.188228 -0.689740 2.349044 0.132744 -0.037191 -363267.000000 0 0 1
-25.821825 20.244014 33.886817 47.168879 -0.664901 0.769276 0.138332 -0.029598 47469.000000 0 0 1
-25.526495 18.931614 -33.602879 46.251070 -0.638133 2.384058 0.131964 -0.035834 225594.000000 0 0 1
-25.013705 18.090014 33.447817 45.515827 -0.626130 0.745334 0.126592 -0.046155 -274410.000000 0 0 1
-24.820505 16.645314 33.916996 45.204940 -0.590740 0.722290 0.091985 -0.036842 408487.000000 0 0 1
-25.955525 15.754214 -34.018588 45.597685 -0.545528 2.412921 0.091780 -0.022404 799811.000000 0 0 1
-26.257085 15.196514 32.807684 44.684591 -0.524654 0.746300 0.101830 -0.025074 -205135.000000 0 0 1
-27.122525 13.912214 32.928674 44.871802 -0.473946 0.746840 0.070595 -0.014041 1201300.000000 0 0 1
-28.488495 14.150614 33.344581 46.083569 -0.461015 0.761839 0.073536 -0.013036 1341670.000000 0 0 1
-29.434985 13.083314 33.419979 46.416446 -0.418256 0.766990 0.064422 -0.011520 532235.000000 0 0 1
-29.188265 12.092914 -33.512949 46.057694 -0.392779 2.385657 0.057788 -0.012074 -813076.000000 0 0 1
-28.123295 11.211414 -33.603709 45.230795 -0.379344 2.408246 0.052918 -0.022124 -482439.000000 0 0 1
-28.498465 9.965014 33.880269 45.379915 -0.336379 0.727872 0.060394 -0.010896 -335024.000000 0 0 1
-27.358855 8.893314 33.946662 44.496897 -0.314288 0.703010 0.046688 -0.015173 261834.000000 0 0 1
-26.320795 8.893214 33.022555 43.155100 -0.325835 0.699435 0.039118 -0.014765 175209.000000 0 0 1
-25.440835 10.022614 32.953033 42.820454 -0.375287 0.692640 0.026846 -0.012590 -571376.000000 0 0 1
-24.102805 9.636814 32.298845 41.437046 -0.380352 0.676980 0.035187 -0.009007 -589869.000000 0 0 1
-24.263405 9.233814 30.979841 40.419385 -0.363641 0.697485 0.034071 -0.015089 791387.000000 0 0 1
-22.970005 8.957414 30.431731 39.165631 -0.371823 0.680909 0.040330 -0.016138 729313.000000 0 0 1
-23.007105 8.875714 28.895541 37.987596 -0.368189 0.706471 0.057971 -0.023073 49759.800000 0 0 1
-23.359805 10.096314 28.295841 38.056152 -0.407961 0.732464 0.049017 -0.019572 133613.000000 0 0 1
-23.343105 9.833214 26.892621 36.943277 -0.398688 0.755478 0.052340 -0.022750 -609974.000000 0 0 1
-23.518805 11.126714 26.093131 36.848195 -0.441896 0.783957 0.058864 -0.023902 358074.000000 0 0 1
-24.737205 11.802314 26.379821 38.041016 -0.445167 0.804520 0.075666 -0.026667 -80586.800000 0 0 1
-25.785145 11.371314 25.559931 38.045901 -0.415346 0.834136 0.073021 -0.023069 -221710.000000 0 0 1
-27.168685 11.992714 25.899701 39.405040 -0.415693 0.853607 0.079335 -0.018093 323879.000000 0 0 1
-27.284445 13.324314 25.456741 39.623528 -0.454283 0.873085 0.078033 -0.015674 47572.200000 0 0 1
-28.564295 13.824114 25.815311 40.907889 -0.450737 0.887878 0.077513 -0.020921 353096.000000 0 0 1
-28.822265 15.268614 25.327501 41.295712 -0.487164 0.910539 0.080407 -0.019075 212267.000000 0 0 1
-27.886215 16.199214 25.859431 41.337220 -0.526260 0.894931 0.093344 -0.020922 27815.400000 0 0 1
-27.915275 17.417114 25.189331 41.438157 -0.557828 0.917411 0.069518 -0.016919 -171271.000000 0 0 1
-23.267505 -9.453486 31.922801 40.617858 0.385922 0.666597 0.036502 -0.006810 -1034330.000000 0 0 1
-22.271705 -9.066186 31.079211 39.295571 0.386588 0.658504 0.040293 -0.014196 -1139780.000000 0 0 1
-22.727805 -9.043886 29.750091 38.515100 0.378713 0.688143 0.038217 -0.015593 -265916.000000 0 0 1
-21.739705 -8.850686 28.567181 36.973413 0.386630 0.687805 0.057791 -0.025548 -175692.000000 0 0 1
-21.256505 -7.501186 28.308371 36.186609 0.339246 0.672465 0.062292 -0.030220 98935.800000 0 0 1
-20.110905 -7.135386 29.054391 36.048854 0.340946 0.633480 0.057095 -0.031957 -237127.000000 0 0 1
-18.750605 -7.301486 28.304161 34.727833 0.371335 0.618019 0.067212 -0.027882 -267487.000000 0 0 1
-18.334905 -8.602086 28.047331 34.595049 0.438676 0.625394 0.061412 -0.035022 95922.000000 0 0 1
-18.004805 -9.371586 29.210341 35.570263 0.479916 0.607284 0.078396 -0.033681 -745346.000000 0 0 1
-16.688305 -9.063186 29.981551 35.489918 0.497519 0.564623 0.082626 -0.035192 -88930.000000 0 0 1
-15.528305 -9.530486 29.326811 34.525646 0.550468 0.555909 0.069379 -0.029611 -183635.000000 0 0 1
-14.338005 -9.031086 29.925191 34.389765 0.562094 0.515234 0.060586 -0.032498 802458.000000 0 0 1
-13.099905 -9.849686 29.441341 33.695940 0.644710 0.507966 0.077484 -0.033544 231164.000000 0 0 1
-12.720705 -9.668786 28.073241 32.301836 0.649923 0.517434 0.071063 -0.033135 -161419.000000 0 0 1
-11.732205 -10.598686 27.698081 31.892953 0.734682 0.518688 0.088918 -0.032101 -221047.000000 0 0 1
-11.151605 -10.514486 26.244141 30.391901 0.756000 0.528580 0.078749 -0.034107 -149490.000000 0 0 1
-12.024805 -10.766386 25.184811 29.912969 0.730239 0.569935 0.061662 -0.031588 -566126.000000 0 0 1
-11.390805 -10.521486 23.965921 28.545008 0.745746 0.574280 0.053230 -0.031013 172806.000000 0 0 1
-12.309205 -10.839186 22.732171 28.031341 0.721979 0.625013 0.048696 -0.034060 -403681.000000 0 0 1
-12.441205 -12.227986 22.450571 28.431239 0.776755 0.660567 0.050251 -0.029759 110524.000000 0 0 1
-13.730105 -12.521386 21.961471 28.768161 0.739387 0.702243 0.036842 -0.021762 367960.000000 0 0 1
-14.940705 -12.421086 22.957571 30.075872 0.693572 0.702357 0.029843 -0.019098 -562133.000000 0 0 1
-16.097805 -12.973986 22.359571 30.453473 0.678357 0.746278 0.023075 -0.003219 -270239.000000 0 0 1
-17.105805 -12.928286 23.334311 31.689733 0.647192 0.743156 0.023954 -0.003668 -890693.000000 0 0 1
-18.430605 -13.587386 23.019971 32.468805 0.635271 0.782735 0.059438 -0.012422 -999371.000000 0 0 1
-18.418505 -15.005786 22.949071 33.031421 0.683648 0.802703 0.048473 -0.012989 369434.000000 0 0 1
-19.671205 -15.689886 22.922471 34.037751 0.673280 0.831940 0.067946 -0.015752 592876.000000 0 0 1
-20.474405 -15.681086 24.305741 35.438210 0.653592 0.815008 0.063462 -0.015964 -51018.300000 0 0 1
-19.930105 -16.542486 25.244071 36.168025 0.692783 0.798242 0.062672 -0.009661 -238186.000000 0 0 1
-20.682605 -16.539986 26.412721 37.402849 0.674561 0.786724 0.050857 -0.011954 -426655.000000 0 0 1
-20.272805 -17.520786 27.483501 38.383686 0.712709 0.772712 0.056369 -0.012518 -197844.000000 0 0 1
-20.623905 -18.848586 27.208631 38.999029 0.740452 0.798650 0.072265 -0.007921 130593.000000 0 0 1
-20.186805 -19.658686 28.271661 39.915634 0.772145 0.783730 0.067138 -0.005740 -253085.000000 0 0 1
-20.163905 -21.196486 27.932961 40.449034 0.810358 0.808517 0.074544 -0.006096 49797.600000 0 0 1
-21.451405 -21.751586 27.706561 41.242548 0.792346 0.834166 0.082719 -0.007770 325738.000000 0 0 1
-21.389305 -23.119986 27.359501 41.720240 0.824262 0.855575 0.098467 0.002116 497134.000000 0 0 1
-22.813405 -23.617686 26.968241 42.491559 0.802718 0.883211 0.098624 0.001610 366982.000000 0 0 1
-23.583405 -24.106186 28.037471 43.856413 0.796360 0.877207 0.092955 0.001573 633370.000000 0 0 1
-24.887505 -24.470586 27.558991 44.471288 0.776952 0.902432 0.078018 0.001847 651303.000000 0 0 1
-25.732965 -25.412926 28.421191 45.997461 0.779141 0.904745 0.054384 0.002631 153409.000000 0 0 1
-26.465815 -24.798886 29.499601 46.750942 0.752893 0.887961 0.039523 0.004495 529135.000000 0 0 1
-27.131945 -25.737686 30.344971 48.160027 0.759033 0.889132 0.033579 0.011673 -225135.000000 0 0 1
-28.121905 -25.142586 31.329721 49.036135 0.729522 0.877715 0.027964 0.011410 -6301.720000 0 0 1
-29.214775 -24.574586 30.617031 48.936857 0.699345 0.894840 0.033143 0.007996 -174809.000000 0 0 1
-30.075945 -23.784886 31.375731 49.545128 0.669123 0.885018 0.037842 -0.004243 -846854.000000 0 0 1
-31.301785 -23.405986 30.570471 49.620516 0.642061 0.907033 0.045260 -0.010885 -801445.000000 0 0 1
-32.177855 -24.491286 30.367331 50.570863 0.650582 0.926682 0.041905 -0.008732 553817.000000 0 0 1
-33.373555 -24.036686 29.701121 50.731775 0.624175 0.945356 0.049093 -0.008262 1085310.000000 0 0 1
-34.667428 -24.789186 30.151321 52.205713 0.620760 0.955074 0.045391 -0.005972 297160.000000 0 0 1
-34.633726 -26.166896 29.977971 52.753011 0.647032 0.966394 0.052143 -0.012640 -499752.000000 0 0 1
-35.599924 -26.788076 30.749551 54.134005 0.645084 0.966690 0.049869 -0.011030 -377515.000000 0 0 1
-35.430474 -28.330206 30.909191 54.893507 0.674497 0.972694 0.054925 -0.015189 -141163.000000 0 0 1
-34.423582 -28.602836 31.841531 54.927118 0.693305 0.952430 0.049458 -0.008004 -359450.000000 0 0 1
-34.079715 -29.929606 31.984591 55.499751 0.720653 0.956600 0.059654 -0.026155 326421.000000 0 0 1
-33.010895 -30.257376 33.065452 55.664639 0.741904 0.934760 0.051498 -0.027111 433799.000000 0 0 1
-33.537305 -29.970116 -33.691079 56.196507 0.729287 2.213701 0.043231 -0.016721 -75845.400000 0 0 1
-32.486075 -29.878176 -32.764199 54.968565 0.743605 2.209373 0.041931 -0.020387 2230.470000 0 0 1
-32.880605 -29.456236 -31.335179 54.135916 0.730520 2.188082 0.038429 -0.021130 23494.300000 0 0 1
-33.197145 -28.094836 -31.103639 53.467809 0.702344 2.191646 0.042946 -0.019595 91221.600000 0 0 1
-32.036365 -27.275546 -30.946109 52.229740 0.705302 2.204955 0.047672 -0.015871 174034.000000 0 0 1
-32.316955 -25.811936 -30.548599 51.418464 0.673955 2.206964 0.029416 -0.004281 -289293.000000 0 0 1
-32.643165 -25.652656 -29.171529 50.740645 0.666054 2.183296 0.029615 -0.010793 23239.300000 0 0 1
-32.668045 -24.259786 -28.943309 49.934492 0.638758 2.189065 0.040979 -0.016566 -41306.600000 0 0 1
-31.413385 -23.627586 -28.295439 48.432380 0.644876 2.194722 0.045703 -0.015472 -170043.000000 0 0 1
-31.352685 -22.207486 -28.264929 47.697688 0.616283 2.205060 0.053662 -0.011631 375910.000000 0 0 1
-30.117895 -21.818986 -27.673849 46.357282 0.626949 2.210514 0.061830 -0.014347 245742.000000 0 0 1
-30.019945 -20.283786 -27.796909 45.665054 0.594215 2.225234 0.082423 -0.023394 57998.900000 0 0 1
-29.553155 -19.900686 -29.098109 46.001372 0.592640 2.255636 0.080707 -0.013634 277733.000000 0 0 1
-29.380945 -18.519386 -29.227149 45.392001 0.562415 2.270359 0.080715 -0.017619 73532.500000 0 0 1
-28.619105 -18.197786 -30.557129 45.650309 0.566372 2.304162 0.085715 -0.014809 380590.000000 0 0 1
-29.438645 -18.293986 -31.719889 46.983562 0.556026 2.311934 0.085080 -0.022396 22646.400000 0 0 1
-30.353365 -17.237986 -31.773849 47.202250 0.516490 2.309247 0.091626 -0.025163 -339391.000000 0 0 1
-31.036075 -17.030986 -33.192029 48.528375 0.501882 2.323989 0.090002 -0.038055 4988.770000 0 0 1
-32.100885 -17.850686 -33.597639 49.778661 0.507500 2.311680 0.090951 -0.035085 142284.000000 0 0 1
-33.321305 -17.155786 -33.443449 50.230415 0.475464 2.299363 0.089688 -0.034433 2271.950000 0 0 1
-34.504520 -17.628586 33.745663 51.381891 0.472335 0.854280 0.087538 -0.039608 100540.000000 0 0 1
-34.942304 -18.989686 33.931139 52.277098 0.497807 0.864444 0.067746 -0.032637 519948.000000 0 0 1
-35.757022 -19.482286 32.860315 52.325179 0.498882 0.891813 0.070449 -0.034599 75011.500000 0 0 1
-36.246415 -20.935186 33.008893 53.307332 0.523771 0.903049 0.054330 -0.026873 -146064.000000 0 0 1
-35.222098 -21.846986 32.780435 52.843580 0.555186 0.901634 0.063923 -0.023844 -996.248000 0 0 1
-35.528686 -22.900286 33.688467 54.052044 0.572540 0.897892 0.053552 -0.017224 -683736.000000 0 0 1
-34.322291 -23.846186 33.808107 53.755449 0.607209 0.890628 0.052386 -0.012676 603993.000000 0 0 1
-33.310905 -23.413986 -33.331659 52.619679 0.612665 2.256793 0.036011 -0.018092 759829.000000 0 0 1
-32.507515 -22.250886 -33.676539 51.826149 0.600237 2.278115 0.039762 -0.020225 -340684.000000 0 0 1
-31.190235 -22.278186 -32.858209 50.485743 0.620238 2.279488 0.039005 -0.016512 -232730.000000 0 0 1
-30.290285 -23.312386 -33.221809 50.642445 0.655948 2.286313 0.040640 -0.007233 339835.000000 0 0 1
-29.006165 -23.167286 -32.641509 49.432265 0.673949 2.292052 0.044635 -0.009270 -198211.000000 0 0 1
-28.871045 -23.707486 -31.230159 48.691939 0.687505 2.267095 0.050036 0.004016 -1080640.000000 0 0 1
-28.994575 -25.113246 -31.036979 49.342219 0.713788 2.251081 0.043137 0.000874 97019.800000 0 0 1
-28.635255 -25.473406 -29.706099 48.490458 0.727029 2.230164 0.040025 -0.005538 -371800.000000 0 0 1
-28.021005 -26.876876 -29.564939 48.801934 0.764560 2.221586 0.034691 -0.007505 163533.000000 0 0 1
-28.890175 -27.966206 -29.843299 50.073679 0.769149 2.209291 0.029313 -0.002353 211812.000000 0 0 1
-28.223955 -29.133406 -29.468439 50.137170 0.801253 2.199079 0.015319 -0.008296 184666.000000 0 0 1
-29.021015 -30.427026 -29.792589 51.532723 0.809045 2.187231 0.014778 0.009114 -220173.000000 0 0 1
-28.828255 -30.751646 -31.175889 52.427741 0.817669 2.207620 0.039518 -0.013031 360600.000000 0 0 1
-29.314405 -32.036376 -31.582869 53.694891 0.829736 2.199617 0.060277 -0.001624 -466543.000000 0 0 1
-28.718295 -32.531086 -32.920589 54.468130 0.847568 2.219810 0.047690 -0.015758 -685861.000000 0 0 1
-27.328535 -32.431206 -32.945019 53.702944 0.870578 2.231240 0.035467 -0.012723 -759736.000000 0 0 1
-26.888665 -33.062666 33.935781 54.477311 0.888020 0.898308 0.053069 -0.016540 -165804.000000 0 0 1
-25.356855 -33.200326 33.818255 53.748545 0.918551 0.890281 0.048601 -0.018100 55656.000000 0 0 1
-25.014405 -33.900946 32.626219 53.286628 0.935105 0.911858 0.062574 -0.009712 519575.000000 0 0 1
-24.019105 33.177285 32.819496 52.485893 -0.944169 0.895279 0.051615 -0.001906 108602.000000 0 0 1
-23.942605 32.328897 31.480321 51.082449 -0.933342 0.906805 0.058132 -0.012237 -139822.000000 0 0 1
-25.181335 31.727951 31.137631 51.091238 -0.899931 0.915428 0.077307 -0.035316 130361.000000 0 0 1
-25.143435 30.870901 30.007201 49.856163 -0.887294 0.924949 0.068605 -0.028603 225956.000000 0 0 1
-26.526635 30.315721 29.539841 49.953053 -0.851959 0.938062 0.086185 -0.030480 374111.000000 0 0 1
-27.169875 29.487861 30.466301 50.358034 -0.826287 0.921038 0.087830 -0.031286 524638.000000 0 0 1
-28.538725 29.204301 30.186331 50.779569 -0.796924 0.934205 0.088790 -0.038930 662378.000000 0 0 1
-29.184535 28.087351 31.020901 51.018944 -0.766243 0.917223 0.083463 -0.045493 -211144.000000 0 0 1
-28.518135 26.853751 30.866161 49.871113 -0.755349 0.903431 0.086158 -0.038322 -221246.000000 0 0 1
-29.070585 25.692221 31.404631 49.914327 -0.723785 0.890311 0.074976 -0.030225 356989.000000 0 0 1
-30.049035 24.914601 30.444881 49.503259 -0.692253 0.908401 0.063538 -0.026367 423200.000000 0 0 1
-29.364165 24.501391 29.288491 48.170407 -0.695366 0.917234 0.054886 -0.023358 -252660.000000 0 0 1
-30.192175 23.825671 28.366801 47.790223 -0.668080 0.935310 0.042090 -0.016835 31496.000000 0 0 1
-29.476765 23.502451 27.033801 46.390422 -0.673105 0.948694 0.043241 -0.023023 -384930.000000 0 0 1
-28.362115 22.679311 27.102071 45.313166 -0.674518 0.929661 0.036473 -0.016821 -786829.000000 0 0 1
-27.941415 22.234611 25.841371 44.078079 -0.672149 0.944357 0.046458 -0.014492 -294054.000000 0 0 1
-26.575305 21.549611 26.005651 42.975883 -0.681345 0.920877 0.061822 -0.018185 -386821.000000 0 0 1
-26.586335 20.463611 26.869031 42.982990 -0.655993 0.895526 0.061427 -0.023467 1254940.000000 0 0 1
-25.207135 20.116411 27.149601 42.156500 -0.673547 0.871056 0.067344 -0.020488 1074710.000000 0 0 1
-25.146395 18.916311 28.178041 42.239437 -0.644938 0.840484 0.081626 -0.026123 -723084.000000 0 0 1
-23.894305 18.418411 28.479201 41.487837 -0.656699 0.814205 0.084280 -0.027509 -598862.000000 0 0 1
-24.071505 17.438311 29.489211 41.870582 -0.626940 0.789368 0.080976 -0.024014 428001.000000 0 0 1
-22.918105 16.374011 29.485111 40.776458 -0.620363 0.762529 0.078407 -0.029165 810357.000000 0 0 1
-21.710005 16.844611 30.077031 40.739330 -0.659867 0.740280 0.106399 -0.027153 333141.000000 0 0 1
-20.613005 15.987411 29.831451 39.628383 -0.659684 0.718521 0.082699 -0.026654 496838.000000 0 0 1
-19.346505 16.370311 30.658501 39.777104 -0.702263 0.690767 0.062306 -0.024685 139134.000000 0 0 1
-19.486805 16.196511 32.072924 40.874625 -0.693450 0.668639 0.048757 -0.023228 567296.000000 0 0 1
-18.281205 16.523411 32.763290 40.995838 -0.734936 0.644857 0.051226 -0.024203 -202178.000000 0 0 1
-18.372705 16.085411 -33.792609 41.692171 -0.719116 2.515847 0.030859 -0.027602 747260.000000 0 0 1
-19.300105 16.835911 -32.961289 41.741928 -0.717311 2.481026 0.055423 -0.028622 2207630.000000 0 0 1
-20.716505 16.664011 -33.280969 42.596781 -0.677408 2.467546 0.067554 -0.028588 1001910.000000 0 0 1
-21.628305 17.442711 -32.315079 42.618025 -0.678677 2.431420 0.075952 -0.040656 -155227.000000 0 0 1
-21.811005 16.872711 -31.019329 41.504302 -0.658427 2.414901 0.065889 -0.039667 391496.000000 0 0 1
-22.954505 17.477511 -30.416419 41.922920 -0.650756 2.382603 0.061627 -0.043564 73551.200000 0 0 1
-23.049905 17.115511 -28.933819 40.760333 -0.638711 2.360085 0.066142 -0.045931 338310.000000 0 0 1
-23.847205 15.976511 -28.534919 40.474433 -0.590274 2.353235 0.057793 -0.047391 -154600.000000 0 0 1
-25.238125 16.145111 -28.611189 41.427379 -0.569108 2.333163 0.089517 -0.046680 -466375.000000 0 0 1
-26.002145 15.120711 -27.798719 40.957493 -0.526719 2.316816 0.091732 -0.038797 -277879.000000 0 0 1
-25.776545 13.799011 -28.226689 40.639746 -0.491512 2.338603 0.046037 -0.020580 6913.610000 0 0 1
-26.533055 12.880211 -27.472819 40.307054 -0.451932 2.320727 0.034771 -0.015128 37139.300000 0 0 1
-26.055435 11.394511 -27.706519 39.703549 -0.412258 2.343166 0.029767 -0.014678 826302.000000 0 0 1
-24.953205 11.039811 -26.846359 38.278804 -0.416533 2.348068 0.033037 -0.009211 466038.000000 0 0 1
-24.239005 9.932911 -27.337439 37.861955 -0.388918 2.377527 0.021840 0.001102 475076.000000 0 0 1
-23.203905 9.358611 -26.298809 36.299203 -0.383366 2.381106 0.058357 -0.010694 266293.000000 0 0 1
-23.813105 8.501511 -25.349679 35.804272 -0.342906 2.357469 0.060227 -0.014508 -323489.000000 0 0 1
-22.936605 7.671911 -24.589159 34.490184 -0.322785 2.364467 0.096567 -0.021182 -410026.000000 0 0 1
-23.510805 6.613211 -23.599959 33.962488 -0.274199 2.339054 0.091584 -0.016443 -21487.500000 0 0 1
-24.023705 5.410211 -24.175059 34.508582 -0.221508 2.346967 0.098075 -0.023475 336155.000000 0 0 1
-24.135605 4.332011 -23.280859 33.812603 -0.177595 2.330251 0.100865 -0.023585 -189884.000000 0 0 1
35.544529 24.803614 -10.191859 44.525350 0.609260 1.801744 0.056090 -0.001618 171928.000000 0 0 1
36.494879 24.329714 -9.246359 44.825287 0.587999 1.778563 0.072322 -0.007420 -236501.000000 0 0 1
-36.573795 23.370914 -9.779459 44.491347 -0.568608 1.792412 0.088305 -0.014146 -156632.000000 0 0 1
-35.535019 22.938814 -8.705559 43.182329 -0.573224 1.773788 0.077713 -0.012348 272929.000000 0 0 1
-36.076080 21.934914 -7.798659 42.935336 -0.546294 1.753448 0.088248 -0.019500 296789.000000 0 0 1
-35.077851 21.310514 -7.012859 41.638610 -0.545931 1.740025 0.088462 -0.021530 -14582.400000 0 0 1
-35.628763 20.269714 -6.007659 41.429000 -0.517249 1.716320 0.092799 -0.002176 50752.500000 0 0 1
-36.077726 19.024714 -6.523759 41.304982 -0.485268 1.729402 0.083056 -0.002031 493238.000000 0 0 1
-36.726335 18.232514 -5.537259 41.375228 -0.460798 1.705029 0.091094 -0.014924 62040.800000 0 0 1
36.485519 16.923314 -6.045359 40.671095 0.434301 1.719989 0.084632 -0.003540 263867.000000 0 0 1
35.276619 17.163214 -6.736859 39.804535 0.452816 1.740863 0.086297 -0.009479 -34348.400000 0 0 1
34.734219 16.064214 -7.335659 38.965842 0.433192 1.760185 0.085777 -0.006266 29276.200000 0 0 1
33.840489 16.405714 -8.555559 38.568429 0.451410 1.794485 0.078580 -0.025083 97013.600000 0 0 1
33.124469 15.280514 -9.024059 37.578693 0.432216 1.813304 0.098534 -0.033701 -62287.800000 0 0 1
32.606279 15.612514 -10.286059 37.586208 0.446560 1.847999 0.094555 -0.028411 -451111.000000 0 0 1
31.686269 14.524414 -10.962859 36.539876 0.429802 1.875515 0.081486 -0.031178 542304.000000 0 0 1
30.397739 14.362314 -10.383359 35.186826 0.441390 1.870348 0.072046 -0.021126 478163.000000 0 0 1
30.461719 13.749414 -9.104459 34.638907 0.423990 1.836760 0.093001 -0.021208 -433775.000000 0 0 1
29.421739 12.598914 -8.880059 33.214858 0.404593 1.841440 0.085167 -0.015872 378471.000000 0 0 1
29.860609 11.452414 -9.610259 33.394173 0.366227 1.862707 0.090060 -0.020660 963929.000000 0 0 1
28.860059 10.436814 -9.461659 32.114686 0.347002 1.869855 0.121269 -0.020220 -25461.500000 0 0 1
29.348269 9.114214 -9.977559 32.310083 0.301111 1.884734 0.127501 -0.022909 -283546.000000 0 0 1
30.359279 8.552614 -9.170159 32.846991 0.274597 1.853734 0.120362 -0.022090 255309.000000 0 0 1
30.450929 7.147714 -9.177259 32.597100 0.230555 1.856191 0.125859 -0.022808 -806130.000000 0 0 1
31.516969 6.615614 -8.227859 33.238281 0.206903 1.820938 0.141786 -0.022250 989574.000000 0 0 1
32.818649 7.109414 -8.703259 34.689396 0.213331 1.824397 0.131768 -0.019073 851632.000000 0 0 1
33.778349 6.689014 -7.761659 35.298202 0.195497 1.792496 0.125908 -0.019827 749412.000000 0 0 1
35.247899 6.915914 -8.308059 36.868253 0.193747 1.798093 0.117773 -0.020770 977749.000000 0 0 1
35.652599 5.974214 -9.291159 37.324585 0.166025 1.822370 0.129788 -0.020711 -222693.000000 0 0 1
-36.877625 6.061914 -9.540059 38.570958 -0.162922 1.820728 0.118224 -0.018952 -1011960.000000 0 0 1
-36.391255 5.220914 -10.753759 38.304370 -0.142494 1.855367 0.118686 -0.027965 -704811.000000 0 0 1
-35.004453 5.196014 -10.858559 37.016464 -0.147363 1.868519 0.115447 -0.031854 -500666.000000 0 0 1
-34.295428 6.190114 -11.502559 36.698812 -0.178571 1.889601 0.097885 -0.028748 -587072.000000 0 0 1
-33.527695 7.168214 -10.606159 35.888442 -0.210629 1.870808 0.102863 -0.025836 -138888.000000 0 0 1
-34.368319 8.085614 -9.830959 36.649779 -0.231062 1.842363 0.104914 -0.017877 825061.000000 0 0 1
-34.709277 9.316914 -10.503659 37.441497 -0.262245 1.855148 0.102738 -0.017305 -202823.000000 0 0 1
-35.470625 10.344414 -9.726959 38.207145 -0.283763 1.828215 0.098802 -0.012430 -162660.000000 0 0 1
-34.719489 10.879714 -8.666059 37.402028 -0.303669 1.804621 0.082049 -0.006385 -188323.000000 0 0 1
-35.457998 11.858514 -7.972659 38.229011 -0.322745 1.780888 0.091386 -0.009411 -283090.000000 0 0 1
-34.667071 12.806714 -7.088259 37.630588 -0.353870 1.760293 0.104142 -0.008305 -142017.000000 0 0 1
-33.875265 13.766114 -7.758759 37.379645 -0.385991 1.779883 0.080316 -0.008987 116637.000000 0 0 1
-33.195935 14.630314 -6.823259 36.913048 -0.415115 1.756712 0.089006 -0.008301 189877.000000 0 0 1
-32.331965 15.669314 -7.560559 36.715738 -0.451283 1.778202 0.067135 -0.005453 236978.000000 0 0 1
-33.083845 16.664614 -8.264759 37.954663 -0.466610 1.790308 0.051549 -0.005842 327622.000000 0 0 1
-32.183955 17.682914 -8.638359 37.724179 -0.502407 1.801834 0.050924 -0.002997 460263.000000 0 0 1
-32.907955 18.777414 -9.487159 39.058046 -0.518524 1.816150 0.027012 -0.004870 353207.000000 0 0 1
-32.920555 18.434214 -10.867159 39.264212 -0.510458 1.851228 0.008798 -0.001310 -227392.000000 0 0 1
-33.980425 19.082314 -11.520259 40.638902 -0.511681 1.858216 0.007755 -0.010239 -776722.000000 0 0 1
-33.718485 19.388714 -13.000359 41.010582 -0.521847 1.893361 -0.011774 0.010366 -284310.000000 0 0 1
-32.718275 20.335614 -13.277959 40.747110 -0.556105 1.902720 -0.010559 0.002322 -76340.100000 0 0 1
-32.709485 20.715214 -14.675659 41.405380 -0.564552 1.933110 -0.024748 0.002561 -263777.000000 0 0 1
-31.679715 21.785614 -14.978659 41.262302 -0.602412 1.942293 0.007187 -0.016349 1047060.000000 0 0 1
-30.283515 21.390914 -14.803259 39.922412 -0.614978 1.950667 0.010128 -0.009826 1115660.000000 0 0 1
-29.336575 22.363414 -14.800959 39.747017 -0.651330 1.952368 0.032986 -0.009738 -591946.000000 0 0 1
-28.785235 22.883714 -16.152059 40.163953 -0.671673 1.984664 0.020871 -0.021588 -715578.000000 0 0 1
-29.795595 23.478814 -16.905259 41.530952 -0.667379 1.990021 0.031105 -0.010447 51434.500000 0 0 1
-29.207025 24.155314 -18.000759 41.958990 -0.691011 2.014191 0.020735 -0.009167 7005.040000 0 0 1
-28.425705 25.467214 -17.599159 42.027730 -0.730557 2.002866 0.024834 -0.015916 224103.000000 0 0 1
-29.276615 26.530814 -17.277859 43.122253 -0.736236 1.983046 0.036752 -0.017870 116202.000000 0 0 1
-28.582075 27.777214 -17.357859 43.471875 -0.771118 1.981538 0.045072 -0.017499 146899.000000 0 0 1
-29.354085 28.959214 -16.744359 44.504741 -0.778627 1.956529 0.048293 -0.016527 -113004.000000 0 0 1
-29.455135 28.901114 -15.337959 44.024225 -0.775905 1.926658 0.046332 -0.017640 765750.000000 0 0 1
-28.270805 29.382914 -14.681659 43.337573 -0.804685 1.916410 0.048609 -0.014566 318025.000000 0 0 1
-28.423855 30.008714 -13.260659 43.408335 -0.812514 1.881246 0.058364 -0.014666 474911.000000 0 0 1
-29.434225 31.050814 -13.179359 44.768540 -0.812119 1.869612 0.047286 -0.017882 681864.000000 0 0 1
-29.456745 31.938014 -12.055559 45.089612 -0.825791 1.841458 0.041952 -0.021185 300766.000000 0 0 1
-28.353955 33.052214 -12.029459 45.178574 -0.861761 1.840312 0.041048 -0.023372 480711.000000 0 0 1
-28.634395 33.873414 -13.179959 46.271461 -0.869017 1.859636 0.029771 -0.030341 -342681.000000 0 0 1
-27.749685 -33.169682 -13.286959 45.241752 0.874135 1.868879 0.047078 -0.024234 -434462.000000 0 0 1
-27.912075 -32.288082 -14.581859 45.102492 0.857961 1.900016 0.038337 -0.021036 28837.200000 0 0 1
-27.430165 -32.895782 -15.762359 45.639877 0.875753 1.923423 0.035690 -0.015124 12163.900000 0 0 1
-27.863335 -32.106482 -16.847459 45.727765 0.856035 1.948115 0.037089 -0.000276 -48986.600000 0 0 1
-26.908755 -32.366482 -18.021659 45.787012 0.877214 1.975338 0.039563 0.000005 -227930.000000 0 0 1
-27.072375 -33.608182 -18.695259 47.031225 0.892693 1.979595 0.043020 0.002914 60651.300000 0 0 1
-26.577785 33.317614 -18.042959 46.281643 -0.897453 1.971266 0.032382 -0.006980 -448168.000000 0 0 1
-26.887105 31.997014 -18.906959 45.871543 -0.871960 1.995633 0.040646 -0.012861 1196950.000000 0 0 1
-28.228955 31.466014 -18.925859 46.316003 -0.839572 1.991743 0.048761 -0.017832 539600.000000 0 0 1
-29.135865 32.188014 -19.721659 47.685540 -0.835128 1.997176 0.048278 -0.014255 624180.000000 0 0 1
-30.615145 31.645314 -19.661759 48.221342 -0.801943 1.990774 0.051868 -0.024944 813934.000000 0 0 1
-30.881735 30.388414 -20.263159 47.830251 -0.777347 2.008264 0.048485 -0.026050 49484.500000 0 0 1
-32.257115 30.091914 -20.175159 48.508575 -0.750685 1.999739 0.062825 -0.026036 -148377.000000 0 0 1
-32.507835 28.812014 -21.019059 48.256527 -0.725200 2.021467 0.061885 -0.027595 -126082.000000 0 0 1
-33.890005 28.504314 -21.101559 49.054094 -0.699295 2.015476 0.069901 -0.031756 400461.000000 0 0 1
-34.026235 27.229014 -21.704259 48.685509 -0.674885 2.032870 0.062234 -0.025220 277718.000000 0 0 1
-35.499629 26.782014 -21.933859 49.584213 -0.646331 2.029020 0.076105 -0.025871 203515.000000 0 0 1
-36.155345 27.408514 -22.976759 50.856338 -0.648650 2.039575 0.067192 -0.028752 306455.000000 0 0 1
36.485979 26.748814 -23.200759 50.842904 0.632614 2.044654 0.090016 -0.029906 434678.000000 0 0 1
35.641279 27.307814 -24.318759 51.062897 0.653779 2.067183 0.097700 -0.029435 -130833.000000 0 0 1
36.311869 27.215314 -25.572479 52.088164 0.643173 2.083972 0.100479 -0.031709 -113631.000000 0 0 1
35.507599 27.734514 -26.607979 52.325686 0.663102 2.104246 0.109539 -0.029826 104451.000000 0 0 1
36.300239 27.846414 -27.916539 53.595366 0.654364 2.118673 0.098453 -0.025412 287454.000000 0 0 1
36.654409 26.649114 -28.560749 53.567129 0.628642 2.133147 0.074757 -0.006786 -19565.100000 0 0 1
-36.373725 26.968814 -29.650969 54.125269 -0.637998 2.150554 0.047585 0.001118 -567934.000000 0 0 1
-35.701711 25.744314 -30.310419 53.442524 -0.624744 2.173849 0.046778 0.001232 -11909.500000 0 0 1
-34.651555 25.189814 -29.587939 52.064413 -0.628583 2.175228 0.063439 -0.005330 -464188.000000 0 0 1
-33.428295 25.920514 -29.608369 51.633124 -0.659564 2.181492 0.054607 0.009986 -280058.000000 0 0 1
-32.444455 25.189114 -28.655609 50.082712 -0.660170 2.179940 0.034842 -0.005705 -200250.000000 0 0 1
-31.979605 23.899914 -29.073849 49.388154 -0.641802 2.200222 0.063455 -0.003062 71859.600000 0 0 1
-32.754415 22.858214 -28.529449 49.084408 -0.609293 2.191039 0.056459 -0.002850 -127389.000000 0 0 1
-32.536175 21.485614 -29.191979 48.707350 -0.583624 2.213465 0.052961 -0.007324 437539.000000 0 0 1
-31.240745 20.917014 -28.987619 47.474074 -0.589991 2.227613 0.066249 -0.005956 545915.000000 0 0 1
-31.231465 19.638314 -29.557359 47.272669 -0.561327 2.246251 0.064552 -0.015463 613560.000000 0 0 1
-29.772855 19.066014 -29.529569 46.064425 -0.569584 2.266661 0.092450 -0.023734 19116.600000 0 0 1
-28.879535 19.627914 -30.434409 46.319929 -0.596936 2.287692 0.115480 -0.031333 -568096.000000 0 0 1
-27.620575 19.039214 -30.495289 45.335973 -0.603517 2.308582 0.116074 -0.039845 -324343.000000 0 0 1
-27.520675 17.726414 -31.290419 45.284695 -0.572225 2.333628 0.114554 -0.030974 -668642.000000 0 0 1
-28.139745 16.686914 -30.591299 44.789797 -0.535258 2.322654 0.086300 -0.027265 89082.200000 0 0 1
-28.200325 15.495514 -31.442099 44.988608 -0.502444 2.344641 0.055002 -0.015650 -166723.000000 0 0 1
-28.636585 14.185714 -30.807539 44.389108 -0.459937 2.337873 0.062182 -0.016564 250349.000000 0 0 1
-30.047665 14.127114 -30.635779 45.177301 -0.439489 2.316002 0.058789 -0.017221 502468.000000 0 0 1
-30.702125 12.845614 -30.464939 45.119206 -0.396263 2.312046 0.046208 -0.012602 86469.300000 0 0 1
-30.118865 11.885914 -29.421459 43.749780 -0.375872 2.308370 0.029343 -0.022898 -470904.000000 0 0 1
-30.304715 12.351114 -28.121779 43.148120 -0.387010 2.280686 0.014980 -0.019480 108785.000000 0 0 1
-30.327755 11.288114 -27.156309 42.245229 -0.356317 2.268977 0.030792 -0.022421 -98063.200000 0 0 1
-30.314825 12.040614 -25.806239 41.592391 -0.378078 2.240120 0.023170 -0.017688 -282370.000000 0 0 1
-29.034455 12.419614 -25.392799 40.522101 -0.404201 2.248031 0.016944 -0.018554 -572220.000000 0 0 1
-29.026265 13.098514 -24.192759 39.992308 -0.423905 2.220481 0.021362 -0.015960 -414685.000000 0 0 1
-27.585945 13.274914 -23.720959 38.728434 -0.448511 2.230009 0.042659 -0.013091 -1086730.000000 0 0 1
-26.747945 13.976814 -24.626259 38.951977 -0.481515 2.255213 0.060395 -0.027356 17166.200000 0 0 1
-25.436475 14.192414 -24.144059 37.833510 -0.508930 2.262910 0.044115 -0.024240 133736.000000 0 0 1
-25.265155 14.962614 -22.787259 37.168092 -0.534682 2.230758 0.043077 -0.019093 -1309770.000000 0 0 1
-25.536105 16.365014 -22.961159 38.041046 -0.569922 2.218791 0.070432 -0.022974 148456.000000 0 0 1
-25.613945 16.977214 -21.724559 37.633183 -0.585329 2.186179 0.069420 -0.015833 18054.200000 0 0 1
-27.075155 17.202814 -21.255459 38.481104 -0.566024 2.155990 0.064122 -0.010992 218229.000000 0 0 1
-27.723615 15.932314 -21.034959 38.274103 -0.521597 2.152666 0.061135 -0.017292 -90279.100000 0 0 1
-28.928725 16.150414 -20.343259 38.878724 -0.509180 2.121456 0.045542 -0.004721 -250981.000000 0 0 1
-29.940425 14.948314 -20.432259 39.209162 -0.463062 2.118946 0.018757 -0.012321 641572.000000 0 0 1
-30.647745 14.827314 -21.677259 40.361332 -0.450602 2.137768 0.017793 -0.010233 518335.000000 0 0 1
-31.777585 15.666314 -21.850059 41.625394 -0.458031 2.123419 0.002016 -0.012514 -240257.000000 0 0 1
-32.259915 15.801114 -23.273159 42.802071 -0.455460 2.145682 0.009213 -0.010931 24053.900000 0 0 1
-33.231575 14.825314 -23.664159 43.406451 -0.419624 2.147395 0.022865 -0.011153 306590.000000 0 0 1
-33.582785 15.100814 -25.030129 44.523538 -0.422571 2.167813 0.045386 -0.021723 260417.000000 0 0 1
-34.970335 14.461314 -25.335559 45.540581 -0.392116 2.160758 0.036332 -0.018912 177927.000000 0 0 1
-34.984127 13.002414 -25.551099 45.230638 -0.355845 2.171117 0.039512 -0.019376 -32375.600000 0 0 1
-34.704377 12.178814 -24.456059 44.168044 -0.337503 2.157603 0.026297 -0.013907 -331792.000000 0 0 1
-34.717129 10.656114 -24.823659 43.989156 -0.297813 2.170397 0.025430 -0.019488 -61187.700000 0 0 1
-35.974971 10.203914 -25.252529 45.122152 -0.276380 2.164757 0.040657 -0.015944 -55172.200000 0 0 1
-35.717505 8.933914 -25.795789 44.955286 -0.245098 2.181947 0.026793 -0.006506 595522.000000 0 0 1
36.911859 8.355814 -26.491279 46.196242 0.222620 2.181508 0.040660 -0.007081 879549.000000 0 0 1
35.838709 7.976414 -25.618629 44.769972 0.218995 2.180016 0.021751 0.006178 356984.000000 0 0 1
35.003189 7.041614 -26.297589 44.343779 0.198521 2.205624 0.019996 0.001714 -358226.000000 0 0 1
33.987469 6.385714 -25.382009 42.897223 0.185719 2.203954 0.024109 0.005610 -210672.000000 0 0 1
34.519309 5.471614 -24.427459 42.640614 0.157201 2.180797 0.018463 0.000647 415034.000000 0 0 1
33.414539 4.791014 -23.886359 41.352670 0.142411 2.186613 0.024067 0.006322 347915.000000 0 0 1
34.007259 3.981814 -22.748859 41.107895 0.116556 2.157230 0.012893 0.009115 344488.000000 0 0 1
34.617119 2.783614 -23.191559 41.760529 0.080239 2.159576 0.013601 -0.003302 -66196.100000 0 0 1
35.796759 2.426114 -22.531759 42.367135 0.067671 2.131546 0.040103 0.004559 -95689.100000 0 0 1
36.618829 1.297414 -23.242359 43.391579 0.035415 2.136064 0.071901 -0.002421 -10991.100000 0 0 1
36.125419 -0.022286 -23.121359 42.891067 -0.000617 2.140131 0.043743 -0.003591 29013.200000 0 0 1
-36.863535 -0.996686 -23.569459 43.765660 0.027031 2.139497 0.074282 -0.021843 -146147.000000 0 0 1
-23.550205 28.988414 27.334221 46.282826 -0.888540 0.939005 0.061331 -0.026549 -1025330.000000 0 0 1
-24.744105 29.596514 26.934741 47.050023 -0.874458 0.961281 0.056762 -0.033156 238225.000000 0 0 1
-25.205865 29.122014 25.659931 46.280227 -0.857357 0.983098 0.048550 -0.024389 -289683.000000 0 0 1
-25.794055 27.687114 25.525741 45.645077 -0.820780 0.977349 0.057759 -0.026818 -343490.000000 0 0 1
-27.033405 27.503414 26.193821 46.619299 -0.794016 0.974156 0.057298 -0.026511 203070.000000 0 0 1
-27.006745 27.167214 27.550261 47.185153 -0.788360 0.947302 0.063025 -0.025771 -1028220.000000 0 0 1
-26.415415 25.794414 27.939441 46.300522 -0.773504 0.922992 0.063661 -0.024338 -283294.000000 0 0 1
-25.046705 25.776914 28.220871 45.696874 -0.799765 0.905151 0.075963 -0.025079 -570133.000000 0 0 1
-24.655205 26.211514 29.530071 46.550486 -0.815984 0.883608 0.066816 -0.025453 -540695.000000 0 0 1
-23.235705 25.830614 29.901691 45.839173 -0.838235 0.860158 0.088556 -0.020287 -858585.000000 0 0 1
-22.120205 26.536114 29.347691 45.329414 -0.875907 0.866587 0.097697 -0.025618 482632.000000 0 0 1
-20.903705 26.153614 29.937951 44.913888 -0.896503 0.841207 0.108648 -0.030262 3747.350000 0 0 1
-20.365805 24.736114 29.546341 43.584718 -0.881995 0.825886 0.125315 -0.032556 -1162640.000000 0 0 1
-19.622305 24.717814 28.359671 42.429661 -0.899815 0.838751 0.117620 -0.028476 -120575.000000 0 0 1
-20.003005 23.770614 27.343661 41.386449 -0.871257 0.849057 0.123379 -0.027518 -171799.000000 0 0 1
-20.066705 22.255114 27.634371 40.762989 -0.837061 0.825856 0.113853 -0.022012 -152110.000000 0 0 1
-21.131605 21.861314 28.450271 41.639881 -0.802369 0.818598 0.099316 -0.018181 -176195.000000 0 0 1
-21.071805 20.438214 28.746721 41.086683 -0.770136 0.795874 0.101672 -0.021755 52296.700000 0 0 1
-21.450705 20.076614 30.156381 42.102381 -0.752321 0.772364 0.098708 -0.025805 -509928.000000 0 0 1
-20.399805 20.269914 31.041601 42.315511 -0.782204 0.747229 0.093123 -0.032506 -308929.000000 0 0 1
-20.753105 19.863214 32.325240 43.245344 -0.763492 0.726529 0.079356 -0.026766 -33653.100000 0 0 1
-19.823105 20.380314 33.467429 43.913341 -0.799257 0.704208 0.073939 -0.029652 -297990.000000 0 0 1
-19.898105 21.806614 33.567179 44.701438 -0.831129 0.721343 0.060601 -0.033493 351520.000000 0 0 1
-19.017305 22.524314 32.690647 44.019099 -0.869620 0.733782 0.084944 -0.026085 200768.000000 0 0 1
-17.544205 22.610714 33.142461 43.788883 -0.910909 0.712287 0.072592 -0.020977 -21850.300000 0 0 1
-16.846805 21.368514 33.264631 42.976318 -0.903172 0.685627 0.077529 -0.030432 -559085.000000 0 0 1
-15.483805 21.616914 33.477062 42.752227 -0.949226 0.671244 0.057224 -0.028472 -896404.000000 0 0 1
-14.748205 20.248714 33.534669 41.858022 -0.941294 0.641577 0.047711 -0.024009 800320.000000 0 0 1
-13.353505 20.310514 33.896518 41.710994 -0.989189 0.622108 0.026285 -0.022011 1042690.000000 0 0 1
-13.139005 20.545614 -32.740429 40.825132 -1.001835 2.501378 0.029849 -0.026290 -976365.000000 0 0 1
-11.688805 20.287114 -32.360999 39.942827 -1.048084 2.515261 0.022816 -0.025270 -465086.000000 0 0 1
-10.773105 21.258614 -32.840479 40.576909 -1.101752 2.513822 0.028408 -0.026412 -141430.000000 0 0 1
-9.554205 20.936914 -32.161419 39.547365 -1.142688 2.520491 0.035127 -0.025365 392805.000000 0 0 1
-8.464505 22.052914 -32.270459 39.992016 -1.204309 2.509719 0.037113 -0.030260 281460.000000 0 0 1
-8.598905 23.174914 -31.442709 39.995772 -1.215499 2.475352 0.034779 -0.025480 -128548.000000 0 0 1
-8.290605 22.929314 -30.049369 38.696927 -1.223850 2.459938 0.037617 -0.025703 -33997.000000 0 0 1
-8.042605 24.203214 -29.156559 38.737372 -1.249981 2.422908 0.034235 -0.024149 1062540.000000 0 0 1
-6.849605 24.918514 -29.582339 39.280583 -1.302542 2.423563 0.047072 -0.025472 948880.000000 0 0 1
-6.550005 25.997314 -28.670169 39.252280 -1.323984 2.389715 0.060504 -0.024476 119149.000000 0 0 1
-5.194905 26.706014 -28.883859 39.679661 -1.378674 2.386089 0.078159 -0.029907 -545740.000000 0 0 1
-4.060805 25.940514 -28.544449 38.783837 -1.415514 2.397922 0.081240 -0.027541 287839.000000 0 0 1
-2.880105 26.346914 -29.236099 39.461429 -1.461914 2.405173 0.094472 -0.027934 729955.000000 0 0 1
-2.195405 27.694714 -28.841889 40.045868 -1.491690 2.374918 0.106051 -0.036769 -713658.000000 0 0 1
-1.470805 27.740614 -27.631079 39.181392 -1.517826 2.353515 0.127546 -0.048653 -313429.000000 0 0 1
-0.339205 28.534814 -27.753359 39.807030 -1.558909 2.342277 0.128444 -0.045305 -540224.000000 0 0 1
0.417095 28.675914 -26.370329 38.959932 1.556252 2.314282 0.135682 -0.058069 612343.000000 0 0 1
1.349895 27.675214 -25.928809 37.947896 1.522059 2.323033 0.179249 -0.067297 884397.000000 0 0 1
2.648195 27.792614 -26.498089 38.491441 1.475799 2.330098 0.169216 -0.066957 346678.000000 0 0 1
3.853195 28.032714 -25.564429 38.134239 1.434199 2.305517 0.165609 -0.069059 141930.000000 0 0 1
4.348995 26.849914 -24.907259 36.880933 1.410217 2.312225 0.175398 -0.061556 1204280.000000 0 0 1
5.639495 27.123314 -24.297559 36.849009 1.365797 2.290792 0.132878 -0.053211 1008650.000000 0 0 1
6.203295 25.889514 -23.579259 35.563032 1.335623 2.295652 0.129169 -0.052564 112296.000000 0 0 1
7.559895 26.008514 -23.206159 35.666800 1.287921 2.279220 0.118364 -0.048672 -465020.000000 0 0 1
7.982395 24.798914 -22.631559 34.509306 1.259385 2.286052 0.100976 -0.029909 753200.000000 0 0 1
9.467695 24.899514 -22.151559 34.645557 1.207443 2.264484 0.075083 -0.014353 74050.800000 0 0 1
9.453795 25.617914 -20.892459 34.382359 1.217269 2.223895 0.088677 -0.018226 260554.000000 0 0 1
10.704395 26.216314 -20.593259 35.013733 1.183146 2.199563 0.091351 -0.019773 415276.000000 0 0 1
11.848395 25.324514 -20.071959 34.418004 1.133188 2.193437 0.063446 -0.002195 113982.000000 0 0 1
12.391095 24.351414 -20.997359 34.458956 1.100098 2.226029 0.060986 -0.016286 -10811.400000 0 0 1
12.329595 23.073214 -20.488259 33.228916 1.080034 2.235187 0.040456 -0.009112 -35741.800000 0 0 1
12.511495 22.039114 -21.581959 33.287250 1.054469 2.276218 0.042112 -0.015973 609404.000000 0 0 1
11.391195 22.030914 -22.474459 33.469715 1.093598 2.307009 0.057337 -0.030655 322310.000000 0 0 1
11.678095 21.266714 -23.560059 33.819039 1.068625 2.341515 0.053306 -0.034943 -220913.000000 0 0 1
10.771195 21.386514 -24.816559 34.485696 1.104238 2.374050 0.069091 -0.035820 -1101020.000000 0 0 1
9.560795 20.819214 -24.504859 33.546037 1.140294 2.389827 0.067339 -0.038365 -1575380.000000 0 0 1
8.903195 20.663614 -25.713229 34.167557 1.163970 2.422741 0.068513 -0.041596 634298.000000 0 0 1
7.381395 20.215714 -25.618709 33.458606 1.220705 2.442900 0.095680 -0.051577 1892170.000000 0 0 1
6.396195 21.240814 -25.330069 33.670401 1.278305 2.422335 0.114603 -0.055056 639404.000000 0 0 1
6.373295 21.690714 -24.002359 32.973007 1.285013 2.386108 0.115763 -0.057740 -406982.000000 0 0 1
4.924195 21.827614 -23.488559 32.440790 1.348916 2.380444 0.141191 -0.059575 52307.000000 0 0 1
4.265295 23.030314 -23.778559 33.376758 1.387668 2.363749 0.157607 -0.056517 -427577.000000 0 0 1
2.876695 22.865214 -23.668159 33.034454 1.445643 2.369524 0.171867 -0.051330 -156568.000000 0 0 1
2.087595 24.188714 -23.897159 34.066496 1.484705 2.348276 0.157004 -0.048096 166025.000000 0 0 1
0.716795 23.943414 -24.139859 34.007847 1.540868 2.360056 0.163573 -0.064685 -109351.000000 0 0 1
0.182995 24.936514 -25.011829 35.319326 1.563458 2.357689 0.159029 -0.054837 -508611.000000 0 0 1
-1.312405 24.777814 -25.234719 35.390020 -1.517879 2.364630 0.164214 -0.052318 -647390.000000 0 0 1
-1.614305 23.610614 -26.061189 35.203020 -1.502531 2.404329 0.165917 -0.057313 -524508.000000 0 0 1
-2.840705 23.819314 -26.712099 35.902166 -1.452096 2.409870 0.148959 -0.047513 -188924.000000 0 0 1
-3.488405 22.491814 -27.165559 35.440348 -1.416926 2.444193 0.126101 -0.043046 154215.000000 0 0 1
-2.695505 21.897014 -28.224429 35.824061 -1.448313 2.478127 0.152408 -0.054626 433094.000000 0 0 1
-3.275005 20.663314 -28.569749 35.410856 -1.413610 2.509525 0.109908 -0.047023 432577.000000 0 0 1
-4.611605 20.694014 -29.421299 36.264610 -1.351532 2.517160 0.085146 -0.039801 426946.000000 0 0 1
-4.447605 21.044314 -30.793969 37.562120 -1.362517 2.531883 0.088584 -0.038378 -174714.000000 0 0 1
-4.138905 22.425014 -30.983529 38.470649 -1.388284 2.507114 0.109151 -0.038507 -61147.000000 0 0 1
-3.669505 22.638714 -32.444069 39.731527 -1.410104 2.526262 0.101248 -0.034335 588005.000000 0 0 1
-2.463705 21.926714 -32.782279 39.516179 -1.458905 2.549172 0.096986 -0.039791 703521.000000 0 0 1
-2.366705 21.962514 33.877337 40.442889 -1.463449 0.577814 0.096354 -0.026285 286590.000000 0 0 1
-1.094505 21.265614 33.301630 39.527495 -1.519373 0.568902 0.097814 -0.024053 182229.000000 0 0 1
-1.164505 19.871014 33.303862 38.798976 -1.512260 0.538713 0.078973 -0.010424 621517.000000 0 0 1
-0.030805 19.283314 32.644820 37.914792 -1.569199 0.533554 0.083476 -0.013876 884458.000000 0 0 1
-0.527605 17.885914 32.094194 36.745361 -1.541307 0.508611 0.067522 -0.007780 544986.000000 0 0 1
-1.457805 18.050614 31.026281 35.924643 -1.490209 0.528332 0.053814 -0.002036 47680.100000 0 0 1
-2.079405 16.794014 30.842421 35.179792 -1.447605 0.501820 0.048421 0.000291 165744.000000 0 0 1
-3.175205 16.862614 29.721001 34.318619 -1.384677 0.523587 0.053417 0.011445 462660.000000 0 0 1
-4.289205 17.640214 30.153031 35.196303 -1.332276 0.541939 0.031519 0.003230 -80829.400000 0 0 1
-4.852205 18.341014 29.063291 34.707515 -1.312167 0.578329 0.037147 0.007657 -111685.000000 0 0 1
-6.367705 18.595314 29.151641 35.158947 -1.240876 0.593231 0.022044 0.000997 -14860.600000 0 0 1
-7.047305 17.523014 28.515831 34.203409 -1.188417 0.584998 0.016998 0.001551 332278.000000 0 0 1
-8.456105 17.714714 28.721851 34.788814 -1.125433 0.599521 0.018111 0.002602 978969.000000 0 0 1
-9.377505 16.759814 27.813491 33.799693 -1.060671 0.604314 0.015036 -0.003842 505477.000000 0 0 1
-9.548905 15.394914 28.124221 33.453801 -1.015610 0.572243 0.017831 -0.017974 147127.000000 0 0 1
-10.330805 15.288914 29.317791 34.641150 -0.976562 0.561742 0.022889 -0.017343 -175987.000000 0 0 1
-10.727005 13.859714 29.722061 34.504510 -0.912130 0.532784 0.022071 -0.024295 721620.000000 0 0 1
-9.560505 13.017014 29.955731 34.032216 -0.937314 0.494477 0.027632 -0.023698 997221.000000 0 0 1
-9.000705 13.009214 31.268561 35.042478 -0.965547 0.468372 0.032453 -0.019245 -509670.000000 0 0 1
-9.856805 12.635114 32.524430 36.257982 -0.908300 0.457797 0.061496 -0.029098 -293160.000000 0 0 1
-10.033405 11.238314 32.553498 35.870589 -0.841981 0.433440 0.068152 -0.032775 374438.000000 0 0 1
-10.823305 10.954914 33.701563 37.053332 -0.791441 0.428616 0.080345 -0.029219 -208487.000000 0 0 1
-10.865605 9.429814 33.909852 36.835592 -0.714771 0.401251 0.056378 -0.019175 -39505.700000 0 0 1
-9.566505 8.841114 33.853462 36.273133 -0.746011 0.367320 0.077263 -0.023326 370415.000000 0 0 1
-9.170305 8.168514 -33.066949 35.273818 -0.727685 2.785988 0.091861 -0.036587 -92275.700000 0 0 1
-8.477005 9.054714 -32.008319 34.327539 -0.818338 2.771900 0.100180 -0.039282 -222720.000000 0 0 1
-9.310605 10.025314 -31.347639 34.203344 -0.822344 2.730058 0.084327 -0.027530 513845.000000 0 0 1
-8.570905 10.899414 -30.480469 33.486066 -0.904426 2.714668 0.086989 -0.029617 116006.000000 0 0 1
-7.771005 12.036914 -31.120609 34.260299 -0.997522 2.710136 0.066954 -0.032696 -349493.000000 0 0 1
-8.579005 13.046914 -31.666469 35.307032 -0.989131 2.683479 0.058075 -0.028291 108355.000000 0 0 1
-7.755705 14.060914 -32.222229 36.001837 -1.066742 2.679264 0.036026 -0.024737 -44687.000000 0 0 1
-8.439205 15.405514 -32.534709 36.973738 -1.069641 2.646534 0.037665 -0.020643 -552005.000000 0 0 1
-9.186205 15.470614 -33.708579 38.209875 -1.034960 2.651301 0.054272 -0.023484 -202331.000000 0 0 1
-9.397305 16.827114 33.914893 39.008731 -1.061480 0.516773 0.060416 -0.018400 -1006050.000000 0 0 1
-9.957305 16.938214 32.489140 37.968345 -1.039351 0.543913 0.036602 -0.023781 869852.000000 0 0 1
-11.231305 16.353114 32.230771 37.846918 -0.968985 0.551749 0.032071 -0.024303 689870.000000 0 0 1
-12.357605 16.720014 33.010793 39.012584 -0.934314 0.562063 0.035253 -0.029283 -336909.000000 0 0 1
-13.698305 16.183614 32.440626 38.754963 -0.868378 0.578890 0.039100 -0.033817 14523.000000 0 0 1
-13.721305 14.780714 32.210650 38.003549 -0.822551 0.559408 0.038207 -0.035481 622356.000000 0 0 1
-14.704305 14.053814 32.965636 38.735765 -0.762783 0.552836 0.049077 -0.026464 162140.000000 0 0 1
-14.598705 12.524414 32.831921 38.051520 -0.709070 0.529958 0.042677 -0.026052 -25278.100000 0 0 1
-14.636205 12.039614 31.470921 36.736762 -0.688365 0.542036 0.024692 -0.027433 -410189.000000 0 0 1
-13.374905 11.630014 31.062871 35.763770 -0.715729 0.518513 0.034493 -0.025900 -834305.000000 0 0 1
-13.376405 11.333114 29.576881 34.382548 -0.702893 0.535077 0.026044 -0.013067 -364134.000000 0 0 1
-14.259405 10.261914 29.374051 34.226779 -0.623799 0.539008 0.016860 -0.011594 30125.600000 0 0 1
-14.163905 9.672414 28.068951 32.894343 -0.599151 0.548502 -0.006693 -0.002091 395402.000000 0 0 1
-15.010005 8.361114 27.826681 32.703710 -0.508229 0.553153 0.011214 -0.002957 604386.000000 0 0 1
-14.478405 7.257014 28.571541 32.842372 -0.464631 0.515676 -0.008400 -0.002352 123158.000000 0 0 1
-15.207205 6.102714 28.263331 32.669835 -0.381630 0.525407 0.001125 0.001365 -304293.000000 0 0 1
-14.389805 4.826714 28.329981 32.139563 -0.323633 0.491836 0.001978 -0.000241 -569506.000000 0 0 1
-13.473205 4.591914 27.330541 30.815117 -0.328472 0.480162 -0.002183 -0.005157 -526164.000000 0 0 1
-14.064805 3.985114 26.191551 29.994953 -0.276103 0.509069 -0.001472 0.002605 -618420.000000 0 0 1
-13.218805 3.906414 24.946081 28.500945 -0.287341 0.504798 0.000386 0.006932 -521686.000000 0 0 1
-12.203905 2.919814 25.036811 28.005402 -0.234838 0.464603 -0.003274 -0.000384 152601.000000 0 0 1
-11.764105 2.298114 23.833611 26.678016 -0.192920 0.465983 0.006202 -0.006845 -465028.000000 0 0 1
-10.759805 1.191614 24.132481 26.449385 -0.110297 0.421681 0.010720 -0.004621 -551450.000000 0 0 1
-9.505905 1.756314 24.433161 26.275963 -0.182700 0.376744 0.013891 -0.006600 293757.000000 0 0 1
-8.634205 0.763414 25.030321 26.488663 -0.088188 0.333371 0.029453 0.002646 1008290.000000 0 0 1
-7.093105 0.972714 24.859071 25.869513 -0.136285 0.280415 0.042358 -0.007631 284085.000000 0 0 1
-6.703305 0.843214 23.534701 24.485250 -0.125134 0.279554 0.042886 -0.003798 1057830.000000 0 1 0
-5.302705 1.083914 23.257741 23.879197 -0.201630 0.228642 0.041493 -0.003790 1163680.000000 0 1 0
-4.736105 2.562114 23.326261 23.939707 -0.495888 0.226869 0.057458 -0.014224 -328192.000000 0 1 0
-4.691705 3.011914 24.656841 25.279310 -0.570707 0.222375 0.057974 -0.016017 14000.200000 0 0 1
-4.405105 4.396614 24.766101 25.536149 -0.784433 0.246203 0.054867 -0.029439 -203848.000000 0 0 1
3.999995 -23.378386 12.676941 26.893377 -1.401339 1.079944 0.086442 -0.030141 156557.000000 0 0 1
3.588695 -24.399686 13.571641 28.149828 -1.424764 1.067722 0.086944 -0.026544 -98332.800000 0 0 1
2.378095 -24.984386 13.141441 28.329708 -1.475899 1.088432 0.053927 -0.021596 -285580.000000 0 0 1
2.209395 -26.288106 13.978441 29.855364 -1.486948 1.083538 0.047110 -0.016708 -67112.800000 0 0 1
2.039995 -26.124206 15.343541 30.365440 -1.492866 1.041071 0.063573 -0.020404 140686.000000 0 0 1
2.244795 -27.461196 15.881541 31.802197 -1.489233 1.047907 0.053158 -0.016613 -244643.000000 0 0 1
1.984295 -27.454436 17.427141 32.578961 -1.498646 1.006383 0.046774 -0.013219 -253495.000000 0 0 1
2.925295 -26.745286 18.187341 32.475330 -1.461853 0.976368 0.063781 -0.019969 50633.100000 0 0 1
3.031995 -27.248856 19.484041 33.635115 -1.459982 0.952955 0.059720 -0.020506 254598.000000 0 0 1
3.910195 -26.345616 20.419441 33.560910 -1.423453 0.916716 0.058555 -0.024510 154752.000000 0 0 1
3.239595 -25.147786 20.856341 32.831282 -1.442680 0.882454 0.063681 -0.023505 127305.000000 0 0 1
4.029395 -24.320086 21.660741 32.816007 -1.406606 0.849889 0.082358 -0.024115 -61964.500000 0 0 1
3.203795 -23.164786 22.339041 32.340445 -1.433364 0.808276 0.091121 -0.028692 176969.000000 0 0 1
2.486295 -22.286686 21.486941 31.057474 -1.459696 0.806756 0.104433 -0.027414 -284879.000000 0 0 1
3.245895 -21.395486 20.732141 29.968722 -1.420235 0.806828 0.092048 -0.022212 -507921.000000 0 0 1
2.508295 -20.265286 19.986341 28.573190 -1.447650 0.796128 0.072157 -0.024347 -245741.000000 0 0 1
1.943295 -19.303086 20.780941 28.429440 -1.470462 0.751061 0.058670 -0.021964 -317304.000000 0 0 1
1.138995 -18.441086 20.050941 27.265568 -1.509111 0.744548 0.063436 -0.025709 -458351.000000 0 0 1
0.758995 -17.184586 20.768741 26.967141 -1.526658 0.691720 0.058031 -0.024751 -113654.000000 0 0 1
1.885395 -16.361686 20.938941 26.640171 -1.456070 0.666498 0.025519 -0.012352 -6709.520000 0 0 1
1.499495 -15.013586 21.196241 26.018011 -1.471251 0.618627 0.028369 -0.014101 -14765.000000 0 0 1
2.598695 -14.026486 20.810941 25.230751 -1.387603 0.600905 -0.003239 -0.009109 -470522.000000 0 0 1
2.968595 -13.792886 19.407641 23.994016 -1.358804 0.628597 -0.021283 -0.008023 -425031.000000 0 1 0
1.975295 -13.400086 18.513041 22.938980 -1.424441 0.631647 -0.010866 -0.000454 -656692.000000 0 1 0
1.228695 -12.108786 18.873041 22.457161 -1.469671 0.572772 -0.011892 -0.005814 -112178.000000 0 1 0
2.033695 -10.903686 18.774641 21.806271 -1.386401 0.533614 -0.008293 -0.006964 147400.000000 0 1 0
1.731295 -9.955686 19.781041 22.212669 -1.398618 0.472288 0.000672 -0.011934 -532724.000000 0 1 0
0.379495 -9.238986 19.732841 21.791923 -1.529744 0.438212 0.025473 -0.023766 -47382.100000 0 1 0
0.091695 -8.488686 20.893041 22.551837 -1.559995 0.385939 0.038617 -0.032042 162668.000000 0 1 0
-1.312505 -8.247586 20.956941 22.559670 1.412982 0.379214 0.040590 -0.027248 541964.000000 0 1 0
-1.857205 -7.497386 22.169941 23.476931 1.327971 0.335248 0.060253 -0.032104 -145183.000000 0 1 0
-1.925805 -8.320586 23.313441 24.828561 1.343351 0.351153 0.068453 -0.027110 60291.600000 0 1 0
-2.362505 -7.631286 24.490541 25.760523 1.270572 0.315309 0.073676 -0.016603 -54894.800000 0 0 1
-2.448905 -8.532686 25.739141 27.226958 1.291306 0.332115 0.082628 -0.018593 102933.000000 0 0 1
-1.218005 -9.147686 26.058341 27.644183 1.438426 0.340362 0.061607 -0.016793 6748.900000 0 0 1
-1.355405 -10.161786 27.048341 28.925971 1.438196 0.362288 0.069442 -0.021694 736659.000000 0 0 1
-0.012805 -10.986986 27.040441 29.187317 1.569631 0.385940 0.057621 -0.018512 833556.000000 0 0 1
1.089895 -10.437386 27.724541 29.644175 -1.466751 0.361848 0.039807 -0.018337 -47118.500000 0 0 1
2.003495 -11.440686 28.130141 30.433668 -1.397434 0.391573 0.044778 -0.026324 160098.000000 0 0 1
3.062895 -11.007286 29.146241 31.305671 -1.299401 0.373596 0.047595 -0.030148 210786.000000 0 0 1
2.435295 -10.573286 30.328841 32.211235 -1.344419 0.343562 0.051131 -0.037813 39939.300000 0 0 1
3.429595 -10.338186 31.292641 33.134115 -1.250480 0.334959 0.064842 -0.035257 -232447.000000 0 0 1
2.897895 -9.762686 32.619641 34.172340 -1.282247 0.302607 0.062843 -0.044420 -386114.000000 0 0 1
2.082895 -10.659486 33.349441 35.073470 -1.377825 0.314842 0.071188 -0.048031 -51183.400000 0 0 1
1.976295 -10.402086 -33.318388 34.960322 -1.383044 2.833898 0.064164 -0.051195 -477024.000000 0 0 1
3.182595 -10.756086 -32.410188 34.296393 -1.283116 2.808400 0.066030 -0.032055 231593.000000 0 0 1
4.298895 -9.899886 -32.675188 34.411570 -1.161128 2.822565 0.049421 -0.039443 356483.000000 0 0 1
4.669595 -8.971886 -31.638688 33.216057 -1.090907 2.832178 0.066284 -0.036505 -26932.300000 0 0 1
3.606195 -7.906786 -31.138088 32.328044 -1.142891 2.869428 0.050678 -0.019738 284326.000000 0 0 1
3.416195 -6.895786 -32.083288 32.993327 -1.110833 2.906177 0.070773 -0.028224 -97375.900000 0 0 1
2.735995 -5.783486 -31.588788 32.230202 -1.128924 2.941756 0.059863 -0.008527 -32590.000000 0 0 1
2.986895 -4.541986 -32.438888 32.891224 -0.989084 2.975556 0.060365 -0.012882 360501.000000 0 0 1
2.277595 -4.618386 -33.679288 34.070682 -1.112637 2.989871 0.059162 -0.022778 173186.000000 0 0 1
2.487395 -3.366186 33.641641 33.901009 -0.934414 0.123778 0.062308 -0.005225 205787.000000 0 0 1
2.060395 -3.416886 32.147441 32.394109 -1.028171 0.123485 0.063495 -0.011878 428261.000000 0 0 1
0.654495 -3.384686 31.967741 32.153086 -1.379784 0.107424 0.070342 -0.019197 -212693.000000 0 0 1
0.302495 -3.639386 30.642341 30.859192 -1.487870 0.118620 0.061156 -0.020184 229371.000000 0 0 1
-1.221905 -3.915286 30.521441 30.795794 1.268289 0.133582 0.062268 -0.020755 131795.000000 0 0 1
-1.991005 -2.750286 30.505641 30.694011 0.944192 0.110845 0.066889 -0.016633 -522940.000000 0 0 1
-3.337105 -3.135686 30.339341 30.682967 0.754290 0.149801 0.048727 -0.015967 96495.500000 0 0 1
-4.349005 -2.052186 29.921341 30.305313 0.440895 0.159355 0.065841 -0.020428 38252.000000 0 0 1
-4.299705 -1.852986 28.543841 28.925281 0.406905 0.162580 0.069281 -0.020375 236486.000000 0 0 1
-5.443205 -1.222986 27.955041 28.506289 0.221011 0.196979 0.060407 -0.019624 547341.000000 0 0 1
-5.565605 0.288714 28.160141 28.706321 -0.051828 0.195382 0.060255 -0.017456 231022.000000 0 0 1
-6.722805 0.562014 28.938741 29.714689 -0.083404 0.229031 0.058849 -0.015184 -97264.100000 0 0 1
-6.919705 1.937514 29.051041 29.926565 -0.273008 0.242485 0.061384 -0.016054 -1322740.000000 0 0 1
-8.292605 2.338114 29.480141 30.713398 -0.274818 0.284343 0.037731 -0.012430 -1317850.000000 0 0 1
-9.283905 1.758514 28.671841 30.188703 -0.187198 0.318347 0.013360 -0.006257 -877900.000000 0 0 1
-10.491305 2.397114 28.922241 30.859515 -0.224630 0.356217 0.000397 -0.003323 -910592.000000 0 0 1
-11.666305 1.809114 28.147641 30.523193 -0.153846 0.397137 -0.004762 0.002479 -384172.000000 0 0 1
-11.931705 0.417914 28.550341 30.946118 -0.035011 0.396075 -0.000609 -0.000847 62063.900000 0 0 1
-12.400305 -0.330886 27.450141 30.122870 0.026677 0.424433 -0.000412 0.000665 -1016840.000000 0 0 1
-12.476705 -1.839286 27.704841 30.440259 0.146363 0.427179 0.011529 -0.004408 622962.000000 0 0 1
-11.260805 -2.569486 27.939741 30.233047 0.224339 0.392003 0.029413 -0.010553 406677.000000 0 0 1
-10.116205 -2.381686 27.167441 29.087453 0.231222 0.365370 0.026590 -0.010852 -712512.000000 0 0 1
-10.052105 -3.121886 25.820141 27.883161 0.301126 0.387089 0.037544 -0.011669 -572355.000000 0 0 1
-10.943905 -2.609586 24.862541 27.289649 0.234080 0.424945 0.019956 -0.007896 45028.400000 0 0 1
-10.747305 -3.124386 23.572641 26.094746 0.282915 0.443284 0.030977 -0.008984 760293.000000 0 0 1
-9.531705 -2.576086 22.690541 24.745713 0.263959 0.410432 0.041826 -0.011052 1158590.000000 0 1 0
-8.261505 -2.846486 23.252741 24.840389 0.331810 0.359462 0.045080 -0.017750 -400262.000000 0 1 0
-7.297105 -2.230486 22.437641 23.699590 0.296648 0.327802 0.046123 -0.013957 244902.000000 0 1 0
-5.810405 -2.574386 22.755741 23.626511 0.417072 0.272339 0.053900 -0.014916 450871.000000 0 1 0
-5.325005 -3.894886 22.492441 23.440046 0.631512 0.285314 0.068103 -0.025097 -207696.000000 0 1 0
-5.875105 -4.944386 23.274141 24.508151 0.699587 0.318683 0.071948 -0.023925 -66158.400000 0 1 0
-5.515205 -6.432586 22.836341 24.357630 0.862030 0.355296 0.078646 -0.027275 95722.900000 0 1 0
-6.358905 -6.889886 21.781341 23.713562 0.825454 0.406480 0.071165 -0.034188 97447.900000 0 1 0
-6.229105 -6.210286 20.559041 22.361654 0.783885 0.404274 0.078095 -0.042247 -782434.000000 0 1 0
-7.542805 -6.167586 19.810741 22.077104 0.685428 0.457084 0.071443 -0.032738 -189868.000000 0 1 0
-8.412905 -5.088486 20.178841 22.446721 0.543973 0.453393 0.071546 -0.026044 669763.000000 0 1 0
-9.454305 -4.845886 19.206241 21.948718 0.473644 0.505256 0.071084 -0.023063 1037540.000000 0 1 0
-9.943505 -3.377186 19.272041 21.947443 0.327413 0.498920 0.049859 -0.025294 -873.734000 0 1 0
-8.938305 -2.541786 18.788941 20.961352 0.277056 0.459304 0.047410 -0.023231 -93595.700000 0 1 0
-9.343505 -1.188286 18.729441 20.964377 0.126499 0.465953 0.036679 -0.012209 -768990.000000 0 1 0
-8.191305 -0.299886 18.345641 20.093531 0.036594 0.420188 0.017778 -0.008602 220939.000000 0 1 0
-7.169105 -0.009086 19.358441 20.643290 0.001267 0.354675 0.029892 0.001591 1266430.000000 0 1 0
-7.667705 0.767314 20.425941 21.831206 -0.099739 0.360755 0.039193 0.001308 -384732.000000 0 1 0
-7.658105 2.275214 20.169941 21.694463 -0.288793 0.377124 0.031925 -0.005280 49023.000000 0 1 0
-8.649105 2.632614 19.228641 21.248020 -0.295470 0.439507 0.025884 -0.011339 375461.000000 0 1 0
-8.272505 3.888114 18.784841 20.890717 -0.439365 0.452869 0.017986 -0.012267 281931.000000 0 1 0
-9.233805 4.313914 17.639241 20.371938 -0.437054 0.523930 0.024196 -0.001390 884223.000000 0 1 0
-10.526305 4.696714 18.159041 21.508441 -0.419680 0.565585 0.015319 0.008428 775917.000000 0 1 0
-11.367705 5.119014 17.090141 21.154242 -0.423113 0.630246 0.023391 0.012915 115520.000000 0 1 0
-11.695705 6.616414 17.040841 21.701538 -0.514827 0.667718 0.034700 0.011187 486367.000000 0 1 0
-10.574905 7.411614 16.601341 21.032479 -0.611308 0.661097 0.031453 0.005610 1022130.000000 0 1 0
-10.924005 8.784114 16.628641 21.748707 -0.677243 0.700406 0.033794 0.001289 -103994.000000 0 1 0
-9.642305 9.618814 16.750341 21.588645 -0.784179 0.682677 0.030591 0.001441 -27353.700000 0 1 0
-9.136705 9.692614 18.112641 22.483192 -0.814913 0.634095 0.042416 0.017134 -104640.000000 0 1 0
-8.129505 10.618914 18.373941 22.725579 -0.917406 0.629174 0.040894 0.004817 -131828.000000 0 1 0
-8.557305 12.077114 18.099641 23.381214 -0.954351 0.685488 0.036035 0.003772 -363243.000000 0 1 0
-8.393005 12.457014 16.772641 22.515356 -0.977901 0.730348 0.031439 -0.006346 -79655.000000 0 1 0
-9.223105 13.546814 16.403041 23.187100 -0.973051 0.784954 0.047973 -0.016094 -389225.000000 0 1 0
-8.920205 14.135214 15.001841 22.459510 -1.007849 0.839345 0.047402 -0.018382 -376203.000000 0 1 0
-7.746905 14.869814 15.000541 22.497604 -1.090504 0.840941 0.047530 -0.004843 -716954.000000 0 1 0
-7.503005 15.372214 13.718741 21.927242 -1.116723 0.894834 0.034913 -0.004284 -565856.000000 0 1 0
-6.370805 16.384214 13.733241 22.307657 -1.199949 0.907612 0.002635 -0.003581 -1428930.000000 0 1 0
-5.134605 15.763114 13.804141 21.572999 -1.255899 0.876454 0.007924 -0.014979 -1253860.000000 0 1 0
-4.214205 16.856014 13.683841 22.116335 -1.325806 0.903683 0.011933 -0.015348 29410.400000 0 1 0
-2.722205 16.461514 13.782041 21.641084 -1.406912 0.880396 0.021519 -0.018845 -6451.150000 0 1 0
-2.290805 16.201514 15.101341 22.266283 -1.430333 0.825465 0.029574 -0.012667 -251400.000000 0 1 0
-2.612705 14.938314 15.550141 21.720644 -1.397648 0.772862 0.028696 -0.007999 -808560.000000 0 1 0
-1.616905 14.367314 16.562641 21.985341 -1.458727 0.717656 0.024800 0.002110 285540.000000 0 1 0
-0.326705 14.093414 16.020541 21.339841 -1.547619 0.721624 0.018264 -0.014160 586788.000000 0 1 0
0.645195 13.504114 16.912441 21.651976 1.523055 0.674365 0.019830 0.006891 455193.000000 0 1 0
1.556295 14.550414 17.569341 22.865222 1.464243 0.694479 0.019370 -0.004496 -522652.000000 0 1 0
0.923395 15.514014 18.423941 24.103504 1.511346 0.700736 0.023810 -0.014661 10457.300000 0 1 0
1.854995 16.525714 18.844741 25.132937 1.459015 0.723033 0.044038 -0.017482 67896.400000 0 0 1
1.189595 17.855814 19.290741 26.313076 1.504272 0.747893 0.050942 -0.019890 485225.000000 0 0 1
0.507095 18.667614 18.285441 26.136074 1.543639 0.795924 0.038631 -0.015113 587028.000000 0 0 1
-0.652805 18.109214 17.675241 25.313711 -1.534764 0.797850 0.052725 -0.016376 -309881.000000 0 0 1
-1.260805 19.011014 16.631041 25.290311 -1.504574 0.853161 0.035196 -0.008096 -377898.000000 0 0 1
-1.890805 20.122114 17.238141 26.563662 -1.477105 0.864610 0.036038 -0.006926 -258644.000000 0 0 1
-2.666305 20.807114 16.308941 26.571164 -1.443347 0.909952 0.032406 -0.010023 -256721.000000 0 0 1
-3.414805 22.046014 16.882941 27.977158 -1.417123 0.922970 0.033121 -0.012197 -202425.000000 0 0 1
-4.502305 21.804614 17.749541 28.473816 -1.367174 0.897759 0.040809 -0.006957 -123163.000000 0 0 1
-4.897705 23.016914 18.324241 29.825219 -1.361136 0.909187 0.041109 -0.005981 222658.000000 0 0 1
-5.975805 22.824414 19.447341 30.575533 -1.314728 0.881437 0.028251 -0.003763 1097880.000000 0 0 1
-7.337205 22.634414 19.069541 30.492601 -1.257323 0.895175 0.023056 -0.003054 393835.000000 0 0 1
-8.218105 22.495114 20.163941 31.307379 -1.220532 0.870998 0.000003 -0.000384 -77441.800000 0 0 1
-9.690905 22.564014 19.746841 31.511683 -1.165133 0.893547 0.005216 -0.003077 -352111.000000 0 0 1
-10.084605 23.895014 19.782141 32.619076 -1.171437 0.919196 0.011681 -0.003562 -42936.300000 0 0 1
-11.297905 24.078614 19.067241 32.725862 -1.132083 0.948829 0.013263 -0.004640 265627.000000 0 0 1
-11.997005 25.437114 19.345341 34.135277 -1.130098 0.968270 0.025511 -0.009094 -96582.700000 0 0 1
-12.373205 25.718114 20.686141 35.248178 -1.122376 0.943607 0.025576 -0.002460 236551.000000 0 0 1
-12.972605 27.035714 20.735241 36.457764 -1.123413 0.965815 0.034479 -0.010181 -95554.100000 0 0 1
-13.981605 27.133014 21.879641 37.555352 -1.094985 0.948876 0.058068 -0.023732 -308424.000000 0 0 1
-15.252305 26.533114 21.737541 37.538776 -1.049082 0.953210 0.063836 -0.018006 33747.300000 0 0 1
-16.009805 26.774614 22.872841 38.682822 -1.031888 0.938136 0.071031 -0.019970 -793009.000000 0 0 1
-17.427205 26.258114 23.003041 39.017124 -0.984858 0.940279 0.093309 -0.021092 -512953.000000 0 0 1
-17.619005 24.864714 22.860341 38.095650 -0.954325 0.927198 0.093709 -0.019047 352119.000000 0 0 1
-18.932705 24.477214 23.288841 38.729207 -0.912435 0.925638 0.109276 -0.013641 748049.000000 0 0 1
28.086095 24.248714 23.786101 44.075021 0.712205 1.000748 0.080426 -0.012841 -26014.600000 0 0 1
27.536495 23.413014 24.732351 43.796312 0.704641 0.970711 0.083680 -0.027898 -46920.300000 0 0 1
27.518895 22.087014 24.291541 42.839290 0.676332 0.967890 0.085585 -0.021929 -318158.000000 0 0 1
26.891595 21.121014 25.293371 42.532455 0.665783 0.933924 0.105683 -0.025847 -164086.000000 0 0 1
25.585395 21.491414 25.672541 42.137545 0.698653 0.915675 0.088453 -0.020986 -99430.500000 0 0 1
25.210995 20.631414 26.703801 42.122945 0.685830 0.884147 0.077595 -0.021260 160163.000000 0 0 1
23.840595 21.090314 27.282571 41.922715 0.724263 0.862182 0.087322 -0.022045 141324.000000 0 0 1
23.865495 22.278414 28.019251 43.022878 0.751018 0.861547 0.096012 -0.034000 -172064.000000 0 0 1
22.578795 22.243914 28.576531 42.675658 0.777927 0.837098 0.103741 -0.025779 -544784.000000 0 0 1
22.335495 23.356814 29.552331 43.792184 0.807747 0.830060 0.100340 -0.035628 -349013.000000 0 0 1
22.179395 24.592814 28.916821 43.964925 0.836952 0.853002 0.097491 -0.037578 51549.500000 0 0 1
21.963295 25.681314 29.838831 45.080728 0.863277 0.847449 0.095515 -0.037594 -417615.000000 0 0 1
20.540995 25.862914 30.356421 44.859058 0.899586 0.827516 0.108884 -0.036251 -780270.000000 0 0 1
19.560395 26.207914 29.345511 43.938853 0.929632 0.839451 0.110079 -0.046265 1227800.000000 0 0 1
18.284195 26.612714 29.860271 43.979360 0.968816 0.824450 0.099773 -0.044581 927276.000000 0 0 1
17.391795 25.449614 30.380501 43.279698 0.971311 0.792654 0.084431 -0.028767 -785718.000000 0 0 1
17.765995 25.050614 31.643401 44.096130 0.953920 0.770446 0.075140 -0.029480 -287148.000000 0 0 1
16.809495 24.252714 32.292628 43.744338 0.964718 0.740379 0.065088 -0.022604 -223015.000000 0 0 1
17.173895 23.926314 33.756354 44.798467 0.948235 0.717403 0.067426 -0.019098 -382987.000000 0 0 1
17.308295 25.083714 -33.514979 45.299267 0.966799 2.403654 0.065811 -0.023104 139177.000000 0 0 1
17.541295 24.822014 -32.146789 44.240767 0.955599 2.384204 0.032252 -0.007534 -82173.500000 0 0 1
17.922595 26.067714 -31.280089 44.488078 0.968482 2.350560 0.037668 -0.000500 -9777.660000 0 0 1
16.840195 26.866814 -30.867479 44.251770 1.010902 2.342758 0.050373 -0.012442 390755.000000 0 0 1
17.359195 28.120614 -30.370729 44.883090 1.017745 2.314017 0.056356 -0.013552 291462.000000 0 0 1
16.804195 28.321514 -28.938349 43.839676 1.035291 2.291741 0.072610 -0.012911 -120806.000000 0 0 1
17.430995 27.442714 -28.052629 42.940565 1.004912 2.282718 0.047987 -0.006091 27355.800000 0 0 1
17.157495 27.888814 -26.702399 42.251434 1.019268 2.254912 0.035006 -0.004814 -99777.100000 0 0 1
17.866695 27.206114 -25.480249 41.335632 0.989714 2.234989 0.029885 -0.002810 974411.000000 0 0 1
19.290495 27.425014 -25.561169 42.161925 0.957798 2.222148 0.037743 -0.000455 346465.000000 0 0 1
19.884695 26.703814 -24.500659 41.337357 0.930735 2.205204 0.035568 0.000482 -76386.600000 0 0 1
21.414795 26.898314 -24.530959 42.236012 0.898414 2.190516 0.031918 0.002395 181514.000000 0 0 1
21.982795 26.575814 -23.245459 41.591688 0.879705 2.163851 0.032873 0.000544 -1051950.000000 0 0 1
23.350695 26.403614 -23.318259 42.262832 0.846681 2.155250 0.039090 0.004591 -856054.000000 0 0 1
23.942695 26.185114 -21.907759 41.699673 0.830102 2.123946 0.046862 -0.003614 57960.400000 0 0 1
23.681995 24.932814 -21.357159 40.479752 0.811122 2.126570 0.053013 -0.000791 55312.500000 0 0 1
24.253195 25.000414 -20.078059 40.204062 0.800568 2.093707 0.057519 -0.008044 -95559.600000 0 0 1
23.810795 23.797214 -19.177859 38.743407 0.785113 2.088627 0.064555 -0.027465 -424776.000000 0 0 1
24.253395 22.473414 -19.546259 38.410125 0.747323 2.104683 0.063470 -0.019345 76290.300000 0 0 1
24.105795 21.613514 -18.436059 37.257504 0.730939 2.088433 0.073665 -0.028619 -915841.000000 0 0 1
24.334495 20.101614 -18.864459 36.771053 0.690427 2.109501 0.098048 -0.035752 659521.000000 0 0 1
23.424595 19.692214 -19.903859 36.505596 0.699049 2.147457 0.074754 -0.033681 162963.000000 0 0 1
22.069395 19.721914 -19.548559 35.470526 0.729286 2.154504 0.069218 -0.037399 -1477700.000000 0 0 1
21.026095 19.501614 -20.622159 35.322557 0.747800 2.194227 0.073423 -0.031891 -276810.000000 0 0 1
20.968795 20.362414 -21.745959 36.430825 0.770728 2.210442 0.069865 -0.026459 -208339.000000 0 0 1
20.782595 21.701914 -21.429159 36.906614 0.807034 2.190301 0.065075 -0.022669 -214630.000000 0 0 1
20.589095 22.570014 -22.747659 38.089006 0.831264 2.210832 0.060122 -0.008168 46910.000000 0 0 1
19.256495 22.425114 -23.156159 37.548715 0.861272 2.235335 0.067744 -0.015777 -672187.000000 0 0 1
18.895495 23.002614 -24.380859 38.478387 0.883112 2.257026 0.058713 -0.011199 540647.000000 0 0 1
17.345795 23.046714 -24.548459 37.876833 0.925610 2.275900 0.046900 -0.011297 452104.000000 0 0 1
16.705695 23.857514 -23.581359 37.474547 0.959917 2.251401 0.042510 -0.015888 328641.000000 0 0 1
15.304895 23.875414 -23.855059 37.058589 1.000752 2.270135 0.034955 -0.015654 737939.000000 0 0 1
14.533195 25.123314 -23.304759 37.222392 1.046355 2.247332 0.031172 -0.010065 63426.100000 0 0 1
14.796195 26.306914 -24.023559 38.576061 1.058449 2.243059 0.019145 -0.004743 -76649.700000 0 0 1
13.915295 27.329014 -23.622559 38.710925 1.099834 2.227147 0.048114 -0.008856 -100696.000000 0 0 1
13.927995 28.712214 -24.382359 40.160674 1.119148 2.223228 0.047958 -0.016980 2309.980000 0 0 1
13.751895 28.622314 -25.846759 40.943942 1.122902 2.253988 0.047583 -0.024325 -39518.300000 0 0 1
13.208895 29.780514 -26.469099 41.975792 1.153326 2.253097 0.078248 -0.033974 -76192.000000 0 0 1
14.087995 31.054614 -26.486309 43.178527 1.144909 2.231172 0.088012 -0.034128 -530101.000000 0 0 1
15.192295 30.943014 -27.311989 43.979776 1.114393 2.240830 0.066207 -0.012906 -1241450.000000 0 0 1
15.918895 32.097314 -27.274429 45.028250 1.110388 2.221464 0.077701 -0.028448 -912160.000000 0 0 1
17.318495 32.020814 -27.890669 45.860137 1.075004 2.224547 0.068048 -0.013651 -351468.000000 0 0 1
18.076895 31.220714 -26.972399 45.044616 1.045959 2.212789 0.031480 -0.014764 280718.000000 0 0 1
19.447595 31.229714 -27.365629 45.851735 1.013833 2.210339 0.035693 -0.015464 438840.000000 0 0 1
20.483895 30.512014 -26.470279 45.290712 0.979566 2.195002 0.013750 -0.004224 -838569.000000 0 0 1
20.719595 31.097014 -25.200449 45.070928 0.983055 2.164131 0.017133 -0.017476 49982.400000 0 0 1
21.720795 32.101014 -25.119229 46.187051 0.975922 2.145825 0.024963 -0.027764 898249.000000 0 0 1
23.201995 31.672614 -25.478369 46.804213 0.938553 2.146423 0.017038 -0.016750 154550.000000 0 0 1
23.368995 31.444914 -26.855219 47.498372 0.931679 2.171705 0.018788 -0.009295 -237603.000000 0 0 1
24.375895 32.255214 -27.429099 48.856305 0.923645 2.166902 0.020131 0.001281 -250987.000000 0 0 1
24.785995 31.596214 -28.838459 49.440095 0.905603 2.193583 0.023319 -0.002758 -37892.900000 0 0 1
23.912095 31.734014 -29.947479 49.756280 0.925049 2.216654 0.034033 -0.017547 330914.000000 0 0 1
22.804895 30.814614 -29.965019 48.657024 0.933682 2.234250 0.024439 -0.012226 1046510.000000 0 0 1
21.593795 31.419314 -30.798609 49.010403 0.968660 2.250303 0.040438 -0.011205 165476.000000 0 0 1
21.104995 32.641914 -30.246929 49.252331 0.996842 2.232069 0.055743 -0.016186 290357.000000 0 0 1
20.242595 33.362514 -31.131139 49.919613 1.025431 2.244168 0.071734 -0.022445 551588.000000 0 0 1
18.702495 33.118714 -30.968399 49.047673 1.056729 2.254146 0.067481 -0.028043 336642.000000 0 0 1
18.229895 31.774014 -31.198259 48.117028 1.049913 2.276255 0.081479 -0.034030 214558.000000 0 0 1
18.451395 31.229914 -32.524179 48.719439 1.037151 2.301752 0.092513 -0.037791 -746485.000000 0 0 1
17.654495 31.877614 -33.677949 49.619227 1.065024 2.316825 0.113583 -0.048404 -632003.000000 0 0 1
18.233395 33.075514 33.900268 50.751103 1.066982 0.839317 0.104244 -0.039181 -119979.000000 0 0 1
17.787395 33.635914 32.670364 50.150960 1.084358 0.861315 0.090608 -0.037915 -741223.000000 0 0 1
16.344495 -33.996982 32.537253 49.815762 -1.122656 0.859057 0.100740 -0.043394 -987758.000000 0 0 1
15.415195 33.056114 32.486232 48.843528 1.134442 0.843158 0.100268 -0.044731 107475.000000 0 0 1
14.033495 33.394414 32.478149 48.651373 1.172969 0.839857 0.082162 -0.042183 831822.000000 0 0 1
13.412095 -33.976882 31.256201 48.075596 -1.194831 0.863019 0.083030 -0.042555 -1007450.000000 0 0 1
13.860695 -32.700582 31.067021 47.186934 -1.169886 0.852129 0.099264 -0.026981 -23140.500000 0 0 1
13.288395 -32.105982 29.928351 45.859369 -1.178372 0.859770 0.095715 -0.025097 -303510.000000 0 0 1
14.030195 -30.831582 29.579361 44.970784 -1.143743 0.852974 0.076705 -0.017246 -267177.000000 0 0 1
13.972095 -29.852882 30.572181 44.956337 -1.133049 0.822977 0.079855 -0.018011 212651.000000 0 0 1
14.342795 -28.549882 30.196741 43.961969 -1.105249 0.813604 0.083883 -0.020471 -390184.000000 0 0 1
13.772295 -27.552882 31.286091 43.905090 -1.107269 0.777621 0.089484 -0.022559 202040.000000 0 0 1
12.394195 -27.253882 31.163121 43.214931 -1.143984 0.765380 0.087287 -0.024909 224816.000000 0 0 1
12.054295 -26.303582 30.186591 41.814049 -1.141082 0.764217 0.074662 -0.019570 -457519.000000 0 0 1
12.219795 -24.882982 30.790871 41.431436 -1.114302 0.732991 0.082958 -0.022736 -620839.000000 0 0 1
11.268795 -24.573882 31.749341 41.699905 -1.140840 0.705362 0.080860 -0.028354 -199472.000000 0 0 1
11.457095 -23.262682 32.170494 41.320190 -1.113159 0.678419 0.080677 -0.036292 -87496.600000 0 0 1
10.432095 -22.853682 33.235658 41.662073 -1.142572 0.647252 0.077407 -0.031660 -637989.000000 0 0 1
10.439695 -23.472382 -33.570139 42.271671 -1.152304 2.488408 0.082052 -0.023984 827548.000000 0 0 1
11.699795 -23.424482 -32.863549 42.019096 -1.107574 2.468841 0.090613 -0.026006 846411.000000 0 0 1
12.015495 -22.128782 -32.063539 40.769175 -1.073358 2.475861 0.099162 -0.026438 -200205.000000 0 0 1
12.360295 -21.099282 -32.963659 41.043384 -1.040872 2.503346 0.074278 -0.027424 -137413.000000 0 0 1
13.234795 -20.251682 -32.262939 40.326017 -0.991954 2.498179 0.093905 -0.030223 -392643.000000 0 0 1
13.783495 -19.058382 -33.042849 40.559050 -0.944653 2.522982 0.072761 -0.031610 -799659.000000 0 0 1
14.466995 -19.562482 33.904974 41.731665 -0.934031 0.622451 0.096938 -0.023273 -71688.200000 0 0 1
14.268695 -18.887382 32.631881 40.313379 -0.923809 0.627572 0.058359 -0.022098 -202680.000000 0 0 1
15.179395 -17.674882 32.367996 39.881106 -0.861209 0.623890 0.078988 -0.032714 -262359.000000 0 0 1
14.882795 -16.569282 33.208284 39.985357 -0.838968 0.590772 0.065225 -0.024756 407357.000000 0 0 1
15.551195 -15.385182 32.771221 39.401731 -0.780032 0.588597 0.094269 -0.031397 744085.000000 0 0 1
17.003495 -15.110082 33.297460 40.325603 -0.726506 0.599328 0.099362 -0.028430 756406.000000 0 0 1
18.036495 -15.993382 32.901463 40.787372 -0.725431 0.632321 0.105912 -0.025502 -305722.000000 0 0 1
19.265395 -15.465282 33.305261 41.467708 -0.676415 0.638214 0.129418 -0.029773 -755389.000000 0 0 1
20.415995 -16.051382 32.488109 41.592511 -0.666279 0.674363 0.147215 -0.040849 -586575.000000 0 0 1
20.382595 -15.741282 31.086021 40.368042 -0.657615 0.691853 0.134779 -0.033161 628410.000000 0 0 1
21.301895 -16.564682 30.324511 40.592307 -0.660942 0.727182 0.129487 -0.035812 -85029.500000 0 0 1
21.653395 -15.868982 28.960481 39.489284 -0.632443 0.747522 0.123619 -0.023411 -63102.700000 0 0 1
22.603095 -14.823282 29.132091 39.740512 -0.580447 0.747990 0.119977 -0.024133 451076.000000 0 0 1
22.997495 -14.205882 27.978801 38.903794 -0.553343 0.768176 0.107818 -0.027835 -196949.000000 0 0 1
23.787295 -12.904282 28.200281 39.084674 -0.497056 0.764805 0.093164 -0.020542 -200371.000000 0 0 1
22.980195 -11.797382 28.562701 38.510978 -0.474288 0.735229 0.104550 -0.026731 46170.100000 0 0 1
23.674595 -10.607182 28.810221 38.768900 -0.421223 0.733065 0.083515 -0.020815 -153413.000000 0 0 1
22.724795 -9.398582 28.767631 37.846086 -0.392161 0.707296 0.088295 -0.024247 235061.000000 0 0 1
21.839195 -9.279482 29.861881 38.141725 -0.401786 0.671452 0.103215 -0.037157 -301524.000000 0 0 1
20.876095 -8.297082 29.577381 37.141276 -0.378301 0.649563 0.090775 -0.028644 -547408.000000 0 0 1
19.678095 -8.208882 30.482821 37.199671 -0.395210 0.610367 0.069543 -0.018486 -566787.000000 0 0 1
19.978195 -7.734682 31.810941 38.352178 -0.369385 0.592687 0.079603 -0.019886 116674.000000 0 0 1
20.375895 -8.742682 32.709813 39.516369 -0.405313 0.595704 0.096796 -0.023547 -344826.000000 0 0 1
20.338595 -8.182582 -33.892059 40.364399 -0.382503 2.567439 0.097756 -0.026671 425949.000000 0 0 1
19.049195 -7.899082 -33.343369 39.205198 -0.393086 2.587700 0.084653 -0.028214 466273.000000 0 0 1
19.095695 -7.359882 -32.023119 38.003862 -0.367875 2.572941 0.090871 -0.035482 1296520.000000 0 0 1
17.626595 -7.194982 -31.416299 36.734839 -0.387546 2.596768 0.092329 -0.031721 1426670.000000 0 0 1
17.618395 -6.159582 -30.457629 35.721358 -0.336328 2.591823 0.097148 -0.028245 234171.000000 0 0 1
16.539095 -6.255082 -29.543069 34.430519 -0.361573 2.602255 0.094247 -0.022148 29820.300000 0 0 1
16.620695 -5.094782 -28.455469 33.345434 -0.297439 2.593182 0.090589 -0.025478 -142235.000000 0 0 1
17.452895 -5.205182 -27.313399 32.828634 -0.289843 2.553498 0.088092 -0.022027 -4511.640000 0 0 1
17.095995 -6.098682 -26.240389 31.906503 -0.342659 2.536440 0.096997 -0.025629 353380.000000 0 0 1
15.696195 -5.855382 -25.578809 30.576649 -0.357055 2.561747 0.079355 -0.021613 612071.000000 0 0 1
15.533495 -4.643282 -24.945959 29.751477 -0.290466 2.565281 0.092524 -0.010178 -743846.000000 0 0 1
14.222195 -4.521882 -24.477559 28.668260 -0.307838 2.594078 0.048661 -0.018281 -310603.000000 0 0 1
13.922795 -3.207582 -23.747659 27.714330 -0.226433 2.599969 0.064896 -0.016055 -3681.900000 0 0 1
14.018295 -2.046082 -24.557559 28.350886 -0.144935 2.618345 0.057968 -0.020028 105581.000000 0 0 1
13.864295 -0.925082 -23.700559 27.473458 -0.066625 2.611324 0.056553 -0.022856 -77497.000000 0 0 1
14.242895 0.408918 -24.363259 28.224026 0.028702 2.612390 0.052688 -0.024843 -124639.000000 0 0 1
13.339495 0.883918 -25.368079 28.675126 0.066166 2.656586 0.055714 -0.030258 433708.000000 0 0 1
13.905195 2.016918 -25.970819 29.528051 0.144043 2.645671 0.064973 -0.021374 194297.000000 0 0 1
12.923695 2.714918 -26.941609 30.004049 0.207062 2.685846 0.077362 -0.031529 312585.000000 0 0 1
11.751695 3.322918 -26.419789 29.105830 0.275567 2.708601 0.076686 -0.039047 565724.000000 0 0 1
10.857595 3.602918 -27.508169 29.792075 0.320400 2.747482 0.075641 -0.034925 126726.000000 0 0 1
9.680095 4.476918 -27.036939 29.064464 0.433189 2.765864 0.066358 -0.029589 -137136.000000 0 0 1
10.033395 5.864918 -26.916619 29.318435 0.528974 2.734001 0.066893 -0.029811 110039.000000 0 0 1
8.888195 6.672918 -26.814969 29.027063 0.643989 2.748665 0.079025 -0.032163 -77787.700000 0 0 1
8.605595 5.020114 -31.575329 33.109805 0.528090 2.835954 0.083015 -0.030940 -189473.000000 0 0 1
8.675395 4.048114 -30.585379 32.048636 0.436589 2.838248 0.063222 -0.021516 304858.000000 0 0 1
7.858995 2.918414 -30.814489 31.934521 0.355564 2.875962 0.057419 -0.014237 -154529.000000 0 0 1
7.715195 2.027914 -29.535639 30.593964 0.257033 2.877798 0.056479 -0.009483 -525361.000000 0 0 1
8.889295 1.380514 -29.174109 30.529559 0.154070 2.842492 0.074285 -0.021869 1418.890000 0 0 1
8.548695 0.588614 -28.058129 29.337437 0.068746 2.845190 0.053493 -0.016731 575040.000000 0 0 1
9.794495 -0.010686 -27.331839 29.033802 -0.001091 2.797494 0.057061 -0.021294 125677.000000 0 0 1
10.536195 -0.934586 -28.016269 29.946555 -0.088471 2.780588 0.086759 -0.022262 23629.000000 0 0 1
11.775395 -1.205886 -27.360299 29.811072 -0.102051 2.733274 0.073938 -0.024997 356648.000000 0 0 1
12.396895 -2.467586 -27.885339 30.616402 -0.196481 2.716008 0.066833 -0.022372 -61951.000000 0 0 1
11.636395 -3.586886 -27.400169 29.984007 -0.299006 2.723404 0.062458 -0.012747 397914.000000 0 0 1
12.146195 -4.854786 -27.865759 30.783104 -0.380244 2.702715 0.068107 -0.012232 -38327.900000 0 0 1
11.424695 -5.981686 -27.132969 30.041674 -0.482329 2.697912 0.032725 -0.016472 -140199.000000 0 0 1
11.459495 -5.966486 -25.729559 28.791130 -0.480038 2.676238 0.043257 -0.011867 38597.400000 0 0 1
10.790895 -7.053086 -25.124949 28.239201 -0.578912 2.667525 0.037903 -0.016668 -284564.000000 0 0 1
10.847595 -6.929386 -23.594159 26.876961 -0.568458 2.642168 0.041690 -0.017413 -902568.000000 0 0 1
12.097595 -7.128186 -23.012159 26.957787 -0.532458 2.593724 0.039704 -0.015187 -390946.000000 0 0 1
11.907695 -7.099086 -21.619059 25.682171 -0.537603 2.571392 0.049039 -0.024586 713779.000000 0 0 1
13.278995 -7.043786 -20.860459 25.711969 -0.487706 2.517191 0.065241 -0.017555 667126.000000 0 0 1
13.810495 -5.766086 -20.715359 25.555891 -0.395514 2.515956 0.059212 -0.019357 -996478.000000 0 0 1
14.994595 -5.860086 -20.011459 25.683398 -0.372562 2.464120 0.066514 -0.017483 -1004560.000000 0 0 1
15.395395 -4.474786 -19.443559 25.201068 -0.282864 2.452050 0.065128 -0.019798 -202706.000000 0 0 1
15.982995 -3.547986 -20.314359 26.090563 -0.218443 2.463243 0.053693 -0.015494 -36616.300000 0 0 1
16.427995 -2.407186 -19.689559 25.755626 -0.145494 2.441024 0.053067 -0.013224 -276764.000000 0 0 1
17.422695 -1.616386 -20.553259 26.992581 -0.092510 2.436330 0.031263 -0.008476 442291.000000 0 0 1
18.717195 -2.218686 -20.622559 27.938251 -0.117987 2.401117 0.052766 -0.016120 195739.000000 0 0 1
19.519895 -1.505586 -21.533059 29.102675 -0.076978 2.403717 0.054783 -0.016194 21578.900000 0 0 1
20.819695 -2.319586 -21.805359 30.237623 -0.110955 2.376233 0.048744 -0.014221 -380048.000000 0 0 1
21.801495 -2.087886 -20.827859 30.223569 -0.095477 2.331079 0.039170 -0.010961 -981276.000000 0 0 1
22.923995 -2.843486 -21.019459 31.231596 -0.123409 2.309079 0.048445 -0.014000 -344363.000000 0 0 1
24.134995 -2.130986 -21.708259 32.531332 -0.088066 2.301378 0.053838 -0.018721 -562022.000000 0 0 1
23.795795 -1.775186 -23.042659 33.171603 -0.074463 2.338730 0.051339 -0.021910 601092.000000 0 0 1
24.821095 -1.002586 -23.699959 34.333365 -0.040371 2.332685 0.044867 -0.014004 1215610.000000 0 0 1
26.162695 -1.755886 -24.050559 35.580881 -0.067014 2.313036 0.050354 -0.025462 -670452.000000 0 0 1
27.043795 -1.936586 -22.954459 35.524982 -0.071487 2.273325 0.040669 -0.017496 538130.000000 0 0 1
28.280495 -2.544286 -23.334959 36.752960 -0.089725 2.258693 0.035135 -0.017781 787138.000000 0 0 1
29.302095 -1.786486 -24.207259 38.049910 -0.060892 2.260356 0.035085 -0.019425 -970270.000000 0 0 1
28.803395 -1.602786 -25.505299 38.506165 -0.055588 2.294773 0.040937 -0.024147 408802.000000 0 0 1
29.604295 -0.624086 -26.158399 39.510322 -0.021078 2.294367 0.032538 -0.022836 -119793.000000 0 0 1
29.038895 -0.451386 -27.603029 40.067298 -0.015543 2.330790 0.044434 -0.028860 1020130.000000 0 0 1
27.671795 -0.045086 -27.804079 39.227504 -0.001629 2.358578 0.046933 -0.015059 955755.000000 0 0 1
27.439595 1.345114 -27.543119 38.901980 0.048982 2.357477 0.045689 -0.014656 -938999.000000 0 0 1
25.969195 1.714514 -27.674109 37.989405 0.065925 2.386881 0.040324 -0.021764 -612610.000000 0 0 1
25.126295 1.260214 -26.656619 36.653706 0.050113 2.385112 0.044055 -0.021684 443586.000000 0 0 1
23.742995 1.458914 -26.922759 35.926218 0.061369 2.417937 0.040989 -0.026301 591761.000000 0 0 1
22.747795 1.165114 -25.766379 34.390782 0.051174 2.417685 0.048372 -0.029410 53424.500000 0 0 1
22.758595 2.141514 -24.734659 33.680010 0.093821 2.395581 0.057903 -0.030301 -354113.000000 0 0 1
21.833395 1.761214 -23.798359 32.344410 0.080492 2.397614 0.055737 -0.029168 -769213.000000 0 0 1
21.954595 2.403714 -22.357459 31.426709 0.109051 2.362307 0.052025 -0.015114 -469741.000000 0 0 1
21.665295 3.718114 -22.189959 31.234654 0.169960 2.360902 0.063363 -0.016819 323021.000000 0 0 1
21.746195 3.999414 -20.790959 30.350556 0.181881 2.325437 0.060066 -0.018255 -256185.000000 0 0 1
21.251395 5.440214 -20.511259 30.032140 0.250611 2.322627 0.073463 -0.016936 -400359.000000 0 0 1
22.132995 6.366414 -21.056659 31.205505 0.280082 2.311455 0.054755 -0.008929 115160.000000 0 0 1
21.983095 7.753914 -20.627659 31.126836 0.339097 2.295211 0.048112 -0.003018 -459425.000000 0 0 1
22.476395 8.062514 -19.188059 30.632892 0.344413 2.247706 0.052410 -0.026084 -57778.200000 0 0 1
23.877695 8.136714 -18.941459 31.545670 0.328425 2.214855 0.036789 -0.026378 707416.000000 0 0 1
24.306995 8.487714 -17.626159 31.201807 0.335951 2.171118 0.058368 -0.043464 19786.200000 0 0 1
24.149095 9.985214 -17.307159 31.343596 0.392074 2.155767 0.060174 -0.052079 -218317.000000 0 0 1
22.813195 10.192814 -16.902459 30.166677 0.420185 2.165547 0.060970 -0.059230 123129.000000 0 0 1
22.421595 11.569014 -16.943059 30.391401 0.476347 2.162162 0.058886 -0.048975 -1142320.000000 0 0 1
20.962995 11.901014 -16.686859 29.317785 0.516342 2.176295 0.054851 -0.050438 -315667.000000 0 0 1
20.087795 11.689914 -17.796559 29.272702 0.527035 2.224282 0.058468 -0.050262 499884.000000 0 0 1
19.684995 10.296114 -17.946359 28.558375 0.481912 2.250303 0.056480 -0.044505 -726752.000000 0 0 1
18.846695 9.972214 -19.183059 28.681574 0.486673 2.303428 0.074310 -0.020294 -75612.000000 0 0 1
19.558895 10.021514 -20.432859 30.008046 0.473500 2.319804 0.082469 -0.026049 344720.000000 0 0 1
18.791695 9.519414 -21.490059 30.092684 0.468894 2.366175 0.066597 -0.021414 -172212.000000 0 0 1
19.542095 9.747514 -22.823459 31.588254 0.462684 2.378251 0.079986 -0.016849 192376.000000 0 0 1
19.245695 11.070214 -23.286759 32.174828 0.521988 2.380028 0.090717 -0.017517 383972.000000 0 0 1
20.313995 11.455414 -24.110659 33.544131 0.513466 2.372834 0.089317 -0.018222 -65519.600000 0 0 1
20.167195 12.903014 -24.554259 34.294535 0.569173 2.368826 0.114496 -0.019630 3167.610000 0 0 1
21.217695 13.416514 -25.365499 35.687560 0.563851 2.361383 0.087982 -0.015311 202749.000000 0 0 1
21.136795 14.842414 -25.469579 36.273417 0.612206 2.349217 0.087556 -0.015556 518520.000000 0 0 1
19.902095 15.441014 -26.230439 36.366938 0.659840 2.376433 0.079968 -0.008408 786926.000000 0 0 1
18.650395 15.142614 -25.624829 35.125031 0.681967 2.388434 0.078493 -0.021794 221410.000000 0 0 1
17.608595 15.606414 -26.506749 35.443342 0.725192 2.415633 0.065348 -0.024149 453439.000000 0 0 1
16.203395 15.166314 -26.048469 34.221189 0.752350 2.435926 0.064369 -0.028746 -158633.000000 0 0 1
15.973295 13.725614 -26.136799 33.565918 0.709860 2.463341 0.064665 -0.018652 43249.100000 0 0 1
14.654595 13.351014 -25.813699 32.547715 0.738885 2.486683 0.047548 -0.022682 -336771.000000 0 0 1
14.394395 11.855514 -25.866509 31.887742 0.688978 2.516953 0.050811 -0.023715 -89908.300000 0 0 1
13.057095 11.501514 -25.593999 30.948753 0.722141 2.544511 0.050111 -0.020637 -156488.000000 0 0 1
12.922495 10.086014 -25.561129 30.365932 0.662737 2.571350 0.066795 -0.025165 58679.700000 0 0 1
11.474095 9.548314 -25.476569 29.527626 0.694047 2.611588 0.064546 -0.040122 47395.600000 0 0 1
10.931695 9.832914 -24.186059 28.304657 0.732531 2.595365 0.068398 -0.039697 -576144.000000 0 0 1
9.709095 9.206614 -23.944159 27.429017 0.758840 2.632014 0.063451 -0.036712 -540193.000000 0 0 1
9.005395 9.934814 -22.794059 26.445544 0.834430 2.609849 0.075551 -0.038121 -226620.000000 0 0 1
8.421595 11.177114 -23.151159 27.052307 0.925080 2.597877 0.077690 -0.041284 -86020.600000 0 0 1
7.872195 12.007314 -22.114359 26.366492 0.990483 2.565742 0.077290 -0.033704 21998.300000 0 0 1
8.864895 12.845914 -21.298859 26.405402 0.966749 2.509190 0.077892 -0.029489 113040.000000 0 0 1
9.758795 12.012114 -20.554959 25.729969 0.888532 2.496214 0.093447 -0.036044 374321.000000 0 0 1
10.624695 12.834614 -19.712959 25.811087 0.879323 2.439883 0.106554 -0.032802 687391.000000 0 0 1
11.708295 11.954514 -18.988759 25.309436 0.795803 2.419258 0.114270 -0.036187 749454.000000 0 0 1
12.728595 11.308914 -19.782059 26.100546 0.726406 2.430911 0.088706 -0.032436 508946.000000 0 0 1
12.369195 10.392614 -20.785159 26.325391 0.698778 2.480868 0.087231 -0.033862 111032.000000 0 0 1
13.671895 9.701714 -21.365459 27.157444 0.617147 2.476283 0.088633 -0.030324 905534.000000 0 0 1
14.286695 8.784114 -20.509959 26.493937 0.551264 2.456148 0.107960 -0.040649 20621.000000 0 0 1
15.245695 8.048714 -21.253559 27.366526 0.485744 2.460089 0.091605 -0.039736 -144011.000000 0 0 1
15.769295 6.852114 -20.443059 26.712184 0.409909 2.442317 0.120653 -0.042768 -326498.000000 0 0 1
16.502195 7.265414 -19.356259 26.453231 0.414733 2.391633 0.099704 -0.033584 -253532.000000 0 0 1
17.143595 6.178414 -18.740659 26.139777 0.345903 2.370200 0.082499 -0.044075 -151025.000000 0 0 1
17.878595 6.528314 -17.445659 25.818870 0.350105 2.312702 0.100606 -0.031781 -1024140.000000 0 0 1
19.128695 7.099714 -17.695559 27.008252 0.355396 2.285231 0.090318 -0.041974 59725.600000 0 0 1
20.009995 7.095114 -16.560259 26.925503 0.340748 2.233233 0.076423 -0.064260 261544.000000 0 0 1
20.614495 5.808814 -16.055259 26.766977 0.274661 2.214067 0.070416 -0.062610 -817244.000000 0 0 1
21.821195 5.391414 -16.659959 27.978315 0.242221 2.208634 0.064148 -0.060724 799299.000000 0 0 1
22.508895 4.248314 -16.080759 27.987306 0.186545 2.182879 0.089370 -0.061531 -447240.000000 0 0 1
23.950095 4.062414 -16.490959 29.360892 0.168021 2.167192 0.040502 -0.017255 -969003.000000 0 0 1
24.554695 3.146014 -15.628059 29.275701 0.127428 2.133912 0.038899 -0.013576 3246.830000 0 0 1
25.805195 2.669914 -16.072759 30.518357 0.103097 2.125462 0.041335 -0.020385 -19900.900000 0 0 1
26.515495 1.555014 -15.242259 30.623781 0.058578 2.091772 0.070592 -0.030182 -671978.000000 0 0 1
25.835295 0.328514 -15.096659 29.924563 0.012715 2.099588 0.069975 -0.018787 -38916.300000 0 0 1
26.610795 -0.786986 -15.527459 30.819729 -0.029565 2.098807 0.069704 -0.010271 -366980.000000 0 0 1
25.861795 -2.092886 -15.738059 30.346319 -0.080750 2.116027 0.044375 -0.009614 -576799.000000 0 0 1
25.497295 -2.811086 -14.591559 29.511486 -0.109807 2.087983 0.047595 -0.006035 317042.000000 0 0 1
25.341395 -4.149686 -14.884259 29.680757 -0.162311 2.096103 0.040650 -0.001025 -751284.000000 0 0 1
24.760795 -5.022086 -13.720759 28.750261 -0.200110 2.068307 0.047790 -0.001175 734713.000000 0 0 1
23.375095 -4.840986 -13.419459 27.384522 -0.204213 2.082930 0.060686 0.006756 564126.000000 0 0 1
22.528395 -5.523186 -14.296359 27.247385 -0.240423 2.123144 0.067478 0.002378 103137.000000 0 0 1
21.029295 -5.593186 -13.827559 25.782093 -0.259953 2.136872 0.075350 -0.003846 646859.000000 0 0 1
20.818595 -6.542586 -12.800359 25.299575 -0.304493 2.101281 0.084855 -0.005278 305906.000000 0 0 1
20.878295 -6.078786 -11.436559 24.569284 -0.283321 2.054975 0.102077 -0.007841 -346808.000000 0 1 0
20.568495 -7.266186 -10.398059 24.165679 -0.339583 2.015602 0.098785 -0.014260 80166.200000 0 1 0
19.229995 -7.747886 -10.383159 23.186902 -0.383009 2.035103 0.103385 -0.016073 782663.000000 0 1 0
19.026695 -8.704986 -11.398859 23.826999 -0.429085 2.069629 0.092627 -0.020182 479992.000000 0 1 0
17.587295 -9.350186 -11.233259 22.867553 -0.488641 2.084299 0.112651 -0.029176 615579.000000 0 1 0
16.591595 -8.374086 -11.445459 21.826700 -0.467415 2.122782 0.097296 -0.026924 -1295070.000000 0 1 0
15.494495 -9.070186 -11.924659 21.553309 -0.529601 2.157073 0.103070 -0.021613 -840449.000000 0 1 0
14.347795 -8.061886 -12.196759 20.484485 -0.511926 2.208578 0.074037 -0.013656 -600232.000000 0 1 0
14.477995 -7.125086 -13.314159 20.919990 -0.457333 2.260660 0.069582 -0.018573 751280.000000 0 1 0
15.535195 -6.153486 -13.242359 21.320594 -0.377140 2.240950 0.069671 -0.018663 366918.000000 0 1 0
15.309495 -5.138986 -14.363659 21.612600 -0.323855 2.297750 0.052317 -0.013277 203012.000000 0 1 0
14.137495 -4.356986 -14.176659 20.489747 -0.298950 2.334900 0.053118 -0.015360 174781.000000 0 1 0
13.866795 -3.386086 -15.211459 20.860059 -0.239500 2.387970 0.050915 -0.016904 -325772.000000 0 1 0
14.878795 -2.238686 -15.384859 21.519389 -0.149341 2.367320 0.052450 -0.016031 -94051.200000 0 1 0
16.043195 -2.613386 -16.100559 22.878852 -0.161478 2.351432 0.047402 -0.013582 -34666.100000 0 1 0
17.079595 -1.671886 -16.109359 23.537612 -0.097577 2.324589 0.057084 -0.005686 34276.200000 0 1 0
18.219295 -1.979086 -15.113059 23.754242 -0.108202 2.260392 0.067223 -0.005035 -620270.000000 0 1 0
17.807995 -2.019286 -13.754759 22.591936 -0.112910 2.225387 0.060099 -0.002605 458658.000000 0 1 0
18.917995 -2.246986 -12.889159 23.001519 -0.118221 2.165618 0.069594 -0.001606 256302.000000 0 1 0
18.457795 -2.461686 -11.473959 21.872398 -0.132586 2.123025 0.068925 0.005176 -242138.000000 0 1 0
18.090395 -1.314986 -10.747659 21.083257 -0.072562 2.105716 0.058003 0.003783 629170.000000 0 1 0
17.642595 -1.699086 -9.463559 20.092461 -0.096010 2.061221 0.056113 0.000370 -860367.000000 0 1 0
17.392295 -0.462186 -8.529359 19.376674 -0.026568 2.026603 0.035320 0.000444 43721.600000 0 1 0
18.592595 -0.069886 -7.856459 20.184484 -0.003759 1.970595 0.042945 0.003024 1413940.000000 0 1 0
19.651395 0.548914 -8.603459 21.459220 0.027925 1.983319 0.055233 0.002888 74553.300000 0 1 0
19.348595 1.883114 -9.310459 21.554556 0.097020 2.017448 0.053383 0.000208 -809624.000000 0 1 0
19.075095 3.044514 -8.536659 21.118779 0.158272 1.986924 0.041683 0.000298 411270.000000 0 1 0
18.661295 4.063514 -9.387759 21.281120 0.214404 2.027655 0.041635 -0.003459 -559279.000000 0 1 0
18.700695 5.476214 -8.821359 21.389747 0.284870 1.995895 0.056882 0.000036 -381208.000000 0 1 0
17.979395 6.415514 -9.589559 21.362984 0.342743 2.036315 0.039584 -0.005343 337070.000000 0 1 0
18.364395 7.717814 -9.320059 21.992707 0.397849 2.008410 0.057029 -0.001120 -365794.000000 0 1 0
-27.757195 -29.481366 6.138941 40.954846 0.815512 1.420334 0.098855 -0.015016 185826.000000 0 0 1
-27.610285 -28.401676 6.956741 40.216654 0.799526 1.396940 0.065246 -0.012807 -1040050.000000 0 0 1
-26.456315 -27.691996 6.703741 38.880887 0.808214 1.397513 0.105877 -0.017024 -1047580.000000 0 0 1
-26.232825 -26.385936 7.518341 37.959244 0.788308 1.371414 0.083097 -0.014774 -385058.000000 0 0 1
-27.092215 -25.268966 7.242341 37.748646 0.750592 1.377742 0.079443 -0.023746 236161.000000 0 0 1
-28.375825 -25.431476 7.839741 38.902557 0.730732 1.367884 0.058458 -0.021274 118522.000000 0 0 1
-28.544995 -25.348456 9.371041 39.308744 0.726155 1.330083 0.043111 -0.019678 -974282.000000 0 0 1
-27.694595 -26.152336 10.128041 39.414623 0.756764 1.310919 0.051968 -0.025102 -437350.000000 0 0 1
-28.107265 -26.460466 11.421541 40.257002 0.755228 1.283130 0.033968 -0.024929 -867840.000000 0 0 1
-27.018085 -27.341606 12.017641 40.273615 0.791350 1.267781 0.028394 -0.028947 372848.000000 0 0 1
-25.850805 -26.645016 12.449741 39.156316 0.800526 1.247230 0.049484 -0.024089 177093.000000 0 0 1
-26.009885 -25.938696 13.638441 39.183378 0.784028 1.215288 0.048905 -0.022635 -1424600.000000 0 0 1
-24.649105 -25.494596 14.111841 38.166698 0.802258 1.192065 0.063220 -0.023327 -1142240.000000 0 0 1
-23.854605 -26.509476 14.548541 38.515640 0.838063 1.183452 0.067859 -0.022130 -267837.000000 0 0 1
-22.748805 -26.131576 15.356441 37.897067 0.854493 1.153583 0.077520 -0.022670 67440.000000 0 0 1
-21.920605 -27.292456 15.864541 38.432730 0.894123 1.145284 0.081078 -0.025259 -501093.000000 0 0 1
-22.655505 -28.099096 16.758041 39.795264 0.892243 1.136131 0.080518 -0.015899 187874.000000 0 0 1
-21.922605 -29.152446 17.313841 40.376166 0.926017 1.127617 0.079698 -0.011826 -515943.000000 0 0 1
-22.768005 -29.972846 18.291241 41.848812 0.921166 1.118448 0.076171 -0.018511 -413889.000000 0 0 1
-23.745005 -30.655806 17.550441 42.563149 0.911756 1.145776 0.067391 -0.016148 -171635.000000 0 0 1
-24.336705 -31.598366 18.402741 43.924854 0.914499 1.138497 0.077378 -0.014487 -971205.000000 0 0 1
-25.378785 -32.473776 17.729941 44.866242 0.907428 1.164540 0.073204 -0.020533 -476553.000000 0 0 1
-24.833405 -33.268776 16.683541 44.742038 0.929572 1.188682 0.071524 -0.020951 -217315.000000 0 0 1
-25.744495 33.913753 16.224341 45.564800 -0.921486 1.206736 0.069013 -0.019732 -1006870.000000 0 0 1
-25.140145 33.014941 15.098941 44.158705 -0.919990 1.221832 0.074793 -0.028406 59182.700000 0 0 1
-23.991405 32.225989 15.361041 43.012365 -0.930841 1.205602 0.061747 -0.028750 398534.000000 0 0 1
-22.854105 33.039380 15.080741 42.910832 -0.965647 1.211684 0.055516 -0.029896 -910984.000000 0 0 1
-21.550905 32.249281 15.017141 41.592934 -0.981691 1.201402 0.047493 -0.031944 -523563.000000 0 0 1
-21.575105 31.417611 13.876541 40.559954 -0.969039 1.221620 0.037284 -0.014013 463745.000000 0 0 1
-20.421605 30.579201 13.854841 39.294862 -0.981991 1.210463 0.034604 -0.016685 334092.000000 0 0 1
-20.387505 29.778531 12.571141 38.215768 -0.970455 1.235603 0.029698 -0.015382 -56638.100000 0 0 1
-19.959505 30.543731 11.447741 38.240713 -0.991983 1.266774 0.020960 -0.007073 -78632.000000 0 0 1
-20.290805 29.931801 10.249141 37.585561 -0.975056 1.294610 0.033828 -0.010955 17059.400000 0 0 1
-19.924105 30.766021 9.014841 37.746330 -0.996109 1.329639 0.019293 -0.004907 -674897.000000 0 0 1
-18.546605 30.841251 8.822241 37.053897 -1.029380 1.330395 0.027642 -0.012142 -892333.000000 0 0 1
-18.238105 31.342951 7.570141 37.044785 -1.043801 1.364996 0.045513 -0.016116 67608.400000 0 0 1
-17.709905 30.261621 6.579541 35.674877 -1.041310 1.385304 0.043931 -0.018372 -75821.900000 0 0 1
-18.625905 29.200431 6.347741 35.211977 -1.003000 1.389533 0.032231 -0.012624 337928.000000 0 0 1
-18.289605 28.031631 7.075741 34.210351 -0.992692 1.362462 0.021901 -0.008816 -4881.800000 0 0 1
-19.283105 26.941651 6.621841 33.786676 -0.949587 1.373530 0.022372 0.001013 126224.000000 0 0 1
-18.781005 26.134031 5.610641 32.667921 -0.947668 1.398193 0.038949 -0.007883 908580.000000 0 0 1
-19.877305 25.378791 5.028341 32.626286 -0.906368 1.416060 0.033976 -0.007155 266237.000000 0 0 1
-19.651405 24.649341 3.671841 31.737205 -0.897741 1.454841 0.044312 -0.017508 -1566700.000000 0 0 1
-19.525305 25.421091 2.445241 32.147296 -0.915827 1.494659 0.048889 -0.018417 161345.000000 0 0 1
-18.421605 26.296511 2.261441 32.186584 -0.959712 1.500478 0.047924 -0.014028 289161.000000 0 0 1
-16.980505 25.697571 2.493841 30.901812 -0.986878 1.490006 0.047383 -0.017373 -272827.000000 0 0 1
-16.673905 24.552221 1.725141 29.728888 -0.974222 1.512735 0.066337 -0.027500 103628.000000 0 0 1
-16.562305 24.741871 0.358941 29.775812 -0.980901 1.558741 0.061612 -0.022415 -424503.000000 0 0 1
-16.184705 23.529551 -0.496359 28.562753 -0.968274 1.588175 0.070669 -0.025052 408843.000000 0 0 1
-17.255105 22.574711 -0.591759 28.420176 -0.918171 1.591620 0.072956 -0.030673 588701.000000 0 0 1
-17.075505 21.483011 -1.587859 27.488433 -0.899211 1.628593 0.078226 -0.034401 -33994.300000 0 0 1
-16.087605 20.342111 -1.210259 25.962998 -0.901658 1.617428 0.085420 -0.038028 142012.000000 0 0 1
-16.571105 19.482311 -0.188259 25.577283 -0.865970 1.578157 0.104483 -0.040912 230129.000000 0 0 1
-15.608605 18.494811 0.177241 24.201612 -0.869828 1.563473 0.131667 -0.046589 9513.980000 0 1 0
-16.153705 17.259711 0.899141 23.656887 -0.818487 1.532780 0.118601 -0.044100 34010.400000 0 1 0
-16.811605 16.351511 0.010841 23.452124 -0.771525 1.570334 0.113973 -0.034482 261646.000000 0 1 0
-17.460305 15.411611 0.794741 23.302610 -0.723155 1.536684 0.134726 -0.048310 -222946.000000 0 1 0
-18.209105 14.247111 0.083341 23.120524 -0.663927 1.567192 0.141798 -0.039281 -622056.000000 0 1 0
-19.444505 14.636111 -0.397259 24.340550 -0.645234 1.587118 0.166752 -0.042735 -568936.000000 0 1 0
-20.172805 13.513311 -0.830459 24.294883 -0.590222 1.604985 0.163983 -0.033916 -661647.000000 0 1 0
-21.368605 13.812011 -1.755159 25.504304 -0.573819 1.639669 0.174231 -0.025559 -388750.000000 0 0 1
-22.223805 12.711611 -1.988459 25.679497 -0.519563 1.648308 0.158686 -0.030638 895096.000000 0 0 1
-23.098605 12.283011 -0.914559 26.177363 -0.488735 1.605740 0.148229 -0.030860 670671.000000 0 0 1
-24.398705 13.185711 -0.681459 27.742101 -0.495464 1.595363 0.127894 -0.029651 242950.000000 0 0 1
-24.272805 14.533411 -0.184559 28.291751 -0.539502 1.577320 0.125823 -0.033583 17043.600000 0 0 1
-25.498885 15.216611 -0.073759 29.694172 -0.538031 1.573280 0.129123 -0.022542 -234254.000000 0 0 1
-25.386395 16.542311 0.769941 30.310228 -0.577514 1.545392 0.112831 -0.025787 -36288.600000 0 0 1
-25.124805 16.239911 2.119941 29.991411 -0.573819 1.500052 0.126109 -0.029485 47861.000000 0 0 1
-24.907305 17.290311 3.011741 30.469646 -0.606814 1.471791 0.100877 -0.034111 -143338.000000 0 0 1
-26.199335 17.996911 3.435341 31.970229 -0.601895 1.463134 0.121336 -0.042319 -690129.000000 0 0 1
-27.094255 17.207111 4.227641 32.373698 -0.565817 1.439834 0.131429 -0.043182 1284170.000000 0 0 1
-28.423955 17.743511 4.399541 33.795109 -0.558056 1.440243 0.129523 -0.047172 788784.000000 0 0 1
-29.286825 17.785211 3.129941 34.406808 -0.545753 1.479702 0.085802 -0.044341 -1992520.000000 0 0 1
-30.450925 18.499011 3.321641 35.784153 -0.545918 1.477838 0.077045 -0.043662 -444205.000000 0 0 1
-31.011605 18.930511 2.090541 36.393053 -0.548056 1.513321 0.072190 -0.040732 115576.000000 0 0 1
-32.255795 19.850211 2.100141 37.932543 -0.551666 1.515403 0.082990 -0.045484 232252.000000 0 0 1
-33.492605 19.237911 2.429941 38.700859 -0.521378 1.507967 0.080866 -0.035648 546053.000000 0 0 1
-34.549989 20.154411 2.682141 40.088601 -0.528080 1.503841 0.093701 -0.031794 185703.000000 0 0 1
-34.688701 20.602711 4.163141 40.559949 -0.535945 1.467974 0.093836 -0.038735 -274658.000000 0 0 1
-33.681355 21.528511 4.617641 40.239696 -0.568733 1.455790 0.102359 -0.041188 820074.000000 0 0 1
-33.799295 21.892211 5.983541 40.711964 -0.574765 1.423289 0.093601 -0.040287 -157671.000000 0 0 1
-32.596195 22.786511 6.313141 40.269005 -0.610091 1.413373 0.102014 -0.036993 -275108.000000 0 0 1
-32.840925 24.109691 5.874141 41.161986 -0.633270 1.427600 0.085588 -0.031401 470570.000000 0 0 1
-31.759245 25.020951 6.011441 40.875850 -0.667277 1.423195 0.095875 -0.033434 33191.700000 0 0 1
-32.230915 26.447951 5.619241 42.070202 -0.687163 1.436828 0.089518 -0.028300 19152.700000 0 0 1
-33.245285 26.934241 6.495841 43.276995 -0.680910 1.420128 0.102777 -0.021794 206867.000000 0 0 1
-33.409265 28.334431 6.440241 44.277485 -0.703391 1.424827 0.085090 -0.023112 -60414.300000 0 0 1
-34.454014 28.813391 7.486341 45.533899 -0.696478 1.405634 0.077928 -0.026076 -475008.000000 0 0 1
-34.050565 28.690771 8.807241 45.389083 -0.700178 1.375519 0.096085 -0.029602 -84920.200000 0 0 1
-34.974293 29.184371 9.742441 46.581583 -0.695398 1.360093 0.090992 -0.025207 552487.000000 0 0 1
-36.300445 28.358381 9.942641 47.125113 -0.663180 1.358215 0.082181 -0.018792 409439.000000 0 0 1
-35.995367 27.018781 10.383241 46.189747 -0.643897 1.344063 0.098055 -0.027099 671623.000000 0 0 1
-36.898805 26.676441 11.469241 46.954210 -0.625971 1.324035 0.090256 -0.021601 383657.000000 0 0 1
-36.381275 25.404141 12.158741 46.008723 -0.609567 1.303349 0.113948 -0.019829 268839.000000 0 0 1
-35.059734 25.633241 12.624741 45.228664 -0.631315 1.287907 0.111162 -0.027183 200046.000000 0 0 1
-34.747375 24.678171 13.640041 44.748664 -0.617550 1.261053 0.111853 -0.022468 231386.000000 0 0 1
-33.479795 25.000331 14.478941 44.221635 -0.641404 1.237227 0.116521 -0.023716 137473.000000 0 0 1
-33.716405 26.141561 15.327641 45.333363 -0.659520 1.225889 0.119360 -0.015756 309617.000000 0 0 1
-32.686675 26.382601 16.272341 45.047192 -0.679077 1.201211 0.133687 -0.011353 94292.400000 0 0 1
-33.211865 27.486801 17.195541 46.413779 -0.691357 1.191267 0.138130 -0.008818 10834.000000 0 0 1
-33.183115 28.706611 16.527241 46.886441 -0.713194 1.210560 0.137959 -0.007968 64582.400000 0 0 1
-33.507045 29.803651 17.327141 48.075041 -0.726969 1.202080 0.130456 -0.007532 -35659.600000 0 0 1
-33.223845 31.095721 16.461541 48.391633 -0.752324 1.223695 0.113471 -0.001115 110675.000000 0 0 1
-31.857075 31.258201 16.148241 47.462765 -0.775910 1.223635 0.106962 -0.000625 -132823.000000 0 0 1
-31.588525 32.507820 15.601241 47.937376 -0.799740 1.239308 0.098611 0.003494 1030510.000000 0 0 1
-30.072735 32.691726 15.151741 46.932863 -0.827101 1.242069 0.105957 -0.005732 1362790.000000 0 0 1
-29.741745 31.883291 13.996841 45.793310 -0.820135 1.260173 0.105569 -0.009836 -7298.500000 0 0 1
-29.043945 30.705011 14.317741 44.624502 -0.813192 1.244170 0.113381 -0.016668 -102768.000000 0 0 1
-29.838915 29.414871 14.036941 44.188587 -0.778242 1.247536 0.135123 -0.011745 207735.000000 0 0 1
-30.030055 29.189501 12.620741 43.739162 -0.771205 1.278089 0.143341 -0.023628 -83700.300000 0 0 1
-30.960405 28.170991 12.348741 43.642214 -0.738260 1.283924 0.126728 -0.025724 15910.900000 0 0 1
-31.178055 27.970841 10.822641 43.261630 -0.731228 1.317943 0.135854 -0.017916 -553138.000000 0 0 1
-30.208725 27.236261 10.197741 41.932982 -0.733700 1.325142 0.125405 -0.009652 -813308.000000 0 0 1
-30.196495 27.525061 8.811941 41.798417 -0.739150 1.358383 0.120515 -0.014596 -366589.000000 0 0 1
-29.122295 26.718531 8.139441 40.351437 -0.742378 1.367689 0.117558 -0.020999 -352274.000000 0 0 1
-28.819355 27.161821 6.831341 40.186901 -0.755798 1.399978 0.114134 -0.027224 320267.000000 0 0 1
-27.678305 26.461501 6.316941 38.809836 -0.762927 1.407302 0.100832 -0.019666 625019.000000 0 0 1
-27.155725 26.739301 4.872441 38.420884 -0.777672 1.443636 0.102325 -0.016406 -333085.000000 0 0 1
-26.588835 27.999311 4.737341 38.902056 -0.811231 1.448717 0.077766 -0.014141 19963.900000 0 0 1
-26.395775 28.258801 3.356441 38.814463 -0.819472 1.484214 0.063528 -0.014027 -20060.200000 0 0 1
-25.315635 29.352771 3.114941 38.886623 -0.859112 1.490607 0.042511 -0.007394 1086890.000000 0 0 1
-23.975205 28.944791 3.496641 37.747025 -0.879031 1.478030 0.031535 -0.005664 724089.000000 0 0 1
-23.139105 30.059091 3.214641 38.069687 -0.914751 1.486255 0.023571 -0.003427 -103157.000000 0 0 1
-21.665605 29.632781 3.348741 36.860741 -0.939478 1.479822 0.018708 -0.005929 -47280.700000 0 0 1
-20.711005 30.481371 2.773741 36.956101 -0.973986 1.495671 0.025332 -0.008968 -919701.000000 0 0 1
-19.408705 30.094271 3.071241 35.941557 -0.997993 1.485241 0.029213 -0.013914 -673494.000000 0 0 1
-18.388405 31.171301 2.742341 36.294682 -1.037826 1.495167 0.033468 -0.017412 -260616.000000 0 0 1
-18.570705 32.394076 3.427241 37.496577 -1.050260 1.479267 0.033819 -0.018283 289782.000000 0 0 1
-17.369905 33.105812 3.173441 37.520383 -1.087601 1.486116 0.070480 -0.024207 422953.000000 0 0 1
-17.148905 -33.762916 4.052141 38.084633 1.100832 1.464196 0.078200 -0.029639 -198601.000000 0 0 1
-18.156805 -32.853716 3.707941 37.719823 1.065916 1.472335 0.073786 -0.031776 -195423.000000 0 0 1
-18.157005 -31.701326 4.517541 36.811127 1.050653 1.447764 0.064409 -0.036237 90189.400000 0 0 1
-19.348605 -30.711556 4.409841 36.565214 1.008602 1.449900 0.070055 -0.025689 167374.000000 0 0 1
-19.257705 -29.817026 3.307441 35.649031 0.997335 1.477885 0.089070 -0.031818 281453.000000 0 0 1
-20.338005 -28.898626 3.407541 35.501780 0.957544 1.474666 0.102001 -0.036032 103311.000000 0 0 1
-20.418505 -27.735196 2.362041 34.521525 0.936189 1.502321 0.104739 -0.028585 -184698.000000 0 0 1
-19.380405 -26.802596 2.468641 33.167355 0.944748 1.496298 0.112119 -0.029419 -396332.000000 0 0 1
-19.583305 -25.700606 1.626741 32.352330 0.919673 1.520493 0.095438 -0.024341 429157.000000 0 0 1
-18.534405 -24.528686 1.704941 30.791028 0.923707 1.515397 0.079632 -0.019410 1340060.000000 0 0 1
-17.228505 -24.848286 1.217841 30.261226 0.964549 1.530541 0.079502 -0.022991 312584.000000 0 0 1
-16.268105 -23.795286 1.313641 28.854679 0.971115 1.525254 0.087876 -0.021151 737585.000000 0 0 1
-14.892005 -24.298986 0.778441 28.509972 1.020971 1.543489 0.104522 -0.025927 49602.500000 0 0 1
-14.911305 -24.601886 -0.649759 28.775371 1.025901 1.593379 0.093353 -0.017886 111633.000000 0 0 1
-15.147305 -23.520286 -1.523059 28.017216 0.998643 1.625185 0.096337 -0.017287 -233707.000000 0 0 1
-15.423405 -23.907886 -2.980759 28.606876 0.997861 1.675183 0.062100 -0.006188 664639.000000 0 0 1
-14.253705 -24.417386 -3.640159 28.506624 1.042409 1.698841 0.083680 -0.006619 665453.000000 0 0 1
-14.466905 -24.205786 -5.044659 28.647164 1.032097 1.747816 0.065972 -0.004169 171284.000000 0 0 1
-13.249405 -24.600686 -5.908859 28.559676 1.076764 1.779197 0.089803 -0.015179 190148.000000 0 0 1
-13.045705 -25.962576 -6.029559 29.674928 1.105166 1.775408 0.077132 -0.016112 -136122.000000 0 0 1
-11.808005 -26.278796 -6.621759 29.560984 1.148495 1.796717 0.080824 -0.022046 61279.200000 0 0 1
23.946995 12.267114 28.225191 38.994898 0.473408 0.761477 0.045869 0.000836 -46526.200000 0 0 1
24.877495 11.464214 28.962391 39.863994 0.431821 0.757538 0.044075 -0.003205 467202.000000 0 0 1
24.291795 10.650814 29.968331 40.020395 0.413210 0.724507 0.053886 0.000636 -154113.000000 0 0 1
24.133995 11.315414 31.348781 41.148929 0.438425 0.704652 0.061405 -0.023747 -742360.000000 0 0 1
23.179995 12.284314 31.411961 40.925882 0.487322 0.695813 0.059630 -0.007044 -761285.000000 0 0 1
23.279195 12.992814 32.651239 42.152551 0.509064 0.684719 0.062003 -0.012967 -330646.000000 0 0 1
22.130995 13.967514 33.055831 42.161123 0.562995 0.669655 0.050927 -0.011059 177255.000000 0 0 1
20.925895 13.282514 33.289234 41.502908 0.565573 0.640003 0.043149 -0.001310 213035.000000 0 0 1
20.012495 13.951114 -33.895009 41.761288 0.608791 2.517745 0.049352 0.002066 109437.000000 0 0 1
18.972195 13.072314 -33.208659 40.418369 0.603322 2.535049 0.050563 0.002210 157249.000000 0 0 1
17.894595 12.735714 33.978819 40.459549 0.618540 0.573841 0.032106 0.007844 -529428.000000 0 0 1
16.853595 12.162514 -33.394679 39.334145 0.625113 2.584886 0.030740 0.001913 -1317800.000000 0 0 1
15.674295 11.880114 33.776792 39.085705 0.648561 0.527293 0.033751 0.003293 -589198.000000 0 0 1
15.823495 10.897714 32.757115 37.975936 0.603105 0.530458 0.023318 0.012053 1162320.000000 0 0 1
14.488095 10.558814 32.285912 36.929305 0.629790 0.506881 0.038978 0.008342 1510130.000000 0 0 1
14.629495 9.462314 31.205441 35.739852 0.574120 0.509215 0.043837 0.014710 120331.000000 0 0 1
14.942595 8.179114 31.764561 36.043951 0.500821 0.492247 0.030997 0.010973 -194256.000000 0 0 1
15.590195 7.387014 30.841931 35.339027 0.442489 0.510001 0.028888 -0.006095 24558.500000 0 0 1
15.984395 5.972514 31.354591 35.697089 0.357584 0.498394 0.052967 -0.016692 890148.000000 0 0 1
14.824395 5.117214 31.405331 35.103324 0.332382 0.463140 0.050363 -0.011554 638052.000000 0 0 1
15.186295 3.930814 32.039111 35.673232 0.253281 0.455304 0.066616 -0.019434 607925.000000 0 0 1
13.998595 2.944314 32.245608 35.276180 0.207308 0.417538 0.058140 -0.017737 467861.000000 0 0 1
14.523695 1.734814 32.782214 35.897365 0.118884 0.419677 0.076123 -0.021566 262968.000000 0 0 1
13.472895 0.886314 33.190102 35.831373 0.065690 0.386362 0.084326 -0.023076 336407.000000 0 0 1
14.105095 -0.455986 33.664802 36.503157 -0.032316 0.396952 0.074822 -0.024174 197518.000000 0 0 1
14.445195 -1.333786 32.626389 35.706076 -0.092073 0.418378 0.074748 -0.014919 -118066.000000 0 0 1
14.801695 -2.633986 33.084411 36.340147 -0.176108 0.426524 0.089389 -0.019757 -60409.500000 0 0 1
14.930695 -3.662186 31.935711 35.443291 -0.240530 0.448642 0.089750 -0.021366 -848056.000000 0 0 1
15.234295 -5.013686 32.253698 36.021130 -0.317940 0.461444 0.093696 -0.021672 860275.000000 0 0 1
16.475095 -5.394386 32.905304 37.192569 -0.316425 0.484886 0.081608 -0.019398 1393310.000000 0 0 1
17.778795 -4.961786 32.155974 37.077102 -0.272160 0.521098 0.081879 -0.023870 -355503.000000 0 0 1
18.033595 -3.531986 32.243634 37.112496 -0.193408 0.518006 0.086087 -0.022386 -145621.000000 0 0 1
19.045895 -3.047386 31.397871 36.849138 -0.158657 0.550878 0.105581 -0.032428 -187236.000000 0 0 1
19.084595 -1.499386 31.304491 36.693883 -0.078404 0.548849 0.103826 -0.031784 -88081.100000 0 0 1
19.376995 -0.878786 32.537654 37.880590 -0.045321 0.537574 0.086395 -0.027399 -89984.000000 0 0 1
19.146895 0.504914 32.466869 37.695571 0.026364 0.532991 0.082879 -0.018142 113950.000000 0 0 1
20.198395 1.443714 31.801801 37.701645 0.071355 0.567007 0.083259 -0.011418 20106.100000 0 0 1
20.395495 1.297714 30.398961 36.630003 0.063542 0.591882 0.079291 -0.019416 -82994.700000 0 0 1
21.323795 2.180314 29.791531 36.701407 0.101894 0.623693 0.075349 -0.012740 80378.000000 0 0 1
20.977495 3.715414 29.742271 36.585001 0.175296 0.621573 0.065940 -0.003250 -259774.000000 0 0 1
20.911395 4.301714 31.020811 37.657428 0.202881 0.602779 0.069270 -0.006234 212372.000000 0 0 1
20.527895 5.650914 31.062251 37.658873 0.268626 0.600891 0.058205 -0.005267 -277490.000000 0 0 1
20.103195 6.116614 32.485591 38.689340 0.295361 0.574154 0.059572 -0.011821 -133060.000000 0 0 1
18.998895 5.397314 32.975065 38.437532 0.276793 0.539653 0.064771 -0.015192 -33761.900000 0 0 1
18.633195 5.873214 -33.802789 39.042529 0.305344 2.617531 0.066636 -0.016093 159202.000000 0 0 1
17.472895 5.059114 -33.151559 37.814316 0.281834 2.639741 0.074198 -0.017561 -37334.300000 0 0 1
17.800695 3.699214 -32.915189 37.602640 0.204897 2.636940 0.072130 -0.018736 474838.000000 0 0 1
16.726595 2.911014 -32.360899 36.544230 0.172309 2.658423 0.070348 -0.020710 510856.000000 0 0 1
16.764295 1.370514 -32.547089 36.636496 0.081571 2.664598 0.087474 -0.031488 183072.000000 0 0 1
17.855795 0.755014 -31.857709 36.528250 0.042259 2.630354 0.070269 -0.028736 253670.000000 0 0 1
18.097195 -0.606986 -32.115529 36.868470 -0.033528 2.628201 0.083355 -0.029529 -206965.000000 0 0 1
19.345595 -1.128286 -31.372759 36.875128 -0.058257 2.588271 0.107893 -0.031020 -302221.000000 0 0 1
19.262695 -1.124786 -29.955799 35.632379 -0.058326 2.569353 0.111770 -0.036858 134431.000000 0 0 1
19.230995 0.121214 -29.330049 35.072747 0.006303 2.561229 0.107465 -0.035919 -635593.000000 0 0 1
18.806795 0.179514 -27.878099 33.629096 0.009545 2.548091 0.087317 -0.025926 466139.000000 0 0 1
17.410995 -0.163586 -27.799079 32.801803 -0.009395 2.582028 0.088328 -0.033902 871486.000000 0 0 1
16.919095 -0.570186 -26.514999 31.458322 -0.033688 2.573375 0.088488 -0.027672 -110682.000000 0 0 1
17.564495 -1.809486 -25.920139 31.363024 -0.102657 2.543579 0.089205 -0.018476 1281490.000000 0 0 1
18.924695 -1.784686 -25.370789 31.701831 -0.094027 2.498582 0.082231 -0.023996 1939290.000000 0 0 1
19.599895 -3.107386 -25.350939 32.194437 -0.157232 2.477428 0.073578 -0.014362 859681.000000 0 0 1
20.486495 -3.361886 -26.608819 33.749488 -0.162653 2.479035 0.083279 -0.029967 562929.000000 0 0 1
21.630295 -2.493286 -26.649859 34.413676 -0.114762 2.456558 0.070760 -0.020962 55569.800000 0 0 1
22.108895 -2.376786 -27.933609 35.703485 -0.107092 2.469271 0.067805 -0.027019 -427859.000000 0 0 1
23.568295 -1.932186 -27.973789 36.629642 -0.081799 2.439810 0.046161 -0.025671 -439330.000000 0 0 1
24.494595 -2.925786 -27.694119 37.087863 -0.118883 2.413908 0.042310 -0.027874 -1379190.000000 0 0 1
25.803295 -2.491286 -27.743059 37.969643 -0.096251 2.390091 0.019897 -0.029557 -738830.000000 0 0 1
26.845195 -3.576186 -27.372619 38.506023 -0.132435 2.361525 0.039772 -0.026739 -390849.000000 0 0 1
26.939295 -4.574586 -28.380579 39.396823 -0.168206 2.375143 0.059705 -0.035800 -112839.000000 0 0 1
28.046595 -5.420186 -28.313169 40.219714 -0.190903 2.351758 0.054896 -0.031563 -513177.000000 0 0 1
27.866295 -6.612486 -27.338689 39.593677 -0.232984 2.332950 0.051980 -0.027999 -212167.000000 0 0 1
27.864895 -6.167986 -26.001159 38.607728 -0.217841 2.309690 0.042076 -0.018571 247708.000000 0 0 1
27.844095 -7.263186 -25.083259 38.173516 -0.255166 2.287742 0.031364 -0.010198 -152256.000000 0 0 1
27.878895 -6.781686 -23.591459 37.145403 -0.238621 2.258949 0.024524 -0.012762 -237121.000000 0 0 1
29.180295 -6.372886 -23.266259 37.860561 -0.215021 2.232580 0.024645 -0.013517 83832.700000 0 0 1
29.139495 -5.885886 -21.940259 36.947649 -0.199308 2.206595 0.034080 -0.016345 -293838.000000 0 0 1
30.551295 -5.543686 -21.454959 37.741612 -0.179502 2.175441 0.047712 -0.015293 -565648.000000 0 0 1
31.082695 -4.459186 -22.208159 38.460636 -0.142490 2.186368 0.047117 -0.020410 302551.000000 0 0 1
32.401595 -4.167986 -21.754059 39.248879 -0.127933 2.158269 0.057609 -0.011778 395809.000000 0 0 1
32.945195 -2.850886 -22.357159 39.916863 -0.086319 2.165294 0.064861 -0.014814 -22940.900000 0 0 1
32.338395 -1.750286 -21.713959 38.991426 -0.054071 2.161434 0.056726 -0.010319 146334.000000 0 0 1
32.684795 -0.534486 -22.358359 39.604011 -0.016351 2.170682 0.030710 -0.009878 -275357.000000 0 0 1
31.756995 0.601714 -21.958559 38.614079 0.018945 2.175681 0.036778 -0.002751 655658.000000 0 0 1
30.528995 0.629114 -22.726759 38.064693 0.020604 2.210623 0.026468 -0.005618 429124.000000 0 0 1
29.674995 1.651714 -22.344159 37.183261 0.055603 2.215448 0.026122 -0.002372 -161455.000000 0 0 1
28.323495 1.489614 -23.080259 36.566893 0.052544 2.253869 0.019216 -0.003616 -689061.000000 0 0 1
27.355995 2.427614 -22.869559 35.738781 0.088510 2.265176 0.026404 -0.007223 437856.000000 0 0 1
26.485095 2.676314 -24.049659 35.874907 0.100708 2.305511 0.050957 -0.012711 425911.000000 0 0 1
25.360895 3.657514 -23.784459 34.960733 0.143231 2.318994 0.050360 -0.009267 -741488.000000 0 0 1
25.843695 4.924914 -23.405459 35.213163 0.188308 2.297861 0.035520 -0.004777 158043.000000 0 0 1
24.797995 5.877814 -23.283559 34.519753 0.232733 2.311083 0.055446 -0.010989 9551.380000 0 0 1
25.234995 7.184014 -22.664759 34.671405 0.277347 2.283262 0.061741 -0.011018 -125646.000000 0 0 1
26.037495 7.961014 -23.525559 35.983062 0.296725 2.283386 0.060351 -0.006639 21139.600000 0 0 1
26.178195 9.293914 -22.982659 36.053811 0.341144 2.261986 0.073412 -0.006468 -47356.300000 0 0 1
27.097695 10.178914 -23.882659 37.527013 0.359330 2.260635 0.095838 -0.003816 -138856.000000 0 0 1
26.745395 10.492714 -25.226279 38.233210 0.373867 2.291349 0.100028 -0.008693 735013.000000 0 0 1
25.589395 11.346914 -25.378459 37.784067 0.417371 2.307258 0.099353 -0.013291 772459.000000 0 0 1
25.294995 11.770914 -26.873349 38.737166 0.435542 2.337459 0.094827 -0.012319 -544877.000000 0 0 1
24.834895 10.763014 -27.734199 38.753068 0.408949 2.368372 0.081045 -0.012615 304981.000000 0 0 1
25.722695 9.744114 -28.252859 39.431318 0.362110 2.369580 0.071752 -0.022184 565387.000000 0 0 1
26.750595 10.233714 -29.346439 41.006544 0.365382 2.368354 0.076605 -0.019765 23430.400000 0 0 1
27.859995 11.009214 -28.866609 41.601240 0.376329 2.337671 0.076968 -0.013151 1131060.000000 0 0 1
28.780195 11.333714 -29.914629 43.030660 0.375152 2.339485 0.078406 -0.012153 874839.000000 0 0 1
29.676495 10.182114 -30.553819 43.793899 0.330518 2.342940 0.065123 -0.017381 -619064.000000 0 0 1
28.984095 9.323514 -31.432249 43.760621 0.311223 2.372119 0.062806 -0.016313 -379712.000000 0 0 1
29.655695 8.227414 -31.975639 44.380086 0.270625 2.375312 0.057149 -0.016582 -619758.000000 0 0 1
28.736395 7.224014 -32.671009 44.106253 0.246286 2.404959 0.061053 -0.018316 363930.000000 0 0 1
27.767595 6.658514 -31.778229 42.722722 0.235351 2.409571 0.064741 -0.020768 1151530.000000 0 0 1
26.624695 6.059714 -32.423379 42.389503 0.223785 2.441669 0.047484 -0.019514 772730.000000 0 0 1
25.341495 6.040114 -31.554869 40.919238 0.233983 2.451442 0.081122 -0.009517 -421849.000000 0 0 1
24.888395 7.360114 -31.293089 40.655392 0.287530 2.449192 0.089776 -0.013193 484714.000000 0 0 1
23.781095 7.487314 -30.394029 39.311542 0.305018 2.454602 0.080279 -0.017803 -335266.000000 0 0 1
22.415095 7.328214 -31.020129 38.966493 0.315978 2.491573 0.079374 -0.021146 -1188870.000000 0 0 1
22.092195 8.448414 -31.774659 39.611484 0.365257 2.501696 0.074040 -0.020141 197647.000000 0 0 1
20.745295 8.352614 -32.217419 39.218560 0.382769 2.534805 0.064995 -0.017568 119831.000000 0 0 1
20.293495 9.450814 -33.175309 40.021806 0.435838 2.547990 0.066437 -0.014023 107459.000000 0 0 1
20.986395 9.273814 33.615431 40.699258 0.416095 0.598916 0.049758 -0.012146 439480.000000 0 0 1
20.722595 10.269714 32.611008 39.979630 0.460106 0.616874 0.058090 -0.007513 187696.000000 0 0 1
19.427095 9.979614 31.789341 38.568989 0.474544 0.601973 0.050678 -0.001849 437732.000000 0 0 1
19.550195 8.915114 30.829391 37.578461 0.427842 0.608685 0.046172 -0.005790 -14940.700000 0 0 1
20.438595 9.088614 29.733961 37.208164 0.418420 0.644959 0.064395 -0.006010 -585704.000000 0 0 1
19.891095 9.856014 28.503521 36.128207 0.460040 0.661690 0.061436 -0.006074 -416022.000000 0 0 1
18.864995 9.132714 27.897281 34.893449 0.450854 0.644335 0.055225 -0.002510 -414607.000000 0 0 1
17.602895 9.641514 28.269651 34.669783 0.501094 0.617381 0.058716 -0.011482 -1025240.000000 0 0 1
16.519695 9.092714 27.363001 33.231184 0.503163 0.603396 0.073453 -0.014648 -906185.000000 0 0 1
16.418295 9.643314 26.015321 32.238965 0.531067 0.631822 0.075677 -0.016417 1161270.000000 0 0 1
15.192795 9.174014 25.378021 30.968169 0.543238 0.610281 0.088304 -0.019495 1054700.000000 0 0 1
15.098795 7.686314 24.889891 30.109130 0.470876 0.597658 0.086407 -0.016069 -151798.000000 0 0 1
15.055495 6.773514 25.940961 30.748689 0.422773 0.566761 0.074886 -0.014909 -1309.560000 0 0 1
14.670595 5.458314 25.489441 29.912057 0.356189 0.550724 0.081089 -0.016836 -77907.900000 0 0 1
14.798695 4.303414 26.590631 30.734059 0.282992 0.525278 0.068295 -0.015769 -688523.000000 0 0 1
16.106195 3.925714 26.850001 31.555400 0.239078 0.553130 0.055402 -0.009905 -660290.000000 0 0 1
16.287095 3.801814 28.257631 32.836214 0.229319 0.534422 0.052931 -0.009973 -89146.300000 0 0 1
17.269795 2.694614 28.683201 33.589176 0.154782 0.547283 0.071568 -0.014439 -7887.780000 0 0 1
16.798995 1.348514 28.574041 33.173793 0.080102 0.532887 0.075516 -0.015585 -272553.000000 0 0 1
15.795995 0.945214 29.451111 33.433139 0.059768 0.493045 0.062083 -0.013270 -92064.100000 0 0 1
15.402795 -0.559486 29.452541 33.241710 -0.036308 0.482125 0.074433 -0.019064 -334099.000000 0 0 1
14.764595 -1.119486 28.345281 31.979704 -0.075677 0.481390 0.070130 -0.018468 185358.000000 0 0 1
15.552195 -1.328886 27.181601 31.344475 -0.085240 0.521266 0.083629 -0.015479 -409060.000000 0 0 1
16.762295 -2.333986 27.163731 32.004535 -0.138351 0.557186 0.082986 -0.008792 -97022.000000 0 0 1
17.950895 -2.073086 27.822531 33.175677 -0.114977 0.576010 0.089785 -0.021482 -551519.000000 0 0 1
18.611495 -0.919086 27.301101 33.054237 -0.049343 0.598914 0.087108 -0.016616 -1839540.000000 0 0 1
20.057395 -0.918786 27.750651 34.252618 -0.045776 0.626344 0.095720 -0.011030 -271040.000000 0 0 1
21.009695 -1.597986 26.933681 34.196257 -0.075913 0.663858 0.065144 -0.013594 185807.000000 0 0 1
22.344495 -1.262986 27.260151 35.270206 -0.056463 0.687406 0.060991 -0.011232 -149107.000000 0 0 1
23.386395 -1.901386 26.388381 35.311264 -0.081125 0.726795 0.064119 -0.009188 -586305.000000 0 0 1
23.487195 -1.431086 25.024031 34.349650 -0.060855 0.754653 0.071129 0.001470 698402.000000 0 0 1
22.525195 -2.065786 24.149111 33.088237 -0.091454 0.752709 0.091372 0.003179 440667.000000 0 0 1
22.659895 -1.405986 22.762371 32.149233 -0.061968 0.784103 0.087619 -0.013777 -441660.000000 0 0 1
21.955195 -0.189686 22.742371 31.611422 -0.008639 0.767807 0.069346 0.000424 79851.900000 0 0 1
21.616495 0.089214 21.413771 30.427461 0.004127 0.790114 0.059126 0.010325 -158450.000000 0 0 1
-30.962595 -27.240482 -10.058459 42.448778 0.721535 1.810027 0.036020 0.013043 135678.000000 0 0 1
-31.013045 -26.080082 -9.278959 41.570167 0.699210 1.795905 0.044819 0.011097 -320423.000000 0 0 1
-31.605095 -26.255182 -8.020259 41.863363 0.693198 1.763570 0.055499 0.002527 -995705.000000 0 0 1
-31.822575 -24.946082 -7.156559 41.063361 0.664854 1.745972 0.083348 -0.010507 -584670.000000 0 0 1
-30.725255 -24.137982 -6.887559 39.675206 0.665903 1.745279 0.080398 -0.016425 -770235.000000 0 0 1
-29.743665 -24.836482 -6.103059 39.227335 0.695731 1.727013 0.076411 -0.014759 -594115.000000 0 0 1
-28.666405 -23.869882 -5.647059 37.728283 0.694351 1.721038 0.074680 -0.020310 -1019660.000000 0 0 1
-28.868105 -22.892082 -4.611859 37.130637 0.670451 1.695324 0.097117 -0.027246 124563.000000 0 0 1
-29.977255 -22.006082 -4.795659 37.495358 0.633242 1.699048 0.104338 -0.034860 302774.000000 0 0 1
-29.982915 -20.894282 -3.724759 36.734453 0.608624 1.672368 0.099859 -0.036158 -150572.000000 0 0 1
-29.006145 -19.899082 -3.938959 35.395555 0.601288 1.682311 0.118985 -0.045118 147146.000000 0 0 1
-29.223535 -18.790882 -3.080959 34.879859 0.571442 1.659242 0.109303 -0.035691 90801.600000 0 0 1
-28.040325 -17.776882 -3.070559 33.342251 0.565028 1.663019 0.118688 -0.031885 276340.000000 0 0 1
-27.878175 -17.179282 -4.299559 33.027361 0.552266 1.701349 0.154558 -0.043280 360873.000000 0 0 1
-26.804725 -16.238082 -4.328059 31.637015 0.544667 1.708030 0.164166 -0.043260 361576.000000 0 0 1
-27.045255 -15.105482 -5.372059 31.440109 0.509366 1.742505 0.162296 -0.052453 343560.000000 0 0 1
-28.225355 -14.388882 -5.030659 32.078313 0.471445 1.728271 0.139142 -0.041260 250400.000000 0 0 1
-28.550915 -13.342682 -5.889459 32.060375 0.437171 1.755544 0.165100 -0.054310 208150.000000 0 0 1
-29.902785 -12.680782 -5.492559 32.941570 0.401080 1.738315 0.144320 -0.042579 230900.000000 0 0 1
-31.016345 -13.168482 -6.205859 34.262739 0.401503 1.752927 0.139669 -0.034526 -143420.000000 0 0 1
-32.184625 -12.534182 -5.765659 35.017119 0.371375 1.736202 0.103792 -0.035130 268057.000000 0 0 1
-33.499105 -12.901382 -6.543259 36.489039 0.367619 1.751093 0.066400 -0.023022 210510.000000 0 0 1
-34.017415 -14.180382 -6.146859 37.363775 0.394953 1.736061 0.040557 -0.022388 343507.000000 0 0 1
-34.361003 -14.965782 -7.266559 38.176643 0.410769 1.762305 0.048021 -0.027955 -220133.000000 0 0 1
-35.169716 -16.282082 -6.991359 39.381394 0.433577 1.749272 0.031814 -0.023734 -166233.000000 0 0 1
-36.549275 -16.272082 -6.819959 40.584998 0.418863 1.739639 0.020531 -0.029545 -552203.000000 0 0 1
36.898999 -15.786982 -5.586759 40.521313 -0.404276 1.709109 0.053514 -0.020005 60138.300000 0 0 1
35.352309 -15.852182 -5.427159 39.122007 -0.421527 1.709969 0.069439 -0.021477 81432.400000 0 0 1
34.616089 -15.095282 -6.410759 38.304555 -0.411215 1.738950 0.099414 -0.028272 1824200.000000 0 0 1
33.170149 -15.200382 -6.484959 37.058940 -0.429697 1.746692 0.097754 -0.030077 1252330.000000 0 0 1
32.502539 -14.451682 -5.320559 35.966296 -0.418381 1.719273 0.129137 -0.039215 -1104260.000000 0 0 1
32.549599 -15.097582 -4.078159 36.111560 -0.434298 1.683970 0.104461 -0.033558 290332.000000 0 0 1
32.095079 -14.268482 -3.016459 35.253123 -0.418328 1.656467 0.119470 -0.033713 -843946.000000 0 0 1
32.282249 -14.948582 -1.646959 35.613427 -0.433660 1.617058 0.115934 -0.032639 583629.000000 0 0 1
33.631039 -15.216382 -1.243959 36.934164 -0.424890 1.604483 0.135833 -0.026739 452884.000000 0 0 1
34.420629 -16.107282 -1.966859 38.053814 -0.437684 1.622506 0.120874 -0.027119 -1098350.000000 0 0 1
33.975359 -17.537482 -2.356359 38.307189 -0.476510 1.632347 0.110339 -0.028540 -930008.000000 0 0 1
34.153439 -18.442782 -1.254759 38.835139 -0.495132 1.603112 0.108200 -0.038674 297155.000000 0 0 1
33.916219 -19.765882 -1.744159 39.294301 -0.527666 1.615198 0.094966 -0.032487 -69731.200000 0 0 1
35.099299 -20.470482 -2.452559 40.706467 -0.527987 1.631083 0.077733 -0.035864 28909.200000 0 0 1
35.342299 -19.856782 -3.712059 40.708098 -0.511889 1.662110 0.060679 -0.036127 -146734.000000 0 0 1
36.369399 -20.435882 -4.481459 41.957620 -0.511932 1.677810 0.063323 -0.037472 -605955.000000 0 0 1
36.495259 -19.738382 -5.803559 41.894975 -0.495789 1.709770 0.077906 -0.034348 -527520.000000 0 0 1
35.332679 -19.780882 -6.596059 41.026692 -0.510372 1.732272 0.057962 -0.041155 53290.600000 0 0 1
35.262879 -18.798182 -7.645359 40.685302 -0.489766 1.759835 0.054417 -0.042154 -182207.000000 0 0 1
34.058879 -19.084582 -8.565859 39.970019 -0.510748 1.786779 0.049037 -0.041265 -165846.000000 0 0 1
34.148159 -20.262982 -9.315859 40.785664 -0.535541 1.801241 0.051079 -0.039510 739667.000000 0 0 1
32.937179 -20.459282 -10.060059 40.058017 -0.555834 1.824651 0.059168 -0.047329 170445.000000 0 0 1
32.912939 -21.742382 -10.884659 40.920270 -0.583793 1.840034 0.063383 -0.042689 -117070.000000 0 0 1
32.712679 -22.807582 -9.966959 41.105297 -0.608851 1.815711 0.055996 -0.046159 -3590.150000 0 0 1
32.443159 -23.977282 -10.684559 41.732822 -0.636460 1.829702 0.044810 -0.040239 -394123.000000 0 0 1
31.846509 -25.014082 -9.680159 41.636641 -0.665811 1.805435 0.052751 -0.029736 873733.000000 0 0 1
30.513279 -24.691182 -9.221159 40.320521 -0.680322 1.801535 0.055979 -0.028066 511550.000000 0 0 1
29.801719 -25.899682 -9.057759 40.508999 -0.715460 1.796301 0.033865 -0.024428 437798.000000 0 0 1
28.346589 -25.543582 -8.594659 39.113576 -0.733432 1.792340 0.034351 -0.030134 1043020.000000 0 0 1
27.551689 -25.185382 -9.770459 38.585760 -0.740558 1.826798 0.047413 -0.026164 427558.000000 0 0 1
26.220589 -24.816882 -9.418359 37.310888 -0.757902 1.825986 0.059644 -0.031252 538201.000000 0 0 1
25.473589 -24.436182 -10.752359 36.900460 -0.764616 1.866474 0.097124 -0.032039 148248.000000 0 0 1
24.645589 -25.496582 -11.271359 37.209196 -0.802368 1.878550 0.087467 -0.031079 345566.000000 0 0 1
24.015289 -25.028082 -12.418959 36.842496 -0.806046 1.914613 0.097644 -0.020829 -93109.300000 0 0 1
23.275389 -26.125482 -13.289559 37.428557 -0.843027 1.933780 0.102300 -0.024126 35215.300000 0 0 1
24.157989 -27.052182 -13.856059 38.825499 -0.841854 1.935723 0.090689 -0.017365 -205836.000000 0 0 1
23.459289 -28.250382 -14.047059 39.315928 -0.877788 1.936158 0.109838 -0.014002 -367961.000000 0 0 1
24.131489 -29.461382 -14.681059 40.814645 -0.884524 1.938743 0.099709 -0.016732 -475727.000000 0 0 1
24.336589 -29.325482 -16.058259 41.353611 -0.878100 1.969600 0.093881 -0.015876 368860.000000 0 0 1
24.735989 -30.566282 -16.627459 42.692378 -0.890436 1.970854 0.090720 -0.011401 -219533.000000 0 0 1
24.776189 -30.586982 -18.152159 43.346555 -0.889973 2.002885 0.090290 -0.006061 1065170.000000 0 0 1
23.472789 -30.875782 -18.734159 43.072665 -0.920778 2.020771 0.101849 -0.005108 1180490.000000 0 0 1
23.396489 -30.629882 -20.132459 43.484494 -0.918493 2.052151 0.095443 -0.009587 -1108650.000000 0 0 1
21.965089 -30.464982 -20.542859 42.808753 -0.946119 2.071309 0.078568 -0.006802 -1011090.000000 0 0 1
21.847789 -30.135682 -21.911559 43.192611 -0.943501 2.102844 0.072096 -0.007046 220544.000000 0 0 1
20.505889 -30.243582 -22.344559 42.830422 -0.974972 2.119637 0.071508 -0.008203 -296208.000000 0 0 1
20.356189 -30.270682 -23.858059 43.587792 -0.978785 2.149999 0.078771 -0.016210 -355765.000000 0 0 1
20.836689 -29.141282 -24.536759 43.421590 -0.950059 2.171329 0.096191 -0.019089 342826.000000 0 0 1
20.608989 -29.256582 -25.956919 44.209045 -0.957109 2.198318 0.085776 -0.022261 -197000.000000 0 0 1
20.906189 -27.957382 -26.719959 43.961803 -0.928713 2.224083 0.079472 -0.028024 167686.000000 0 0 1
19.914289 -26.949082 -26.660729 42.820864 -0.934398 2.242871 0.089334 -0.029667 798435.000000 0 0 1
18.984689 -27.002982 -27.800439 43.156041 -0.958020 2.270753 0.125607 -0.037353 620130.000000 0 0 1
18.128789 -25.726182 -27.978769 42.110580 -0.956935 2.297503 0.125915 -0.028299 10005.500000 0 0 1
17.187789 -25.568582 -26.931329 40.920275 -0.978957 2.289144 0.110242 -0.014636 -182397.000000 0 0 1
16.773989 -24.218882 -26.918619 39.906553 -0.965054 2.311140 0.097132 -0.015099 583174.000000 0 0 1
15.584789 -23.908482 -25.924149 38.555968 -0.993120 2.308212 0.095598 -0.014493 1035780.000000 0 0 1
14.321589 -24.508482 -26.274969 38.680067 -1.041962 2.317591 0.120344 -0.020842 1186510.000000 0 0 1
13.189489 -24.200382 -25.439469 37.507168 -1.071791 2.316183 0.074185 -0.014457 853479.000000 0 0 1
13.297489 -24.581982 -23.928159 36.792035 -1.074932 2.278858 0.067533 -0.008620 -715095.000000 0 0 1
14.294189 -23.914282 -23.195559 36.252595 -1.032051 2.265076 0.058494 -0.008706 -234936.000000 0 0 1
14.404889 -24.301982 -21.858359 35.719392 -1.035728 2.229316 0.063060 -0.020549 511196.000000 0 0 1
15.537689 -23.475682 -21.153859 35.213821 -0.986127 2.215205 0.059732 -0.024663 459464.000000 0 0 1
15.228389 -22.142682 -20.896759 34.042278 -0.968347 2.231721 0.048701 -0.029075 254603.000000 0 0 1
16.389289 -21.510482 -20.383359 33.864302 -0.919709 2.216691 0.059593 -0.032223 -28283.300000 0 0 1
16.137189 -20.220682 -19.612559 32.464401 -0.897243 2.219464 0.078107 -0.022994 256184.000000 0 0 1
15.330389 -20.239682 -18.415859 31.365736 -0.922549 2.198309 0.088270 -0.030733 1813620.000000 0 0 1
13.909489 -20.087482 -18.692259 30.763312 -0.965158 2.223851 0.051875 -0.025054 1221030.000000 0 0 1
12.964289 -20.142682 -17.462159 29.643337 -0.998917 2.200710 0.070605 -0.021399 -5194.680000 0 0 1
13.166089 -18.970182 -16.775059 28.541484 -0.964081 2.199063 0.103700 -0.031154 226088.000000 0 0 1
13.149989 -19.130682 -15.359759 27.835721 -0.968593 2.155318 0.089885 -0.029549 -93402.200000 0 0 1
13.316489 -17.775682 -14.684359 26.625817 -0.927845 2.154968 0.095059 -0.028910 -93785.700000 0 0 1
12.108189 -17.028682 -14.615859 25.499168 -0.952695 2.181189 0.077934 -0.031666 428116.000000 0 0 1
12.245089 -15.764882 -13.999959 24.381808 -0.910405 2.182419 0.063299 -0.029341 -169800.000000 0 1 0
10.887689 -15.057582 -13.798259 23.144427 -0.944754 2.209532 0.064960 -0.025431 -256426.000000 0 1 0
10.436789 -14.336482 -14.950459 23.194342 -0.941532 2.271262 0.077119 -0.024558 870477.000000 0 1 0
9.166389 -13.702182 -14.701659 22.088713 -0.981199 2.299058 0.063938 -0.026631 555736.000000 0 1 0
8.484289 -13.153082 -15.963559 22.356698 -0.997915 2.366047 0.047915 -0.017137 -264665.000000 0 1 0
9.050089 -12.073882 -16.656359 22.474809 -0.927577 2.405522 0.051004 -0.009604 -304763.000000 0 1 0
10.208589 -12.331282 -17.405759 23.648176 -0.879296 2.397983 0.070802 -0.012554 -208033.000000 0 1 0
10.513689 -11.156582 -18.368659 23.925187 -0.815057 2.446125 0.067235 -0.013678 172897.000000 0 1 0
9.715889 -11.174882 -19.559059 24.532290 -0.855124 2.493569 0.065304 -0.015039 521364.000000 0 1 0
9.612289 -9.880982 -20.152659 24.416379 -0.799181 2.541662 0.050270 -0.019433 244803.000000 0 1 0
9.155989 -9.993382 -21.675059 25.563802 -0.829100 2.582772 0.044593 -0.015806 560566.000000 0 0 1
10.289289 -10.459682 -22.406259 26.782734 -0.793610 2.561831 0.039680 -0.012088 445728.000000 0 0 1
10.074789 -10.524282 -23.777459 27.886008 -0.807216 2.591864 0.036905 -0.009211 320292.000000 0 0 1
11.287589 -11.249482 -24.437859 29.174808 -0.783707 2.563737 0.058456 -0.011773 110103.000000 0 0 1
11.329989 -12.619382 -24.148359 29.508654 -0.839185 2.529328 0.051406 -0.014407 -242816.000000 0 0 1
12.415689 -13.328382 -24.695759 30.686733 -0.820836 2.506084 0.036096 -0.016813 -298577.000000 0 0 1
12.344989 -14.881282 -24.472459 31.188981 -0.878286 2.472929 0.032883 -0.018966 487856.000000 0 0 1
11.165689 -15.533282 -24.974659 31.459323 -0.947549 2.487946 0.043869 -0.023588 365521.000000 0 0 1
11.226889 -16.900782 -24.633959 31.914125 -0.984446 2.452593 0.035852 -0.021356 828873.000000 0 0 1
9.980589 -17.769382 -25.075029 32.312848 -1.059035 2.459108 0.041076 -0.020008 715979.000000 0 0 1
10.013589 -18.388582 -26.315609 33.629201 -1.072143 2.469503 0.049506 -0.019947 -232283.000000 0 0 1
8.850489 -19.143182 -26.610199 33.954311 -1.137735 2.471406 0.044939 -0.020897 32388.100000 0 0 1
8.970689 -19.952082 -27.907319 35.459516 -1.148265 2.476759 0.053790 -0.019987 -307462.000000 0 0 1
9.552389 -21.181982 -27.651309 36.118131 -1.147138 2.442738 0.048633 -0.016564 -236763.000000 0 0 1
9.638889 -21.985482 -28.822219 37.509864 -1.157613 2.447119 0.053384 -0.012873 47093.600000 0 0 1
10.128989 -23.419582 -28.516409 38.265635 -1.162590 2.411665 0.051044 -0.012056 -1768.310000 0 0 1
9.998689 -24.357382 -29.579059 39.600209 -1.181272 2.414247 0.063250 -0.009514 -65370.200000 0 0 1
10.579389 -25.647082 -29.412779 40.432757 -1.179562 2.385393 0.080316 -0.012118 142636.000000 0 0 1
9.993089 -26.479682 -28.271049 40.003595 -1.209935 2.355637 0.072427 -0.015360 190839.000000 0 0 1
10.755789 -26.304682 -27.087279 39.259954 -1.182648 2.332212 0.076089 -0.011968 -66280.300000 0 0 1
10.074389 -26.740282 -25.894979 38.562753 -1.210493 2.307031 0.058351 -0.010634 465028.000000 0 0 1
9.113589 -25.636082 -25.358039 37.192692 -1.229231 2.321019 0.038445 -0.014735 -16693.800000 0 0 1
9.798489 -24.504182 -24.843959 36.244829 -1.190402 2.326016 0.046850 -0.008909 119780.000000 0 0 1
8.976789 -23.340082 -24.739359 35.176385 -1.203629 2.350818 0.028673 -0.007008 92193.700000 0 0 1
9.902989 -22.111482 -24.553159 34.494122 -1.149718 2.362864 0.033090 -0.001888 61784.000000 0 0 1
10.433889 -22.071382 -23.275559 33.730751 -1.129199 2.332340 0.022198 -0.008474 -110337.000000 0 0 1
11.293289 -20.962682 -23.123059 33.191087 -1.076645 2.341534 0.033014 -0.012018 61443.000000 0 0 1
11.940589 -20.775782 -21.691459 32.322286 -1.049161 2.306487 0.028136 -0.013519 123743.000000 0 0 1
11.115189 -20.146582 -20.718259 30.962533 -1.066637 2.303847 0.024158 -0.013510 -238536.000000 0 0 1
10.854589 -18.763782 -20.882959 30.099827 -1.046346 2.337535 0.046746 -0.021618 275549.000000 0 0 1
11.969689 -17.640082 -20.775159 29.766645 -0.974611 2.343305 0.048063 -0.024384 596932.000000 0 0 1
12.928589 -17.599982 -21.823559 30.873540 -0.937238 2.355859 0.050577 -0.023095 -427299.000000 0 0 1
14.133689 -17.071682 -21.342859 30.768833 -0.879272 2.337343 0.054690 -0.027706 -142512.000000 0 0 1
15.242489 -17.312882 -22.425359 32.170888 -0.848909 2.342099 0.043710 -0.016801 -683703.000000 0 0 1
16.484889 -17.513082 -21.845259 32.491151 -0.815632 2.308168 0.062720 -0.016981 -576010.000000 0 0 1
17.498289 -17.352282 -22.820759 33.586885 -0.781209 2.317815 0.083659 -0.010892 -1259150.000000 0 0 1
18.874589 -17.580882 -22.309059 34.103249 -0.749926 2.283871 0.096699 -0.014580 -1309560.000000 0 0 1
19.258889 -18.947582 -22.235359 34.990382 -0.777250 2.259414 0.105244 -0.018824 334107.000000 0 0 1
20.648989 -19.099382 -21.984459 35.699910 -0.746432 2.234213 0.083677 -0.022762 362034.000000 0 0 1
21.051289 -20.564482 -21.690859 36.558830 -0.773701 2.205966 0.097645 -0.026125 -226999.000000 0 0 1
20.599489 -21.052682 -20.486959 35.878543 -0.796278 2.178530 0.110442 -0.029145 44045.400000 0 0 1
20.756989 -22.458182 -20.538259 36.838059 -0.824744 2.162202 0.109637 -0.022968 108341.000000 0 0 1
-16.601305 12.823114 28.369141 35.282343 -0.657694 0.636703 0.043991 -0.030583 94664.900000 0 0 1
-17.720105 13.647414 28.078981 35.898234 -0.656283 0.672635 0.057994 -0.030857 134445.000000 0 0 1
-18.285705 13.423514 26.782191 35.097628 -0.633246 0.702736 0.051312 -0.023687 342697.000000 0 0 1
-19.623405 14.193314 26.603611 35.976108 -0.626183 0.738499 0.065821 -0.030482 158813.000000 0 0 1
-19.567705 15.607814 26.869271 36.721338 -0.673295 0.749973 0.065951 -0.028462 -229649.000000 0 0 1
-20.609705 16.273014 26.188151 37.086254 -0.668355 0.786762 0.067281 -0.026594 -391228.000000 0 0 1
-20.483005 17.865914 26.197531 37.749901 -0.717260 0.803799 0.085843 -0.021486 511366.000000 0 0 1
-19.281805 18.387814 25.608011 36.954972 -0.761670 0.805221 0.067105 -0.025544 881023.000000 0 0 1
-18.254905 18.498314 26.627561 37.208281 -0.792021 0.773263 0.070243 -0.019046 -421750.000000 0 0 1
-17.080405 19.358414 26.241571 36.811798 -0.847833 0.777232 0.072203 -0.013537 -536142.000000 0 0 1
-17.282705 20.757214 26.249151 37.663932 -0.876484 0.799688 0.084655 -0.020177 105813.000000 0 0 1
-16.087605 21.326214 25.739451 37.096331 -0.924512 0.803969 0.117157 -0.024305 440366.000000 0 0 1
-16.206205 22.843514 25.618101 37.957270 -0.953760 0.829941 0.110038 -0.028396 129841.000000 0 0 1
-15.843605 23.589114 26.765061 39.036325 -0.979352 0.815307 0.111414 -0.026626 -99744.800000 0 0 1
-16.067905 24.976014 26.475921 39.786345 -0.999122 0.842697 0.108262 -0.024613 -311157.000000 0 0 1
-15.551205 26.021514 27.455731 40.899589 -1.032122 0.834840 0.070368 -0.012367 419864.000000 0 0 1
-14.126305 25.882414 27.531541 40.341512 -1.071193 0.819671 0.059826 -0.021061 442116.000000 0 0 1
-13.608305 26.728614 28.534481 41.398326 -1.099872 0.810320 0.071407 -0.017548 490393.000000 0 0 1
-12.052005 26.729714 28.527721 40.909159 -1.147207 0.799112 0.092974 -0.022924 518398.000000 0 0 1
-11.383705 27.437014 27.502761 40.481852 -1.177509 0.823872 0.086573 -0.027594 -561705.000000 0 0 1
-9.999005 27.406914 27.647471 40.193304 -1.220967 0.812256 0.066877 -0.018209 -561468.000000 0 0 1
-9.269705 28.324914 26.633941 39.969926 -1.254519 0.841494 0.060541 -0.026604 1211630.000000 0 0 1
-7.826705 28.202114 26.689571 39.609971 -1.300087 0.831444 0.056979 -0.020081 1469930.000000 0 0 1
-7.203905 28.688214 25.495771 39.050534 -1.324773 0.859400 0.067734 -0.023805 -1632240.000000 0 0 1
-5.782505 28.315114 25.316891 38.420412 -1.369347 0.851383 0.047633 -0.016413 -1820390.000000 0 0 1
-4.990505 28.972314 26.284981 39.436029 -1.400219 0.841263 0.067371 -0.017160 -555463.000000 0 0 1
-3.614305 28.857914 26.090041 39.070867 -1.446200 0.839598 0.048300 -0.011158 -66994.100000 0 0 1
-2.950805 29.904514 25.099301 39.153060 -1.472440 0.874923 0.035974 -0.008229 -493265.000000 0 0 1
-3.234805 29.620614 23.738691 38.096853 -1.462019 0.898078 0.031700 0.003780 -33608.000000 0 0 1
-2.766305 30.592114 22.808171 38.258889 -1.480616 0.932095 0.024790 0.002243 -9212.690000 0 0 1
-3.320405 30.285314 21.382171 37.221265 -1.461595 0.958851 0.016065 0.002557 1423290.000000 0 0 1
-4.757805 30.259514 21.218571 37.262618 -1.414840 0.964980 0.014270 0.003799 937593.000000 0 0 1
-5.175705 28.883814 21.266371 36.239774 -1.393488 0.943665 0.025181 0.005223 -291212.000000 0 0 1
-6.657405 28.618014 20.952571 36.087699 -1.342232 0.951329 0.023845 0.002298 -617704.000000 0 0 1
-6.970005 28.836014 19.581971 35.546453 -1.333633 0.987373 0.009959 0.001196 23699.700000 0 0 1
-7.749405 27.833114 18.971371 34.563687 -1.299250 0.989771 0.008857 0.001043 -472706.000000 0 0 1
-7.018805 26.451714 18.672471 33.130318 -1.311429 0.972051 -0.002187 -0.003494 -71630.000000 0 0 1
-6.069705 26.434514 17.674471 32.373010 -1.345096 0.993258 0.000272 -0.001091 -851350.000000 0 0 1
-4.778505 26.797814 18.080971 32.678410 -1.394334 0.984475 0.011162 0.007034 -625217.000000 0 0 1
-3.836205 26.891714 16.853071 31.967277 -1.429099 1.015497 0.021043 0.001160 -80968.100000 0 0 1
-3.640505 25.595714 16.305671 30.565811 -1.429513 1.008109 0.028801 -0.002859 -80096.000000 0 0 1
-3.125105 25.785514 14.991371 29.990002 -1.450188 1.047337 0.042375 -0.019568 70922.900000 0 0 1
-2.340405 24.582514 14.389471 28.580315 -1.475876 1.043180 0.036790 -0.021836 135689.000000 0 0 1
-1.249205 24.140514 15.154471 28.530386 -1.519095 1.010816 0.048791 -0.019498 -124976.000000 0 0 1
-0.438205 23.187014 14.535771 27.370026 -1.551900 1.010917 0.042862 -0.025854 -205161.000000 0 0 1
0.826195 22.733214 15.288571 27.408430 1.534469 0.979057 0.041003 -0.021471 321113.000000 0 0 1
1.791995 23.783214 15.435371 28.409562 1.495591 0.996414 0.054542 -0.028197 403572.000000 0 0 1
2.979295 23.218314 15.989871 28.348585 1.443177 0.971520 0.058311 -0.026480 284755.000000 0 0 1
4.190595 24.157514 15.840571 29.190243 1.399036 0.997188 0.075993 -0.033717 562513.000000 0 0 1
5.481995 23.595614 16.068271 29.068791 1.342515 0.985115 0.088026 -0.029248 557907.000000 0 0 1
6.508295 24.549314 15.829371 29.926505 1.311647 1.013443 0.098698 -0.032402 -239198.000000 0 0 1
7.939395 24.009014 15.906771 29.874607 1.251432 1.009303 0.103587 -0.029458 -203930.000000 0 0 1
8.381495 23.486114 14.653071 28.923339 1.228014 1.039539 0.084073 -0.022273 -397575.000000 0 0 1
9.226995 24.336514 13.982671 29.545193 1.208399 1.077804 0.087989 -0.028322 -951260.000000 0 0 1
9.675195 23.832214 12.573271 28.629897 1.185153 1.116126 0.067752 -0.017215 -127650.000000 0 0 1
10.732895 22.907014 12.712371 28.311318 1.132630 1.105127 0.067162 -0.018202 -78890.300000 0 0 1
10.980095 22.054914 11.583171 27.224099 1.108868 1.131310 0.060536 -0.015145 -227743.000000 0 0 1
12.222895 21.166714 11.687271 27.092827 1.047117 1.124776 0.080952 -0.011482 -258050.000000 0 0 1
12.241395 20.102814 12.546571 26.671920 1.023830 1.081048 0.067544 -0.006394 -605035.000000 0 0 1
13.376895 19.312814 12.348571 26.540786 0.965025 1.086859 0.072273 -0.009361 -249163.000000 0 0 1
13.924595 18.954714 13.785671 27.262066 0.937208 1.040635 0.062637 -0.002983 -556797.000000 0 0 1
14.878695 17.939514 13.883471 27.128444 0.878395 1.033555 0.075344 -0.010610 -82744.000000 0 0 1
15.217695 17.908014 15.252071 28.016083 0.866436 0.995118 0.059226 -0.007153 -406511.000000 0 0 1
16.267095 16.850514 15.555671 28.116492 0.803013 0.984526 0.034864 -0.011726 -137353.000000 0 0 1
16.885195 16.866814 16.857371 29.219346 0.784854 0.955837 0.053664 -0.023258 274100.000000 0 0 1
17.997295 16.005814 16.889171 29.416540 0.726897 0.959245 0.044347 -0.027033 105718.000000 0 0 1
18.561895 15.756814 18.319171 30.469873 0.703843 0.925766 0.056351 -0.026818 -296045.000000 0 0 1
19.237095 16.726614 19.039071 31.817160 0.715705 0.929306 0.064272 -0.024228 -3625.310000 0 0 1
18.442395 17.781214 19.502671 32.197014 0.767147 0.920114 0.054194 -0.013330 -360294.000000 0 0 1
19.180695 18.735814 20.451571 33.722345 0.773666 0.919184 0.049074 -0.015770 19865.900000 0 0 1
18.332395 19.754514 20.984871 34.156732 0.822720 0.909209 0.053344 -0.020618 168595.000000 0 0 1
19.050195 20.595114 21.830471 35.547688 0.824347 0.909529 0.053004 -0.018159 -117520.000000 0 0 1
18.140395 21.680214 22.447671 36.097140 0.874059 0.899670 0.070658 -0.015629 -565228.000000 0 0 1
17.171495 21.169114 23.254461 35.829619 0.889289 0.864489 0.071208 -0.018343 -90364.400000 0 0 1
16.362095 22.208414 23.891651 36.493051 0.935828 0.857023 0.080470 -0.028834 698329.000000 0 0 1
15.772995 21.889914 25.301201 36.987923 0.946405 0.817510 0.095627 -0.026491 -21683.900000 0 0 1
14.761995 20.936714 25.137291 35.890749 0.956671 0.794862 0.087738 -0.029563 -797600.000000 0 0 1
13.995595 20.815314 26.289951 36.336146 0.978856 0.761907 0.088370 -0.027350 -90216.500000 0 0 1
12.904095 19.732414 26.184221 35.234887 0.991646 0.733055 0.097335 -0.027017 -76305.800000 0 0 1
13.380095 18.411314 26.208541 34.711541 0.942354 0.715084 0.093417 -0.034825 -206177.000000 0 0 1
13.895695 17.858814 25.013361 33.729747 0.909561 0.735371 0.097034 -0.034924 -74381.500000 0 0 1
12.910295 17.677214 23.814851 32.346665 0.940000 0.743302 0.098470 -0.030388 -423497.000000 0 0 1
12.505595 18.844614 23.139321 32.356415 0.984908 0.773974 0.088084 -0.028885 -184598.000000 0 0 1
13.531995 19.521414 22.436571 32.674152 0.964657 0.813889 0.082785 -0.020226 -141732.000000 0 0 1
14.276295 18.768014 21.307771 31.781631 0.920500 0.835991 0.089201 -0.021944 -512898.000000 0 0 1
13.495395 18.434314 20.212071 30.503728 0.938863 0.846498 0.065807 -0.012842 -316563.000000 0 0 1
14.212995 17.602714 19.294371 29.734450 0.891540 0.864672 0.062220 -0.016546 700149.000000 0 0 1
13.307795 16.772914 18.282571 28.154581 0.900087 0.864049 0.056834 -0.005045 610863.000000 0 0 1
12.733995 17.449914 17.177671 27.599393 0.940385 0.899000 0.062696 -0.006788 803797.000000 0 0 1
11.586895 16.716014 16.670771 26.298210 0.964675 0.884194 0.049403 -0.001002 936202.000000 0 0 1
10.918295 17.282814 15.395171 25.591329 1.007363 0.925322 0.049060 0.000111 361374.000000 0 0 1
10.002895 18.369714 15.646371 26.121126 1.072161 0.928553 0.057114 -0.005463 342312.000000 0 0 1
9.641395 18.916314 14.410771 25.660354 1.099429 0.974482 0.053268 0.002777 -464418.000000 0 0 1
8.633795 20.066114 14.536471 26.239290 1.164473 0.983639 0.068668 -0.001276 -434904.000000 0 0 1
7.361495 19.568614 14.855971 25.648044 1.210984 0.953020 0.044403 -0.000482 -953791.000000 0 0 1
6.508295 20.666514 14.970771 26.336034 1.265708 0.966173 0.061911 -0.006814 47130.000000 0 0 1
5.164095 20.258414 15.654271 26.117569 1.321201 0.928074 0.047763 -0.009426 757591.000000 0 0 1
4.201795 19.526414 14.876571 24.904785 1.358843 0.930619 0.037690 -0.009597 -160817.000000 0 1 0
3.110895 19.172614 15.669371 24.955881 1.409941 0.891966 0.036072 -0.012589 19160.400000 0 1 0
1.948695 18.550814 14.849071 23.841666 1.466134 0.898454 0.028336 -0.014034 488967.000000 0 1 0
1.133095 19.532314 14.120971 24.128759 1.512850 0.945628 0.030474 -0.019100 -159665.000000 0 1 0
0.202995 18.797714 13.430071 23.103292 1.559998 0.950464 0.023187 -0.021039 36388.000000 0 1 0
-0.914605 19.548014 12.609971 23.280308 -1.524043 0.998388 0.024699 -0.027480 216011.000000 0 1 0
-1.839205 20.349414 13.209571 24.330518 -1.480660 0.996884 0.031877 -0.024962 -14638.800000 0 1 0
-2.985305 20.485414 12.347371 24.104394 -1.426087 1.032999 0.034680 -0.030882 470188.000000 0 1 0
-4.150505 21.306314 12.840971 25.220552 -1.378404 1.036603 0.030619 -0.024495 7570.720000 0 0 1
-4.923305 20.766514 13.912771 25.476504 -1.338015 0.993092 0.036425 -0.023633 332443.000000 0 0 1
-5.991005 21.604814 14.332971 26.610040 -1.300294 1.001986 0.032514 -0.014221 -160813.000000 0 0 1
-6.759805 21.077114 15.545671 27.048246 -1.260442 0.958512 0.037160 -0.007219 -1274230.000000 0 0 1
-7.622605 20.030014 15.178871 26.262211 -1.207161 0.954553 0.038338 -0.005122 -155991.000000 0 0 1
-8.422505 19.509414 16.204571 26.723472 -1.163252 0.919297 0.029989 0.012849 85168.400000 0 0 1
-9.576105 20.432014 16.684571 28.063213 -1.132516 0.934109 0.023120 0.014157 452148.000000 0 0 1
-10.821105 20.485514 15.965171 28.136085 -1.084819 0.967419 0.018893 0.004373 1111290.000000 0 0 1
-11.775505 19.472914 16.340071 28.015261 -1.026919 0.948065 0.011772 0.007311 399493.000000 0 0 1
-12.974005 19.399714 15.348671 27.933053 -0.981337 0.989054 0.011716 0.006743 186433.000000 0 0 1
-13.708905 20.619414 15.340871 29.127936 -0.984050 1.016115 -0.003967 0.015964 -191245.000000 0 0 1
-14.607005 20.634214 14.291271 29.040934 -0.954787 1.056287 0.003574 -0.000787 -1059050.000000 0 0 1
-15.680605 21.702814 14.244971 30.328415 -0.945119 1.081856 0.013856 -0.002438 -617344.000000 0 0 1
-16.838205 21.222114 14.887171 30.911667 -0.900076 1.068313 0.026116 0.003999 -340042.000000 0 0 1
-17.712805 22.315914 15.056771 32.224988 -0.899890 1.084631 0.033473 -0.011163 348158.000000 0 0 1
-19.080705 22.080714 15.730471 33.152360 -0.858154 1.076412 0.051988 -0.015888 222721.000000 0 0 1
-20.095405 21.287014 15.165871 32.969167 -0.814185 1.092799 0.053360 -0.013458 1178230.000000 0 0 1
-21.347305 21.113314 15.847471 33.950285 -0.779887 1.085145 0.062415 -0.014834 1097750.000000 0 0 1
-22.325905 22.310714 15.929371 35.354758 -0.785058 1.103406 0.062420 -0.011071 -431269.000000 0 0 1
-23.052705 22.494514 14.726671 35.416172 -0.773144 1.141955 0.070574 -0.010225 174857.000000 0 0 1
-23.752905 23.717614 14.558371 36.587866 -0.784655 1.161568 0.091072 -0.015014 -147117.000000 0 0 1
-22.892605 24.798314 13.914971 36.505536 -0.825336 1.179730 0.078220 -0.015946 -96582.000000 0 0 1
-21.763505 25.057414 14.738471 36.314552 -0.855634 1.152881 0.050350 -0.020034 28972.400000 0 0 1
-21.100105 26.144914 14.154971 36.457293 -0.891775 1.172052 0.034294 -0.009499 622588.000000 0 0 1
-19.577205 26.346114 14.504571 35.885475 -0.931740 1.154703 0.020873 -0.009640 827407.000000 0 0 1
-18.649305 25.610814 13.752471 34.537528 -0.941406 1.161254 0.032311 0.000471 -149212.000000 0 0 1
-17.351205 26.147414 13.872971 34.310508 -0.984926 1.154544 0.001982 -0.002141 -88514.000000 0 0 1
-16.379005 25.585014 12.781271 32.957938 -1.001356 1.172547 0.018887 -0.008526 -237138.000000 0 0 1
-15.130605 26.219514 12.885871 32.900514 -1.047405 1.168359 0.009528 -0.000851 -362814.000000 0 0 1
-14.231505 25.758114 11.915171 31.748819 -1.066031 1.186081 0.013742 -0.003378 610347.000000 0 0 1
-12.785505 26.368614 12.059571 31.689213 -1.119321 1.180397 0.002979 0.001813 295769.000000 0 0 1
-11.778105 25.549014 11.494971 30.390957 -1.138832 1.182906 0.000473 0.001651 527305.000000 0 0 1
-10.421605 25.891114 11.712671 30.267909 -1.188122 1.173457 0.017336 -0.003605 422630.000000 0 0 1
-9.956005 27.249114 11.101571 31.062536 -1.220495 1.205320 0.026277 -0.008922 -1024680.000000 0 0 1
-8.804705 27.796314 11.692871 31.414665 -1.264037 1.189407 0.042822 -0.016592 47569.100000 0 0 1
-8.372105 28.951814 10.947171 32.064626 -1.289301 1.222380 0.051038 -0.020631 256883.000000 0 0 1
-7.037305 29.570514 11.437171 32.476882 -1.337159 1.210915 0.040424 -0.018070 -144582.000000 0 0 1
-5.863605 28.938314 11.001871 31.509508 -1.370879 1.214121 0.052303 -0.021853 -1075040.000000 0 0 1
-4.839105 29.678814 11.577071 32.222314 -1.409169 1.203292 0.057242 -0.024743 -973983.000000 0 0 1
-3.480105 29.274014 11.002071 31.466246 -1.452471 1.213602 0.068873 -0.030451 -572813.000000 0 0 1
-3.355905 29.750414 9.711371 31.474752 -1.458469 1.257134 0.081612 -0.036558 -527397.000000 0 0 1
-2.142905 29.495014 9.089271 30.938047 -1.498271 1.272608 0.085230 -0.040949 -468733.000000 0 0 1
-1.911205 30.361714 7.801471 31.406199 -1.507931 1.319763 0.080957 -0.044313 -199346.000000 0 0 1
-2.689505 30.024914 6.687471 30.878005 -1.481459 1.352489 0.081382 -0.039121 -64638.700000 0 0 1
-2.554405 30.967514 5.664471 31.584778 -1.488496 1.390479 0.089373 -0.035993 65645.300000 0 0 1
11.411195 -33.882282 -26.700699 44.622323 -1.245939 2.212263 0.123582 -0.052599 -29436.000000 0 0 1
11.805595 -33.998182 -25.335109 44.012682 -1.236581 2.184173 0.106004 -0.051414 216134.000000 0 0 1
12.936495 -33.168882 -25.169789 43.600985 -1.198924 2.186185 0.111071 -0.050890 334479.000000 0 0 1
13.659695 -33.208382 -23.741059 43.046739 -1.180559 2.154979 0.090536 -0.041901 -181722.000000 0 0 1
13.116395 -32.362182 -22.727659 41.664099 -1.185729 2.147779 0.098841 -0.046879 760383.000000 0 0 1
13.902795 -32.238682 -21.508859 41.173430 -1.163647 2.120455 0.074729 -0.032578 582974.000000 0 0 1
15.367195 -31.715882 -21.546059 41.307148 -1.119604 2.119529 0.053229 -0.024335 103245.000000 0 0 1
16.237195 -32.756382 -21.908559 42.621732 -1.110598 2.110665 0.066430 -0.020209 141044.000000 0 0 1
17.596795 -32.330382 -21.973959 42.869052 -1.072355 2.108987 0.051310 -0.019720 536061.000000 0 0 1
18.583295 -33.522382 -21.774659 44.082023 -1.064616 2.087432 0.038677 -0.014830 -94734.700000 0 0 1
19.975095 -33.304582 -21.778859 44.525479 -1.030546 2.081891 0.048357 -0.008963 414340.000000 0 0 1
20.665695 33.547114 -21.721459 44.992239 1.018681 2.074625 0.031492 -0.012983 -177628.000000 0 0 1
22.190495 33.613714 -21.619659 45.713340 0.987311 2.063421 0.054036 -0.006950 253929.000000 0 0 1
22.934295 -33.987882 -22.771659 46.901028 -0.977199 2.077761 0.046959 -0.008296 832579.000000 0 0 1
24.338795 33.970614 -22.604959 47.511722 0.949105 2.066643 0.041293 -0.008990 895584.000000 0 0 1
25.294795 -33.614882 -23.731359 48.300769 -0.925705 2.084406 0.059286 -0.019658 342710.000000 0 0 1
25.480595 -32.208682 -23.853459 47.493656 -0.901500 2.096990 0.067663 -0.028554 -26381.200000 0 0 1
24.303795 -31.566182 -24.292859 46.660918 -0.914661 2.118380 0.052391 -0.024272 35555.700000 0 0 1
24.442695 -30.036082 -24.163959 45.645465 -0.887711 2.128670 0.064368 -0.030892 255369.000000 0 0 1
25.230995 -29.221882 -25.025109 46.008451 -0.858558 2.145903 0.072549 -0.035485 -73739.900000 0 0 1
25.110595 -27.880082 -24.499559 44.811487 -0.837614 2.149244 0.084457 -0.026237 346140.000000 0 0 1
25.699695 -26.777682 -25.420869 44.985988 -0.805937 2.171332 0.075641 -0.021801 54464.500000 0 0 1
25.005395 -26.676282 -26.646929 45.243260 -0.817717 2.200580 0.066459 -0.019552 -369652.000000 0 0 1
25.713995 -25.973482 -27.634989 45.820562 -0.790418 2.218195 0.053179 -0.013152 -716612.000000 0 0 1
24.766595 -25.543982 -28.770209 45.755919 -0.800849 2.250774 0.049498 -0.010213 232526.000000 0 0 1
23.868695 -24.515982 -28.437249 44.490730 -0.798775 2.264218 0.057332 -0.008087 -45586.000000 0 0 1
22.652595 -24.947882 -27.843329 43.712559 -0.833581 2.261350 0.061149 -0.010828 -254695.000000 0 0 1
21.664895 -23.792382 -27.577249 42.378647 -0.832166 2.279348 0.075903 -0.012841 69518.700000 0 0 1
21.290695 -23.114282 -28.795809 42.623495 -0.826442 2.312555 0.084175 -0.016594 5543.880000 0 0 1
20.674695 -21.892482 -28.475249 41.443498 -0.813999 2.328267 0.083420 -0.009290 -22426.400000 0 0 1
19.785195 -21.307982 -29.612219 41.501416 -0.822438 2.365310 0.101778 -0.022606 -705777.000000 0 0 1
18.592895 -21.980982 -29.741909 41.393725 -0.868709 2.372458 0.102002 -0.027156 -539480.000000 0 0 1
17.782395 -21.504982 -30.821829 41.577193 -0.879869 2.405825 0.078132 -0.033447 214394.000000 0 0 1
16.395995 -22.179782 -30.886289 41.409349 -0.934223 2.412647 0.095716 -0.039052 -206517.000000 0 0 1
16.449195 -23.538682 -31.345629 42.511104 -0.960866 2.399938 0.095162 -0.018734 -83528.700000 0 0 1
15.506595 -24.352982 -30.706699 42.147640 -1.003797 2.387000 0.107356 -0.030933 -253221.000000 0 0 1
15.552595 -25.862582 -31.052899 43.301719 -1.029381 2.370470 0.135404 -0.030347 -196959.000000 0 0 1
14.619595 -26.630182 -30.334099 42.930836 -1.068732 2.355451 0.139674 -0.032534 -72381.500000 0 0 1
14.540995 -27.953682 -30.721099 44.007213 -1.091134 2.343526 0.196608 -0.037388 115580.000000 0 0 1
13.559595 -28.806582 -29.868609 43.655648 -1.130853 2.324284 0.176828 -0.040618 -292860.000000 0 0 1
13.923395 -29.194982 -28.494949 43.106496 -1.125790 2.292995 0.188547 -0.050834 -53090.800000 0 0 1
13.922895 -28.094682 -27.597319 41.770446 -1.110699 2.292534 0.162291 -0.039085 389932.000000 0 0 1
15.194095 -28.023682 -26.683249 41.571421 -1.073971 2.267725 0.117405 -0.026623 281196.000000 0 0 1
15.236195 -29.037982 -25.706529 41.667393 -1.087585 2.235652 0.111100 -0.040025 466026.000000 0 0 1
16.057495 -28.760982 -24.518759 41.063448 -1.061597 2.210670 0.117487 -0.038324 -450565.000000 0 0 1
15.454695 -27.807982 -23.463559 39.530622 -1.063538 2.206264 0.088117 -0.026801 324341.000000 0 0 1
14.307395 -28.216582 -22.757759 38.971690 -1.101520 2.194390 0.078580 -0.029113 174726.000000 0 0 1
13.127895 -28.452682 -23.488959 39.161562 -1.138508 2.214043 0.084909 -0.026318 -151800.000000 0 0 1
11.763595 -28.431082 -22.716959 38.246161 -1.178486 2.206777 0.050074 -0.019936 641045.000000 0 0 1
11.567395 -27.153282 -22.140659 36.895991 -1.168076 2.214401 0.032950 -0.021125 -456083.000000 0 0 1
10.332895 -27.018282 -21.518359 36.052684 -1.205518 2.210377 0.038974 -0.024305 -1247260.000000 0 0 1
10.014295 -25.536482 -21.281759 34.717593 -1.197070 2.230644 0.025526 -0.016795 -197192.000000 0 0 1
10.722095 -24.899982 -20.211759 33.815494 -1.164187 2.211434 0.023482 -0.008718 132630.000000 0 0 1
10.352695 -23.555782 -20.090159 32.644565 -1.156711 2.233717 0.024538 -0.011925 -411713.000000 0 0 1
10.680995 -22.837882 -18.759259 31.425504 -1.133331 2.210483 0.022399 -0.012220 713.135000 0 0 1
9.788695 -23.199482 -17.728859 30.795242 -1.171524 2.184258 0.030051 -0.008273 278832.000000 0 0 1
9.994895 -22.303182 -16.677159 29.588131 -1.149492 2.169586 0.037393 -0.010843 241830.000000 0 0 1
9.264895 -22.827182 -15.371759 29.038070 -1.185239 2.128649 0.040064 -0.008577 536655.000000 0 0 1
9.822095 -24.081782 -14.934759 29.990879 -1.183529 2.092060 0.038814 -0.005526 313774.000000 0 0 1
9.183295 -24.556182 -13.761659 29.609496 -1.212928 2.054173 0.035422 -0.009722 97680.800000 0 0 1
9.520495 -26.064482 -13.415059 30.821435 -1.220586 2.021113 0.047730 -0.013492 -458540.000000 0 0 1
10.835695 -26.366282 -13.091959 31.368655 -1.180871 2.001332 0.042611 -0.013156 -806534.000000 0 0 1
11.042095 -27.779582 -13.177559 32.669268 -1.192456 1.985985 0.041027 -0.013718 336798.000000 0 0 1
12.452895 -28.136782 -12.570659 33.238149 -1.154126 1.958647 0.046233 -0.018885 998696.000000 0 0 1
13.630995 -27.713282 -13.231659 33.599209 -1.113684 1.975568 0.064295 -0.016251 303222.000000 0 0 1
13.856695 -28.122582 -14.568059 34.570449 -1.112986 2.005787 0.068080 -0.018138 -454935.000000 0 0 1
15.138095 -27.479482 -15.203659 34.863091 -1.067272 2.022052 0.065077 -0.014754 -92386.500000 0 0 1
16.265295 -28.234682 -14.956859 35.853378 -1.048155 2.001123 0.088649 -0.009364 -843270.000000 0 0 1
17.402995 -27.678582 -15.590059 36.221790 -1.009503 2.015738 0.110074 -0.011104 139805.000000 0 0 1
18.652095 -28.559282 -15.437159 37.441142 -0.992244 1.995779 0.096074 -0.012988 -54444.400000 0 0 1
18.712095 -29.717582 -16.287259 38.711135 -1.008850 2.005055 0.092313 -0.009587 -89335.300000 0 0 1
20.028795 -30.213582 -16.222459 39.713742 -0.985401 1.991590 0.093851 -0.007337 191007.000000 0 0 1
20.399095 -31.374982 -17.180759 41.178769 -0.994301 2.001185 0.083430 -0.007863 155278.000000 0 0 1
19.874295 -32.656782 -16.867959 41.784938 -1.024091 1.986338 0.071607 -0.003028 165839.000000 0 0 1
20.430195 -33.589082 -17.802559 43.157275 -1.024341 1.995998 0.062059 -0.001113 239623.000000 0 0 1
20.229695 33.046314 -17.373759 42.463478 1.021482 1.992314 0.043907 -0.003988 -163324.000000 0 0 1
21.109195 32.641714 -16.361059 42.175394 0.996749 1.969180 0.060564 -0.007608 -169318.000000 0 0 1
21.064695 31.267414 -16.130459 41.006881 0.977944 1.975079 0.052129 -0.011116 -286243.000000 0 0 1
21.929495 30.857414 -14.944259 40.699062 0.952944 1.946782 0.048275 -0.007424 -556107.000000 0 0 1
23.326595 30.805714 -15.146659 41.503534 0.922693 1.944374 0.058572 -0.009660 122171.000000 0 0 1
24.035395 30.276014 -14.030459 41.124093 0.899801 1.918962 0.065260 -0.008300 69644.200000 0 0 1
23.588595 28.901814 -13.473259 39.664409 0.886277 1.917374 0.061787 -0.004460 -1265220.000000 0 0 1
24.012295 27.761714 -14.113459 39.325473 0.857691 1.937873 0.060384 -0.001874 -128860.000000 0 0 1
23.825695 26.566214 -13.344359 38.098548 0.839729 1.928644 0.037307 0.000729 1065170.000000 0 0 1
22.328595 26.204214 -12.949859 36.782140 0.865085 1.930577 0.041151 -0.001700 664293.000000 0 0 1
21.513895 26.043614 -14.085659 36.599499 0.880359 1.965852 0.048739 -0.014092 -777499.000000 0 0 1
20.153895 26.197614 -13.817959 35.824998 0.915056 1.966771 0.051905 -0.015045 -337568.000000 0 0 1
19.545995 27.622314 -13.988759 36.615892 0.954977 1.962800 0.044762 -0.014095 -218327.000000 0 0 1
19.379495 28.318914 -15.220359 37.539114 0.970664 1.988271 0.051074 -0.018468 67285.000000 0 0 1
18.637295 27.734514 -16.280159 37.169821 0.979118 2.024162 0.041943 -0.014664 -181770.000000 0 0 1
18.706495 28.489514 -17.588159 38.352688 0.989789 2.047204 0.034894 -0.010550 -268115.000000 0 0 1
17.856695 29.594014 -17.608559 38.790831 1.027889 2.041974 0.041654 -0.010174 -104267.000000 0 0 1
18.002995 30.174914 -18.891959 39.894102 1.032865 2.064116 0.023315 -0.006840 -108000.000000 0 0 1
17.016795 31.339014 -19.142459 40.473928 1.073350 2.063441 0.024577 -0.006495 -86621.400000 0 0 1
17.096295 32.452714 -18.242159 40.966307 1.085934 2.032302 0.044516 -0.027407 -251401.000000 0 0 1
16.336195 33.502814 -18.735359 41.717185 1.117112 2.036559 0.046856 -0.020009 -303151.000000 0 0 1
16.521095 -33.311882 -18.031259 41.324985 -1.110392 2.022310 0.054557 -0.021992 -66243.300000 0 0 1
15.480495 -32.422482 -18.354959 40.345602 -1.125341 2.043105 0.047942 -0.019594 -12350.600000 0 0 1
15.003295 -31.718782 -17.201459 39.077745 -1.128973 2.026602 0.055119 -0.018468 265336.000000 0 0 1
13.864795 -30.716182 -17.526559 37.985479 -1.146792 2.050371 0.059289 -0.017754 936397.000000 0 0 1
12.601595 -31.323282 -17.845059 38.188929 -1.188302 2.057012 0.046087 -0.016060 733302.000000 0 0 1
11.562095 -30.365382 -17.987159 37.138610 -1.206980 2.076388 0.027055 -0.009434 -343606.000000 0 0 1
10.172695 -30.923482 -18.148759 37.270939 -1.252984 2.079381 0.054687 -0.016475 -1991780.000000 0 0 1
9.583995 -31.445582 -16.972759 36.996650 -1.274960 2.047401 0.060595 -0.006780 1004320.000000 0 0 1
8.378795 -32.187782 -17.269859 37.476733 -1.316138 2.049710 0.075238 -0.002465 793967.000000 0 0 1
7.131595 -31.491282 -17.826959 36.883071 -1.348090 2.075259 0.071835 0.002164 -893553.000000 0 0 1
7.267995 -31.214782 -19.231559 37.376988 -1.342034 2.111255 0.056303 0.002138 -115066.000000 0 0 1
7.057695 -32.288582 -20.141959 38.704807 -1.355599 2.118115 0.066425 -0.014311 -1121890.000000 0 0 1
7.103095 -31.907282 -21.607759 39.184485 -1.351751 2.154882 0.067633 -0.004776 -338796.000000 0 0 1
8.328595 -31.343482 -22.045059 39.214334 -1.311078 2.167802 0.066654 -0.016670 918553.000000 0 0 1
9.419795 -32.292982 -22.195859 40.301680 -1.286973 2.154050 0.077036 -0.024466 233049.000000 0 0 1
9.262195 -33.320482 -23.381959 41.746362 -1.299668 2.165298 0.089753 -0.035431 -265734.000000 0 0 1
8.131895 33.920514 -23.188959 41.886237 1.335503 2.157498 0.092745 -0.046321 253277.000000 0 0 1
7.969795 32.967414 -24.263659 41.702436 1.333600 2.191771 0.101227 -0.049425 -323568.000000 0 0 1
6.879195 31.969814 -23.822859 40.458880 1.358850 2.200390 0.111455 -0.055451 630597.000000 0 0 1
5.542395 32.457014 -23.823259 40.641402 1.401667 2.197135 0.111845 -0.056800 548154.000000 0 0 1
5.114395 33.213814 -22.672959 40.538593 1.418012 2.164329 0.090136 -0.049660 -121853.000000 0 0 1
3.839695 -33.987782 -22.816359 41.115676 -1.458301 2.159076 0.080620 -0.034612 787115.000000 0 0 1
2.657895 33.323414 -22.717259 40.417672 1.491204 2.167674 0.068697 -0.036585 166475.000000 0 0 1
1.520795 34.021414 -23.166859 41.188260 1.526125 2.168158 0.058203 -0.024193 263804.000000 0 0 1
0.157595 33.500114 -22.626759 40.425892 1.566092 2.164832 0.040774 -0.022649 320952.000000 0 0 1
-0.013205 33.745814 -21.238359 39.872899 -1.570405 2.132527 0.025498 -0.018566 -955945.000000 0 0 1
-1.281005 33.348814 -20.875859 39.364780 -1.532403 2.129772 0.024181 -0.025291 -703280.000000 0 0 1
-1.606805 33.536214 -19.372859 38.762961 -1.522920 2.094138 0.026396 -0.020734 75384.200000 0 0 1
-0.948505 32.602614 -18.556659 37.525721 -1.541712 2.088062 0.026862 -0.020848 27487.800000 0 0 1
-1.494605 32.614414 -17.224459 36.913627 -1.525002 2.056256 0.002116 -0.007393 352850.000000 0 0 1
-0.939305 31.395714 -16.392059 35.429829 -1.540887 2.051793 0.003863 -0.004338 1531490.000000 0 0 1
0.399495 31.678214 -15.902259 35.447859 1.558186 2.036006 -0.000507 -0.001531 648025.000000 0 0 1
0.891795 30.590514 -15.188859 34.165425 1.541652 2.031488 0.009746 -0.000267 166685.000000 0 0 1
1.919095 31.025114 -14.128359 34.144563 1.509019 1.997399 0.022841 -0.001793 132143.000000 0 0 1
3.042195 31.716414 -14.637259 35.063303 1.475170 2.001436 0.049512 -0.005319 -20846.300000 0 0 1
3.990095 31.979114 -13.626459 34.989498 1.446666 1.970824 0.070253 -0.011472 -129743.000000 0 0 1
5.321195 32.536114 -14.165059 35.882625 1.408684 1.976604 0.092741 -0.022007 -206982.000000 0 0 1
6.000395 31.487414 -14.797659 35.304854 1.382489 2.003294 0.106472 -0.019074 -731692.000000 0 0 1
7.274595 31.864714 -15.237959 36.062101 1.346347 2.007051 0.101737 -0.009575 -88229.500000 0 0 1
8.362695 30.774414 -15.257659 35.352445 1.305462 2.017048 0.098512 -0.019268 95490.000000 0 0 1
8.959795 30.552014 -13.982959 34.773936 1.285531 1.984617 0.088397 -0.021569 -102318.000000 0 0 1
9.880895 29.482214 -13.941159 34.076223 1.247414 1.992282 0.079426 -0.017749 278990.000000 0 0 1
9.215395 28.064914 -13.890459 32.642116 1.253528 2.010353 0.093968 -0.027894 155269.000000 0 0 1
8.676995 27.485914 -15.063959 32.522124 1.265009 2.052389 0.094467 -0.028222 -55395.800000 0 0 1
8.126695 26.226514 -14.828259 31.204975 1.270313 2.065975 0.089786 -0.024835 -299805.000000 0 0 1
7.504595 25.495914 -16.017759 31.031100 1.284536 2.113186 0.090855 -0.024255 66513.700000 0 0 1
8.445395 25.076614 -16.988759 31.444860 1.245944 2.141556 0.093042 -0.016987 -554028.000000 0 0 1
7.896095 24.222214 -17.922659 31.149409 1.255673 2.183862 0.075687 -0.012995 -664157.000000 0 0 1
8.753095 23.132314 -18.515159 30.895497 1.209055 2.213402 0.081981 -0.009561 -587051.000000 0 0 1
8.124495 22.262614 -19.450059 30.658379 1.220875 2.258045 0.100317 -0.018842 211733.000000 0 0 1
8.987095 21.197614 -19.902059 30.433512 1.169801 2.283593 0.082950 -0.011210 303577.000000 0 0 1
8.379195 20.415614 -21.123059 30.548188 1.181330 2.334314 0.070361 -0.023145 -328039.000000 0 0 1
7.419695 19.548614 -20.628259 29.372185 1.208042 2.349428 0.087932 -0.022864 -441116.000000 0 0 1
6.815995 18.823314 -21.704559 29.527323 1.223380 2.396562 0.083376 -0.016612 84422.000000 0 0 1
25.030395 -12.564586 -9.170059 29.469975 -0.465225 1.887216 0.078203 -0.015105 -195834.000000 0 0 1
25.450195 -11.699586 -8.158459 29.174529 -0.430895 1.854219 0.083959 -0.023367 338663.000000 0 0 1
24.824595 -11.983986 -6.933159 28.424375 -0.449750 1.817198 0.065392 -0.016108 -751773.000000 0 0 1
25.534195 -11.416886 -5.678659 28.540980 -0.420458 1.771098 0.047992 -0.012920 -608843.000000 0 0 1
25.522395 -10.007886 -5.436759 27.948323 -0.373696 1.766574 0.057722 -0.019857 596757.000000 0 0 1
26.320595 -9.232286 -6.332659 28.602646 -0.337354 1.794047 0.044988 -0.021510 -794215.000000 0 0 1
26.540395 -7.822286 -5.865059 28.283911 -0.286616 1.779676 0.087966 -0.021777 -154370.000000 0 0 1
27.135895 -7.597986 -4.577359 28.548877 -0.273006 1.731825 0.130812 -0.033772 -62038.200000 0 0 1
28.465895 -7.979586 -4.426759 29.892761 -0.273306 1.719431 0.148009 -0.040718 -953261.000000 0 0 1
29.054695 -7.790486 -3.041459 30.234375 -0.261970 1.671563 0.151190 -0.039942 -421881.000000 0 0 1
29.463795 -6.495186 -2.629659 30.285603 -0.216976 1.657734 0.173565 -0.042852 429005.000000 0 0 1
30.043495 -6.672386 -1.330859 30.804277 -0.218544 1.614013 0.198232 -0.037369 50506.900000 0 0 1
30.378695 -5.294586 -0.807259 30.847194 -0.172553 1.596969 0.196257 -0.043200 -25293.300000 0 0 1
29.212095 -4.584586 -0.445259 29.573014 -0.155672 1.585853 0.175897 -0.037951 89407.800000 0 0 1
29.459595 -3.275786 0.109941 29.641366 -0.110741 1.567087 0.178777 -0.038359 -18741.400000 0 0 1
30.210395 -3.111386 1.483441 30.406402 -0.102629 1.521990 0.161488 -0.032200 384909.000000 0 0 1
29.508895 -3.582586 2.647541 29.843245 -0.120816 1.481965 0.163839 -0.037438 697636.000000 0 0 1
30.302695 -3.329786 3.817341 30.723165 -0.109445 1.446225 0.142924 -0.037831 348944.000000 0 0 1
29.855995 -4.189586 5.034041 30.565906 -0.139416 1.405348 0.146383 -0.043410 -90668.100000 0 0 1
30.116095 -5.541886 4.681641 30.977563 -0.181982 1.419085 0.140101 -0.045703 205792.000000 0 0 1
30.027395 -6.374386 5.808441 31.241242 -0.209180 1.383786 0.136215 -0.051985 -380196.000000 0 0 1
30.899095 -7.642186 5.746441 32.344685 -0.242461 1.392186 0.123715 -0.047689 -1214210.000000 0 0 1
32.222795 -7.262286 5.783141 33.533476 -0.221674 1.397471 0.119327 -0.047569 -1245220.000000 0 0 1
33.036595 -8.403286 5.791641 34.577086 -0.249081 1.402504 0.106481 -0.037821 -166820.000000 0 0 1
34.559695 -8.252686 5.884241 36.015325 -0.234405 1.406679 0.111782 -0.027864 -201677.000000 0 0 1
35.231395 -7.616686 4.836441 36.368341 -0.212914 1.437416 0.121486 -0.033330 854242.000000 0 0 1
36.630895 -7.539586 5.204041 37.759103 -0.202991 1.432534 0.118588 -0.026506 1252190.000000 0 0 1
-36.248399 -7.363586 4.055241 37.210399 0.200415 1.461598 0.107939 -0.022464 48436.200000 0 0 1
-36.108799 -8.539686 3.264041 37.248162 0.232232 1.483054 0.133800 -0.034882 53439.500000 0 0 1
-35.258599 -8.322786 2.172641 36.292671 0.231807 1.510896 0.142848 -0.045227 -388315.000000 0 0 1
-35.105799 -9.622986 1.347941 36.425759 0.267542 1.533783 0.142046 -0.033926 -287598.000000 0 0 1
-34.480499 -10.654986 2.103041 36.150468 0.299707 1.512589 0.123856 -0.029937 418646.000000 0 0 1
-34.263299 -11.859086 1.404141 36.284752 0.333211 1.532089 0.112554 -0.028201 -596649.000000 0 0 1
-33.679099 -13.041686 2.237441 36.185265 0.369453 1.508924 0.100623 -0.046063 1315830.000000 0 0 1
-32.299899 -12.940386 2.652941 34.896635 0.381051 1.494700 0.094427 -0.033669 1554410.000000 0 0 1
-31.331599 -13.188786 1.626141 34.033182 0.398428 1.522997 0.092497 -0.018405 -145480.000000 0 0 1
-29.912499 -13.427486 2.171741 32.859876 0.421932 1.504657 0.102166 -0.021246 -130887.000000 0 0 1
-29.213999 -12.314086 2.689441 31.817095 0.398914 1.486167 0.114668 -0.023860 486175.000000 0 0 1
-27.941899 -12.669586 3.202041 30.846737 0.425699 1.466804 0.119874 -0.011407 98055.100000 0 0 1
-27.125199 -11.500786 3.795841 29.706109 0.401014 1.442666 0.121076 -0.006916 -644853.000000 0 0 1
-25.821699 -11.870686 4.126041 28.717548 0.430906 1.426621 0.116217 0.003886 -58124.500000 0 0 1
-25.103799 -10.738286 4.627841 27.693473 0.404202 1.402899 0.107488 -0.001770 333942.000000 0 0 1
-23.653399 -11.103786 5.065241 26.616424 0.438900 1.379323 0.106144 0.003971 331187.000000 0 0 1
-23.588899 -11.686086 6.368341 27.084249 0.459966 1.333443 0.085578 0.012769 -167542.000000 0 0 1
-22.312599 -12.220686 6.631841 26.290275 0.501078 1.315787 0.085480 0.003997 -36330.100000 0 0 1
-22.017399 -12.339686 8.164741 26.527282 0.510832 1.257931 0.100947 -0.004815 -411418.000000 0 0 1
-21.787899 -11.162486 8.901941 26.049150 0.473459 1.222032 0.099776 -0.004478 865232.000000 0 0 1
-22.868699 -10.211386 9.145941 26.662671 0.419958 1.220662 0.104399 -0.006505 201477.000000 0 0 1
-23.415399 -10.277886 10.640941 27.697391 0.413616 1.176471 0.103468 -0.010576 -336194.000000 0 0 1
-23.850499 -11.573686 11.066941 28.727577 0.451786 1.175331 0.097106 -0.020417 391239.000000 0 0 1
-25.051999 -12.050586 10.491141 29.713353 0.448351 1.209937 0.083335 -0.015956 78419.000000 0 0 1
-26.387699 -11.497186 11.064941 30.837135 0.410901 1.203794 0.074774 -0.013718 -354789.000000 0 0 1
-26.597999 -12.064886 12.322541 31.699528 0.425845 1.171544 0.087016 -0.022327 -77025.000000 0 0 1
-27.686799 -11.413686 12.939041 32.622843 0.391016 1.162959 0.069759 -0.024565 -50030.200000 0 0 1
-27.974699 -11.973786 14.359841 33.647591 0.404427 1.129876 0.079205 -0.017889 -187794.000000 0 0 1
-28.366699 -13.317186 14.387041 34.481938 0.438923 1.140397 0.059292 -0.011659 209905.000000 0 0 1
-28.340799 -13.731186 15.758541 35.214741 0.451173 1.106830 0.102883 -0.023466 -537419.000000 0 0 1
-27.768799 -15.112186 15.971541 35.419973 0.498391 1.103002 0.068744 0.006986 -249504.000000 0 0 1
-28.721199 -16.120486 15.729841 36.499387 0.511458 1.125238 0.044961 0.005872 -136176.000000 0 0 1
-28.110999 -17.376186 15.889741 36.669388 0.553642 1.122618 0.037264 -0.000187 -418949.000000 0 0 1
-28.975499 -18.564386 16.299341 38.077349 0.569804 1.128453 0.015979 0.013895 -393985.000000 0 0 1
-29.258699 -18.511186 17.678841 38.875145 0.564098 1.098694 0.032408 0.011268 1063.720000 0 0 1
-29.731399 -19.732486 18.316541 40.110133 0.585940 1.096563 0.040519 0.007216 212700.000000 0 0 1
-28.741099 -20.945986 18.333141 40.011113 0.629782 1.094826 0.034000 0.009911 546446.000000 0 0 1
-27.572899 -20.750686 19.138841 39.460752 0.645147 1.064422 0.052381 0.011595 416118.000000 0 0 1
-27.001799 -21.963886 19.562641 39.927514 0.682872 1.058759 0.056990 0.006083 522023.000000 0 0 1
-25.615199 -21.781986 20.290441 39.272068 0.704700 1.027847 0.074906 0.007090 638383.000000 0 0 1
-24.615899 -21.455986 19.343541 37.953582 0.716919 1.036003 0.082686 0.002104 894315.000000 0 0 1
-23.306599 -21.383186 19.968141 37.405412 0.742385 1.007673 0.086620 0.003317 901783.000000 0 0 1
-22.204499 -21.048886 18.963041 35.995726 0.758687 1.015949 0.082919 -0.004238 -248583.000000 0 0 1
-21.923199 -22.085886 17.999041 35.949666 0.789095 1.046420 0.071217 -0.007563 -149611.000000 0 0 1
-20.696999 -21.865086 17.381541 34.764432 0.812836 1.047220 0.076104 -0.012062 -390725.000000 0 0 1
-20.251099 -22.817386 16.174241 34.530366 0.844914 1.083310 0.084354 -0.008849 -378803.000000 0 0 1
-20.198799 -24.208286 16.501741 35.585672 0.875443 1.088608 0.084935 -0.017293 583478.000000 0 0 1
-19.116799 -24.688786 17.300941 35.697489 0.911917 1.064828 0.081951 -0.016700 561778.000000 0 0 1
-17.702199 -24.740686 16.645141 34.677516 0.949737 1.070144 0.076503 -0.020625 248077.000000 0 0 1
-17.054899 -23.472486 16.479641 33.367735 0.942446 1.054251 0.075668 -0.025001 193435.000000 0 0 1
-15.819899 -23.736286 15.814441 32.615595 0.982919 1.064578 0.076499 -0.024881 161646.000000 0 0 1
-15.075299 -22.377886 15.534741 31.134588 0.977961 1.048404 0.072020 -0.019794 -192737.000000 0 0 1
-15.612599 -21.389086 14.625541 30.251491 0.940262 1.066187 0.071752 -0.016151 1100520.000000 0 0 1
-16.726599 -20.624086 15.240841 30.617238 0.889370 1.049752 0.080299 -0.018047 1134870.000000 0 0 1
-16.350799 -19.444086 16.190741 30.125757 0.871601 1.003400 0.074852 -0.022693 -463182.000000 0 0 1
-15.732099 -18.356386 15.595241 28.769209 0.862231 0.997885 0.063868 -0.025435 -41439.100000 0 0 1
-15.783299 -17.199786 16.495041 28.583764 0.828318 0.955651 0.048676 -0.020217 -17737.100000 0 0 1
-15.134099 -15.923786 15.813541 27.067988 0.810819 0.946883 0.059832 -0.020523 392793.000000 0 0 1
-15.986899 -15.287386 14.868541 26.652554 0.763035 0.978985 0.079886 -0.026805 186134.000000 0 0 1
-15.991199 -15.851986 13.608641 26.309675 0.781026 1.027163 0.096912 -0.034708 138523.000000 0 0 1
-16.910999 -15.130086 12.579141 25.944868 0.729873 1.064615 0.088420 -0.026853 1200370.000000 0 0 1
-18.336599 -15.210486 12.803541 27.046634 0.692481 1.077664 0.076979 -0.024944 791650.000000 0 0 1
-18.968799 -14.441286 11.851541 26.623770 0.650705 1.109456 0.088424 -0.026426 -588754.000000 0 0 1
-20.485499 -14.674086 11.780241 27.816516 0.621592 1.133493 0.086749 -0.026170 132189.000000 0 0 1
-21.044999 -15.953186 11.297941 28.723503 0.648634 1.166541 0.088666 -0.025488 550804.000000 0 0 1
-21.316799 -15.933486 9.929841 28.405697 0.641874 1.213682 0.091486 -0.018737 -263611.000000 0 0 1
-22.095499 -17.151786 9.460941 29.528025 0.660095 1.244639 0.081285 0.002103 -42862.400000 0 0 1
-21.214099 -18.233886 9.282441 29.473315 0.709993 1.250399 0.077258 0.006465 227139.000000 0 0 1
-21.868199 -19.329786 8.632541 30.436483 0.723861 1.283224 0.081867 -0.017330 -30341.400000 0 0 1
-21.186699 -20.707986 8.762741 30.894701 0.773972 1.283216 0.089843 -0.012768 1143690.000000 0 0 1
-19.939299 -20.765186 8.022941 29.885384 0.805685 1.299005 0.114850 -0.012482 615178.000000 0 0 1
-19.399999 -22.064086 8.060041 30.465523 0.849560 1.303046 0.113390 -0.021863 -718217.000000 0 0 1
-18.082599 -22.177786 7.303341 29.532581 0.886767 1.320906 0.113743 -0.035623 -854536.000000 0 0 1
-17.098899 -21.532286 8.050241 28.649923 0.899660 1.285974 0.090188 -0.034568 -1706450.000000 0 0 1
-15.864799 -21.851486 7.549241 28.038729 0.942814 1.298189 0.109588 -0.035627 -864950.000000 0 0 1
-14.686299 -21.361686 8.494941 27.279535 0.968505 1.254127 0.042996 -0.023050 881115.000000 0 0 1
-13.484099 -21.685086 7.778141 26.693882 1.014491 1.275124 0.060090 -0.015486 -202245.000000 0 0 1
-12.367899 -21.726986 8.636441 26.450235 1.053301 1.238180 0.062051 -0.009456 848220.000000 0 0 1
-11.075399 -22.101886 7.793641 25.921008 1.106264 1.265402 0.063446 -0.003565 763665.000000 0 0 1
-10.924799 -23.491486 7.520541 26.977021 1.135495 1.288277 0.057642 0.002813 -90679.900000 0 0 1
-9.681699 -23.783086 6.903641 26.590049 1.184199 1.308155 0.078547 -0.005869 423350.000000 0 0 1
-9.281499 -25.271336 6.916241 27.796061 1.218816 1.319334 0.083518 -0.008078 156272.000000 0 0 1
-10.182499 -26.033976 6.115541 28.615573 1.197965 1.355421 0.073220 -0.012056 -16966.300000 0 0 1
-10.299699 -27.400816 6.449941 29.974827 1.211245 1.353922 0.101178 -0.017276 433873.000000 0 0 1
-9.258299 -28.322406 5.720241 30.341324 1.254856 1.381132 0.114768 -0.021817 579605.000000 0 0 1
-7.895199 -28.061506 6.031041 29.768368 1.296533 1.366785 0.109874 -0.020532 460419.000000 0 0 1
-6.967199 -29.070326 5.593941 30.412462 1.335566 1.385807 0.108335 -0.012020 662799.000000 0 0 1
-6.924199 -30.321946 6.487441 31.771871 1.346290 1.365162 0.120846 -0.018893 -334185.000000 0 0 1
-6.726199 -30.231456 7.832441 31.945732 1.351872 1.323091 0.118864 -0.018289 61194.900000 0 0 1
-6.885199 -31.528576 8.387941 33.343884 1.355792 1.316506 0.141312 -0.026463 -246167.000000 0 0 1
-7.001199 -31.416006 9.919941 33.680669 1.351525 1.271833 0.115748 -0.022840 150424.000000 0 0 1
-5.850199 -30.882546 10.560441 33.158398 1.383581 1.246666 0.096343 -0.011437 691029.000000 0 0 1
-6.211199 -30.832966 11.933241 33.640051 1.372010 1.208168 0.077401 -0.011705 -239896.000000 0 0 1
-5.133199 -30.110746 12.710341 33.084128 1.401942 1.176474 0.074431 -0.013391 -348888.000000 0 0 1
-5.218199 -28.715306 12.649341 31.808870 1.391036 1.161823 0.078511 -0.009078 -51128.400000 0 0 1
-4.668199 -27.987246 13.745241 31.527919 1.405520 1.119680 0.055906 -0.014930 -881960.000000 0 0 1
-5.601199 -27.569516 14.861041 31.816696 1.370358 1.084807 0.070639 -0.014998 -469501.000000 0 0 1
-6.237199 -28.558666 15.623641 33.145108 1.355773 1.079952 0.070886 -0.019527 277649.000000 0 0 1
-5.339199 -29.321136 16.431641 34.032850 1.390676 1.066928 0.055866 -0.021050 190906.000000 0 0 1
-5.957199 -30.641096 16.952541 35.521171 1.378773 1.073272 0.047111 -0.017629 -68679.100000 0 0 1
-5.923199 -31.686666 16.044541 36.007727 1.385999 1.108968 0.050158 -0.011524 342874.000000 0 0 1
-6.571199 -32.851696 16.559541 37.371553 1.373376 1.111736 0.044495 -0.015218 -57387.800000 0 0 1
-6.266199 34.030338 15.714641 38.003673 -1.388700 1.144498 0.034358 -0.016813 -105372.000000 0 0 1
-6.580199 -33.999566 14.316141 37.472942 1.379622 1.178794 0.045614 -0.017916 -97979.800000 0 0 1
-5.939199 33.003389 13.782541 36.255430 -1.392745 1.180837 0.036890 -0.016572 149.855000 0 0 1
-4.664199 33.348307 12.962441 36.081702 -1.431835 1.203330 0.064882 -0.025179 218983.000000 0 0 1
-4.961199 33.542070 11.598541 35.835878 -1.423951 1.241204 0.066542 -0.026831 4881.390000 0 0 1
-3.859199 -34.012266 10.919441 35.929957 1.457815 1.262003 0.080954 -0.033575 -792061.000000 0 0 1
-4.144199 -33.614836 9.467341 35.167629 1.448130 1.298228 0.081592 -0.033548 -1064190.000000 0 0 1
-4.216199 33.485849 8.487441 34.801079 -1.445546 1.324427 0.096936 -0.044050 481017.000000 0 0 1
-5.152199 32.409318 8.625941 33.931047 -1.413143 1.313755 0.098407 -0.044021 1488100.000000 0 0 1
-6.686199 32.722363 8.888441 34.561000 -1.369240 1.310692 0.106338 -0.034845 1036940.000000 0 0 1
-7.479199 33.094657 7.758141 34.804935 -1.348536 1.346004 0.123330 -0.034137 -478420.000000 0 0 1
-8.741199 33.529846 8.197141 35.606913 -1.315774 1.338501 0.105282 -0.024392 -462085.000000 0 0 1
-9.662499 33.849372 7.019541 35.894538 -1.292736 1.373968 0.111704 -0.028300 -224605.000000 0 0 1
-9.518899 -32.948046 6.411341 34.889661 1.289548 1.385986 0.140601 -0.035604 20095.900000 0 0 1
-10.209199 -32.991386 5.161841 34.918532 1.270692 1.422427 0.126893 -0.034651 386386.000000 0 0 1
-10.877699 -31.660606 4.692541 33.804411 1.239859 1.431532 0.126609 -0.036577 322405.000000 0 0 1
-11.882599 -31.226396 5.572141 33.872300 1.207186 1.405541 0.131057 -0.038353 -448675.000000 0 0 1
-12.652499 -30.172246 5.073841 33.108821 1.173728 1.416943 0.128248 -0.035144 -308046.000000 0 0 1
-13.678799 -29.582996 6.038741 33.147090 1.137689 1.387593 0.109565 -0.030956 -13383.700000 0 0 1
-14.636899 -30.603906 6.370341 34.516939 1.124684 1.385175 0.119253 -0.020850 190324.000000 0 0 1
-15.634899 -29.975246 7.156141 34.556848 1.090023 1.362204 0.110514 -0.021095 -75013.000000 0 0 1
34.082619 -12.648886 -12.597159 38.474766 -0.355368 1.904361 0.059823 -0.022706 150442.000000 0 0 1
33.007679 -12.886286 -11.672859 37.307088 -0.372206 1.889026 0.086309 -0.026334 683102.000000 0 0 1
32.796689 -14.209186 -11.087159 37.422571 -0.408838 1.871581 0.073016 -0.026688 -602656.000000 0 0 1
33.877899 -14.765586 -10.178059 38.331807 -0.411022 1.839545 0.055883 -0.023095 -764139.000000 0 0 1
35.075219 -15.070986 -10.829959 39.682409 -0.405825 1.847219 0.064571 -0.026411 -538526.000000 0 0 1
36.049959 -15.398586 -9.858459 40.421593 -0.403687 1.817172 0.044656 -0.020941 -568776.000000 0 0 1
-36.441805 -15.388886 -10.431959 40.910252 0.399570 1.828640 0.015282 -0.021920 -449773.000000 0 0 1
-35.919254 -14.041286 -10.538559 39.980142 0.372648 1.837543 0.019909 -0.013338 -683108.000000 0 0 1
-34.717201 -13.982386 -11.213059 39.070754 0.382876 1.861883 0.036691 -0.015031 -491976.000000 0 0 1
-34.057195 -12.558886 -11.097859 37.957616 0.353288 1.867506 0.060752 -0.022198 -196096.000000 0 0 1
-33.459955 -12.309386 -9.884759 36.997271 0.352518 1.841257 0.078146 -0.020572 -150542.000000 0 0 1
-32.602185 -11.203086 -9.993959 35.892768 0.330989 1.852965 0.091840 -0.032684 -338239.000000 0 0 1
-33.130985 -9.861386 -9.423259 35.828856 0.289298 1.836934 0.085735 -0.040308 -86991.900000 0 0 1
-32.699155 -9.666386 -8.083459 35.043060 0.287430 1.803565 0.110270 -0.037158 346625.000000 0 0 1
-33.231105 -8.486886 -7.565859 35.122298 0.250045 1.787913 0.142534 -0.047204 -94770.600000 0 0 1
-32.795105 -8.379786 -6.115059 34.396710 0.250167 1.749527 0.133108 -0.043092 -72330.200000 0 0 1
-31.505645 -7.819086 -5.913459 32.995648 0.243265 1.750989 0.125374 -0.050577 412447.000000 0 0 1
-31.053695 -7.763886 -4.568859 32.333951 0.244993 1.712573 0.125577 -0.039266 -274024.000000 0 0 1
-30.394835 -9.053486 -4.011259 31.967199 0.289495 1.696608 0.129499 -0.036055 -578031.000000 0 0 1
-31.181795 -10.164986 -3.644559 32.998698 0.315128 1.681468 0.143914 -0.033708 12086.200000 0 0 1
-31.785785 -9.964286 -2.371959 33.395349 0.303780 1.641883 0.127968 -0.032343 -14681.400000 0 0 1
-32.466155 -11.231686 -1.772659 34.399772 0.333063 1.622350 0.123817 -0.024169 -1009440.000000 0 0 1
-33.672415 -11.472386 -2.377259 35.652469 0.328371 1.637524 0.131026 -0.035952 -862812.000000 0 0 1
-34.040175 -12.828286 -2.150859 36.440700 0.360398 1.629854 0.116692 -0.044256 -807070.000000 0 0 1
-35.544229 -13.063786 -2.151759 37.929999 0.352211 1.627557 0.082259 -0.027626 -935991.000000 0 0 1
-36.265935 -12.353886 -1.187759 38.330762 0.328318 1.601788 0.104959 -0.034934 -1151800.000000 0 0 1
36.320349 -12.710486 -1.384059 38.505062 -0.336635 1.606749 0.144110 -0.032920 -1327950.000000 0 0 1
35.391299 -12.040486 -0.365259 37.385167 -0.327927 1.580567 0.149618 -0.035541 -355840.000000 0 0 1
35.738529 -12.308586 0.980841 37.811450 -0.331683 1.544853 0.159369 -0.034310 146443.000000 0 0 1
35.490079 -11.191886 1.850541 37.258938 -0.305481 1.521109 0.156625 -0.039720 -181194.000000 0 0 1
36.046129 -11.305286 3.302741 37.921511 -0.303917 1.483592 0.140073 -0.042577 263933.000000 0 0 1
35.252469 -12.140486 4.148241 37.514475 -0.331665 1.459993 0.128634 -0.043593 258157.000000 0 0 1
35.756799 -11.931086 5.445941 38.086188 -0.322056 1.427315 0.115013 -0.040403 -139101.000000 0 0 1
34.787299 -12.351486 6.561441 37.493571 -0.341173 1.394889 0.109263 -0.031710 291852.000000 0 0 1
33.755989 -11.404286 6.830041 36.279112 -0.325805 1.381402 0.111852 -0.033408 388603.000000 0 0 1
33.433749 -11.461486 8.211941 36.285220 -0.330257 1.342502 0.090753 -0.020168 -219557.000000 0 0 1
32.645659 -10.260286 8.800241 35.333507 -0.304517 1.319084 0.096571 -0.034222 -267860.000000 0 0 1
31.245289 -10.312386 8.647441 34.020459 -0.318789 1.313793 0.121804 -0.034196 96261.900000 0 0 1
30.675599 -9.190086 9.326941 33.353289 -0.291080 1.287376 0.130636 -0.029625 -41794.000000 0 0 1
29.141739 -9.026186 9.259541 31.881845 -0.300363 1.276117 0.134069 -0.039079 180292.000000 0 0 1
28.594089 -8.561686 8.024641 30.908239 -0.290926 1.308159 0.148854 -0.042517 121195.000000 0 0 1
27.705789 -9.470586 7.456541 30.214280 -0.329375 1.321431 0.160467 -0.052464 -492521.000000 0 0 1
26.684889 -8.887586 6.467041 28.859922 -0.321502 1.344793 0.156156 -0.053598 -125473.000000 0 0 1
25.714289 -8.054486 7.093941 27.864375 -0.303550 1.313374 0.164878 -0.052339 -18104.700000 0 0 1
24.660789 -7.673886 6.286241 26.581193 -0.301680 1.332042 0.160229 -0.042440 -706487.000000 0 0 1
24.896689 -6.457286 5.353941 26.271778 -0.253772 1.365568 0.146371 -0.044543 -239963.000000 0 0 1
25.867289 -6.657486 4.314941 27.056560 -0.251904 1.410634 0.140364 -0.044364 627373.000000 0 0 1
26.348389 -5.464886 3.800241 27.176173 -0.204509 1.430499 0.150904 -0.045981 -238511.000000 0 0 1
26.760689 -5.436386 2.342541 27.407595 -0.200421 1.485221 0.154412 -0.046988 7287.360000 0 0 1
25.730989 -5.525386 1.358741 26.352606 -0.211524 1.519213 0.140289 -0.044709 4892.310000 0 0 1
26.237889 -5.480786 0.039641 26.804242 -0.205927 1.569317 0.154407 -0.041765 -726638.000000 0 0 1
25.305889 -5.565686 -1.170759 25.937146 -0.216490 1.615950 0.126103 -0.035211 -235053.000000 0 0 1
24.368089 -4.504086 -1.331459 24.816593 -0.182773 1.624474 0.119774 -0.031901 214461.000000 0 1 0
23.617189 -4.793486 -2.464059 24.224382 -0.200246 1.672691 0.091827 -0.029928 -304093.000000 0 1 0
22.376089 -3.882286 -2.679459 22.867903 -0.171791 1.688237 0.076787 -0.021083 -168340.000000 0 1 0
22.610089 -2.522686 -3.079859 22.957909 -0.111114 1.705354 0.087978 -0.022288 362520.000000 0 1 0
22.877289 -2.327686 -4.444959 23.421061 -0.101398 1.761739 0.105449 -0.019159 549128.000000 0 1 0
21.908189 -1.175286 -4.971959 22.496008 -0.053595 1.793652 0.071385 -0.015332 744833.000000 0 1 0
22.186789 0.043414 -4.406159 22.620117 0.001957 1.766839 0.097744 -0.013351 476038.000000 0 1 0
21.186289 0.988914 -4.766259 21.738307 0.046643 1.791848 0.094155 -0.005653 -214795.000000 0 1 0
21.284189 2.395214 -4.093959 21.806289 0.112063 1.759659 0.116916 -0.006144 -154106.000000 0 1 0
22.358889 3.141514 -4.614359 23.045202 0.139590 1.772390 0.141714 -0.007600 465229.000000 0 1 0
23.499989 3.100614 -3.762459 24.000404 0.131183 1.728212 0.178320 -0.004704 290335.000000 0 1 0
24.625289 4.094314 -4.207459 25.315429 0.164757 1.737773 0.171634 -0.010758 -133785.000000 0 0 1
24.236289 5.455614 -4.168959 25.190110 0.221411 1.737061 0.162582 -0.002535 122724.000000 0 0 1
25.243589 6.201014 -3.581759 26.239671 0.240878 1.707725 0.152804 -0.015088 -507757.000000 0 0 1
24.830389 7.681514 -3.422059 26.215727 0.300021 1.701704 0.135365 -0.020380 -101076.000000 0 0 1
23.919989 7.897214 -2.371559 25.301307 0.318884 1.664667 0.152837 -0.026701 -54462.900000 0 0 1
22.933489 8.799614 -2.708659 24.712647 0.366377 1.680623 0.138092 -0.021776 -657710.000000 0 1 0
21.978789 9.129214 -1.526759 23.848285 0.393681 1.634860 0.122688 -0.022197 56572.200000 0 1 0
22.535689 9.785914 -0.425159 24.572386 0.409672 1.588099 0.108063 -0.012675 1130870.000000 0 1 0
21.404289 10.058214 0.420741 23.653504 0.439292 1.553008 0.085810 -0.015939 820703.000000 0 1 0
21.777689 10.333214 1.894141 24.179140 0.443029 1.492378 0.097805 -0.019607 -394497.000000 0 1 0
22.607689 11.457614 2.135941 25.435148 0.469074 1.486721 0.098105 -0.027453 289153.000000 0 0 1
22.061589 12.729214 2.057841 25.553499 0.523325 1.490178 0.100627 -0.023352 -530439.000000 0 0 1
20.945989 13.091114 3.069141 24.890387 0.558595 1.447175 0.083929 -0.019586 1221400.000000 0 1 0
19.638289 12.484614 2.736141 23.431057 0.566277 1.453755 0.125279 -0.034047 2776230.000000 0 1 0
18.512189 13.194314 3.344041 22.977678 0.619223 1.424743 0.095176 -0.031410 860615.000000 0 1 0
18.427889 13.325114 4.917941 23.266540 0.626058 1.357816 0.070994 -0.024348 -793966.000000 0 1 0
18.081789 12.087414 5.465941 22.426172 0.589261 1.324586 0.056841 -0.017209 335037.000000 0 1 0
18.029189 12.090414 6.899941 22.778037 0.590722 1.263040 0.035471 -0.022085 -162736.000000 0 1 0
18.234489 10.689914 7.446741 22.410373 0.530246 1.232066 0.024583 -0.029533 -1244040.000000 0 1 0
19.409289 10.064614 7.096341 22.986409 0.478374 1.256950 0.023190 -0.026558 -600164.000000 0 1 0
19.513289 8.711814 7.575741 22.672803 0.419902 1.230111 0.031385 -0.017559 -104803.000000 0 1 0
20.466089 7.847814 6.739841 22.931952 0.366162 1.272485 0.045921 -0.014243 -296175.000000 0 1 0
20.114389 7.882214 5.377441 22.262857 0.373478 1.326841 0.040297 -0.018825 778587.000000 0 1 0
21.118489 7.297214 4.541341 22.800519 0.332693 1.370278 0.060672 -0.011190 323070.000000 0 1 0
20.594089 7.016514 3.121941 21.979410 0.328371 1.428275 0.064839 -0.008509 447897.000000 0 1 0
21.624389 6.410414 2.312041 22.672740 0.288191 1.468644 0.068103 -0.010563 405467.000000 0 1 0
21.224389 5.917614 1.077341 22.060224 0.271907 1.521941 0.071464 -0.009089 -1129810.000000 0 1 0
22.250589 5.223114 0.241241 22.856680 0.230566 1.560242 0.110904 -0.010761 -583811.000000 0 1 0
22.578589 3.904814 0.734341 22.925521 0.171249 1.538759 0.119099 -0.011858 468795.000000 0 1 0
23.723689 3.434014 0.057441 23.971007 0.143752 1.568400 0.134365 -0.022535 -3672.540000 0 1 0
23.720889 1.853714 0.015741 23.793215 0.077988 1.570135 0.157087 -0.028171 148461.000000 0 1 0
22.665389 1.406214 -0.837059 22.724391 0.061963 1.607640 0.127232 -0.019254 924376.000000 0 1 0
22.710789 0.029214 -1.163359 22.740584 0.001286 1.621976 0.126928 -0.025835 -602509.000000 0 1 0
22.278789 -1.033286 -0.100259 22.302963 -0.046347 1.575292 0.120713 -0.025023 842782.000000 0 1 0
23.308389 -1.476786 0.832541 23.369959 -0.063274 1.535164 0.131076 -0.027231 1366180.000000 0 1 0
24.550089 -2.018086 0.397641 24.636104 -0.082018 1.554655 0.144398 -0.034824 -135009.000000 0 1 0
25.475289 -2.064386 1.611441 25.609544 -0.080858 1.507831 0.155967 -0.032193 -647221.000000 0 0 1
25.601389 -0.723686 2.052541 25.693730 -0.028260 1.490826 0.144369 -0.032989 1094300.000000 0 0 1
26.553589 -0.634686 3.158041 26.748255 -0.023898 1.452455 0.137704 -0.038215 426716.000000 0 0 1
26.596689 0.780014 3.835841 26.883191 0.029319 1.427622 0.138309 -0.030264 90268.400000 0 0 1
27.061289 1.923114 3.107941 27.306977 0.070946 1.456734 0.155137 -0.022179 619129.000000 0 0 1
28.457289 1.909314 2.807441 28.659108 0.066994 1.472679 0.153489 -0.021354 368046.000000 0 0 1
28.724589 2.972614 1.685641 28.927147 0.103120 1.512491 0.177193 -0.031428 -3723.210000 0 0 1
27.998789 2.628114 0.482741 28.126006 0.093591 1.553632 0.178167 -0.021173 397475.000000 0 0 1
28.113289 3.554714 -0.655559 28.344713 0.125775 1.593926 0.166378 -0.028658 -106794.000000 0 0 1
29.503719 3.588614 -1.338359 29.751282 0.121038 1.615796 0.164607 -0.025015 -122113.000000 0 0 1
30.520779 3.953614 -0.435059 30.778861 0.128821 1.584932 0.153016 -0.023234 378207.000000 0 0 1
31.803629 3.719114 -1.051159 32.037596 0.116411 1.603612 0.135357 -0.021947 844665.000000 0 0 1
33.039639 4.078814 -0.198059 33.291045 0.122831 1.576746 0.098585 -0.020698 114289.000000 0 0 1
33.215189 3.248314 0.968341 33.387692 0.097486 1.541789 0.116485 -0.026232 36933.600000 0 0 1
32.775949 3.878514 2.142441 33.074095 0.117786 1.505974 0.117585 -0.009652 -76890.700000 0 0 1
32.806729 2.891614 3.323841 33.101220 0.087914 1.470212 0.119305 -0.018983 532275.000000 0 0 1
31.752899 1.890714 3.233341 31.973049 0.059474 1.469496 0.127288 -0.026140 701031.000000 0 0 1
31.866599 0.750314 4.106241 32.138829 0.023541 1.442680 0.128123 -0.032586 -45989.000000 0 0 1
33.024639 -0.241286 3.811941 33.244787 -0.007306 1.455881 0.130424 -0.029758 447483.000000 0 0 1
34.311949 0.318014 3.982341 34.543740 0.009268 1.455255 0.116371 -0.034768 419138.000000 0 0 1
35.396879 -0.589886 3.761241 35.601038 -0.016663 1.464949 0.101734 -0.028017 -68628.600000 0 0 1
36.706529 0.019314 4.284041 36.955685 0.000526 1.454611 0.106182 -0.045060 -256783.000000 0 0 1
-36.650835 1.068714 3.499341 36.833019 -0.029151 1.475647 0.103914 -0.039913 -506049.000000 0 0 1
-35.620514 0.663714 2.682841 35.727569 -0.018631 1.495634 0.127674 -0.039088 -1094200.000000 0 0 1
-35.063712 1.714114 1.690841 35.146280 -0.048847 1.522669 0.157351 -0.038231 -944892.000000 0 0 1
-34.197621 2.588014 2.306341 34.372872 -0.075534 1.503648 0.166834 -0.060845 -270466.000000 0 0 1
-33.571785 3.468514 1.379541 33.778669 -0.102951 1.529944 0.176159 -0.030342 114913.000000 0 0 1
-32.496575 4.344814 2.082141 32.851790 -0.132912 1.507374 0.184196 -0.035189 321536.000000 0 0 1
-31.372715 3.598514 2.578341 31.683504 -0.114203 1.489328 0.174003 -0.049240 372832.000000 0 0 1
-30.597585 4.331814 3.481841 31.098232 -0.140639 1.458598 0.179472 -0.038553 -609300.000000 0 0 1
-30.943435 4.253714 4.984941 31.629732 -0.136611 1.412533 0.191825 -0.040785 -196358.000000 0 0 1
-32.137665 4.912314 5.394041 32.955364 -0.151678 1.406379 0.178352 -0.025289 287792.000000 0 0 1
-33.280615 4.084314 5.466641 33.973006 -0.122113 1.409182 0.166883 -0.029105 -261609.000000 0 0 1
-33.554855 3.071814 6.542641 34.324489 -0.091292 1.379011 0.135571 -0.031528 -852262.000000 0 0 1
-33.925415 3.670614 7.782641 34.999667 -0.107777 1.346559 0.133640 -0.033008 302447.000000 0 0 1
-34.062685 2.797014 8.880641 35.312259 -0.081930 1.316578 0.106441 -0.028698 -881005.000000 0 0 1
-35.210868 1.843514 8.913841 36.368398 -0.052309 1.323175 0.093556 -0.029711 -1352040.000000 0 0 1
-34.971805 0.710114 8.166141 35.919595 -0.020303 1.341446 0.089589 -0.038005 426628.000000 0 0 1
-35.985576 -0.305986 8.238841 36.917934 0.008503 1.345735 0.085597 -0.031330 256876.000000 0 0 1
-36.065062 -1.126186 9.556841 37.326803 0.031216 1.311882 0.084452 -0.021359 -345058.000000 0 0 1
-34.835678 -1.760986 9.843041 36.242393 0.050508 1.295752 0.090959 -0.027574 -3534.700000 0 0 1
-34.837864 -2.493286 11.046441 36.632187 0.071446 1.264478 0.084661 -0.019068 15365.300000 0 0 1
-33.519785 -3.290886 11.133441 35.473363 0.097864 1.251547 0.084384 -0.015984 -82479.000000 0 0 1
-33.391965 -4.241586 10.086841 35.139134 0.126347 1.279646 0.082799 -0.017373 -680948.000000 0 0 1
-32.181425 -4.900586 10.124741 34.090618 0.151119 1.269252 0.074193 -0.015345 -649851.000000 0 0 1
-32.101975 -5.863486 8.911141 33.827884 0.180660 1.304224 0.076032 -0.013563 680082.000000 0 0 1
-33.114495 -6.886686 8.941741 34.985011 0.205043 1.312341 0.078700 -0.010783 688383.000000 0 0 1
-32.996945 -7.590186 7.718641 34.727320 0.226094 1.346660 0.086535 -0.016665 -262071.000000 0 0 1
-33.746395 -8.890786 7.704741 35.738331 0.257605 1.353503 0.098832 -0.024299 951358.000000 0 0 1
-35.171470 -8.644686 7.698341 37.027386 0.241009 1.361359 0.099020 -0.028734 816390.000000 0 0 1
-35.920348 -9.773086 7.966741 38.069063 0.265646 1.359967 0.106650 -0.027100 -170755.000000 0 0 1
7.913795 -24.012886 10.808341 27.496674 -1.252442 1.166820 0.117695 -0.037125 -360451.000000 0 0 1
7.322295 -24.571286 9.675441 27.403982 -1.281173 1.209949 0.108164 -0.039275 -829196.000000 0 0 1
6.009495 -24.879686 10.050141 27.497602 -1.333794 1.196635 0.095096 -0.036828 -126030.000000 0 0 1
5.367695 -25.822536 8.979441 27.861189 -1.365846 1.242647 0.078743 -0.024960 -137528.000000 0 0 1
5.001895 -25.236436 7.755841 26.870983 -1.375131 1.277998 0.086377 -0.022652 -390866.000000 0 0 1
4.910795 -26.242746 6.755041 27.539575 -1.385806 1.322983 0.076210 -0.017674 -100119.000000 0 0 1
4.330995 -25.668176 5.402741 26.585755 -1.403641 1.366151 0.069614 -0.019785 -572086.000000 0 0 1
2.972495 -25.515996 5.240741 26.217687 -1.454824 1.369547 0.058077 -0.026657 -1244450.000000 0 0 1
2.315495 -26.682856 4.758341 27.202539 -1.484235 1.394969 0.056445 -0.023246 -48494.000000 0 0 1
0.782395 -26.517176 4.865541 26.971211 -1.541300 1.389406 0.068011 -0.028296 -313871.000000 0 0 1
0.281095 -26.441596 6.177141 27.155001 -1.560166 1.341310 0.055358 -0.025337 -302414.000000 0 0 1
-1.126305 -26.284716 6.246941 27.040324 1.527972 1.337667 0.050497 -0.025401 540748.000000 0 0 1
-1.852505 -27.669266 6.310441 28.440142 1.503944 1.347049 0.057599 -0.017678 -570239.000000 0 0 1
-1.564505 -28.394466 7.412641 29.387763 1.515753 1.315806 0.048200 -0.025110 -184073.000000 0 0 1
-2.127605 -29.697506 7.441741 30.689543 1.499276 1.325870 0.070341 -0.019312 -289221.000000 0 0 1
-1.950005 -30.374766 8.851041 31.698105 1.506686 1.287805 0.065536 -0.019906 338446.000000 0 0 1
-0.616105 -30.709146 9.185241 32.059318 1.550736 1.280217 0.056279 -0.018349 151622.000000 0 0 1
-0.611405 -31.023676 10.541441 32.771394 1.551091 1.243308 0.052766 -0.009931 788429.000000 0 0 1
0.855495 -31.282006 11.026941 33.179650 -1.543455 1.232012 0.043541 -0.010229 482674.000000 0 0 1
1.398595 -32.488776 10.535641 34.182983 -1.527774 1.257482 0.061028 -0.016165 643392.000000 0 0 1
2.762295 -32.698366 10.934741 34.588755 -1.486518 1.249143 0.070577 -0.013459 714670.000000 0 0 1
3.078795 -33.311566 12.338241 35.656298 -1.478634 1.217457 0.076319 -0.013431 -131819.000000 0 0 1
2.608795 -32.524476 13.431841 35.285432 -1.490757 1.180284 0.057732 -0.006877 436663.000000 0 0 1
3.278695 -32.951556 14.607041 36.192824 -1.471622 1.155360 0.062950 -0.012115 -234602.000000 0 0 1
2.962295 -31.944376 15.765741 35.746006 -1.478328 1.114029 0.064815 -0.010472 119798.000000 0 0 1
3.538295 -30.632156 15.717641 34.610587 -1.455797 1.099403 0.059077 -0.009151 282057.000000 0 0 1
4.943495 -30.590996 15.857141 34.809425 -1.410582 1.097816 0.057038 -0.006573 171918.000000 0 0 1
5.613495 -29.294166 15.178941 33.467293 -1.381466 1.100057 0.070656 -0.009671 69225.900000 0 0 1
5.786495 -29.397356 13.738641 32.961164 -1.376444 1.140860 0.064261 -0.012411 -388087.000000 0 0 1
4.655295 -29.280486 12.924441 32.342848 -1.413126 1.159708 0.057616 -0.004487 -631175.000000 0 0 1
4.945595 -29.529286 11.425741 32.046609 -1.404855 1.206240 0.050102 -0.015442 317206.000000 0 0 1
5.431895 -30.839446 10.998841 33.189628 -1.396450 1.233016 0.049680 -0.010572 1192420.000000 0 0 1
6.803395 -31.138246 11.356941 33.835730 -1.355687 1.228502 0.056369 -0.011447 897372.000000 0 0 1
7.361695 -32.436566 10.755941 34.957340 -1.347620 1.258035 0.047140 -0.006500 -318611.000000 0 0 1
6.956495 -33.486956 11.591341 36.112715 -1.365972 1.244036 0.041144 -0.014786 176748.000000 0 0 1
7.132095 33.393465 10.909641 35.847044 1.360380 1.261552 0.054301 -0.016078 -27896.400000 0 0 1
6.826995 32.181479 11.731341 34.926778 1.361755 1.228253 0.056361 -0.018411 464943.000000 0 0 1
5.448695 32.104759 12.096641 34.738057 1.402682 1.215120 0.062248 -0.019034 378689.000000 0 0 1
5.248395 30.919071 12.858841 33.895198 1.402653 1.181680 0.077752 -0.015793 939554.000000 0 0 1
3.928695 30.810811 13.726241 33.958069 1.443970 1.154680 0.094257 -0.025008 921799.000000 0 0 1
3.950895 31.614951 14.891441 35.169159 1.446472 1.133576 0.111344 -0.028970 1352090.000000 0 0 1
2.839095 31.268311 15.797241 35.147128 1.480247 1.104635 0.111502 -0.026045 1462690.000000 0 0 1
3.333095 31.459371 17.276441 36.045485 1.465241 1.070944 0.105962 -0.027799 147588.000000 0 0 1
3.537695 32.814666 17.656441 37.430837 1.463403 1.079569 0.095446 -0.023770 125494.000000 0 0 1
4.372795 32.926534 18.783741 38.158969 1.438764 1.056124 0.088982 -0.024093 -275163.000000 0 0 1
4.565495 -33.737636 19.244341 39.107755 -1.436290 1.056313 0.069531 -0.024262 311153.000000 0 0 1
3.368495 -33.030456 19.585541 38.548037 -1.469166 1.037841 0.061518 -0.022176 -2376.850000 0 0 1
3.576695 -32.006206 20.552441 38.204617 -1.459508 1.002785 0.052504 -0.024590 -573138.000000 0 0 1
2.368795 -31.169936 20.948241 37.629840 -1.494946 0.980398 0.056755 -0.023451 -298695.000000 0 0 1
1.486395 -31.981266 21.710741 38.682903 -1.524353 0.974902 0.068756 -0.021161 -820196.000000 0 0 1
0.438795 -31.316586 22.296441 38.445447 -1.556786 0.952129 0.065841 -0.019754 -1208210.000000 0 0 1
-0.582305 -32.257726 22.900641 39.564369 1.552747 0.953516 0.060713 -0.020551 -697059.000000 0 0 1
-1.482105 -32.722626 21.873841 39.388219 1.525534 0.982025 0.047787 -0.022719 575646.000000 0 0 1
-2.324305 -33.845146 22.230241 40.559585 1.502229 0.990719 0.049182 -0.022902 237904.000000 0 0 1
-3.586805 -33.419296 22.993141 40.723446 1.463878 0.970827 0.059586 -0.019548 -417563.000000 0 0 1
-4.558705 -32.879716 22.114941 39.886440 1.433027 0.983097 0.057890 -0.027266 -355188.000000 0 0 1
-5.707505 -32.435286 22.794341 40.052533 1.396614 0.965372 0.064403 -0.020250 -778413.000000 0 0 1
-6.822805 -31.851146 22.000141 39.307154 1.359776 0.976775 0.055896 -0.020419 -702519.000000 0 0 1
-7.522005 -32.905776 21.361241 39.945879 1.346065 1.006579 0.029323 -0.015919 -516264.000000 0 0 1
-8.660405 -32.378646 20.742941 39.416354 1.309442 1.016609 0.042523 -0.023397 438502.000000 0 0 1
-9.851005 -33.400936 20.564941 40.442325 1.283996 1.037354 0.060674 -0.019799 684358.000000 0 0 1
-10.399705 -33.863396 21.764941 41.576389 1.272832 1.019851 0.075500 -0.033147 -236651.000000 0 0 1
-11.659605 33.620948 21.585441 41.620258 -1.236979 1.025551 0.076838 -0.033125 359476.000000 0 0 1
-12.191005 33.010668 22.935941 42.004550 -1.217028 0.993173 0.080632 -0.033984 211440.000000 0 0 1
-12.507805 33.933921 23.976341 43.391487 -1.217655 0.985365 0.085430 -0.034455 -627400.000000 0 0 1
-11.325705 -33.703636 24.509941 43.184996 1.246613 0.967261 0.075905 -0.031313 -633867.000000 0 0 1
-11.459805 -32.365576 25.175741 42.575528 1.230497 0.938102 0.061704 -0.028346 210707.000000 0 0 1
-12.395205 -32.350776 26.256341 43.469636 1.204900 0.922266 0.075378 -0.025304 171562.000000 0 0 1
-12.977805 -31.071826 26.283941 42.716827 1.175150 0.908022 0.073580 -0.025907 -162159.000000 0 0 1
-13.933305 -30.959876 27.443841 43.655645 1.147906 0.890988 0.071633 -0.023910 -698739.000000 0 0 1
-13.188205 -30.450686 28.518241 43.754578 1.162085 0.860871 0.060486 -0.017575 401679.000000 0 0 1
-13.996705 -30.273446 29.673141 44.641736 1.137726 0.843711 0.073189 -0.022326 38218.200000 0 0 1
-13.272505 -29.765716 30.939341 44.937735 1.151358 0.811386 0.056548 -0.014097 -89816.300000 0 0 1
-14.242905 -29.492166 31.926741 45.738004 1.120891 0.798146 0.064002 -0.010102 462704.000000 0 0 1
-13.687605 -29.142226 33.217041 46.260044 1.131695 0.769799 0.064016 -0.005595 460998.000000 0 0 1
-12.778705 -30.206336 33.990641 47.234328 1.170581 0.767545 0.063985 -0.004190 896036.000000 0 0 1
-11.383305 -30.157606 33.698441 46.633097 1.209870 0.763198 0.055287 -0.005180 297270.000000 0 0 1
-10.809905 -31.115266 -33.525488 46.999704 1.236426 2.365010 0.061932 -0.001744 173471.000000 0 0 1
-9.296905 -31.432116 -33.643488 46.971211 1.283218 2.369221 0.074232 -0.010954 941910.000000 0 0 1
-8.392405 -30.551726 -32.957188 45.716700 1.302714 2.375897 0.086591 -0.015573 1576770.000000 0 0 1
-7.081605 -31.089176 -32.621388 45.616235 1.346834 2.367602 0.100128 -0.025942 1341960.000000 0 0 1
-6.231305 -30.208336 -31.693488 44.224992 1.367372 2.369772 0.108071 -0.028232 -111977.000000 0 0 1
-6.693005 -30.211686 -30.372188 43.359106 1.352780 2.346866 0.115396 -0.028927 183202.000000 0 0 1
-5.912705 -29.400566 -29.490588 42.060054 1.372335 2.347811 0.111864 -0.029354 250895.000000 0 0 1
-6.388905 -29.583876 -28.003388 41.233646 1.358104 2.317386 0.108908 -0.035748 141717.000000 0 0 1
-6.314405 -30.906656 -27.511188 41.856404 1.369264 2.287994 0.100087 -0.031997 243552.000000 0 0 1
-7.164905 -31.105856 -26.391288 41.417511 1.344406 2.261658 0.110869 -0.028748 267547.000000 0 0 1
-6.681305 -32.403486 -25.677288 41.880172 1.367455 2.230792 0.107960 -0.032892 -216744.000000 0 0 1
-5.643605 -32.095216 -24.818888 40.962548 1.396736 2.221683 0.074542 -0.031639 -561581.000000 0 0 1
-5.199105 -33.279936 -24.177588 41.462520 1.415826 2.193359 0.081987 -0.036431 -23525.300000 0 0 1
-4.090505 -33.122816 -23.100388 40.589174 1.447923 2.176240 0.087325 -0.042933 24778.400000 0 0 1
-4.483605 -32.612466 -21.844788 39.507852 1.434171 2.156664 0.098168 -0.036697 36559.100000 0 0 1
-4.705505 -31.214816 -21.827188 38.378804 1.421177 2.175758 0.060958 -0.014646 -487673.000000 0 0 1
-5.249605 -30.599806 -20.457188 37.180680 1.400893 2.153412 0.102206 -0.029782 -126697.000000 0 0 1
-6.605505 -30.890916 -20.166388 37.477521 1.360136 2.138969 0.109004 -0.038996 -80241.100000 0 0 1
-7.485405 -29.823336 -20.279988 36.833959 1.324885 2.153853 0.110264 -0.031260 -63053.000000 0 0 1
-7.740205 -29.120406 -21.645188 37.100175 1.311003 2.193736 0.126241 -0.049069 -1221660.000000 0 0 1
-6.617105 -28.388136 -22.040388 36.543823 1.341791 2.218206 0.112859 -0.024285 -473078.000000 0 0 1
-6.779905 -28.050416 -23.361288 37.128732 1.333641 2.251316 0.145973 -0.039613 -477835.000000 0 0 1
-5.426005 -28.053656 -24.102088 37.381276 1.379740 2.271510 0.138430 -0.033976 124656.000000 0 0 1
-4.493005 -27.033526 -23.792388 36.291546 1.406101 2.285761 0.118858 -0.031502 107256.000000 0 0 1
-3.795405 -27.222566 -22.569188 35.564609 1.432268 2.258283 0.072587 -0.027912 -49271.900000 0 0 1
-2.276105 -26.829216 -22.709588 35.223754 1.486162 2.271458 0.066760 -0.024969 712187.000000 0 0 1
-1.963905 -25.439056 -22.917188 34.295772 1.493749 2.302613 0.074699 -0.022316 37609.400000 0 0 1
-2.231105 -24.585286 -21.807488 32.939044 1.480295 2.294355 0.074983 -0.025750 -606194.000000 0 0 1
-1.951305 -23.168286 -22.228688 32.166623 1.486772 2.333735 0.089543 -0.024077 398362.000000 0 0 1
-2.921805 -22.683586 -23.182088 32.565184 1.442695 2.362950 0.102711 -0.031902 557977.000000 0 0 1
-4.194805 -22.339686 -22.640688 32.082062 1.385184 2.354224 0.101902 -0.029249 -545150.000000 0 0 1
-5.218705 -22.435886 -23.780188 33.107419 1.342255 2.372114 0.076237 -0.021839 -541174.000000 0 0 1
-5.133905 -21.352086 -24.686588 33.040826 1.334835 2.414566 0.094316 -0.014607 194774.000000 0 0 1
-5.636605 -21.759886 -25.958588 34.338204 1.317331 2.427928 0.118817 -0.022651 132742.000000 0 0 1
-5.638805 -20.665986 -26.969488 34.441724 1.304426 2.470346 0.127937 -0.030614 123221.000000 0 0 1
-6.042305 -21.024286 -28.314588 35.780524 1.290942 2.483795 0.135960 -0.026397 652217.000000 0 0 1
-4.958205 -21.474686 -29.146988 36.541659 1.343887 2.494164 0.118127 -0.027262 537177.000000 0 0 1
-5.469005 -21.957486 -30.553188 38.020238 1.326691 2.504121 0.117697 -0.025554 -24722.800000 0 0 1
-5.955605 -20.869986 -31.349688 38.129103 1.292818 2.536059 0.123066 -0.026499 231757.000000 0 0 1
-6.916205 -21.477986 -32.220288 39.335540 1.259268 2.530661 0.109074 -0.020412 131300.000000 0 0 1
-6.977605 -20.651386 -33.512788 39.978415 1.244963 2.564903 0.095919 -0.010803 -946275.000000 0 0 1
-5.794905 -20.762286 33.874141 40.151101 1.298616 0.566720 0.088203 -0.017823 -1341070.000000 0 0 1
-5.837805 -20.282886 32.539541 38.785270 1.290552 0.575415 0.083886 -0.017995 227432.000000 0 0 1
-4.513205 -20.492586 31.779941 38.082539 1.354021 0.583569 0.072129 -0.027874 -808537.000000 0 0 1
-4.323405 -21.771586 31.175541 38.270199 1.374766 0.618728 0.082084 -0.021915 1159970.000000 0 0 1
-3.065905 -22.130586 30.523541 37.826567 1.433136 0.631854 0.083326 -0.014568 2029360.000000 0 0 1
-1.707505 -21.814786 31.250041 38.149253 1.492683 0.610865 0.052837 -0.021034 -94100.500000 0 0 1
-1.267905 -20.487486 31.128041 37.286722 1.508988 0.582974 0.041189 -0.021475 -800603.000000 0 0 1
-0.261205 -20.102386 31.986641 37.779880 1.557803 0.561123 0.059118 -0.027253 -736887.000000 0 0 1
-0.680505 -19.715086 33.417441 38.805581 1.536293 0.533268 0.044775 -0.028809 80323.000000 0 0 1
-1.641205 -18.656386 33.367141 38.263826 1.483052 0.511465 0.043574 -0.030130 38295.500000 0 0 1
-2.185405 -18.426486 -33.394488 38.203445 1.452746 2.634422 0.055160 -0.035067 -378508.000000 0 0 1
-3.331405 -17.465986 -33.495388 37.922288 1.382323 2.653575 0.063713 -0.034491 -458721.000000 0 0 1
-2.846205 -16.178186 -33.803788 37.583649 1.396650 2.689255 0.053269 -0.030940 158475.000000 0 0 1
-3.836405 -15.216086 -33.499488 36.992742 1.323816 2.703516 0.075482 -0.034491 131854.000000 0 0 1
-3.370305 -13.827086 -33.881588 36.749276 1.331712 2.743923 0.073444 -0.042472 272099.000000 0 0 1
-2.294005 -13.421386 -33.001988 35.700522 1.401511 2.750287 0.068941 -0.041635 547360.000000 0 0 1
-2.042505 -12.046486 -33.005588 35.194580 1.402842 2.787044 0.074614 -0.042279 20567.000000 0 0 1
-1.379605 -11.416286 33.797141 35.699883 1.450534 0.327959 0.074583 -0.043153 -255038.000000 0 0 1
-2.268205 -11.301486 32.659541 34.634000 1.372728 0.339291 0.076375 -0.034891 321346.000000 0 0 1
-1.672205 -10.850286 31.448241 33.309411 1.417883 0.335867 0.069172 -0.027639 201184.000000 0 0 1
-0.711005 -11.782586 30.647941 32.842521 1.510526 0.367638 0.052110 -0.032729 207304.000000 0 0 1
-1.319005 -13.030686 30.358341 33.063083 1.469917 0.407298 0.067565 -0.033588 326200.000000 0 0 1
-0.334105 -14.058086 30.271941 33.378613 1.547035 0.434867 0.056912 -0.033005 141141.000000 0 0 1
-0.836305 -15.421486 30.790641 34.446846 1.516620 0.464915 0.050863 -0.029460 -89779.800000 0 0 1
-1.829405 -15.967486 29.974341 34.011299 1.456723 0.492179 0.063076 -0.031320 11982.100000 0 0 1
-2.439305 -17.102186 30.629041 35.164942 1.429121 0.513540 0.061532 -0.025952 -146311.000000 0 0 1
-2.663905 -18.133786 29.585241 34.802544 1.424937 0.554643 0.065661 -0.016034 -614009.000000 0 0 1
-3.676905 -18.006686 28.634341 34.024783 1.369369 0.570607 0.079075 -0.023813 -376617.000000 0 0 1
-3.774105 -19.218786 27.916441 34.101808 1.376888 0.611791 0.081835 -0.024019 274154.000000 0 0 1
-4.835705 -19.192186 26.787141 33.305780 1.323972 0.636335 0.061953 -0.028954 -73354.200000 0 0 1
-5.043105 -20.363186 25.998141 33.406520 1.328023 0.678945 0.085071 -0.018877 -569005.000000 0 0 1
-3.957405 -20.720986 25.202841 32.866450 1.382084 0.696915 0.090468 -0.022862 -564507.000000 0 0 1
-30.027465 -33.816182 -0.300759 45.224698 0.844672 1.577447 0.057717 -0.001982 -277130.000000 0 0 1
-29.301665 -32.652082 -0.143759 43.872164 0.839425 1.574073 0.076384 0.001296 -312267.000000 0 0 1
-29.940015 -31.809482 0.795941 43.690745 0.815664 1.552578 0.047015 0.004070 -95143.800000 0 0 1
-29.263005 -30.449682 1.077941 42.245338 0.805269 1.545277 0.066514 -0.008561 -728342.000000 0 0 1
-27.994925 -30.665482 1.619741 41.553715 0.830892 1.531807 0.065856 -0.007894 -993367.000000 0 0 1
-27.518135 -29.447382 2.051641 40.355983 0.819252 1.519936 0.077478 -0.017061 -756179.000000 0 0 1
-26.023035 -29.471282 2.285541 39.382465 0.847455 1.512729 0.090668 -0.015893 -795982.000000 0 0 1
-25.499455 -30.175882 3.381641 39.651502 0.869196 1.485409 0.076064 -0.009492 -751297.000000 0 0 1
-24.107105 -30.097282 3.367941 38.708422 0.895462 1.483678 0.080007 -0.010212 -550295.000000 0 0 1
-23.649005 -30.900282 4.622741 39.185107 0.917554 1.452549 0.075798 -0.019849 -48431.900000 0 0 1
-23.975005 -30.294482 5.869041 39.076875 0.901322 1.420034 0.062920 -0.011216 628903.000000 0 0 1
-23.149605 -30.863982 6.911141 39.195070 0.927262 1.393543 0.056164 -0.011300 356799.000000 0 0 1
-23.690005 -30.395882 8.250741 39.410668 0.908754 1.359883 0.056091 -0.000794 -38271.700000 0 0 1
-23.364305 -29.050282 8.537741 38.245296 0.893456 1.345663 0.076184 -0.014849 205573.000000 0 0 1
-23.895905 -28.769582 9.819241 38.666790 0.877676 1.314039 0.051725 -0.015714 -100691.000000 0 0 1
-23.293505 -27.525182 10.560241 37.573152 0.868477 1.285900 0.076155 -0.021059 246152.000000 0 0 1
-21.961605 -27.785482 10.981841 37.080264 0.901937 1.270122 0.078101 -0.021325 -24471.200000 0 0 1
-21.557605 -26.677382 11.765041 36.260575 0.891145 1.240357 0.092902 -0.024696 870073.000000 0 0 1
-20.023905 -26.814882 12.097941 35.585880 0.929381 1.223917 0.085514 -0.024242 769461.000000 0 0 1
-19.825205 -27.872782 13.018241 36.597888 0.952543 1.207122 0.077717 -0.012721 -329009.000000 0 0 1
-18.526005 -27.700482 13.520141 35.962812 0.981320 1.185377 0.087350 -0.020977 -67279.500000 0 0 1
-18.224605 -28.661282 14.725441 37.019508 1.004425 1.161706 0.086630 -0.022790 -41787.300000 0 0 1
-18.359605 -29.977782 14.250441 37.931750 1.021280 1.185659 0.084467 -0.019958 36647.000000 0 0 1
-18.194905 -30.961582 15.228241 39.007352 1.039499 1.169737 0.084169 -0.017797 133249.000000 0 0 1
-18.169305 -32.377482 14.647541 39.912097 1.059417 1.195020 0.079330 -0.022688 48193.600000 0 0 1
-17.928905 -33.283582 15.661641 40.921016 1.076692 1.178048 0.080281 -0.016391 79166.900000 0 0 1
-17.806605 33.459414 15.207341 40.839574 -1.081733 1.189237 0.064506 -0.015559 -315026.000000 0 0 1
-17.589705 32.409914 16.285341 40.311445 -1.073555 1.154924 0.076754 -0.014597 -692883.000000 0 0 1
-18.612205 32.191614 17.190241 40.966067 -1.046583 1.137768 0.073492 -0.026968 -243430.000000 0 0 1
-18.318405 31.082514 17.983341 40.312371 -1.038246 1.108394 0.048639 -0.019338 38383.400000 0 0 1
-19.134305 31.149914 19.281541 41.330578 -1.019954 1.085444 0.052858 -0.033735 178620.000000 0 0 1
-18.551705 31.970414 20.316641 42.178657 -1.045005 1.068225 0.058601 -0.027291 481053.000000 0 0 1
-19.426605 32.099314 21.437441 43.212532 -1.026560 1.051703 0.065882 -0.020618 250564.000000 0 0 1
-18.979105 33.238914 22.332741 44.314594 -1.051980 1.042620 0.053564 -0.004440 37156.000000 0 0 1
-17.782605 32.998114 23.039941 43.999267 -1.076517 1.019674 0.053056 -0.019071 -194354.000000 0 0 1
-17.666605 33.683614 24.292941 45.131384 -1.087752 1.002411 0.045292 -0.018947 -158648.000000 0 0 1
-18.389005 33.026714 25.474241 45.583510 -1.062754 0.977801 0.043306 -0.028071 331146.000000 0 0 1
-19.806005 33.174814 25.501241 46.294270 -1.032571 0.987413 0.028881 -0.028290 191719.000000 0 0 1
-20.347605 31.906414 25.669741 45.727234 -1.003097 0.974760 0.031879 -0.023051 -186130.000000 0 0 1
-21.877305 31.835514 25.435541 46.250224 -0.968714 0.988486 0.092241 -0.036520 41372.600000 0 0 1
-22.196605 31.748014 24.067641 45.605669 -0.960641 1.014866 0.080037 -0.020566 166675.000000 0 0 1
-23.572805 32.073814 23.978841 46.469254 -0.936994 1.028604 0.071137 -0.031436 -19317.900000 0 0 1
-24.137505 31.674214 22.590841 45.784508 -0.919624 1.054783 0.065050 -0.027746 59579.500000 0 0 1
-23.633305 32.589414 21.585241 45.678504 -0.943368 1.078618 0.066083 -0.031050 429249.000000 0 0 1
-23.689905 31.931414 20.302641 44.643298 -0.932500 1.098677 0.043180 -0.017102 -112263.000000 0 0 1
-23.360005 32.890514 19.180541 44.669553 -0.953234 1.126982 0.054320 -0.009459 -767751.000000 0 0 1
-22.063005 33.364214 19.315341 44.418796 -0.986534 1.120929 0.057428 -0.009208 -525357.000000 0 0 1
-21.643305 -33.856282 18.249541 44.133052 1.002001 1.144489 0.075501 -0.009087 330293.000000 0 0 1
-20.239805 -33.218582 18.483141 43.066814 1.023573 1.127219 0.063705 -0.014787 337278.000000 0 0 1
-20.345605 -32.163482 19.445041 42.738073 1.006773 1.098445 0.067585 -0.023266 1073370.000000 0 0 1
-19.087205 -31.593582 19.862741 41.916636 1.027332 1.077124 0.059413 -0.027386 568389.000000 0 0 1
-19.324805 -30.593282 21.006941 41.841231 1.007416 1.044814 0.053310 -0.017700 -74235.900000 0 0 1
-19.881605 -29.379382 20.551641 40.997516 0.975866 1.045707 0.086336 -0.022389 230481.000000 0 0 1
-20.160605 -28.475782 21.585141 41.027290 0.954727 1.016769 0.099773 -0.016049 96183.100000 0 0 1
-21.178705 -27.378382 21.102341 40.539144 0.912389 1.023310 0.092211 -0.024328 23906.900000 0 0 1
-20.603805 -26.448582 20.203641 39.143728 0.908984 1.028458 0.082643 -0.011048 836638.000000 0 0 1
-21.367005 -25.210382 20.125941 38.693227 0.867728 1.023780 0.082394 -0.001502 265481.000000 0 0 1
-22.603205 -25.230982 19.200441 38.937955 0.840278 1.055143 0.080949 -0.011601 287295.000000 0 0 1
-23.852205 -25.689782 19.723841 40.223408 0.822472 1.058297 0.085002 -0.012001 1107940.000000 0 0 1
-24.821905 -25.600982 18.668741 40.249959 0.800848 1.088494 0.070781 -0.005497 425381.000000 0 0 1
-26.323465 -25.756782 19.052041 41.464647 0.774518 1.093390 0.059375 -0.009464 328041.000000 0 0 1
-26.809965 -27.082682 19.238741 42.689285 0.790458 1.103282 0.054278 -0.015177 13554.200000 0 0 1
-26.973245 -27.864882 18.081841 42.789726 0.801656 1.134512 0.059941 -0.014844 -794467.000000 0 0 1
-28.036115 -28.916982 18.327841 44.250711 0.800863 1.143753 0.083672 -0.022056 -298842.000000 0 0 1
-29.295655 -28.361782 18.596041 44.815610 0.769203 1.142913 0.059492 -0.026847 -404696.000000 0 0 1
-30.393115 -29.129982 18.162441 45.849445 0.764180 1.163496 0.063595 -0.013396 -147508.000000 0 0 1
-31.742515 -28.453182 18.398441 46.429231 0.730808 1.163347 0.063406 -0.017443 -293591.000000 0 0 1
-31.959965 -27.354782 17.548041 45.581326 0.707914 1.175607 0.073282 -0.015114 640884.000000 0 0 1
-33.273685 -26.857582 17.860841 46.340884 0.679099 1.175130 0.056865 -0.004039 573350.000000 0 0 1
-33.566555 -25.518482 17.134141 45.513574 0.650020 1.184822 0.061058 -0.017331 -219771.000000 0 0 1
-33.726785 -25.662982 15.763341 45.216896 0.650446 1.214702 0.078295 -0.028846 161273.000000 0 0 1
-34.007795 -24.403982 15.084441 44.492975 0.622440 1.224911 0.077661 -0.034781 432575.000000 0 0 1
-32.753925 -23.495382 14.833741 42.952212 0.622263 1.218180 0.074548 -0.024715 271033.000000 0 0 1
-32.402935 -22.811982 16.040241 42.750744 0.613412 1.186180 0.063760 -0.019167 -97915.300000 0 0 1
-32.200685 -21.453682 15.824241 41.803723 0.587714 1.182582 0.047042 -0.013273 -809966.000000 0 0 1
-33.389365 -20.531482 15.988741 42.332391 0.551311 1.183490 0.059488 -0.019028 -564499.000000 0 0 1
-33.670505 -20.305082 17.360741 42.981329 0.542661 1.155005 0.059334 -0.014022 -177854.000000 0 0 1
-34.818275 -19.517482 17.474841 43.573094 0.510909 1.158137 0.073981 -0.022473 -401916.000000 0 0 1
-35.159863 -19.172082 18.946941 44.303175 0.499215 1.128888 0.055392 -0.017439 923283.000000 0 0 1
-36.287495 -19.904982 19.538141 45.768216 0.501718 1.129742 0.059921 -0.017954 1284100.000000 0 0 1
-36.403475 -19.485182 20.846341 46.254246 0.491453 1.103258 0.056245 -0.011032 263531.000000 0 0 1
36.061529 -19.584382 21.471441 46.314195 -0.497517 1.088738 0.040389 -0.012750 609437.000000 0 0 1
35.547249 -20.849782 21.799341 46.621150 -0.530462 1.084240 0.063719 -0.017764 206164.000000 0 0 1
36.210579 -21.500282 22.884641 47.928853 -0.535816 1.073022 0.049761 -0.007579 -285451.000000 0 0 1
35.546999 -22.834882 23.219941 48.209819 -0.571004 1.068267 0.061462 -0.006110 314637.000000 0 0 1
34.338269 -22.762582 23.981741 47.669443 -0.585385 1.043633 0.073110 -0.016806 548067.000000 0 0 1
34.196569 -23.873482 24.825341 48.534998 -0.609467 1.033874 0.078381 -0.024049 -814675.000000 0 0 1
33.036669 -23.880682 25.787641 48.235992 -0.625900 1.006745 0.089295 -0.021892 -366749.000000 0 0 1
31.788869 -24.315682 25.265241 47.329874 -0.652977 1.007694 0.085655 -0.014226 -97745.900000 0 0 1
30.864169 -24.270982 26.306441 47.262103 -0.666381 0.980500 0.063407 -0.011382 -600978.000000 0 0 1
29.445799 -24.728682 25.972841 46.402061 -0.698545 0.976731 0.063565 -0.014616 -265907.000000 0 0 1
28.556189 -23.760382 25.489741 45.052620 -0.693985 0.969421 0.068449 -0.012548 -418199.000000 0 0 1
27.327689 -24.288982 25.059341 44.325250 -0.726595 0.969937 0.062674 -0.009202 -144146.000000 0 0 1
26.351889 -23.159982 24.675841 42.891770 -0.721020 0.957820 0.052761 -0.005004 -417706.000000 0 0 1
26.502589 -22.561682 23.371141 41.924062 -0.705249 0.979469 0.059934 -0.008901 -53556.800000 0 0 1
27.693789 -21.843782 23.134041 42.181520 -0.667850 0.990299 0.073085 -0.000874 -180946.000000 0 0 1
27.682189 -21.167082 21.743441 41.074642 -0.652809 1.012945 0.072736 -0.009568 391860.000000 0 0 1
26.916089 -19.941982 21.598841 39.858104 -0.637648 0.998108 0.077755 -0.013083 235156.000000 0 0 1
27.061789 -19.348882 20.330341 38.987722 -0.620715 1.022241 0.083625 -0.015405 336710.000000 0 0 1
26.266689 -17.968482 20.195841 37.691873 -0.599960 1.005325 0.068165 -0.006241 364836.000000 0 0 1
26.633089 -16.933682 21.156641 37.995717 -0.566338 0.980248 0.073835 -0.026768 -90983.100000 0 0 1
26.231089 -17.214982 22.454341 38.582678 -0.580778 0.949635 0.076754 -0.015690 -196789.000000 0 0 1
26.250189 -15.936682 23.284041 38.538252 -0.545629 0.922060 0.096976 -0.021558 -49578.300000 0 0 1
25.094489 -15.174982 23.056141 37.304143 -0.543878 0.904526 0.089826 -0.021453 -331874.000000 0 0 1
25.002989 -14.127582 24.014041 37.435441 -0.514314 0.874372 0.088092 -0.021814 218023.000000 0 0 1
23.700889 -13.292582 24.076041 36.305380 -0.511133 0.845772 0.086832 -0.026127 154578.000000 0 0 1
22.601589 -13.969282 24.638641 36.235829 -0.553598 0.823099 0.090482 -0.018071 -99030.300000 0 0 1
21.419489 -13.218182 24.502841 35.126971 -0.552906 0.798823 0.081499 -0.021861 -83024.900000 0 0 1
20.094289 -13.984882 24.612441 34.714977 -0.608011 0.782737 0.087100 -0.014669 -20799.100000 0 0 1
19.668689 -14.957982 23.631541 34.191348 -0.650186 0.807710 0.083629 -0.014289 350800.000000 0 0 1
18.404689 -15.505882 23.980641 33.974051 -0.700122 0.787172 0.087114 -0.010523 332841.000000 0 0 1
17.947689 -16.634582 22.978441 33.568402 -0.747446 0.816843 0.079911 -0.017303 -165787.000000 0 0 1
18.628389 -17.868082 23.015241 34.583039 -0.764569 0.842624 0.060908 -0.010075 -161984.000000 0 0 1
18.147489 -18.884482 22.173441 34.316418 -0.805297 0.868271 0.075504 -0.017802 -107033.000000 0 0 1
18.709789 -20.296882 22.599041 35.675430 -0.826063 0.884777 0.056061 -0.015360 -565483.000000 0 0 1
18.108989 -20.886382 23.688241 36.404797 -0.856502 0.862303 0.041077 -0.024670 -208749.000000 0 0 1
18.502789 -22.211182 24.033341 37.593767 -0.876232 0.877221 0.040917 -0.020911 -319248.000000 0 0 1
18.039189 -23.302682 23.035241 37.403873 -0.912033 0.907330 0.035454 -0.010986 -40092.000000 0 0 1
18.754089 -23.271682 21.819141 37.004891 -0.892483 0.940197 0.043466 -0.007439 -536614.000000 0 0 1
19.915389 -24.019682 21.869441 38.103022 -0.878545 0.959468 0.050139 -0.009678 -724647.000000 0 0 1
20.724789 -24.208182 20.553141 37.920767 -0.862768 0.997978 0.046313 -0.013061 -574294.000000 0 0 1
20.145289 -25.008182 19.600941 37.622317 -0.892682 1.022783 0.039221 -0.022121 147619.000000 0 0 1
20.973189 -25.261882 18.483641 37.678672 -0.877892 1.058064 0.045670 0.001387 691580.000000 0 0 1
20.028689 -25.911182 17.392241 37.081367 -0.912753 1.082605 0.035960 -0.004857 913235.000000 0 0 1
19.497789 -27.189282 17.803041 37.899461 -0.948677 1.081796 0.062434 -0.017144 220457.000000 0 0 1
18.405489 -27.618782 17.016641 37.297791 -0.982970 1.097034 0.080447 -0.015785 67147.800000 0 0 1
17.693889 -28.890882 17.586541 38.171235 -1.021281 1.091982 0.081555 -0.009559 268824.000000 0 0 1
16.874589 -28.526582 18.702241 38.056425 -1.036621 1.057060 0.079264 -0.015719 15897.400000 0 0 1
16.177589 -29.625282 19.237741 38.851801 -1.070973 1.052781 0.097270 -0.020407 399097.000000 0 0 1
14.853989 -29.188582 19.950441 38.348852 -1.100056 1.023669 0.087186 -0.015817 105398.000000 0 0 1
13.948389 -28.576782 19.070241 37.079160 -1.116712 1.030592 0.082837 -0.015260 -593733.000000 0 0 1
12.769889 -28.226382 19.759341 36.745480 -1.145940 1.003048 0.053315 -0.007148 -14421.800000 0 0 1
11.699389 -27.813282 18.704041 35.500641 -1.172624 1.015889 0.064260 -0.013542 -64565.300000 0 0 1
11.346889 -28.906282 17.865041 35.825755 -1.196737 1.048739 0.065161 -0.019484 135909.000000 0 0 1
10.621389 -28.327282 16.774041 34.592156 -1.212067 1.064537 0.076361 -0.020322 92018.900000 0 0 1
10.357389 -29.285682 15.569541 34.746760 -1.230858 1.106173 0.080196 -0.013556 -301073.000000 0 0 1
9.372289 -30.239882 15.816441 35.389972 -1.270253 1.107478 0.072105 -0.011865 -293757.000000 0 0 1
9.388789 -31.308582 14.876841 35.912353 -1.279450 1.143673 0.066282 -0.009301 -438110.000000 0 0 1
8.206589 -32.273582 14.941141 36.498903 -1.321792 1.149045 0.061768 -0.009341 -484201.000000 0 0 1
8.130389 -33.232782 15.952341 37.749149 -1.330860 1.134497 0.072594 -0.012508 298760.000000 0 0 1
7.193389 33.849314 15.530741 37.930527 1.361399 1.148943 0.057747 -0.003972 560051.000000 0 0 1
7.309489 32.585114 16.452241 37.227605 1.350129 1.113040 0.080621 -0.017939 116835.000000 0 0 1
8.576489 31.963014 16.398041 36.933538 1.308646 1.110752 0.070356 -0.019904 -150129.000000 0 0 1
8.738389 31.094414 17.447541 36.710200 1.296835 1.075517 0.092073 -0.023475 -696125.000000 0 0 1
10.057389 30.355414 17.353741 36.383438 1.250858 1.073594 0.061809 -0.029122 -736239.000000 0 0 1
10.312189 29.630314 16.175341 35.297853 1.235879 1.094768 0.091341 -0.030899 -210767.000000 0 0 1
11.423589 28.782514 16.389841 35.036530 1.192971 1.084004 0.076107 -0.035053 -223730.000000 0 0 1
12.047289 28.140514 15.139241 34.149998 1.166293 1.111502 0.069345 -0.034973 -444310.000000 0 0 1
11.276989 27.223014 14.429741 32.809761 1.178071 1.115420 0.081550 -0.037318 -464343.000000 0 0 1
11.898689 26.844514 13.254241 32.216171 1.153574 1.146789 0.073622 -0.034477 -271070.000000 0 0 1
-9.583405 -9.114086 19.512571 23.572200 0.760303 0.595659 0.071879 -0.032017 40093.400000 0 1 0
-9.763305 -9.165386 18.119471 22.530904 0.753821 0.636459 0.067900 -0.033955 -12519.400000 0 1 0
-9.540705 -10.462786 17.654471 22.631290 0.831462 0.675985 0.064369 -0.043333 -26616.200000 0 1 0
-9.995405 -10.711086 16.192971 21.836845 0.819947 0.735428 0.071860 -0.039750 -491484.000000 0 1 0
-11.384905 -10.754286 16.076771 22.444003 0.756922 0.772303 0.070652 -0.039541 -356556.000000 0 1 0
-11.887205 -10.764786 14.737471 21.780250 0.735888 0.827601 0.089282 -0.046132 115736.000000 0 1 0
-12.005505 -12.244386 14.185971 22.255312 0.795249 0.879652 0.071020 -0.047382 -1016380.000000 0 1 0
-10.753005 -12.641486 13.736171 21.543367 0.865947 0.879410 0.086314 -0.049645 -434329.000000 0 1 0
-10.494105 -14.046986 13.674571 22.235960 0.929172 0.908441 0.086012 -0.048260 -28770.000000 0 1 0
-10.070205 -14.699986 15.042371 23.318909 0.970175 0.869679 0.088146 -0.051325 465878.000000 0 1 0
-11.242405 -14.972086 15.802271 24.500343 0.926725 0.869797 0.081902 -0.031042 410119.000000 0 1 0
-10.845405 -15.138686 17.158171 25.322035 0.949146 0.826304 0.090412 -0.033658 103316.000000 0 0 1
-11.918105 -14.802186 18.240171 26.341028 0.892918 0.805900 0.054051 -0.015898 -277544.000000 0 0 1
-12.314605 -13.445686 18.154771 25.729976 0.829278 0.787543 0.058580 -0.024162 -276135.000000 0 0 1
-13.548305 -13.180386 17.547471 25.791333 0.771634 0.822538 0.070230 -0.041630 599169.000000 0 0 1
-14.815905 -13.366086 18.492671 27.205554 0.733999 0.823390 0.036017 -0.024752 522271.000000 0 0 1
-15.104405 -14.752586 18.682671 28.192624 0.773615 0.846405 0.036809 -0.016908 66287.200000 0 0 1
-15.924005 -14.910086 19.854371 29.497129 0.752527 0.832410 0.042952 -0.013273 351948.000000 0 0 1
-16.497905 -16.341786 20.134071 30.734600 0.780644 0.856488 0.046903 -0.019109 -540272.000000 0 0 1
-17.643405 -16.675186 19.417771 31.086997 0.757193 0.896143 0.064912 -0.007420 -466433.000000 0 0 1
-17.906305 -18.015286 19.807771 32.210776 0.788432 0.908483 0.043373 -0.012722 -34603.000000 0 0 1
-19.183505 -18.690586 19.234471 32.974380 0.772384 0.947992 0.069082 -0.003750 115865.000000 0 0 1
-19.246405 -18.776686 17.810871 32.252367 0.773045 0.985754 0.084181 -0.015527 86580.400000 0 0 1
-19.790705 -17.608186 17.226071 31.598382 0.727106 0.994220 0.085130 -0.025265 -586877.000000 0 0 1
-19.595005 -17.535486 15.740471 30.646695 0.729988 1.031409 0.086308 -0.028198 -684764.000000 0 0 1
-20.267005 -18.381986 14.891271 31.151225 0.736664 1.072384 0.091644 -0.018387 -304676.000000 0 0 1
-19.920705 -18.254686 13.546171 30.225267 0.741785 1.106075 0.093543 -0.024164 -37811.300000 0 0 1
-20.231505 -19.432486 12.677371 30.783941 0.765256 1.146348 0.085391 -0.012831 242747.000000 0 0 1
-19.428805 -20.528386 13.170871 31.182767 0.812910 1.134731 0.085638 -0.014673 492740.000000 0 0 1
-19.246405 -21.463186 12.146471 31.283050 0.839798 1.172036 0.086996 -0.021749 -444467.000000 0 0 1
-18.587905 -22.717886 12.719771 31.990704 0.885052 1.161888 0.088111 -0.023235 -72004.600000 0 0 1
-18.594605 -23.873386 11.867071 32.504234 0.909064 1.197064 0.092426 -0.027241 -68129.600000 0 0 1
-17.496605 -23.809386 10.995271 31.526402 0.937054 1.214544 0.091459 -0.027412 -399044.000000 0 0 1
-17.436805 -24.992086 10.007671 32.074912 0.961620 1.253489 0.100305 -0.026593 -396441.000000 0 0 1
-18.586405 -25.060866 9.217571 32.534060 0.932660 1.283541 0.099246 -0.023847 -530479.000000 0 0 1
-18.689505 -26.207966 8.328371 33.249313 0.951317 1.317618 0.119980 -0.026566 499817.000000 0 0 1
-19.985205 -26.170246 7.454671 33.761847 0.918609 1.348160 0.106210 -0.033043 506113.000000 0 0 1
-19.930605 -25.075916 6.576371 32.699835 0.899228 1.368302 0.116751 -0.035791 118965.000000 0 0 1
-20.890405 -25.201856 5.531871 33.198556 0.878666 1.403386 0.115747 -0.038155 188233.000000 0 0 1
-21.040405 -23.870486 4.870071 32.190314 0.848330 1.418923 0.123535 -0.038281 106961.000000 0 0 1
-21.863805 -23.852986 3.704471 32.568605 0.828882 1.456806 0.127196 -0.037420 231273.000000 0 0 1
-21.993905 -22.557186 3.204171 31.667415 0.798041 1.469441 0.126636 -0.028552 269022.000000 0 0 1
-22.784305 -22.456086 1.841771 32.043603 0.778143 1.513288 0.114094 -0.022283 231884.000000 0 0 1
-22.206005 -23.315786 0.858171 32.209765 0.809772 1.544150 0.097904 -0.027825 447969.000000 0 0 1
-22.714305 -23.061786 -0.467029 32.372886 0.792989 1.585223 0.107546 -0.023114 -57909.400000 0 0 1
-21.975405 -23.923886 -1.528829 32.520886 0.827824 1.617824 0.087486 -0.021243 871653.000000 0 0 1
-20.566205 -23.598486 -1.592029 31.343131 0.853949 1.621612 0.085624 -0.017238 1275660.000000 0 0 1
-19.903905 -24.038886 -2.786129 31.333624 0.879221 1.659832 0.075124 -0.005326 142444.000000 0 0 1
-19.541905 -25.527156 -2.954129 32.283875 0.917427 1.662429 0.085260 -0.010267 -376837.000000 0 0 1
-20.653505 -26.347906 -3.228529 33.633359 0.905964 1.666936 0.109545 -0.016523 -69810.700000 0 0 1
-20.175305 -27.536916 -3.810529 34.348869 0.938483 1.681961 0.112521 -0.009902 -747857.000000 0 0 1
-21.277305 -28.483556 -4.254929 35.806998 0.929216 1.689907 0.106240 -0.000939 -227690.000000 0 0 1
-21.857605 -28.083706 -5.481829 36.006942 0.909427 1.723634 0.091660 0.001344 -297223.000000 0 0 1
-22.477105 -29.160976 -6.112229 37.322140 0.914119 1.735307 0.078387 -0.011069 -360192.000000 0 0 1
-23.045105 -28.765036 -7.490529 37.611330 0.895355 1.771293 0.071754 0.012582 -187124.000000 0 0 1
-22.057405 -28.366436 -8.419329 36.906218 0.909871 1.800951 0.088565 0.002778 72167.500000 0 0 1
-22.533505 -28.209606 -9.741029 37.395566 0.896795 1.834322 0.081030 0.001402 157946.000000 0 0 1
-23.551805 -27.057306 -10.047729 37.252412 0.854554 1.843899 0.075901 0.004903 -11847.300000 0 0 1
-23.072405 -25.775536 -10.346829 36.107769 0.840679 1.861424 0.075410 0.002085 -93692.800000 0 0 1
-22.923805 -24.939086 -9.223529 35.107440 0.827479 1.836640 0.064025 -0.003443 -355779.000000 0 0 1
-22.693005 -23.476086 -9.505529 34.006678 0.802358 1.854090 0.071119 -0.013175 -179240.000000 0 0 1
-23.727805 -22.808586 -10.176129 34.449875 0.765648 1.870659 0.069927 -0.014109 -332453.000000 0 0 1
-23.331005 -21.466686 -10.376729 33.359120 0.743806 1.887106 0.090537 -0.010186 -34929.300000 0 0 1
-24.433505 -20.411286 -10.593829 33.553628 0.695946 1.892020 0.107254 -0.005921 -442440.000000 0 0 1
-25.139215 -20.501186 -11.831529 34.529174 0.684125 1.920536 0.084212 0.007463 1142530.000000 0 0 1
-26.407415 -19.790586 -11.790629 35.043370 0.643138 1.913950 0.080590 0.006044 941183.000000 0 0 1
-26.389065 -18.219686 -11.813029 34.174367 0.604271 1.923748 0.093424 0.001796 -1152000.000000 0 0 1
-25.881595 -17.679786 -13.041229 33.948571 0.599295 1.965080 0.100826 0.010133 641258.000000 0 0 1
-25.184065 -16.456086 -12.877829 32.724278 0.578784 1.975259 0.121072 -0.017880 160743.000000 0 0 1
-23.973505 -16.284286 -11.923429 31.338077 0.596672 1.961109 0.103878 -0.017529 -861930.000000 0 0 1
-24.265705 -16.265286 -10.535229 31.054388 0.590513 1.916917 0.138177 -0.023776 638021.000000 0 0 1
-23.115305 -16.475586 -9.690529 29.994476 0.619236 1.899776 0.115637 -0.023792 599683.000000 0 0 1
-23.540505 -16.825686 -8.200529 30.075036 0.620560 1.846962 0.114664 -0.038206 15762.900000 0 0 1
-24.251005 -18.039386 -8.154929 31.305488 0.639561 1.834331 0.127513 -0.030521 -15658.000000 0 0 1
-24.944905 -18.188886 -6.949429 31.644564 0.630031 1.792210 0.135039 -0.023761 -77084.700000 0 0 1
-25.540785 -19.611686 -6.784029 32.908555 0.654832 1.778433 0.137482 -0.020547 837099.000000 0 0 1
-26.641085 -19.824286 -7.701229 34.088981 0.639730 1.798679 0.100111 -0.025397 823065.000000 0 0 1
-27.310375 -21.066586 -7.716729 35.344102 0.657042 1.790901 0.080693 -0.007052 39519.300000 0 0 1
-26.475585 -22.193486 -8.345829 35.540966 0.697640 1.807833 0.068031 -0.002013 -321521.000000 0 0 1
-27.179015 -23.435886 -8.421329 36.862696 0.711579 1.801283 0.064238 0.002301 185236.000000 0 0 1
-26.523085 -24.428286 -9.242729 37.224229 0.744308 1.821720 0.048175 0.010155 -30949.600000 0 0 1
-26.977495 -25.850976 -8.816129 38.389873 0.764077 1.802512 0.052549 0.009302 120948.000000 0 0 1
-26.440145 -26.322216 -7.591229 38.073180 0.783163 1.771527 0.074859 0.002004 130595.000000 0 0 1
-27.105915 -27.493516 -7.139729 39.263211 0.792497 1.753656 0.084176 -0.002922 75839.900000 0 0 1
-26.690115 -27.823396 -5.691829 38.973074 0.806184 1.717366 0.112953 -0.008437 -23173.500000 0 0 1
-27.258855 -27.063876 -4.647429 38.692340 0.781809 1.691199 0.095764 -0.006497 -189799.000000 0 0 1
-26.690125 -27.300776 -3.395429 38.330459 0.796708 1.659496 0.097494 -0.016867 -243500.000000 0 0 1
-27.162685 -28.499796 -2.608529 39.456992 0.809415 1.636955 0.097305 -0.011038 -259353.000000 0 0 1
-26.794755 -29.727286 -3.153129 40.144896 0.837235 1.649421 0.121539 -0.007609 -318392.000000 0 0 1
-26.957475 -30.794816 -2.230229 40.987804 0.851745 1.625235 0.113472 -0.010874 -191815.000000 0 0 1
-25.945875 -30.990406 -1.096129 40.432600 0.873767 1.597910 0.118946 -0.020917 -136282.000000 0 0 1
-24.644705 -31.335806 -1.542129 39.895769 0.904359 1.609460 0.124486 -0.028642 302339.000000 0 0 1
-23.758805 -31.712446 -0.492529 39.628306 0.927811 1.583225 0.116027 -0.017675 678224.000000 0 0 1
-22.447905 -30.918396 -0.231029 38.208756 0.942809 1.576843 0.099679 -0.019816 268153.000000 0 0 1
-22.631305 -29.627666 0.279971 37.283414 0.918485 1.563287 0.109969 -0.023509 -145547.000000 0 0 1
-22.910005 -28.736616 -0.777629 36.759572 0.897740 1.591952 0.103827 -0.023247 -206445.000000 0 0 1
-23.535305 -27.371006 -0.387529 36.100315 0.860604 1.581531 0.102250 -0.014989 -268266.000000 0 0 1
-24.869105 -27.506666 0.037471 37.082212 0.835714 1.569786 0.095506 -0.015587 -264687.000000 0 0 1
-25.521145 -26.260576 0.300171 36.620169 0.799677 1.562599 0.109486 -0.030631 205143.000000 0 0 1
-25.054505 -25.355336 1.473771 35.676228 0.791366 1.529475 0.116929 -0.022269 -614411.000000 0 0 1
-25.267275 -25.990106 2.723971 36.350252 0.799499 1.495789 0.100666 -0.018439 -114513.000000 0 0 1
-25.153525 -25.126316 3.844171 35.760442 0.784857 1.463090 0.118845 -0.029236 8496.520000 0 0 1
-26.306885 -24.115986 4.040071 35.915946 0.741975 1.458071 0.112154 -0.026811 -303489.000000 0 0 1
-26.414205 -23.200186 2.973671 35.281746 0.720709 1.486413 0.112545 -0.023753 -273434.000000 0 0 1
-27.178645 -22.054986 3.191671 35.146663 0.681703 1.479861 0.092102 -0.021239 -296698.000000 0 0 1
-27.031385 -20.980686 2.093771 34.282194 0.660035 1.509684 0.082333 -0.016310 -89880.000000 0 0 1
-25.835375 -20.280086 2.276171 32.923084 0.665511 1.501605 0.096889 -0.018585 -300975.000000 0 0 1
-25.644045 -19.214286 1.356771 32.072522 0.643033 1.528480 0.082259 -0.012385 76635.400000 0 0 1
-24.347605 -18.374686 1.505371 30.540155 0.646490 1.521485 0.126536 -0.008189 -467626.000000 0 0 1
-23.209205 -19.166286 1.415071 30.133306 0.690279 1.523819 0.137621 -0.021510 -1103420.000000 0 0 1
-22.107005 -18.402486 1.766371 28.818245 0.694204 1.509464 0.133822 -0.014499 -735084.000000 0 0 1
-20.757205 -19.131386 1.694871 28.279747 0.744662 1.510828 0.109089 -0.029048 -371561.000000 0 0 1
-20.408705 -19.373486 0.335871 28.141784 0.759382 1.558861 0.091984 -0.016657 26615.000000 0 0 1
-19.426105 -20.384386 0.382771 28.161024 0.809465 1.557204 0.097326 -0.012110 -126290.000000 0 0 1
-19.088505 -20.882786 -1.050829 28.311941 0.830257 1.607921 0.098246 -0.015551 138227.000000 0 0 1
-18.321605 -19.948586 -1.831729 27.147422 0.827886 1.638321 0.093347 -0.019303 322894.000000 0 0 1
-18.133805 -20.321986 -3.218329 27.425821 0.842238 1.688414 0.088050 -0.015828 202709.000000 0 0 1
-17.392905 -19.226486 -4.048229 26.240409 0.835428 1.725690 0.085700 -0.005658 -331013.000000 0 0 1
-16.008305 -19.188486 -3.906629 25.292797 0.875508 1.725873 0.107979 -0.017385 -575712.000000 0 0 1
-15.503605 -18.412986 -4.981429 24.580774 0.870969 1.774865 0.100044 -0.012029 290318.000000 0 1 0
-13.954805 -18.251186 -5.012829 23.515332 0.918018 1.785618 0.110811 -0.023235 205742.000000 0 1 0
-13.185605 -19.426486 -5.151529 24.037196 0.974479 1.786787 0.086653 -0.023145 -1227040.000000 0 1 0
-11.924905 -18.969486 -5.492429 23.069710 1.009586 1.811185 0.084713 -0.030382 -1064310.000000 0 1 0
-10.984905 -20.182586 -5.621129 23.655908 1.072358 1.810712 0.080979 -0.034192 -277843.000000 0 1 0
-11.185305 -21.045586 -6.703429 24.758103 1.082283 1.844976 0.083095 -0.032764 179499.000000 0 1 0
-10.053405 -21.891686 -7.061229 25.103343 1.140290 1.855931 0.086207 -0.022444 460138.000000 0 0 1
-10.283305 -23.180086 -7.922629 26.567476 1.153255 1.873611 0.091741 -0.018159 -245140.000000 0 0 1
-10.765805 -22.858786 -9.181029 26.883414 1.130641 1.919322 0.083349 -0.023547 -350458.000000 0 0 1
-10.372305 -23.837886 -10.048429 27.871140 1.160387 1.939634 0.108368 -0.022994 -9961.830000 0 0 1
-11.143605 -23.827686 -11.387129 28.663657 1.133342 1.979333 0.137980 -0.032669 -223080.000000 0 0 1
-10.707405 -22.766886 -12.225429 27.972142 1.131185 2.023121 0.110733 -0.022916 -213127.000000 0 0 1
-11.682605 -22.350086 -13.142129 28.438093 1.089146 2.051193 0.119795 -0.034689 -779262.000000 0 0 1
-11.170705 -21.279986 -14.012629 27.820428 1.087397 2.098651 0.084126 -0.020545 -390510.000000 0 0 1
-10.911305 -20.085386 -13.360329 26.475983 1.073153 2.099739 0.082514 -0.018480 -88646.200000 0 0 1
-10.608805 -18.925986 -14.195229 25.927673 1.059896 2.150162 0.071338 -0.005756 -126310.000000 0 0 1
-10.251405 -17.740986 -13.293229 24.424247 1.046832 2.146307 0.070427 -0.003427 -433329.000000 0 1 0
-11.357505 -17.225486 -12.534329 24.141659 0.987881 2.116710 0.080756 -0.013277 344840.000000 0 1 0
-11.095505 -16.208086 -11.583029 22.803044 0.970504 2.103611 0.080129 -0.018020 -142411.000000 0 1 0
-10.830605 -14.734286 -12.015729 21.881018 0.936925 2.152130 0.092015 -0.012440 326962.000000 0 1 0
-11.930605 -13.976386 -12.520829 22.236228 0.864201 2.168907 0.090626 -0.003199 -26818.300000 0 1 0
-12.068705 -13.910986 -13.910829 23.079869 0.856192 2.217709 0.106658 -0.009533 -370120.000000 0 1 0
-13.250305 -13.113386 -14.443829 23.582953 0.780205 2.229977 0.116072 -0.011758 -735991.000000 0 1 0
-13.135505 -11.733686 -14.139629 22.586500 0.729090 2.247237 0.100341 -0.001637 111108.000000 0 1 0
-14.153205 -10.906686 -14.715929 23.147950 0.656565 2.259755 0.107863 -0.021990 277654.000000 0 1 0
-14.365605 -9.438486 -14.217229 22.306618 0.581294 2.261857 0.096469 -0.028598 279046.000000 0 1 0
-13.334905 -8.503986 -14.531929 21.478232 0.567697 2.313916 0.092126 -0.025817 236399.000000 0 1 0
-13.112305 -8.183986 -15.911029 22.182674 0.557985 2.370677 0.096716 -0.016763 273643.000000 0 1 0
-12.033505 -7.035486 -15.969829 21.197612 0.529062 2.423981 0.073891 -0.008369 877212.000000 0 1 0
-10.693105 -7.533186 -15.909429 20.596148 0.613733 2.453481 0.054473 -0.016204 726755.000000 0 1 0
-9.760105 -6.473286 -15.709829 19.594944 0.585626 2.500978 0.031947 -0.008481 344209.000000 0 1 0
11.670995 22.430314 15.721171 29.773920 1.091023 1.014531 0.087150 -0.018163 -778944.000000 0 0 1
12.670395 22.517214 16.667771 30.747007 1.058256 0.997869 0.097454 -0.021073 -741372.000000 0 0 1
13.185595 21.210014 16.851271 30.127893 1.014596 0.977226 0.079972 -0.007280 -404869.000000 0 0 1
14.216495 21.154914 17.971171 31.186569 0.979098 0.956667 0.089918 -0.022290 -1403740.000000 0 0 1
15.417995 21.632714 17.525571 31.825061 0.951587 0.987612 0.078816 -0.020251 -1265320.000000 0 0 1
16.409995 21.314214 18.487271 32.639897 0.914675 0.968664 0.078863 -0.025767 -47580.300000 0 0 1
17.852595 21.629114 18.071371 33.363276 0.880760 0.998392 0.055153 -0.011055 -1030190.000000 0 0 1
18.241795 22.939714 18.180071 34.489253 0.898986 1.015585 0.058695 -0.010666 668623.000000 0 0 1
19.525095 23.255614 17.592971 35.093668 0.872379 1.045679 0.049361 -0.003673 1545360.000000 0 0 1
20.815095 22.755514 18.322171 35.871765 0.829904 1.034718 0.051913 -0.008400 -196811.000000 0 0 1
21.018495 21.356814 18.288071 35.104760 0.793382 1.022825 0.055939 -0.007020 -565572.000000 0 0 1
22.180895 20.982814 18.949871 35.935612 0.757649 1.015343 0.072475 -0.018714 -541858.000000 0 0 1
22.461495 19.532114 18.711471 35.158802 0.715753 1.009601 0.065203 -0.023487 -214930.000000 0 0 1
22.599795 19.257714 17.349971 34.389414 0.705723 1.041976 0.043603 -0.020194 -42270.400000 0 0 1
22.305495 17.890314 17.015771 33.273637 0.675995 1.033996 0.038128 -0.015245 -142296.000000 0 0 1
23.298895 16.775114 17.425171 33.583918 0.624021 1.025286 0.048478 -0.022090 -488847.000000 0 0 1
24.510795 16.865014 16.738071 34.137528 0.602671 1.058348 0.071600 -0.035774 -446091.000000 0 0 1
25.281895 15.694714 16.926871 34.234737 0.555565 1.053611 0.062450 -0.021410 -1265810.000000 0 0 1
26.589595 15.721414 16.172971 34.867383 0.533970 1.088469 0.138347 -0.047858 -1754050.000000 0 0 1
27.380895 16.807414 16.659871 36.190522 0.550532 1.092420 0.123537 -0.048351 291887.000000 0 0 1
28.535195 16.311814 17.316571 37.150993 0.519304 1.085904 0.125704 -0.052806 419997.000000 0 0 1
29.663995 15.449414 16.606171 37.341691 0.480160 1.109947 0.132401 -0.053539 53808.000000 0 0 1
30.419095 16.307114 15.712371 37.922578 0.492094 1.143592 0.173479 -0.053970 98295.800000 0 0 1
31.201995 15.641814 14.756071 37.894227 0.464694 1.170815 0.167234 -0.042289 -422203.000000 0 0 1
30.501595 15.012914 13.549771 36.596874 0.457389 1.191525 0.133917 -0.046028 -691720.000000 0 0 1
30.494695 15.887514 12.453871 36.571005 0.480300 1.223306 0.152976 -0.040653 -32852.000000 0 0 1
29.775595 15.462914 11.291671 35.400418 0.478980 1.246154 0.134712 -0.034777 -177194.000000 0 0 1
28.285695 15.815214 11.394171 34.351545 0.509821 1.232699 0.119864 -0.038075 -807906.000000 0 0 1
27.895795 17.180014 11.405971 34.690408 0.552003 1.235771 0.115502 -0.031494 145780.000000 0 0 1
28.303595 18.014114 12.508271 35.805846 0.566798 1.213934 0.111225 -0.038624 -998599.000000 0 0 1
27.419495 17.981914 13.708871 35.540274 0.580447 1.174800 0.101866 -0.041815 -1000290.000000 0 0 1
26.405195 18.916714 13.723671 35.262098 0.621649 1.171044 0.095946 -0.021100 -306759.000000 0 0 1
25.630995 19.072914 14.904271 35.254237 0.639737 1.134302 0.092299 -0.026985 113357.000000 0 0 1
26.350995 19.749214 16.127471 36.667448 0.643160 1.115386 0.102897 -0.035561 -76520.400000 0 0 1
26.498595 21.190514 16.086571 37.549849 0.674549 1.128069 0.077622 -0.023526 -208009.000000 0 0 1
25.341295 21.984814 16.211871 37.260409 0.714594 1.120651 0.060267 -0.016147 -312254.000000 0 0 1
25.482395 23.501814 15.909771 38.141952 0.744987 1.140522 0.055817 -0.006375 -164461.000000 0 0 1
25.397095 23.745814 14.515271 37.677171 0.751809 1.175314 0.081411 -0.014240 -88909.700000 0 0 1
25.242695 25.139814 14.393271 38.423562 0.783356 1.186836 0.074673 -0.012664 -381934.000000 0 0 1
25.072995 25.555814 12.879671 38.047873 0.794934 1.225461 0.074343 -0.014929 223376.000000 0 0 1
23.773595 25.204414 12.437171 36.812084 0.814603 1.226159 0.071150 -0.005924 75719.600000 0 0 1
23.497695 25.403414 11.053671 36.327108 0.824349 1.261612 0.060722 -0.027397 9042.950000 0 0 1
22.871695 24.156714 10.365471 34.843999 0.812716 1.268742 0.068353 -0.030009 207035.000000 0 0 1
21.476395 24.002614 10.691171 33.936148 0.840888 1.250300 0.074726 -0.027312 760745.000000 0 0 1
20.967595 22.755414 10.214671 32.585095 0.826265 1.251944 0.073271 -0.011842 -50349.700000 0 0 1
20.600095 22.806414 8.721071 31.946103 0.836184 1.294293 0.087372 -0.009237 -861406.000000 0 0 1
19.476695 23.549014 8.348071 31.679457 0.879766 1.304130 0.089537 -0.013607 -174079.000000 0 0 1
19.594195 23.973714 6.983371 31.740178 0.885583 1.348965 0.078178 -0.022624 -469457.000000 0 0 1
18.267395 24.063514 6.220771 30.845558 0.921476 1.367729 0.066502 -0.019897 -1040910.000000 0 0 1
17.859395 22.811314 5.642571 29.515295 0.906558 1.378438 0.079423 -0.009239 730560.000000 0 0 1
16.899395 22.816914 4.583971 28.761327 0.933305 1.410734 0.097676 -0.026001 904601.000000 0 0 1
15.487395 23.464614 4.738971 28.511495 0.987401 1.403809 0.070974 -0.013040 -58585.800000 0 0 1
15.633395 24.897014 4.873971 29.799664 1.010098 1.406500 0.090396 -0.023748 -126131.000000 0 0 1
14.483195 25.501214 5.398471 29.819765 1.054283 1.388756 0.078492 -0.024778 -378704.000000 0 0 1
14.241295 26.918214 4.872071 30.840587 1.084174 1.412156 0.080699 -0.024496 -454797.000000 0 0 1
13.977795 26.996214 3.464571 30.597019 1.093035 1.457321 0.062168 -0.024554 390658.000000 0 0 1
13.953195 28.337214 3.057171 31.733825 1.113249 1.474309 0.070399 -0.022492 -351350.000000 0 0 1
13.548395 28.448114 1.576271 31.548991 1.126329 1.520813 0.072681 -0.024809 154054.000000 0 0 1
14.575495 28.264914 0.589871 31.807206 1.094688 1.552250 0.090641 -0.024341 183221.000000 0 0 1
14.861195 26.893514 0.316871 30.728108 1.065964 1.560484 0.073877 -0.015487 -95078.100000 0 0 1
16.030095 26.771214 -0.665429 31.210650 1.031274 1.592119 0.082630 -0.023255 -85929.100000 0 0 1
15.683495 27.312414 -1.928829 31.554086 1.049544 1.631962 0.083267 -0.014135 -631967.000000 0 0 1
16.665695 27.076414 -2.866729 31.923279 1.019053 1.660718 0.074415 -0.015172 -618535.000000 0 0 1
16.262995 27.438614 -4.278829 32.181842 1.035758 1.704149 0.086510 -0.016732 -374217.000000 0 0 1
15.194795 26.618614 -4.761029 31.017734 1.052099 1.724899 0.105785 -0.021544 -9772.790000 0 0 1
14.905795 27.055014 -6.061029 31.478447 1.067229 1.764552 0.099866 -0.016710 410930.000000 0 0 1
13.508495 26.598314 -6.564529 30.545749 1.100872 1.787394 0.101988 -0.027163 385682.000000 0 0 1
13.476795 25.311214 -7.114629 29.544873 1.081532 1.813994 0.110603 -0.027965 -245942.000000 0 0 1
12.223895 25.164114 -7.737929 29.026398 1.118600 1.840642 0.095413 -0.027171 -127033.000000 0 0 1
11.920595 23.710314 -8.178329 27.769852 1.104943 1.869733 0.094639 -0.023368 310789.000000 0 0 1
12.805995 23.242814 -9.198229 28.086106 1.067212 1.904454 0.098684 -0.028368 718700.000000 0 0 1
12.163195 22.100514 -9.788629 27.059071 1.067678 1.940941 0.094789 -0.024006 1120950.000000 0 0 1
12.944595 21.692514 -11.146429 27.611059 1.032784 1.986348 0.096291 -0.027323 854873.000000 0 0 1
12.393595 20.437514 -11.513229 26.530127 1.025674 2.019689 0.103114 -0.033691 -63442.300000 0 0 1
12.649895 20.110914 -12.866929 27.019004 1.009321 2.067145 0.106675 -0.030600 -83896.200000 0 0 1
13.964195 19.412614 -13.283529 27.355081 0.947211 2.077842 0.075561 -0.026901 -120139.000000 0 0 1
15.002395 20.333714 -13.482229 28.640920 0.935143 2.060918 0.066222 -0.019622 -638953.000000 0 0 1
16.136395 19.750914 -14.090929 29.138225 0.885778 2.075547 0.073526 -0.017119 -24878.500000 0 0 1
17.392595 20.586914 -13.791329 30.274150 0.869307 2.043784 0.072564 -0.013358 -417800.000000 0 0 1
17.614995 21.826914 -14.435629 31.545041 0.891783 2.046113 0.066539 -0.016628 43272.500000 0 0 1
16.599295 22.802014 -14.264929 31.606276 0.941541 2.039054 0.067502 -0.012175 72228.600000 0 0 1
17.003895 24.138014 -14.926629 33.084444 0.957094 2.038870 0.063056 -0.018717 152174.000000 0 0 1
17.118595 24.168814 -16.352429 33.831639 0.954526 2.075271 0.055051 -0.021190 -787214.000000 0 0 1
15.888395 24.249614 -16.981229 33.598319 0.990773 2.100664 0.065550 -0.015513 -552484.000000 0 0 1
16.002795 24.247714 -18.567129 34.478680 0.987443 2.139465 0.051274 -0.013167 149456.000000 0 0 1
16.496095 22.998114 -19.046829 34.114749 0.948567 2.163152 0.054179 -0.010768 -35369.300000 0 0 1
16.622395 23.022914 -20.452429 34.995149 0.945462 2.194981 0.048046 -0.005516 -116295.000000 0 0 1
16.959295 21.616614 -21.093129 34.638357 0.905548 2.225536 0.062225 -0.003183 -498894.000000 0 0 1
15.914895 20.694914 -21.049229 33.535554 0.915230 2.249352 0.065407 -0.002902 -234660.000000 0 0 1
16.158395 19.580814 -21.934129 33.550082 0.880868 2.283356 0.060814 -0.006093 -146117.000000 0 0 1
15.020495 18.573014 -21.749929 32.305287 0.890757 2.309408 0.059062 -0.008514 -742791.000000 0 0 1
14.910495 17.954014 -20.473529 31.045690 0.877743 2.290902 0.055730 -0.011268 255714.000000 0 0 1
13.894195 16.967114 -20.347529 29.915774 0.884643 2.318778 0.056256 -0.012752 1806930.000000 0 0 1
12.365195 17.294414 -20.669029 29.651367 0.950086 2.342097 0.068651 -0.010816 989352.000000 0 0 1
11.463995 17.015514 -19.632429 28.396887 0.977914 2.334164 0.076660 -0.010783 -278982.000000 0 0 1
10.146095 17.294514 -20.017029 28.332401 1.040239 2.355346 0.071496 -0.012137 389269.000000 0 0 1
8.961595 17.019114 -19.050529 27.071814 1.086127 2.351393 0.083054 -0.020969 404054.000000 0 0 1
9.026895 15.629814 -18.653629 25.956383 1.047053 2.372659 0.099319 -0.036745 1648710.000000 0 0 1
7.714595 15.079114 -18.261929 24.907684 1.097906 2.393789 0.095590 -0.035167 1877310.000000 0 1 0
7.207095 15.344514 -16.854529 23.905470 1.131693 2.353289 0.094618 -0.040803 53007.500000 0 1 0
6.927295 16.714214 -16.636229 24.578781 1.177891 2.314276 0.107386 -0.032162 -431350.000000 0 1 0
6.520895 16.901314 -15.350729 23.744923 1.202572 2.273764 0.083268 -0.033453 -388721.000000 0 1 0
6.044195 18.310414 -14.980329 24.417490 1.251962 2.231292 0.074520 -0.028077 388106.000000 0 1 0
7.070195 19.327314 -14.884629 25.398522 1.220104 2.196963 0.074411 -0.026129 362874.000000 0 0 1
7.778795 19.711514 -16.053329 26.585011 1.194926 2.219117 0.095243 -0.018490 213194.000000 0 0 1
8.977095 20.615114 -15.597029 27.364914 1.160098 2.177259 0.091875 -0.017647 65653.100000 0 0 1
8.694895 21.803314 -14.869129 27.786268 1.191335 2.135452 0.089318 -0.019356 -230057.000000 0 0 1
8.691595 21.646514 -13.432329 26.917334 1.188977 2.093266 0.085710 -0.023089 -64351.300000 0 0 1
8.305695 22.992314 -12.775729 27.583516 1.224145 2.052360 0.090827 -0.027374 1006660.000000 0 0 1
6.889095 23.204814 -13.016329 27.483593 1.282202 2.064174 0.066421 -0.017186 957956.000000 0 0 1
6.321495 24.387814 -12.486329 28.118236 1.317171 2.030927 0.056710 -0.026763 -202463.000000 0 0 1
5.760395 24.176214 -11.082629 27.212059 1.336891 1.990258 0.054063 -0.024477 -918124.000000 0 0 1
6.702495 23.796914 -10.098529 26.705746 1.296255 1.958583 0.047136 -0.028042 -278112.000000 0 0 1
6.094595 23.135714 -9.021429 25.569348 1.313220 1.931382 0.053807 -0.027704 -310200.000000 0 0 1
6.976595 22.931614 -7.789129 25.203221 1.275459 1.884993 0.043105 -0.026384 -162881.000000 0 0 1
7.177295 24.199314 -7.199529 26.247926 1.282470 1.848647 0.034772 -0.025372 1304680.000000 0 0 1
8.284795 24.173214 -6.212629 26.297887 1.240616 1.809291 0.050785 -0.022156 1341760.000000 0 0 1
8.529995 25.513814 -5.477329 27.453901 1.248150 1.771654 0.034641 -0.020757 167501.000000 0 0 1
9.045595 26.496614 -6.397129 28.719621 1.241815 1.795425 0.062051 -0.024473 128201.000000 0 0 1
9.172695 27.736814 -5.676229 29.760524 1.251413 1.762702 0.057184 -0.023088 65271.200000 0 0 1
9.767095 28.863714 -6.551229 31.167752 1.244505 1.782568 0.071801 -0.017833 108313.000000 0 0 1
11.060295 28.677914 -7.076529 31.540928 1.202702 1.797083 0.088326 -0.022369 -325067.000000 0 0 1
11.402095 29.834714 -7.741029 32.863985 1.205750 1.808578 0.100336 -0.021619 -823647.000000 0 0 1
12.737095 29.853914 -8.455129 33.540707 1.167531 1.825631 0.103712 -0.021337 -199600.000000 0 0 1
13.818495 30.078914 -7.535229 33.948072 1.140146 1.794624 0.086350 -0.018519 -291991.000000 0 0 1
14.911795 30.529414 -8.306729 34.977257 1.116439 1.810577 0.085713 -0.014398 337857.000000 0 0 1
16.156895 30.719314 -7.369429 35.482813 1.086603 1.780009 0.070635 -0.007315 283851.000000 0 0 1
16.909495 29.583014 -7.055129 34.797422 1.051525 1.774960 0.068521 -0.010814 457801.000000 0 0 1
18.219395 29.967914 -6.612129 35.689529 1.024542 1.757141 0.057482 0.002050 963752.000000 0 0 1
19.284095 28.875014 -6.421429 35.311153 0.981977 1.753667 0.051007 0.000366 -5988.330000 0 0 1
18.933695 27.931514 -5.361929 34.167303 0.975084 1.728379 0.068762 -0.008862 -608120.000000 0 0 1
19.893995 26.934814 -5.118429 33.874084 0.934633 1.722479 0.068286 -0.005225 -424700.000000 0 0 1
20.056195 25.758614 -6.110929 33.212959 0.909228 1.755843 0.070789 -0.002677 -378932.000000 0 0 1
20.579195 26.190214 -7.301529 34.099016 0.904799 1.786595 0.058677 0.005553 -7779.350000 0 0 1
20.669695 25.197014 -8.284329 33.626714 0.883785 1.819721 0.055510 -0.004104 -1518370.000000 0 0 1
21.229395 25.611614 -9.650529 34.637764 0.878682 1.853146 0.059934 -0.005379 1207240.000000 0 0 1
22.669895 25.737014 -9.680529 35.637490 0.848675 1.845892 0.056054 -0.003703 869420.000000 0 0 1
23.354995 24.535314 -9.475229 35.174101 0.810039 1.843546 0.074777 -0.012122 -1809160.000000 0 0 1
24.845595 24.834314 -9.314529 36.342911 0.785171 1.829984 0.040683 -0.005395 -708079.000000 0 0 1
25.484795 25.050814 -10.536429 37.256334 0.776811 1.857518 0.046301 -0.006099 719061.000000 0 0 1
26.913295 25.071314 -10.344429 38.208683 0.749980 1.844953 0.044923 0.002400 754636.000000 0 0 1
27.709195 25.175514 -11.648529 39.208344 0.737525 1.872443 0.048021 -0.002360 -261997.000000 0 0 1
27.675495 26.367614 -12.407729 40.188753 0.761202 1.884661 0.047818 0.000240 200198.000000 0 0 1
28.488595 26.305214 -13.586529 41.087201 0.745572 1.907816 0.051452 -0.008954 288147.000000 0 0 1
28.163995 27.443314 -14.617029 41.952397 0.772439 1.926681 0.054329 -0.013274 101384.000000 0 0 1
28.585695 28.719014 -14.198329 42.936189 0.787725 1.907825 0.058406 -0.006036 151887.000000 0 0 1
28.188195 29.629714 -15.214329 43.634506 0.810325 1.926955 0.059690 -0.007815 -94712.200000 0 0 1
28.600195 31.087514 -15.021329 44.833526 0.827046 1.912451 0.060017 -0.011818 485878.000000 0 0 1
30.002195 31.340014 -14.905029 45.874700 0.807204 1.901710 0.057489 -0.008796 602599.000000 0 0 1
30.306295 32.654714 -14.555929 46.868720 0.822680 1.886587 0.050481 -0.020540 1512.330000 0 0 1
16.010595 -31.945082 -27.974669 45.380717 -1.106196 2.235015 0.111640 -0.051603 -173035.000000 0 0 1
16.981995 -32.800982 -27.442479 46.015022 -1.093067 2.209781 0.092821 -0.039943 -105566.000000 0 0 1
17.508895 -32.267782 -26.258189 45.136057 -1.073643 2.191683 0.094748 -0.045121 -159248.000000 0 0 1
18.678995 -33.116582 -25.662209 45.871144 -1.057240 2.164508 0.053579 -0.036282 -96281.600000 0 0 1
19.928295 -32.819582 -26.200379 46.483564 -1.025094 2.169592 0.069418 -0.039320 -281981.000000 0 0 1
20.369895 -33.211182 -27.497099 47.686536 -1.020622 2.185384 0.072184 -0.035975 -83877.000000 0 0 1
21.864595 -32.840082 -27.712359 48.213134 -0.983401 2.183142 0.067848 -0.036175 208602.000000 0 0 1
22.148895 -31.508782 -27.932709 47.577443 -0.958098 2.198268 0.080220 -0.043409 -60046.900000 0 0 1
23.519895 -31.321182 -27.650609 47.945365 -0.926703 2.185493 0.043023 -0.034028 -93017.100000 0 0 1
24.082495 -29.982382 -28.235859 47.709260 -0.894094 2.204126 0.025477 -0.025415 -17186.600000 0 0 1
24.321095 -30.154082 -29.600659 48.754316 -0.892068 2.223252 0.022738 -0.026184 121523.000000 0 0 1
24.862195 -29.001082 -30.250399 48.726565 -0.862088 2.240584 0.026327 -0.027250 98428.700000 0 0 1
25.138995 -29.116982 -31.773659 49.893217 -0.858586 2.261180 0.031161 -0.018356 405855.000000 0 0 1
26.336995 -29.830282 -32.075769 51.111036 -0.847513 2.249225 0.031447 -0.029628 222753.000000 0 0 1
26.489895 -30.154382 -33.456179 52.252437 -0.850001 2.265659 0.033187 -0.028840 -349455.000000 0 0 1
27.749195 -30.909582 -33.839249 53.577186 -0.839224 2.254409 0.035001 -0.029558 252942.000000 0 0 1
28.988795 -30.220082 -33.697699 53.750707 -0.806191 2.248397 0.039002 -0.030023 365009.000000 0 0 1
30.095695 -31.005082 33.948161 54.950374 -0.800280 0.904859 0.047853 -0.019400 555154.000000 0 0 1
31.407095 -30.172782 33.880040 55.178433 -0.765357 0.909667 0.053422 -0.025734 18144.400000 0 0 1
31.444295 -29.185182 32.888405 54.057060 -0.748154 0.916751 0.051797 -0.019814 471916.000000 0 0 1
32.604195 -28.349082 33.004110 54.368881 -0.715702 0.918465 0.056463 -0.021897 364447.000000 0 0 1
32.893695 -27.770082 31.601621 53.402575 -0.701139 0.937553 0.057319 -0.021176 140261.000000 0 0 1
34.126095 -27.060582 31.457851 53.725802 -0.670433 0.945268 0.043133 -0.023613 733278.000000 0 0 1
34.059595 -26.183882 30.324311 52.585317 -0.655404 0.956151 0.064840 -0.018138 -181237.000000 0 0 1
34.597895 -26.878282 28.993511 52.536464 -0.660481 0.986187 0.061867 -0.014702 -181144.000000 0 0 1
33.847795 -27.895382 28.362451 52.232693 -0.689289 0.996789 0.062020 -0.022736 546037.000000 0 0 1
32.661795 -27.407882 27.731871 50.862968 -0.698157 0.994136 0.073838 -0.022991 97276.000000 0 0 1
31.882095 -28.415782 26.876421 50.460545 -0.727975 1.009100 0.067374 -0.019433 88444.100000 0 0 1
30.690695 -27.861782 26.319681 49.101153 -0.737122 1.005069 0.066941 -0.012161 240084.000000 0 0 1
30.179095 -28.825482 25.401631 48.856208 -0.762461 1.024032 0.051660 -0.004659 -172269.000000 0 0 1
28.815695 -28.424982 24.825201 47.482781 -0.778572 1.020634 0.047730 -0.001153 -135647.000000 0 0 1
27.764395 -28.389382 25.773761 47.340315 -0.796528 0.995080 0.049878 -0.006126 119188.000000 0 0 1
26.536995 -28.217082 25.082961 46.147272 -0.816073 0.996146 0.051171 0.002521 509952.000000 0 0 1
25.275495 -28.131882 25.979801 45.882497 -0.838830 0.968878 0.056033 0.001516 205217.000000 0 0 1
25.272395 -26.935682 26.720811 45.587571 -0.817246 0.944507 0.044335 -0.005430 316037.000000 0 0 1
24.255095 -26.942182 27.719461 45.635067 -0.837835 0.917993 0.048738 -0.014760 98176.000000 0 0 1
24.164095 -25.627082 28.472121 45.291417 -0.814772 0.890990 0.045760 -0.004455 -256797.000000 0 0 1
23.112795 -25.623082 29.423331 45.348385 -0.836861 0.864752 0.053200 -0.000425 183847.000000 0 0 1
22.859795 -24.426782 30.120691 45.016596 -0.818524 0.837797 0.048514 0.001518 -175599.000000 0 0 1
22.231895 -23.192282 29.357861 43.520376 -0.806538 0.830404 0.049791 -0.003510 -343811.000000 0 0 1
23.044095 -22.599682 28.370521 42.972810 -0.775662 0.849715 0.069433 -0.010409 58173.700000 0 0 1
22.590195 -21.287482 28.061481 41.844002 -0.755717 0.835750 0.074619 -0.008464 51696.200000 0 0 1
23.325095 -20.122082 28.765991 42.147841 -0.711809 0.819616 0.083080 -0.011553 -74561.200000 0 0 1
23.109595 -19.997682 30.146911 42.927810 -0.713333 0.792215 0.085452 -0.010444 -175887.000000 0 0 1
24.063295 -19.224182 30.829351 43.578208 -0.674070 0.784914 0.099563 -0.016434 -441666.000000 0 0 1
23.774195 -18.715182 32.247046 44.219253 -0.666891 0.753566 0.137378 -0.028989 -379920.000000 0 0 1
23.746195 -19.689982 33.312869 45.401811 -0.692285 0.746994 0.082584 -0.019774 404481.000000 0 0 1
23.066995 -19.216082 -33.575889 45.040919 -0.694574 2.412011 0.098086 -0.021441 113233.000000 0 0 1
22.864395 -20.432882 -32.646459 44.789223 -0.729299 2.387497 0.058424 -0.011958 367806.000000 0 0 1
24.104495 -20.818482 -32.065389 45.195409 -0.712381 2.359561 0.047832 0.002142 392102.000000 0 0 1
23.934095 -22.001782 -31.306979 45.133648 -0.743358 2.337341 0.048420 0.006397 -195604.000000 0 0 1
25.066295 -22.226382 -30.314739 45.180909 -0.725420 2.306304 0.025872 0.008595 423822.000000 0 0 1
26.292395 -22.738482 -30.828849 46.462313 -0.713042 2.296315 0.026995 0.011704 87213.200000 0 0 1
27.252495 -22.995082 -29.836099 46.493710 -0.700871 2.267540 0.026306 0.009290 390112.000000 0 0 1
28.364395 -23.970082 -30.383769 47.982050 -0.701629 2.256518 0.026179 0.011338 208014.000000 0 0 1
29.379595 -23.365182 -31.173839 48.794472 -0.671860 2.263839 0.025410 0.010546 32787.300000 0 0 1
29.183095 -23.200382 -32.591839 49.519074 -0.671681 2.289178 0.025424 0.013789 -106368.000000 0 0 1
29.480595 -24.553382 -33.341589 50.829475 -0.694462 2.286237 0.025253 0.006135 -275416.000000 0 0 1
28.734695 -25.618682 -32.829819 50.594432 -0.728132 2.276911 0.040470 -0.008612 -198849.000000 0 0 1
28.875395 -26.894482 -33.473589 51.745364 -0.749894 2.274296 0.040283 -0.016170 -195249.000000 0 0 1
28.511295 -27.071582 33.063442 51.370767 -0.759502 0.871573 0.043167 -0.014065 27335.600000 0 0 1
29.249395 -26.305382 32.071438 50.755072 -0.732455 0.886812 0.031721 -0.017954 113581.000000 0 0 1
28.923495 -26.472882 30.720911 49.811208 -0.741189 0.906193 0.039866 -0.014630 -52219.400000 0 0 1
29.996095 -25.825282 29.764411 49.524045 -0.710820 0.926033 0.051286 -0.018810 178558.000000 0 0 1
29.980495 -24.386682 29.588111 48.672340 -0.682869 0.917378 0.048321 -0.019298 46411.600000 0 0 1
30.274695 -23.688682 30.794701 49.254689 -0.663953 0.895391 0.036087 -0.009276 -1187880.000000 0 0 1
30.857695 -22.263982 30.537221 48.789385 -0.625014 0.894513 0.036058 -0.004177 1604010.000000 0 0 1
32.229895 -22.080082 30.098831 49.317702 -0.600643 0.914351 0.043047 -0.012186 1230420.000000 0 0 1
33.213795 -22.635182 30.927041 50.714786 -0.598201 0.914959 0.040665 -0.009850 -856497.000000 0 0 1
34.659195 -22.196782 30.641091 51.311143 -0.569618 0.930837 0.042704 -0.019137 -114558.000000 0 0 1
35.126595 -22.457782 29.347811 50.985524 -0.568844 0.957446 0.059931 -0.026866 -304916.000000 0 0 1
36.439095 -22.030382 29.125951 51.589402 -0.543781 0.970881 0.048826 -0.028833 -279361.000000 0 0 1
36.945495 -22.312482 27.688181 51.278181 -0.543304 1.000406 0.066892 -0.027555 -119567.000000 0 0 1
-36.634899 -23.692582 27.529261 51.587930 0.574067 1.007900 0.062016 -0.016736 198477.000000 0 0 1
-36.227799 -23.940482 26.195881 50.713157 0.583952 1.027979 0.055696 -0.012468 84505.900000 0 0 1
-35.886199 -25.460582 25.881381 51.048080 0.617061 1.039096 0.056021 -0.012554 346446.000000 0 0 1
36.798795 -26.161482 26.066531 52.134811 -0.618026 1.047217 0.062966 -0.012561 315473.000000 0 0 1
36.869795 -27.505282 25.720941 52.701889 -0.640943 1.060947 0.062228 -0.008550 363911.000000 0 0 1
-36.219299 -28.471982 26.665911 53.231215 0.666208 1.046106 0.065754 -0.013436 -248749.000000 0 0 1
-35.931399 -29.796182 26.133531 53.496162 0.692325 1.060412 0.071756 -0.012477 1349230.000000 0 0 1
-34.635699 -30.336982 26.506761 53.127888 0.719333 1.048440 0.077681 -0.023658 1992610.000000 0 0 1
-33.347699 -29.589982 25.973521 51.597092 0.725764 1.043277 0.078252 -0.019575 -213765.000000 0 0 1
-33.167699 -29.647082 24.590791 50.830628 0.729409 1.065829 0.081607 -0.013076 -769734.000000 0 0 1
-32.050399 -28.912182 24.282111 49.525380 0.733966 1.058367 0.062088 -0.010454 -638500.000000 0 0 1
-31.517199 -29.169782 22.849371 48.644669 0.746737 1.081823 0.061034 -0.015986 5894.440000 0 0 1
-31.152199 -30.531982 22.612671 49.132416 0.775344 1.092532 0.076248 -0.018936 294695.000000 0 0 1
-30.447199 -30.725382 21.408571 48.263941 0.789946 1.111215 0.068986 -0.018674 -393901.000000 0 0 1
-30.236199 -32.252382 21.171671 49.017176 0.817652 1.124172 0.096666 -0.012610 135376.000000 0 0 1
-29.240099 -32.990082 21.879671 49.214316 0.845585 1.110092 0.096012 -0.026712 1004250.000000 0 0 1
-27.918099 -32.790582 21.320171 48.054055 0.865487 1.111106 0.117172 -0.019754 572253.000000 0 0 1
-27.121699 34.014014 21.219671 48.402626 -0.897662 1.116980 0.108185 -0.017113 -699019.000000 0 0 1
-27.391099 33.110714 20.155971 47.464249 -0.879654 1.132215 0.096990 -0.014090 551917.000000 0 0 1
-28.629699 32.401914 20.305071 47.768605 -0.847127 1.131755 0.108231 -0.014450 530092.000000 0 0 1
-28.654499 31.375414 21.467671 47.606280 -0.830693 1.102976 0.106464 -0.018586 -653972.000000 0 0 1
-27.739399 30.379614 21.203771 46.281693 -0.830795 1.094888 0.090368 -0.015788 -357391.000000 0 0 1
-27.809199 29.385214 22.199571 46.148276 -0.812947 1.068946 0.083608 -0.015937 -378843.000000 0 0 1
-26.938199 28.140214 21.992071 44.734656 -0.807218 1.056857 0.082721 -0.017984 361864.000000 0 0 1
-25.569499 28.543814 22.093471 44.234264 -0.840307 1.047815 0.085461 -0.017773 259171.000000 0 0 1
-24.765999 27.731314 21.283071 42.840981 -0.841823 1.050897 0.074414 -0.014382 -192391.000000 0 0 1
-23.255899 28.015314 21.302071 42.183799 -0.877961 1.041435 0.057988 -0.006391 -233316.000000 0 0 1
-22.570399 27.768314 22.499071 42.269497 -0.888292 1.009509 0.061767 -0.010485 619125.000000 0 0 1
-21.343499 28.502814 22.564471 42.155791 -0.928050 1.005976 0.079362 -0.016914 252651.000000 0 0 1
-20.836299 28.500314 23.987981 42.683047 -0.939508 0.973991 0.065504 -0.013106 -521535.000000 0 0 1
-20.452099 27.181414 24.462781 41.899228 -0.925742 0.947336 0.069674 -0.027732 421000.000000 0 0 1
-20.282999 27.121714 25.874121 42.619920 -0.928672 0.918403 0.080997 -0.026419 -4140.300000 0 0 1
-18.910999 27.597014 26.403701 42.618969 -0.970035 0.902653 0.088909 -0.022427 -450586.000000 0 0 1
-18.726699 28.998714 26.466801 43.498348 -0.997396 0.916684 0.059751 -0.020954 419043.000000 0 0 1
-17.437799 29.451214 26.871161 43.514482 -1.036213 0.905208 0.057246 -0.019432 221114.000000 0 0 1
-17.303099 29.627314 28.410041 44.545543 -1.042206 0.879190 0.032898 -0.013422 -414557.000000 0 0 1
-17.086399 28.389814 29.027191 44.051157 -1.029018 0.851384 0.047471 -0.012301 200212.000000 0 0 1
-17.423599 28.522014 30.394891 45.176725 -1.022413 0.832810 0.045867 -0.008993 -109281.000000 0 0 1
-17.166499 27.282714 31.241951 44.889806 -1.009177 0.801027 0.053144 -0.011362 1424230.000000 0 0 1
-15.754899 27.169914 31.605741 44.557199 -1.045313 0.782250 0.051715 -0.006513 1515450.000000 0 0 1
-15.518599 26.057314 32.491367 44.446591 -1.033651 0.750980 0.071689 -0.006764 -218615.000000 0 0 1
-15.960599 26.046514 33.978235 45.691160 -1.021038 0.732283 0.068749 -0.006482 1043640.000000 0 0 1
-17.397699 25.911014 -33.964549 46.126469 -0.979496 2.398434 0.068742 -0.012580 884522.000000 0 0 1
-17.961499 26.536414 -32.845889 45.887353 -0.975768 2.368557 0.067076 -0.014270 1217140.000000 0 0 1
-19.395999 25.959214 -32.509039 45.901233 -0.929108 2.357797 0.043683 -0.011203 1421840.000000 0 0 1
-20.455299 26.250114 -33.416109 47.160620 -0.908839 2.358251 0.041821 -0.009902 244564.000000 0 0 1
-21.739899 25.891214 -32.973759 47.225491 -0.872334 2.343704 0.067499 -0.018929 -254384.000000 0 0 1
-22.766599 25.839514 33.953232 48.361353 -0.848535 0.792491 0.066305 -0.030995 -565546.000000 0 0 1
-22.731199 24.847014 32.912183 47.088144 -0.829839 0.796870 0.079765 -0.022955 -103747.000000 0 0 1
-22.973999 23.512914 33.371034 46.843225 -0.796990 0.777887 0.082835 -0.028357 -228654.000000 0 0 1
-23.557299 22.688314 32.139485 45.854688 -0.766610 0.794140 0.086725 -0.030933 -112838.000000 0 0 1
-24.925799 22.960214 31.992631 46.604671 -0.744374 0.814175 0.080763 -0.033392 -458256.000000 0 0 1
-25.361499 22.588214 30.698101 45.779979 -0.727625 0.835837 0.102133 -0.032168 126620.000000 0 0 1
-26.802499 22.080814 30.499801 46.218764 -0.689106 0.850110 0.074846 -0.022725 -32981.400000 0 0 1
-27.109499 20.774914 30.957391 46.096443 -0.653873 0.834459 0.088259 -0.031152 -883303.000000 0 0 1
-28.283999 20.387414 30.359581 46.231325 -0.624557 0.854377 0.068325 -0.023188 -1093620.000000 0 0 1
-28.706199 19.019914 30.803251 46.202200 -0.585162 0.841017 0.095095 -0.028262 -618961.000000 0 0 1
-29.311999 18.974314 32.084789 47.419949 -0.574491 0.827648 0.097058 -0.028357 -49081.700000 0 0 1
-29.385599 17.657614 32.599138 47.307595 -0.541076 0.810565 0.084747 -0.015060 -61201.100000 0 0 1
-30.295899 16.685814 31.821091 46.998295 -0.503428 0.827024 0.065568 -0.020171 -854126.000000 0 0 1
-31.646699 17.028514 31.889171 48.045844 -0.493647 0.845010 0.071179 -0.021761 -105048.000000 0 0 1
-32.485099 15.932214 31.423861 47.922606 -0.455976 0.855659 0.080251 -0.019433 -229067.000000 0 0 1
-33.971899 16.223314 31.388441 49.015509 -0.445528 0.875806 0.058562 -0.007714 -1039700.000000 0 0 1
-34.465399 16.340614 32.674261 50.224364 -0.442727 0.862467 0.072643 -0.009561 1360370.000000 0 0 1
-35.829199 16.860114 32.622944 51.305472 -0.439827 0.881678 0.069478 -0.010401 1348590.000000 0 0 1
-36.482099 17.119414 33.987732 52.717965 -0.438751 0.870154 0.075233 0.001580 -928300.000000 0 0 1
36.047495 17.311914 33.972582 52.471522 0.447726 0.866565 0.058016 0.001601 -807211.000000 0 0 1
35.543095 17.627514 -32.784789 51.467302 0.460400 2.261400 0.045109 -0.001534 -569226.000000 0 0 1
34.040195 17.710814 -32.636009 50.373772 0.479749 2.275590 0.040707 0.001545 -604032.000000 0 0 1
33.439395 16.432214 -32.765789 49.616607 0.456746 2.292120 0.041686 0.008365 810025.000000 0 0 1
32.070595 16.478914 -32.298829 48.407561 0.474652 2.301276 0.040828 0.011653 983650.000000 0 0 1
31.400895 15.077714 -32.426689 47.590375 0.447657 2.320430 0.033012 0.007661 -46921.700000 0 0 1
31.017695 14.798714 -33.768879 48.181288 0.445165 2.347415 0.041863 0.001135 -14835.200000 0 0 1
30.384195 13.561714 34.020671 47.587030 0.419807 0.774294 0.037067 -0.002400 -376507.000000 0 0 1
31.311295 12.349614 -34.023803 47.859474 0.375682 2.361588 0.040301 -0.008181 -392248.000000 0 0 1
31.894195 12.129214 -32.798609 47.329760 0.363405 2.336412 0.046251 0.004520 -43705.500000 0 0 1
32.864495 11.098914 -32.893069 47.803921 0.325691 2.329640 0.062781 -0.005283 -98005.500000 0 0 1
17.781395 -20.929086 10.230941 29.306600 -0.866533 1.214186 0.057844 -0.030023 -246033.000000 0 0 1
17.576795 -22.222386 10.739641 30.300463 -0.901598 1.208483 0.066574 -0.029066 1067030.000000 0 0 1
18.791895 -22.925186 11.152241 31.671311 -0.884155 1.210956 0.048603 -0.023435 632000.000000 0 0 1
18.587195 -24.324286 11.778341 32.800671 -0.918306 1.203505 0.056338 -0.029096 -460507.000000 0 0 1
18.027695 -25.351966 11.023541 33.003612 -0.952662 1.230241 0.062952 -0.025853 772528.000000 0 0 1
16.607495 -25.382316 11.263841 32.356529 -0.991408 1.215235 0.083202 -0.024197 588539.000000 0 0 1
15.795095 -26.258846 10.305341 32.329739 -1.029263 1.246378 0.094735 -0.028462 -115164.000000 0 0 1
15.830095 -25.917796 8.961641 31.664413 -1.022487 1.283856 0.086384 -0.032780 -383044.000000 0 0 1
14.896695 -26.645796 8.240541 31.619874 -1.061021 1.307140 0.089578 -0.024234 -515497.000000 0 0 1
14.540495 -26.014526 6.922741 30.595847 -1.061117 1.342556 0.082827 -0.024081 -148250.000000 0 0 1
13.683895 -24.889286 6.994941 29.251576 -1.068114 1.329326 0.084708 -0.027968 89640.500000 0 0 1
13.470195 -24.267186 5.733541 28.341064 -1.064062 1.367085 0.080946 -0.010974 -39608.900000 0 0 1
12.753595 -22.943086 6.032741 26.933869 -1.063450 1.344896 0.095752 -0.016095 -419061.000000 0 0 1
12.136595 -22.386986 4.929941 25.937972 -1.074018 1.379566 0.091463 -0.010866 -268343.000000 0 0 1
11.605995 -21.147286 5.267841 24.691232 -1.068862 1.355795 0.098399 -0.013230 182574.000000 0 1 0
10.642095 -20.486886 4.213441 23.467419 -1.091703 1.390273 0.075703 -0.017055 112150.000000 0 1 0
11.323395 -20.062286 3.085041 23.242892 -1.056956 1.437673 0.061052 -0.009903 203953.000000 0 1 0
10.416995 -19.569586 2.093941 22.268072 -1.081640 1.476624 0.049343 -0.000335 406469.000000 0 1 0
11.214695 -19.220686 0.789041 22.267167 -1.042620 1.535354 0.052238 0.004298 672801.000000 0 1 0
12.062995 -18.085586 0.959041 21.760607 -0.982566 1.526710 0.049304 0.002975 228800.000000 0 1 0
12.621595 -17.632586 -0.305559 21.686542 -0.949538 1.584887 0.054560 -0.006318 -407261.000000 0 1 0
13.790595 -16.669786 -0.059659 21.634829 -0.879641 1.573554 0.052269 -0.005428 -81336.100000 0 1 0
14.890095 -17.412186 0.458141 22.915257 -0.863318 1.550802 0.065090 -0.007212 581255.000000 0 1 0
16.120495 -16.715686 0.224341 23.223583 -0.803522 1.561136 0.070898 -0.016692 1694530.000000 0 1 0
17.445695 -17.253186 0.921941 24.553506 -0.779850 1.533239 0.070344 -0.017263 1100260.000000 0 1 0
17.946895 -18.486986 0.363241 25.768035 -0.800221 1.556699 0.064927 -0.016808 -317657.000000 0 0 1
18.960795 -18.945586 1.181541 26.829890 -0.784997 1.526744 0.064292 -0.009447 -179985.000000 0 0 1
19.587695 -20.313386 0.808641 28.230574 -0.803583 1.542148 0.044073 -0.012948 330581.000000 0 0 1
18.797595 -21.350786 1.368741 28.479450 -0.848907 1.522717 0.050280 -0.007161 260065.000000 0 0 1
18.899695 -22.483086 0.473541 29.375361 -0.871774 1.554675 0.054790 -0.009692 101217.000000 0 0 1
17.709995 -23.470186 0.610141 29.408601 -0.924374 1.550048 0.055581 -0.005065 74658.000000 0 0 1
17.656695 -24.108486 1.849641 29.939925 -0.938664 1.508979 0.044955 -0.007883 -224630.000000 0 0 1
16.532595 -24.937686 2.028541 29.988828 -0.985367 1.503101 0.041469 -0.005061 -551833.000000 0 0 1
16.666095 -25.831016 3.285841 30.915964 -0.997805 1.464312 0.045319 -0.009709 780621.000000 0 0 1
17.766795 -26.771326 3.321741 32.301654 -0.984885 1.467779 0.060094 -0.016282 1124950.000000 0 0 1
18.976395 -26.111196 3.761641 32.496893 -0.942340 1.454782 0.053611 -0.010534 -33624.700000 0 0 1
20.140295 -27.102906 3.821541 33.982395 -0.931723 1.458101 0.050422 -0.011496 -499001.000000 0 0 1
20.772695 -27.434356 2.624341 34.511388 -0.922717 1.494680 0.057360 -0.008897 -387930.000000 0 0 1
21.883795 -28.272856 2.760741 35.859121 -0.912098 1.493732 0.054089 -0.007532 -651103.000000 0 0 1
21.579295 -29.759386 2.875141 36.872123 -0.943406 1.492741 0.057599 -0.009104 -409417.000000 0 0 1
20.942595 -30.084756 4.084441 36.883159 -0.962679 1.459829 0.066649 -0.021602 3141.060000 0 0 1
20.458295 -31.415926 4.141441 37.718082 -0.993573 1.460775 0.057177 -0.024388 -125616.000000 0 0 1
19.941995 -31.840096 5.499541 37.969985 -1.011250 1.425446 0.074865 -0.029586 -543120.000000 0 0 1
20.891195 -32.379946 6.368641 39.057169 -0.997810 1.407005 0.050352 -0.034853 -208998.000000 0 0 1
20.301195 -32.927086 7.514241 39.405524 -1.018297 1.378931 0.059125 -0.035596 325206.000000 0 0 1
21.299195 -33.815206 8.341141 40.825218 -1.008702 1.365034 0.048361 -0.035253 1182290.000000 0 0 1
22.471995 -33.142916 8.864441 41.012458 -0.974966 1.352937 0.044562 -0.035360 1236250.000000 0 0 1
23.441195 33.973554 9.277341 42.305568 0.966824 1.349706 0.059859 -0.042867 266817.000000 0 0 1
24.603095 -33.503506 10.072941 42.769864 -0.937391 1.333048 0.064442 -0.036105 -513197.000000 0 0 1
25.370695 -32.666066 9.260841 42.385223 -0.910445 1.350527 0.052540 -0.030311 -521912.000000 0 0 1
26.344995 -32.075136 10.070741 42.711742 -0.883170 1.332771 0.048300 -0.020797 -90270.300000 0 0 1
27.134595 -30.934046 9.363041 42.200331 -0.850735 1.347063 0.045341 -0.026404 213791.000000 0 0 1
26.367295 -29.728726 9.235141 40.796068 -0.845249 1.342444 0.028820 -0.024333 121631.000000 0 0 1
26.828195 -28.874836 8.207941 40.260135 -0.822124 1.365484 0.032649 -0.024582 -26465.100000 0 0 1
26.301795 -27.416576 8.331341 38.895556 -0.806148 1.354926 0.027456 -0.017618 146538.000000 0 0 1
26.975495 -26.724876 9.415341 39.122180 -0.780731 1.327745 0.034378 -0.024219 241004.000000 0 0 1
26.652795 -25.386996 9.461641 38.005179 -0.761079 1.319194 0.034507 -0.022833 -400046.000000 0 0 1
27.450195 -24.675086 10.566341 38.392976 -0.732209 1.291982 0.034035 -0.025250 372389.000000 0 0 1
28.833895 -24.545786 10.267341 39.234008 -0.705238 1.306018 0.044801 -0.025451 -292628.000000 0 0 1
29.500395 -23.791986 11.235641 39.529375 -0.678690 1.282588 0.050024 -0.032095 425349.000000 0 0 1
30.952895 -23.572586 10.689841 40.348745 -0.650861 1.302659 0.056468 -0.030288 522513.000000 0 0 1
30.989595 -22.656786 9.605341 39.572054 -0.631301 1.325617 0.053886 -0.022958 281322.000000 0 0 1
32.298795 -22.574586 9.042041 40.429971 -0.610007 1.345242 0.059481 -0.025257 669624.000000 0 0 1
32.221095 -22.083486 7.585941 39.792283 -0.600842 1.378984 0.066137 -0.003821 -249176.000000 0 0 1
31.851995 -20.735586 7.424241 38.725101 -0.577076 1.377886 0.069894 0.007927 -229035.000000 0 0 1
32.432195 -20.140186 6.320941 38.696623 -0.555713 1.406715 0.073816 0.003805 -293688.000000 0 0 1
32.150095 -18.675686 6.083441 37.675165 -0.526250 1.408615 0.094449 0.000967 -29740.100000 0 0 1
32.609695 -17.953686 7.177841 37.911059 -0.503275 1.380313 0.087709 -0.002499 -34271.200000 0 0 1
32.285395 -16.595886 7.081741 36.985419 -0.474814 1.378133 0.094207 -0.004826 -256375.000000 0 0 1
32.759995 -15.664286 8.177041 37.221648 -0.446018 1.349305 0.096438 -0.031699 -145614.000000 0 0 1
34.160595 -15.612786 8.309941 38.467654 -0.428694 1.353056 0.084054 -0.021691 -335040.000000 0 0 1
34.383595 -15.196786 9.607341 38.800450 -0.416163 1.320585 0.077107 -0.030848 646880.000000 0 0 1
35.902295 -15.270486 9.983241 40.271921 -0.402154 1.320289 0.060989 -0.032387 801391.000000 0 0 1
36.691095 -14.249286 9.366941 40.460081 -0.370430 1.337166 0.080917 -0.015019 -1001270.000000 0 0 1
-35.909599 -14.687486 9.272441 39.889845 0.388252 1.336199 0.067648 -0.024243 -991981.000000 0 0 1
-35.016599 -13.784986 8.421941 38.563158 0.375038 1.350628 0.079526 -0.025102 -335254.000000 0 0 1
-35.429099 -13.665386 7.092741 38.629921 0.368128 1.386141 0.104421 -0.031560 23342.300000 0 0 1
-34.493699 -13.010386 6.259941 37.393479 0.360682 1.402597 0.098260 -0.027321 257794.000000 0 0 1
-33.369999 -13.870286 5.614941 36.571426 0.393926 1.416653 0.072216 -0.016774 694837.000000 0 0 1
-32.419499 -14.417586 6.572641 36.084489 0.418454 1.387628 0.078734 -0.019367 190624.000000 0 0 1
-31.534499 -15.243386 5.912841 35.521080 0.450270 1.403558 0.064218 -0.007151 -477336.000000 0 0 1
-30.771599 -16.124186 6.919441 35.422582 0.482659 1.374192 0.053547 -0.019551 -198693.000000 0 0 1
-31.620999 -17.016586 7.602241 36.704848 0.493694 1.362168 0.065901 -0.027452 -52871.500000 0 0 1
-31.376499 -16.926086 8.999641 36.769153 0.494708 1.323524 0.038027 -0.024030 -182216.000000 0 0 1
-32.432799 -17.616386 9.878741 38.207500 0.497581 1.309270 0.015601 -0.025539 -1480710.000000 0 0 1
-33.645999 -16.945086 9.915241 38.955118 0.466546 1.313435 0.034088 -0.019801 -339729.000000 0 0 1
-34.627799 -17.574986 10.739441 40.290200 0.469661 1.300982 0.049981 -0.031086 158584.000000 0 0 1
-35.212899 -18.936786 10.357441 41.301655 0.493413 1.317315 0.059407 -0.030655 -988328.000000 0 0 1
-34.339899 -20.049286 10.498041 41.126772 0.528458 1.312679 0.059529 -0.028914 -352047.000000 0 0 1
-34.094799 -20.430586 11.876741 41.483987 0.539852 1.280436 0.060214 -0.042116 360520.000000 0 0 1
-35.324499 -20.875486 12.807841 42.984264 0.533748 1.268235 0.074616 -0.048601 716834.000000 0 0 1
-35.661999 -22.180386 12.536141 43.828102 0.556411 1.280715 0.085567 -0.047689 -206642.000000 0 0 1
-36.715699 -22.351186 11.634641 44.530697 0.546839 1.306456 0.081491 -0.043443 -645653.000000 0 0 1
36.877995 -23.811886 11.432641 45.361853 -0.573342 1.316017 0.082626 -0.037281 -51127.700000 0 0 1
36.442295 -24.376086 12.689541 45.642731 -0.589544 1.289065 0.119621 -0.034596 117576.000000 0 0 1
35.679295 -25.530906 12.562041 45.635996 -0.621097 1.291930 0.090989 -0.026745 -909274.000000 0 0 1
34.570495 -25.693126 13.563841 45.157874 -0.639141 1.265721 0.102072 -0.035206 -928750.000000 0 0 1
33.567395 -24.751386 13.296441 43.774381 -0.635365 1.262171 0.100601 -0.041193 -965576.000000 0 0 1
32.679295 -24.694986 14.343941 43.399623 -0.647124 1.233954 0.089734 -0.021813 -1032980.000000 0 0 1
32.623195 -23.266686 14.992141 42.782891 -0.619527 1.212773 0.107939 -0.032529 -505874.000000 0 0 1
33.685195 -22.835986 15.782741 43.649393 -0.595755 1.200834 0.109005 -0.037939 -279746.000000 0 0 1
34.718295 -22.244286 14.997241 43.875796 -0.569815 1.221953 0.102082 -0.039060 690887.000000 0 0 1
35.971995 -21.751286 15.814941 44.913419 -0.543848 1.210960 0.098197 -0.043870 414713.000000 0 0 1
35.927295 -20.524486 16.508541 44.548366 -0.519033 1.191168 0.082501 -0.031854 -173759.000000 0 0 1
34.897495 -20.349286 17.447741 44.004003 -0.527912 1.163091 0.085253 -0.029465 -215724.000000 0 0 1
34.793295 -18.952786 17.992541 43.514515 -0.498784 1.144520 0.065273 -0.018223 -311152.000000 0 0 1
34.463395 -17.968886 17.003941 42.423348 -0.480613 1.158389 0.052690 -0.022522 98534.700000 0 0 1
34.318795 -16.652086 17.560241 41.993258 -0.451752 1.139369 0.034287 -0.013760 -455524.000000 0 0 1
35.551095 -15.901486 18.075741 42.935650 -0.420594 1.136253 0.027804 -0.013450 -69042.300000 0 0 1
36.186295 -16.454286 19.271741 44.176820 -0.426764 1.119379 0.025280 -0.008962 730822.000000 0 0 1
-36.612299 -15.596486 19.593941 44.358013 0.402709 1.113278 0.015767 -0.006351 388894.000000 0 0 1
-36.283099 -15.495886 21.106841 44.744659 0.403633 1.079559 0.014643 -0.003849 118094.000000 0 0 1
-35.502799 -16.608586 21.592441 44.749608 0.437566 1.067270 0.031529 -0.004507 458068.000000 0 0 1
-35.150699 -16.488786 22.955541 45.104419 0.438614 1.036841 0.037917 -0.011360 17339.400000 0 0 1
-34.202199 -17.606086 23.425641 45.039154 0.475389 1.023808 0.045592 -0.008008 -640223.000000 0 0 1
-34.798299 -18.886986 23.454341 46.018974 0.497265 1.035999 0.039923 -0.012636 301509.000000 0 0 1
-34.013899 -19.970886 23.953541 46.147088 0.530909 1.025034 0.038981 -0.007358 147892.000000 0 0 1
-32.837999 -20.567286 23.094941 45.107912 0.559552 1.033293 0.035530 -0.002438 592532.000000 0 0 1
-31.766699 -19.643586 22.950341 43.837333 0.553818 1.019803 0.038349 0.001674 222760.000000 0 0 1
-30.620699 -20.348686 22.522741 43.115776 0.586529 1.021159 0.048180 0.005071 206497.000000 0 0 1
-29.306899 -19.541786 22.333141 41.707852 0.588094 1.005737 0.062712 0.003688 369096.000000 0 0 1
-28.814499 -19.131586 23.619041 41.882598 0.586124 0.971654 0.051317 -0.001509 172302.000000 0 0 1
-27.643499 -18.356786 23.467041 40.642793 0.586192 0.955259 0.087009 -0.009015 -136473.000000 0 0 1
-27.168799 -17.662986 24.766441 40.786043 0.576460 0.918229 0.077073 -0.020019 -1104320.000000 0 0 1
-26.083099 -16.810386 24.533741 39.557826 0.572494 0.901799 0.074019 -0.021131 15903.700000 0 0 1
-25.620099 -16.345686 25.810641 39.871796 0.567895 0.866706 0.055922 -0.024939 725937.000000 0 0 1
-24.478799 -17.177686 26.525341 39.973469 0.611891 0.845211 0.049330 -0.018186 -180530.000000 0 0 1
-24.910699 -18.355686 27.098141 41.131295 0.635038 0.851546 0.055349 -0.016850 -531446.000000 0 0 1
-23.988699 -18.971786 27.946741 41.429539 0.669145 0.830427 0.049230 -0.015887 -630413.000000 0 0 1
-24.475599 -20.344686 28.503941 42.725120 0.693492 0.840424 0.048647 -0.008322 169447.000000 0 0 1
-25.508499 -20.075686 29.459541 43.835845 0.666776 0.833833 0.042351 -0.015404 280777.000000 0 0 1
-25.899799 -21.339886 30.030741 45.033718 0.689169 0.840822 0.042835 -0.009753 255773.000000 0 0 1
-27.089899 -21.249486 31.050741 46.363259 0.665160 0.836955 0.044625 -0.011064 -50204.000000 0 0 1
-26.803899 -20.485786 32.225141 46.653790 0.652580 0.808299 0.055711 -0.022647 537315.000000 0 0 1
-27.867099 -20.340586 33.176441 47.864297 0.630522 0.804966 0.068965 -0.024045 855380.000000 0 0 1
-29.162399 -19.515586 32.852441 48.068561 0.589757 0.818319 0.048927 -0.026755 649664.000000 0 0 1
-30.023799 -20.015486 31.810841 48.103823 0.587994 0.848252 0.061763 -0.030861 -521862.000000 0 0 1
-31.242899 -19.413286 32.025341 48.771066 0.555982 0.854433 0.079237 -0.041641 -1044020.000000 0 0 1
-32.328999 -19.964186 31.061541 49.077003 0.553211 0.885485 0.070938 -0.018153 -129129.000000 0 0 1
-32.507599 -19.324386 29.818641 48.159394 0.536334 0.903117 0.064656 -0.035330 820142.000000 0 0 1
-33.573599 -19.955586 29.072941 48.689299 0.536279 0.930901 0.062628 -0.036120 652605.000000 0 0 1
-34.055999 -19.148786 27.822241 47.964197 0.512217 0.951991 0.061986 -0.030810 231705.000000 0 0 1
-35.336999 -19.569086 27.397241 48.808416 0.505744 0.974814 0.044915 -0.028126 427831.000000 0 0 1
-36.010599 -18.597686 26.588141 48.472326 0.476721 0.990201 0.040009 -0.023090 159677.000000 0 0 1
36.660195 -19.135986 25.841041 48.763872 -0.481079 1.012288 0.031602 -0.021445 247328.000000 0 0 1
35.494395 -19.468086 26.593941 48.436517 -0.501678 0.989572 0.041688 -0.023178 207998.000000 0 0 1
34.447395 -19.793686 25.717441 47.326523 -0.521538 0.996309 0.067098 -0.024456 -375853.000000 0 0 1
33.132895 -20.057186 26.475141 46.914950 -0.544348 0.971184 0.061393 -0.028427 61796.200000 0 0 1
32.543695 -18.833086 27.014941 46.298858 -0.524612 0.947776 0.052404 -0.037260 847832.000000 0 0 1
31.387595 -19.088886 27.810441 46.075886 -0.546403 0.922814 0.050880 -0.024394 130897.000000 0 0 1
-29.897105 -5.282986 -33.889629 45.500041 0.174900 2.411071 0.032886 -0.005223 81704.300000 0 0 1
-30.872395 -5.385386 33.147519 45.616501 0.172702 0.757354 0.034465 -0.001406 233382.000000 0 0 1
-30.729835 -4.403586 32.103335 44.658017 0.142331 0.768620 0.046920 -0.005601 -503753.000000 0 0 1
-31.590085 -4.519986 30.866841 44.397361 0.142118 0.802042 0.044651 -0.016047 -355069.000000 0 0 1
-31.109595 -5.551486 30.010551 43.580490 0.176590 0.811207 0.038431 -0.013133 225486.000000 0 0 1
-29.873165 -5.245486 29.388531 42.232770 0.173820 0.801165 0.042609 -0.016283 142457.000000 0 0 1
-29.578515 -6.141486 28.171911 41.306936 0.204724 0.820283 0.041425 -0.023375 459791.000000 0 0 1
-30.550385 -5.970586 27.134941 41.295023 0.193001 0.853832 0.051245 -0.024960 285579.000000 0 0 1
-30.106455 -6.733786 26.006451 40.349449 0.220044 0.870387 0.065671 -0.020746 333756.000000 0 0 1
-30.860955 -6.470286 24.663741 40.032028 0.206666 0.907014 0.078559 -0.022010 77006.900000 0 0 1
-30.488455 -5.183786 24.230721 39.287980 0.168414 0.906194 0.103732 -0.025825 -286811.000000 0 0 1
-31.055515 -4.804286 23.010471 38.948786 0.153483 0.938761 0.104605 -0.022710 -197515.000000 0 0 1
-30.356315 -3.589586 22.381871 37.885870 0.117702 0.938782 0.110736 -0.021630 660095.000000 0 0 1
-28.983095 -3.746086 22.036271 36.601232 0.128538 0.924713 0.127088 -0.022627 334164.000000 0 0 1
-28.485665 -2.652786 21.322571 35.680841 0.092859 0.930302 0.144806 -0.021907 790773.000000 0 0 1
-27.069805 -2.813086 20.649171 34.162495 0.103548 0.921734 0.147824 -0.020886 778557.000000 0 0 1
-26.958635 -3.724586 19.587771 33.530901 0.137290 0.946938 0.166708 -0.021814 -237907.000000 0 0 1
-25.814855 -3.448786 18.818371 32.131479 0.132811 0.945093 0.140338 -0.018596 -123976.000000 0 0 1
-25.665655 -4.251086 17.571771 31.393705 0.164143 0.976745 0.142460 -0.021422 1573330.000000 0 0 1
-26.851405 -4.058686 16.700871 31.880872 0.150018 1.019429 0.139886 -0.019574 1605510.000000 0 0 1
-26.577475 -4.487386 15.372771 31.029356 0.167264 1.052470 0.152733 -0.033256 237543.000000 0 0 1
-27.832035 -4.443686 14.450871 31.673273 0.158325 1.097022 0.163934 -0.034435 242091.000000 0 0 1
-28.233445 -3.145586 14.066671 31.700053 0.110956 1.111025 0.159453 -0.036583 631396.000000 0 0 1
-29.527355 -3.249486 13.457171 32.611644 0.109609 1.145436 0.141575 -0.033028 491655.000000 0 0 1
-29.994045 -1.977586 12.760871 32.655680 0.065837 1.169328 0.125663 -0.019428 -87624.200000 0 0 1
-29.270535 -1.766986 11.525871 31.507653 0.060294 1.196291 0.156132 -0.026073 529637.000000 0 0 1
-29.645645 -0.600586 10.784071 31.551881 0.020256 1.221977 0.155617 -0.024654 -234708.000000 0 0 1
-31.038165 -0.627486 10.119971 32.652339 0.020214 1.255676 0.144914 -0.023571 -5063.600000 0 0 1
-30.980745 -1.313486 8.867671 32.251626 0.042371 1.292256 0.125917 -0.028010 238680.000000 0 0 1
-32.208385 -1.317186 8.134971 33.245944 0.040873 1.323596 0.111527 -0.029144 -7579.970000 0 0 1
-32.230585 -1.925686 6.702771 32.976447 0.059676 1.366111 0.117877 -0.032434 -562067.000000 0 0 1
-31.694555 -1.191086 5.633671 32.213379 0.037562 1.395006 0.129268 -0.040665 21187.100000 0 0 1
-32.532075 -0.205686 5.108871 32.931426 0.006322 1.415031 0.118401 -0.035738 -516765.000000 0 0 1
-32.031535 0.390114 3.794371 32.257847 -0.012178 1.452897 0.146014 -0.038736 -385507.000000 0 0 1
-32.335835 -0.428286 2.701971 32.451353 0.013244 1.487438 0.137958 -0.052704 398385.000000 0 0 1
-31.916285 0.124014 1.462971 31.950038 -0.003886 1.524991 0.145069 -0.050580 -512181.000000 0 0 1
-32.554625 -0.652986 0.259971 32.562211 0.020055 1.562812 0.132309 -0.048513 338232.000000 0 0 1
-33.975155 -0.630986 0.221071 33.981733 0.018570 1.564291 0.120227 -0.040352 224914.000000 0 0 1
-34.456256 -1.193286 -0.962729 34.490352 0.034618 1.598713 0.116481 -0.040717 723980.000000 0 0 1
-36.027280 -1.228086 -1.027129 36.062836 0.034074 1.599282 0.118401 -0.036531 716895.000000 0 0 1
-36.623735 -2.153086 -0.115229 36.687151 0.058722 1.573937 0.122596 -0.030662 173283.000000 0 0 1
35.888159 -1.904086 -0.053929 35.938675 -0.053006 1.572297 0.130706 -0.028848 181405.000000 0 0 1
35.029069 -3.055586 0.560471 35.166552 -0.087010 1.554858 0.148965 -0.033323 -162088.000000 0 0 1
35.167499 -3.211986 1.943971 35.367341 -0.091081 1.515803 0.123537 -0.030228 107079.000000 0 0 1
34.273279 -4.218186 2.343271 34.611293 -0.122459 1.503042 0.129725 -0.023399 -6066.390000 0 0 1
34.383149 -4.458086 3.862871 34.885487 -0.128940 1.459839 0.112460 -0.026915 110585.000000 0 0 1
33.844479 -3.367186 4.547771 34.314267 -0.099164 1.437872 0.121509 -0.038347 112580.000000 0 0 1
33.975859 -3.553986 5.925271 34.671294 -0.104224 1.399055 0.111210 -0.043048 -95012.400000 0 0 1
33.379909 -2.396886 6.732571 34.136357 -0.071683 1.372269 0.120982 -0.042025 1198960.000000 0 0 1
31.945319 -2.504086 6.928271 32.783758 -0.078227 1.357858 0.131036 -0.049120 1157830.000000 0 0 1
31.443419 -1.292386 7.415971 32.331957 -0.041079 1.339366 0.129066 -0.047782 -170930.000000 0 0 1
29.947399 -1.370686 7.776271 30.970887 -0.045738 1.316997 0.127633 -0.048369 -67572.200000 0 0 1
29.040209 -1.301286 6.650971 29.820504 -0.044780 1.345871 0.143281 -0.049452 1461000.000000 0 0 1
27.673389 -1.174086 7.091771 28.591749 -0.042401 1.320144 0.134145 -0.044472 504664.000000 0 0 1
26.904189 -2.477886 7.223771 27.967090 -0.091841 1.309539 0.160136 -0.057479 -809026.000000 0 0 1
27.388189 -3.398286 8.162171 28.779893 -0.123448 1.283243 0.143737 -0.061153 739954.000000 0 0 1
26.595889 -4.582286 7.991171 28.146002 -0.170618 1.282918 0.161681 -0.064998 20258.000000 0 0 1
26.703289 -5.539386 9.131471 28.759940 -0.204541 1.247697 0.159840 -0.057293 -69782.300000 0 0 1
26.049289 -5.307986 10.401171 28.546883 -0.201015 1.197857 0.167899 -0.053190 457788.000000 0 0 1
26.421289 -6.286886 11.297071 29.414847 -0.233604 1.176607 0.153266 -0.045675 -284921.000000 0 0 1
25.441389 -6.477686 12.473971 29.065867 -0.249315 1.127231 0.147377 -0.032256 -467493.000000 0 0 1
24.241289 -7.031286 12.050771 27.969629 -0.282307 1.125360 0.167477 -0.036617 -1197570.000000 0 0 1
23.186689 -6.706686 12.889171 27.362984 -0.281563 1.080322 0.167090 -0.036074 -519925.000000 0 0 1
22.163489 -7.841186 12.840671 26.787819 -0.340046 1.070885 0.144324 -0.032394 -570718.000000 0 0 1
22.580989 -8.935586 13.551171 27.809710 -0.376805 1.061822 0.141710 -0.029528 132026.000000 0 0 1
21.647989 -10.012086 13.682871 27.497240 -0.433196 1.049956 0.167257 -0.044722 -7411.950000 0 0 1
22.044289 -11.103186 14.731471 28.744523 -0.466584 1.032707 0.153262 -0.039986 -256773.000000 0 0 1
21.882789 -10.740986 16.063971 29.193773 -0.456294 0.988129 0.129017 -0.030100 250467.000000 0 0 1
22.206689 -11.802186 16.962071 30.333817 -0.488505 0.977400 0.118147 -0.031760 -1583.570000 0 0 1
22.029489 -11.503686 18.492871 30.977725 -0.481245 0.931073 0.122645 -0.027059 211260.000000 0 0 1
20.652689 -11.633186 18.827671 30.271203 -0.512980 0.899545 0.101649 -0.027411 56510.900000 0 0 1
20.390289 -11.882386 20.215971 31.074756 -0.527637 0.862476 0.101340 -0.023367 125441.000000 0 0 1
20.820989 -10.880086 21.308971 31.716905 -0.481527 0.834094 0.095553 -0.023629 18416.100000 0 0 1
20.062289 -9.651286 21.422071 30.895758 -0.448386 0.804646 0.092381 -0.027449 157299.000000 0 0 1
20.306989 -8.650186 20.419571 30.069226 -0.402693 0.824280 0.098228 -0.020980 -1381700.000000 0 0 1
21.237889 -7.499986 20.919071 30.739311 -0.339471 0.822308 0.099195 -0.014899 990749.000000 0 0 1
22.594689 -7.920886 21.121471 31.927683 -0.337177 0.847925 0.113448 -0.026532 377390.000000 0 0 1
23.253089 -8.032986 19.911671 31.649797 -0.332624 0.890370 0.131465 -0.037528 -1297030.000000 0 0 1
24.652589 -8.694686 19.924571 32.868468 -0.339068 0.919534 0.155029 -0.034496 297672.000000 0 0 1
24.569989 -10.123386 20.140471 33.343753 -0.390827 0.922254 0.131376 -0.036200 -12284.200000 0 0 1
25.793789 -10.776886 19.869171 34.296425 -0.395764 0.952882 0.129512 -0.040851 164550.000000 0 0 1
25.773789 -12.232086 20.382271 35.062074 -0.443117 0.950447 0.113067 -0.034769 -88190.500000 0 0 1
24.875089 -12.966286 19.590171 34.215046 -0.480507 0.961171 0.119947 -0.035737 62514.600000 0 0 1
24.964189 -14.425486 19.726871 34.935008 -0.523971 0.970759 0.109875 -0.031316 190432.000000 0 0 1
24.054689 -15.037886 18.619071 33.932814 -0.558710 0.989983 0.102251 -0.025663 -188776.000000 0 0 1
24.531289 -14.810286 17.302071 33.473726 -0.543158 1.027588 0.099333 -0.027853 365896.000000 0 0 1
23.637689 -15.113586 16.222871 32.408985 -0.568877 1.046543 0.064295 -0.021209 -25547.300000 0 0 1
23.072089 -16.536586 16.087471 32.628004 -0.621870 1.055196 0.048876 -0.028641 368223.000000 0 0 1
24.125489 -17.515086 16.008371 33.839110 -0.627963 1.078021 0.078898 -0.030936 693175.000000 0 0 1
23.561889 -18.778086 16.217871 34.216932 -0.672890 1.077000 0.058277 -0.015463 50494.300000 0 0 1
24.656689 -19.870686 16.234271 35.585784 -0.678325 1.097075 0.048740 -0.014042 -1174.680000 0 0 1
25.195089 -20.013186 14.942071 35.476550 -0.671273 1.136049 0.051551 -0.028536 -720319.000000 0 0 1
26.307889 -20.821786 14.954471 36.732655 -0.669515 1.151501 0.045284 -0.024547 -831447.000000 0 0 1
26.908389 -20.845386 13.521571 36.625460 -0.659110 1.192664 0.048511 -0.036749 -143237.000000 0 0 1
26.136689 -21.552486 12.566671 36.132497 -0.689566 1.215579 0.053525 -0.031297 438808.000000 0 0 1
26.694389 -21.329486 11.315771 35.994222 -0.674146 1.250996 0.063702 -0.036629 274798.000000 0 0 1
25.536889 -21.269986 10.264271 34.783620 -0.694490 1.271247 0.036832 -0.024620 442416.000000 0 0 1
25.146289 -22.547886 9.884971 35.191698 -0.730971 1.286076 0.022088 -0.021970 -94322.100000 0 0 1
23.736689 -22.593086 9.750971 34.190047 -0.760719 1.281582 0.018549 -0.017327 131757.000000 0 0 1
23.289289 -23.490086 8.577371 34.172304 -0.789691 1.317079 0.018080 -0.018727 -519711.000000 0 0 1
23.621289 -24.858086 8.559571 35.343400 -0.810904 1.326181 0.011975 -0.010118 -245604.000000 0 0 1
23.233989 -25.564946 7.406371 35.330426 -0.833128 1.359598 0.026097 -0.014713 -322116.000000 0 0 1
21.778989 -26.078906 7.508871 34.796793 -0.875005 1.353293 0.037531 -0.011577 145828.000000 0 0 1
20.806889 -25.045386 7.557871 33.426327 -0.877574 1.342719 0.036630 -0.011628 -872693.000000 0 0 1
19.547489 -25.631706 7.629171 33.125412 -0.919261 1.338398 0.065825 -0.022438 34912.600000 0 0 1
18.343189 -24.635686 7.723671 31.670880 -0.930774 1.324439 0.071878 -0.029214 172767.000000 0 0 1
18.116289 -23.913286 6.513371 30.699660 -0.922460 1.357007 0.072794 -0.017885 -71966.600000 0 0 1
17.252589 -22.830986 6.746271 29.400984 -0.923679 1.339276 0.077951 -0.014645 -271152.000000 0 0 1
17.002689 -22.162886 5.374871 28.445987 -0.916397 1.380703 0.077089 -0.002055 -629782.000000 0 0 1
16.036489 -21.179886 5.525271 27.134575 -0.922731 1.365738 0.097663 -0.005335 -303780.000000 0 0 1
15.660589 -20.756686 4.218971 26.341863 -0.924432 1.409941 0.088723 -0.005961 -113632.000000 0 0 1
14.826689 -19.460786 4.184671 24.820643 -0.919738 1.401391 0.098256 0.002201 38479.100000 0 1 0
15.436289 -18.248386 4.657871 24.351147 -0.868688 1.378331 0.066381 -0.003199 81928.200000 0 1 0
14.693289 -17.155386 4.208171 22.976264 -0.862551 1.386604 0.047249 0.005281 -175062.000000 0 1 0
15.563889 -15.924486 4.219371 22.663340 -0.796849 1.383528 0.036986 -0.006721 -436944.000000 0 1 0
15.864889 -15.423686 5.528571 22.806794 -0.771298 1.325948 0.045317 -0.022396 214639.000000 0 1 0
16.899289 -14.454386 5.462271 22.898725 -0.707577 1.329934 0.057011 -0.032101 635308.000000 0 1 0
18.307289 -15.072286 5.739471 24.398199 -0.688784 1.333329 0.075086 -0.034072 286056.000000 0 1 0
19.375489 -14.224286 5.349971 24.624420 -0.633272 1.351787 0.113592 -0.040097 384772.000000 0 1 0
20.642889 -14.867186 5.519071 26.031177 -0.624160 1.357157 0.131221 -0.039968 260967.000000 0 0 1
21.766489 -13.877286 5.196471 26.331775 -0.567575 1.372146 0.133532 -0.047625 -234062.000000 0 0 1
21.718289 -12.903286 6.249371 26.023710 -0.536085 1.328285 0.141538 -0.048673 540778.000000 0 0 1
22.736989 -11.903986 6.122371 26.384824 -0.482311 1.336621 0.150398 -0.047172 315014.000000 0 0 1
22.923989 -11.033486 7.397571 26.494737 -0.448582 1.287826 0.166617 -0.053918 -38474.000000 0 0 1
23.561889 -11.791086 8.412371 27.657915 -0.463992 1.261742 0.166457 -0.033955 353062.000000 0 0 1
23.797189 -11.087386 9.640971 27.967564 -0.436007 1.218856 0.191178 -0.051304 169370.000000 0 0 1
24.336289 -12.054186 10.718171 29.196533 -0.459894 1.194902 0.161451 -0.044324 44674.100000 0 0 1
23.292689 -12.930186 11.072071 28.850126 -0.506764 1.176911 0.161785 -0.047069 743085.000000 0 0 1
23.770189 -13.867386 12.062071 30.046960 -0.528120 1.157707 0.153330 -0.045236 585344.000000 0 0 1
22.650889 -14.919686 12.363671 29.808055 -0.582453 1.143100 0.120237 -0.049472 845538.000000 0 0 1
21.575889 -14.507486 13.201771 29.159439 -0.591957 1.100956 0.100200 -0.042244 121357.000000 0 0 1
20.482489 -15.403186 13.143071 28.801576 -0.644791 1.096928 0.065049 -0.037793 966446.000000 0 0 1
19.176089 -14.629186 13.630071 27.704048 -0.651698 1.056424 0.064646 -0.037191 478391.000000 0 0 1
19.281889 -14.306786 15.021471 28.321722 -0.638349 1.011739 0.070671 -0.043856 -140555.000000 0 0 1
18.690489 -13.096886 15.321371 27.488310 -0.611212 0.979572 0.094954 -0.050596 640325.000000 0 0 1
17.147389 -13.005786 15.602071 26.582099 -0.648900 0.943523 0.089800 -0.043340 984824.000000 0 0 1
16.349589 -13.248786 14.381771 25.488717 -0.681016 0.971283 0.088474 -0.052252 2071050.000000 0 0 1
14.907089 -13.108786 14.547471 24.610779 -0.721297 0.938372 0.095003 -0.048744 1606640.000000 0 1 0
14.512389 -11.672086 14.213071 23.427727 -0.677348 0.918922 0.074214 -0.040382 -610518.000000 0 1 0
15.005989 -10.752586 15.110571 23.856386 -0.621749 0.884861 0.055517 -0.028178 -65294.200000 0 1 0
14.686489 -9.391386 14.788971 22.860550 -0.568928 0.867256 0.045592 -0.027066 -458956.000000 0 1 0
15.388289 -8.329986 15.714671 23.518907 -0.496155 0.839047 0.055458 -0.025162 974520.000000 0 1 0
16.814689 -8.506586 15.750871 24.559839 -0.468358 0.874571 0.055211 -0.030562 880994.000000 0 1 0
17.218189 -9.308186 16.868871 25.839256 -0.495599 0.859470 0.068157 -0.021649 -978610.000000 0 0 1
18.724289 -9.339286 17.080471 27.010437 -0.462670 0.886193 0.088852 -0.021841 -534666.000000 0 0 1
19.228289 -8.051886 17.416171 27.164001 -0.396567 0.874802 0.083281 -0.033949 -1084360.000000 0 0 1
20.432589 -7.876486 16.808971 27.605637 -0.367932 0.916128 0.080631 -0.015934 -1589890.000000 0 0 1
21.024089 -6.489886 16.880771 27.732496 -0.299408 0.916375 0.068928 -0.006507 -237479.000000 0 0 1
21.497189 -6.123986 18.168971 28.805274 -0.277522 0.888275 0.113023 -0.013819 212037.000000 0 0 1
21.578689 -4.717786 18.466871 28.791016 -0.215245 0.874460 0.129278 -0.014602 -14454.900000 0 0 1
-5.796205 -33.450782 -6.100359 34.492973 1.399224 1.748590 0.038024 -0.027961 -482613.000000 0 0 1
-6.268305 -32.163582 -6.280059 33.365054 1.378321 1.760148 0.033599 -0.028225 56982.400000 0 0 1
-6.025705 -31.413882 -5.105959 32.391541 1.381282 1.729089 0.046396 -0.035946 -453618.000000 0 0 1
-6.585805 -29.957782 -5.199659 31.110738 1.354402 1.738718 0.056173 -0.033569 1168140.000000 0 0 1
-7.994405 -29.772282 -4.966659 31.224462 1.308466 1.730538 0.059514 -0.032395 775148.000000 0 0 1
-8.799705 -30.120682 -6.068759 31.961229 1.286558 1.761835 0.055213 -0.032935 -37486.100000 0 0 1
-10.311905 -29.829282 -5.808659 32.091463 1.237960 1.752803 0.088487 -0.024806 168382.000000 0 0 1
-11.087305 -30.382682 -6.815259 33.052738 1.220890 1.778480 0.081708 -0.027803 -496596.000000 0 0 1
-12.446705 -30.177682 -6.475359 33.279772 1.179606 1.766619 0.079700 -0.023703 395966.000000 0 0 1
-13.506205 -30.895682 -7.355559 34.511810 1.158675 1.785575 0.093028 -0.030757 237768.000000 0 0 1
-13.723105 -30.270382 -8.598459 34.330062 1.145159 1.823956 0.117832 -0.041748 34466.100000 0 0 1
-14.883805 -30.823982 -9.186359 35.440580 1.120951 1.832995 0.124610 -0.035482 290982.000000 0 0 1
-15.227605 -29.958682 -10.458459 35.196335 1.100541 1.872499 0.144370 -0.030967 -194502.000000 0 0 1
-15.726205 -28.634982 -10.306559 34.256399 1.068571 1.876396 0.150379 -0.037001 484486.000000 0 0 1
-14.748505 -27.679082 -9.859759 32.876509 1.081224 1.875387 0.140060 -0.037371 126910.000000 0 0 1
-15.247805 -26.228782 -9.504059 31.792636 1.044211 1.874377 0.133741 -0.029470 -266168.000000 0 0 1
-15.755305 -25.475382 -10.558359 31.760096 1.016919 1.909687 0.145106 -0.036244 131481.000000 0 0 1
-15.992405 -24.136282 -10.158659 30.684124 0.985623 1.908236 0.115440 -0.023006 -208203.000000 0 0 1
-16.729005 -23.169182 -11.111159 30.661515 0.945433 1.941618 0.129119 -0.026527 109434.000000 0 0 1
-18.099405 -23.489182 -11.234459 31.710301 0.914277 1.932945 0.135406 -0.030854 187474.000000 0 0 1
-18.694905 -22.869682 -12.435259 32.049298 0.885503 1.969261 0.144427 -0.035437 1937710.000000 0 0 1
-20.252905 -23.177682 -12.680459 33.289325 0.852640 1.961584 0.126034 -0.024888 1813800.000000 0 0 1
-20.447305 -24.513382 -13.182159 34.536466 0.875589 1.962418 0.143957 -0.025280 -43179.700000 0 0 1
-20.273505 -25.521782 -12.207559 34.805185 0.899503 1.929157 0.149209 -0.031603 -1238970.000000 0 0 1
-20.203005 -26.956882 -12.806659 36.039498 0.927643 1.934085 0.139296 -0.033218 -311815.000000 0 0 1
-19.186705 -27.237182 -13.717059 36.029869 0.957103 1.961364 0.141221 -0.037946 -672457.000000 0 0 1
-17.865905 -27.126182 -13.281259 35.091483 0.988384 1.958945 0.154416 -0.035994 -1034400.000000 0 0 1
-17.063505 -28.375282 -13.568259 35.782922 1.029384 1.959709 0.134513 -0.035445 -461805.000000 0 0 1
-16.905605 -28.651682 -14.959859 36.476236 1.037733 1.993389 0.124079 -0.036879 105628.000000 0 0 1
-16.074405 -29.765682 -15.295959 37.126119 1.075639 1.995444 0.143704 -0.038043 86164.800000 0 0 1
-16.674805 -31.188682 -15.146159 38.473226 1.079820 1.975428 0.131511 -0.044104 -417238.000000 0 0 1
-16.772005 -31.619582 -13.775559 38.351847 1.083101 1.938195 0.141090 -0.042153 -38660.800000 0 0 1
-17.051405 -32.984082 -13.692059 39.574898 1.093674 1.924078 0.108094 -0.037715 -604424.000000 0 0 1
-17.861205 -33.340882 -12.374459 39.796536 1.078987 1.886981 0.125987 -0.038179 2036770.000000 0 0 1
-19.267905 -32.909282 -12.333359 40.079730 1.041118 1.883593 0.133624 -0.030381 1936650.000000 0 0 1
-19.504605 -31.491582 -12.399059 39.062591 1.016264 1.893799 0.128713 -0.028309 -959771.000000 0 0 1
-19.038505 -30.584182 -11.255359 37.743079 1.014000 1.873613 0.146647 -0.035400 -171330.000000 0 0 1
-19.503305 -30.964982 -9.948459 37.923355 1.008717 1.836233 0.141326 -0.034328 256897.000000 0 0 1
-19.062805 -29.972282 -9.066159 36.659562 1.004316 1.820696 0.142933 -0.030938 15629.200000 0 0 1
-19.265805 -30.237582 -7.576159 36.645338 1.003509 1.779041 0.131526 -0.024700 384031.000000 0 0 1
-18.205905 -31.074282 -7.076759 36.703495 1.040821 1.764820 0.141381 -0.025240 636004.000000 0 0 1
-18.418205 -31.426182 -5.751359 36.877003 1.040676 1.727396 0.125035 -0.022969 96362.600000 0 0 1
-17.371205 -32.449582 -5.186959 37.170401 1.079287 1.710799 0.126245 -0.024220 1269670.000000 0 0 1
-16.074605 -31.956782 -4.797259 36.092140 1.104743 1.704108 0.122298 -0.023489 886142.000000 0 0 1
-15.983105 -31.285082 -3.517359 35.307051 1.098478 1.670584 0.102502 -0.026834 502665.000000 0 0 1
-14.557205 -30.673882 -3.265159 34.109537 1.127691 1.666669 0.104496 -0.029442 898127.000000 0 0 1
-13.494305 -31.609382 -3.252559 34.522869 1.167311 1.665151 0.068174 -0.027672 -48728.300000 0 0 1
-12.362405 -30.999182 -2.655859 33.478828 1.191327 1.650209 0.070171 -0.019029 28022.500000 0 0 1
-11.117205 -31.879382 -2.539359 33.857578 1.235256 1.645868 0.076334 -0.029505 -454576.000000 0 0 1
-11.206505 -32.833382 -1.441959 34.723134 1.241880 1.612336 0.082315 -0.028357 -379149.000000 0 0 1
-10.033205 -33.561082 -1.259859 35.051372 1.280300 1.606747 0.078774 -0.037713 -659958.000000 0 0 1
-8.866505 -32.911082 -0.539859 34.088791 1.307636 1.586634 0.094456 -0.045214 -807988.000000 0 0 1
-9.139605 -32.626482 0.820441 33.892372 1.297669 1.546587 0.112510 -0.040912 49398.100000 0 0 1
-7.918805 -32.180582 1.384641 33.169483 1.329516 1.529040 0.129699 -0.041270 848445.000000 0 0 1
-6.975005 -33.357282 1.827241 34.127669 1.364666 1.517229 0.127905 -0.044497 22952.600000 0 0 1
-7.579105 33.994814 2.914041 34.951136 -1.351435 1.487325 0.147817 -0.048741 121655.000000 0 0 1
-6.776405 32.943314 3.390941 33.803552 -1.367927 1.470314 0.119067 -0.045130 -402882.000000 0 0 1
-5.961205 33.304414 4.634941 34.149710 -1.393680 1.434652 0.119199 -0.044189 -210590.000000 0 0 1
-4.861505 -33.988182 4.277941 34.599589 1.428725 1.446838 0.122578 -0.041833 -624051.000000 0 0 1
-4.286905 -33.526382 5.450241 34.235961 1.443620 1.410920 0.097987 -0.036661 -149164.000000 0 0 1
-3.211105 -32.431682 5.268841 33.013420 1.472107 1.410514 0.103353 -0.034232 -88417.100000 0 0 1
-3.571605 -31.172382 4.726541 31.730332 1.456718 1.421280 0.099137 -0.032657 -78177.100000 0 0 1
-3.822405 -31.175482 3.312841 31.583166 1.448796 1.465710 0.103879 -0.042070 83500.500000 0 0 1
-4.011805 -29.798482 2.701241 30.188422 1.436970 1.481197 0.096761 -0.036185 322769.000000 0 0 1
-2.779105 -29.098682 2.781741 29.363154 1.475579 1.475918 0.080155 -0.026349 65737.300000 0 0 1
-2.570005 -28.049282 1.843741 28.227053 1.479427 1.505432 0.072115 -0.024595 28785.900000 0 0 1
-2.245305 -26.699482 2.464641 26.906843 1.486898 1.479069 0.061583 -0.027881 -230360.000000 0 0 1
-2.884605 -25.587882 1.832841 25.815111 1.458537 1.499738 0.081290 -0.025003 47862.400000 0 0 1
-2.859005 -24.367282 2.527541 24.664282 1.454001 1.468138 0.063381 -0.016382 594255.000000 0 1 0
-4.105605 -24.224782 3.489041 24.816718 1.402912 1.429737 0.058354 -0.014921 468255.000000 0 1 0
-4.147105 -25.008482 4.658841 25.774551 1.406464 1.389044 0.070687 -0.017441 -500574.000000 0 0 1
-5.097705 -24.491182 5.515541 25.616905 1.365582 1.353788 0.056187 -0.014200 -472888.000000 0 0 1
-5.544705 -25.551382 6.612841 26.969363 1.357107 1.323072 0.074924 -0.019323 -363794.000000 0 0 1
-4.667405 -25.814082 7.675441 27.332470 1.391920 1.286150 0.057261 -0.025210 -388597.000000 0 0 1
-5.141905 -26.778382 8.582641 28.586407 1.381088 1.265857 0.062359 -0.020914 -163089.000000 0 0 1
-4.372105 -26.904182 9.881541 28.993020 1.409698 1.223002 0.059720 -0.011988 -307300.000000 0 0 1
-4.140305 -25.766082 10.686241 28.199803 1.411470 1.182138 0.057933 -0.021182 -83483.200000 0 0 1
-5.266305 -25.184982 11.302141 28.102593 1.364662 1.156906 0.064993 -0.021565 -85769.400000 0 0 1
-4.834705 -24.140582 12.330441 27.535103 1.373138 1.106484 0.042023 -0.024364 60484.900000 0 0 1
-4.198305 -24.820582 13.387141 28.511447 1.403236 1.082032 0.037815 -0.021600 -189324.000000 0 0 1
-3.370705 -23.981282 14.157641 28.051780 1.431155 1.041766 0.037518 -0.028316 -150517.000000 0 0 1
-2.377105 -24.736882 15.050341 29.052999 1.474995 1.026249 0.057558 -0.025810 -414915.000000 0 0 1
-3.013505 -25.259482 16.172641 30.144270 1.452056 1.004503 0.051081 -0.027723 92093.800000 0 0 1
-2.167305 -26.037182 17.025641 31.185005 1.487749 0.993267 0.054471 -0.018978 232406.000000 0 0 1
-2.801505 -26.349982 18.411041 32.266646 1.464875 0.963572 0.071355 -0.028497 119889.000000 0 0 1
-2.806605 -25.159282 19.203041 31.774570 1.459702 0.921843 0.078583 -0.027199 -160307.000000 0 0 1
-3.464305 -25.431182 20.401741 32.786849 1.435407 0.899178 0.117783 -0.031614 -171285.000000 0 0 1
-3.257405 -24.347382 21.485541 32.634862 1.437797 0.852156 0.100022 -0.033263 -552860.000000 0 0 1
-2.083305 -24.638682 22.190341 33.223728 1.486443 0.839404 0.053072 -0.036780 -398852.000000 0 0 1
-1.706905 -23.758882 23.221441 33.266099 1.499077 0.798124 0.044410 -0.028779 40361.200000 0 0 1
-1.231605 -22.349582 22.776241 31.933961 1.515746 0.776701 0.060451 -0.035102 -730204.000000 0 0 1
-2.173705 -21.547782 22.204441 31.017239 1.470258 0.772921 0.086633 -0.026409 -1195530.000000 0 0 1
-1.486205 -20.452482 21.721441 29.871958 1.498258 0.756633 0.079380 -0.025775 -880439.000000 0 0 1
-2.267205 -19.406982 20.948141 28.646044 1.454499 0.750607 0.069439 -0.009256 -727872.000000 0 0 1
-3.129605 -18.650182 21.784841 28.847930 1.404540 0.714896 0.088694 -0.027370 1917120.000000 0 0 1
-4.460105 -19.247082 22.036841 29.596708 1.343087 0.730905 0.090718 -0.032515 2015500.000000 0 0 1
-5.614705 -18.998482 20.970541 28.848412 1.283441 0.756967 0.072136 -0.038223 408448.000000 0 0 1
-5.514405 -19.845482 19.830241 28.591787 1.299767 0.804371 0.096204 -0.042245 -171502.000000 0 0 1
-5.978405 -21.184982 20.050041 29.774972 1.295749 0.832017 0.083577 -0.032161 126072.000000 0 0 1
-5.861805 -22.013282 18.780541 29.523789 1.310550 0.881343 0.056218 -0.033088 -79464.900000 0 0 1
-6.507805 -23.233282 18.822141 30.600816 1.297688 0.908301 0.050765 -0.038544 -580804.000000 0 0 1
-6.266705 -23.922982 17.632441 30.372416 1.314599 0.951403 0.063538 -0.037804 27587.100000 0 0 1
-6.760405 -25.352982 17.647841 31.621561 1.310208 0.978708 0.068776 -0.033760 -652900.000000 0 0 1
-8.134405 -25.403082 17.811741 32.074028 1.260900 0.982034 0.071724 -0.032304 -1074610.000000 0 0 1
-8.675305 -26.685782 17.465541 33.052035 1.256482 1.014051 0.081014 -0.036978 254016.000000 0 0 1
-10.205605 -26.758582 17.617541 33.623710 1.206430 1.019301 0.075976 -0.029028 12986.100000 0 0 1
-10.952705 -25.862782 16.782341 32.718378 1.170203 1.032198 0.092357 -0.031142 596965.000000 0 0 1
-12.364105 -25.840582 16.977641 33.299356 1.124515 1.035787 0.073418 -0.028199 661589.000000 0 0 1
-12.851905 -24.962682 18.147541 33.431127 1.095344 0.996989 0.059417 -0.027557 -555754.000000 0 0 1
-12.717805 -23.605182 17.849841 32.211241 1.076615 0.983455 0.057216 -0.024644 72264.200000 0 0 1
-13.159805 -22.802482 18.911641 32.415796 1.047369 0.947878 0.051356 -0.023277 -784275.000000 0 0 1
-12.027505 -21.937582 19.452241 31.690820 1.069290 0.909915 0.037195 -0.025595 91209.900000 0 0 1
-11.179805 -22.635982 20.368341 32.438327 1.112044 0.891932 0.050959 -0.027180 308264.000000 0 0 1
-9.979605 -23.035382 19.713441 31.919291 1.161976 0.905105 0.070060 -0.033897 69789.800000 0 0 1
-9.068305 -23.942482 20.598041 32.859640 1.208739 0.893294 0.074515 -0.033216 153573.000000 0 0 1
-8.641405 -23.332182 21.789841 33.073582 1.216096 0.851535 0.075723 -0.033781 157989.000000 0 0 1
-7.642005 -24.095482 22.442741 33.803390 1.263676 0.844748 0.066281 -0.031047 272569.000000 0 0 1
-7.574005 -23.661182 23.933841 34.497041 1.261000 0.804052 0.070340 -0.021408 183743.000000 0 0 1
-6.500705 -24.296082 24.600741 35.181746 1.309358 0.796452 0.091081 -0.029620 -43916.800000 0 0 1
-6.520405 -23.856782 25.943741 35.843263 1.303998 0.761487 0.083166 -0.021939 344428.000000 0 0 1
-5.396705 -24.405882 26.879041 36.704964 1.353175 0.749103 0.098462 -0.019660 1003870.000000 0 0 1
-4.097005 -23.958282 26.468041 35.935247 1.401429 0.742844 0.093241 -0.013655 475906.000000 0 0 1
-3.069305 -24.358282 27.362741 36.762293 1.445450 0.731287 0.080184 -0.009533 -147981.000000 0 0 1
-1.795605 -23.557482 27.098941 35.951798 1.494721 0.717035 0.076557 -0.016479 -1123470.000000 0 0 1
-1.804905 -22.153482 27.129841 35.072251 1.489503 0.686386 0.080040 -0.015470 -507139.000000 0 0 1
-0.575905 -21.553682 26.771241 34.374296 1.544083 0.678021 0.082539 -0.024499 -138735.000000 0 0 1
0.333595 -21.435282 27.984941 35.252511 -1.555235 0.653695 0.058483 -0.020542 -663928.000000 0 0 1
0.832395 -22.672282 28.509541 36.435137 -1.534099 0.672168 0.068079 -0.014838 245242.000000 0 0 1
1.801995 -22.349882 29.509341 37.061647 -1.490344 0.649770 0.051786 -0.024996 53321.700000 0 0 1
2.512395 -23.550782 30.102541 38.302930 -1.464518 0.666635 0.063413 -0.030044 -858831.000000 0 0 1
3.467395 -24.175982 29.293741 38.139536 -1.428345 0.694978 0.058629 -0.027119 -171390.000000 0 0 1
4.086495 -25.257982 29.926941 39.373683 -1.410396 0.707368 0.058344 -0.022833 -1001140.000000 0 0 1
5.422395 -24.853182 30.562641 39.763779 -1.355985 0.694139 0.056383 -0.025086 -376200.000000 0 0 1
6.462195 -24.381782 29.704241 38.968875 -1.311711 0.704006 0.067778 -0.033114 529623.000000 0 0 1
7.048095 -25.394982 28.888941 39.104369 -1.300071 0.739560 0.066448 -0.025843 -745279.000000 0 0 1
8.327595 -24.939882 28.174441 38.537588 -1.248530 0.750878 0.064891 -0.024079 156242.000000 0 0 1
7.988495 -23.935982 27.254441 37.142319 -1.248676 0.746921 0.071976 -0.027331 449595.000000 0 0 1
9.145995 -23.716082 26.456141 36.688271 -1.202726 0.765399 0.056626 -0.016324 418332.000000 0 0 1
8.995095 -22.490682 25.543341 35.202341 -1.190335 0.758869 0.059013 -0.014193 13899.500000 0 0 1
8.102495 -22.618582 24.454741 34.282431 -1.226815 0.776556 0.055747 -0.014908 -171010.000000 0 0 1
8.060195 -21.463082 23.722341 32.990607 -1.211554 0.768343 0.055808 -0.008175 417860.000000 0 0 1
7.255895 -21.658382 22.397541 31.990364 -1.247533 0.795211 0.074955 -0.007641 472050.000000 0 0 1
8.014595 -22.443282 21.476141 32.080513 -1.227807 0.837335 0.060784 -0.001526 570659.000000 0 0 1
7.259195 -22.763982 20.287941 31.344782 -1.262101 0.866824 0.068919 -0.010161 486054.000000 0 0 1
8.105695 -23.506982 19.203241 31.417272 -1.238743 0.913180 0.092179 -0.019559 775714.000000 0 0 1
9.320795 -22.894282 18.790141 31.049876 -1.184164 0.920830 0.092789 -0.024577 8965.930000 0 0 1
10.123195 -23.724582 18.004841 31.456465 -1.167490 0.961399 0.097731 -0.025531 606182.000000 0 0 1
11.484895 -23.074682 17.595441 31.208065 -1.108969 0.971804 0.100553 -0.030093 643703.000000 0 0 1
11.284595 -22.120882 16.534041 29.833706 -1.099075 0.983387 0.115115 -0.034239 38935.800000 0 0 1
12.517295 -21.874582 15.891441 29.794596 -1.051046 1.008221 0.114218 -0.041271 253673.000000 0 0 1
-12.441205 22.268914 11.435641 27.954642 -1.061313 1.149352 0.011322 -0.004992 -704125.000000 0 0 1
-13.402605 21.500614 10.803241 27.542990 -1.013378 1.167740 0.011119 -0.012732 -122097.000000 0 0 1
-12.891005 20.267914 10.351641 26.155742 -1.004304 1.163891 0.035547 -0.017364 -226638.000000 0 0 1
-13.964305 19.547614 9.546341 25.850410 -0.950488 1.192550 0.055037 -0.024003 -1050770.000000 0 0 1
-14.039205 20.020014 8.194441 25.788547 -0.959226 1.247435 0.056080 -0.029422 232933.000000 0 0 1
-15.115605 19.606314 7.377741 25.832541 -0.914018 1.281165 0.068337 -0.030768 -947247.000000 0 0 1
-16.521805 19.790114 7.846241 26.947768 -0.875163 1.275352 0.054491 -0.028727 -1844070.000000 0 0 1
-16.974705 18.801514 8.761241 26.802927 -0.836416 1.237800 0.047841 -0.035080 -756034.000000 0 0 1
-18.355205 18.865814 8.845441 27.768226 -0.799116 1.246602 0.062478 -0.030528 -905406.000000 0 0 1
-19.001405 17.777914 9.738941 27.784071 -0.752145 1.212667 0.049219 -0.024511 -168700.000000 0 0 1
-19.069705 16.505014 9.129241 26.821861 -0.713430 1.223491 0.058896 -0.024423 51045.700000 0 0 1
-19.543705 15.538114 10.073341 26.923254 -0.671712 1.187316 0.058373 -0.027843 -573328.000000 0 0 1
-18.543805 14.839414 10.992941 26.171085 -0.674885 1.137305 0.055490 -0.021430 843854.000000 0 0 1
-17.452405 14.086014 10.354441 24.702565 -0.679061 1.138271 0.043693 -0.012058 1224510.000000 0 1 0
-16.757605 13.159314 11.198341 24.070475 -0.665697 1.086900 0.035024 -0.014042 212037.000000 0 1 0
-17.554405 12.153214 12.105741 24.543976 -0.605551 1.055001 0.036409 -0.011988 -4781.540000 0 1 0
-18.295105 11.171414 11.387341 24.273091 -0.548194 1.082486 0.024876 -0.010278 30497.900000 0 1 0
-19.099805 10.344914 12.186041 24.906213 -0.496390 1.059536 0.029889 -0.006287 -348117.000000 0 1 0
-20.116805 9.547314 11.349141 24.992801 -0.443117 1.099439 0.041306 -0.013623 -559032.000000 0 1 0
-19.677005 8.583914 10.377041 23.844310 -0.411353 1.120536 0.038732 -0.015394 303896.000000 0 1 0
-19.023805 9.133614 9.239341 23.036786 -0.447613 1.158113 0.046439 -0.013324 -385089.000000 0 1 0
-19.988605 9.542314 8.098841 23.583709 -0.445395 1.220253 0.054094 -0.016694 -124721.000000 0 1 0
-20.450405 8.442814 7.372841 23.320784 -0.391529 1.249129 0.041195 -0.028279 375077.000000 0 1 0
-21.280905 8.908914 6.313741 23.918801 -0.396466 1.303665 0.049044 -0.024010 33339.900000 0 1 0
-21.643305 7.703014 5.407641 23.601095 -0.341928 1.339616 0.072504 -0.023706 -462244.000000 0 1 0
-22.371305 6.701314 6.006541 24.113512 -0.291043 1.319051 0.084461 -0.021146 47488.800000 0 1 0
-22.211105 5.524314 5.295741 23.492470 -0.243772 1.343419 0.102242 -0.014811 -131020.000000 0 1 0
-23.087605 4.381314 5.885241 24.225390 -0.187539 1.325404 0.107811 -0.019704 1355480.000000 0 1 0
-24.474805 4.572714 5.489641 25.496313 -0.184704 1.353786 0.143176 -0.018993 1285750.000000 0 0 1
-25.193435 3.365614 5.591441 26.025003 -0.132805 1.354259 0.168957 -0.029158 20310.300000 0 0 1
-26.379185 3.252514 4.605741 26.975046 -0.122679 1.399215 0.168722 -0.027393 -37225.500000 0 0 1
-25.931485 3.380814 3.265541 26.354043 -0.129644 1.446567 0.166777 -0.022480 260442.000000 0 0 1
-26.950085 3.122414 2.347741 27.231755 -0.115345 1.484476 0.151650 -0.022939 -331973.000000 0 0 1
-26.372285 2.927714 0.928341 26.550532 -0.110562 1.535824 0.167135 -0.024948 -88994.600000 0 0 1
-25.866635 4.135814 0.393341 26.198139 -0.158548 1.555782 0.162169 -0.032356 360798.000000 0 0 1
-25.684845 4.147514 -1.010759 26.037181 -0.160095 1.609626 0.162194 -0.026158 4601.780000 0 0 1
-26.976465 4.575414 -1.767159 27.418734 -0.168009 1.635292 0.167138 -0.030104 694701.000000 0 0 1
-28.021475 3.577814 -1.750759 28.303162 -0.126994 1.632693 0.154262 -0.028075 719430.000000 0 0 1
-29.210315 4.257814 -2.129359 29.595704 -0.144745 1.642807 0.134243 -0.014314 580966.000000 0 0 1
-30.484135 3.328414 -2.179359 30.742649 -0.108754 1.641746 0.114640 -0.012046 413080.000000 0 0 1
-30.543985 2.739514 -3.475759 30.862937 -0.089451 1.683655 0.125232 -0.020226 275862.000000 0 0 1
-31.634725 1.866514 -3.540559 31.886914 -0.058934 1.682061 0.126047 -0.026446 -314357.000000 0 0 1
-32.011115 1.313314 -4.971259 32.421439 -0.041004 1.724736 0.130199 -0.034415 -242872.000000 0 0 1
-30.968515 0.532614 -5.505259 31.458552 -0.017197 1.746702 0.154566 -0.040986 72463.400000 0 0 1
-31.148695 -0.087586 -6.772759 31.876624 0.002812 1.784896 0.159064 -0.045213 -171661.000000 0 0 1
-31.572615 0.874914 -8.009059 32.584360 -0.027704 1.819136 0.148418 -0.045409 92136.700000 0 0 1
-32.959135 1.155414 -8.041059 33.945518 -0.035042 1.809951 0.157660 -0.045751 86236.800000 0 0 1
-33.371365 1.987614 -9.110359 34.649636 -0.059490 1.836852 0.160067 -0.043157 97046.600000 0 0 1
-34.914512 2.038714 -8.972459 36.106572 -0.058325 1.821927 0.169683 -0.041557 126916.000000 0 0 1
-35.301542 2.670514 -7.761559 36.243238 -0.075505 1.786620 0.142322 -0.033406 595017.000000 0 0 1
-36.698015 2.963214 -7.657759 37.605402 -0.080571 1.775865 0.157083 -0.027993 751153.000000 0 0 1
36.799269 3.807014 -6.324859 37.532431 0.103087 1.740121 0.153302 -0.027354 -575898.000000 0 0 1
35.438419 4.099614 -6.292659 36.225487 0.115171 1.745390 0.159196 -0.042172 -393022.000000 0 0 1
35.095949 4.469914 -4.987959 35.729336 0.126681 1.710858 0.162587 -0.026787 -56782.100000 0 0 1
33.632879 4.071314 -4.697259 34.202491 0.120465 1.708568 0.152838 -0.031527 81593.300000 0 0 1
33.673199 2.782814 -4.186859 34.046412 0.082454 1.694083 0.162755 -0.037043 -560727.000000 0 0 1
32.530329 2.129714 -4.637159 32.928122 0.065375 1.712093 0.178100 -0.040668 -468106.000000 0 0 1
32.438939 0.656714 -3.998459 32.691034 0.020242 1.693414 0.212585 -0.025368 -75043.300000 0 0 1
33.502339 -0.228886 -4.273859 33.774620 -0.006832 1.697677 0.176537 -0.036958 71170.400000 0 0 1
33.195579 -1.534686 -3.766959 33.443859 -0.046199 1.683671 0.188067 -0.030616 -800833.000000 0 0 1
34.409119 -2.395286 -3.597659 34.679504 -0.069500 1.674724 0.160094 -0.034409 -665828.000000 0 0 1
34.155799 -3.720386 -3.217559 34.508152 -0.108496 1.664172 0.151522 -0.041026 -14921.300000 0 0 1
35.445719 -4.269486 -3.119259 35.837930 -0.119874 1.657945 0.162991 -0.038589 133054.000000 0 0 1
35.453639 -5.746886 -2.793859 36.024892 -0.160698 1.648428 0.154355 -0.033181 -217030.000000 0 0 1
35.144249 -6.054986 -1.474859 35.692524 -0.170615 1.612129 0.174753 -0.025255 -19901.500000 0 0 1
34.977919 -7.457986 -1.231059 35.785358 -0.210074 1.605204 0.170607 -0.033258 123349.000000 0 0 1
34.509619 -7.731086 0.247241 35.365868 -0.220388 1.563805 0.145752 -0.022669 890015.000000 0 0 1
33.140299 -7.345986 0.482441 33.948132 -0.218136 1.556585 0.133531 -0.032750 1117330.000000 0 0 1
32.677659 -7.570086 1.813341 33.592020 -0.227644 1.516789 0.124114 -0.034917 -206218.000000 0 0 1
32.378369 -9.035886 2.348941 33.697530 -0.272148 1.501033 0.133262 -0.036143 -63905.800000 0 0 1
31.278599 -9.794386 1.857741 32.828828 -0.303462 1.514177 0.123264 -0.040517 858320.000000 0 0 1
30.054079 -9.449586 2.523341 31.605531 -0.304633 1.490873 0.111917 -0.046603 -334612.000000 0 0 1
28.885779 -10.412186 2.129641 30.778843 -0.345963 1.501549 0.121149 -0.045289 17023.300000 0 0 1
27.650689 -10.158986 2.807941 29.591386 -0.352095 1.475763 0.153428 -0.047513 909398.000000 0 0 1
26.932889 -9.094086 2.211141 28.512664 -0.325637 1.493169 0.151804 -0.046590 -235244.000000 0 0 1
26.009689 -9.398486 0.967741 27.672585 -0.346746 1.535818 0.130347 -0.036973 -57587.600000 0 0 1
26.886589 -9.620986 -0.108559 28.556327 -0.343638 1.574598 0.117211 -0.039831 983480.000000 0 0 1
26.191189 -9.717286 -1.388459 27.970195 -0.355271 1.620457 0.101161 -0.024199 -49559.200000 0 0 1
25.487889 -11.055186 -1.584759 27.827344 -0.409252 1.627777 0.086388 -0.012917 -240726.000000 0 0 1
24.135989 -11.116886 -1.194459 26.599959 -0.431629 1.615716 0.095277 -0.013500 316974.000000 0 0 1
23.579689 -12.434886 -1.397259 26.694202 -0.485292 1.623163 0.075398 -0.003465 702255.000000 0 0 1
22.055089 -12.592186 -1.096059 25.420295 -0.518780 1.613927 0.098758 -0.017537 678855.000000 0 0 1
21.206389 -12.170286 -2.174259 24.546979 -0.521005 1.659488 0.089106 -0.012382 838180.000000 0 1 0
19.844189 -12.449286 -1.859259 23.499646 -0.560289 1.649998 0.107213 -0.017220 228068.000000 0 1 0
18.841989 -11.940186 -2.902359 22.494716 -0.564832 1.700181 0.100114 -0.014416 -147213.000000 0 1 0
18.907089 -12.611986 -4.127159 23.099212 -0.588268 1.750432 0.096274 -0.022185 290228.000000 0 1 0
18.087089 -11.890886 -5.022559 22.220757 -0.581576 1.798797 0.093407 -0.023616 -106622.000000 0 1 0
17.955289 -12.553486 -6.393959 22.822469 -0.610157 1.854758 0.080341 -0.025827 -365499.000000 0 1 0
17.120789 -13.664486 -6.521359 22.855364 -0.673595 1.860149 0.081911 -0.028852 -67228.100000 0 1 0
17.241489 -14.184486 -7.826659 23.658511 -0.688427 1.907966 0.083291 -0.028777 -122779.000000 0 1 0
16.267589 -15.336886 -8.177759 23.806097 -0.755958 1.921454 0.081805 -0.030398 733273.000000 0 1 0
14.910989 -14.930986 -8.425859 22.721510 -0.786068 1.950701 0.095235 -0.029834 513845.000000 0 1 0
14.189189 -15.885686 -9.105159 23.164455 -0.841748 1.974760 0.093154 -0.031951 -494936.000000 0 1 0
14.011089 -15.742386 -10.638559 23.607461 -0.843521 2.038283 0.097340 -0.039064 -330341.000000 0 1 0
13.024889 -14.816686 -11.119159 22.645476 -0.849666 2.084045 0.074147 -0.035662 544416.000000 0 1 0
13.310589 -13.425086 -10.947459 21.846087 -0.789681 2.095686 0.070711 -0.023063 -578943.000000 0 1 0
13.593989 -12.670886 -12.256159 22.261206 -0.750267 2.153833 0.083771 -0.016355 161527.000000 0 1 0
14.795289 -12.844186 -13.002559 23.514680 -0.714924 2.156703 0.102986 -0.016539 461045.000000 0 1 0
14.580889 -12.423786 -14.337259 23.927176 -0.705689 2.213303 0.114077 -0.009030 322657.000000 0 1 0
15.871689 -12.164086 -15.183959 25.108327 -0.653916 2.220233 0.118487 -0.015904 326510.000000 0 0 1
16.534289 -13.369386 -15.567259 26.352660 -0.679954 2.202757 0.117218 -0.018283 771402.000000 0 0 1
17.740989 -12.922486 -16.227159 27.295677 -0.629531 2.207434 0.121770 -0.012431 567995.000000 0 0 1
18.917589 -13.915886 -16.252159 28.559756 -0.634225 2.176156 0.130056 -0.017803 -236619.000000 0 0 1
19.763389 -13.793486 -15.123959 28.453223 -0.609336 2.131211 0.103474 -0.012005 -222139.000000 0 0 1
20.777189 -14.753886 -15.284859 29.715242 -0.617472 2.111078 0.084412 -0.006726 -647446.000000 0 0 1
21.804889 -14.631386 -14.167959 29.837253 -0.591006 2.065580 0.065179 -0.004424 -462619.000000 0 0 1
22.489989 -13.387686 -14.209359 29.781464 -0.536937 2.068172 0.054113 -0.001491 10489.100000 0 0 1
23.363689 -13.302586 -13.091859 29.903469 -0.517593 2.023951 0.053392 0.002614 263964.000000 0 0 1
24.187189 -11.974486 -13.074359 29.989119 -0.459700 2.021912 0.060723 -0.006829 -203925.000000 0 0 1
23.459389 -10.769686 -12.781659 28.804511 -0.430377 2.030562 0.054607 -0.001301 30212.400000 0 0 1
24.163689 -9.547386 -12.811359 28.968385 -0.376286 2.028906 0.073103 -0.009553 -354565.000000 0 0 1
25.151189 -9.308586 -11.661559 29.244213 -0.354472 1.980966 0.081890 -0.014036 257291.000000 0 0 1
26.317489 -10.121886 -11.825459 30.576204 -0.367166 1.967905 0.073051 -0.012727 199014.000000 0 0 1
27.308389 -9.770286 -10.874359 30.975123 -0.343585 1.929507 0.072997 -0.014606 -317961.000000 0 0 1
28.609989 -10.492086 -11.245559 32.481963 -0.351499 1.924324 0.089965 -0.020332 -319740.000000 0 0 1
29.183029 -10.037386 -12.499159 33.296054 -0.331271 1.955619 0.084787 -0.015012 -595167.000000 0 0 1
30.377619 -10.735986 -12.619559 34.602230 -0.339716 1.944111 0.076076 -0.014713 -441982.000000 0 0 1
31.279639 -10.229986 -13.793359 35.683682 -0.316084 1.967679 0.063021 -0.013582 204931.000000 0 0 1
30.653359 -10.604786 -14.995959 35.734698 -0.333070 2.003853 0.059149 -0.012539 370552.000000 0 0 1
31.387039 -10.106286 -16.095759 36.692733 -0.311506 2.024907 0.056150 -0.019688 126899.000000 0 0 1
31.027089 -10.841886 -17.429659 37.202415 -0.336170 2.058398 0.034204 -0.011829 -162459.000000 0 0 1
29.855699 -10.434186 -18.094559 36.436905 -0.336218 2.090473 0.041718 -0.011370 -59180.000000 0 0 1
29.893099 -9.260386 -18.865059 36.540970 -0.300408 2.113288 0.032983 -0.011890 -217183.000000 0 0 1
28.477689 -8.818086 -19.340159 35.535603 -0.300285 2.146288 0.004349 -0.015713 198135.000000 0 0 1
27.957989 -9.597786 -20.375159 35.901444 -0.330687 2.174300 0.005459 -0.005085 429868.000000 0 0 1
26.558089 -9.360786 -20.469859 34.813381 -0.338869 2.199366 0.043401 -0.001172 211711.000000 0 0 1
26.166789 -9.789186 -21.928559 35.516062 -0.357988 2.236263 0.067208 -0.014980 -254423.000000 0 0 1
26.104789 -11.188986 -22.162959 36.025687 -0.404931 2.233434 0.076011 -0.013314 56323.500000 0 0 1
25.383489 -11.477186 -23.327859 36.335056 -0.424642 2.267927 0.093315 -0.016147 -894274.000000 0 0 1
25.714389 -12.951886 -23.810259 37.361873 -0.466589 2.261770 0.093753 -0.006260 340309.000000 0 0 1
26.996189 -13.198686 -24.329459 38.664222 -0.454736 2.251384 0.089051 -0.004035 -533945.000000 0 0 1
28.091589 -12.986986 -23.505959 38.862954 -0.433043 2.220364 0.055741 -0.002714 -1573050.000000 0 0 1
29.358309 -13.622186 -24.061659 40.329116 -0.434433 2.210095 0.044294 0.004318 -563728.000000 0 0 1
29.810479 -13.128386 -25.263309 41.222007 -0.414838 2.230471 0.040120 -0.004652 576146.000000 0 0 1
31.194989 -13.477586 -25.408859 42.430917 -0.407821 2.212834 0.007187 -0.003949 607761.000000 0 0 1
31.762909 -12.912086 -26.730999 43.475862 -0.386110 2.232988 0.020606 -0.012876 -18458.800000 0 0 1
31.591329 -13.721686 -27.879359 44.312022 -0.409763 2.251269 0.018322 -0.016712 993925.000000 0 0 1
32.685649 -13.490886 -28.808139 45.609916 -0.391446 2.254437 0.010497 -0.023515 982813.000000 0 0 1
32.466179 -14.249286 -30.103409 46.511397 -0.413582 2.274737 0.018583 -0.031816 136634.000000 0 0 1
32.426719 -15.621586 -30.030419 46.875922 -0.448942 2.266123 0.023503 -0.023286 -77029.400000 0 0 1
32.737889 -16.233886 -31.238389 48.074373 -0.460342 2.278108 0.017084 -0.024943 187842.000000 0 0 1
31.526769 -16.781686 -32.042949 47.982420 -0.489152 2.302054 0.007447 -0.016282 332115.000000 0 0 1
30.775339 -15.834586 -32.776129 47.666867 -0.475198 2.328986 0.003012 -0.019933 330798.000000 0 0 1
29.755789 -16.422886 -33.583409 47.780367 -0.504318 2.350221 0.021621 -0.020990 71310.100000 0 0 1
28.956649 -15.420686 33.644350 46.991779 -0.489342 0.772795 0.061455 -0.021001 -601060.000000 0 0 1
28.261189 -14.440086 -33.657909 46.260844 -0.472370 2.385567 0.074671 -0.032235 -76600.800000 0 0 1
29.000549 -13.375386 -33.066849 45.971178 -0.432138 2.373584 0.056174 -0.028401 -337734.000000 0 0 1
28.176389 -12.087486 -32.832829 44.922275 -0.405248 2.390408 0.073892 -0.027715 273861.000000 0 0 1
27.673589 -11.582386 33.993669 45.338159 -0.396383 0.723066 0.100005 -0.027578 158513.000000 0 0 1
26.765589 -10.500086 -33.857779 44.418439 -0.373849 2.437572 0.076179 -0.029083 419156.000000 0 0 1
21.772695 -29.564982 9.147341 37.839295 -0.936033 1.326636 0.046669 -0.015527 123220.000000 0 0 1
22.042495 -29.223082 7.787241 37.423271 -0.924559 1.361179 0.052545 -0.022157 902807.000000 0 0 1
23.124895 -30.044182 7.265241 38.603075 -0.914808 1.381463 0.049793 -0.024154 759191.000000 0 0 1
23.681395 -29.501382 5.951541 38.295703 -0.894398 1.414754 0.041596 -0.022426 -194411.000000 0 0 1
24.190695 -28.217082 5.918541 37.635390 -0.862076 1.412881 0.049399 -0.014005 56378.600000 0 0 1
24.932995 -27.951482 4.736041 37.754068 -0.842413 1.445020 0.032029 -0.009784 10215.700000 0 0 1
24.932095 -26.450482 4.363241 36.609770 -0.814940 1.451330 0.023399 -0.010840 -152865.000000 0 0 1
25.771695 -25.717482 5.221741 36.780915 -0.784345 1.428346 0.016887 -0.009725 11669.500000 0 0 1
25.695495 -24.322082 4.860641 35.713414 -0.757946 1.434271 0.014560 -0.002990 32239.700000 0 0 1
26.337695 -23.234082 5.783041 35.594105 -0.722871 1.407601 0.024110 -0.009773 -337591.000000 0 0 1
27.729995 -23.262182 5.698741 36.640925 -0.698004 1.414633 0.020482 -0.001959 -157233.000000 0 0 1
28.598895 -22.557282 6.594241 37.016372 -0.667841 1.391696 0.032881 -0.008036 447968.000000 0 0 1
28.368995 -21.064182 6.894341 36.000439 -0.638688 1.378099 0.047139 -0.004873 -336146.000000 0 0 1
28.375195 -20.281382 5.701541 35.341105 -0.620562 1.408759 0.047316 0.003330 115444.000000 0 0 1
27.765195 -19.006382 5.878241 34.157025 -0.600274 1.397841 0.063165 -0.006784 102129.000000 0 0 1
27.723595 -18.201382 4.551841 33.475473 -0.580952 1.434398 0.064380 -0.004029 475595.000000 0 0 1
29.006995 -17.864682 4.013941 34.302541 -0.552011 1.453512 0.085278 0.000228 712099.000000 0 0 1
28.826295 -17.202882 2.724641 33.679639 -0.538047 1.489809 0.077470 0.002946 -76390.800000 0 0 1
29.963895 -16.201482 2.526841 34.157107 -0.495675 1.496752 0.084784 -0.018022 -122757.000000 0 0 1
29.771795 -14.955982 3.127141 33.463714 -0.465529 1.477211 0.099040 -0.024670 364207.000000 0 0 1
30.976295 -14.223482 3.337641 34.248768 -0.430456 1.473189 0.095568 -0.025358 497779.000000 0 0 1
30.676995 -13.071982 4.278341 33.619324 -0.402816 1.443192 0.128420 -0.031376 207411.000000 0 0 1
30.264395 -13.511482 5.563941 33.607309 -0.419896 1.404473 0.117658 -0.023473 143960.000000 0 0 1
30.218795 -12.445482 6.519641 33.325235 -0.390676 1.373890 0.117321 -0.033702 -295963.000000 0 0 1
29.835695 -12.805282 7.967241 33.430837 -0.405417 1.330161 0.131813 -0.024383 951208.000000 0 0 1
28.444395 -13.221982 8.125841 32.402681 -0.435123 1.317314 0.123137 -0.019725 1352990.000000 0 0 1
27.952295 -13.053382 9.459941 32.267818 -0.436891 1.273256 0.135475 -0.014265 15773.300000 0 0 1
28.346795 -14.083182 10.526441 33.356900 -0.461098 1.249739 0.118791 -0.007802 -1070720.000000 0 0 1
29.654595 -14.190082 10.956641 34.652582 -0.446310 1.249090 0.105464 0.000300 -695841.000000 0 0 1
29.827995 -15.348982 11.724841 35.535509 -0.475246 1.234549 0.096937 -0.013010 223125.000000 0 0 1
30.692295 -15.150782 13.000241 36.613788 -0.458542 1.207814 0.092784 -0.009035 694353.000000 0 0 1
32.069295 -14.804282 12.849041 37.585959 -0.432487 1.221904 0.065170 -0.002265 433315.000000 0 0 1
32.754795 -15.087582 14.008741 38.687938 -0.431652 1.200281 0.054712 -0.003177 778336.000000 0 0 1
34.323295 -14.971082 13.865841 39.930983 -0.411301 1.216164 0.049956 -0.007302 1235620.000000 0 0 1
34.903495 -13.648982 13.685841 39.898006 -0.372766 1.220666 0.047103 -0.004430 134553.000000 0 0 1
36.283795 -13.748382 13.437341 41.062074 -0.362196 1.237410 0.032162 -0.002856 -258668.000000 0 0 1
-36.907699 -12.374182 13.464141 41.189583 0.323496 1.237794 0.038065 -0.004522 -897535.000000 0 0 1
-35.748599 -12.318382 12.706041 39.889201 0.331841 1.246614 0.055704 -0.008156 -865538.000000 0 0 1
-35.119199 -11.067382 12.812541 38.987258 0.305286 1.235939 0.048652 -0.010281 -312439.000000 0 0 1
-33.964999 -10.874282 11.787241 37.560754 0.309849 1.251585 0.054639 -0.008977 447031.000000 0 0 1
-32.846199 -11.724082 12.034841 36.893960 0.342843 1.238515 0.038465 -0.009629 136777.000000 0 0 1
-33.027899 -13.126582 11.809941 37.451622 0.378297 1.249983 0.036106 -0.010734 -1215780.000000 0 0 1
-31.887699 -14.097182 12.150041 36.921260 0.416255 1.235467 0.030945 -0.008430 -263295.000000 0 0 1
-30.692699 -13.914282 11.439241 35.587994 0.425629 1.243551 0.041799 -0.010439 -853761.000000 0 0 1
-29.835799 -14.923882 11.783641 35.380099 0.463808 1.231251 0.047706 -0.009044 -375741.000000 0 0 1
-28.435499 -14.821082 11.123541 33.940761 0.480477 1.236892 0.063545 -0.004380 154560.000000 0 0 1
-28.531599 -15.010882 9.727141 33.674857 0.484320 1.277766 0.051678 -0.004309 413996.000000 0 0 1
-27.241099 -14.893082 9.139641 32.363783 0.500317 1.284498 0.050054 -0.002113 213390.000000 0 0 1
-27.127299 -14.610382 7.634241 31.743271 0.494038 1.327916 0.092437 -0.001448 -237706.000000 0 0 1
-27.235899 -15.715882 6.812241 32.174366 0.523357 1.357453 0.090362 0.003518 304407.000000 0 0 1
-26.998599 -15.371282 5.423941 31.537594 0.517567 1.397954 0.104503 0.003556 -544519.000000 0 0 1
-27.294399 -16.535982 4.452441 32.221843 0.544701 1.432172 0.098282 -0.002805 -213276.000000 0 0 1
-28.691799 -16.697982 4.412641 33.489004 0.527062 1.438648 0.063719 -0.008795 -127477.000000 0 0 1
-29.040799 -17.588782 3.375241 34.119284 0.544569 1.471710 0.062693 -0.009397 694851.000000 0 0 1
-30.493299 -18.167282 3.385041 35.655995 0.537310 1.475717 0.067253 -0.019549 1019500.000000 0 0 1
-31.580499 -17.317082 3.018841 36.143086 0.501573 1.487174 0.071762 -0.014798 746061.000000 0 0 1
-32.845199 -17.920882 3.246841 37.556719 0.499472 1.484237 0.079826 -0.017111 295739.000000 0 0 1
-34.032999 -17.002482 2.908441 38.154796 0.463318 1.494495 0.082118 -0.023920 -226227.000000 0 0 1
-34.330999 -17.141782 1.571641 38.404795 0.463095 1.529862 0.076516 -0.022600 319078.000000 0 0 1
-35.444799 -16.294482 1.189141 39.028938 0.430903 1.540323 0.103873 -0.029324 545841.000000 0 0 1
-36.060599 -16.852082 -0.144659 39.804276 0.437169 1.574431 0.090323 -0.028907 -18985.400000 0 0 1
-35.239899 -16.745582 -1.315459 39.038384 0.443602 1.604499 0.094104 -0.027282 70719.900000 0 0 1
-35.669299 -17.499282 -2.365059 39.800971 0.456098 1.630253 0.083360 -0.023274 328967.000000 0 0 1
-34.456699 -17.824682 -3.297659 38.934021 0.477397 1.655597 0.058312 -0.021172 680772.000000 0 0 1
-34.783199 -19.014482 -3.956259 39.838091 0.500273 1.670269 0.057827 -0.029508 -224976.000000 0 0 1
-33.616799 -19.589882 -4.479059 39.165222 0.527632 1.685410 0.053702 -0.022391 -398491.000000 0 0 1
-33.890299 -20.696482 -5.501759 40.089476 0.548243 1.708468 0.068259 -0.029388 -717237.000000 0 0 1
-34.521399 -21.823982 -4.929459 41.137729 0.563751 1.690913 0.075986 -0.038944 -69701.400000 0 0 1
-34.577299 -22.738782 -5.951959 41.809899 0.581715 1.713639 0.073444 -0.031639 216092.000000 0 0 1
-35.409199 -24.019882 -5.751759 43.172316 0.596049 1.704422 0.066731 -0.026042 176323.000000 0 0 1
-34.656899 -24.842982 -4.892759 42.921015 0.621930 1.685039 0.080863 -0.029971 139539.000000 0 0 1
-35.330499 -26.032382 -4.576159 44.123354 0.635015 1.674696 0.076687 -0.010567 525950.000000 0 0 1
-34.280699 -27.038882 -4.004759 43.844105 0.667843 1.662265 0.089272 -0.011889 238313.000000 0 0 1
-33.299599 -27.517382 -4.927259 43.478127 0.690607 1.684368 0.077437 -0.011962 511705.000000 0 0 1
-32.503499 -28.616182 -4.532659 43.542030 0.721882 1.675084 0.077751 -0.009354 572009.000000 0 0 1
-31.473199 -28.416182 -3.369359 42.536975 0.734398 1.650090 0.086293 -0.009165 -424077.000000 0 0 1
-32.126199 -28.290382 -2.153059 42.861102 0.721994 1.621051 0.076909 -0.010958 -328778.000000 0 0 1
-31.282499 -28.037782 -1.068059 42.022051 0.730754 1.596216 0.083351 -0.013562 -528044.000000 0 0 1
-31.973899 -27.979782 0.284241 42.488578 0.718876 1.564106 0.084211 -0.010818 -398546.000000 0 0 1
-32.385999 -29.211382 0.714241 43.619582 0.733906 1.554421 0.073078 -0.005093 -28966.900000 0 0 1
-32.854599 -29.193482 2.056441 43.999012 0.726462 1.524041 0.077349 -0.001993 -257553.000000 0 0 1
-33.626699 -30.489882 2.377741 45.453729 0.736513 1.518461 0.042962 -0.004953 159809.000000 0 0 1
-34.493999 -30.266882 3.566741 46.028706 0.720218 1.493229 0.044167 -0.002379 1057830.000000 0 0 1
-35.086099 -31.408282 4.130141 47.271266 0.730144 1.483314 0.039459 -0.003577 493146.000000 0 0 1
-36.061499 -32.278382 3.237641 48.505752 0.730097 1.503999 0.034058 0.001066 -79723.000000 0 0 1
-36.592899 -33.420582 3.873641 49.708960 0.740119 1.492791 0.049453 -0.012024 50326.200000 0 0 1
36.175495 -33.825682 3.140641 49.625667 -0.751843 1.507467 0.054652 -0.005725 -687753.000000 0 0 1
35.071895 33.407614 3.802341 48.585639 0.761100 1.492456 0.057127 -0.006274 38830.100000 0 0 1
34.275695 -33.959882 4.753941 48.483985 -0.780770 1.472587 0.049902 -0.012793 899942.000000 0 0 1
33.499495 -32.808082 4.318841 47.087565 -0.774971 1.478948 0.054381 -0.011205 292194.000000 0 0 1
32.339995 -33.068082 3.292741 46.370416 -0.796529 1.499727 0.050579 0.004727 2471.310000 0 0 1
32.839695 -33.473982 2.040041 46.937350 -0.794963 1.527320 0.058065 0.004400 179268.000000 0 0 1
31.928595 -33.051582 1.014941 45.965991 -0.802678 1.548714 0.057555 0.008005 -154289.000000 0 0 1
32.314495 -33.744182 -0.355359 46.722828 -0.807037 1.578402 0.060454 0.011573 1005190.000000 0 0 1
33.535195 -33.342882 -0.973359 47.300153 -0.782523 1.591376 0.034923 0.020714 389245.000000 0 0 1
34.765595 -33.607582 -0.300259 48.355003 -0.768463 1.577006 0.033020 0.017654 -301550.000000 0 0 1
35.921595 -33.308282 -1.261159 49.004012 -0.747668 1.596535 0.018405 0.024673 -392842.000000 0 0 1
36.217295 33.684214 -2.133259 49.506258 0.749176 1.613900 0.029579 0.000618 584558.000000 0 0 1
-36.700899 -33.939982 -3.066359 50.082741 0.746334 1.632060 0.019765 0.001171 13660.700000 0 0 1
-35.969399 33.146814 -3.921959 49.070263 -0.744583 1.650807 0.021800 -0.004776 -310655.000000 0 0 1
-34.858699 32.475614 -3.359659 47.760672 -0.750021 1.641198 0.033531 -0.005207 -101647.000000 0 0 1
-34.327999 31.710514 -4.431859 46.942621 -0.745783 1.665347 0.045548 -0.018659 -54200.800000 0 0 1
-32.958399 31.157414 -3.981759 45.529056 -0.757316 1.658364 0.058713 -0.020890 -510179.000000 0 0 1
-31.839399 32.000414 -4.097559 45.327297 -0.787920 1.661319 0.048194 -0.008653 340744.000000 0 0 1
-30.596199 31.391014 -3.744059 43.994786 -0.798220 1.656002 0.080084 -0.020840 776220.000000 0 0 1
-30.303799 31.339814 -2.231659 43.651856 -0.802203 1.621943 0.056815 -0.017107 -717931.000000 0 0 1
-31.169599 30.539114 -1.499859 43.662696 -0.775181 1.605154 0.042271 -0.009229 -566707.000000 0 0 1
-30.741699 30.451314 -0.193659 43.270915 -0.780653 1.575272 0.049402 0.000730 77188.900000 0 0 1
-31.754999 29.802214 0.813541 43.557018 -0.753686 1.552118 0.046426 -0.014741 153321.000000 0 0 1
-32.039699 28.416614 0.522141 42.828950 -0.725541 1.558605 0.045616 -0.021123 423044.000000 0 0 1
-33.349399 28.291314 -0.030859 43.733075 -0.703524 1.571502 0.054674 -0.019112 260034.000000 0 0 1
-33.626499 26.879914 -0.622659 43.054140 -0.674355 1.585259 0.080365 -0.018224 65377.900000 0 0 1
-33.845999 25.824914 0.280541 42.574130 -0.651777 1.564207 0.083525 -0.026719 -18941.200000 0 0 1
-34.253099 24.652014 -0.433759 42.204085 -0.623827 1.581074 0.104474 -0.021393 7255.420000 0 0 1
-34.461699 23.515114 0.598841 41.724428 -0.598785 1.556444 0.118191 -0.029107 -761994.000000 0 0 1
-33.291899 23.050414 1.151041 40.509222 -0.605589 1.542378 0.122855 -0.035021 -642999.000000 0 0 1
-32.900999 23.705114 2.377441 40.620936 -0.624351 1.512235 0.099633 -0.033618 1442610.000000 0 0 1
-31.329199 23.506114 2.686541 39.259058 -0.643689 1.502312 0.095689 -0.036693 1930790.000000 0 0 1
-30.466099 24.241514 1.864541 38.978337 -0.672106 1.522943 0.091081 -0.031407 -100349.000000 0 0 1
-30.121999 25.522714 2.349441 39.550773 -0.702931 1.511358 0.077990 -0.037936 -387609.000000 0 0 1
-29.351199 26.413914 1.429441 39.512417 -0.732774 1.534611 0.056896 -0.024744 1804950.000000 0 0 1
-27.956199 26.095414 1.082741 38.258229 -0.750986 1.542492 0.059015 -0.026330 1675020.000000 0 0 1
-27.428599 27.067014 0.161441 38.535404 -0.778763 1.566607 0.051878 -0.019129 614922.000000 0 0 1
-26.175899 26.557514 -0.623259 37.294339 -0.792635 1.587509 0.048411 -0.017372 82129.200000 0 0 1
-26.392799 25.541414 -1.594059 36.762545 -0.769006 1.614171 0.058325 -0.023630 81020.900000 0 0 1
-25.208399 25.000714 -2.192159 35.571121 -0.781262 1.632463 0.048399 -0.014022 302237.000000 0 0 1
-24.388999 24.032614 -1.371759 34.267646 -0.778038 1.610838 0.035178 -0.016306 -649385.000000 0 0 1
-24.918899 22.760314 -1.226259 33.771100 -0.740156 1.607115 0.058767 -0.014602 -256022.000000 0 0 1
-23.994599 21.947414 -0.536359 32.522569 -0.740867 1.587289 0.045787 -0.023628 -614188.000000 0 0 1
-24.532899 20.493714 -0.237759 31.967358 -0.695931 1.578234 0.052191 -0.018351 459886.000000 0 0 1
-25.439799 20.297814 0.873041 32.556825 -0.673445 1.543977 0.060894 -0.023555 627587.000000 0 0 1
-26.693899 20.944014 0.863341 33.940556 -0.665279 1.545357 0.059340 -0.028845 633005.000000 0 0 1
-27.798299 20.412114 -0.157159 34.488035 -0.633373 1.575353 0.059149 -0.031664 255789.000000 0 0 1
-28.198899 19.092914 0.081741 34.054720 -0.595177 1.568396 0.076974 -0.036363 -149209.000000 0 0 1
-28.885799 18.580914 -1.004459 34.360569 -0.571618 1.600033 0.083762 -0.027491 -256556.000000 0 0 1
-29.283299 17.055314 -0.920859 33.900492 -0.527396 1.597963 0.067430 -0.016839 374728.000000 0 0 1
-30.242799 16.769114 0.110541 34.580953 -0.506278 1.567600 0.072795 -0.037551 576580.000000 0 0 1
-30.562599 15.397214 0.247241 34.222914 -0.466677 1.563572 0.075661 -0.035524 132312.000000 0 0 1
-29.383199 14.547114 0.810041 32.797059 -0.459706 1.546095 0.104169 -0.031443 -128973.000000 0 0 1
-29.164999 14.622314 2.216341 32.700481 -0.464739 1.502967 0.115464 -0.034926 266117.000000 0 0 1
-27.889799 14.180714 2.691241 31.403445 -0.470389 1.484992 0.128717 -0.031313 520618.000000 0 0 1
-27.508799 12.679414 2.512541 30.394316 -0.431900 1.488037 0.146420 -0.034554 -299129.000000 0 0 1
-27.513699 12.171214 1.190441 30.109122 -0.416490 1.531248 0.137380 -0.035517 249567.000000 0 0 1
-27.221399 10.793114 1.175541 29.306617 -0.377480 1.530674 0.175313 -0.032470 -106731.000000 0 0 1
-27.074799 10.306814 -0.259259 28.971406 -0.363740 1.579745 0.156967 -0.022532 175399.000000 0 0 1
-28.345699 9.985214 -0.816659 30.064100 -0.338692 1.597964 0.146790 -0.022157 367525.000000 0 0 1
-28.322199 9.244814 -2.007659 29.860413 -0.315512 1.638082 0.155947 -0.025378 -1033180.000000 0 0 1
-29.660499 8.919414 -2.597059 31.081279 -0.292114 1.654451 0.155577 -0.028657 -1069570.000000 0 0 1
-29.472399 8.210214 -3.807659 30.830637 -0.271685 1.694615 0.175156 -0.022598 1529020.000000 0 0 1
-30.752499 8.003114 -4.474259 32.090264 -0.254595 1.710679 0.159702 -0.023483 951695.000000 0 0 1
-11.038005 17.761914 -19.319859 28.470688 -1.014759 2.316634 0.125994 -0.019989 -14460.200000 0 0 1
-11.361205 16.907014 -20.395859 28.825599 -0.979123 2.356837 0.131649 -0.025092 370518.000000 0 0 1
-10.479505 17.009714 -21.548159 29.384921 -1.018630 2.393969 0.120800 -0.024117 158973.000000 0 0 1
-10.627905 15.731214 -22.439759 29.393303 -0.976639 2.439405 0.110487 -0.019318 -1333.860000 0 0 1
-9.757805 14.665114 -22.125459 28.281023 -0.983688 2.469215 0.133759 -0.022659 51107.800000 0 0 1
-10.072305 13.491814 -22.890859 28.416048 -0.929507 2.507418 0.109528 -0.024250 247767.000000 0 0 1
-9.081405 12.327214 -22.602359 27.300160 -0.935865 2.546186 0.100118 -0.016292 416414.000000 0 0 1
-7.736705 12.501414 -23.018459 27.312843 -1.016620 2.573206 0.063192 -0.012934 -78672.800000 0 0 1
-6.946905 11.457314 -22.515959 26.201106 -1.025736 2.604796 0.050765 -0.002867 -205292.000000 0 0 1
-5.440005 11.658214 -22.705259 26.096674 -1.134204 2.626088 0.025488 0.002070 -292986.000000 0 0 1
-4.993105 11.510014 -23.974659 27.059117 -1.161491 2.659465 0.013953 -0.009787 -1379110.000000 0 0 1
-3.628105 11.703914 -24.003259 26.949976 -1.270199 2.669590 0.019673 -0.007342 -741043.000000 0 0 1
-2.857605 11.396014 -25.339719 27.930922 -1.325107 2.707443 0.051351 -0.029476 -28041.000000 0 0 1
-3.013805 10.009214 -25.623439 27.673598 -1.278328 2.754251 0.042600 -0.024607 -95610.100000 0 0 1
-2.335205 9.631314 -26.781789 28.556603 -1.332927 2.787176 0.055798 -0.028778 -480422.000000 0 0 1
-2.327405 8.037814 -27.002859 28.269730 -1.288948 2.841085 0.061714 -0.012367 36583.900000 0 0 1
-1.366805 7.212014 -26.353929 27.357099 -1.383500 2.869947 0.063062 -0.020366 154318.000000 0 0 1
-1.404705 7.323114 -24.953659 26.043930 -1.381280 2.851220 0.062806 -0.036587 254552.000000 0 0 1
-0.396305 6.271414 -24.344559 25.142498 -1.507688 2.888982 0.005094 -0.023296 -417318.000000 0 0 1
0.912595 6.739014 -24.309959 25.243241 1.436196 2.868823 0.032002 -0.002441 -376637.000000 0 0 1
1.710295 6.048714 -23.325359 24.157492 1.295236 2.878360 0.026699 0.004672 223899.000000 0 1 0
1.667695 6.599414 -21.869059 22.903912 1.323275 2.839842 0.029603 -0.001748 -221783.000000 0 1 0
2.205795 7.915414 -21.736759 23.238029 1.299021 2.780174 0.026090 -0.023302 165820.000000 0 1 0
2.184795 8.508414 -20.483159 22.287356 1.319446 2.736456 0.040083 -0.020158 -485498.000000 0 1 0
2.886995 9.799814 -20.550059 22.949423 1.284304 2.680237 0.043908 -0.025361 -510772.000000 0 1 0
2.888195 10.564514 -19.395859 22.274424 1.303931 2.627559 0.054453 -0.029604 -102469.000000 0 1 0
3.563095 11.782814 -19.588559 23.135297 1.277141 2.580541 0.063288 -0.029978 404770.000000 0 1 0
4.891595 11.936114 -18.773459 22.778088 1.181858 2.539566 0.064262 -0.026338 100886.000000 0 1 0
5.863695 11.074114 -19.276859 22.991655 1.083832 2.565190 0.070557 -0.026357 -393146.000000 0 1 0
6.940795 10.883014 -18.358759 22.442341 1.003071 2.528793 0.070639 -0.016318 340012.000000 0 1 0
7.951795 9.846814 -18.887759 22.736275 0.891469 2.551218 0.088526 -0.021320 -361637.000000 0 1 0
7.640995 8.453114 -18.843359 22.020720 0.835816 2.597718 0.079713 -0.027508 30978.000000 0 1 0
6.935095 8.056914 -20.018959 22.666453 0.860087 2.653433 0.066423 -0.028317 137693.000000 0 1 0
6.753595 6.544214 -20.152559 22.238781 0.769654 2.704981 0.062360 -0.025155 219877.000000 0 1 0
7.958995 5.840014 -20.437959 22.697170 0.633028 2.691629 0.063257 -0.011805 447215.000000 0 1 0
7.687295 4.491014 -20.811759 22.636100 0.528730 2.737363 0.052562 -0.007496 -129313.000000 0 1 0
7.716795 4.331514 -22.349459 24.037663 0.511485 2.764579 0.060966 -0.016579 -537581.000000 0 1 0
6.613295 4.904014 -22.981159 24.411446 0.638064 2.797581 0.065585 -0.018809 -360405.000000 0 1 0
6.518995 4.631014 -24.384259 25.661949 0.617664 2.824708 0.063058 -0.017829 -474884.000000 0 0 1
5.394695 5.398514 -25.065319 26.201467 0.785752 2.846029 0.040202 -0.015804 -357844.000000 0 0 1
5.542895 6.823114 -25.104909 26.599530 0.888558 2.804772 0.053327 -0.022680 116855.000000 0 0 1
5.235595 7.444814 -23.859959 25.536921 0.957890 2.777176 0.076151 -0.036969 -815306.000000 0 0 1
5.297095 8.996214 -24.019559 26.190271 1.038643 2.731585 0.086698 -0.039550 245606.000000 0 0 1
4.258895 9.475314 -24.843459 26.928000 1.148381 2.745533 0.082482 -0.037894 -657686.000000 0 0 1
3.010695 9.625414 -24.266659 26.278957 1.267651 2.747709 0.081185 -0.038890 -526056.000000 0 0 1
1.849895 9.973514 -25.253149 27.214235 1.387400 2.759641 0.087804 -0.022943 278115.000000 0 0 1
1.844395 11.293614 -25.733219 28.162849 1.408912 2.723166 0.110503 -0.041168 -4968.060000 0 0 1
0.677995 11.503114 -26.495059 28.892377 1.511924 2.731355 0.118425 -0.047321 -461559.000000 0 0 1
0.273895 12.904114 -26.940059 29.872361 1.549574 2.694803 0.103077 -0.052350 -156886.000000 0 0 1
-0.231205 13.627514 -25.855259 29.227675 -1.553832 2.656465 0.095120 -0.049915 -99059.000000 0 0 1
-0.677805 14.908614 -26.195689 30.148637 -1.525364 2.623741 0.087637 -0.056487 -444505.000000 0 0 1
-1.169005 15.666314 -24.941559 29.476793 -1.496315 2.579501 0.095441 -0.054286 -493831.000000 0 0 1
-2.380105 15.244314 -24.395059 28.864735 -1.415916 2.577644 0.074441 -0.036880 -633906.000000 0 0 1
-2.655505 15.705614 -23.084259 28.046408 -1.403300 2.537598 0.064313 -0.040871 -592377.000000 0 0 1
-3.918005 15.154014 -22.395759 27.323340 -1.317791 2.531608 0.039313 -0.030436 972497.000000 0 0 1
-5.228205 15.564814 -22.804459 28.100550 -1.246738 2.517563 0.053238 -0.032018 539559.000000 0 0 1
-5.535705 15.021114 -24.107859 28.939018 -1.217712 2.555408 0.060510 -0.033215 -501469.000000 0 0 1
-7.039705 15.233014 -24.445359 29.650931 -1.137897 2.540005 0.050103 -0.029392 178730.000000 0 0 1
-7.440605 16.535314 -24.810959 30.730488 -1.147957 2.510482 0.059683 -0.032792 -1053430.000000 0 0 1
-8.677505 16.402614 -25.398029 31.454804 -1.084194 2.510605 0.075333 -0.026081 -963027.000000 0 0 1
-9.447405 17.641614 -25.868279 32.705471 -1.079140 2.483151 0.076554 -0.025828 159324.000000 0 0 1
-9.910405 18.417014 -24.738559 32.394426 -1.077126 2.439771 0.080904 -0.025889 -312228.000000 0 0 1
-11.043405 19.153514 -25.090329 33.441569 -1.047780 2.419272 0.078829 -0.018644 301903.000000 0 0 1
-11.850005 19.901914 -23.924559 33.300050 -1.033751 2.372374 0.085552 -0.019932 196152.000000 0 0 1
-11.309505 21.056114 -23.331459 33.400926 -1.077901 2.344134 0.073929 -0.021846 -423205.000000 0 0 1
-11.657405 22.338514 -23.806659 34.664987 -1.089820 2.327824 0.059850 -0.022705 -165993.000000 0 0 1
-11.118905 22.746814 -25.254169 35.760602 -1.116139 2.354914 0.051236 -0.019115 -209102.000000 0 0 1
-11.650205 22.061414 -26.363829 36.297173 -1.084937 2.383768 0.054253 -0.030264 -141988.000000 0 0 1
-11.306705 22.745114 -27.543719 37.467830 -1.109468 2.396654 0.047464 -0.019578 -415708.000000 0 0 1
-11.976405 22.080714 -28.736169 38.167520 -1.073813 2.423247 0.048200 -0.021791 -176758.000000 0 0 1
-11.324005 20.960214 -29.360559 37.810132 -1.075460 2.459930 0.045442 -0.020478 25756.500000 0 0 1
-11.091405 19.765614 -28.583669 36.479102 -1.059436 2.471176 0.048635 -0.019387 -293556.000000 0 0 1
-10.253205 18.710314 -29.279509 36.228355 -1.069492 2.511874 0.052847 -0.025876 -855383.000000 0 0 1
-8.920605 19.148114 -29.440489 36.234926 -1.134820 2.519206 0.050793 -0.029959 -152164.000000 0 0 1
-8.093605 18.230414 -30.141689 36.143822 -1.152975 2.557001 0.052321 -0.023347 390667.000000 0 0 1
-7.603805 16.988814 -29.360389 34.763056 -1.149959 2.576588 0.065036 -0.031444 -1091590.000000 0 0 1
-8.626905 16.065714 -29.207489 34.432660 -1.078007 2.583468 0.045766 -0.026844 -603834.000000 0 0 1
-8.321305 14.832214 -28.642269 33.310933 -1.059525 2.605764 0.045352 -0.032864 -184413.000000 0 0 1
-9.590905 13.955214 -28.492499 33.144471 -0.968670 2.605372 0.052269 -0.015049 449236.000000 0 0 1
-10.529305 14.495114 -27.548179 32.861478 -0.942569 2.564976 0.074930 -0.020784 663471.000000 0 0 1
-11.618705 13.554614 -27.374379 32.681470 -0.862150 2.563693 0.108290 -0.019732 484030.000000 0 0 1
-12.644205 14.015714 -26.344179 32.408825 -0.836797 2.519860 0.097716 -0.021981 -10847.200000 0 0 1
-13.325805 15.194214 -26.741879 33.519685 -0.850817 2.494428 0.085908 -0.020081 -822054.000000 0 0 1
-14.207905 15.626814 -25.781129 33.327594 -0.832921 2.455247 0.067189 -0.026292 -183301.000000 0 0 1
-15.070305 16.806914 -26.315299 34.671046 -0.839822 2.432571 0.049716 -0.021839 331382.000000 0 0 1
-14.370905 18.058514 -26.334899 35.016564 -0.898624 2.421993 0.045922 -0.016738 99582.400000 0 0 1
-15.246205 19.074514 -26.711259 36.190817 -0.896484 2.400998 0.030118 -0.022760 -394302.000000 0 0 1
-14.661305 20.462114 -26.543889 36.581826 -0.949076 2.382707 0.030942 -0.022584 -54971.300000 0 0 1
-15.630205 21.516014 -26.664689 37.659631 -0.942542 2.357521 0.010538 -0.019473 320586.000000 0 0 1
-15.125405 22.853814 -26.878969 38.386895 -0.986148 2.346491 0.017697 -0.019239 -204722.000000 0 0 1
-14.718805 23.564714 -25.563419 37.754832 -1.012476 2.314597 0.014098 -0.017236 -251486.000000 0 0 1
-14.207105 24.862914 -25.764039 38.520021 -1.051659 2.303454 0.032839 -0.021840 22456.800000 0 0 1
-13.753105 25.422314 -24.540559 37.916764 -1.074900 2.274731 0.049207 -0.022341 -53695.100000 0 0 1
-13.950005 26.992314 -24.566559 39.073053 -1.093788 2.250720 0.070848 -0.021928 1016670.000000 0 0 1
-15.307405 27.442414 -24.723559 39.983210 -1.061984 2.237436 0.087350 -0.026340 650687.000000 0 0 1
-15.558705 28.681114 -24.028759 40.522350 -1.073751 2.205545 0.083658 -0.028828 798486.000000 0 0 1
-16.981505 29.254214 -24.392459 41.703389 -1.044853 2.195557 0.079935 -0.030755 1521540.000000 0 0 1
-18.040205 28.329514 -24.082559 41.327715 -1.003757 2.192870 0.060674 -0.028659 1152700.000000 0 0 1
-19.246205 28.640214 -24.831959 42.512404 -0.979111 2.194581 0.051685 -0.017272 1201410.000000 0 0 1
-20.456605 27.689414 -24.710359 42.376623 -0.934510 2.193352 0.051673 -0.000105 475181.000000 0 0 1
-21.118805 27.688914 -23.422959 41.968022 -0.919206 2.162908 0.054551 -0.003793 471895.000000 0 0 1
-22.012005 26.552114 -23.284559 41.613866 -0.878614 2.164625 0.060276 -0.019594 575311.000000 0 0 1
-22.677505 26.582014 -21.888759 41.230941 -0.864497 2.130437 0.040774 -0.008277 128099.000000 0 0 1
-23.723705 27.527914 -21.716359 42.334389 -0.859488 2.109440 0.039705 -0.000793 -112622.000000 0 0 1
-24.058805 27.689714 -20.367659 41.956977 -0.855448 2.077664 0.033520 -0.003626 -1134470.000000 0 0 1
-25.280755 28.547714 -20.308759 43.203406 -0.846016 2.060170 0.026635 -0.006199 -823902.000000 0 0 1
-26.427155 27.772014 -20.593259 43.517372 -0.810206 2.063738 0.006598 -0.002754 -637115.000000 0 0 1
-27.575555 28.557214 -20.673659 44.758529 -0.802885 2.050925 0.018619 -0.013218 -553591.000000 0 0 1
-28.861895 27.854614 -21.069859 45.308139 -0.767640 2.054470 0.013139 -0.015268 -443013.000000 0 0 1
-28.801205 27.430114 -22.389059 45.641982 -0.761020 2.083502 0.005985 -0.007425 -549606.000000 0 0 1
-30.008325 26.830014 -22.736359 46.230848 -0.729538 2.084953 0.010880 -0.010894 -382850.000000 0 0 1
-30.020785 26.487914 -24.234659 46.799315 -0.722960 2.115123 0.006580 0.001574 -12090.500000 0 0 1
-29.499935 25.207814 -24.489559 45.884840 -0.707103 2.133787 0.013449 0.009806 -372601.000000 0 0 1
-29.415335 24.954314 -25.867849 46.444864 -0.703532 2.161515 0.046044 0.006831 -180731.000000 0 0 1
-29.549735 23.490214 -26.227249 45.965700 -0.671647 2.178012 0.044931 -0.002685 649405.000000 0 0 1
-28.363865 22.676514 -26.075419 44.706382 -0.674427 2.193532 0.031577 -0.007410 493088.000000 0 0 1
-28.612145 21.355814 -26.566549 44.502889 -0.641187 2.210506 0.064385 -0.022469 55765.600000 0 0 1
-27.497355 20.283914 -26.380479 43.167944 -0.635562 2.228262 0.069014 -0.024539 100670.000000 0 0 1
-27.286455 19.761614 -25.074619 41.997721 -0.626802 2.210611 0.073053 -0.018131 -19971.100000 0 0 1
-26.835155 18.424214 -25.077979 41.091146 -0.601656 2.227237 0.067005 -0.021720 -130880.000000 0 0 1
-27.890335 17.274814 -25.056309 41.280850 -0.554550 2.223041 0.066725 -0.019975 272061.000000 0 0 1
-28.610605 17.128714 -26.294539 42.466014 -0.539451 2.238507 0.073267 -0.024824 71438.600000 0 0 1
-29.479475 16.044014 -26.267189 42.619421 -0.498413 2.234857 0.059527 -0.028698 -298588.000000 0 0 1
-30.196535 15.792514 -27.617089 43.862716 -0.481871 2.251868 0.056042 -0.024831 96958.300000 0 0 1
-31.374365 16.560114 -27.750089 45.040600 -0.485658 2.234594 0.053222 -0.024406 -160844.000000 0 0 1
-32.214765 16.019214 -28.747829 46.052622 -0.461456 2.244953 0.060100 -0.019088 -78850.200000 0 0 1
-33.477395 16.838414 -28.999779 47.384126 -0.466028 2.229402 0.060176 -0.014248 533163.000000 0 0 1
-34.562728 16.593714 -28.077729 47.521494 -0.447605 2.202899 0.048517 -0.016667 1214500.000000 0 0 1
-35.870114 16.759714 -28.640929 48.865693 -0.437092 2.197052 0.051601 -0.015908 765025.000000 0 0 1
36.899909 16.450114 -27.648409 48.955531 0.419359 2.170946 0.040921 -0.010487 -182746.000000 0 0 1
36.719229 17.459114 -26.691029 48.636750 0.443837 2.151704 0.054400 -0.015283 286858.000000 0 0 1
35.562769 17.160114 -25.907489 47.226878 0.449574 2.151455 0.073394 -0.013722 395882.000000 0 0 1
35.054659 18.384514 -25.092229 46.866186 0.483018 2.135779 0.077543 -0.007448 -308164.000000 0 0 1
34.385029 19.352614 -25.835599 47.162825 0.512633 2.150524 0.083609 -0.017249 -97700.000000 0 0 1
33.895189 20.377614 -25.036339 46.807577 0.541298 2.135160 0.093110 -0.016768 -549594.000000 0 0 1
33.096259 21.371014 -25.951499 47.175872 0.573363 2.153282 0.093010 -0.022886 246342.000000 0 0 1
31.815889 21.053414 -26.454659 46.425704 0.584575 2.177093 0.071930 -0.016710 72168.300000 0 0 1
30.808039 21.123514 -25.459419 45.205311 0.601030 2.169044 0.071784 -0.016242 219543.000000 0 0 1
29.334059 21.033214 -25.951749 44.456455 0.622060 2.194144 0.032705 -0.010795 780234.000000 0 0 1
28.798589 19.731314 -26.173559 43.631854 0.600689 2.214138 0.041248 -0.015632 -91454.100000 0 0 1
27.423489 19.716714 -26.500359 42.930939 0.623346 2.236075 0.044164 -0.010582 40467.400000 0 0 1
26.854889 18.320914 -26.150329 41.721465 0.598692 2.248215 0.066117 -0.009657 -707212.000000 0 0 1
27.410889 17.316014 -26.928389 42.146640 0.563417 2.263892 0.055650 -0.005891 -449408.000000 0 0 1
28.411689 16.678414 -26.182809 42.082455 0.530826 2.242319 0.051517 -0.000585 -557604.000000 0 0 1
29.358959 15.900514 -27.111169 43.009188 0.496363 2.252810 0.035191 0.010597 -403048.000000 0 0 1
28.999239 14.652214 -27.710609 42.702705 0.467848 2.276959 0.050245 0.007161 -117488.000000 0 0 1
28.504689 13.573214 -26.940659 41.503596 0.444406 2.277218 0.074719 -0.000786 -429101.000000 0 0 1
29.457499 12.873014 -25.946729 41.312122 0.411993 2.249861 0.071008 -0.000247 -161711.000000 0 0 1
29.752739 13.637714 -24.815259 41.073224 0.429791 2.219522 0.077501 -0.009123 -368009.000000 0 0 1
30.615959 12.938914 -23.990559 40.991454 0.399853 2.195994 0.072783 -0.009174 -393620.000000 0 0 1
-15.070705 -31.157982 -23.512659 41.842456 1.120284 2.167517 0.113103 -0.011788 -32914.000000 0 0 1
-14.263905 -30.119282 -23.986659 41.060808 1.128507 2.194658 0.108904 -0.027908 119220.000000 0 0 1
-14.453205 -30.023182 -25.428419 41.915285 1.122138 2.222651 0.085086 -0.015518 -75345.600000 0 0 1
-13.794605 -28.771982 -25.949699 41.127910 1.123727 2.253575 0.099209 -0.017647 -453723.000000 0 0 1
-14.327405 -27.551882 -25.498829 40.181725 1.091265 2.258271 0.093577 -0.012435 -47956.700000 0 0 1
-13.599805 -26.457082 -26.009429 39.514836 1.095986 2.289247 0.086880 -0.013108 -437732.000000 0 0 1
-13.932705 -25.074882 -25.449559 38.347751 1.063630 2.296487 0.066174 -0.005676 -335907.000000 0 0 1
-13.500805 -24.886782 -24.100759 37.181585 1.073738 2.276002 0.070578 -0.021501 -138626.000000 0 0 1
-13.881905 -23.613782 -23.574859 36.139894 1.039341 2.281441 0.068950 -0.018754 -126207.000000 0 0 1
-13.209205 -23.105282 -22.241559 34.684638 1.051448 2.266924 0.059034 -0.020406 559319.000000 0 0 1
-11.896005 -22.627282 -22.534159 34.077810 1.086772 2.293288 0.072888 -0.020295 262425.000000 0 0 1
-11.199105 -22.179182 -21.396559 32.789462 1.103206 2.281733 0.067655 -0.016106 812960.000000 0 0 1
-9.707605 -21.741082 -21.592359 32.142530 1.150849 2.307391 0.064810 -0.014069 694220.000000 0 0 1
-9.582705 -20.599382 -22.402559 31.906699 1.135379 2.349177 0.067878 -0.012235 289750.000000 0 0 1
-8.219805 -20.476982 -22.796059 31.725893 1.189069 2.372485 0.085189 -0.019841 270256.000000 0 0 1
-8.032305 -19.303782 -23.735659 31.631241 1.176488 2.419443 0.104615 -0.016124 -224102.000000 0 0 1
-8.103505 -18.192682 -22.916459 30.361234 1.151752 2.426135 0.079434 -0.013645 -103557.000000 0 0 1
-8.372705 -16.937782 -23.536459 30.182040 1.111702 2.465169 0.080962 -0.021161 -626152.000000 0 0 1
-7.200905 -16.320382 -24.283859 30.131606 1.155266 2.508035 0.097393 -0.028218 -260933.000000 0 0 1
-7.004205 -16.818382 -25.611449 31.430291 1.176180 2.523293 0.095447 -0.027904 562749.000000 0 0 1
-5.787605 -16.320682 -26.203259 31.408149 1.230014 2.557626 0.097542 -0.032045 674638.000000 0 0 1
-5.321105 -16.985982 -27.569399 32.816299 1.267215 2.568288 0.100938 -0.026336 -460487.000000 0 0 1
-6.186705 -16.754382 -28.604129 33.722112 1.217068 2.583432 0.119715 -0.026859 -497869.000000 0 0 1
-5.861705 -17.542782 -29.770709 35.048593 1.248322 2.585667 0.101133 -0.029346 63565.700000 0 0 1
-6.990205 -17.490182 -30.850509 36.145862 1.190579 2.593463 0.109834 -0.021076 369072.000000 0 0 1
-7.113205 -16.342182 -31.732129 36.394953 1.160262 2.629830 0.101035 -0.024709 -27110.200000 0 0 1
-7.202405 -15.093282 -31.036709 35.255625 1.125560 2.647361 0.096099 -0.027259 -244741.000000 0 0 1
-7.764405 -13.958182 -31.926129 35.698663 1.063158 2.677712 0.084961 -0.027335 195820.000000 0 0 1
-6.946605 -13.701382 -33.087349 36.479526 1.101564 2.706928 0.093523 -0.036625 139118.000000 0 0 1
-7.516505 -12.787382 -33.939399 37.039138 1.039391 2.729568 0.095986 -0.032433 -594346.000000 0 0 1
-7.586405 -11.249382 -33.555599 36.195032 0.977470 2.757336 0.085065 -0.031053 248580.000000 0 0 1
-6.401605 -10.479182 -33.608289 35.781432 1.022409 2.791282 0.083071 -0.029952 208470.000000 0 0 1
-5.764605 -10.322282 33.135575 35.181622 1.061479 0.342722 0.074898 -0.030372 -190770.000000 0 0 1
-4.788605 -9.201082 33.116514 34.702942 1.090931 0.303536 0.065408 -0.026087 -646753.000000 0 0 1
-4.561005 -8.693882 31.807931 33.288599 1.087645 0.299378 0.063540 -0.026603 366256.000000 0 0 1
-3.465805 -7.767382 31.746531 32.866187 1.151107 0.261772 0.057554 -0.029545 -361969.000000 0 0 1
-3.653205 -6.830182 30.507131 31.475107 1.079650 0.248647 0.057067 -0.025966 1212790.000000 0 0 1
-4.814305 -5.967682 30.609231 31.554964 0.891965 0.245446 0.072383 -0.022612 863622.000000 0 0 1
-6.070905 -6.550982 30.328391 31.616176 0.823415 0.286396 0.070592 -0.021671 691231.000000 0 0 1
-7.269805 -5.540382 30.101201 31.458357 0.651206 0.294806 0.062140 -0.020561 1374730.000000 0 0 1
-8.472105 -6.116682 29.596521 31.387010 0.625325 0.339400 0.072154 -0.021746 -393295.000000 0 0 1
-9.564705 -5.247782 29.618001 31.563409 0.501815 0.352927 0.053615 -0.020239 -27067.200000 0 0 1
-10.777605 -5.972582 28.965551 31.477479 0.506036 0.402207 0.059768 -0.024135 61609.400000 0 0 1
-10.557505 -6.129182 27.545381 30.129318 0.525997 0.417172 0.049689 -0.020250 275180.000000 0 0 1
-11.642705 -6.816982 26.960101 30.147485 0.529701 0.463991 0.048511 -0.024205 5500.380000 0 0 1
-11.670705 -6.712382 25.467391 28.807107 0.521945 0.486304 0.040376 -0.025699 -8716.290000 0 0 1
-10.660405 -7.470882 24.826931 28.032746 0.611267 0.482925 0.044398 -0.016995 143284.000000 0 0 1
-10.122905 -6.860282 23.673961 26.645696 0.595602 0.476791 0.049743 -0.021620 -260561.000000 0 0 1
-10.964605 -6.970782 22.389171 25.886084 0.566295 0.525822 0.059117 -0.026593 -1148420.000000 0 0 1
-12.076705 -6.196582 22.513271 26.288625 0.474074 0.542563 0.043166 -0.020485 -1137180.000000 0 0 1
-12.912405 -6.331982 21.375271 25.762888 0.455922 0.592240 0.048677 -0.019520 115549.000000 0 0 1
-13.904605 -5.152982 21.271871 25.930364 0.354903 0.608780 0.038936 -0.013800 623947.000000 0 0 1
-13.187205 -3.949082 20.933171 25.053848 0.290964 0.581705 0.027708 -0.011729 388145.000000 0 0 1
-14.226405 -3.048082 20.752071 25.344227 0.211064 0.611464 0.022982 -0.010734 249996.000000 0 0 1
-13.740905 -1.712082 20.098371 24.406725 0.123959 0.603284 0.013087 -0.006430 393691.000000 0 1 0
-12.830505 -0.994082 20.951171 24.587835 0.077324 0.550821 0.015613 -0.009366 264270.000000 0 1 0
-13.005705 0.441918 20.830971 24.561617 -0.033966 0.558387 0.021712 -0.013254 -117733.000000 0 1 0
-12.555805 1.105918 19.489671 23.210312 -0.087853 0.574068 0.038728 -0.015658 556344.000000 0 1 0
-13.403905 0.664918 18.384771 22.761955 -0.049566 0.630560 0.050016 -0.014363 171524.000000 0 1 0
-14.652605 1.274918 18.281571 23.463591 -0.086791 0.677494 0.044682 -0.011632 -839167.000000 0 1 0
-15.582905 0.494918 17.375871 23.345080 -0.031750 0.731302 0.055284 -0.009386 -624228.000000 0 1 0
-16.052905 -0.654082 17.952071 24.091501 0.040723 0.730019 0.034288 -0.006505 -159863.000000 0 1 0
-17.067205 -1.266082 17.227671 24.283433 0.074047 0.782091 0.040040 -0.005813 -417924.000000 0 1 0
-17.038705 -2.807082 17.471071 24.564924 0.163281 0.779564 0.039988 -0.006935 -89036.900000 0 1 0
-17.442005 -3.179782 18.780271 25.826985 0.180326 0.756625 0.033773 -0.005158 -42702.300000 0 0 1
-17.479805 -4.583982 18.962371 26.194045 0.256469 0.761330 0.042532 -0.006605 -275588.000000 0 0 1
-18.088905 -5.001482 20.312871 27.655669 0.269755 0.745878 0.034529 0.001881 -450950.000000 0 0 1
-17.441005 -4.599482 21.480471 28.049145 0.257846 0.698488 0.029137 0.002272 196697.000000 0 0 1
-18.255305 -4.695482 22.682471 29.492342 0.251755 0.693369 0.035022 -0.009389 -182748.000000 0 0 1
-18.515605 -6.134882 23.236851 30.338353 0.319952 0.698320 0.052818 -0.011700 93619.700000 0 0 1
-17.460605 -6.824982 23.886801 30.364986 0.372619 0.665422 0.015666 -0.019542 -812877.000000 0 0 1
-16.415205 -7.122982 23.053071 29.182870 0.409407 0.660065 0.022626 -0.017035 -1796290.000000 0 0 1
-15.342705 -7.879582 23.810831 29.401396 0.474446 0.626894 0.031320 -0.014587 -366788.000000 0 0 1
-15.871305 -9.080682 24.335081 30.439338 0.519686 0.644398 0.032350 -0.023386 596385.000000 0 0 1
-15.079105 -9.381882 25.488331 31.065321 0.556567 0.608554 0.050270 -0.020090 759332.000000 0 0 1
-15.935005 -10.294582 26.424481 32.529310 0.573583 0.622663 0.046255 -0.029862 -166147.000000 0 0 1
-15.919605 -11.642582 26.111091 32.722662 0.631449 0.646908 0.042854 -0.034569 110089.000000 0 0 1
-15.021805 -12.317382 26.973811 33.240924 0.686798 0.624144 0.059154 -0.031558 -75750.100000 0 0 1
-15.067805 -13.847182 26.803341 33.722430 0.743209 0.652082 0.046452 -0.026969 221308.000000 0 0 1
-16.336505 -14.385882 27.177541 34.820307 0.721991 0.675318 0.043092 -0.025745 363850.000000 0 0 1
-16.495805 -15.790182 27.015221 35.373205 0.763546 0.701740 0.057810 -0.017262 -389659.000000 0 0 1
-15.575505 -16.751982 27.776251 35.982571 0.821775 0.688915 0.062678 -0.014612 318956.000000 0 0 1
-14.251905 -16.745982 27.227591 34.998378 0.865685 0.679372 0.073341 -0.023291 263203.000000 0 0 1
-13.444405 -17.631282 27.990251 35.708098 0.919323 0.669934 0.090380 -0.015149 16312.000000 0 0 1
-11.996805 -17.573282 27.449211 34.730430 0.971794 0.659416 0.090449 -0.026260 -328126.000000 0 0 1
-11.049905 -18.376782 28.088861 35.338232 1.029424 0.652024 0.102328 -0.024679 -462736.000000 0 0 1
-10.114105 -18.808182 27.142731 34.536512 1.077407 0.666623 0.088707 -0.024883 -302251.000000 0 0 1
-8.858805 -19.435982 27.796331 35.055269 1.143135 0.655196 0.111874 -0.027022 -52995.200000 0 0 1
-9.091205 -20.684982 28.428691 36.314033 1.156702 0.671552 0.102205 -0.011907 678124.000000 0 0 1
-7.891205 -21.406582 28.821111 36.758255 1.217618 0.669597 0.106256 -0.009883 951549.000000 0 0 1
-8.121805 -22.638182 29.672961 38.196016 1.226334 0.681133 0.097920 -0.013369 70576.500000 0 0 1
-8.591005 -23.669482 28.812361 38.264891 1.222625 0.718231 0.099058 -0.019134 61279.200000 0 0 1
-8.671105 -24.865482 29.520521 39.559341 1.235262 0.728410 0.082568 -0.016690 -168533.000000 0 0 1
-8.867905 -26.068782 28.598861 39.700327 1.242902 0.766463 0.078703 -0.013323 807106.000000 0 0 1
-10.222605 -26.244782 28.141631 39.815093 1.199366 0.785820 0.072201 -0.018174 794994.000000 0 0 1
-10.415105 -27.525782 27.555681 40.316977 1.209069 0.818283 0.071130 -0.020231 182748.000000 0 0 1
-11.833605 -27.662382 26.919781 40.372221 1.166568 0.840904 0.057218 -0.021727 286189.000000 0 0 1
-11.996605 -26.999882 25.660921 39.133043 1.152675 0.855640 0.072599 -0.029058 246870.000000 0 0 1
-12.003605 -25.561782 25.688951 38.176085 1.131770 0.832665 0.061230 -0.016453 -599537.000000 0 0 1
-12.085805 -24.971782 24.256471 36.851499 1.120048 0.852342 0.081796 -0.031518 153092.000000 0 0 1
-13.358005 -25.134582 23.650981 37.007465 1.082299 0.877486 0.057633 -0.021217 490900.000000 0 0 1
-13.302505 -24.787482 22.269871 35.879285 1.078251 0.901175 0.063933 -0.024284 103432.000000 0 0 1
-14.716405 -24.687482 21.648571 35.982009 1.033244 0.925231 0.056614 -0.022199 59812.700000 0 0 1
-15.332405 -25.940082 21.461071 36.993893 1.036969 0.951915 0.060356 -0.021709 -109816.000000 0 0 1
-16.529705 -26.009082 20.755671 37.155099 1.004656 0.978072 0.057404 -0.019629 -327910.000000 0 0 1
-16.730405 -27.413382 20.153371 37.915147 1.022837 1.010380 0.060558 -0.019856 -359057.000000 0 0 1
-15.830305 -27.679382 19.134171 37.186870 1.051282 1.030324 0.058014 -0.017944 -164007.000000 0 0 1
-16.016905 -28.974982 18.673471 38.010385 1.065818 1.057246 0.073447 -0.012044 -75848.100000 0 0 1
-15.012105 -29.400982 17.606471 37.413485 1.098706 1.080835 0.074027 -0.018756 -143289.000000 0 0 1
-15.318205 -28.859482 16.364071 36.541756 1.082824 1.106472 0.073967 -0.021920 289989.000000 0 0 1
-14.130305 -28.926382 15.591871 35.770205 1.116397 1.119770 0.084414 -0.021527 355701.000000 0 0 1
-14.336905 -28.373482 14.156471 34.799526 1.102924 1.151847 0.077100 -0.017936 -187900.000000 0 0 1
-14.096605 -26.983882 14.100871 33.551136 1.089383 1.137042 0.069735 -0.014748 -60879.600000 0 0 1
-14.420105 -26.341582 12.899471 32.683555 1.069930 1.165079 0.069037 -0.021012 -200953.000000 0 0 1
-13.615905 -26.687382 11.657271 32.148114 1.099022 1.199728 0.077120 -0.013097 -173768.000000 0 0 1
-14.067305 -26.029582 10.530771 31.405817 1.075326 1.228859 0.063600 -0.015532 -124774.000000 0 0 1
-13.274505 -26.397382 9.439871 31.018469 1.104854 1.261561 0.079179 -0.015544 39471.000000 0 0 1
-13.656705 -25.604882 8.180971 30.150355 1.080816 1.296012 0.079157 -0.013333 353078.000000 0 0 1
-14.655105 -26.255382 7.398271 30.965329 1.061698 1.329542 0.079577 -0.017705 223923.000000 0 0 1
-15.076005 -25.416882 6.317171 30.219373 1.035429 1.360199 0.081982 -0.019549 170250.000000 0 0 1
-16.101505 -26.091182 5.378171 31.127688 1.017880 1.397147 0.092648 -0.023779 289273.000000 0 0 1
-15.474505 -27.127682 4.624571 31.571476 1.052402 1.423788 0.091077 -0.023236 210885.000000 0 0 1
-16.165105 -27.380882 3.411071 31.979036 1.037481 1.463927 0.103270 -0.021592 -47798.700000 0 0 1
-15.836205 -28.684682 2.708071 32.877501 1.066359 1.488334 0.096591 -0.022809 74095.900000 0 0 1
-14.526705 -28.617082 2.171871 32.166436 1.101068 1.503225 0.095715 -0.017119 -305.735000 0 0 1
-14.127705 -29.840982 1.564571 33.053353 1.128627 1.523444 0.095755 -0.015905 1167010.000000 0 0 1
-12.599805 -29.774582 1.118571 32.350148 1.170474 1.536212 0.079247 -0.018575 1416620.000000 0 0 1
-12.339905 -29.146582 -0.149929 31.651524 1.170304 1.575533 0.088026 -0.011148 -86062.200000 0 0 1
-12.480205 -27.722282 -0.167029 30.402440 1.147787 1.576290 0.078614 -0.015791 -333406.000000 0 0 1
-12.233005 -27.134982 -1.532929 29.804422 1.147260 1.622252 0.082999 -0.009236 122272.000000 0 0 1
-10.985705 -27.527082 -2.071329 29.710543 1.191077 1.640570 0.090111 -0.013073 -195802.000000 0 0 1
-10.563605 -26.423982 -2.942029 28.608952 1.190485 1.673814 0.096844 -0.016480 940382.000000 0 0 1
-9.284905 -26.870882 -3.741029 28.674886 1.238102 1.701633 0.089721 -0.021955 961091.000000 0 0 1
-8.620605 -25.795582 -4.437429 27.557534 1.248276 1.732525 0.081225 -0.021075 -16984.300000 0 0 1
-7.461805 -26.207082 -5.145729 27.730276 1.293412 1.757442 0.079388 -0.016234 87484.300000 0 0 1
-6.724205 -25.057882 -5.765629 26.577338 1.308626 1.789473 0.056902 -0.017252 -67701.000000 0 0 1
-7.166205 -24.588582 -7.092529 26.575493 1.287207 1.840953 0.065647 -0.020861 -12601.900000 0 0 1
-6.330705 -23.548482 -7.567529 25.531869 1.308169 1.871713 0.052299 -0.021151 39905.300000 0 0 1
-6.447405 -23.400982 -9.099029 25.922333 1.301948 1.929447 0.056628 -0.021314 197556.000000 0 0 1
-5.718905 -24.479982 -9.696129 26.944208 1.341297 1.938914 0.038803 -0.024420 -24211.900000 0 0 1
-5.827805 -24.621982 -11.112429 27.634967 1.338382 1.984622 0.034546 -0.013118 715273.000000 0 0 1
-7.150505 -25.295782 -11.677829 28.764179 1.295308 1.988853 0.057609 -0.016017 835082.000000 0 0 1
-7.295505 -25.247882 -13.053129 29.343894 1.289503 2.031784 0.068722 -0.015092 1405950.000000 0 0 1
-8.522405 -25.925782 -13.518029 30.455126 1.253201 2.030706 0.102176 -0.018986 1137060.000000 0 0 1
-8.734705 -25.904882 -15.071329 31.217030 1.245584 2.074636 0.103423 -0.019199 172495.000000 0 0 1
-7.801205 -26.526482 -15.918029 31.904494 1.284769 2.093157 0.078528 -0.020902 -309902.000000 0 0 1
-6.491705 -26.065982 -16.057729 31.295820 1.326713 2.109583 0.071272 -0.016304 -292172.000000 0 0 1
-5.495405 -27.027482 -16.720629 32.253120 1.370204 2.115797 0.062982 -0.009836 -160101.000000 0 0 1
-5.483605 -26.976782 -18.116429 32.954844 1.370257 2.152843 0.104144 -0.015883 676655.000000 0 0 1
-4.318605 -27.646682 -18.629229 33.616031 1.415842 2.158170 0.091823 -0.019383 433441.000000 0 0 1
-25.020105 14.363514 -5.731659 29.413740 -0.521142 1.766914 0.082507 -0.019442 62503.100000 0 0 1
-24.927005 13.420014 -4.689659 28.695736 -0.493872 1.734960 0.083032 -0.020415 785549.000000 0 0 1
-23.749605 12.598614 -4.810359 27.311323 -0.487731 1.747850 0.100825 -0.022034 -18666.700000 0 0 1
-23.867005 11.130014 -4.339059 26.689672 -0.436355 1.734096 0.108712 -0.024554 -118982.000000 0 0 1
-24.571305 10.175814 -5.123859 27.084131 -0.392631 1.761126 0.106698 -0.026748 -98034.000000 0 0 1
-25.965745 10.238114 -5.010359 28.357408 -0.375577 1.748415 0.121992 -0.024251 -485042.000000 0 0 1
-26.722595 9.618814 -6.205559 29.071079 -0.345512 1.785913 0.142149 -0.023103 42138.100000 0 0 1
-26.434415 10.355114 -7.415059 29.342628 -0.373356 1.826272 0.173555 -0.029914 135068.000000 0 0 1
-26.491225 9.534714 -8.576559 29.432179 -0.345485 1.866487 0.154114 -0.034167 -188887.000000 0 0 1
-26.899015 10.343914 -9.821359 30.446883 -0.367114 1.899243 0.133828 -0.025987 -50838.300000 0 0 1
-25.895325 11.144914 -10.421559 30.056378 -0.406421 1.924883 0.120630 -0.022391 162337.000000 0 0 1
-26.357415 11.782414 -11.637359 31.128231 -0.420377 1.953955 0.104341 -0.020919 99810.300000 0 0 1
-25.459495 12.884814 -12.310159 31.076428 -0.468508 1.978089 0.102172 -0.022446 -88469.500000 0 0 1
-25.516345 14.105114 -11.535259 31.354431 -0.504981 1.947545 0.103092 -0.026569 333414.000000 0 0 1
-24.853405 15.088114 -12.296259 31.568036 -0.545612 1.970902 0.097216 -0.026302 -143480.000000 0 0 1
-24.762605 16.381214 -11.482959 31.833774 -0.584438 1.939832 0.106409 -0.017181 -600437.000000 0 0 1
-23.761305 16.567514 -10.537959 30.824191 -0.608876 1.919706 0.090151 -0.008462 -348246.000000 0 0 1
-23.856505 17.808314 -9.892359 31.370809 -0.641242 1.891607 0.067192 -0.004792 -199043.000000 0 0 1
-22.673905 18.208814 -8.991959 30.438828 -0.676612 1.870682 0.058393 -0.005736 -344906.000000 0 0 1
-22.733305 17.841214 -7.576159 29.874911 -0.665407 1.827192 0.068841 -0.009599 753050.000000 0 0 1
-23.680405 18.659614 -6.832359 30.913168 -0.667367 1.793654 0.053124 -0.006443 436511.000000 0 0 1
-24.111705 18.126614 -5.468859 30.657086 -0.644637 1.750144 0.044399 -0.002140 573400.000000 0 0 1
-23.053705 18.149614 -4.489459 29.682269 -0.666934 1.722630 0.053375 -0.014187 1070730.000000 0 0 1
-23.593905 17.617214 -3.231659 29.622327 -0.641376 1.680109 0.049763 -0.009346 494552.000000 0 0 1
-22.443405 17.210114 -2.284659 28.374533 -0.654181 1.651402 0.068861 -0.022804 158203.000000 0 0 1
-21.672905 18.254514 -1.698859 28.387114 -0.699991 1.630678 0.055909 -0.018751 312775.000000 0 0 1
-20.733205 17.754714 -0.754459 27.306865 -0.708164 1.598429 0.123122 -0.042996 227182.000000 0 0 1
-19.943205 18.992414 -0.284259 27.541315 -0.760983 1.581118 0.107469 -0.035143 -95511.000000 0 0 1
-20.801805 19.741514 0.558141 28.683689 -0.759252 1.551337 0.098303 -0.028127 558561.000000 0 0 1
-20.238505 21.007714 0.924941 29.185213 -0.804045 1.539099 0.096804 -0.035230 -102052.000000 0 0 1
-21.182005 21.701414 1.894641 30.384509 -0.797510 1.508400 0.080636 -0.028987 -302294.000000 0 0 1
-21.042505 21.353114 3.290341 30.159060 -0.792724 1.461479 0.089084 -0.032022 -296155.000000 0 0 1
-22.190505 21.614214 4.035441 31.239039 -0.772243 1.441255 0.071843 -0.023949 -460033.000000 0 0 1
-21.966105 21.276514 5.502241 31.072086 -0.769452 1.392778 0.090298 -0.027583 -257384.000000 0 0 1
-21.137005 22.253214 6.087241 31.289504 -0.811117 1.375002 0.080951 -0.019506 -118748.000000 0 0 1
-20.558305 21.723414 7.287541 30.784069 -0.812947 1.331797 0.078979 -0.013829 -209506.000000 0 0 1
-21.368305 21.552514 8.600941 31.545072 -0.789690 1.294644 0.077367 -0.030893 -714914.000000 0 0 1
-22.388305 20.582514 8.457941 31.566008 -0.743399 1.299537 0.089133 -0.027590 575944.000000 0 0 1
-22.875305 19.989414 9.699641 31.889486 -0.718174 1.261735 0.093264 -0.023691 -168610.000000 0 0 1
-23.580105 20.851714 10.715041 33.250977 -0.724069 1.242694 0.098302 -0.023012 -524658.000000 0 0 1
-24.873205 21.255514 10.256541 34.288043 -0.707132 1.267017 0.115919 -0.024085 479184.000000 0 0 1
-25.347555 22.097714 11.272741 35.466636 -0.717008 1.247345 0.119846 -0.022855 85358.800000 0 0 1
-26.799485 22.593314 10.983141 36.732815 -0.700446 1.267151 0.122047 -0.026250 220178.000000 0 0 1
-27.247425 23.548414 11.907141 37.930595 -0.712705 1.251478 0.113687 -0.015981 21338.900000 0 0 1
-26.790775 24.877814 11.725441 38.394495 -0.748391 1.260444 0.113402 -0.014240 52506.400000 0 0 1
-27.434925 25.780214 12.806041 39.765428 -0.754313 1.242913 0.121098 -0.018012 329088.000000 0 0 1
-26.736775 25.552314 14.038941 39.558410 -0.762750 1.207998 0.087217 -0.015123 158402.000000 0 0 1
-27.219535 26.257814 15.156441 40.744247 -0.767416 1.189645 0.098167 -0.010689 -54091.800000 0 0 1
-26.256225 26.307114 16.364141 40.610821 -0.786366 1.156058 0.081308 -0.018875 83845.500000 0 0 1
-25.983315 25.136114 17.067741 39.978303 -0.768827 1.129707 0.075103 -0.014917 143912.000000 0 0 1
-24.961805 25.405114 18.014941 39.913026 -0.794200 1.102513 0.066520 -0.005353 30656.200000 0 0 1
-24.404205 24.195014 18.766741 39.155517 -0.781094 1.070954 0.067968 -0.001930 396817.000000 0 0 1
-23.243205 24.442214 19.586441 39.003809 -0.810537 1.044693 0.090809 -0.018492 858305.000000 0 0 1
-22.820405 23.169614 20.039441 38.199230 -0.792991 1.018547 0.091898 -0.016438 -156915.000000 0 0 1
-21.341005 23.118914 20.479441 37.541047 -0.825366 0.993785 0.081098 -0.027734 -560388.000000 0 0 1
-20.425605 23.163814 19.391141 36.466204 -0.848134 1.010123 0.070561 -0.022821 1382790.000000 0 0 1
-19.053405 22.875314 19.754541 35.728898 -0.876299 0.984955 0.067917 -0.022204 1333370.000000 0 0 1
-18.765605 21.361014 19.802641 34.649466 -0.849989 0.962447 0.068198 -0.003380 240263.000000 0 0 1
-19.653005 20.727714 20.780141 35.322699 -0.812006 0.941848 0.081211 -0.003778 684402.000000 0 0 1
-18.952405 20.448014 21.964941 35.493290 -0.823339 0.903521 0.088124 -0.015498 -236884.000000 0 0 1
-19.891205 20.064014 23.094341 36.490729 -0.789723 0.885526 0.089893 -0.016248 -680900.000000 0 0 1
-20.846505 21.033314 23.351041 37.712707 -0.789859 0.903095 0.090182 -0.017914 -149440.000000 0 0 1
-21.716505 20.632714 24.408441 38.640491 -0.759812 0.887077 0.095514 -0.014827 380565.000000 0 0 1
-22.810905 21.692314 24.779441 40.061386 -0.760268 0.903917 0.094896 -0.020759 -212829.000000 0 0 1
-22.364305 22.932814 25.300341 40.818910 -0.797948 0.902284 0.109186 -0.032519 481742.000000 0 0 1
-23.440505 23.753114 25.780441 42.169881 -0.792022 0.913034 0.102081 -0.039841 208057.000000 0 0 1
-24.294705 24.497614 24.720841 42.443914 -0.789557 0.949075 0.081402 -0.031067 551881.000000 0 0 1
-25.205355 23.590114 24.041441 42.068924 -0.752308 0.962491 0.068518 -0.027548 245643.000000 0 0 1
-25.786285 24.204814 22.926341 42.147630 -0.753774 0.995655 0.066505 -0.017251 -41911.600000 0 0 1
-26.665945 23.284914 22.042141 41.702708 -0.717814 1.013900 0.062194 -0.012839 671767.000000 0 0 1
-27.891085 23.021614 22.740541 42.720482 -0.690045 1.009469 0.058032 -0.018912 1024450.000000 0 0 1
-28.812435 22.156414 21.988541 42.480102 -0.655543 1.026730 0.054193 -0.014858 1754020.000000 0 0 1
-30.282845 22.257814 22.562741 43.835355 -0.633830 1.030120 0.062243 -0.012916 -8064.500000 0 0 1
-30.920605 23.442314 22.098141 44.653710 -0.648694 1.053102 0.070334 -0.010164 197027.000000 0 0 1
-32.314485 23.489214 22.336241 45.769825 -0.628549 1.060985 0.077256 -0.014363 479907.000000 0 0 1
-33.217895 22.553914 21.472641 45.532208 -0.596471 1.079701 0.083872 -0.022082 -1181180.000000 0 0 1
-33.074065 21.184714 21.803741 44.923146 -0.569684 1.064025 0.066810 -0.016981 311801.000000 0 0 1
-33.762455 20.373814 20.858041 44.610017 -0.542949 1.084263 0.082063 -0.011808 1380240.000000 0 0 1
-35.350146 20.348414 20.837441 45.802727 -0.522304 1.098493 0.118986 -0.020602 928173.000000 0 0 1
-35.946104 19.685414 19.746441 45.492416 -0.501027 1.121802 0.117802 -0.015185 -1204240.000000 0 0 1
36.589799 19.785814 19.764441 46.053501 0.495711 1.127231 0.136405 -0.033929 -1115640.000000 0 0 1
35.913549 19.063514 18.594641 44.709744 0.487996 1.141868 0.145788 -0.037120 -77628.800000 0 0 1
36.102769 17.621814 18.604341 44.272562 0.454084 1.137105 0.150245 -0.033735 139341.000000 0 0 1
35.352499 16.993014 17.601241 42.992620 0.448067 1.148998 0.168486 -0.045076 -115840.000000 0 0 1
35.589469 15.445014 17.523641 42.570374 0.409450 1.146544 0.161557 -0.044802 423313.000000 0 0 1
34.661579 14.747314 16.693441 41.201691 0.402265 1.153638 0.177875 -0.045463 534110.000000 0 0 1
35.226439 13.450114 16.394441 41.116727 0.364735 1.160666 0.152301 -0.036721 435866.000000 0 0 1
34.331409 12.662914 15.416241 39.707122 0.353362 1.172066 0.150425 -0.037319 48648.000000 0 0 1
34.210559 13.141814 14.065441 39.254379 0.366764 1.204334 0.149963 -0.042153 252386.000000 0 0 1
33.463709 12.204414 13.304041 38.023217 0.349715 1.213340 0.153632 -0.039661 -32461.400000 0 0 1
33.460969 12.519414 11.766441 37.614110 0.358025 1.252636 0.167626 -0.039217 -132943.000000 0 0 1
34.768159 12.283214 11.306541 38.568641 0.339602 1.273272 0.146110 -0.030761 229157.000000 0 0 1
34.703649 12.001014 9.876141 38.025067 0.332941 1.308057 0.134504 -0.032507 -389578.000000 0 0 1
36.104199 12.161214 9.277941 39.210821 0.324900 1.331914 0.096676 -0.010200 -551556.000000 0 0 1
-36.925545 11.131214 9.662741 39.758878 -0.292787 1.325304 0.131415 -0.020112 1118070.000000 0 0 1
-35.598927 11.087314 9.058541 38.370162 -0.301929 1.332463 0.136034 -0.022411 1352120.000000 0 0 1
-35.501414 10.847514 7.497941 37.871336 -0.296542 1.371495 0.111617 -0.027234 -799029.000000 0 0 1
-35.828353 12.006314 6.756641 38.385866 -0.323346 1.393855 0.100011 -0.025227 300986.000000 0 0 1
-35.354172 11.828414 5.429141 37.673657 -0.322862 1.426183 0.116072 -0.036857 -39591.800000 0 0 1
-36.125205 12.818414 4.542341 38.600195 -0.340974 1.452846 0.105891 -0.037266 1259120.000000 0 0 1
36.487569 12.311614 4.055941 38.721689 0.325424 1.465858 0.105026 -0.027066 2005890.000000 0 0 1
35.341849 13.164114 4.209341 37.948106 0.356559 1.459644 0.079624 -0.032558 875516.000000 0 0 1
34.842699 13.449214 5.630341 37.770303 0.368378 1.421171 0.105964 -0.024938 -1220060.000000 0 0 1
34.653499 14.851114 5.829841 38.149805 0.404882 1.417381 0.112926 -0.021425 108423.000000 0 0 1
34.172009 15.302114 7.070241 38.103401 0.421020 1.384161 0.078477 -0.020540 867704.000000 0 0 1
32.687569 14.914114 7.490441 36.701698 0.428050 1.365263 0.125940 -0.024386 1060300.000000 0 0 1
32.692149 13.527714 7.809741 36.232136 0.392338 1.353544 0.161941 -0.029505 13016.000000 0 0 1
31.363359 13.132014 8.073441 34.946967 0.396527 1.337671 0.163527 -0.031077 71517.000000 0 0 1
30.986509 11.764714 7.402841 33.961365 0.362861 1.351054 0.166296 -0.026713 -81728.000000 0 0 1
30.890669 11.883014 6.004241 33.637633 0.367230 1.391337 0.144310 -0.029591 262395.000000 0 0 1
31.273039 10.690014 5.352141 33.480215 0.329377 1.410248 0.165454 -0.034050 -72142.900000 0 0 1
30.970299 10.760114 3.839441 33.010313 0.334386 1.454222 0.148178 -0.040139 1011600.000000 0 0 1
29.575839 10.572514 3.509741 31.604218 0.343315 1.459514 0.133709 -0.031315 1151370.000000 0 0 1
29.236059 11.096414 2.231941 31.350584 0.362750 1.499543 0.141307 -0.043698 436930.000000 0 0 1
27.759389 10.844214 1.791541 29.856160 0.372420 1.510755 0.139313 -0.027000 468940.000000 0 0 1
27.440389 9.525714 1.463541 29.083606 0.334127 1.520453 0.118448 -0.035044 -33120.200000 0 0 1
26.042489 9.337114 1.535041 27.708289 0.344257 1.515368 0.112368 -0.028711 -86572.600000 0 0 1
25.629089 7.872114 1.301941 26.842418 0.298008 1.522274 0.122647 -0.030103 -41791.600000 0 0 1
25.962689 6.908014 2.290741 26.963482 0.260050 1.485737 0.124801 -0.022503 382665.000000 0 0 1
27.363489 6.695014 2.403341 28.272951 0.239956 1.485689 0.133292 -0.027719 -80626.200000 0 0 1
27.801489 6.019814 3.683341 28.683234 0.213237 1.442026 0.136047 -0.034792 -1180650.000000 0 0 1
29.160899 6.108714 3.925941 30.051413 0.206497 1.439781 0.156567 -0.027796 -611076.000000 0 0 1
29.465479 5.428014 5.085441 30.389792 0.182174 1.402665 0.149130 -0.030139 1228560.000000 0 0 1
30.979289 5.435514 5.589641 31.945348 0.173688 1.394916 0.138328 -0.031915 1239250.000000 0 0 1
31.352669 6.687714 6.165441 32.645490 0.210157 1.380795 0.153954 -0.033153 643089.000000 0 0 1
32.733989 6.521814 6.545641 34.013137 0.196662 1.377144 0.153040 -0.026186 1158510.000000 0 0 1
33.175579 7.742614 7.468041 34.876048 0.229279 1.354994 0.150267 -0.035764 208235.000000 0 0 1
32.547679 7.619114 8.743341 34.552110 0.229950 1.314967 0.153425 -0.030818 259354.000000 0 0 1
33.240879 8.311414 9.757741 35.626523 0.245012 1.293361 0.159879 -0.029933 -254475.000000 0 0 1
32.509959 8.128914 11.094941 35.299779 0.245020 1.251071 0.153894 -0.023065 281671.000000 0 0 1
31.268149 8.836214 11.098841 34.335988 0.275413 1.241643 0.147071 -0.032860 413407.000000 0 0 1
30.571099 8.591914 12.294341 34.052370 0.273979 1.201411 0.130119 -0.030169 -177233.000000 0 0 1
29.222889 9.337514 12.370041 33.078457 0.309274 1.187520 0.120574 -0.031349 -371774.000000 0 0 1
29.318079 10.740114 12.633341 33.682356 0.351149 1.186321 0.143033 -0.045168 200371.000000 0 0 1
29.270379 11.540514 11.470841 33.489084 0.375559 1.221193 0.158282 -0.051620 690443.000000 0 0 1
27.922389 11.597514 10.627841 32.048606 0.393667 1.232780 0.130614 -0.044855 558958.000000 0 0 1
28.001989 12.457414 9.542441 32.099170 0.418585 1.268954 0.114447 -0.028063 924154.000000 0 0 1
26.806789 12.371414 8.743441 30.791291 0.432379 1.282877 0.104795 -0.027028 556922.000000 0 0 1
26.611789 13.616314 7.784241 30.889897 0.472936 1.316050 0.090995 -0.027172 -45481.200000 0 0 1
26.591589 14.854114 8.507041 31.624785 0.509423 1.298443 0.089418 -0.024484 371968.000000 0 0 1
26.937089 15.926414 7.645041 32.213415 0.533957 1.331185 0.086728 -0.020220 -960585.000000 0 0 1
26.452789 17.259114 8.200441 32.632412 0.578095 1.316776 0.092415 -0.031330 474498.000000 0 0 1
25.059889 17.532514 8.043841 31.624207 0.610474 1.313613 0.081911 -0.027593 765418.000000 0 0 1
24.176189 16.789714 8.863641 30.739986 0.607007 1.278301 0.083931 -0.023955 -967590.000000 0 0 1
22.878889 17.530514 9.160841 30.243735 0.653808 1.263062 0.076632 -0.025652 -679366.000000 0 0 1
22.113489 17.911914 8.065841 29.578723 0.680809 1.294608 0.086889 -0.032228 580530.000000 0 0 1
21.023589 18.815914 8.326841 29.417107 0.730041 1.283812 0.115867 -0.034530 371957.000000 0 0 1
20.344789 19.214014 7.017341 28.850162 0.756821 1.325098 0.107919 -0.037112 -250315.000000 0 0 1
21.130889 20.117714 6.246041 29.837056 0.760840 1.359898 0.080618 -0.027693 236083.000000 0 0 1
20.440189 20.692114 5.168341 29.541101 0.791523 1.394937 0.088401 -0.036578 -104065.000000 0 0 1
18.119195 16.972414 32.725096 41.076757 0.752730 0.649012 0.066339 -0.005646 46914.200000 0 0 1
17.379995 17.672014 31.735761 40.268137 0.793729 0.663062 0.062234 -0.010276 266370.000000 0 0 1
17.018195 16.764214 30.753201 38.941202 0.777880 0.660421 0.077775 -0.017040 -275790.000000 0 0 1
16.509095 17.419614 29.503531 38.032243 0.812228 0.682893 0.080297 -0.021766 -504018.000000 0 0 1
17.467295 17.977114 28.662741 38.076709 0.799781 0.718547 0.086873 -0.022593 -634590.000000 0 0 1
16.994995 18.304514 27.404661 37.079651 0.822479 0.739099 0.102965 -0.032629 -593911.000000 0 0 1
18.116595 18.624414 26.437131 37.067529 0.799219 0.776722 0.088208 -0.027991 -317087.000000 0 0 1
18.615295 19.947714 26.701331 38.175929 0.819936 0.796199 0.097932 -0.026609 357387.000000 0 0 1
19.643195 20.326314 25.796071 38.268152 0.802488 0.831068 0.087818 -0.023410 -279561.000000 0 0 1
20.266195 21.662914 26.046201 39.476640 0.818697 0.850260 0.091520 -0.022790 -880464.000000 0 0 1
19.536495 22.815714 25.720621 39.544681 0.862671 0.862660 0.090556 -0.032305 56558.800000 0 0 1
19.965295 23.928714 26.439191 40.868413 0.875449 0.867239 0.083731 -0.026745 -214427.000000 0 0 1
19.002795 25.051114 26.054231 40.834881 0.921839 0.878848 0.102579 -0.028472 90416.600000 0 0 1
19.191995 25.520314 24.742841 40.395882 0.925998 0.911566 0.102982 -0.029251 224173.000000 0 0 1
18.276195 26.578914 24.531481 40.524703 0.968427 0.920595 0.106861 -0.035371 62465.500000 0 0 1
18.506295 27.380714 23.181181 40.367730 0.976437 0.959108 0.087451 -0.030611 636201.000000 0 0 1
19.771495 28.059414 23.211231 41.436747 0.956970 0.976217 0.095315 -0.026613 652542.000000 0 0 1
19.707695 28.908614 22.151271 41.409902 0.972442 1.006375 0.082515 -0.024239 807224.000000 0 0 1
21.001795 29.800814 21.972071 42.566839 0.956897 1.028414 0.080645 -0.013142 593361.000000 0 0 1
22.105295 29.104014 21.442571 42.373005 0.921226 1.040205 0.086467 -0.015428 -744633.000000 0 0 1
23.149595 29.927014 21.067071 43.305328 0.912402 1.062743 0.074295 -0.019401 -446160.000000 0 0 1
23.350995 30.128814 19.529571 42.830113 0.911462 1.097326 0.061571 -0.017781 -240356.000000 0 0 1
22.468495 31.012814 18.879071 42.697157 0.943822 1.112788 0.056886 -0.008907 263819.000000 0 0 1
22.703595 30.909014 17.511071 42.159910 0.937270 1.142470 0.067603 -0.007965 337.576000 0 0 1
22.118495 32.121314 16.730171 42.437074 0.967768 1.165561 0.079046 -0.017286 -33642.200000 0 0 1
22.942695 33.235114 17.002871 43.818235 0.966600 1.172301 0.078764 -0.013078 367312.000000 0 0 1
23.213695 -33.950382 15.945671 44.110866 -0.971057 1.200930 0.078043 -0.010478 -62750.900000 0 0 1
24.313495 33.826714 14.918271 44.248700 0.947586 1.226913 0.064025 -0.011452 -401542.000000 0 0 1
23.965695 32.761014 14.022571 42.944977 0.939221 1.238173 0.077190 -0.017080 214240.000000 0 0 1
22.981295 33.100914 13.056571 42.358995 0.963920 1.257458 0.061362 -0.015540 -119941.000000 0 0 1
22.505195 31.871614 12.270871 40.900585 0.955975 1.266086 0.060593 -0.027460 331244.000000 0 0 1
23.527695 31.350314 11.401071 40.821306 0.926990 1.287739 0.067432 -0.047899 474246.000000 0 0 1
23.055495 30.122114 10.840571 39.451433 0.917511 1.292433 0.061311 -0.046076 -876842.000000 0 0 1
24.024395 29.233614 9.983271 39.133636 0.882899 1.312838 0.068166 -0.045182 113981.000000 0 0 1
25.008795 28.551114 10.714371 39.438607 0.851440 1.295666 0.075417 -0.038641 450688.000000 0 0 1
26.049395 29.413614 11.230171 40.863779 0.845981 1.292394 0.073642 -0.037756 -74356.900000 0 0 1
27.438395 28.716714 11.366171 41.312287 0.808158 1.292073 0.086054 -0.034222 446714.000000 0 0 1
27.617795 27.772014 12.426871 41.090808 0.788182 1.263561 0.088423 -0.025928 -252054.000000 0 0 1
28.966495 27.711714 12.823371 42.088428 0.763263 1.261197 0.097778 -0.012648 -95173.700000 0 0 1
29.251795 26.631014 13.879571 41.922797 0.738535 1.233354 0.088169 -0.017315 -405317.000000 0 0 1
30.489895 26.876614 14.469671 43.143452 0.722495 1.228782 0.073941 -0.018947 -425199.000000 0 0 1
30.808895 25.834314 15.327571 43.029458 0.697800 1.206586 0.081083 -0.018555 -303978.000000 0 0 1
31.939995 25.980214 16.358671 44.302832 0.682863 1.192598 0.086272 -0.019742 -438043.000000 0 0 1
33.177395 26.032814 15.703471 45.000511 0.665314 1.214333 0.100710 -0.015252 -650430.000000 0 0 1
34.192195 26.259214 16.666171 46.221356 0.654915 1.201914 0.084386 -0.016431 1336340.000000 0 0 1
35.635795 26.348114 15.996971 47.117259 0.636665 1.224396 0.099359 -0.020592 1283650.000000 0 0 1
35.877695 27.548514 15.258671 47.738419 0.654825 1.245456 0.102728 -0.018400 408194.000000 0 0 1
-36.642499 27.905814 15.127571 48.479384 -0.650865 1.253455 0.104987 -0.014898 945037.000000 0 0 1
-36.402399 29.212314 14.319671 48.821583 -0.676253 1.273113 0.092287 -0.015319 405909.000000 0 0 1
36.796695 30.343114 14.890271 49.964202 0.689571 1.268180 0.096346 -0.009766 261765.000000 0 0 1
36.679695 31.298414 13.846571 50.166904 0.706401 1.291156 0.080034 -0.000963 715791.000000 0 0 1
35.613795 32.391114 14.303871 50.220786 0.738045 1.281978 0.072502 -0.002323 500321.000000 0 0 1
35.161595 33.243214 13.252171 50.170400 0.757361 1.303481 0.049681 -0.006870 210118.000000 0 0 1
34.238295 -33.902882 13.738071 50.103901 -0.780476 1.293047 0.049383 -0.009499 444879.000000 0 0 1
32.733295 33.926814 13.451471 49.024885 0.803301 1.292851 0.067925 -0.008448 143753.000000 0 0 1
32.383195 32.669814 14.020471 48.089101 0.789804 1.274947 0.065126 -0.014023 -377467.000000 0 0 1
31.237195 32.200814 13.359871 46.809624 0.800587 1.281364 0.074749 -0.014736 -579210.000000 0 0 1
30.592095 31.001114 14.045871 45.762778 0.792039 1.258833 0.083311 -0.018633 -346666.000000 0 0 1
29.920695 31.327014 15.206471 45.911508 0.808355 1.233208 0.075355 -0.008601 -425891.000000 0 0 1
29.384795 30.318014 15.921371 45.123588 0.801028 1.210193 0.071306 -0.014000 -43380.900000 0 0 1
28.748995 30.947114 17.238871 45.622443 0.822203 1.183313 0.057746 -0.004602 -18804.000000 0 0 1
28.554995 29.897214 18.114671 45.137262 0.808357 1.157834 0.048403 -0.000549 46187.400000 0 0 1
28.897395 30.262214 19.448771 46.142342 0.808464 1.135703 0.031873 0.001948 -78599.700000 0 0 1
28.812895 29.095914 20.482471 45.785224 0.790285 1.106985 0.042487 0.001883 173126.000000 0 0 1
27.536995 28.761814 20.993471 45.013930 0.807150 1.085605 0.044064 -0.003109 49124.200000 0 0 1
27.717795 27.920614 22.111371 45.130362 0.789043 1.058770 0.039314 -0.003554 250807.000000 0 0 1
26.521595 27.835714 23.104701 44.855871 0.809569 1.029687 0.053901 -0.008895 603841.000000 0 0 1
25.401995 27.139014 22.545871 43.475323 0.818446 1.025595 0.072300 -0.015455 710765.000000 0 0 1
24.253095 27.060914 23.401931 43.222171 0.840062 0.998655 0.079864 -0.024656 548667.000000 0 0 1
24.090495 25.994214 24.487031 43.077440 0.823390 0.966185 0.082983 -0.024718 -78025.600000 0 0 1
25.024495 26.084214 25.573091 44.278602 0.806130 0.955072 0.066733 -0.018607 212163.000000 0 0 1
24.716795 25.140914 26.600551 44.165313 0.793905 0.924423 0.079253 -0.022116 -430805.000000 0 0 1
25.891495 24.801214 27.567001 45.226201 0.763894 0.915321 0.087744 -0.029728 162636.000000 0 0 1
26.385795 25.861014 28.340931 46.564048 0.775354 0.916446 0.095470 -0.026334 599507.000000 0 0 1
27.082895 26.893414 27.584961 47.092133 0.781888 0.944972 0.061563 -0.015727 -756957.000000 0 0 1
27.567295 28.127514 28.309711 48.503119 0.795457 0.947558 0.033662 -0.011084 -647499.000000 0 0 1
28.655795 27.965114 29.183351 49.546646 0.773200 0.940966 0.044402 -0.010809 -58890.100000 0 0 1
28.897195 29.134814 29.958901 50.807687 0.789493 0.940167 0.046243 -0.016027 -288847.000000 0 0 1
30.396895 29.391914 30.120251 51.914212 0.768591 0.951831 0.031917 -0.012201 -54131.200000 0 0 1
31.029695 29.668814 28.864601 51.732443 0.762982 0.978872 0.015091 -0.010132 808336.000000 0 0 1
32.463195 29.786214 28.883811 52.681611 0.742421 0.990501 0.043971 -0.009971 1296780.000000 0 0 1
33.050895 30.246014 27.508391 52.572755 0.741114 1.020143 0.036097 -0.009172 -28557.800000 0 0 1
32.711695 31.608214 27.369591 53.086992 0.768244 1.029134 0.025268 -0.007659 157711.000000 0 0 1
32.964295 32.111014 26.038631 52.875063 0.772287 1.055887 0.039018 -0.009556 -174785.000000 0 0 1
32.702295 33.602714 25.834491 53.535067 0.798977 1.067208 0.037157 -0.015573 -321561.000000 0 0 1
33.675395 -33.637882 26.363041 54.410930 -0.784841 1.064985 0.055769 -0.016829 -36504.400000 0 0 1
33.190795 -32.320082 26.390711 53.316847 -0.772108 1.052986 0.058076 -0.009219 -28673.200000 0 0 1
34.132095 -31.244082 27.034121 53.591382 -0.741252 1.042053 0.062194 -0.011086 83258.100000 0 0 1
34.193695 -31.338382 28.435731 54.404906 -0.741854 1.020818 0.063391 -0.018976 435962.000000 0 0 1
35.412995 -30.831982 28.949701 55.161368 -0.716355 1.018295 0.059906 -0.026183 45877.700000 0 0 1
35.307295 -30.458682 30.467921 55.701262 -0.711806 0.992034 0.061140 -0.024807 -273433.000000 0 0 1
35.364495 -31.552482 31.355361 56.827505 -0.728493 0.986319 0.063780 -0.022081 79488.300000 0 0 1
34.194995 -32.329982 31.487991 56.621718 -0.757371 0.981097 0.051901 -0.025413 -408829.000000 0 0 1
34.251595 -33.361882 32.650497 57.898548 -0.772240 0.971664 0.059983 -0.017279 -391168.000000 0 0 1
33.987495 -32.830182 33.942203 58.181129 -0.768079 0.947902 0.050962 -0.019212 184226.000000 0 0 1
34.216195 -33.676982 -33.047379 58.283929 -0.777456 2.173664 0.053330 -0.020810 -252644.000000 0 0 1
33.398895 33.116914 -32.858149 57.374856 0.781159 2.180583 0.061866 -0.021871 -278967.000000 0 0 1
33.729395 32.103014 -33.793059 57.534741 0.760698 2.198578 0.063852 -0.016735 -812780.000000 0 0 1
32.837695 31.088614 -33.878519 56.502833 0.758044 2.213785 0.065426 -0.013142 -781025.000000 0 0 1
32.959595 30.178814 32.980803 55.541238 0.741384 0.935014 0.054947 -0.011593 -323625.000000 0 0 1
34.110295 29.391414 33.105823 55.887055 0.711223 0.936799 0.035910 -0.010923 -299271.000000 0 0 1
34.329395 28.561214 31.968831 54.920456 0.693936 0.949496 0.026339 -0.009203 -458881.000000 0 0 1
35.647895 27.801714 32.080551 55.433469 0.662363 0.953636 0.023615 -0.006652 -422396.000000 0 0 1
35.721095 26.885914 33.112639 55.635384 0.645203 0.933316 0.026120 -0.002852 -584921.000000 0 0 1
-36.894799 26.399714 33.286876 56.268883 -0.621080 0.937794 0.018555 -0.004464 -1095360.000000 0 0 1
-36.835499 25.017114 33.977869 56.010763 -0.596600 0.918980 0.022222 0.005594 -221097.000000 0 0 1
36.803995 24.004714 33.035234 54.973512 0.577942 0.926132 0.014157 0.010848 65491.900000 0 0 1
36.546395 22.759514 33.666891 54.654314 0.556985 0.907145 0.031560 -0.005488 -29578.600000 0 0 1
36.048395 21.601414 32.734727 53.269787 0.539856 0.909034 0.027990 -0.012271 145532.000000 0 0 1
-36.873199 21.187514 31.792781 53.097312 -0.521537 0.928839 0.033419 -0.008375 296185.000000 0 0 1
36.548395 20.168214 30.896911 51.934200 0.504241 0.933625 0.039949 -0.004730 -171798.000000 0 0 1
-36.240399 19.566414 30.060031 50.988396 -0.495061 0.940299 0.038202 -0.027378 -807825.000000 0 0 1
-35.594699 20.379014 29.157521 50.323433 -0.519976 0.952801 0.028347 -0.018795 -763218.000000 0 0 1
-34.539999 19.672314 28.567531 48.950131 -0.517730 0.947635 0.032842 -0.013811 -491142.000000 0 0 1
-34.845399 18.486014 27.593091 48.138480 -0.487761 0.960388 0.054582 -0.014908 -629789.000000 0 0 1
-35.479399 17.446514 28.328691 48.638291 -0.457015 0.949074 0.045876 -0.013870 -113016.000000 0 0 1
-35.980299 16.521414 27.443191 48.173310 -0.430461 0.964684 0.074029 -0.029709 -86167.300000 0 0 1
-36.642699 15.314914 28.139951 48.673307 -0.395886 0.954350 0.076643 -0.030329 157931.000000 0 0 1
-35.684199 14.479314 28.746471 48.055928 -0.385464 0.929559 0.068045 -0.024007 491099.000000 0 0 1
-36.335799 13.813814 29.816961 48.991458 -0.363296 0.916482 0.066349 -0.031422 282496.000000 0 0 1
-35.467399 12.564014 30.145851 48.213724 -0.340448 0.895339 0.068457 -0.026208 775071.000000 0 0 1
-34.142499 12.946414 30.508481 47.582426 -0.362437 0.874773 0.066517 -0.015179 475566.000000 0 0 1
-33.360799 11.831014 30.920971 47.000237 -0.340801 0.852783 0.069997 -0.019060 269948.000000 0 0 1
-31.842299 12.132714 30.896001 45.996713 -0.364042 0.834295 0.075151 -0.014047 -152857.000000 0 0 1
-31.231599 12.214314 29.587321 44.721492 -0.372800 0.847858 0.068317 -0.019700 1154230.000000 0 0 1
-29.815199 12.414914 29.533811 43.764394 -0.394560 0.830053 0.056453 -0.017570 668605.000000 0 0 1
-28.810999 11.374814 29.962731 43.095537 -0.376023 0.802011 0.065097 -0.014097 -623148.000000 0 0 1
-28.592699 10.293614 29.079951 42.061199 -0.345563 0.807410 0.070385 -0.021827 -687418.000000 0 0 1
-27.532299 9.495814 29.439371 41.411044 -0.332122 0.780010 0.059454 -0.019701 -886605.000000 0 0 1
-27.077899 8.483414 28.354881 40.114589 -0.303610 0.785765 0.061797 -0.027624 -90686.300000 0 0 1
-27.879899 7.364014 28.125911 40.281315 -0.258236 0.797864 0.069170 -0.025154 756849.000000 0 0 1
-29.231599 7.585714 27.677511 40.964302 -0.253903 0.828951 0.087652 -0.019103 760349.000000 0 0 1
-30.173199 6.358314 27.702841 41.452352 -0.207689 0.838868 0.092307 -0.023136 119732.000000 0 0 1
-30.758499 6.060014 28.978461 42.691454 -0.194528 0.824685 0.096944 -0.025535 548753.000000 0 0 1
-31.277499 4.704514 29.209411 43.053503 -0.149293 0.825153 0.107373 -0.028083 304537.000000 0 0 1
-31.976099 4.362714 30.548121 44.437505 -0.135599 0.812838 0.104314 -0.027049 934671.000000 0 0 1
-33.303399 4.919414 30.663871 45.536689 -0.146655 0.832014 0.116488 -0.030311 656193.000000 0 0 1
-33.965199 4.424614 31.812671 46.746743 -0.129540 0.822307 0.117293 -0.026126 693772.000000 0 0 1
-35.414799 5.004114 31.923541 47.941231 -0.140371 0.842111 0.104834 -0.022106 510143.000000 0 0 1
-35.489499 6.394314 32.261768 48.386088 -0.178262 0.840947 0.110052 -0.024857 -586322.000000 0 0 1
-36.789899 6.877414 32.411226 49.510434 -0.184805 0.857098 0.097925 -0.024069 -375089.000000 0 0 1
36.919195 8.368114 32.739827 50.049461 0.222894 0.857739 0.087744 -0.020256 -63775.000000 0 0 1
-36.721899 8.711014 -33.974649 50.780473 -0.232911 2.303725 0.087989 -0.023089 266948.000000 0 0 1
36.868195 10.068414 -33.718309 50.966274 0.266592 2.293721 0.084444 -0.032511 -215479.000000 0 0 1
36.674795 10.226614 -32.200609 49.864851 0.271938 2.272811 0.073497 -0.030310 233062.000000 0 0 1
35.459895 9.734714 -31.620839 48.497899 0.267927 2.281021 0.078858 -0.024109 426254.000000 0 0 1
35.462095 9.946914 -30.246979 47.659007 0.273467 2.258357 0.065400 -0.018202 -320815.000000 0 0 1
34.207895 9.473014 -29.502279 46.155200 0.270155 2.264250 0.050407 -0.013546 -192357.000000 0 0 1
34.072595 8.037114 -29.587609 45.836268 0.231648 2.272483 0.033680 -0.013786 926919.000000 0 0 1
32.738495 7.687114 -29.177519 44.522223 0.230626 2.285439 0.052252 -0.019160 664934.000000 0 0 1
35.559129 5.756514 -18.938659 40.697197 0.160493 2.054832 0.047500 -0.010336 -678496.000000 0 0 1
35.114139 6.962714 -18.407059 40.252974 0.195749 2.045736 0.042882 -0.004243 408405.000000 0 0 1
35.922179 8.120214 -18.623359 41.269484 0.222314 2.038976 0.029491 -0.003555 -112594.000000 0 0 1
-36.511805 8.254014 -18.114759 41.585877 -0.222327 2.021500 0.043204 -0.008738 458486.000000 0 0 1
-35.513229 7.612914 -18.867559 40.928360 -0.211172 2.049907 0.057708 -0.018471 89300.800000 0 0 1
-35.190434 8.322314 -20.048659 41.347023 -0.232227 2.077031 0.050205 -0.012910 -826834.000000 0 0 1
-34.407207 7.434314 -21.050659 41.015304 -0.212797 2.109751 0.034427 -0.005229 -104478.000000 0 0 1
-35.108878 6.415114 -21.729659 41.784747 -0.180727 2.117692 0.029517 0.004846 286000.000000 0 0 1
-36.068135 6.904314 -22.680059 43.162078 -0.189136 2.124055 0.020181 0.014050 378926.000000 0 0 1
-36.139115 5.758114 -23.691759 43.594621 -0.158004 2.145345 0.028834 0.006604 -523124.000000 0 0 1
-34.942055 5.595414 -24.377759 42.971281 -0.158786 2.174024 0.044334 -0.004720 -462909.000000 0 0 1
-34.693317 4.284014 -24.908359 42.923250 -0.122860 2.189893 0.063303 -0.004109 121753.000000 0 0 1
-33.497295 4.256014 -25.910939 42.562415 -0.126378 2.225312 0.089381 -0.014233 750217.000000 0 0 1
-32.236565 4.368714 -25.251809 41.181739 -0.134700 2.230876 0.085177 -0.014687 -13499.500000 0 0 1
-31.207435 4.038714 -26.150099 40.915069 -0.128700 2.264164 0.109877 -0.018176 757339.000000 0 0 1
-29.755595 4.161614 -25.553309 39.442186 -0.138959 2.275578 0.114195 -0.025103 680431.000000 0 0 1
-29.460575 5.453314 -25.200859 39.150318 -0.183034 2.270113 0.081051 -0.016447 670287.000000 0 0 1
-28.055165 5.652214 -24.974359 37.983660 -0.198807 2.288296 0.090306 -0.017708 939562.000000 0 0 1
-27.608095 7.131214 -25.146849 38.018747 -0.252777 2.293524 0.062669 -0.022309 74305.700000 0 0 1
-28.186115 8.010114 -24.168359 37.983267 -0.276887 2.260475 0.064628 -0.021637 614.589000 0 0 1
-27.694865 9.344514 -24.335659 38.033535 -0.325415 2.265096 0.030163 -0.013440 -176496.000000 0 0 1
-26.293425 9.689414 -23.785459 36.755639 -0.353070 2.274602 0.056442 -0.008939 -125614.000000 0 0 1
-26.226125 9.811614 -22.370359 35.840067 -0.357995 2.244867 0.037935 -0.003470 977613.000000 0 0 1
-24.861105 9.729014 -21.905259 34.533587 -0.373014 2.257922 0.067837 -0.014233 813199.000000 0 0 1
-24.805305 10.331714 -20.480259 33.785921 -0.394660 2.222042 0.088513 -0.024736 -640240.000000 0 0 1
-25.090205 11.707214 -20.206259 34.276379 -0.436576 2.201248 0.079027 -0.028878 808351.000000 0 0 1
-26.415285 12.217614 -20.431259 35.559439 -0.433217 2.182871 0.063149 -0.017431 554605.000000 0 0 1
-27.427405 11.749914 -19.351459 35.564055 -0.404747 2.146148 0.054034 -0.010663 -575454.000000 0 0 1
-27.151265 12.251514 -18.047459 34.828172 -0.423878 2.115525 0.054625 -0.021904 -136130.000000 0 0 1
-28.056815 11.750414 -17.112559 34.901243 -0.396614 2.083246 0.048563 -0.022216 -837949.000000 0 0 1
-27.549535 11.772314 -15.642959 33.797432 -0.403829 2.051998 0.075033 -0.028406 136129.000000 0 0 1
-26.746135 10.662214 -15.301459 32.606337 -0.379338 2.059270 0.097828 -0.036460 652244.000000 0 0 1
-25.384015 10.769014 -15.683159 31.721938 -0.401230 2.087935 0.100724 -0.029259 -320032.000000 0 0 1
-24.559405 9.454614 -15.714859 30.651442 -0.367482 2.109118 0.084886 -0.026644 -634477.000000 0 0 1
-23.190105 9.661814 -15.819059 29.687948 -0.394764 2.132755 0.083250 -0.025505 -524900.000000 0 0 1
-22.528605 8.438814 -15.602459 28.673827 -0.358404 2.146155 0.088714 -0.031404 197430.000000 0 0 1
-20.989605 8.445414 -15.402859 27.370360 -0.382541 2.168513 0.129606 -0.034209 338992.000000 0 0 1
-20.276905 8.704114 -16.600059 27.612976 -0.405475 2.215759 0.140724 -0.043985 -363961.000000 0 0 1
-18.926205 8.950014 -16.360059 26.569824 -0.441725 2.234119 0.158008 -0.045546 -994362.000000 0 0 1
-18.118705 9.426714 -17.597459 26.959617 -0.479736 2.281984 0.118844 -0.033001 -13371.000000 0 0 1
-17.844805 8.457814 -18.605959 27.132147 -0.442604 2.326434 0.163841 -0.043795 438826.000000 0 0 1
-17.052405 7.339214 -18.141859 25.957188 -0.406429 2.344675 0.173033 -0.043513 -435055.000000 0 0 1
-16.588105 6.490014 -19.364759 26.311203 -0.372936 2.397923 0.161431 -0.044397 172331.000000 0 0 1
-17.558105 5.738014 -20.098759 27.297838 -0.315860 2.398348 0.157193 -0.037227 196892.000000 0 0 1
-18.314705 6.572714 -20.995059 28.625539 -0.344560 2.394162 0.137192 -0.042759 -252342.000000 0 0 1
-19.263705 5.738214 -21.870559 29.704188 -0.289508 2.398351 0.123214 -0.031250 -365615.000000 0 0 1
-20.230205 5.162414 -21.020859 29.627491 -0.249851 2.359592 0.130336 -0.030475 23273.300000 0 0 1
-20.792305 4.006314 -21.623559 30.264646 -0.190350 2.366680 0.093271 -0.010919 -118415.000000 0 0 1
-21.584705 3.159814 -20.594559 30.000330 -0.145359 2.327430 0.106113 -0.016469 -323814.000000 0 0 1
-22.310405 2.080514 -21.065459 30.754451 -0.092984 2.325340 0.120298 -0.013094 -146141.000000 0 0 1
-23.063105 1.551414 -20.028959 30.585501 -0.067167 2.284782 0.107995 -0.016074 -389162.000000 0 0 1
-23.836005 0.286514 -20.530259 31.459955 -0.012020 2.281786 0.112394 -0.010423 -162676.000000 0 0 1
-23.041405 -0.896686 -20.513759 30.862999 0.038897 2.297851 0.095503 -0.016171 255861.000000 0 0 1
-23.728005 -2.129986 -20.709659 31.566518 0.089527 2.286388 0.098204 -0.020850 -430431.000000 0 0 1
-24.237405 -2.487586 -22.123459 32.910292 0.102276 2.308020 0.098448 -0.024561 -103946.000000 0 0 1
-23.286005 -2.528686 -23.154859 32.935995 0.108169 2.350440 0.080172 -0.026296 -350263.000000 0 0 1
-22.424905 -3.627186 -23.164559 32.444254 0.160359 2.365963 0.082187 -0.031960 567515.000000 0 0 1
-21.254305 -3.525186 -24.221259 32.416690 0.164361 2.414612 0.075014 -0.032129 517724.000000 0 0 1
-21.779405 -3.783886 -25.492399 33.742002 0.172020 2.427228 0.072861 -0.033411 220190.000000 0 0 1
-20.832505 -3.856286 -26.531619 33.952776 0.183037 2.467746 0.072936 -0.036771 -549947.000000 0 0 1
-21.546805 -3.877886 -27.892769 35.458558 0.178069 2.476128 0.073678 -0.039624 227479.000000 0 0 1
-22.435705 -4.988386 -27.918459 36.161930 0.218782 2.452841 0.086165 -0.033331 90636.400000 0 0 1
-23.135605 -5.265286 -29.083299 37.534221 0.223772 2.457270 0.049904 -0.030535 -186606.000000 0 0 1
-22.513005 -6.360386 -29.996519 38.040518 0.275344 2.479230 0.061125 -0.024387 137604.000000 0 0 1
-21.302905 -6.091186 -30.681709 37.845522 0.278501 2.516159 0.063309 -0.022100 377665.000000 0 0 1
-20.637805 -7.319886 -31.014779 37.965988 0.340841 2.526829 0.069416 -0.012475 282109.000000 0 0 1
-19.275805 -7.078386 -31.744359 37.806937 0.351929 2.567423 0.081477 -0.015438 -33888.500000 0 0 1
-19.140505 -6.827086 -33.122769 38.859823 0.342616 2.591288 0.073462 -0.026063 214094.000000 0 0 1
-19.545605 -7.906386 -33.987879 39.996469 0.384388 2.586349 0.064529 -0.018849 -649894.000000 0 0 1
-19.532105 -7.517986 32.538383 38.688107 0.367425 0.571587 0.066071 -0.027739 240009.000000 0 0 1
-18.245605 -7.288686 31.993291 37.544610 0.380055 0.550734 0.072887 -0.031300 358128.000000 0 0 1
-17.505805 -6.171886 32.439799 37.374937 0.338956 0.519725 0.072523 -0.029921 281056.000000 0 0 1
-16.160105 -5.821586 31.729111 36.080138 0.345772 0.496182 0.068380 -0.030685 640059.000000 0 0 1
-16.415105 -5.552586 30.413431 35.003766 0.326179 0.517898 0.064003 -0.034027 1217300.000000 0 0 1
-15.142805 -5.353386 29.748681 33.807504 0.339813 0.495054 0.055678 -0.030727 1139000.000000 0 0 1
-15.325405 -5.472786 28.194021 32.553375 0.342991 0.523478 0.041626 -0.022939 350898.000000 0 0 1
-16.120005 -4.353186 27.756011 32.391371 0.263757 0.541580 0.034482 -0.029146 282079.000000 0 0 1
-16.545205 -4.482386 26.391501 31.469778 0.264567 0.576033 0.031644 -0.025080 -49531.500000 0 0 1
-15.537905 -3.945786 25.377471 30.016858 0.248689 0.563407 0.035499 -0.022871 -66612.300000 0 0 1
-15.386605 -2.537486 25.283171 29.705642 0.163444 0.552675 0.029816 -0.012211 93490.600000 0 0 1
-14.370405 -2.202486 24.346691 28.357025 0.152082 0.538309 0.026181 -0.007127 161702.000000 0 0 1
-14.233005 -0.672286 24.299151 28.168762 0.047199 0.530355 0.020275 -0.005313 525483.000000 0 0 1
-15.360905 -0.063086 23.623551 28.178601 0.004107 0.576546 0.029186 -0.013253 767994.000000 0 0 1
-15.560705 1.179814 24.180081 28.778531 -0.075675 0.573121 0.008747 -0.004268 -353377.000000 0 0 1
-16.301405 2.183514 23.260511 28.487803 -0.133154 0.615460 0.013013 -0.002837 -295016.000000 0 0 1
-15.454805 2.639814 22.251771 27.220598 -0.169176 0.613808 0.017907 0.001523 145718.000000 0 0 1
-16.061505 3.584314 21.404971 26.999853 -0.219564 0.655438 0.023956 0.003363 442727.000000 0 0 1
-15.013705 4.294914 20.459771 25.738296 -0.278625 0.651928 0.029469 0.007280 871772.000000 0 0 1
-14.062505 5.154314 21.087371 25.865000 -0.351323 0.617573 0.010971 0.008047 -418590.000000 0 0 1
-12.982305 5.334314 20.249371 24.638023 -0.389860 0.606102 0.017874 0.007601 -784852.000000 0 1 0
-12.159305 6.523914 20.782571 24.946451 -0.492448 0.586131 0.016296 0.013652 -148770.000000 0 1 0
-12.687305 7.796514 20.439271 25.288676 -0.551023 0.629643 0.024753 0.005715 784535.000000 0 0 1
-11.695605 8.856014 20.633571 25.317196 -0.648099 0.618063 0.020599 0.006631 684696.000000 0 0 1
-12.152105 10.357614 20.526671 26.005731 -0.705846 0.661106 0.008475 0.005910 -297029.000000 0 0 1
-12.439505 10.870414 19.230771 25.352115 -0.718185 0.709716 0.016840 0.000673 296872.000000 0 0 1
-12.994805 12.145214 19.488771 26.385287 -0.751617 0.739771 -0.000554 0.004401 -490970.000000 0 0 1
-13.328905 12.967714 18.288071 26.082080 -0.771664 0.793754 0.004166 0.000876 934062.000000 0 0 1
-12.181305 13.591314 17.608271 25.360584 -0.840053 0.803327 0.009922 -0.003284 1205070.000000 0 0 1
-12.003205 14.942514 17.954871 26.262770 -0.894051 0.818027 0.016374 -0.008472 -492236.000000 0 0 1
-13.053205 15.878914 17.303171 26.868677 -0.882756 0.871093 0.013349 -0.003832 5724.750000 0 0 1
-13.052405 16.035414 15.904671 26.085597 -0.887593 0.915101 0.013321 -0.014150 -77945.900000 0 0 1
-13.824205 15.084114 15.219971 25.500719 -0.828954 0.931233 0.042493 -0.019795 -333674.000000 0 0 1
-14.282405 15.558914 13.825271 25.242921 -0.828149 0.991197 0.038230 -0.020671 -400113.000000 0 0 1
-15.247205 16.553714 13.867271 26.434900 -0.826459 1.018572 0.027399 -0.011572 -428853.000000 0 0 1
-15.610205 17.019714 12.621771 26.318402 -0.828568 1.070621 0.013290 -0.004185 154512.000000 0 0 1
-16.719805 18.117414 12.641271 27.705493 -0.825495 1.096994 0.033015 -0.006140 1515340.000000 0 0 1
-18.036605 17.549714 12.947471 28.301036 -0.771717 1.095625 0.044019 -0.012903 1480540.000000 0 0 1
-18.967505 18.594214 13.321571 29.714901 -0.775460 1.105919 0.058115 -0.016730 455158.000000 0 0 1
-20.353505 17.951714 13.559271 30.337816 -0.722779 1.107451 0.061147 -0.011000 -94514.700000 0 0 1
-21.010105 17.558914 12.377171 30.048866 -0.696155 1.146257 0.061396 -0.016956 -502173.000000 0 0 1
-22.309805 17.184114 12.738071 30.907599 -0.656335 1.146001 0.093775 -0.026320 -886288.000000 0 0 1
-23.063605 16.378514 11.745471 30.629099 -0.617503 1.177241 0.098545 -0.022942 -898962.000000 0 0 1
-22.613405 15.127814 11.387671 29.493998 -0.589599 1.174395 0.085690 -0.020830 77629.600000 0 0 1
-23.373205 14.501114 10.339471 29.385263 -0.555296 1.211240 0.097268 -0.023141 233151.000000 0 0 1
-22.681305 13.178514 9.847971 28.019589 -0.526354 1.211658 0.093118 -0.019132 -439711.000000 0 0 1
-22.811305 12.015014 10.662271 27.899825 -0.484789 1.178661 0.098455 -0.024507 -6278.210000 0 0 1
-24.077805 11.403214 10.768371 28.735550 -0.442304 1.186680 0.131403 -0.022796 -72753.300000 0 0 1
-24.711105 10.810714 9.472671 28.587441 -0.412397 1.233054 0.140615 -0.016693 -393243.000000 0 0 1
-25.295375 11.833514 8.673371 29.242357 -0.437568 1.269663 0.148676 -0.021698 407129.000000 0 0 1
-26.247365 11.292814 7.766071 29.610196 -0.406305 1.305415 0.187977 -0.030033 -281857.000000 0 0 1
-26.699675 12.383414 6.757971 30.197546 -0.434274 1.345093 0.164327 -0.020559 -308875.000000 0 0 1
-25.929935 12.636414 5.582171 29.380285 -0.453460 1.379637 0.160274 -0.028650 798075.000000 0 0 1
-24.618605 13.168014 5.738271 28.502633 -0.491161 1.368087 0.156620 -0.029628 38637.400000 0 0 1
-24.612505 14.698114 6.191571 29.328238 -0.538344 1.358083 0.148661 -0.034673 -560255.000000 0 0 1
-23.331605 15.281914 6.328071 28.599741 -0.579874 1.347687 0.123091 -0.028650 321192.000000 0 0 1
-23.431305 16.644214 6.763371 29.526245 -0.617633 1.339681 0.120652 -0.035329 -1101170.000000 0 0 1
-22.035005 17.179914 6.832571 28.764126 -0.662218 1.330966 0.109560 -0.024653 -1223730.000000 0 0 1
-21.500705 17.449314 5.591371 28.249289 -0.681756 1.371551 0.111590 -0.032715 -361225.000000 0 0 1
-20.140205 17.715914 5.763471 27.435362 -0.721446 1.359145 0.117362 -0.036528 -642473.000000 0 0 1
-19.527305 18.407214 4.540671 27.216886 -0.755880 1.403180 0.119845 -0.030482 502951.000000 0 0 1
-18.091905 18.494214 4.446971 26.251258 -0.796394 1.400575 0.104558 -0.038821 1305170.000000 0 0 1
-17.690305 19.520414 3.485871 26.573385 -0.834541 1.439238 0.096640 -0.037888 -70784.400000 0 0 1
-17.952005 20.981714 3.878171 27.884531 -0.863059 1.431264 0.078496 -0.032547 -202402.000000 0 0 1
-17.016405 21.450214 4.870671 27.809948 -0.900156 1.394747 0.068302 -0.027893 503754.000000 0 0 1
-16.999905 22.835414 5.034471 28.910186 -0.930854 1.395762 0.044891 -0.029663 -415100.000000 0 0 1
-16.204805 23.288414 6.279471 29.058178 -0.962874 1.352978 0.040056 -0.006543 -381202.000000 0 0 1
-16.812805 23.099114 7.515371 29.541840 -0.941619 1.313572 0.048526 -0.013297 -188461.000000 0 0 1
-16.037305 23.502814 8.597071 29.723511 -0.972010 1.277369 0.040709 -0.018796 -198942.000000 0 0 1
-16.569305 22.818714 9.864471 29.875465 -0.942749 1.234295 0.034563 -0.011434 447931.000000 0 0 1
-17.753305 23.462414 10.329771 31.182830 -0.923040 1.233153 0.032510 -0.016407 240104.000000 0 0 1
-18.485305 22.585814 11.208271 31.264211 -0.884908 1.204134 0.030428 -0.010977 -234187.000000 0 0 1
-19.665305 23.258614 11.919871 32.707349 -0.868917 1.197765 0.036161 -0.012943 -234702.000000 0 0 1
-20.715105 23.734914 11.100371 33.401796 -0.853231 1.232025 0.046617 -0.013873 293187.000000 0 0 1
-20.405405 24.803214 10.230171 33.708106 -0.882371 1.262440 0.020816 -0.015611 -452042.000000 0 0 1
-21.730505 25.528114 9.822271 34.933887 -0.865584 1.285786 0.042065 -0.009682 542796.000000 0 0 1
-22.188405 26.331314 10.895471 36.116129 -0.870578 1.264343 0.057456 -0.021636 -298460.000000 0 0 1
-23.360105 26.970514 10.488471 37.190203 -0.857009 1.284895 0.069681 -0.014462 -490017.000000 0 0 1
-24.076805 27.761514 11.630471 38.544287 -0.856360 1.264276 0.074922 -0.021603 -305871.000000 0 0 1
-23.458805 28.952314 12.048971 39.162862 -0.889833 1.258060 0.082544 -0.018717 -192796.000000 0 0 1
-24.263705 29.751614 12.849571 40.484533 -0.886650 1.247816 0.087851 -0.019059 -433610.000000 0 0 1
9.338195 -32.091082 27.901991 43.538036 -1.287626 0.875172 0.059255 -0.023920 365380.000000 0 0 1
10.691495 -32.416582 27.609411 43.902420 -1.252215 0.890683 0.066417 -0.028488 596238.000000 0 0 1
10.858595 -32.426482 26.221691 43.092492 -1.247665 0.916630 0.070692 -0.024894 -1388730.000000 0 0 1
12.306395 -32.482682 25.833461 43.289025 -1.208646 0.931330 0.042594 -0.016835 -1242200.000000 0 0 1
12.813395 -33.793682 25.959471 44.498204 -1.208379 0.947909 0.050944 -0.032562 -357040.000000 0 0 1
14.199295 -33.695482 26.137721 44.946479 -1.171978 0.950188 0.068602 -0.022923 -363503.000000 0 0 1
14.983395 33.103114 25.872921 44.606349 1.145759 0.952034 0.098308 -0.029233 -141447.000000 0 0 1
15.175195 32.746714 24.540541 43.644839 1.136846 0.973658 0.089621 -0.020909 566859.000000 0 0 1
16.011095 31.574714 24.469291 43.035613 1.101496 0.966015 0.099648 -0.027720 -132733.000000 0 0 1
16.172095 30.965414 23.042971 41.849397 1.089497 0.987694 0.102265 -0.027737 787091.000000 0 0 1
14.975395 30.312114 22.518871 40.622485 1.111928 0.983221 0.089776 -0.024373 1151290.000000 0 0 1
14.959295 28.901314 22.696871 39.676371 1.093169 0.961793 0.090783 -0.020724 -1967.380000 0 0 1
14.352395 28.451714 24.028771 39.910815 1.103597 0.924716 0.108746 -0.031822 -934071.000000 0 0 1
15.299395 28.463614 25.009501 40.862256 1.077595 0.912154 0.110239 -0.030092 -383356.000000 0 0 1
14.770695 27.953414 26.210421 41.067663 1.084685 0.878606 0.113861 -0.033540 -130342.000000 0 0 1
15.712595 28.185414 27.411721 42.340355 1.062234 0.866610 0.111619 -0.042404 77620.300000 0 0 1
15.921995 29.535814 27.816051 43.584480 1.076380 0.878625 0.116023 -0.050718 -48524.300000 0 0 1
16.881195 29.675414 28.840211 44.691864 1.053588 0.869364 0.122492 -0.050593 -76574.500000 0 0 1
17.007695 31.164814 29.368781 46.076378 1.071234 0.879686 0.117246 -0.058922 -5111.810000 0 0 1
17.625695 32.114314 28.493211 46.409669 1.068842 0.909741 0.098279 -0.043977 89249.500000 0 0 1
17.365195 33.409714 29.011871 47.533648 1.091462 0.914302 0.106072 -0.029537 115651.000000 0 0 1
18.070495 -33.610282 28.139021 47.413061 -1.077486 0.935412 0.075193 -0.024987 -472524.000000 0 0 1
17.868995 -33.615682 26.723351 46.512929 -1.082215 0.958759 0.080805 -0.024261 -94415.400000 0 0 1
18.084995 -32.407882 26.022991 45.326967 -1.061799 0.959271 0.076087 -0.016391 -123995.000000 0 0 1
19.512895 -31.795782 25.929001 45.431684 -1.020368 0.963408 0.062091 -0.008874 -130320.000000 0 0 1
19.846295 -31.118082 27.074101 45.773545 -1.003064 0.937904 0.050551 -0.010672 -332134.000000 0 0 1
20.772995 -30.144082 26.702381 45.312252 -0.967407 0.940608 0.044540 -0.007993 -420050.000000 0 0 1
21.118495 -29.115282 27.776341 45.444643 -0.943265 0.913204 0.043847 -0.006948 233120.000000 0 0 1
19.985795 -28.303182 28.104651 44.613602 -0.955966 0.889298 0.046536 -0.009385 593090.000000 0 0 1
20.285995 -27.423382 29.125471 44.853724 -0.933898 0.864076 0.056698 -0.003808 303311.000000 0 0 1
18.968295 -26.919182 29.797601 44.410985 -0.956964 0.835306 0.058850 -0.004868 185536.000000 0 0 1
18.335995 -25.945882 29.044421 43.046207 -0.955587 0.830202 0.070859 -0.005516 51364.200000 0 0 1
17.119395 -25.632682 29.724641 42.821284 -0.981959 0.803550 0.071995 -0.003082 -244811.000000 0 0 1
16.214195 -24.858682 28.779291 41.341284 -0.992838 0.800791 0.066119 -0.000196 -844638.000000 0 0 1
15.719195 -25.654582 27.691851 40.891188 -1.021073 0.826835 0.057901 -0.001596 542311.000000 0 0 1
15.076195 -24.917482 26.633181 39.465161 -1.026676 0.830031 0.061140 -0.007231 35524.200000 0 0 1
13.607595 -24.415482 26.819861 38.737415 -1.062339 0.806055 0.052783 -0.011164 1013500.000000 0 0 1
12.648195 -25.495182 27.025941 39.247709 -1.110272 0.811241 0.048031 -0.005491 785212.000000 0 0 1
12.390795 -26.301982 25.822071 38.885800 -1.130537 0.844575 0.046548 -0.007373 -359433.000000 0 0 1
11.559295 -27.618882 25.992021 39.648520 -1.174420 0.855871 0.047910 -0.012780 1803860.000000 0 0 1
10.133995 -27.415382 26.217561 39.263998 -1.216728 0.839648 0.052681 -0.015053 1169790.000000 0 0 1
9.406895 -28.610582 26.164121 39.895066 -1.253140 0.855523 0.055058 -0.020020 -1177130.000000 0 0 1
7.980295 -28.485682 26.652371 39.817937 -1.297648 0.837455 0.043791 -0.021007 -338236.000000 0 0 1
6.951995 -28.055382 25.750041 38.710455 -1.327894 0.843040 0.049552 -0.029698 394453.000000 0 0 1
7.148695 -26.874582 25.014701 37.404308 -1.310815 0.838250 0.074400 -0.026253 -1991230.000000 0 0 1
5.872295 -26.421482 24.360551 36.414489 -1.352097 0.837961 0.066220 -0.030431 -1057540.000000 0 0 1
5.495795 -27.199882 23.174591 36.153824 -1.371428 0.874996 0.057273 -0.025833 6193.100000 0 0 1
4.843195 -28.455182 23.365701 37.136369 -1.402208 0.890290 0.060177 -0.029661 -465145.000000 0 0 1
3.382695 -28.301982 23.828671 37.151721 -1.451839 0.874490 0.074362 -0.033816 -924313.000000 0 0 1
2.465095 -28.078282 22.754871 36.225002 -1.483227 0.891618 0.078312 -0.025567 -15673.700000 0 0 1
1.219595 -27.569782 23.155541 36.024428 -1.526589 0.872683 0.089995 -0.026996 -109665.000000 0 0 1
1.192895 -26.088982 23.638691 35.225640 -1.525104 0.835152 0.085392 -0.027711 -810573.000000 0 0 1
1.932995 -25.921682 24.820921 35.940899 -1.496364 0.808473 0.072685 -0.023431 -10696.900000 0 0 1
1.684195 -24.647282 25.359101 35.403517 -1.502571 0.772329 0.072330 -0.025993 -596068.000000 0 0 1
2.827395 -24.392582 26.336041 36.008045 -1.455399 0.750434 0.076875 -0.019060 -521370.000000 0 0 1
3.984195 -24.018782 25.629011 35.349992 -1.406415 0.759751 0.072396 -0.019641 -457560.000000 0 0 1
4.863895 -23.156482 26.274721 35.358749 -1.363761 0.733121 0.070853 -0.018292 -154766.000000 0 0 1
4.359495 -21.690382 26.372321 34.423498 -1.372451 0.698024 0.062926 -0.010479 -371956.000000 0 0 1
4.401195 -20.966182 25.180381 33.060594 -1.363882 0.704951 0.063438 -0.012610 146620.000000 0 0 1
3.610195 -19.817082 25.332371 32.364784 -1.390597 0.671782 0.073000 -0.020414 -95056.100000 0 0 1
3.587495 -18.982882 24.089651 30.879301 -1.384013 0.675934 0.093842 -0.024851 547143.000000 0 0 1
4.864195 -18.502282 23.668031 30.433050 -1.313717 0.679785 0.096394 -0.024981 223101.000000 0 0 1
4.798195 -18.019482 22.336271 29.096966 -1.310557 0.695631 0.105016 -0.031005 1285560.000000 0 0 1
6.076595 -17.191882 21.821371 28.436913 -1.231045 0.696081 0.083164 -0.023444 2161420.000000 0 0 1
7.329295 -17.879182 22.024771 29.299731 -1.181755 0.720152 0.071288 -0.030305 -477776.000000 0 0 1
8.355195 -17.200782 21.417271 28.711943 -1.118618 0.728857 0.060309 -0.035146 -947034.000000 0 0 1
9.606895 -17.475382 22.270571 29.894142 -1.068154 0.730290 0.058772 -0.023637 -524420.000000 0 0 1
9.630095 -16.873082 23.542751 30.523774 -1.052172 0.689927 0.054910 -0.017886 251362.000000 0 0 1
10.693795 -17.393582 24.347851 31.775963 -1.019556 0.697835 0.067474 -0.009999 99128.700000 0 0 1
10.816295 -16.603682 25.665551 32.425222 -0.993410 0.657487 0.073773 -0.024812 -152167.000000 0 0 1
11.145195 -15.239982 25.401431 31.649725 -0.939363 0.639189 0.085359 -0.030320 131543.000000 0 0 1
10.832095 -14.464082 26.554741 32.120059 -0.928002 0.597519 0.076486 -0.022501 -110529.000000 0 0 1
10.946595 -12.959182 26.448831 31.421474 -0.869388 0.570291 0.075812 -0.016105 85841.800000 0 0 1
10.028295 -12.324082 25.569491 30.103963 -0.887748 0.556000 0.067262 -0.017032 199038.000000 0 0 1
10.306495 -10.959982 25.536751 29.639006 -0.816117 0.532397 0.067996 -0.005318 -390451.000000 0 0 1
9.266895 -10.183082 24.745811 28.318292 -0.832468 0.507740 0.054968 -0.002152 -720675.000000 0 0 1
8.134395 -9.815582 25.477911 28.489261 -0.878785 0.463935 0.030328 -0.003419 -544346.000000 0 0 1
7.168495 -9.294182 24.572751 27.232136 -0.913809 0.445619 0.021446 0.004431 -523408.000000 0 0 1
5.780695 -9.351482 25.182191 27.477434 -1.017132 0.411635 0.015196 -0.001311 -1801210.000000 0 0 1
5.488495 -8.324382 26.143721 27.980584 -0.987892 0.364359 0.021312 -0.004063 1016920.000000 0 0 1
4.124695 -8.230682 26.644291 28.189989 -1.106240 0.332686 0.017107 -0.007863 1647460.000000 0 0 1
3.051395 -8.060182 25.538881 26.953886 -1.208894 0.325463 0.018023 -0.007261 -879066.000000 0 0 1
3.150795 -6.782082 24.922971 26.020735 -1.135887 0.291507 0.020771 -0.013473 553416.000000 0 0 1
2.094895 -6.744982 23.928741 24.949309 -1.269656 0.287011 0.045509 -0.030418 933281.000000 0 1 0
2.100695 -5.483782 23.036671 23.773367 -1.204966 0.249598 0.028277 -0.033184 -163592.000000 0 1 0
1.887595 -4.254782 23.726351 24.178625 -1.153243 0.193722 0.037356 -0.027020 -457443.000000 0 1 0
2.349995 -3.144082 23.004871 23.337348 -0.928939 0.169000 0.032493 -0.029339 -1418490.000000 0 1 0
1.404795 -2.535082 21.972071 22.162400 -1.064779 0.131151 0.035627 -0.030106 892357.000000 0 1 0
0.186195 -1.980082 22.521171 22.608815 -1.477038 0.088080 0.036278 -0.026316 749579.000000 0 1 0
-0.735005 -2.826082 23.130691 23.314284 1.316354 0.125579 0.049186 -0.029291 -559409.000000 0 1 0
-1.989405 -2.153082 23.797371 23.977247 0.824889 0.122567 0.056289 -0.040557 654714.000000 0 1 0
-1.646905 -1.438082 24.998971 25.094400 0.717811 0.087238 0.053984 -0.033200 415562.000000 0 0 1
-2.514405 -0.303082 25.263081 25.389710 0.119960 0.099915 0.054104 -0.028931 180876.000000 0 0 1
-1.894505 0.698918 26.288421 26.365863 -0.353428 0.076663 0.081715 -0.029877 -119294.000000 0 0 1
-1.843905 0.328918 27.681181 27.744476 -0.176524 0.067561 0.090230 -0.020618 162819.000000 0 0 1
-1.041105 -0.789082 28.099841 28.130190 0.648555 0.046456 0.089249 -0.026384 -1185230.000000 0 0 1
0.348595 -0.363082 28.534281 28.538720 -0.805752 0.017638 0.087188 -0.024848 -1246640.000000 0 0 1
1.161395 -0.032082 27.426441 27.451039 -0.027617 0.042337 0.062607 -0.025761 7822.090000 0 0 1
1.841595 -1.082082 26.732331 26.817529 -0.531236 0.079733 0.046768 -0.025786 -247493.000000 0 0 1
3.011795 -1.734082 27.482111 27.700981 -0.522408 0.125790 0.039617 -0.033967 -1122370.000000 0 0 1
2.616395 -2.663082 28.481461 28.725096 -0.794241 0.130335 0.051137 -0.030075 -120155.000000 0 0 1
3.687995 -3.463382 28.959321 29.397935 -0.754000 0.172957 0.041829 -0.017568 148021.000000 0 0 1
4.328695 -4.413782 27.908621 28.585139 -0.795131 0.217994 0.041247 -0.018625 -308967.000000 0 0 1
5.168195 -3.794882 26.979311 27.730752 -0.633362 0.233328 0.031380 -0.016453 -580846.000000 0 0 1
5.579895 -4.663582 25.943171 26.943132 -0.696182 0.273297 0.030485 -0.014958 -1274910.000000 0 0 1
6.512095 -3.983782 24.943341 26.085401 -0.549015 0.297001 0.022737 -0.008599 1007870.000000 0 0 1
7.860295 -3.807182 25.453391 26.910109 -0.451054 0.330540 0.028338 -0.004807 796360.000000 0 0 1
8.654995 -4.946782 25.598141 27.470792 -0.519239 0.371370 0.032724 0.001941 -858884.000000 0 0 1
9.465895 -5.511182 24.380831 26.728285 -0.527239 0.422240 0.034295 -0.001403 -365930.000000 0 0 1
8.743995 -5.779482 23.191961 25.450480 -0.584046 0.424467 0.034473 -0.001057 -422195.000000 0 0 1
9.462995 -5.505882 22.017471 24.589267 -0.526954 0.461446 0.046298 0.000267 -141681.000000 0 1 0
9.413295 -4.074282 21.515271 23.835200 -0.408477 0.444867 0.049400 -0.008373 1060440.000000 0 1 0
8.062695 -3.612982 21.302771 23.062279 -0.421282 0.393152 0.030363 -0.006687 540077.000000 0 1 0
8.021295 -2.481082 20.435471 22.093108 -0.299978 0.389839 0.025527 -0.013426 216494.000000 0 1 0
6.590895 -1.889082 20.342271 21.466637 -0.279137 0.325088 0.017968 -0.005965 157250.000000 0 1 0
6.199895 -1.144082 21.459871 22.366799 -0.182480 0.285745 0.022687 -0.007321 -695584.000000 0 1 0
4.980695 -0.535082 21.241471 21.824154 -0.107021 0.231597 -0.002020 -0.005753 -967028.000000 0 1 0
4.467195 0.099918 22.540871 22.979484 0.022363 0.195695 0.008446 -0.020345 164396.000000 0 1 0
3.130395 0.541918 22.360771 22.585330 0.171416 0.141133 0.002530 -0.018234 366427.000000 0 1 0
2.457695 0.770918 23.610221 23.750308 0.303955 0.108666 0.025865 -0.020092 1138910.000000 0 1 0
0.953895 1.220918 23.509801 23.560800 0.907566 0.065808 0.027862 -0.019091 761521.000000 0 1 0
0.716495 2.582918 23.136541 23.291294 1.300203 0.115339 0.037449 -0.017024 184545.000000 0 1 0
-0.668605 2.862918 23.156911 23.342790 -1.341369 0.126282 0.025717 -0.014271 92920.400000 0 1 0
-1.014505 4.243918 22.601871 23.019223 -1.336151 0.190713 0.035532 -0.017260 -73955.200000 0 1 0
-0.823605 5.382918 23.530951 24.152842 -1.418970 0.227418 0.045436 -0.011091 139945.000000 0 1 0
-1.641205 6.460918 23.100701 24.043282 -1.322037 0.280935 0.043579 -0.013676 167198.000000 0 1 0
-1.610505 7.707918 24.017961 25.275842 -1.364818 0.316811 0.062705 -0.010725 -290019.000000 0 0 1
-0.476105 8.441918 23.690491 25.154165 -1.514458 0.342816 0.049189 -0.006559 -433775.000000 0 0 1
-0.413805 9.683918 24.314581 26.175338 -1.528091 0.379333 0.071941 -0.011340 -191132.000000 0 0 1
0.552895 10.691918 23.578291 25.895146 1.519131 0.426234 0.077611 -0.016824 397281.000000 0 0 1
1.942995 10.543918 23.667981 25.983124 1.388564 0.425341 0.062152 -0.016569 -416821.000000 0 0 1
2.480495 10.821918 24.942281 27.301724 1.345478 0.418797 0.080470 -0.019988 -403203.000000 0 0 1
3.778995 11.674918 24.904161 27.763316 1.257754 0.457823 0.073610 -0.025536 1682610.000000 0 0 1
5.079295 11.162918 24.481681 27.381794 1.143780 0.464410 0.074040 -0.019834 1518970.000000 0 0 1
5.122595 10.657918 23.149061 25.994446 1.122758 0.472268 0.069032 -0.020401 -1000430.000000 0 0 1
6.544995 10.335918 22.683871 25.772585 1.006302 0.494608 0.070476 -0.015257 -483078.000000 0 0 1
7.218295 11.493918 22.284871 26.092708 1.010035 0.547045 0.067551 -0.014771 -264040.000000 0 0 1
8.479895 11.030918 21.835371 25.891566 0.915410 0.567329 0.072423 -0.012649 206018.000000 0 0 1
9.322495 12.132918 21.134871 26.092132 0.915646 0.626628 0.059770 -0.022469 -105604.000000 0 0 1
8.901195 12.289918 19.802771 24.948408 0.943968 0.653848 0.052691 -0.019302 349092.000000 0 1 0
9.537595 13.359918 19.041071 25.139918 0.950805 0.711468 0.061197 -0.022743 670865.000000 0 0 1
11.003895 13.215918 18.523871 25.276075 0.876477 0.748278 0.050637 -0.015529 705096.000000 0 0 1
12.012895 13.219918 19.529971 26.466878 0.833197 0.740839 0.057476 -0.023186 648084.000000 0 0 1
13.283995 13.006918 18.907471 26.516728 0.774860 0.776973 0.063247 -0.019220 1037810.000000 0 0 1
14.498695 12.729918 19.846971 27.679689 0.720529 0.771274 0.071858 -0.019117 658990.000000 0 0 1
15.066095 13.863918 20.511971 28.981656 0.743867 0.784478 0.076143 -0.019582 666310.000000 0 0 1
16.266595 13.503918 21.232071 29.962622 0.692864 0.783258 0.081877 -0.022968 941705.000000 0 0 1
17.047995 14.728918 21.737871 31.306711 0.712547 0.803278 0.090872 -0.022411 62213.200000 0 0 1
16.372595 15.400918 22.816871 32.029045 0.754826 0.777912 0.086979 -0.024467 94592.200000 0 0 1
16.878995 16.625918 23.055171 33.058471 0.777845 0.799025 0.084021 -0.013164 -456878.000000 0 0 1
-21.485205 12.866214 -24.594059 35.100160 -0.539567 2.347150 0.031027 -0.001575 -74012.500000 0 0 1
-21.692205 12.408814 -25.911819 35.999344 -0.519607 2.374290 0.035962 -0.019511 -312766.000000 0 0 1
-22.372205 13.340514 -26.694379 37.297114 -0.537693 2.368454 0.037873 -0.021702 -149058.000000 0 0 1
-22.134805 13.279314 -28.234719 38.255576 -0.540367 2.400979 0.032102 -0.019668 59927.600000 0 0 1
-20.948405 13.966714 -28.600189 38.103485 -0.588039 2.419755 0.047748 -0.014610 -216399.000000 0 0 1
-20.746805 14.194114 -29.972359 39.118347 -0.600015 2.443698 0.048123 -0.028356 -143735.000000 0 0 1
-19.340105 14.649414 -30.386339 38.884117 -0.648260 2.467797 0.029145 -0.020569 -443390.000000 0 0 1
-18.329005 13.676514 -30.429859 38.065414 -0.641044 2.497108 0.026522 -0.017130 -194843.000000 0 0 1
-17.077005 14.354714 -30.588539 37.859485 -0.699004 2.511460 0.028043 -0.007943 884531.000000 0 0 1
-16.156405 13.929214 -29.351559 36.284521 -0.711505 2.513122 0.067726 -0.005955 48197.600000 0 0 1
-16.661705 14.179214 -28.047609 35.571490 -0.705078 2.479139 0.068920 -0.015145 -269836.000000 0 0 1
-17.354405 13.139414 -27.418969 35.008848 -0.648044 2.470594 0.081448 -0.009587 237158.000000 0 0 1
-18.186005 13.543014 -26.158019 34.617712 -0.640097 2.427405 0.074653 -0.020653 142560.000000 0 0 1
-17.335605 13.977214 -25.116139 33.566444 -0.678554 2.416219 0.133894 -0.028449 113919.000000 0 0 1
-18.092805 14.653814 -24.169859 33.559886 -0.680764 2.374888 0.119779 -0.020864 -279583.000000 0 0 1
-17.263805 15.240614 -22.986659 32.537698 -0.723235 2.355284 0.138853 -0.023275 -32223.900000 0 0 1
-16.220605 16.105714 -23.363059 32.685388 -0.781844 2.367114 0.092734 -0.031068 -278211.000000 0 0 1
-15.749105 16.713014 -22.193059 31.935733 -0.815083 2.339117 0.095460 -0.024702 -621668.000000 0 0 1
-15.444905 18.231714 -22.313359 32.692912 -0.867962 2.321993 0.083121 -0.026914 247647.000000 0 0 1
-16.560705 19.101414 -22.441359 33.804372 -0.856522 2.296764 0.044715 -0.023640 374826.000000 0 0 1
-17.435105 18.848414 -23.539959 34.833537 -0.824330 2.312825 0.028621 -0.024732 13626.200000 0 0 1
-18.721205 19.721814 -23.547759 35.971244 -0.811421 2.284486 0.014891 -0.016939 26515.700000 0 0 1
-18.573305 21.098814 -23.864159 36.873103 -0.848972 2.274698 0.011935 -0.017229 142679.000000 0 0 1
-19.806705 21.810314 -23.779359 37.860973 -0.833505 2.249867 0.040788 -0.020365 344933.000000 0 0 1
-19.601105 23.319514 -24.101959 38.844658 -0.871817 2.240139 0.038660 -0.020770 147353.000000 0 0 1
-18.939205 23.994414 -23.057259 38.289197 -0.902603 2.217034 0.038680 -0.013518 -471783.000000 0 0 1
-18.038005 24.958814 -23.545559 38.764744 -0.944990 2.223575 0.031393 -0.012061 191738.000000 0 0 1
-16.928705 25.199714 -22.450859 37.757750 -0.979261 2.207568 0.038804 -0.022579 518843.000000 0 0 1
-15.910405 24.205314 -22.264659 36.534275 -0.989299 2.226123 0.053377 -0.029390 451714.000000 0 0 1
-16.379305 22.952814 -21.807759 35.646762 -0.950996 2.229097 0.048761 -0.019448 -921261.000000 0 0 1
-15.277605 21.881214 -21.692859 34.391465 -0.961275 2.253332 0.086727 -0.024494 131818.000000 0 0 1
-14.264205 22.300414 -20.811459 33.673325 -1.001740 2.237043 0.097018 -0.025451 -316859.000000 0 0 1
-13.290105 21.325614 -20.522059 32.443237 -1.013493 2.255641 0.096370 -0.025614 -175350.000000 0 0 1
-12.450105 21.707414 -19.306859 31.606514 -1.050059 2.227931 0.089027 -0.024430 -275393.000000 0 0 1
-13.049205 21.668714 -18.034259 31.065245 -1.028750 2.190174 0.109105 -0.019679 169383.000000 0 0 1
-13.976805 22.745714 -17.782959 32.077285 -1.019797 2.158412 0.096892 -0.021780 113892.000000 0 0 1
-14.595305 22.656614 -16.399059 31.547967 -0.998512 2.117429 0.110765 -0.022571 -369126.000000 0 0 1
-13.695505 22.938414 -15.359659 30.816503 -1.032545 2.092575 0.117840 -0.031497 -518569.000000 0 0 1
-14.300805 23.038014 -14.089659 30.557841 -1.015260 2.050010 0.121616 -0.028331 -65077.700000 0 0 1
-13.387505 23.469114 -12.908559 29.944207 -1.052403 2.016493 0.155054 -0.029939 -261737.000000 0 0 1
-13.099805 24.849214 -12.825459 30.880103 -1.085648 1.999103 0.135091 -0.036259 433986.000000 0 0 1
-12.236805 25.176514 -11.728259 30.350426 -1.118379 1.967552 0.103835 -0.030282 189000.000000 0 0 1
-11.723105 26.633214 -11.811959 31.405122 -1.156148 1.956397 0.120113 -0.031548 277717.000000 0 0 1
-10.964205 26.970314 -12.987059 31.879074 -1.184675 1.990385 0.111629 -0.038641 171482.000000 0 0 1
-10.940305 28.375414 -13.130359 33.124926 -1.202804 1.978377 0.097155 -0.020052 -474161.000000 0 0 1
-10.042505 28.985714 -14.265859 33.831025 -1.237275 2.006093 0.134167 -0.048476 1485070.000000 0 0 1
-8.605105 28.862314 -14.284259 33.333483 -1.281044 2.013657 0.095693 -0.045761 746194.000000 0 0 1
-8.136305 27.532714 -14.192559 32.026217 -1.283460 2.029911 0.098875 -0.041514 -253446.000000 0 0 1
-6.647905 27.441914 -14.638859 31.804866 -1.333121 2.049097 0.081841 -0.042074 533510.000000 0 0 1
-5.694805 28.164514 -13.923859 31.930307 -1.371288 2.022024 0.062230 -0.037841 -755750.000000 0 0 1
-4.431405 28.035914 -14.542559 31.892568 -1.414032 2.044276 0.066269 -0.036185 388093.000000 0 0 1
-3.370805 29.033514 -13.960859 32.391555 -1.455213 2.016400 0.033817 -0.022621 -96801.300000 0 0 1
-3.439605 30.401714 -14.193859 33.727744 -1.458137 2.005163 0.018728 -0.013487 -537173.000000 0 0 1
-4.540505 31.100814 -13.676759 34.277260 -1.425827 1.981227 0.009653 -0.013419 -488771.000000 0 0 1
-4.538405 32.688014 -13.880759 35.801939 -1.432838 1.968942 0.016320 -0.011751 176457.000000 0 0 1
-3.643605 33.459614 -13.051159 36.099230 -1.462328 1.940711 -0.017711 -0.003926 219010.000000 0 0 1
-3.613905 -33.247282 -13.385659 36.022464 1.462524 1.951520 -0.001223 0.000058 53174.600000 0 0 1
-2.773005 -32.425382 -12.398259 34.825447 1.485484 1.934793 -0.001621 -0.003984 -180348.000000 0 0 1
-3.369805 -32.263282 -11.156859 34.303797 1.466727 1.902059 0.002158 -0.006411 -109955.000000 0 0 1
-2.426505 -31.679582 -10.304659 33.401644 1.494350 1.884420 0.003499 -0.012979 -109785.000000 0 0 1
-2.799905 -31.782082 -8.812459 33.099844 1.482926 1.840285 0.004856 -0.018292 -220846.000000 0 0 1
-1.816105 -31.177082 -8.019959 32.243270 1.512611 1.822168 0.020461 -0.026533 -56072.500000 0 0 1
-2.159705 -31.286682 -6.661859 32.060898 1.501876 1.780109 0.018228 -0.027715 1602590.000000 0 0 1
-0.905205 -30.636482 -5.885459 31.209807 1.541258 1.760509 0.041782 -0.028075 1494310.000000 0 0 1
-1.047605 -30.530882 -4.485159 30.876349 1.536497 1.716574 0.049920 -0.030002 353480.000000 0 0 1
0.199395 -30.177582 -3.876159 30.426154 -1.564189 1.698539 0.046873 -0.026167 97462.200000 0 0 1
0.206195 -30.410682 -2.332859 30.500727 -1.564016 1.647356 0.051587 -0.019938 -286537.000000 0 0 1
0.456995 -31.723382 -1.741859 31.774454 -1.556392 1.625643 0.056911 -0.029843 -1811.160000 0 0 1
1.636895 -32.339682 -2.173259 32.453929 -1.520224 1.637811 0.056439 -0.028738 -793936.000000 0 0 1
2.994295 -31.948082 -1.634559 32.129699 -1.477346 1.621692 0.044367 -0.024881 -1561160.000000 0 0 1
3.132295 -32.383682 -0.291059 32.536116 -1.474372 1.579742 0.050225 -0.030347 -141647.000000 0 0 1
4.335395 -32.130882 0.409941 32.424640 -1.436677 1.558153 0.041740 -0.026312 42983.900000 0 0 1
4.665995 -30.648782 0.650241 31.008744 -1.419716 1.549825 0.023032 -0.021632 -918131.000000 0 0 1
5.006095 -29.964482 -0.555759 30.384866 -1.405258 1.589088 0.022886 -0.018501 -13619.600000 0 0 1
4.755195 -28.569682 -0.483559 28.966747 -1.405866 1.587491 0.041731 -0.009229 -620413.000000 0 0 1
4.353395 -27.939082 -1.806959 28.333893 -1.416222 1.634613 0.037673 -0.007747 1294490.000000 0 0 1
2.970295 -28.203882 -2.181859 28.443666 -1.465868 1.647580 0.047162 -0.013284 1342320.000000 0 0 1
2.336495 -27.319682 -3.100559 27.594161 -1.485480 1.683397 0.041957 -0.010753 185411.000000 0 0 1
2.844595 -27.326482 -4.568659 27.851409 -1.467073 1.735578 0.043150 -0.014927 117623.000000 0 0 1
2.201495 -28.332282 -5.354959 28.917821 -1.493249 1.757050 0.045076 -0.018584 -44722.200000 0 0 1
2.724095 -28.194582 -6.677159 29.102227 -1.474478 1.802297 0.058814 -0.027220 102103.000000 0 0 1
1.936095 -28.922482 -7.795959 30.017252 -1.503955 1.833524 0.047944 -0.030374 -747944.000000 0 0 1
0.807895 -28.209782 -8.150259 29.374670 -1.542165 1.851944 0.046845 -0.029936 -1064690.000000 0 0 1
0.455495 -28.460882 -9.489359 30.004620 -1.554793 1.892584 0.041947 -0.026529 -139651.000000 0 0 1
-0.958105 -27.951382 -9.797259 29.634170 1.536532 1.907743 0.029630 -0.024615 -657992.000000 0 0 1
-1.127805 -26.581182 -9.543259 28.264907 1.528393 1.915201 0.037264 -0.016456 768131.000000 0 0 1
-2.472605 -26.043782 -9.454859 27.817022 1.476140 1.917601 0.051605 -0.022205 1395450.000000 0 0 1
-3.390405 -26.470382 -8.266159 27.937526 1.443407 1.871173 0.050860 -0.024455 -321399.000000 0 0 1
-3.013905 -26.225382 -6.928859 27.292185 1.456375 1.827483 0.064442 -0.030433 -199896.000000 0 0 1
-1.967205 -27.097182 -6.493259 27.933664 1.498325 1.805395 0.057719 -0.026971 440760.000000 0 0 1
-1.475205 -26.667182 -5.116159 27.193564 1.515534 1.760063 0.071133 -0.023189 -282641.000000 0 0 1
-2.404205 -27.029282 -4.142759 27.450405 1.482082 1.722293 0.085430 -0.030808 -423060.000000 0 0 1
-1.964905 -26.893882 -2.828659 27.113522 1.497864 1.675313 0.088414 -0.017573 -494552.000000 0 0 1
-3.100705 -27.063182 -1.833159 27.301844 1.456721 1.637991 0.077415 -0.017321 -564688.000000 0 0 1
-4.078005 -26.088382 -1.958459 26.477715 1.415736 1.644830 0.073226 -0.012998 -265342.000000 0 0 1
-5.145005 -26.252882 -1.010359 26.771360 1.377270 1.608546 0.094431 -0.014785 898079.000000 0 0 1
-6.285205 -25.191682 -1.250659 25.994015 1.326293 1.618928 0.079554 -0.008341 397230.000000 0 0 1
-5.968605 -23.790882 -1.079859 24.551913 1.324992 1.614793 0.065538 -0.013577 -324385.000000 0 1 0
-6.321105 -23.392882 0.233841 24.232994 1.306884 1.561146 0.069162 -0.003832 29419.800000 0 1 0
-5.835105 -21.925682 0.525841 22.694945 1.310694 1.547624 0.046751 -0.008079 466648.000000 0 1 0
-4.563605 -21.895482 1.164941 22.396333 1.365311 1.518758 0.043734 -0.012056 -11649.500000 0 1 0
-4.082705 -20.602782 1.250341 21.040591 1.375168 1.511336 0.022643 -0.006334 -166840.000000 0 1 0
-3.238605 -20.345982 2.543541 20.758544 1.412944 1.447958 0.023598 -0.003630 438516.000000 0 1 0
-3.975805 -20.443182 3.786041 21.167542 1.378713 1.390968 0.019983 0.006754 373147.000000 0 1 0
-3.143205 -20.199382 4.911641 21.024248 1.416425 1.334999 0.041180 -0.002213 177183.000000 0 1 0
-2.112805 -21.218682 5.409441 21.999056 1.471551 1.322354 0.036280 -0.015872 57511.800000 0 1 0
-1.052405 -21.374282 4.508941 21.870026 1.521599 1.363137 0.044511 -0.018708 -319539.000000 0 1 0
-0.140005 -22.375282 4.962041 22.919309 1.564539 1.352568 0.050902 -0.024006 -324877.000000 0 1 0
0.815395 -22.984382 3.896841 23.326639 -1.535335 1.402954 0.053282 -0.022577 396174.000000 0 1 0
1.939995 -22.163282 3.678341 22.550052 -1.483487 1.406945 0.034261 -0.026528 214692.000000 0 1 0
3.022595 -22.421882 4.570741 23.081780 -1.436799 1.371455 0.062540 -0.031736 -570683.000000 0 1 0
4.166695 -21.423582 4.633241 22.311391 -1.378703 1.361611 0.068862 -0.038358 -464970.000000 0 1 0
4.892195 -21.398582 3.410041 22.213988 -1.346037 1.416678 0.049426 -0.016906 -1309510.000000 0 1 0
6.053795 -20.690682 3.634741 21.862390 -1.286156 1.403765 0.060427 -0.016327 -388161.000000 0 1 0
6.882995 -20.583682 2.301941 21.825731 -1.248094 1.465131 0.059541 -0.003837 -167992.000000 0 1 0
7.398595 -21.761782 1.861141 23.060317 -1.243075 1.490001 0.061071 0.005443 -628223.000000 0 1 0
7.329195 -21.660882 0.422541 22.871149 -1.244528 1.552320 0.056695 -0.002648 105064.000000 0 1 0
8.362595 -22.578682 -0.285359 24.079271 -1.216086 1.582647 0.051539 0.007873 196692.000000 0 1 0
9.615095 -21.958282 -0.481059 23.975980 -1.158067 1.590862 0.054945 0.006726 -644738.000000 0 1 0
10.304795 -22.737482 -1.432759 25.004693 -1.145278 1.628127 0.061694 0.006813 221380.000000 0 0 1
11.615395 -22.081582 -1.932159 25.024926 -1.086549 1.648083 0.069240 0.004166 295021.000000 0 0 1
11.379695 -20.852782 -2.572059 23.894591 -1.071248 1.678647 0.073903 -0.003024 -282390.000000 0 1 0
12.622595 -20.509882 -3.109559 24.282803 -1.019101 1.699205 0.069724 -0.011171 -339400.000000 0 1 0
12.586295 -19.245182 -4.052259 23.349789 -0.991616 1.745225 0.069617 -0.030998 -152379.000000 0 1 0
12.688095 -18.007382 -3.381259 22.286464 -0.956986 1.723103 0.080404 -0.027771 38060.900000 0 1 0
13.005895 -17.002482 -4.349959 21.843989 -0.917801 1.771274 0.093447 -0.034440 -314145.000000 0 1 0
13.775295 -15.825282 -3.636959 21.293797 -0.854543 1.742437 0.119417 -0.031001 1475930.000000 0 1 0
15.140495 -16.129182 -3.242959 22.358486 -0.817006 1.716354 0.102166 -0.017704 854236.000000 0 1 0
16.063595 -15.855082 -4.229159 22.963199 -0.778866 1.756025 0.100111 -0.024525 -746726.000000 0 1 0
17.520895 -15.713782 -3.762259 23.833995 -0.731077 1.729312 0.096486 -0.015694 138916.000000 0 1 0
18.274895 -16.845582 -3.309259 25.073823 -0.744723 1.703163 0.101660 -0.019542 632056.000000 0 0 1
19.531795 -16.387382 -2.843159 25.653866 -0.698079 1.681852 0.071522 -0.006175 153479.000000 0 0 1
20.516195 -17.458082 -2.336759 27.039958 -0.705040 1.657323 0.080675 -0.015605 734105.000000 0 0 1
21.899595 -17.085382 -2.377459 27.877497 -0.662531 1.656182 0.053442 -0.008213 725900.000000 0 0 1
22.552495 -17.799982 -1.361059 28.762943 -0.668163 1.618134 0.046386 -0.009233 -297442.000000 0 0 1
24.086195 -17.814782 -1.283059 29.985955 -0.636829 1.613598 0.050373 -0.014932 98359.900000 0 0 1
24.686895 -16.540282 -0.923459 29.730060 -0.590309 1.601863 0.063810 -0.013786 -626841.000000 0 0 1
25.984795 -16.715182 -0.487259 30.900555 -0.571628 1.586566 0.075928 -0.016294 -978080.000000 0 0 1
26.579295 -15.359282 -0.175459 30.698489 -0.523986 1.576512 0.071462 -0.016171 -550508.000000 0 0 1
25.910295 -14.724782 0.847241 29.814097 -0.516783 1.542375 0.085716 -0.023226 -450704.000000 0 0 1
26.656995 -13.771882 1.492341 30.041425 -0.476865 1.521100 0.088780 -0.026017 -257618.000000 0 0 1
25.879695 -13.030782 2.631441 29.094404 -0.466455 1.480228 0.113612 -0.035007 360.330000 0 0 1
25.598295 -13.670782 3.900841 29.281044 -0.490516 1.437178 0.135107 -0.029082 284790.000000 0 0 1
26.702795 -14.163282 4.650941 30.582169 -0.487674 1.418124 0.133904 -0.025181 226663.000000 0 0 1
26.227195 -14.745382 6.010241 30.682488 -0.512175 1.373636 0.130694 -0.023465 625948.000000 0 0 1
25.437895 -15.932382 5.782341 30.567348 -0.559551 1.380482 0.120093 -0.026741 -46324.800000 0 0 1
24.733095 -16.268982 6.913741 30.400750 -0.581826 1.341369 0.095348 -0.023277 32829.700000 0 0 1
23.796595 -17.510182 6.824241 30.322511 -0.634369 1.343797 0.092516 -0.021629 59718.900000 0 0 1
24.528895 -18.709382 6.837041 31.598304 -0.651610 1.352698 0.098243 -0.016501 -271408.000000 0 0 1
23.686395 -19.799482 7.016941 31.659158 -0.696252 1.347300 0.065932 -0.005781 -165005.000000 0 0 1
1.967695 23.240414 -2.624859 23.470802 1.486331 1.682866 0.043849 -0.028558 -17256.400000 0 1 0
3.001695 24.142814 -2.350359 24.441969 1.447100 1.667106 0.056227 -0.031111 -274810.000000 0 1 0
3.342195 24.956114 -3.450059 25.414185 1.437666 1.706970 0.065568 -0.025750 -248434.000000 0 0 1
4.375195 25.977314 -2.995459 26.512940 1.403939 1.684019 0.052482 -0.020521 348363.000000 0 0 1
5.646995 25.403814 -2.637859 26.157229 1.352064 1.671814 0.043647 -0.023545 791981.000000 0 0 1
6.322295 26.194914 -1.672859 26.998952 1.333970 1.632796 0.039418 -0.020736 518673.000000 0 0 1
7.403995 25.483614 -0.778459 26.548818 1.288041 1.600122 0.025239 -0.028719 487534.000000 0 0 1
8.539195 25.121414 -1.523159 26.576744 1.243132 1.628139 0.033287 -0.026294 -610763.000000 0 0 1
9.369895 24.232514 -0.861659 25.995233 1.201837 1.603949 0.027581 -0.031783 -149077.000000 0 0 1
10.650195 23.934214 -1.673659 26.250227 1.152127 1.634597 0.039366 -0.030087 -95076.200000 0 0 1
11.695195 24.931514 -1.574759 27.583289 1.132179 1.627918 0.041755 -0.021376 564523.000000 0 0 1
12.621495 24.916314 -2.625659 28.053858 1.101918 1.664527 0.064034 -0.026961 649216.000000 0 0 1
13.572995 23.668514 -2.848759 27.432466 1.050119 1.674830 0.074193 -0.029020 -383289.000000 0 0 1
12.934895 22.527214 -3.345859 26.191252 1.049571 1.698894 0.078942 -0.034309 -194737.000000 0 0 1
12.772395 22.517714 -4.767259 26.323151 1.054832 1.752906 0.096952 -0.034133 -338572.000000 0 0 1
12.021995 21.259314 -5.275559 24.986363 1.056136 1.783535 0.097965 -0.037269 315901.000000 0 1 0
10.639295 21.481514 -5.050959 24.498209 1.110934 1.778462 0.085312 -0.033847 -238831.000000 0 1 0
9.888195 20.300414 -4.985259 23.124360 1.117527 1.788087 0.070790 -0.028566 -725756.000000 0 1 0
8.416295 20.554914 -4.763159 22.716210 1.182166 1.782045 0.058027 -0.023934 -993090.000000 0 1 0
8.029995 21.164214 -3.595159 22.920078 1.208162 1.728303 0.063942 -0.021169 27752.400000 0 1 0
6.643695 21.451914 -3.667059 22.754574 1.270463 1.732659 0.048072 -0.016014 264898.000000 0 1 0
6.087195 22.201114 -2.449059 23.150406 1.303189 1.676784 0.039490 -0.017555 -35292.700000 0 1 0
5.816695 21.370214 -1.367059 22.189837 1.305047 1.632443 0.039553 -0.022758 134810.000000 0 1 0
5.072795 22.056914 -0.385059 22.636011 1.344741 1.587808 0.049165 -0.021276 193918.000000 0 1 0
4.531995 21.155414 0.757941 21.648672 1.359762 1.535778 0.031617 -0.022190 -135620.000000 0 1 0
3.660695 21.806214 1.626041 22.171055 1.404473 1.497390 0.036229 -0.019188 -1582.570000 0 1 0
3.364795 20.911714 2.734441 21.356470 1.411259 1.442406 0.037619 -0.022570 342632.000000 0 1 0
2.369595 21.480814 3.806341 21.943760 1.460928 1.396456 0.034184 -0.017279 759079.000000 0 1 0
1.087695 21.773014 3.258341 22.042324 1.520882 1.422431 0.031255 -0.011045 95996.300000 0 1 0
0.138395 22.093614 4.227941 22.494943 1.564532 1.381721 0.038921 -0.025630 1056860.000000 0 1 0
-1.329605 22.418114 3.752541 22.768866 -1.511556 1.405231 0.044593 -0.020600 1715750.000000 0 1 0
-2.319405 22.575614 4.789241 23.194285 -1.468416 1.362816 0.050260 -0.027897 243359.000000 0 1 0
-3.616505 22.524314 4.242841 23.203999 -1.411595 1.386912 0.049426 -0.030296 741710.000000 0 1 0
-4.808205 22.650814 5.276741 23.749152 -1.361626 1.346740 0.052737 -0.037396 477444.000000 0 1 0
-5.226005 23.980614 5.434141 25.137838 -1.356225 1.352902 0.067575 -0.027095 -390946.000000 0 0 1
-6.302205 24.100614 6.322641 25.700841 -1.315028 1.322236 0.068159 -0.027067 -99516.200000 0 0 1
-6.676905 25.580514 6.581041 27.244337 -1.315478 1.326827 0.076117 -0.025653 83316.800000 0 0 1
-5.688805 26.292114 7.322841 27.879415 -1.357712 1.305017 0.066804 -0.038315 -31947.000000 0 0 1
-6.153405 27.345014 8.076041 29.169105 -1.349455 1.290261 0.084643 -0.026675 -209505.000000 0 0 1
-6.458905 28.686014 7.355641 30.310235 -1.349331 1.325670 0.104354 -0.030815 6100.510000 0 0 1
-7.668505 28.760314 6.642841 30.497361 -1.310224 1.351219 0.088327 -0.036035 -531365.000000 0 0 1
-7.638805 30.030714 5.977841 31.558355 -1.321712 1.380223 0.116645 -0.039829 -497174.000000 0 0 1
-8.997105 30.423014 5.367341 32.176328 -1.283258 1.403203 0.109259 -0.041132 1122940.000000 0 0 1
-10.042305 30.804214 6.320241 33.010498 -1.255656 1.378145 0.108029 -0.027130 588503.000000 0 0 1
-10.649805 29.740614 6.988141 32.353618 -1.226933 1.353088 0.086357 -0.016744 -906424.000000 0 0 1
-11.697405 30.180514 8.004741 33.343195 -1.201041 1.328357 0.072338 -0.019321 -658375.000000 0 0 1
-11.120005 30.758714 9.120141 33.954823 -1.223892 1.298861 0.076078 -0.013400 -454502.000000 0 0 1
-12.000005 31.186514 10.125441 34.915947 -1.203477 1.276575 0.070661 -0.004862 -315739.000000 0 0 1
-11.320305 31.577214 11.445541 35.443902 -1.226573 1.241983 0.057970 -0.010260 -213997.000000 0 0 1
-10.766005 32.832314 11.587441 36.443608 -1.253936 1.247224 0.066648 -0.010674 327060.000000 0 0 1
-9.861905 32.915614 12.696041 36.631739 -1.279696 1.216867 0.064032 -0.017095 312369.000000 0 0 1
-9.335505 -33.766682 12.866441 37.321385 1.301063 1.218827 0.067454 -0.024053 -510344.000000 0 0 1
-10.307005 -32.880682 13.343441 36.951604 1.267031 1.201343 0.069603 -0.007324 -154483.000000 0 0 1
-9.884005 -31.468882 13.285441 35.559627 1.266465 1.187898 0.073394 -0.003146 88709.400000 0 0 1
-10.858905 -30.534782 13.992141 35.299699 1.229120 1.163224 0.070462 -0.009839 -383214.000000 0 0 1
-11.208805 -30.865282 15.342841 36.245079 1.222453 1.133703 0.062844 -0.016588 -382545.000000 0 0 1
-10.268305 -30.718182 16.361041 36.286754 1.248199 1.103043 0.077981 -0.024800 -475554.000000 0 0 1
-10.794905 -30.953682 17.808841 37.307040 1.235241 1.073150 0.096048 -0.027817 -249649.000000 0 0 1
-11.480505 -29.915682 18.419341 36.959737 1.204366 1.049088 0.080299 -0.027594 -82281.000000 0 0 1
-12.108605 -30.319382 19.596441 38.077602 1.190834 1.030203 0.082845 -0.032643 -414587.000000 0 0 1
-11.981305 -29.348482 20.791841 37.910233 1.183204 0.990288 0.078924 -0.035082 310653.000000 0 0 1
-10.741005 -29.310382 21.499641 37.903856 1.219536 0.967676 0.079883 -0.032269 465056.000000 0 0 1
-10.805605 -28.458982 22.628641 37.930597 1.207920 0.931563 0.070047 -0.029220 44936.100000 0 0 1
-9.573705 -28.454882 23.559241 38.162469 1.246242 0.905439 0.083643 -0.032871 -50500.500000 0 0 1
-9.383805 -29.641982 24.313741 39.469747 1.264207 0.907129 0.087412 -0.027172 562737.000000 0 0 1
-8.092805 -29.583782 24.942441 39.532506 1.303774 0.888039 0.104282 -0.023787 531527.000000 0 0 1
-7.856005 -30.693882 26.008841 40.991354 1.320228 0.883440 0.107457 -0.024398 -213058.000000 0 0 1
-7.735305 -31.964282 25.421141 41.566630 1.333363 0.912746 0.117671 -0.025091 244818.000000 0 0 1
-7.613005 -33.013382 26.376441 42.936673 1.344155 0.909285 0.113935 -0.024736 -195244.000000 0 0 1
-7.418305 33.651114 25.745641 43.014728 -1.353819 0.929130 0.090316 -0.025836 -357207.000000 0 0 1
-6.135105 33.319614 25.281941 42.273074 -1.388707 0.929715 0.097304 -0.018722 -225961.000000 0 0 1
-5.919005 32.086414 24.555241 40.835432 -1.388376 0.925642 0.088638 -0.012012 -155917.000000 0 0 1
-6.827005 31.744314 23.316641 39.974683 -1.358961 0.948029 0.075418 -0.009382 88056.000000 0 0 1
-8.047305 31.126814 23.643441 39.908020 -1.317803 0.936702 0.068628 -0.017372 -208399.000000 0 0 1
-8.882305 31.062614 22.518041 39.380751 -1.292280 0.962094 0.052168 -0.010852 224890.000000 0 0 1
-9.969105 29.936014 22.559541 38.787639 -1.249333 0.950082 0.049963 -0.023276 482959.000000 0 0 1
-9.389205 28.655514 22.336741 37.526333 -1.254162 0.933246 0.044664 -0.014584 -35031.300000 0 0 1
-10.055305 27.647414 23.071441 37.386897 -1.221971 0.905745 0.037219 -0.015587 -288008.000000 0 0 1
-9.536605 26.208614 22.871241 36.068435 -1.221816 0.883943 0.024251 -0.012670 1370070.000000 0 0 1
-8.184405 25.994914 23.383841 35.909944 -1.265775 0.861658 0.009761 -0.010998 1396060.000000 0 0 1
-7.856005 24.607614 23.347541 34.818949 -1.261773 0.835858 0.007944 -0.003583 779481.000000 0 0 1
-6.349405 24.237014 23.600441 34.419888 -1.314583 0.815282 0.000456 0.001056 898365.000000 0 0 1
-5.508005 24.926414 22.711041 34.168050 -1.353320 0.843722 -0.003193 0.001116 -424392.000000 0 0 1
-4.261005 25.279414 23.260541 34.615860 -1.403810 0.833941 0.029300 -0.001354 39232.700000 0 0 1
-3.249905 25.806814 22.210841 34.203436 -1.445524 0.864035 0.030141 0.001733 -131924.000000 0 0 1
-2.706605 24.758714 21.497341 32.900689 -1.461909 0.858728 0.039588 0.006010 -414672.000000 0 0 1
-2.143705 25.190514 20.294341 32.419404 -1.485901 0.894391 0.054110 0.007116 -18920.700000 0 0 1
-1.568905 24.050814 19.428441 30.957511 -1.505656 0.892350 0.044922 0.004068 54162.100000 0 0 1
-0.437005 23.336114 19.898741 30.671243 -1.552072 0.864823 0.050535 -0.003487 129080.000000 0 0 1
-0.044105 22.369214 18.945741 29.314243 -1.568825 0.868073 0.042834 -0.008248 388694.000000 0 0 1
1.113595 21.425314 19.409641 28.931270 1.518867 0.835391 0.052476 -0.005535 191782.000000 0 0 1
2.400295 21.968714 19.386741 29.397816 1.461968 0.850694 0.060352 -0.008042 -514424.000000 0 0 1
3.377595 20.939814 19.346441 28.708340 1.410874 0.831327 0.061832 -0.004986 96412.600000 0 0 1
4.796595 21.494114 19.217541 29.228722 1.351235 0.853316 0.062049 -0.014412 830955.000000 0 0 1
5.912195 20.575514 19.086141 28.680771 1.290993 0.842675 0.064649 -0.014350 782084.000000 0 0 1
7.146995 21.192814 18.790241 29.211095 1.245537 0.872052 0.080000 -0.015793 163397.000000 0 0 1
8.229295 20.118514 18.529541 28.562560 1.182520 0.864875 0.060681 -0.006003 -83299.700000 0 0 1
8.636995 19.568114 19.771741 29.127831 1.155133 0.824680 0.071686 -0.013679 11500.400000 0 0 1
9.782395 18.738014 19.616141 28.837501 1.089656 0.822720 0.065919 -0.012965 475725.000000 0 0 1
10.296395 18.026514 20.869341 29.436379 1.051837 0.782768 0.080574 -0.015177 -448556.000000 0 0 1
9.440395 16.957614 21.199641 28.742069 1.062820 0.741313 0.080932 -0.017943 184382.000000 0 0 1
9.930195 16.192614 22.331441 29.317278 1.020688 0.704839 0.082129 -0.020513 802849.000000 0 0 1
8.796295 15.230714 22.859941 28.843134 1.047058 0.655799 0.071253 -0.022936 1033960.000000 0 0 1
7.651495 15.757314 23.523641 29.329167 1.118748 0.640066 0.067478 -0.017736 203816.000000 0 0 1
6.704895 14.767614 23.902941 28.885786 1.144599 0.596159 0.073401 -0.016266 119178.000000 0 0 1
7.079795 13.596614 24.960741 29.292150 1.090724 0.550753 0.087060 -0.016784 -599876.000000 0 0 1
7.273995 14.105314 26.226841 30.654822 1.094674 0.544177 0.097784 -0.028012 148814.000000 0 0 1
7.907095 13.171814 27.082641 31.136607 1.030153 0.515998 0.116520 -0.032214 -197486.000000 0 0 1
8.952995 13.784714 28.065841 32.524851 0.994782 0.529807 0.098955 -0.029945 114615.000000 0 0 1
10.226895 13.999414 27.505141 32.513163 0.939877 0.562416 0.113500 -0.029335 -87823.500000 0 0 1
10.394195 15.136214 26.712241 32.414320 0.969045 0.602207 0.096609 -0.028854 84808.100000 0 0 1
11.768595 15.097314 25.954841 32.250310 0.908671 0.635469 0.114053 -0.033293 498573.000000 0 0 1
11.770995 14.263914 24.850541 30.976846 0.880860 0.639776 0.108610 -0.040028 632645.000000 0 0 1
13.097795 13.890614 24.446341 31.018140 0.814766 0.663031 0.117695 -0.041179 194202.000000 0 0 1
13.114695 12.632614 23.526241 29.749995 0.766677 0.658684 0.092758 -0.037085 37812.700000 0 0 1
12.782095 11.406014 24.159141 29.616604 0.728569 0.616807 0.094079 -0.027167 831277.000000 0 0 1
11.392895 11.328214 24.518541 29.313570 0.782551 0.580072 0.110633 -0.031443 452302.000000 0 0 1
10.916095 9.905414 24.982841 29.007253 0.736896 0.533049 0.100195 -0.024151 -19164.400000 0 0 1
10.927395 9.036414 23.854341 27.750574 0.690960 0.536314 0.104063 -0.020091 554251.000000 0 0 1
10.329095 7.747514 24.185441 27.416232 0.643544 0.490372 0.102449 -0.024649 251584.000000 0 0 1
10.693595 6.672414 23.179741 26.385119 0.557854 0.498050 0.096830 -0.026923 266187.000000 0 0 1
12.074395 6.333414 23.246641 26.950130 0.483081 0.530449 0.105030 -0.020301 454911.000000 0 0 1
12.440595 5.266314 22.406541 26.164013 0.400444 0.542564 0.107786 -0.025381 -169145.000000 0 0 1
12.187095 3.790914 22.847041 26.170281 0.301572 0.509446 0.097532 -0.026742 -400418.000000 0 0 1
13.014195 3.270114 23.869541 27.382803 0.246176 0.512139 0.103139 -0.016992 -184204.000000 0 0 1
12.716195 1.898314 24.216241 27.417723 0.148189 0.488084 0.097812 -0.016366 -771250.000000 0 0 1
13.743595 1.169714 25.065741 28.610243 0.084905 0.503061 0.075518 -0.004570 271642.000000 0 0 1
14.849195 0.678214 24.271041 28.461237 0.045642 0.549520 0.095006 -0.010058 690637.000000 0 0 1
16.084595 1.265214 24.647041 29.458303 0.078498 0.579611 0.080712 -0.013520 -14993.500000 0 0 1
17.281295 0.645814 23.892041 29.493895 0.037353 0.626529 0.071118 -0.014948 -60759.300000 0 0 1
17.477795 -0.712186 24.217441 29.874152 -0.040725 0.625537 0.070598 -0.015342 202477.000000 0 0 1
18.454095 -1.304986 23.359441 29.797988 -0.070598 0.669831 0.054320 -0.001734 227270.000000 0 0 1
18.735295 -2.833186 23.601041 30.266274 -0.150085 0.676482 0.049149 -0.004780 124804.000000 0 0 1
17.669995 -3.700486 23.206341 29.401643 -0.206439 0.661149 0.052987 -0.001227 258867.000000 0 0 1
17.861095 -5.061886 23.525041 29.967799 -0.276161 0.668083 0.062836 -0.008724 -583707.000000 0 0 1
16.950095 -6.055686 22.878541 29.110216 -0.343133 0.666600 0.063987 -0.011998 -460291.000000 0 0 1
17.075595 -6.197986 21.456141 28.113288 -0.348185 0.702541 0.059748 -0.011527 187553.000000 0 0 1
16.067995 -7.028986 20.902841 27.285818 -0.412371 0.698092 0.058023 -0.019104 89321.900000 0 0 1
16.324095 -8.603386 21.018841 27.969376 -0.485042 0.720471 0.062214 -0.022162 133812.000000 0 0 1
16.181295 -9.047586 22.358241 29.044519 -0.509832 0.692281 0.061656 -0.018709 621322.000000 0 0 1
17.058695 -10.212086 22.550441 30.063402 -0.539422 0.722589 0.067600 -0.023623 553640.000000 0 0 1
16.682895 -11.146986 23.693241 31.047447 -0.589042 0.702653 0.093134 -0.022413 -504519.000000 0 0 1
15.510695 -11.855486 23.465941 30.525147 -0.652617 0.693926 0.095252 -0.024724 -566071.000000 0 0 1
15.346295 -12.773486 24.486741 31.595430 -0.694158 0.684067 0.105176 -0.015516 521293.000000 0 0 1
14.217695 -13.833986 24.249541 31.329894 -0.771720 0.685652 0.099903 -0.020912 312689.000000 0 0 1
14.583195 -14.720086 23.272741 31.160407 -0.790070 0.727455 0.104752 -0.033607 -200046.000000 0 0 1
13.562095 -15.636186 23.024441 30.960388 -0.856314 0.732247 0.108413 -0.034435 -564644.000000 0 0 1
13.687895 -16.427586 21.724641 30.482521 -0.876121 0.777468 0.110325 -0.037553 33627.500000 0 0 1
14.812095 -17.283286 21.680241 31.434742 -0.862242 0.809735 0.109070 -0.040308 132499.000000 0 0 1
14.775595 -17.969886 20.494141 31.003948 -0.882640 0.848623 0.099034 -0.033468 -43263.400000 0 0 1
-24.635405 -32.320782 26.281821 48.397007 0.919523 0.996735 0.078930 -0.037067 -393591.000000 0 0 1
-24.718605 -33.770682 26.077741 49.310415 0.938945 1.013553 0.083399 -0.031657 630592.000000 0 0 1
-25.993555 33.734714 26.353191 50.081799 -0.914286 1.016667 0.072267 -0.043144 275697.000000 0 0 1
-26.443495 33.686514 27.860561 51.090611 -0.905277 0.994029 0.070432 -0.039766 -262672.000000 0 0 1
-26.854785 -33.197582 28.465411 51.318014 0.890629 0.982810 0.087285 -0.037047 90031.400000 0 0 1
-26.966595 -33.458782 29.840681 52.317814 0.892429 0.963836 0.062847 -0.034278 -640424.000000 0 0 1
-28.233795 -32.845082 30.397711 52.914719 0.860752 0.958845 0.049506 -0.035843 -695997.000000 0 0 1
-28.271205 -31.429882 30.259571 51.987885 0.838257 0.949548 0.039674 -0.026531 377584.000000 0 0 1
-29.157525 -30.781882 31.210371 52.647629 0.812492 0.936245 0.027590 -0.003995 356765.000000 0 0 1
-29.491435 -29.323082 30.855881 51.784875 0.782536 0.932476 0.022187 -0.005007 24705.100000 0 0 1
-30.136395 -29.153882 29.586041 51.317492 0.768828 0.956322 0.014676 0.001976 392683.000000 0 0 1
-30.724435 -27.841582 29.551061 50.915713 0.736214 0.951587 0.026079 0.004975 -186621.000000 0 0 1
-31.412435 -27.411482 28.285391 50.380490 0.717487 0.974677 0.024297 -0.003938 -271797.000000 0 0 1
-30.571105 -27.380682 27.159221 49.212981 0.730401 0.986190 0.038719 -0.006008 487393.000000 0 0 1
-29.703015 -26.226282 27.071521 47.989105 0.723315 0.971432 0.031380 -0.008085 189353.000000 0 0 1
-28.754795 -26.190182 25.855761 46.704221 0.738756 0.984108 0.042539 -0.003410 -215751.000000 0 0 1
-29.299575 -26.077382 24.567431 46.282325 0.727277 1.011232 0.032456 -0.006777 659929.000000 0 0 1
-28.203275 -25.940182 23.618081 45.012571 0.743624 1.018434 0.049774 0.002290 815040.000000 0 0 1
-28.568085 -26.082582 22.101871 44.552545 0.739950 1.051712 0.048193 0.000017 -35968.000000 0 0 1
-29.455195 -25.058082 21.684471 44.336580 0.704911 1.059753 0.031454 0.000596 243907.000000 0 0 1
-29.906865 -25.423782 20.400171 44.237498 0.704551 1.091504 0.032195 0.004929 -236855.000000 0 0 1
-30.595475 -24.230982 19.710771 43.723427 0.669831 1.103129 0.031141 0.001820 585202.000000 0 0 1
-31.832905 -23.829082 20.319171 44.654538 0.642584 1.098390 0.037451 -0.007274 830791.000000 0 0 1
-32.506695 -22.818982 19.537671 44.261855 0.612052 1.113626 0.051791 -0.007514 954689.000000 0 0 1
-33.989565 -22.568982 20.015671 45.445314 0.586152 1.114714 0.069534 -0.007861 378153.000000 0 0 1
-34.857353 -23.525482 19.516271 46.361279 0.593686 1.136292 0.060126 -0.010638 278084.000000 0 0 1
-36.213985 -23.085182 19.658671 47.231787 0.567513 1.141516 0.066283 -0.020923 489491.000000 0 0 1
36.687139 -23.771582 18.729671 47.558751 -0.574936 1.166011 0.081832 -0.023771 -174712.000000 0 0 1
36.598039 -25.146382 18.937571 48.274098 -0.602013 1.167674 0.073275 -0.015778 -63158.800000 0 0 1
35.750279 -25.602082 17.901571 47.476471 -0.621474 1.184174 0.082109 -0.006230 -100333.000000 0 0 1
35.217739 -27.047882 18.143471 47.969392 -0.654934 1.182913 0.079710 0.008228 586403.000000 0 0 1
34.144009 -27.252882 19.100371 47.679735 -0.673627 1.158628 0.077861 -0.004427 517373.000000 0 0 1
34.257839 -26.602782 20.396171 47.930276 -0.660275 1.131240 0.085521 -0.007649 -492474.000000 0 0 1
33.145649 -26.852382 21.458271 47.750831 -0.680889 1.104725 0.069011 -0.012037 -307397.000000 0 0 1
31.898899 -26.408582 21.035071 46.448113 -0.691514 1.100812 0.062615 -0.009203 -695393.000000 0 0 1
31.116109 -25.987882 22.161971 46.203195 -0.695833 1.070526 0.070819 -0.008100 70700.700000 0 0 1
29.959569 -25.035582 21.837071 44.734928 -0.696101 1.060835 0.075723 -0.000669 -179879.000000 0 0 1
30.340349 -23.725482 21.381571 44.052319 -0.663655 1.064013 0.073584 -0.006702 110824.000000 0 0 1
31.062089 -22.948882 22.340071 44.615954 -0.636299 1.046367 0.080331 -0.016363 -222922.000000 0 0 1
32.026099 -21.964682 21.719271 44.495449 -0.601157 1.060858 0.065777 -0.020093 -312405.000000 0 0 1
31.294359 -20.841082 21.408071 43.266535 -0.587520 1.053197 0.075299 -0.030792 -192975.000000 0 0 1
32.076299 -20.037582 20.602271 43.067937 -0.558373 1.072002 0.059482 -0.027099 -255429.000000 0 0 1
31.544449 -18.559282 20.524571 41.961378 -0.531812 1.059704 0.052221 -0.019153 134094.000000 0 0 1
31.411299 -17.898682 21.731171 42.181469 -0.517930 1.029575 0.040071 -0.016393 515099.000000 0 0 1
30.179429 -18.179082 22.403371 41.751503 -0.542158 1.004407 0.072429 -0.020437 163334.000000 0 0 1
30.268819 -17.782982 23.839771 42.435487 -0.531179 0.974250 0.057652 -0.020160 1888.620000 0 0 1
30.327389 -16.371082 23.914071 41.948130 -0.494988 0.964185 0.060300 -0.024412 152570.000000 0 0 1
30.558369 -16.102582 25.269651 42.797924 -0.484971 0.939191 0.053232 -0.022256 -164117.000000 0 0 1
30.374169 -14.626882 25.693621 42.387474 -0.448784 0.919572 0.084631 -0.035843 -240807.000000 0 0 1
28.993799 -14.343982 25.628451 41.269937 -0.459419 0.900784 0.095145 -0.040356 173276.000000 0 0 1
28.644589 -13.133782 26.302881 41.046927 -0.429907 0.875256 0.091398 -0.037257 -6640.290000 0 0 1
28.915029 -11.768782 25.581411 40.360769 -0.386537 0.884316 0.097264 -0.041187 -319766.000000 0 0 1
28.043189 -11.521282 24.489371 38.972935 -0.389817 0.891342 0.102694 -0.035935 152461.000000 0 0 1
28.482089 -10.538482 23.583631 38.450964 -0.354383 0.910510 0.102349 -0.028911 156917.000000 0 0 1
29.633109 -10.949382 22.609971 38.848692 -0.353939 0.949609 0.100251 -0.035033 175959.000000 0 0 1
29.233169 -11.930582 21.607671 38.259749 -0.387485 0.970651 0.089378 -0.034730 285136.000000 0 0 1
29.434009 -13.262182 22.020371 39.078678 -0.423331 0.972194 0.083977 -0.037608 -326848.000000 0 0 1
28.873179 -14.313482 21.073571 38.504956 -0.460231 0.991667 0.091030 -0.028990 -63598.200000 0 0 1
29.663229 -14.606782 19.922171 38.602566 -0.457566 1.028523 0.074655 -0.021900 -146454.000000 0 0 1
29.130899 -15.704682 19.261771 38.291802 -0.494442 1.043700 0.087310 -0.029754 -330416.000000 0 0 1
29.807859 -15.939182 17.895771 38.246890 -0.491045 1.083882 0.098856 -0.029633 83199.300000 0 0 1
29.235999 -16.933782 17.036871 37.838493 -0.524992 1.103748 0.088379 -0.037436 1291570.000000 0 0 1
27.834689 -16.823282 16.682871 36.552851 -0.543648 1.096847 0.105374 -0.037086 1131880.000000 0 0 1
27.305589 -15.757082 15.630671 35.188047 -0.523384 1.110511 0.105661 -0.027446 -179686.000000 0 0 1
27.375289 -16.122882 14.266271 34.826430 -0.532260 1.148738 0.107376 -0.026986 586893.000000 0 0 1
26.288989 -17.000182 13.936171 34.268557 -0.574028 1.151985 0.092407 -0.036857 -100608.000000 0 0 1
26.277889 -17.656782 12.499671 34.037203 -0.591634 1.194761 0.110948 -0.024751 -451720.000000 0 0 1
26.099689 -16.723082 11.393371 33.025204 -0.569837 1.218568 0.119334 -0.031703 131694.000000 0 0 1
26.151089 -17.397182 10.138471 33.004999 -0.587026 1.258568 0.098886 -0.036586 -533263.000000 0 0 1
27.543989 -17.573282 9.536671 34.035858 -0.567899 1.286799 0.094657 -0.021336 -357055.000000 0 0 1
28.362889 -18.504682 10.224771 35.375453 -0.578079 1.277577 0.085042 -0.013416 -843172.000000 0 0 1
29.637029 -18.453982 9.659471 36.224416 -0.556919 1.300874 0.082163 0.001709 -276140.000000 0 0 1
30.574989 -19.356082 10.555471 37.694904 -0.564381 1.286977 0.084310 -0.018548 -66198.400000 0 0 1
30.932559 -18.818882 11.796771 38.080669 -0.546562 1.255831 0.097702 -0.035687 273522.000000 0 0 1
30.681439 -19.756282 12.845671 38.686853 -0.572087 1.232328 0.074084 -0.035105 -15527.400000 0 0 1
30.781639 -19.227382 14.274171 38.999403 -0.558339 1.196078 0.082249 -0.028715 148417.000000 0 0 1
30.380159 -20.249982 15.181471 39.541028 -0.587924 1.176734 0.081284 -0.033275 161147.000000 0 0 1
30.461659 -19.899482 16.534471 39.966120 -0.578666 1.144269 0.091331 -0.037286 7916.520000 0 0 1
29.951749 -21.117582 17.304271 40.527735 -0.614109 1.129653 0.080757 -0.035559 668072.000000 0 0 1
28.573589 -21.478182 17.180271 39.660106 -0.644575 1.122770 0.048773 -0.019155 456171.000000 0 0 1
28.272989 -22.507882 18.101571 40.418233 -0.672353 1.106430 0.071136 -0.021364 383971.000000 0 0 1
26.820389 -23.046582 17.951171 39.657568 -0.709865 1.101056 0.058868 -0.013701 403349.000000 0 0 1
25.852189 -22.204182 18.569971 38.809859 -0.709632 1.071867 0.065052 -0.011774 -5856.170000 0 0 1
24.627789 -22.901582 18.575471 38.419508 -0.749095 1.066158 0.055433 -0.010612 -432063.000000 0 0 1
23.456389 -22.300282 19.330171 37.698279 -0.760137 1.032400 0.038928 -0.006812 -370135.000000 0 0 1
22.825389 -21.127282 18.732471 36.307931 -0.746782 1.028700 0.035647 -0.013829 611541.000000 0 0 1
21.670589 -20.637082 19.418071 35.673030 -0.760975 0.995200 0.037657 -0.015219 528522.000000 0 0 1
21.865289 -20.069182 20.826871 36.257709 -0.742593 0.958910 0.031299 -0.008962 -505620.000000 0 0 1
22.161189 -21.077582 21.793471 37.554469 -0.760342 0.951679 0.040617 -0.006394 -177933.000000 0 0 1
22.608189 -20.574282 23.020371 38.267072 -0.738333 0.925330 0.048956 -0.006197 -71635.800000 0 0 1
22.939489 -21.693182 23.997651 39.657301 -0.757482 0.920873 0.051265 -0.006627 -122277.000000 0 0 1
21.843089 -22.431082 24.473971 39.739769 -0.798678 0.907324 0.055514 -0.008472 -133190.000000 0 0 1
22.310589 -23.546882 25.199741 41.076088 -0.812351 0.910325 0.056768 -0.005773 -10514.100000 0 0 1
21.213689 -24.275182 26.013251 41.424561 -0.852599 0.891858 0.056945 -0.004678 -141671.000000 0 0 1
20.377189 -25.068082 25.203311 40.973717 -0.888255 0.908272 0.055019 -0.003637 14531.300000 0 0 1
19.416189 -25.698882 26.034561 41.415206 -0.923768 0.891015 0.046536 0.001961 -322814.000000 0 0 1
18.616989 -26.704882 25.243361 41.194299 -0.961994 0.911213 0.058348 -0.003042 -233851.000000 0 0 1
17.876689 -26.095582 24.186781 39.819038 -0.970177 0.917991 0.056422 -0.006134 35790.400000 0 0 1
17.048489 -26.983682 23.521781 39.649013 -1.007317 0.935706 0.065992 -0.009964 -306201.000000 0 0 1
16.134189 -26.289982 22.473571 38.164599 -1.020363 0.941150 0.062608 -0.011424 -570106.000000 0 0 1
14.969689 -25.745382 22.989371 37.622167 -1.044127 0.913398 0.056817 -0.007893 -428810.000000 0 0 1
14.295389 -25.002982 21.972471 36.225636 -1.051410 0.919089 0.043188 -0.015117 -93991.100000 0 0 1
12.867589 -24.526982 22.259171 35.533342 -1.087639 0.893831 0.048775 -0.013920 -174653.000000 0 0 1
11.897289 -25.535482 22.194871 35.863890 -1.134789 0.903501 0.046048 -0.011182 -82435.000000 0 0 1
10.582889 -25.020782 22.225171 35.099791 -1.170652 0.885116 0.047384 -0.010963 299266.000000 0 0 1
9.405789 -26.003082 22.223271 35.475385 -1.223720 0.893816 0.048687 -0.012361 -75114.100000 0 0 1
9.148889 -26.799782 21.094671 35.311693 -1.241822 0.930560 0.053535 -0.013462 -65242.200000 0 0 1
7.887489 -27.407382 21.224471 35.550742 -1.290581 0.931016 0.049535 -0.015658 -268893.000000 0 0 1
7.495289 -28.180782 19.911071 35.309865 -1.310843 0.971701 0.062920 -0.017696 -3741.800000 0 0 1
8.038589 -29.483282 19.912671 36.474612 -1.304617 0.993295 0.071076 -0.020703 122462.000000 0 0 1
7.756589 -30.173982 18.736571 36.355095 -1.319182 1.029349 0.064158 -0.016184 -149924.000000 0 0 1
8.357089 -31.588082 18.762571 37.678667 -1.312157 1.049548 0.064352 -0.017878 182840.000000 0 0 1
7.850589 -32.455782 19.779071 38.810066 -1.333469 1.036033 0.059511 -0.029372 249222.000000 0 0 1
8.678089 -33.591482 19.691071 39.892796 -1.317982 1.054572 0.065746 -0.027710 47218.000000 0 0 1
8.547489 33.376214 20.740671 40.214508 1.320089 1.028912 0.078525 -0.038632 -862672.000000 0 0 1
7.529389 32.532414 20.410371 39.136082 1.343358 1.022161 0.078000 -0.039008 -738404.000000 0 0 1
7.597789 31.385414 21.245871 38.654336 1.333285 0.988866 0.077091 -0.046043 42914.800000 0 0 1
6.654489 30.241014 20.778871 37.290249 1.354200 0.979762 0.091805 -0.044787 -143112.000000 0 0 1
5.302589 30.469414 21.047571 37.409931 1.398492 0.973245 0.092594 -0.046520 -431457.000000 0 0 1
4.472989 29.408014 20.609271 36.188133 1.419852 0.964895 0.102741 -0.036246 -507327.000000 0 0 1
3.019689 29.502214 21.010571 36.344783 1.468797 0.954410 0.095250 -0.028002 -708450.000000 0 0 1
2.751689 29.289214 22.377071 36.961645 1.477122 0.920511 0.072376 -0.024625 247952.000000 0 0 1
1.362689 29.041714 22.565171 36.803057 1.523909 0.910776 0.065230 -0.014098 397378.000000 0 0 1
1.102589 28.371714 23.994501 37.173996 1.531954 0.869165 0.068746 -0.000885 -134083.000000 0 0 1
0.892489 29.349114 24.987431 38.555658 1.540396 0.865726 0.071332 -0.007169 23029.000000 0 0 1
0.734589 28.758714 26.254531 38.947448 1.545259 0.831049 0.073350 -0.005352 -836192.000000 0 0 1
1.900889 28.219614 27.060291 39.143574 1.503537 0.807498 0.043987 -0.007669 -816437.000000 0 0 1
2.378689 26.972714 26.576951 37.941004 1.482835 0.794725 0.047600 -0.012432 321384.000000 0 0 1
3.135389 26.365314 27.628111 38.318050 1.452431 0.765522 0.019128 -0.003130 -128654.000000 0 0 1
3.772889 25.051814 27.183271 37.158556 1.421316 0.750207 0.029635 0.013987 -272069.000000 0 0 1
2.840089 24.028214 26.900201 36.180685 1.453144 0.732513 0.047287 0.007893 -318115.000000 0 0 1
3.385589 22.781814 26.608091 35.191814 1.423267 0.713482 0.041265 0.015359 516046.000000 0 0 1
2.259389 21.679614 26.447981 34.272529 1.466954 0.689292 0.054347 0.013167 596156.000000 0 0 1
2.670789 20.370314 26.759941 33.736883 1.440428 0.654758 0.062774 0.010252 25307.400000 0 0 1
3.365689 19.728714 25.700591 32.574076 1.401825 0.661634 0.067535 0.007892 -147050.000000 0 0 1
3.885189 18.260614 25.940551 31.960240 1.361159 0.623824 0.068524 -0.003474 -1211850.000000 0 0 1
5.029689 18.275114 26.659341 32.710824 1.302225 0.618066 0.056188 -0.009241 -1943410.000000 0 0 1
6.102089 17.896414 25.855121 32.031304 1.242191 0.631432 0.075179 -0.007939 -499273.000000 0 0 1
7.406589 17.693114 26.738081 32.906365 1.174347 0.622282 0.059858 -0.013589 805935.000000 0 0 1
7.994789 18.865414 27.286901 34.123239 1.169959 0.644072 0.056418 -0.009737 153759.000000 0 0 1
8.534989 19.786714 26.324081 34.019367 1.163560 0.685983 0.049669 -0.013297 -380335.000000 0 0 1
9.103289 21.060214 27.046661 35.467229 1.162800 0.703502 0.037795 -0.009989 -191022.000000 0 0 1
10.142289 20.652614 27.879241 36.147594 1.114302 0.689976 0.058835 -0.036091 -611480.000000 0 0 1
10.367889 21.687214 28.860631 37.560144 1.124851 0.694483 0.075711 -0.037134 429599.000000 0 0 1
11.471689 21.296014 29.883271 38.446453 1.076687 0.680481 0.095939 -0.038052 1895920.000000 0 0 1
12.872289 21.316414 29.479991 38.589574 1.027538 0.701404 0.095339 -0.040602 913066.000000 0 0 1
13.674089 20.877614 30.540761 39.441014 0.990939 0.685125 0.093105 -0.015807 -749576.000000 0 0 1
15.143789 20.874714 30.167991 39.688735 0.943186 0.707307 0.077153 -0.025576 -610925.000000 0 0 1
15.575289 22.154014 29.769951 40.244751 0.958029 0.738138 0.063162 -0.048810 -667711.000000 0 0 1
16.857989 22.113714 29.229801 40.343394 0.919449 0.760451 0.118051 -0.026677 -301391.000000 0 0 1
-8.701105 16.743814 4.647141 19.433489 -1.091544 1.329326 0.026164 -0.024962 -282603.000000 0 1 0
-8.452205 18.110714 4.827941 20.560807 -1.134145 1.333770 0.031178 -0.027573 294794.000000 0 1 0
-7.071205 18.407914 4.696041 20.270818 -1.204037 1.337007 0.026966 -0.025836 -195175.000000 0 1 0
-6.910705 19.835614 5.323941 21.669190 -1.235549 1.322563 0.036490 -0.030280 -92963.100000 0 1 0
-7.357005 20.962314 4.527441 22.672492 -1.233263 1.369756 0.046879 -0.031703 -451191.000000 0 1 0
-8.739305 21.065214 4.352641 23.217756 -1.177538 1.382210 0.047240 -0.036106 -595442.000000 0 1 0
-9.112405 22.303114 3.473941 24.342003 -1.182923 1.427594 0.083953 -0.041631 -229055.000000 0 1 0
-8.644405 22.232714 2.103541 23.946695 -1.199970 1.482840 0.073268 -0.041255 -265344.000000 0 1 0
-8.977005 21.244514 1.222141 23.095663 -1.170997 1.517855 0.082100 -0.040426 -1266580.000000 0 1 0
-8.260805 21.219214 -0.192559 22.771321 -1.199541 1.579253 0.062752 -0.027559 980528.000000 0 1 0
-6.979605 20.562014 -0.188959 21.715134 -1.243558 1.579498 0.065123 -0.025234 446321.000000 0 1 0
-5.982705 21.412914 0.331841 22.235462 -1.298347 1.555872 0.071532 -0.034775 -841859.000000 0 1 0
-4.547905 21.118314 -0.135059 21.602891 -1.358682 1.577048 0.060642 -0.029747 -15401.600000 0 1 0
-4.393905 21.360714 -1.554059 21.863248 -1.367926 1.641937 0.053682 -0.032266 -761970.000000 0 1 0
-3.074105 21.454514 -1.964359 21.762468 -1.428480 1.661183 0.052414 -0.024075 -812061.000000 0 1 0
-2.904905 21.528714 -3.494959 22.003153 -1.436675 1.730311 0.045387 -0.021129 -1240400.000000 0 1 0
-1.650605 21.902014 -3.873559 22.303076 -1.495575 1.745360 0.057978 -0.021766 -1261010.000000 0 1 0
-1.515505 22.170014 -5.233259 22.829658 -1.502544 1.802084 0.061783 -0.034478 135654.000000 0 1 0
-0.232705 22.918714 -5.692959 23.616338 -1.560643 1.814254 0.060852 -0.034422 274989.000000 0 1 0
0.857395 22.032714 -5.781059 22.794654 1.531901 1.827212 0.043516 -0.020228 -444032.000000 0 1 0
2.027495 22.660214 -6.273259 23.599784 1.481560 1.839849 0.053890 -0.018554 147818.000000 0 1 0
3.140595 21.628414 -6.525759 22.808708 1.426597 1.860959 0.046084 -0.012716 -230106.000000 0 1 0
2.883395 20.843614 -7.674359 22.397902 1.433334 1.920519 0.042947 -0.013259 -270028.000000 0 1 0
3.741795 19.777714 -7.747559 21.568117 1.383814 1.938221 0.033438 -0.015535 -99546.100000 0 1 0
3.318495 18.812614 -8.927859 21.086335 1.396195 2.007986 0.025960 -0.009206 -22555.800000 0 1 0
3.615895 19.478514 -10.129759 22.250825 1.387251 2.043453 0.028907 -0.010083 115574.000000 0 1 0
2.878395 18.957714 -11.219959 22.216381 1.420115 2.100214 0.028764 -0.011969 -73904.200000 0 1 0
3.460195 19.388514 -12.575759 23.367438 1.394189 2.139066 0.027569 -0.008118 45032.300000 0 1 0
3.343495 20.762614 -12.846259 24.643285 1.411133 2.119156 0.054279 -0.013844 -169651.000000 0 1 0
3.699795 20.993614 -14.180959 25.603123 1.396353 2.157809 0.077026 -0.011900 6355.450000 0 0 1
4.145595 22.411114 -14.577859 27.054722 1.387884 2.139842 0.080465 -0.014109 459009.000000 0 0 1
3.025295 23.288114 -14.709159 27.710071 1.441613 2.130368 0.094889 -0.024273 370973.000000 0 0 1
3.459295 24.571514 -15.055559 29.024057 1.430931 2.116157 0.082103 -0.025643 241504.000000 0 0 1
2.172095 25.420214 -15.216959 29.706247 1.485556 2.108596 0.086132 -0.021368 279725.000000 0 0 1
1.573995 25.717614 -13.951459 29.300450 1.509670 2.067070 0.087974 -0.032059 31733.200000 0 0 1
0.996795 26.996914 -13.905459 30.384022 1.533891 2.046155 0.055458 -0.022510 88030.500000 0 0 1
-0.128105 27.269414 -12.844259 30.143197 -1.566099 2.010983 0.060021 -0.031826 634258.000000 0 0 1
-1.472405 26.888814 -13.046459 29.923008 -1.516092 2.021946 0.037492 -0.035442 -106258.000000 0 0 1
-1.795205 25.496814 -13.018959 28.684553 -1.500503 2.041896 0.043849 -0.031585 -39330.200000 0 0 1
-1.614105 24.776214 -11.624059 27.415048 -1.505741 2.008657 0.068977 -0.035806 -288308.000000 0 0 1
-2.566705 25.150214 -10.659559 27.436243 -1.469093 1.969822 0.079819 -0.027108 -215176.000000 0 0 1
-2.666805 24.053514 -9.696159 26.071036 -1.460378 1.951865 0.094747 -0.022583 -96838.300000 0 0 1
-3.618405 24.258014 -8.488459 25.953768 -1.422725 1.903988 0.076246 -0.028521 -425459.000000 0 0 1
-3.198705 24.783514 -7.287559 26.030037 -1.442440 1.854556 0.089989 -0.033308 -319331.000000 0 0 1
-2.707705 26.133014 -7.299859 27.268187 -1.467552 1.841808 0.087290 -0.036486 189638.000000 0 0 1
-2.394305 26.688414 -5.879559 27.433071 -1.481323 1.786796 0.086979 -0.029520 390555.000000 0 0 1
-1.507605 25.785814 -5.193259 26.346746 -1.512396 1.769208 0.091545 -0.036633 219842.000000 0 0 1
-1.342805 26.083714 -3.809959 26.394679 -1.519361 1.715648 0.099750 -0.037145 -151964.000000 0 0 1
-2.284805 25.243414 -2.943259 25.516918 -1.480531 1.686399 0.099000 -0.042988 297547.000000 0 0 1
-3.652805 25.511714 -3.197259 25.969463 -1.428581 1.694226 0.085277 -0.040737 167141.000000 0 0 1
-4.541505 24.952214 -2.248359 25.461606 -1.390759 1.659215 0.089747 -0.039195 -259609.000000 0 0 1
-5.763605 24.296814 -2.887659 25.137480 -1.337885 1.685925 0.078047 -0.038124 -827763.000000 0 0 1
-6.875905 25.133014 -2.966659 26.224941 -1.303750 1.684163 0.071815 -0.035807 -1082790.000000 0 0 1
-7.891505 24.427014 -3.629259 25.925401 -1.258316 1.711246 0.066168 -0.028903 282918.000000 0 0 1
-9.098105 25.422614 -3.836259 27.272729 -1.227124 1.711927 0.046488 -0.018117 397261.000000 0 0 1
-9.837005 25.622114 -2.641059 27.572352 -1.204223 1.666730 0.059980 -0.021511 -461955.000000 0 0 1
-11.143005 26.085814 -2.829859 28.506918 -1.167091 1.670229 0.059074 -0.011799 -253527.000000 0 0 1
-11.993305 26.123014 -1.557859 28.786771 -1.140393 1.624940 0.069298 -0.017072 -244929.000000 0 0 1
-12.469705 24.850514 -1.100559 27.825399 -1.105719 1.610359 0.074191 -0.018930 -94367.800000 0 0 1
-11.536405 24.013314 -0.457659 26.644650 -1.122937 1.587974 0.079374 -0.025439 -298690.000000 0 0 1
-12.079905 22.642014 -0.147159 25.663332 -1.080696 1.576531 0.082080 -0.030953 -349214.000000 0 0 1
-12.836505 22.590414 1.031141 26.003191 -1.054066 1.531132 0.087620 -0.031407 -73222.100000 0 0 1
-13.331005 21.273614 1.269741 25.137514 -1.011015 1.520263 0.082684 -0.038503 1277.290000 0 0 1
-14.076805 21.169714 2.659841 25.561456 -0.983983 1.466551 0.081620 -0.035609 176581.000000 0 0 1
-13.238505 21.216514 3.798241 25.294765 -1.012937 1.420067 0.088552 -0.040882 173955.000000 0 0 1
-12.798005 22.517414 4.180541 26.235469 -1.053966 1.410767 0.079303 -0.039001 -130912.000000 0 0 1
-12.451405 22.720214 5.673541 26.522344 -1.069465 1.355215 0.080389 -0.035973 -367705.000000 0 0 1
-11.203905 22.214414 6.066041 25.608681 -1.103672 1.331649 0.074554 -0.028714 -303133.000000 0 0 1
-11.283205 21.795614 7.403641 25.635394 -1.093103 1.277817 0.054160 -0.029777 82219.200000 0 0 1
-9.941205 21.789814 8.168541 25.305111 -1.142772 1.242108 0.042429 -0.023386 -54956.300000 0 0 1
-9.289205 23.019014 8.472741 26.228834 -1.187238 1.241865 0.042105 -0.024985 -225610.000000 0 0 1
-8.282405 22.892014 9.422741 26.104226 -1.223645 1.201493 0.045295 -0.019703 -659496.000000 0 0 1
-8.626305 22.497014 10.896241 26.443466 -1.204645 1.146085 0.043319 -0.021342 -459054.000000 0 0 1
-9.119205 21.153114 10.909241 25.487756 -1.163766 1.128497 0.051306 -0.015910 60921.000000 0 0 1
-8.992005 20.651914 12.244841 25.637743 -1.160143 1.072864 0.042101 -0.011536 -236518.000000 0 0 1
-10.010105 19.557914 12.644341 25.349430 -1.097739 1.048581 0.041764 -0.011022 -253922.000000 0 0 1
-10.023805 18.323814 11.886241 24.031679 -1.070231 1.053414 0.054673 -0.022846 -391517.000000 0 1 0
-10.735905 17.334614 12.550641 23.942997 -1.016282 1.019035 0.053411 -0.022859 -260798.000000 0 1 0
-10.973905 16.123914 11.629641 22.708055 -0.973211 1.033125 0.053502 -0.031496 -88132.400000 0 1 0
-11.330105 14.924114 12.286341 22.406576 -0.921445 0.990423 0.050781 -0.026708 170729.000000 0 1 0
-11.820905 13.911714 11.421141 21.533975 -0.866471 1.011750 0.042872 -0.021945 27551.400000 0 1 0
-12.141705 12.582714 12.084841 21.255331 -0.803233 0.966047 0.036242 -0.027521 -200559.000000 0 1 0
-13.170405 12.556714 13.018341 22.374268 -0.761549 0.949802 0.053689 -0.021338 -327766.000000 0 1 0
-13.493205 11.292914 13.527841 22.194571 -0.696859 0.915352 0.037024 -0.013932 -18016.800000 0 1 0
-14.279505 11.226214 14.875241 23.477755 -0.666255 0.884613 0.044777 -0.019147 762969.000000 0 1 0
-15.525405 11.903214 14.581241 24.399535 -0.654099 0.930288 0.056013 -0.022929 255352.000000 0 1 0
-16.172605 12.089814 15.811041 25.645776 -0.641931 0.906486 0.042839 -0.018884 94170.100000 0 0 1
-17.262405 13.217014 15.800741 26.876450 -0.653444 0.942332 0.058885 -0.016751 301757.000000 0 0 1
-18.423805 12.875314 15.066541 27.059398 -0.609948 0.980274 0.053263 -0.016790 -481064.000000 0 0 1
-19.181505 14.032114 14.990941 28.099087 -0.631584 1.008060 0.069674 -0.015042 55466.100000 0 0 1
-20.528505 13.734014 14.251441 28.515720 -0.589631 1.047457 0.070363 -0.015851 432805.000000 0 0 1
-21.487705 12.998914 15.000641 29.252564 -0.544049 1.032356 0.072590 -0.010247 673938.000000 0 0 1
-22.579905 12.692814 14.120841 29.501828 -0.512107 1.071688 0.069191 -0.011251 897457.000000 0 0 1
-23.690305 11.701614 14.631741 30.203414 -0.458789 1.065073 0.088563 -0.012244 632572.000000 0 0 1
-24.403305 12.192614 15.747841 31.498820 -0.463351 1.047255 0.111679 -0.021971 162104.000000 0 0 1
-25.417865 11.306114 16.167541 32.175853 -0.418529 1.044338 0.112450 -0.021050 180282.000000 0 0 1
-26.292715 11.827114 17.372641 33.660009 -0.422708 1.028480 0.106026 -0.017875 147065.000000 0 0 1
-27.103515 12.915514 17.003041 34.503833 -0.444692 1.055507 0.103096 -0.014848 -155893.000000 0 0 1
-27.999455 13.308214 18.016541 35.856294 -0.443695 1.044349 0.094437 0.000033 -112850.000000 0 0 1
-29.012215 14.353214 17.536341 36.813675 -0.459423 1.074293 0.078805 -0.002307 -30065.200000 0 0 1
-28.459575 15.614214 17.135541 36.706647 -0.501803 1.085100 0.087931 -0.003844 -213333.000000 0 0 1
-29.492135 16.537114 16.871941 37.787890 -0.511044 1.107957 0.086952 0.003335 206652.000000 0 0 1
-28.991565 18.038614 16.827741 38.066722 -0.556585 1.112903 0.080710 0.002704 -69240.100000 0 0 1
-28.373745 18.381314 18.084741 38.340579 -0.574847 1.079594 0.067702 -0.000490 320531.000000 0 0 1
-29.239765 18.629014 19.198641 39.630694 -0.567262 1.065075 0.072723 -0.003483 198651.000000 0 0 1
-28.462735 18.675414 20.603741 39.792117 -0.580676 1.026537 0.064380 -0.011519 713341.000000 0 0 1
-28.028755 17.457414 21.298441 39.293715 -0.557044 0.997943 0.072365 -0.010504 668775.000000 0 0 1
-27.230845 16.518414 20.543641 37.900108 -0.545263 0.997925 0.067581 0.005299 157201.000000 0 0 1
-26.847845 15.219614 21.257041 37.474061 -0.515714 0.967637 0.071881 -0.004237 -381922.000000 0 0 1
-27.958945 14.401614 21.433641 38.059297 -0.475653 0.972586 0.060887 -0.005234 -110899.000000 0 0 1
-27.627345 13.211714 22.136641 37.786909 -0.446065 0.944895 0.067946 -0.003520 -224063.000000 0 0 1
-28.883495 12.358414 22.351841 38.556342 -0.404300 0.952413 0.078148 -0.011361 -44502.100000 0 0 1
-29.565445 12.094714 21.144441 38.307768 -0.388312 0.986081 0.079344 -0.007313 -578715.000000 0 0 1
-30.592975 11.184514 21.250741 38.892384 -0.350496 0.992738 0.102525 -0.007930 -602033.000000 0 0 1
-31.401215 10.973814 19.931641 38.777974 -0.336203 1.030962 0.117966 -0.008199 -376785.000000 0 0 1
-30.776455 10.415114 18.786741 37.531406 -0.326314 1.046550 0.140530 -0.015172 35404.400000 0 0 1
-30.543875 9.052214 18.868341 37.025467 -0.288121 1.036071 0.155054 -0.021854 -198614.000000 0 0 1
-29.915175 8.556414 17.548341 35.722181 -0.278585 1.057278 0.164311 -0.038596 24312.500000 0 0 1
-30.763255 8.615514 16.396441 35.908888 -0.273063 1.096613 0.169698 -0.024665 420911.000000 0 0 1
-31.105785 9.827914 15.793341 36.243447 -0.306026 1.119917 0.158340 -0.023733 -138055.000000 0 0 1
-29.936415 10.661214 15.202041 35.227156 -0.342124 1.124594 0.153236 -0.022001 103585.000000 0 0 1
-29.404145 10.404314 13.926041 34.158281 -0.340090 1.150872 0.154097 -0.029118 444899.000000 0 0 1
-28.340335 11.322114 13.693941 33.449797 -0.380080 1.149013 0.138706 -0.023005 52195.600000 0 0 1
-27.638265 11.323914 12.344041 32.318417 -0.388856 1.178890 0.154609 -0.024713 -78081.200000 0 0 1
-27.006825 10.098814 11.967941 31.218365 -0.357837 1.177362 0.170149 -0.020359 336640.000000 0 0 1
-27.894305 9.264514 11.305141 31.491741 -0.320666 1.203613 0.175727 -0.021122 -507163.000000 0 0 1
-27.262635 7.968714 10.775741 30.378747 -0.284372 1.208189 0.182039 -0.026198 -310289.000000 0 0 1
-26.528905 8.089714 9.579241 29.342600 -0.295982 1.238238 0.161617 -0.023540 282327.000000 0 0 1
-26.095275 6.842814 9.075641 28.463218 -0.256450 1.246275 0.174400 -0.040402 -422939.000000 0 0 1
-25.360335 7.192014 7.767241 27.480934 -0.276337 1.284250 0.158134 -0.018431 -37105.000000 0 0 1
-26.266815 7.656814 6.740041 28.178015 -0.283642 1.329260 0.160669 -0.028309 615675.000000 0 0 1
-25.574545 8.073714 5.574141 27.391847 -0.305791 1.365869 0.156162 -0.028346 -275832.000000 0 0 1
-26.474415 8.571914 4.417241 28.175954 -0.313129 1.413373 0.140466 -0.026051 356257.000000 0 0 1
-27.317175 7.651014 3.655241 28.602917 -0.273084 1.442653 0.168497 -0.024300 529042.000000 0 0 1
-26.722615 6.564114 2.975841 27.677453 -0.240870 1.463069 0.171006 -0.027513 -762117.000000 0 0 1
-25.976215 6.944414 1.711941 26.942891 -0.261229 1.507214 0.177588 -0.019398 -82358.100000 0 0 1
-24.729105 7.531714 2.032641 25.930426 -0.295643 1.492328 0.149402 -0.020126 -274117.000000 0 0 1
-23.857605 7.601014 0.974141 25.058126 -0.308432 1.531911 0.154023 -0.011177 -1738940.000000 0 0 1
-22.590205 8.214314 1.432641 24.079967 -0.348759 1.511266 0.129896 -0.012754 -1457060.000000 0 1 0
-22.807605 9.616014 1.718941 24.811476 -0.399000 1.501461 0.117789 -0.018116 892064.000000 0 1 0
-21.620305 10.238814 2.176241 24.020969 -0.442284 1.480074 0.111508 -0.019594 -106253.000000 0 1 0
-22.020005 11.641514 2.718741 25.055879 -0.486327 1.462075 0.112742 -0.021548 -113437.000000 0 0 1
-20.967705 12.528514 3.065441 24.617174 -0.538590 1.445948 0.120773 -0.022627 129090.000000 0 1 0
-21.343805 13.690914 3.759041 25.634538 -0.570339 1.423626 0.126290 -0.030035 -366980.000000 0 0 1
-20.231005 14.364214 4.595341 25.233735 -0.617412 1.387663 0.101664 -0.023007 37221.100000 0 0 1
-19.880405 13.566314 5.698841 24.733625 -0.598813 1.338299 0.104194 -0.021274 537026.000000 0 1 0
-18.885205 14.185214 6.538741 24.507681 -0.644223 1.300721 0.087011 -0.020904 127581.000000 0 1 0
-18.238405 13.182614 7.459141 23.707795 -0.625861 1.250731 0.045881 -0.021290 160697.000000 0 1 0
-17.194605 12.352014 6.886141 22.263101 -0.622946 1.256332 0.050983 -0.014097 697317.000000 0 1 0
-16.640705 11.566014 7.923641 21.759363 -0.607392 1.198078 0.041633 -0.016916 -432798.000000 0 1 0
10.266695 -33.533482 -14.350459 37.892415 -1.273695 1.959205 0.061110 -0.003766 67738.400000 0 0 1
11.135895 -32.651582 -13.656059 37.102856 -1.242115 1.947717 0.072878 -0.012668 343703.000000 0 0 1
11.957595 -31.833782 -14.469959 36.956102 -1.211477 1.973106 0.056325 -0.022060 635297.000000 0 0 1
13.246695 -31.331182 -13.715059 36.677251 -1.170794 1.954049 0.055223 -0.026792 1131340.000000 0 0 1
14.385495 -32.217382 -13.825959 37.895373 -1.150846 1.944263 0.064373 -0.012394 1740730.000000 0 0 1
15.563795 -31.498682 -13.293159 37.564701 -1.111872 1.932506 0.052451 -0.014796 1670820.000000 0 0 1
16.884295 -32.119882 -13.851359 38.841040 -1.086828 1.935440 0.072645 -0.012143 432496.000000 0 0 1
17.245995 -33.428382 -13.329559 39.906869 -1.094503 1.911358 0.072066 -0.016695 57100.800000 0 0 1
18.378095 -33.956982 -14.006659 41.073319 -1.074721 1.918794 0.071410 -0.000845 440351.000000 0 0 1
18.626295 32.600914 -13.712159 39.972263 1.051715 1.920950 0.058457 -0.006239 -145102.000000 0 0 1
19.058595 32.418714 -12.392759 39.595246 1.039330 1.889132 0.053425 -0.005205 -160132.000000 0 0 1
18.993895 31.110114 -11.930859 38.353000 1.022665 1.887126 0.043004 -0.000990 -8343.630000 0 0 1
19.827995 30.942714 -10.647859 38.261963 1.000918 1.852808 0.038544 -0.006720 234580.000000 0 0 1
21.098795 30.334714 -10.823659 38.503320 0.963075 1.855747 0.040714 -0.008986 1621.790000 0 0 1
21.446595 29.828014 -9.576459 37.965450 0.947427 1.825792 0.034006 0.000366 300507.000000 0 0 1
22.723195 28.939814 -9.714959 38.055707 0.905153 1.828936 0.039847 0.007803 419722.000000 0 0 1
23.930295 29.619214 -10.006359 39.371107 0.891238 1.827770 0.037775 -0.007291 100716.000000 0 0 1
25.043395 28.794314 -9.691359 39.372663 0.854957 1.819497 0.039221 -0.002057 84668.800000 0 0 1
26.191995 29.098914 -10.675759 40.580035 0.837925 1.837009 0.025570 -0.005091 -143957.000000 0 0 1
26.884795 30.282514 -10.342959 41.794732 0.844763 1.820865 0.041266 -0.010070 -141088.000000 0 0 1
27.975395 30.607414 -11.167559 42.943578 0.830296 1.833872 0.048287 -0.005816 47535.900000 0 0 1
28.475195 32.034914 -10.877659 44.219859 0.844159 1.819338 0.045015 -0.007093 -247491.000000 0 0 1
28.200995 33.070814 -11.764959 45.026538 0.864710 1.835154 0.064372 -0.008647 -219925.000000 0 0 1
28.440795 -33.719982 -11.249759 45.524423 -0.870123 1.820498 0.057063 -0.006605 -245456.000000 0 0 1
27.424995 -32.673782 -11.692359 44.231410 -0.872513 1.838321 0.049969 -0.001626 -790235.000000 0 0 1
26.169595 -32.880282 -11.091959 43.462538 -0.898557 1.828858 0.061932 -0.016879 -328726.000000 0 0 1
25.114795 -32.058782 -11.546959 42.330257 -0.906261 1.847080 0.067621 -0.025610 174304.000000 0 0 1
25.252995 -30.651682 -11.001959 41.210223 -0.881669 1.841046 0.054954 -0.010875 -386362.000000 0 0 1
26.180095 -29.889282 -11.774959 41.441721 -0.851455 1.858898 0.050898 -0.012720 -31593.500000 0 0 1
26.587895 -28.740182 -11.098559 40.695113 -0.824279 1.847020 0.044980 -0.016642 -126295.000000 0 0 1
27.439095 -27.834882 -12.006459 40.888136 -0.792559 1.868831 0.040603 -0.005855 332668.000000 0 0 1
28.723095 -28.293582 -12.397459 42.181038 -0.777865 1.869112 0.023065 -0.007818 40189.000000 0 0 1
28.733895 -29.221682 -13.498159 43.147928 -0.793815 1.888972 0.035691 -0.012615 -708647.000000 0 0 1
30.116395 -29.683282 -13.950559 44.527661 -0.778156 1.889463 0.040503 -0.013892 -232807.000000 0 0 1
30.739495 -30.562482 -13.015059 45.258962 -0.782511 1.862484 0.049936 -0.018092 318640.000000 0 0 1
31.877295 -31.200782 -13.585559 46.628512 -0.774674 1.866442 0.053730 -0.020408 375812.000000 0 0 1
32.557595 -32.282882 -12.668459 47.567545 -0.781161 1.840375 0.059586 -0.014783 572092.000000 0 0 1
33.666395 -32.968582 -13.250159 48.948138 -0.774926 1.844914 0.051900 -0.013345 475761.000000 0 0 1
34.442895 -33.805882 -12.385559 49.825222 -0.776065 1.822010 0.051452 -0.009809 652702.000000 0 0 1
33.715795 33.091614 -11.587459 48.642358 0.776055 1.811326 0.047049 -0.011955 403928.000000 0 0 1
32.976695 33.464214 -10.431359 48.126181 0.792736 1.789281 0.045624 -0.009689 95627.400000 0 0 1
32.395795 32.364614 -9.739759 46.816863 0.784917 1.780367 0.047516 -0.006773 -381238.000000 0 0 1
31.668895 32.724614 -8.471159 46.320404 0.801792 1.754713 0.030099 -0.004250 -326167.000000 0 0 1
30.586295 33.593514 -8.632659 46.244658 0.832220 1.758571 0.040544 -0.012720 -180442.000000 0 0 1
29.808495 33.782214 -7.433659 45.662278 0.847806 1.734321 0.033930 -0.011040 1367360.000000 0 0 1
28.712695 -33.208182 -7.606459 44.554017 -0.857872 1.742361 0.035462 -0.019723 338659.000000 0 0 1
29.458395 -32.075382 -7.900159 44.261040 -0.827902 1.750248 0.021174 -0.018503 466049.000000 0 0 1
28.690095 -30.894582 -8.265659 42.964146 -0.822379 1.764388 0.027571 -0.017388 475169.000000 0 0 1
27.706895 -30.292082 -7.241059 41.685911 -0.829942 1.745387 0.042360 -0.022428 87620.100000 0 0 1
26.847295 -29.335582 -7.790359 40.522134 -0.829658 1.764250 0.038916 -0.033306 -283922.000000 0 0 1
25.921995 -28.933782 -6.782959 39.435036 -0.840247 1.743659 0.044766 -0.038164 549192.000000 0 0 1
24.805795 -27.997982 -7.377459 38.126649 -0.845778 1.765523 0.083064 -0.038638 158241.000000 0 0 1
23.978195 -28.650582 -8.322159 38.276207 -0.873946 1.789971 0.094014 -0.032725 335844.000000 0 0 1
23.234195 -27.686682 -9.096259 37.270928 -0.872616 1.817344 0.110418 -0.032827 651574.000000 0 0 1
21.893495 -28.218782 -9.709159 37.012059 -0.910956 1.836226 0.112315 -0.028841 398819.000000 0 0 1
22.040395 -29.148082 -10.751459 38.091778 -0.923369 1.856936 0.114303 -0.026155 1056720.000000 0 0 1
20.749795 -29.699182 -11.153859 37.907835 -0.960967 1.869453 0.103843 -0.029220 1548800.000000 0 0 1
20.483395 -31.041582 -10.378959 38.611813 -0.987514 1.842946 0.102036 -0.033349 -683630.000000 0 0 1
21.492295 -31.912282 -10.649959 39.921600 -0.978091 1.840838 0.080388 -0.020155 -981833.000000 0 0 1
21.138195 -33.275482 -10.315559 40.749132 -1.004861 1.826729 0.061867 -0.017092 490070.000000 0 0 1
22.237395 33.695814 -10.461159 41.705461 0.987461 1.824338 0.055970 -0.010744 393897.000000 0 0 1
23.280595 33.879314 -9.520659 42.195225 0.968738 1.798390 0.057388 -0.009011 -494018.000000 0 0 1
24.189995 32.831614 -9.579859 41.890863 0.935804 1.801524 0.043360 -0.003789 -7100.240000 0 0 1
25.516495 33.109314 -8.795759 42.716315 0.914194 1.778191 0.039308 -0.009335 92811.900000 0 0 1
25.511095 32.853814 -7.418159 42.251842 0.910548 1.747281 0.034473 -0.017266 -23706.000000 0 0 1
25.891995 31.587914 -7.077759 41.452218 0.884170 1.742382 0.045331 -0.012392 -453271.000000 0 0 1
26.026895 31.397414 -5.562059 41.159852 0.878650 1.706344 0.047773 -0.002851 -412977.000000 0 0 1
27.217295 31.883314 -4.961659 42.213090 0.864185 1.688607 0.047967 -0.004439 480159.000000 0 0 1
28.217495 30.877314 -4.715459 42.093599 0.830377 1.683055 0.063003 -0.002449 520448.000000 0 0 1
27.855995 29.780014 -3.624859 40.938311 0.818768 1.659457 0.078683 0.007355 -225812.000000 0 0 1
27.456295 30.331614 -2.342159 40.979759 0.835114 1.627982 0.074415 0.004918 219819.000000 0 0 1
27.090295 29.327114 -1.356259 39.947505 0.825025 1.604754 0.074141 0.009535 444114.000000 0 0 1
25.806395 28.442114 -1.367759 38.429086 0.833946 1.606396 0.066992 0.014901 340809.000000 0 0 1
24.623995 29.098814 -0.946559 38.131065 0.868501 1.595623 0.063898 0.009870 -630231.000000 0 0 1
23.530995 28.332214 -1.313159 36.853039 0.877710 1.606436 0.055673 0.014293 673190.000000 0 0 1
22.104595 28.893814 -0.908859 36.390818 0.917746 1.595774 0.046434 0.001304 1069380.000000 0 0 1
21.835195 28.809514 0.456541 36.152072 0.922248 1.558168 0.048267 -0.002490 -93566.100000 0 0 1
20.696995 29.537314 0.860141 36.077117 0.959596 1.546952 0.053828 -0.009025 -291334.000000 0 0 1
20.073495 28.938414 2.129741 35.283322 0.964336 1.510398 0.054995 -0.024438 -96566.600000 0 0 1
19.336895 27.773714 1.729841 33.886385 0.962605 1.519726 0.071040 -0.020005 376597.000000 0 0 1
18.870595 27.001914 2.834641 33.064149 0.960835 1.484959 0.088109 -0.026018 -105405.000000 0 0 1
18.422895 25.575414 2.379941 31.609635 0.946552 1.495433 0.086583 -0.017871 461076.000000 0 0 1
19.424795 24.642214 1.903841 31.435426 0.903247 1.510196 0.081746 -0.021792 839229.000000 0 0 1
20.220295 24.095114 2.985841 31.596679 0.872614 1.476157 0.080546 -0.021406 -415242.000000 0 0 1
21.360595 23.251914 2.394041 31.664775 0.827767 1.495118 0.094106 -0.026996 -618622.000000 0 0 1
20.978595 22.150714 1.600841 30.550258 0.812568 1.518372 0.101503 -0.025480 267435.000000 0 0 1
22.122895 21.426614 1.195141 30.821269 0.769411 1.532010 0.090989 -0.030483 -36281.700000 0 0 1
21.991495 20.425914 0.048141 30.014099 0.748506 1.569192 0.106417 -0.024645 -407527.000000 0 0 1
21.611595 21.001714 -1.146259 30.157038 0.771087 1.608815 0.085064 -0.014715 322584.000000 0 0 1
21.789295 20.173814 -2.233459 29.778255 0.746920 1.645870 0.119278 -0.021988 -45641.700000 0 0 1
21.535395 20.897014 -3.621359 30.225365 0.770355 1.690897 0.106111 -0.019333 -262832.000000 0 0 1
22.470395 21.922314 -3.843959 31.627243 0.773053 1.692637 0.099318 -0.018299 215978.000000 0 0 1
22.142995 22.630814 -5.034059 32.059440 0.796293 1.728472 0.082840 -0.014925 -5746.210000 0 0 1
23.209495 23.733914 -5.301159 33.616687 0.796569 1.729152 0.075084 -0.001717 31103.700000 0 0 1
23.227495 24.881014 -4.504759 34.334738 0.819755 1.702377 0.061179 0.001477 1176.140000 0 0 1
23.590795 24.763114 -3.097459 34.341399 0.809638 1.661115 0.077873 -0.002928 -48201.700000 0 0 1
22.440195 24.404714 -2.099759 33.219895 0.827310 1.634046 0.070899 -0.011071 -1329150.000000 0 0 1
21.541395 25.494914 -2.053859 33.440106 0.869254 1.632254 0.072783 -0.002381 436754.000000 0 0 1
20.387695 25.285114 -1.247559 32.504638 0.892218 1.609187 0.069675 -0.010980 612566.000000 0 0 1
19.439995 24.135914 -1.762259 31.041284 0.892748 1.627598 0.095291 -0.026817 -1078560.000000 0 0 1
18.786695 24.404714 -3.012059 30.945153 0.914745 1.668286 0.080398 -0.016415 463953.000000 0 0 1
17.915795 23.357314 -3.424859 29.635612 0.916484 1.686621 0.077743 -0.023879 318837.000000 0 0 1
17.222195 23.657414 -4.774459 29.649160 0.941536 1.732532 0.078295 -0.023831 51719.400000 0 0 1
16.379395 22.667714 -5.338859 28.471271 0.945072 1.759430 0.091646 -0.030970 293512.000000 0 0 1
15.937195 23.111614 -6.592959 28.837614 0.967101 1.801460 0.085575 -0.030608 -237098.000000 0 0 1
15.371395 21.897214 -7.432359 27.767026 0.958743 1.841769 0.093218 -0.030597 27521.200000 0 0 1
16.310595 20.893014 -7.767959 27.620549 0.907952 1.855881 0.086378 -0.032091 741148.000000 0 0 1
15.545695 19.811714 -8.321559 26.522085 0.905472 1.889946 0.106469 -0.037454 525857.000000 0 0 1
16.450295 18.607714 -8.740459 26.329733 0.846859 1.909179 0.094971 -0.034224 -60787.900000 0 0 1
17.424795 18.983414 -9.680459 27.526438 0.828182 1.930160 0.092640 -0.026751 -57547.500000 0 0 1
18.081095 17.819314 -10.094059 27.319297 0.778106 1.949251 0.085462 -0.026621 70732.400000 0 0 1
19.535795 17.954514 -10.622259 28.580487 0.743245 1.951594 0.072597 -0.021923 169619.000000 0 0 1
19.616095 18.668814 -11.815259 29.545154 0.760660 1.982210 0.077375 -0.020468 -354841.000000 0 0 1
20.924495 18.608914 -12.292959 30.581743 0.726892 1.984464 0.079758 -0.019864 -527075.000000 0 0 1
21.136495 19.037314 -13.751259 31.595377 0.733193 2.021090 0.085857 -0.025960 -143278.000000 0 0 1
20.819295 18.019614 -14.677759 31.202342 0.713438 2.060547 0.084200 -0.026255 285051.000000 0 0 1
21.394595 18.397214 -15.920359 32.398210 0.710214 2.084489 0.078955 -0.035257 139336.000000 0 0 1
21.542395 17.302214 -17.034059 32.459214 0.676671 2.123257 0.078608 -0.036953 176747.000000 0 0 1
22.564995 16.322414 -16.767859 32.507865 0.626227 2.112748 0.088227 -0.038069 319761.000000 0 0 1
22.820595 15.577414 -17.962459 32.955808 0.598955 2.147241 0.097895 -0.044163 351439.000000 0 0 1
23.795895 16.302214 -18.986859 34.532703 0.600646 2.152948 0.110726 -0.038630 134505.000000 0 0 1
25.139895 16.368114 -18.523359 35.256833 0.577135 2.123962 0.121391 -0.040827 409251.000000 0 0 1
25.967795 16.731114 -19.619359 36.594751 0.572359 2.136636 0.127943 -0.038907 -655499.000000 0 0 1
27.440395 16.884614 -19.277759 37.545938 0.551608 2.109990 0.102565 -0.034113 -624586.000000 0 0 1
27.742595 18.038714 -18.579959 37.950779 0.576528 2.082405 0.103101 -0.033545 467797.000000 0 0 1
29.087195 17.996514 -18.089259 38.693161 0.554063 2.057263 0.098812 -0.037504 546493.000000 0 0 1
29.306595 19.013314 -16.955059 38.831130 0.575512 2.022652 0.101505 -0.041588 172789.000000 0 0 1
28.420195 18.871114 -15.861759 37.622092 0.586157 2.006014 0.078756 -0.036439 731048.000000 0 0 1
27.279895 19.761614 -15.871959 37.237523 0.626916 2.011124 0.075116 -0.031927 906926.000000 0 0 1
26.200495 19.461814 -14.797659 35.835720 0.638879 1.996466 0.072097 -0.030748 78739.800000 0 0 1
26.650495 19.743114 -13.501859 35.809770 0.637597 1.957399 0.069274 -0.029554 566952.000000 0 0 1
25.689995 19.340514 -12.509859 34.504027 0.645318 1.941812 0.083764 -0.028726 353040.000000 0 0 1
26.134195 19.682914 -11.066359 34.538059 0.645513 1.896959 0.082774 -0.025039 -78035.800000 0 0 1
26.066095 21.057914 -10.822059 35.213549 0.679519 1.883179 0.082711 -0.023826 55222.500000 0 0 1
26.533495 21.432314 -9.525159 35.413262 0.679446 1.843121 0.071501 -0.016705 -140381.000000 0 0 1
25.592895 21.143814 -8.357059 34.232990 0.690490 1.817412 0.079341 -0.017008 -531757.000000 0 0 1
25.625295 19.772114 -7.913959 33.320009 0.657174 1.810602 0.093733 -0.021976 167323.000000 0 0 1
24.722495 19.465014 -6.878459 32.208721 0.666974 1.786013 0.091261 -0.022259 785737.000000 0 0 1
23.242795 19.114814 -7.303559 30.966847 0.688249 1.808890 0.096487 -0.026299 621276.000000 0 0 1
22.508495 20.274614 -7.670459 31.249452 0.733231 1.818789 0.091786 -0.019239 -1313410.000000 0 0 1
21.247395 19.898314 -8.030959 30.197533 0.752622 1.839983 0.081988 -0.017828 -1550870.000000 0 0 1
20.359795 21.123614 -8.273559 30.482456 0.803809 1.845665 0.081611 -0.021254 -785257.000000 0 0 1
20.736595 21.954214 -9.359559 31.616376 0.813912 1.871335 0.084691 -0.021329 48963.900000 0 0 1
19.927295 21.866114 -10.534359 31.403770 0.831755 1.912878 0.081286 -0.020843 432672.000000 0 0 1
18.455795 22.339914 -10.363159 30.774717 0.880321 1.914252 0.084618 -0.019115 -171886.000000 0 0 1
18.249595 23.734014 -10.179359 31.622310 0.915295 1.898537 0.078672 -0.019068 606745.000000 0 0 1
16.841795 23.967514 -10.142759 30.999409 0.958266 1.904127 0.083175 -0.017014 522222.000000 0 0 1
16.560995 25.458514 -9.950059 31.959446 0.994063 1.887393 0.074825 -0.013195 53148.500000 0 0 1
17.056895 26.327714 -10.958759 33.229213 0.995921 1.906881 0.098313 -0.009766 245791.000000 0 0 1
16.977595 27.658014 -10.440759 34.091259 1.020262 1.882057 0.094792 -0.015332 46952.200000 0 0 1
20.438195 28.773914 32.940058 48.277379 0.953189 0.819881 0.053743 -0.008815 614199.000000 0 0 1
19.060895 29.122214 32.846575 47.857273 0.991254 0.814346 0.073400 -0.030111 38904.400000 0 0 1
18.228695 27.995214 32.891687 46.881557 0.993623 0.793168 0.073470 -0.025942 1051610.000000 0 0 1
16.714495 28.414314 33.105733 46.719773 1.039067 0.783281 0.102996 -0.043616 1258370.000000 0 0 1
16.122195 28.980914 31.912791 46.024393 1.063126 0.804615 0.107225 -0.046688 -501771.000000 0 0 1
14.771695 29.232514 32.157521 45.900425 1.102904 0.794568 0.108918 -0.047367 -397422.000000 0 0 1
13.830695 29.186414 30.929551 44.718811 1.128267 0.807032 0.107932 -0.051016 -19847.800000 0 0 1
13.379895 27.908214 30.557871 43.493373 1.123744 0.791770 0.105518 -0.051432 284537.000000 0 0 1
11.958895 27.852314 30.560141 43.042872 1.165232 0.781308 0.094982 -0.037327 21441.600000 0 0 1
11.429795 26.449314 30.601541 42.031664 1.162894 0.755310 0.069937 -0.037031 -335424.000000 0 0 1
11.628095 25.688314 29.431351 40.759128 1.145732 0.763992 0.069568 -0.030642 8526.600000 0 0 1
12.920395 25.157814 29.236651 40.677192 1.096349 0.768796 0.063437 -0.030237 -83223.000000 0 0 1
13.058095 24.341114 27.902831 39.262853 1.078406 0.780350 0.085487 -0.033001 -317876.000000 0 0 1
12.891095 25.177414 26.787841 38.957296 1.097587 0.812589 0.070479 -0.031157 161186.000000 0 0 1
12.806595 24.616014 25.505141 37.689113 1.091077 0.827492 0.080495 -0.025539 -413590.000000 0 0 1
11.650295 23.675614 25.206841 36.491765 1.113505 0.808265 0.073846 -0.018170 -709371.000000 0 0 1
11.754595 23.283614 23.824521 35.325699 1.103281 0.830611 0.083718 -0.020162 -119786.000000 0 0 1
10.860195 22.294314 23.397041 34.094014 1.117499 0.814475 0.087817 -0.021503 -200090.000000 0 0 1
11.095695 21.987614 21.921471 32.971511 1.103449 0.843489 0.101067 -0.031277 -196064.000000 0 0 1
10.786095 23.109114 21.142271 33.126525 1.134104 0.878602 0.104582 -0.029733 29376.100000 0 0 1
10.848495 22.865914 19.696671 32.070216 1.127805 0.909458 0.104947 -0.026501 -453606.000000 0 0 1
10.529595 24.086614 18.808871 32.323536 1.158675 0.949741 0.098276 -0.027921 -456413.000000 0 0 1
9.167495 24.342514 18.728271 32.052287 1.210620 0.946774 0.093777 -0.032241 -732103.000000 0 0 1
8.565295 25.122814 19.782871 33.104109 1.242218 0.930297 0.089923 -0.031284 357916.000000 0 0 1
7.155995 25.640314 19.339571 32.903693 1.298630 0.942505 0.099761 -0.033512 491824.000000 0 0 1
7.099495 26.483314 18.211571 32.915499 1.308880 0.984497 0.104573 -0.044656 143502.000000 0 0 1
5.815295 27.096814 18.171771 33.140131 1.359391 0.990429 0.105628 -0.041191 282597.000000 0 0 1
5.757895 28.336514 17.227771 33.658691 1.370329 1.033474 0.110181 -0.041470 55223.400000 0 0 1
6.176195 27.885714 15.932971 32.705015 1.352833 1.061948 0.107824 -0.034762 457998.000000 0 0 1
7.312095 28.644914 15.473871 33.368226 1.320867 1.088595 0.094217 -0.038464 303193.000000 0 0 1
7.917995 27.937614 14.238871 32.341156 1.294622 1.114896 0.088289 -0.038929 -357247.000000 0 0 1
7.244895 28.118014 13.040371 31.830214 1.318621 1.148687 0.089232 -0.038825 -469375.000000 0 0 1
6.805695 26.947414 12.443271 30.451857 1.323415 1.149854 0.069987 -0.036677 -64974.300000 0 0 1
5.868695 27.085814 11.224271 29.900956 1.357424 1.185988 0.065506 -0.035793 -247265.000000 0 0 1
6.429295 27.645614 10.010471 30.096933 1.342297 1.231729 0.054288 -0.027031 99397.200000 0 0 1
6.772495 29.003714 10.142871 31.463629 1.341402 1.242566 0.053499 -0.028572 -232334.000000 0 0 1
7.070695 29.721514 8.736771 31.775687 1.337240 1.292257 0.035071 -0.018405 -669873.000000 0 0 1
6.104095 29.777414 7.727771 31.363559 1.368607 1.321839 0.044046 -0.031848 -549868.000000 0 0 1
6.103795 28.610214 6.944771 30.067100 1.360604 1.337716 0.043981 -0.022445 -685864.000000 0 0 1
4.691395 28.231514 6.557171 29.360247 1.406125 1.345562 0.048742 -0.020860 -567564.000000 0 0 1
3.991695 29.224714 5.816371 30.064060 1.435050 1.376103 0.045365 -0.033610 -46409.900000 0 0 1
2.605895 28.945114 5.736571 29.622940 1.481010 1.375912 0.066786 -0.033035 329568.000000 0 0 1
1.848595 30.155414 5.113371 30.641685 1.509571 1.403136 0.073921 -0.035965 -473819.000000 0 0 1
2.132095 30.363414 3.736571 30.666671 1.500692 1.448648 0.072349 -0.039156 -183644.000000 0 0 1
1.046795 30.829514 2.980871 30.990972 1.536855 1.474462 0.070419 -0.047464 663745.000000 0 0 1
-0.125805 29.820514 2.678871 29.940863 -1.566578 1.481204 0.084468 -0.040979 480192.000000 0 0 1
0.322095 28.847014 1.809371 28.905498 1.559631 1.508159 0.093112 -0.036550 -633221.000000 0 0 1
-0.738205 28.045314 1.421771 28.091031 -1.544481 1.520162 0.102000 -0.041189 -174037.000000 0 0 1
-0.986405 27.991414 -0.125329 28.009070 -1.535571 1.575271 0.096675 -0.043836 -93525.700000 0 0 1
-1.607605 29.173214 -0.595329 29.223539 -1.515746 1.591169 0.091629 -0.046986 -54038.900000 0 0 1
-1.712005 29.216714 -1.976429 29.333490 -1.512266 1.638225 0.094518 -0.039477 -868110.000000 0 0 1
-2.682105 30.294914 -2.495629 30.515630 -1.482493 1.652670 0.104393 -0.044580 118325.000000 0 0 1
-4.032905 29.920914 -2.732429 30.314875 -1.436818 1.661054 0.077340 -0.042113 269479.000000 0 0 1
-4.162805 28.999914 -3.783129 29.540414 -1.428225 1.699215 0.054926 -0.035046 -1585830.000000 0 0 1
-5.566505 28.710714 -4.297229 29.559386 -1.379290 1.716689 0.061262 -0.026623 -688304.000000 0 0 1
-5.994105 29.858314 -5.019229 30.864881 -1.372678 1.734141 0.057162 -0.026583 231545.000000 0 0 1
-6.997405 29.651914 -6.006229 31.052770 -1.339051 1.765443 0.051157 -0.019202 144256.000000 0 0 1
-7.423305 30.928714 -6.808529 32.527633 -1.335239 1.781671 0.051086 -0.010472 -498323.000000 0 0 1
-8.380505 31.641514 -6.104429 33.296882 -1.311883 1.755173 0.039968 -0.004128 -354855.000000 0 0 1
-8.682205 32.765114 -6.902229 34.591533 -1.311766 1.771680 0.043811 -0.016122 -574378.000000 0 0 1
-9.690305 33.717414 -6.276129 35.639246 -1.290941 1.747821 0.045628 -0.016509 1000520.000000 0 0 1
-11.024405 33.163214 -6.273429 35.506228 -1.249860 1.748414 0.069763 -0.013648 631222.000000 0 0 1
-12.050605 33.996714 -5.810629 36.534328 -1.230150 1.730520 0.076401 -0.015042 653369.000000 0 0 1
-13.495805 33.424914 -5.910029 36.527936 -1.187049 1.733305 0.102844 -0.016923 667900.000000 0 0 1
-13.982105 33.479914 -7.273929 37.004243 -1.175187 1.768655 0.107082 -0.019614 262290.000000 0 0 1
-15.358405 33.149014 -7.365829 37.269199 -1.136926 1.769745 0.112795 -0.022474 -69436.500000 0 0 1
-15.850605 33.447214 -8.823229 38.050062 -1.128247 1.804811 0.131070 -0.032219 56164.600000 0 0 1
-17.182905 33.100514 -9.108029 38.390786 -1.091976 1.810325 0.154699 -0.035966 436025.000000 0 0 1
-18.166105 -33.956982 -8.887129 39.522969 1.079562 1.797596 0.151831 -0.036559 1573710.000000 0 0 1
-19.661305 33.575414 -9.035429 39.943890 -1.041042 1.798974 0.134907 -0.038354 1348850.000000 0 0 1
-20.264905 32.889114 -7.987229 39.448144 -1.018580 1.774680 0.119851 -0.032433 89260.100000 0 0 1
-20.408005 33.617814 -6.762129 39.904518 -1.025202 1.741076 0.108101 -0.025933 -247984.000000 0 0 1
-20.962605 32.667814 -5.608529 39.218268 -1.000285 1.714296 0.096746 -0.016241 -368434.000000 0 0 1
-20.733405 33.259614 -4.342729 39.432669 -1.013362 1.681150 0.092215 -0.024755 392341.000000 0 0 1
-21.746405 32.903214 -3.403829 39.586787 -0.986782 1.656887 0.092349 -0.019879 720388.000000 0 0 1
-22.937305 33.958014 -3.401829 41.119815 -0.976730 1.653621 0.114141 -0.017220 282428.000000 0 0 1
-23.520405 33.868214 -4.675929 41.498551 -0.963792 1.683713 0.116352 -0.029835 -343887.000000 0 0 1
-24.401205 -33.129482 -4.895029 41.436008 0.935965 1.689208 0.125327 -0.033754 336180.000000 0 0 1
-24.926005 -33.152382 -6.403529 41.968933 0.926105 1.723972 0.137854 -0.013230 -227325.000000 0 0 1
-24.060805 -32.507982 -7.301829 41.097542 0.933629 1.749415 0.134720 -0.007214 -174822.000000 0 0 1
-24.295105 -32.685282 -8.663729 41.637003 0.931594 1.780405 0.105039 -0.011990 -321305.000000 0 0 1
-25.531625 -32.029682 -9.295629 42.002061 0.897812 1.793958 0.098831 -0.010795 -2274.640000 0 0 1
-26.789055 -32.571482 -8.830129 43.087424 0.882504 1.777194 0.100044 -0.001646 968399.000000 0 0 1
-27.931135 -31.955982 -9.418529 43.474611 0.852504 1.789172 0.049645 -0.000401 350786.000000 0 0 1
-28.232025 -30.443382 -9.224729 42.531664 0.823068 1.789425 0.039851 0.012760 -668591.000000 0 0 1
-27.377705 -29.585182 -9.982129 41.526674 0.824132 1.813552 0.041033 0.013475 -24386.500000 0 0 1
-27.630185 -29.546182 -11.389129 42.025186 0.818896 1.845236 0.032591 0.010213 -168791.000000 0 0 1
-26.691665 -28.652982 -12.215329 41.020149 0.820822 1.873172 0.049904 0.014564 -49653.000000 0 0 1
-25.373535 -29.135382 -12.342029 40.558753 0.854302 1.880000 0.055142 -0.000505 -300170.000000 0 0 1
-24.644705 -28.418882 -13.311129 39.902137 0.856404 1.910910 0.062187 -0.003982 -1022720.000000 0 0 1
-23.278505 -28.998282 -13.563429 39.582266 0.894378 1.920548 0.092898 -0.017401 -1151370.000000 0 0 1
-23.137005 -30.353482 -14.060229 40.673639 0.919500 1.923764 0.101814 -0.021898 128562.000000 0 0 1
-23.733905 -31.429982 -13.295029 41.568015 0.924016 1.896355 0.086814 -0.022005 -7829.790000 0 0 1
-23.672805 -32.775682 -14.028329 42.795339 0.945282 1.904771 0.084463 -0.016515 94922.300000 0 0 1
-24.420405 -33.811582 -13.428929 43.816840 0.945293 1.882288 0.071640 -0.023087 117000.000000 0 0 1
-24.175505 33.056214 -14.062329 43.300317 -0.939342 1.901557 0.068611 -0.028686 -112692.000000 0 0 1
-24.802805 31.915614 -13.167129 42.510691 -0.910153 1.885713 0.051906 -0.023011 189846.000000 0 0 1
-24.081305 31.441914 -12.015229 41.386821 -0.917198 1.865353 0.055136 -0.018452 315788.000000 0 0 1
-23.927405 32.437314 -11.003929 41.782611 -0.935246 1.837301 0.089652 -0.028711 -157293.000000 0 0 1
-23.215705 31.846314 -9.781229 40.605777 -0.940877 1.814072 0.096869 -0.032076 -404025.000000 0 0 1
-23.889305 30.833914 -9.118029 40.057055 -0.911628 1.800435 0.088809 -0.025170 -431020.000000 0 0 1
-23.107805 30.351114 -8.041729 38.985000 -0.920071 1.778565 0.086559 -0.025966 -146682.000000 0 0 1
-23.719105 29.289114 -7.062029 38.344758 -0.890092 1.756026 0.073714 -0.029522 -160787.000000 0 0 1
-23.994505 28.108714 -7.789929 37.769288 -0.864197 1.778538 0.068126 -0.011691 -95956.100000 0 0 1
-24.437905 26.902514 -7.162029 37.043909 -0.833367 1.765360 0.046043 -0.016015 -172371.000000 0 0 1
-23.496305 26.103714 -6.254629 35.673529 -0.837919 1.747037 0.047126 -0.010013 -785668.000000 0 0 1
-23.483705 26.721414 -5.011529 35.925393 -0.849799 1.710751 0.055413 -0.008304 -93518.300000 0 0 1
-22.411605 26.345514 -4.189329 34.841307 -0.865908 1.691328 0.048363 -0.001738 381355.000000 0 0 1
-21.110905 27.190814 -4.469329 34.712903 -0.910613 1.699906 0.048896 -0.015031 476705.000000 0 0 1
-20.447105 26.988614 -5.742229 34.343014 -0.922436 1.738788 0.058869 -0.016083 -714067.000000 0 0 1
-19.203305 27.573914 -5.678229 34.078292 -0.962470 1.738200 0.068940 -0.017524 -909023.000000 0 0 1
-18.363405 27.443414 -6.972429 33.748636 -0.981085 1.778894 0.084511 -0.018758 -224358.000000 0 0 1
-18.733605 28.057514 -8.245329 34.729779 -0.982088 1.810499 0.100382 -0.022063 51133.200000 0 0 1
-18.869405 29.489614 -8.192629 35.955681 -1.001578 1.800669 0.122215 -0.016960 -5858.680000 0 0 1
-18.994205 30.092214 -9.571729 36.850227 -1.007751 1.833556 0.115147 -0.020621 -381754.000000 0 0 1
-17.777205 30.031914 -10.261929 36.376532 -1.036322 1.856782 0.124177 -0.024939 -67067.700000 0 0 1
-17.701805 30.863114 -11.407229 37.363226 -1.050046 1.881056 0.121870 -0.036616 -361510.000000 0 0 1
-16.220305 30.912214 -11.851329 36.866208 -1.087568 1.898076 0.135507 -0.042651 90288.400000 0 0 1
-15.860705 31.580014 -12.995829 37.653033 -1.105359 1.923192 0.136672 -0.047492 -241077.000000 0 0 1
-16.113805 30.904514 -14.202729 37.635904 -1.090171 1.957753 0.128809 -0.053202 -100920.000000 0 0 1
-15.455305 31.671014 -15.373029 38.448012 -1.116799 1.982138 0.160816 -0.054521 350208.000000 0 0 1
-14.054505 31.545514 -15.502929 37.854847 -1.151665 1.992742 0.146936 -0.061223 -47364.300000 0 0 1
-13.442005 32.222914 -16.581229 38.651531 -1.175588 2.014174 0.129316 -0.059930 804006.000000 0 0 1
-11.875805 32.146314 -16.560029 38.061199 -1.216918 2.020934 0.147944 -0.060281 840505.000000 0 0 1
-11.347405 30.874614 -16.958029 37.007839 -1.218589 2.046797 0.143968 -0.073263 313786.000000 0 0 1
-10.020105 30.837014 -17.471929 36.831946 -1.256621 2.065043 0.140459 -0.066735 566460.000000 0 0 1
-9.911405 31.171814 -18.997329 37.826135 -1.262945 2.096969 0.137828 -0.070150 -23926.600000 0 0 1
-10.734105 30.218914 -19.654229 37.612399 -1.229486 2.120631 0.124488 -0.064265 68011.100000 0 0 1
-10.410605 30.050614 -21.025629 38.124759 -1.237300 2.154952 0.115332 -0.066639 -903042.000000 0 0 1
-11.531905 29.362014 -21.827529 38.360836 -1.196556 2.176092 0.108841 -0.058129 -215399.000000 0 0 1
-12.586105 30.152314 -22.249029 39.529627 -1.175366 2.168619 0.122033 -0.058613 -606050.000000 0 0 1
-13.558305 30.391014 -21.264629 39.492099 -1.151166 2.139396 0.112622 -0.052978 -517838.000000 0 0 1
-14.387905 31.716914 -21.423129 40.889179 -1.144924 2.122257 0.139355 -0.054843 138336.000000 0 0 1
-15.406805 31.587214 -22.376829 41.663464 -1.116993 2.137774 0.122525 -0.045572 -335296.000000 0 0 1
-15.984905 32.869114 -22.608829 42.977378 -1.118153 2.124761 0.112981 -0.046805 272707.000000 0 0 1
-16.868305 32.890014 -23.843229 43.986275 -1.096906 2.143684 0.093705 -0.030218 182208.000000 0 0 1
-15.991405 32.680414 -24.959429 44.121510 -1.115724 2.172075 0.100922 -0.030065 270843.000000 0 0 1
-16.568005 32.676714 -26.244229 45.066906 -1.101542 2.192400 0.109324 -0.023929 9015.280000 0 0 1
-16.996705 -34.050082 -26.806729 46.549939 1.107815 2.184465 0.091026 -0.009994 743479.000000 0 0 1
-18.257605 -33.509082 -26.387229 46.394877 1.071911 2.175785 0.078647 -0.008210 320330.000000 0 0 1
-18.583105 -32.534482 -27.340629 46.382479 1.051836 2.201187 0.063476 -0.001251 -224134.000000 0 0 1
-19.956905 -31.878182 -27.105029 46.359241 1.011452 2.195274 0.065692 -0.006150 260735.000000 0 0 1
-20.951805 -32.879682 -27.208629 47.543256 1.003453 2.180095 0.059600 -0.005708 -4346.840000 0 0 1
-22.308205 -32.431482 -27.190329 47.841102 0.968267 2.175291 0.049940 -0.008929 1152740.000000 0 0 1
-23.311105 -33.638782 -27.158629 49.117883 0.964795 2.156670 0.018364 0.011042 201004.000000 0 0 1
-23.287605 33.630114 -26.027229 48.484160 -0.965147 2.137459 0.050066 -0.004709 -552685.000000 0 0 1
-24.353905 32.723514 -26.040429 48.394680 -0.930997 2.138959 0.024353 -0.000374 133135.000000 0 0 1
-23.987505 31.397814 -26.805429 47.746772 -0.918404 2.166883 0.032358 -0.004703 672717.000000 0 0 1
-23.027405 30.464614 -26.306829 46.372442 -0.923547 2.174013 0.040793 -0.029005 41477.300000 0 0 1
-23.695105 29.507514 -25.553129 45.663047 -0.894217 2.164702 0.037601 -0.021986 123204.000000 0 0 1
31.797339 9.669514 -26.473759 42.490354 0.295212 2.243437 0.031109 -0.006222 94198.700000 0 0 1
31.501479 8.344814 -26.047929 41.718984 0.258954 2.245116 0.021989 -0.002075 719848.000000 0 0 1
30.107119 8.020814 -26.200619 40.709268 0.260362 2.269993 0.043158 -0.009847 999836.000000 0 0 1
29.666319 6.649214 -25.589729 39.738353 0.220489 2.270453 0.030544 -0.008749 -852.124000 0 0 1
29.678559 6.575414 -24.170559 38.836437 0.218032 2.242561 0.014319 0.008691 343.006000 0 0 1
29.091479 5.413414 -23.643559 37.876603 0.183978 2.244937 0.018012 0.004369 -261358.000000 0 0 1
29.268109 5.249714 -22.146259 37.076117 0.177479 2.210950 0.024864 0.002297 521558.000000 0 0 1
30.630009 5.162714 -21.718759 37.901920 0.166981 2.180989 0.027333 0.002525 574320.000000 0 0 1
30.644919 5.201714 -20.302859 37.126472 0.168139 2.149401 0.035032 -0.002116 639094.000000 0 0 1
31.935969 4.737814 -19.520359 37.727939 0.147279 2.114604 0.040036 -0.004415 439296.000000 0 0 1
32.122059 3.338114 -19.346559 37.646500 0.103548 2.110522 0.053857 0.000409 627873.000000 0 0 1
33.269709 2.924214 -18.595059 38.225656 0.087669 2.078824 0.068398 -0.006136 177097.000000 0 0 1
33.652349 1.415814 -18.653959 38.502666 0.042047 2.076571 0.075145 -0.012903 589779.000000 0 0 1
32.677749 0.482514 -18.100259 37.358900 0.014765 2.076584 0.079371 -0.013201 693679.000000 0 0 1
32.924569 -0.797586 -18.555359 37.801649 -0.024220 2.083874 0.074738 -0.009383 -121541.000000 0 0 1
31.874409 -1.770986 -17.999859 36.648455 -0.055504 2.084205 0.080492 -0.009168 45830.000000 0 0 1
31.961969 -2.065086 -16.615259 36.081835 -0.064521 2.049341 0.102330 -0.014605 462161.000000 0 0 1
30.734889 -1.675586 -15.993159 34.687492 -0.054463 2.049990 0.097615 -0.016365 398683.000000 0 0 1
30.427589 -2.045486 -14.531559 33.781479 -0.067124 2.015470 0.108659 -0.017258 -81622.900000 0 0 1
30.176929 -3.434586 -14.420459 33.621318 -0.113327 2.014080 0.095253 -0.012644 183090.000000 0 0 1
29.339759 -3.804886 -13.367259 32.465092 -0.128964 1.995162 0.091404 -0.012845 -330891.000000 0 0 1
29.147109 -5.334686 -13.254659 32.460727 -0.181023 1.991419 0.085403 -0.007281 -399508.000000 0 0 1
28.425089 -5.941486 -14.252859 32.348584 -0.206056 2.027066 0.065602 -0.008742 72126.700000 0 0 1
28.303989 -7.328386 -13.979959 32.407719 -0.253353 2.016815 0.062540 -0.012900 -399385.000000 0 0 1
27.561289 -8.060086 -15.064759 32.427404 -0.284509 2.053944 0.047186 -0.006840 898452.000000 0 0 1
26.145389 -7.754686 -15.161059 31.202150 -0.288333 2.078186 0.041317 -0.008439 1312710.000000 0 0 1
25.615389 -8.390586 -16.316959 31.508621 -0.316546 2.115140 0.029069 -0.012268 281157.000000 0 0 1
24.138889 -8.178986 -16.728159 30.486276 -0.326690 2.151618 0.046590 -0.009619 -180593.000000 0 0 1
23.967989 -6.903786 -17.365559 30.392258 -0.280450 2.178984 0.043739 -0.008419 -615476.000000 0 0 1
22.719989 -6.751986 -17.945559 29.729283 -0.288870 2.218846 0.059911 -0.019038 -1008800.000000 0 0 1
22.613589 -7.303586 -19.365859 30.655395 -0.312398 2.254576 0.047406 -0.014194 -243746.000000 0 0 1
23.379789 -6.503086 -20.238459 31.599048 -0.271292 2.265915 0.039069 -0.017090 309003.000000 0 0 1
23.475189 -7.130486 -21.503559 32.624091 -0.294890 2.290459 0.060672 -0.028454 -115851.000000 0 0 1
24.146189 -6.053286 -22.412959 33.496588 -0.245631 2.303809 0.065093 -0.027491 -88619.600000 0 0 1
24.115689 -6.408786 -23.793359 34.478441 -0.259748 2.332415 0.085319 -0.034176 282893.000000 0 0 1
24.127189 -5.261686 -24.636659 34.882252 -0.214719 2.355027 0.061834 -0.027117 -159236.000000 0 0 1
24.311789 -5.669386 -26.152689 36.154780 -0.229101 2.379443 0.094454 -0.031445 141090.000000 0 0 1
23.155389 -6.309486 -26.720169 35.915861 -0.266026 2.409782 0.109126 -0.023995 565293.000000 0 0 1
23.243589 -6.473386 -28.115359 37.049191 -0.271619 2.432366 0.102285 -0.027026 276596.000000 0 0 1
21.874589 -7.019486 -28.595409 36.680624 -0.310516 2.464788 0.090589 -0.024797 380639.000000 0 0 1
21.643889 -8.377886 -28.166709 36.496717 -0.369318 2.452401 0.090510 -0.020579 562783.000000 0 0 1
20.265089 -8.660686 -28.393569 35.942677 -0.403876 2.481553 0.093846 -0.022085 460306.000000 0 0 1
19.931389 -10.138686 -27.943629 35.789657 -0.470567 2.466700 0.109089 -0.000881 746802.000000 0 0 1
18.541989 -10.514386 -27.970499 35.166837 -0.515845 2.490407 0.118668 -0.005459 951913.000000 0 0 1
18.226189 -11.631486 -27.202759 34.748748 -0.568017 2.470016 0.119561 -0.017750 -251998.000000 0 0 1
18.486089 -13.060386 -27.710259 35.779429 -0.615074 2.456680 0.099687 -0.003273 -263978.000000 0 0 1
17.621389 -13.452686 -28.749859 36.304854 -0.652041 2.484713 0.098171 -0.002850 103257.000000 0 0 1
18.092089 -14.577786 -29.447679 37.510016 -0.678240 2.473592 0.079988 -0.010156 288408.000000 0 0 1
17.079889 -15.193886 -30.495879 38.112667 -0.727027 2.498343 0.057156 -0.010750 919435.000000 0 0 1
15.884089 -15.756286 -29.930839 37.368702 -0.781359 2.499693 0.053579 -0.012115 798712.000000 0 0 1
14.936389 -16.037886 -30.947719 37.921903 -0.820945 2.525411 0.053555 -0.014870 217264.000000 0 0 1
13.621689 -16.607186 -30.329509 37.164877 -0.883842 2.525392 0.069860 -0.019693 45147.300000 0 0 1
13.738889 -17.821686 -29.598409 37.181115 -0.914048 2.491554 0.066720 -0.023350 202696.000000 0 0 1
12.644389 -18.107786 -28.720899 36.230684 -0.961223 2.486060 0.069402 -0.022118 285890.000000 0 0 1
12.733889 -19.372686 -27.844549 36.232192 -0.989298 2.447295 0.072934 -0.021029 855916.000000 0 0 1
13.816189 -19.250486 -26.857649 35.816219 -0.948286 2.418668 0.080855 -0.019358 1055420.000000 0 0 1
13.827489 -20.363186 -25.990049 35.795829 -0.974274 2.383376 0.088383 -0.013079 281667.000000 0 0 1
14.959589 -20.205386 -24.924559 35.401702 -0.933483 2.351880 0.072902 -0.005921 1148390.000000 0 0 1
16.277989 -20.484686 -25.426349 36.484167 -0.899331 2.341882 0.074438 -0.013062 733458.000000 0 0 1
17.282089 -20.340886 -24.460259 36.203956 -0.866521 2.312607 0.069940 -0.016325 468233.000000 0 0 1
18.735289 -20.737286 -24.918459 37.442965 -0.836073 2.298966 0.084375 -0.008389 763842.000000 0 0 1
19.065589 -22.130386 -25.140809 38.539731 -0.859657 2.281457 0.100071 -0.009684 225881.000000 0 0 1
18.818889 -22.963086 -24.046059 38.205586 -0.884261 2.251559 0.099724 -0.011909 -808174.000000 0 0 1
19.370589 -24.371386 -24.204159 39.433811 -0.899229 2.231651 0.094330 -0.011161 -395188.000000 0 0 1
20.679889 -24.386386 -23.677059 39.786388 -0.867459 2.208192 0.102202 -0.013067 -64611.800000 0 0 1
21.046189 -25.728266 -23.379359 40.638407 -0.885165 2.183770 0.100718 -0.024741 4902.490000 0 0 1
21.105989 -26.022326 -21.845259 39.997994 -0.889340 2.148568 0.111716 -0.023826 -522189.000000 0 0 1
19.818489 -26.171626 -21.329059 39.149141 -0.922671 2.146965 0.103815 -0.015652 -246618.000000 0 0 1
19.886489 -26.359446 -19.902059 38.553660 -0.924463 2.113224 0.098068 -0.020071 264004.000000 0 0 1
18.563889 -26.968516 -19.370559 38.041258 -0.967929 2.105050 0.083053 -0.015542 -153665.000000 0 0 1
18.387989 -28.335456 -19.762959 39.135543 -0.995167 2.100164 0.078718 -0.012926 650877.000000 0 0 1
17.229189 -28.965236 -19.190159 38.782625 -1.034192 2.088416 0.072210 -0.011618 1538660.000000 0 0 1
15.815489 -28.586026 -19.782959 38.192355 -1.065454 2.115287 0.065131 -0.014320 318109.000000 0 0 1
15.210989 -27.536966 -19.086459 36.796081 -1.066124 2.116137 0.069134 -0.015022 -794086.000000 0 0 1
13.948289 -27.356246 -19.659459 36.461119 -1.099279 2.140271 0.050192 -0.005161 -207970.000000 0 0 1
12.948089 -26.504026 -18.832459 34.996826 -1.116364 2.139000 0.034258 -0.016956 -507646.000000 0 0 1
12.447089 -27.162166 -17.685059 34.719945 -1.141102 2.105241 0.032497 -0.012876 204736.000000 0 0 1
11.633489 -26.219086 -16.953959 33.319892 -1.153191 2.104614 0.035992 -0.012832 801769.000000 0 0 1
10.101489 -26.350776 -17.201259 33.049762 -1.204728 2.118192 0.033130 -0.007910 -228241.000000 0 0 1
9.473389 -27.504576 -16.628459 33.507498 -1.239093 2.090083 0.041360 -0.006883 971009.000000 0 0 1
8.043089 -27.309606 -16.695259 33.003598 -1.284379 2.101177 0.041602 0.003770 1315390.000000 0 0 1
7.332689 -27.903426 -17.934759 33.970944 -1.313818 2.126974 0.053013 -0.005437 -278361.000000 0 0 1
7.465789 -27.157856 -19.122759 34.043605 -1.302520 2.167252 0.057011 -0.009950 -211519.000000 0 0 1
6.859589 -27.963786 -20.079159 35.102705 -1.330244 2.179753 0.060775 -0.009765 -184481.000000 0 0 1
6.797689 -27.222456 -21.442059 35.313348 -1.326092 2.223321 0.052790 -0.010957 -461768.000000 0 0 1
5.662189 -26.374546 -21.543159 34.522235 -1.359322 2.244695 0.066857 -0.013581 107225.000000 0 0 1
5.629689 -25.545896 -22.696359 34.632512 -1.353888 2.285440 0.047348 -0.012377 -605860.000000 0 0 1
4.334389 -24.779386 -22.962059 34.059668 -1.397629 2.310639 0.039543 -0.007986 -848027.000000 0 0 1
3.242789 -25.635226 -23.089659 34.652746 -1.444967 2.300053 0.043775 -0.005782 -383541.000000 0 0 1
2.132889 -24.876186 -23.568159 34.334122 -1.485265 2.327372 0.047976 -0.010434 397632.000000 0 0 1
1.200389 -25.813096 -24.399759 35.540189 -1.524327 2.327516 0.028506 -0.014492 190901.000000 0 0 1
1.934989 -26.524136 -25.435619 36.800063 -1.497973 2.333923 0.022051 -0.011819 423346.000000 0 0 1
1.182989 -27.524106 -26.115409 37.960379 -1.527843 2.329477 0.033380 -0.023239 50372.000000 0 0 1
2.016689 -28.380026 -27.146719 39.324766 -1.499855 2.332729 0.025316 -0.020271 -402166.000000 0 0 1
2.335789 -27.756956 -28.383629 39.768516 -1.486843 2.365593 0.022206 -0.020085 38477.200000 0 0 1
2.631489 -28.804256 -29.312569 41.180536 -1.479692 2.362863 0.029463 -0.017986 -59505.200000 0 0 1
4.016489 -29.492036 -29.285849 41.756116 -1.435440 2.348093 0.021780 -0.018802 -278121.000000 0 0 1
4.422589 -30.143056 -28.089019 41.438582 -1.425116 2.315627 0.021389 -0.038223 654995.000000 0 0 1
5.734589 -30.736716 -28.145229 42.068814 -1.386346 2.303697 0.035470 -0.041254 956165.000000 0 0 1
5.976289 -32.022536 -27.299909 42.502280 -1.386291 2.268313 0.056162 -0.050497 -267262.000000 0 0 1
4.949889 -32.977166 -27.391709 43.154380 -1.421808 2.258465 0.052819 -0.053363 62909.700000 0 0 1
5.286889 33.912804 -26.739619 43.509041 1.416145 2.232645 0.065461 -0.059491 -178058.000000 0 0 1
3.965489 33.163020 -26.556439 42.670311 1.451786 2.242555 0.098659 -0.064096 -535015.000000 0 0 1
3.354789 32.632186 -27.672389 42.917074 1.468350 2.271541 0.091815 -0.067117 -910033.000000 0 0 1
2.096589 32.228994 -27.264359 42.266405 1.505835 2.271898 0.056442 -0.058032 -1046710.000000 0 0 1
1.036189 32.419584 -28.343039 43.074714 1.538845 2.288952 0.069187 -0.042114 -485396.000000 0 0 1
1.140889 31.511971 -29.400609 43.112663 1.534607 2.321219 0.096757 -0.050248 196238.000000 0 0 1
0.059289 31.710341 -30.293269 43.854662 1.568927 2.333343 0.091639 -0.044856 189338.000000 0 0 1
-0.090011 30.572441 -31.354609 43.792622 -1.567852 2.368822 0.086712 -0.039568 260575.000000 0 0 1
0.997989 30.425121 -32.264489 44.358553 1.538007 2.385259 0.099349 -0.037816 336052.000000 0 0 1
0.660589 29.415541 -33.200469 44.361938 1.548343 2.416443 0.127061 -0.035204 -10399.900000 0 0 1
1.848789 28.888261 34.028015 44.674998 1.506886 0.704896 0.113142 -0.023534 -121872.000000 0 0 1
2.494389 29.905891 33.303265 44.829586 1.487581 0.733425 0.100926 -0.025775 -137147.000000 0 0 1
3.534989 29.560911 32.426325 44.020565 1.451778 0.742741 0.066980 -0.021501 -19260.200000 0 0 1
3.059089 28.657641 31.271611 42.526839 1.464453 0.744631 0.065110 -0.014907 -204050.000000 0 0 1
2.718889 27.323361 31.612301 41.872377 1.471615 0.715191 0.082958 -0.018997 149074.000000 0 0 1
3.846089 26.446651 31.662111 41.433163 1.426381 0.701038 0.068243 -0.014147 104866.000000 0 0 1
3.483489 24.953281 32.066711 40.780815 1.432092 0.665969 0.087957 -0.033781 -4839.930000 0 0 1
2.693589 24.301311 31.082311 39.546418 1.460406 0.666532 0.086479 -0.021217 101834.000000 0 0 1
2.729989 22.914511 31.311811 38.896750 1.452217 0.635124 0.075831 -0.016911 -277112.000000 0 0 1
1.995089 22.083011 30.249431 37.505571 1.480696 0.632535 0.064739 0.001439 249463.000000 0 0 1
0.598889 22.110611 30.507091 37.681831 1.543717 0.627331 0.062364 -0.019001 -488505.000000 0 0 1
-0.082511 21.649611 29.392691 36.505380 -1.566985 0.634850 0.065548 -0.005189 -31351.600000 0 0 1
-1.538611 21.236411 29.724711 36.563793 -1.498471 0.621588 0.061683 -0.002100 -137865.000000 0 0 1
-2.374211 22.295711 30.071921 37.510746 -1.464709 0.640682 0.070598 -0.010417 -1428100.000000 0 0 1
-3.655911 21.842811 30.205301 37.454430 -1.404960 0.632665 0.045606 -0.014773 -1143910.000000 0 0 1
-4.693311 22.914211 30.592601 38.509680 -1.368770 0.652755 0.027762 -0.023546 55052.200000 0 0 1
-4.603011 23.384931 31.915841 39.832946 -1.376444 0.641428 0.047182 -0.027430 233885.000000 0 0 1
-5.606911 24.384501 32.115159 40.711482 -1.344787 0.661865 0.037133 -0.030021 451090.000000 0 0 1
-5.745111 24.734861 33.635517 42.144604 -1.342575 0.646665 0.062385 -0.028001 605308.000000 0 0 1
-6.910611 25.552991 33.845105 42.967465 -1.306672 0.663744 0.047745 -0.023171 434270.000000 0 0 1
-7.138111 25.728261 -32.825489 42.313222 -1.300161 2.458737 0.049530 -0.026248 -26586.600000 0 0 1
-8.477811 26.366391 -32.418969 42.638590 -1.259698 2.434602 0.080890 -0.017481 -195219.000000 0 0 1
-8.715211 27.719041 -32.805939 43.823849 -1.266170 2.416724 0.070849 -0.023583 -1024070.000000 0 0 1
-9.917811 28.215061 -32.342449 44.050955 -1.232779 2.395292 0.067062 -0.028149 -542402.000000 0 0 1
-9.883511 28.573821 -30.832389 43.183136 -1.237784 2.365979 0.063359 -0.017513 -289402.000000 0 0 1
-9.160911 29.717351 -30.468009 43.535535 -1.271771 2.345973 0.080392 -0.013509 -95348.500000 0 0 1
-9.176711 29.930051 -29.085019 42.731233 -1.273291 2.319446 0.090331 -0.018057 -80394.600000 0 0 1
-8.505411 31.291991 -28.854039 43.406063 -1.305400 2.297951 0.090925 -0.021336 1439130.000000 0 0 1
-7.059311 31.163641 -28.976789 43.135376 -1.348032 2.307384 0.060314 -0.019940 1296220.000000 0 0 1
-6.454411 32.450697 -28.709899 43.805998 -1.374460 2.285492 0.071939 -0.014146 977722.000000 0 0 1
-4.887411 32.546285 -28.839919 43.759438 -1.421742 2.290359 0.079588 -0.019577 873701.000000 0 0 1
-4.386511 33.797444 -28.349149 44.330384 -1.441730 2.264640 0.084501 -0.021389 -64136.400000 0 0 1
-4.533711 -33.129366 -29.190139 44.386637 1.434792 2.288469 0.088008 -0.022161 194842.000000 0 0 1
-3.429711 -33.054296 -30.315639 44.982078 1.467406 2.310338 0.083510 -0.033781 282976.000000 0 0 1
-3.410911 34.039164 -31.295569 46.364983 -1.470924 2.311738 0.076495 -0.022468 152656.000000 0 0 1
-4.392711 -33.952076 -32.322239 47.082549 1.442131 2.327463 0.087843 -0.022460 -28384.600000 0 0 1
-3.944711 -33.224166 -33.560149 47.388706 1.452619 2.357726 0.067420 -0.027866 -499392.000000 0 0 1
-3.819911 -31.812496 -33.244789 46.171881 1.451293 2.374631 0.066555 -0.025299 83447.500000 0 0 1
-3.392211 -31.215716 33.584464 45.976562 1.462551 0.751788 0.041098 -0.032920 36824.800000 0 0 1
32.855459 18.229314 12.655771 39.647921 0.506547 1.245907 0.150601 -0.044827 656199.000000 0 0 1
34.233789 17.979314 12.948671 40.778378 0.483598 1.247665 0.139095 -0.052317 407948.000000 0 0 1
34.469299 16.790714 13.595771 40.680531 0.453291 1.230031 0.141964 -0.038469 -674012.000000 0 0 1
35.890189 16.479514 14.122171 41.941814 0.430449 1.227377 0.111831 -0.045229 986880.000000 0 0 1
-36.898735 16.092514 13.300271 42.395553 -0.411257 1.251690 0.101382 -0.016107 827743.000000 0 0 1
36.657429 15.013014 12.458271 41.525488 0.388711 1.266088 0.130447 -0.038994 -800567.000000 0 0 1
-35.973279 14.318414 11.936271 40.516273 -0.378806 1.271755 0.128384 -0.029439 -197413.000000 0 0 1
-35.291015 13.500914 12.840371 39.907463 -0.365382 1.243215 0.111213 -0.019917 -338540.000000 0 0 1
-35.940797 12.357114 13.355971 40.284254 -0.331157 1.232857 0.115357 -0.019084 -240957.000000 0 0 1
-35.058435 11.549214 14.357271 39.605674 -0.318231 1.199842 0.126136 -0.027342 114086.000000 0 0 1
-34.982566 12.118114 15.643471 40.191377 -0.333468 1.171007 0.111671 -0.019503 218185.000000 0 0 1
-34.604488 11.161214 16.645171 39.988811 -0.312002 1.141484 0.113940 -0.018936 -46441.300000 0 0 1
-34.349480 11.697314 18.058571 40.531789 -0.328221 1.109018 0.104912 -0.011268 -591146.000000 0 0 1
-35.536879 11.890714 18.750171 41.902599 -0.322892 1.106862 0.118018 -0.016171 -213600.000000 0 0 1
-35.253001 12.696714 19.890671 42.421922 -0.345697 1.082777 0.106758 -0.015655 606360.000000 0 0 1
-36.549085 12.841114 20.749871 43.946411 -0.337867 1.079053 0.130878 -0.028763 570149.000000 0 0 1
36.947779 11.715114 21.488671 44.318678 0.307045 1.064585 0.117980 -0.016679 115762.000000 0 0 1
35.723209 11.870014 22.174671 43.689368 0.320800 1.038454 0.115531 -0.023704 103880.000000 0 0 1
35.420929 10.645514 23.043871 43.577393 0.291955 1.013606 0.104128 -0.020711 -49478.700000 0 0 1
36.298029 10.381714 24.122201 44.801869 0.278576 1.002236 0.094046 -0.015501 -162020.000000 0 0 1
36.113189 11.233614 25.229081 45.462765 0.301579 0.982506 0.105505 -0.022623 -631897.000000 0 0 1
-36.469445 11.552814 25.963241 46.233947 -0.306780 0.974524 0.092949 -0.025252 -15980.000000 0 0 1
-35.764652 12.544514 25.292581 45.565226 -0.337344 0.982331 0.099547 -0.030741 -432093.000000 0 0 1
-34.732528 12.106014 24.434031 44.157966 -0.335382 0.984437 0.085791 -0.022621 -504663.000000 0 0 1
-33.588215 13.123914 24.296291 43.482354 -0.372489 0.977904 0.084872 -0.023797 878388.000000 0 0 1
-32.681545 13.442314 25.402611 43.520936 -0.390220 0.947534 0.064721 -0.031198 1040380.000000 0 0 1
-33.406185 13.898114 26.519741 44.860088 -0.394252 0.938293 0.056189 -0.026091 -1068580.000000 0 0 1
-32.476435 14.541514 27.511241 44.978249 -0.420986 0.912643 0.052088 -0.019851 -511187.000000 0 0 1
-31.829195 15.657414 27.010991 44.585266 -0.457163 0.919990 0.065394 -0.024131 -382435.000000 0 0 1
-31.368135 16.436714 28.070201 45.189177 -0.482658 0.900560 0.064200 -0.025121 407143.000000 0 0 1
-30.614445 17.764414 27.605331 44.887336 -0.525780 0.908421 0.059592 -0.016157 228448.000000 0 0 1
-31.554775 18.606614 27.027761 45.523728 -0.532782 0.935138 0.051011 -0.036229 -14473.300000 0 0 1
-30.896155 19.717414 26.546101 45.255324 -0.568023 0.943960 0.039906 -0.027284 -143255.000000 0 0 1
-31.849295 20.591814 25.704961 45.816432 -0.573938 0.975152 0.041313 -0.014134 -163088.000000 0 0 1
-32.335385 21.577314 26.543061 47.071135 -0.588439 0.971705 0.048577 -0.024466 -88527.900000 0 0 1
-33.388785 22.285214 25.931781 47.790156 -0.588542 0.997246 0.060401 -0.022754 -257686.000000 0 0 1
-33.355295 23.808714 26.134521 48.604977 -0.619922 1.003099 0.048573 -0.016782 132961.000000 0 0 1
-34.441789 24.287614 25.343091 49.177203 -0.614193 1.029389 0.069563 -0.017905 337032.000000 0 0 1
-34.450731 25.671514 25.291371 49.855120 -0.640400 1.038751 0.071663 -0.020721 99974.400000 0 0 1
-35.473646 26.282914 24.326931 50.408042 -0.637661 1.067175 0.095419 -0.015121 128656.000000 0 0 1
-35.142898 25.929014 22.987271 49.353335 -0.635658 1.086292 0.103978 -0.015636 596986.000000 0 0 1
-36.278255 26.233414 22.170271 49.958230 -0.626073 1.110988 0.108138 -0.017493 687017.000000 0 0 1
-35.988862 26.121714 20.625971 49.020127 -0.627851 1.136508 0.115930 -0.024204 156431.000000 0 0 1
-35.923787 24.809714 20.132571 48.076614 -0.604403 1.138717 0.107987 -0.018148 53511.600000 0 0 1
-35.292917 24.796014 18.883171 47.085098 -0.612454 1.158141 0.110439 -0.019811 -25966.700000 0 0 1
-35.511096 23.439214 18.165471 46.264663 -0.583410 1.167293 0.112533 -0.021945 -469171.000000 0 0 1
-36.699285 23.441214 17.466971 46.919326 -0.568417 1.189336 0.118838 -0.027568 -922172.000000 0 0 1
-36.648515 22.472214 16.444971 46.027722 -0.550056 1.205438 0.113358 -0.035520 83933.500000 0 0 1
36.038789 22.421314 15.490071 45.182429 0.556543 1.220864 0.111656 -0.034591 775625.000000 0 0 1
34.893729 21.773414 16.064471 44.155646 0.557874 1.198436 0.137213 -0.048303 762941.000000 0 0 1
33.840939 21.647114 15.103071 42.917472 0.569081 1.211186 0.139049 -0.048337 613636.000000 0 0 1
32.638109 20.659614 15.285571 41.541720 0.564325 1.193985 0.148182 -0.052176 1222690.000000 0 0 1
31.631269 21.022114 16.224071 41.299963 0.586570 1.167084 0.135002 -0.048618 427896.000000 0 0 1
30.698349 22.009714 15.796271 40.943111 0.622023 1.174710 0.114158 -0.029720 560697.000000 0 0 1
29.685959 22.495314 16.913671 40.906816 0.648459 1.144536 0.089760 -0.025910 722104.000000 0 0 1
30.391029 23.237814 17.912171 42.242828 0.652797 1.132907 0.068098 -0.011546 514125.000000 0 0 1
29.567769 23.892714 18.897271 42.452581 0.679640 1.109468 0.056930 -0.001579 708677.000000 0 0 1
30.551949 24.413714 19.986371 43.919313 0.674185 1.098345 0.063723 -0.011574 336017.000000 0 0 1
31.088389 25.662114 19.731771 44.881787 0.690072 1.115600 0.068800 -0.001688 -64923.500000 0 0 1
31.978279 25.930414 20.817671 46.134284 0.681337 1.102641 0.070066 -0.001285 12271.700000 0 0 1
32.931649 27.132214 20.479571 47.329308 0.689142 1.123307 0.088851 -0.003485 410222.000000 0 0 1
33.895929 27.316914 21.513171 48.558875 0.678331 1.111818 0.084035 0.003049 445763.000000 0 0 1
33.412439 28.233114 22.482371 49.182891 0.701577 1.096045 0.051649 0.014290 158605.000000 0 0 1
34.419549 28.438214 23.665851 50.532266 0.690527 1.083395 0.052990 0.000056 216826.000000 0 0 1
35.421379 29.378614 23.354241 51.606178 0.692415 1.101176 0.091124 -0.009329 -515412.000000 0 0 1
36.063549 29.620214 24.554781 52.733992 0.687615 1.086445 0.097307 -0.009237 -772802.000000 0 0 1
-36.646995 30.545414 24.585001 53.669795 -0.694839 1.094964 0.106716 -0.014383 496129.000000 0 0 1
-35.353330 29.969514 24.323061 52.341581 -0.703165 1.087502 0.116472 -0.018840 706944.000000 0 0 1
-34.331774 30.929914 24.496261 52.301024 -0.733319 1.083351 0.113908 -0.021481 193546.000000 0 0 1
-32.898955 30.379114 24.350321 50.972247 -0.745597 1.072742 0.123050 -0.027873 169349.000000 0 0 1
-32.279185 30.256314 23.087001 49.903907 -0.753062 1.089838 0.111072 -0.019831 394178.000000 0 0 1
-32.736885 29.089014 22.331171 49.158475 -0.726464 1.099245 0.110941 -0.014359 87098.100000 0 0 1
-32.234845 27.643414 22.794971 48.195999 -0.708868 1.078145 0.092330 -0.013336 435080.000000 0 0 1
-30.828685 27.442014 22.618271 47.064405 -0.727344 1.069479 0.078186 -0.014524 735650.000000 0 0 1
-30.254425 26.420614 23.410881 46.491381 -0.717856 1.043090 0.067004 -0.017048 -64545.800000 0 0 1
-29.934975 26.629014 24.918681 47.182071 -0.727018 1.014389 0.065261 -0.021107 -635668.000000 0 0 1
-31.032705 26.913114 25.744371 48.478007 -0.714424 1.010954 0.058472 -0.022039 -270378.000000 0 0 1
-30.670455 27.469314 27.023131 49.249261 -0.730394 0.989986 0.073755 -0.026753 -639003.000000 0 0 1
-31.869515 27.812314 27.914701 50.679595 -0.717522 0.987465 0.071707 -0.029822 -109027.000000 0 0 1
-32.492495 26.605614 28.352591 50.670409 -0.686114 0.976954 0.044437 -0.020617 -276911.000000 0 0 1
-33.542455 26.858014 29.233001 51.971315 -0.675178 0.973410 0.045350 -0.014766 -351447.000000 0 0 1
-34.299907 25.624614 29.786401 52.156823 -0.641627 0.962959 0.033559 -0.012071 -132338.000000 0 0 1
-33.714515 24.945714 30.835141 52.055385 -0.637012 0.936821 0.028295 -0.009824 -410705.000000 0 0 1
-34.211832 23.606914 30.870691 51.775819 -0.603998 0.931990 0.018407 -0.015553 62452.400000 0 0 1
-33.480625 22.627814 31.828151 51.439299 -0.594332 0.903644 0.040492 -0.029891 410701.000000 0 0 1
-32.227385 22.157214 31.313531 50.100736 -0.602306 0.895650 0.046364 -0.019570 586915.000000 0 0 1
-31.485245 21.269014 32.153567 49.774929 -0.594109 0.868491 0.063032 -0.020098 366830.000000 0 0 1
-30.574505 21.998414 33.210949 50.216509 -0.623695 0.848172 0.071260 -0.022210 -377495.000000 0 0 1
-31.290305 22.695614 -33.844979 51.377589 -0.627521 2.289952 0.089063 -0.026163 37053.500000 0 0 1
-30.965845 22.367914 -32.481799 50.142541 -0.625563 2.275475 0.079469 -0.020680 1032790.000000 0 0 1
-29.511335 22.694014 -31.917979 49.037685 -0.655546 2.279548 0.085802 -0.024696 1007530.000000 0 0 1
-29.327445 24.020014 -31.614689 49.361409 -0.686236 2.265911 0.076025 -0.023403 -339615.000000 0 0 1
-28.508845 24.170114 -30.515119 48.250608 -0.703222 2.255482 0.089194 -0.018698 -495663.000000 0 0 1
-28.813375 25.443314 -29.744429 48.603538 -0.723365 2.229359 0.051304 -0.011137 -88601.400000 0 0 1
-28.647035 26.690314 -30.410169 49.576243 -0.750053 2.231157 0.049249 -0.016295 -275378.000000 0 0 1
-29.678055 26.970214 -31.309349 50.876859 -0.737634 2.233683 0.047102 -0.006296 -588904.000000 0 0 1
-29.653475 28.377714 -31.840329 51.946413 -0.763418 2.230580 0.050603 -0.005801 -46192.800000 0 0 1
-29.883665 29.366914 -30.837499 52.023076 -0.776677 2.205285 0.039460 -0.017221 38885.300000 0 0 1
-29.659355 30.678314 -31.350049 52.949616 -0.802284 2.204425 0.061916 -0.029885 -30159.300000 0 0 1
-29.900645 31.861314 -30.360979 53.206964 -0.817133 2.178057 0.059237 -0.013971 77283.100000 0 0 1
-28.984355 31.977114 -29.296809 52.162551 -0.834451 2.167168 0.030395 -0.006374 -36566.700000 0 0 1
-29.375595 33.047514 -28.489989 52.599841 -0.844154 2.143179 0.020973 0.000435 -113145.000000 0 0 1
-28.373555 33.359914 -27.334929 51.625002 -0.865996 2.128796 0.010387 -0.000262 683846.000000 0 0 1
-27.090625 33.881614 -27.664659 51.450939 -0.896319 2.138491 0.014198 -0.007982 399984.000000 0 0 1
-27.091985 -32.771682 -27.871859 50.840922 0.879992 2.151027 0.023193 0.010089 -591927.000000 0 0 1
-27.492355 -31.913682 -26.652709 49.846560 0.859687 2.134943 0.020836 0.010935 762664.000000 0 0 1
-28.905815 -31.710682 -26.515339 50.439833 0.831638 2.124314 0.006291 0.005622 543864.000000 0 0 1
-29.138005 -30.755982 -25.491399 49.444567 0.812406 2.112452 0.012889 0.003188 -367305.000000 0 0 1
-30.593765 -30.415582 -25.181969 49.952154 0.782478 2.099161 0.007150 0.003236 -347986.000000 0 0 1
-31.157375 -29.656882 -26.236439 50.385151 0.760730 2.118488 0.013812 -0.002383 733709.000000 0 0 1
-32.578865 -29.538582 -26.079539 51.127807 0.736493 2.106080 0.009684 -0.006601 576537.000000 0 0 1
-33.239365 -28.633982 -27.174059 51.606102 0.711103 2.125353 0.023013 -0.017701 932901.000000 0 0 1
-34.628927 -28.993782 -27.315849 52.782171 0.697057 2.114747 0.023568 -0.018019 598236.000000 0 0 1
-35.225149 -28.336482 -28.374449 53.374870 0.677442 2.131293 0.041876 -0.022880 -152360.000000 0 0 1
-36.743685 -28.576582 -28.495629 54.577654 0.661012 2.120121 0.045566 -0.022042 -61219.100000 0 0 1
36.474169 -27.844082 -27.524769 53.509539 -0.652017 2.111092 0.027297 -0.011791 831716.000000 0 0 1
35.046579 -27.876582 -27.793419 52.705224 -0.671939 2.126260 0.029104 -0.013720 1496000.000000 0 0 1
34.200679 -27.217682 -26.642609 51.189034 -0.672189 2.118203 0.026458 -0.012748 132567.000000 0 0 1
34.007839 -28.028682 -25.502229 50.916636 -0.689314 2.095391 0.025230 -0.012876 173736.000000 0 0 1
33.209529 -27.443182 -24.503359 49.562240 -0.690612 2.087936 0.030572 -0.008851 -42570.200000 0 0 1
33.172019 -28.325082 -23.233859 49.421709 -0.706745 2.060217 0.038764 -0.004023 202782.000000 0 0 1
32.396399 -29.510882 -23.451859 49.703204 -0.738822 2.062171 0.044404 -0.011496 221588.000000 0 0 1
31.947089 -30.229082 -22.260259 49.294351 -0.757774 2.039330 0.057175 -0.025133 -137637.000000 0 0 1
32.890869 -30.592982 -21.090259 49.623974 -0.749218 2.009760 0.045713 -0.013925 -1233070.000000 0 0 1
34.085519 -31.227582 -21.474959 50.972133 -0.741669 2.005683 0.026585 -0.014483 -295922.000000 0 0 1
35.105269 -31.171682 -20.532959 51.241156 -0.726117 1.983090 0.012305 -0.006196 -427256.000000 0 0 1
35.884469 -29.874082 -20.520459 51.002403 -0.694251 1.984871 0.000543 -0.000017 -1334540.000000 0 0 1
35.182739 -28.727182 -20.171659 49.698812 -0.684729 1.988736 0.004373 0.002180 36259.700000 0 0 1
36.016089 -27.567482 -20.296259 49.689665 -0.653298 1.991563 -0.004669 0.004713 214395.000000 0 0 1
35.209249 -26.329582 -19.934459 48.273396 -0.642094 1.996486 -0.005337 0.005163 265379.000000 0 0 1
34.160729 -25.989982 -20.820559 47.706710 -0.650387 2.022421 0.008823 0.006958 -481499.000000 0 0 1
33.092959 -25.430482 -20.153859 46.346859 -0.655209 2.020666 0.035183 -0.004131 -493931.000000 0 0 1
31.808899 -25.257682 -20.994559 45.722293 -0.671099 2.047863 0.039926 -0.009072 68966.000000 0 0 1
31.076349 -26.407782 -21.348759 46.031293 -0.704361 2.053062 0.057907 -0.011493 -257474.000000 0 0 1
29.918449 -26.090482 -22.064259 45.416499 -0.717159 2.078098 0.057352 -0.014816 -330775.000000 0 0 1
29.184239 -27.321282 -22.581059 45.913794 -0.752441 2.084969 0.069521 -0.019952 38473.300000 0 0 1
28.488689 -28.003482 -21.522659 45.376483 -0.776809 2.064980 0.079842 -0.019366 191380.000000 0 0 1
27.913689 -29.213882 -22.006359 46.009833 -0.808154 2.069511 0.078959 -0.028930 -141305.000000 0 0 1
27.212389 -30.013582 -20.863659 45.569962 -0.834309 2.046358 0.086614 -0.022451 179810.000000 0 0 1
28.062389 -30.543782 -19.803659 45.963085 -0.827713 2.016242 0.085743 -0.022143 321504.000000 0 0 1
28.770489 -31.694282 -20.266059 47.360127 -0.833716 2.012980 0.092942 -0.025034 322050.000000 0 0 1
29.914979 -32.133682 -19.293659 47.955445 -0.821140 1.984851 0.066737 -0.018035 101745.000000 0 0 1
29.520579 -32.583382 -17.980759 47.502095 -0.834676 1.958999 0.073016 -0.017784 59895.200000 0 0 1
28.795589 -31.717482 -17.113059 46.130699 -0.833646 1.950849 0.067094 -0.020047 398171.000000 0 0 1
28.066489 -32.526982 -15.941759 45.824361 -0.858879 1.926114 0.070762 -0.014844 528173.000000 0 0 1
26.905289 -33.263982 -16.313159 45.787621 -0.890687 1.935079 0.080747 -0.008886 391404.000000 0 0 1
26.447589 -34.043882 -15.172059 45.701775 -0.910321 1.909198 0.076612 -0.004416 -445514.000000 0 0 1
24.947989 33.835414 -15.009559 44.637700 0.935451 1.913732 0.076189 -0.010093 -478553.000000 0 0 1
24.295989 -33.099382 -14.633359 43.588982 -0.937594 1.913158 0.063688 -0.000354 267951.000000 0 0 1
22.913989 -33.292882 -14.337859 42.884042 -0.967997 1.911701 0.069149 -0.006760 594005.000000 0 0 1
-0.186905 -6.872886 -28.912019 29.718282 1.543608 2.908124 0.099582 -0.032593 125822.000000 0 0 1
0.145695 -8.228086 -28.735849 29.890995 -1.553091 2.862678 0.097486 -0.033179 -236376.000000 0 0 1
-0.207305 -8.996686 -29.837429 31.164972 1.547758 2.848665 0.081036 -0.034931 -112010.000000 0 0 1
0.068395 -10.527486 -29.623609 31.438683 -1.564300 2.800131 0.097047 -0.028725 -1124440.000000 0 0 1
1.404295 -10.795086 -29.517259 31.460681 -1.441436 2.788266 0.058996 -0.034798 -1374380.000000 0 0 1
1.718495 -12.115286 -29.152509 31.616485 -1.429891 2.744183 0.057913 -0.033533 543677.000000 0 0 1
3.226995 -12.316986 -28.821679 31.508900 -1.314560 2.725600 0.057929 -0.033120 361309.000000 0 0 1
4.144995 -12.351986 -29.944929 32.656566 -1.247031 2.731202 0.071419 -0.040256 1314590.000000 0 0 1
5.488195 -12.688986 -29.539839 32.614915 -1.162576 2.703861 0.085629 -0.039535 913474.000000 0 0 1
5.773095 -14.143886 -29.071699 32.841160 -1.183268 2.657766 0.080605 -0.036495 -795464.000000 0 0 1
5.205695 -14.455586 -27.801479 31.764531 -1.225138 2.636721 0.078755 -0.036301 -229499.000000 0 0 1
5.891395 -15.484386 -27.181139 31.832201 -1.207236 2.594207 0.076173 -0.026807 -283178.000000 0 0 1
5.558995 -16.925886 -27.577049 32.831108 -1.253464 2.568019 0.058284 -0.029509 -148618.000000 0 0 1
5.960995 -17.302886 -28.887209 34.196405 -1.239022 2.576883 0.061418 -0.036963 122001.000000 0 0 1
5.412495 -18.579986 -29.112199 34.957561 -1.287333 2.554919 0.044474 -0.032496 -433239.000000 0 0 1
5.754195 -19.081086 -30.525119 36.455198 -1.277904 2.563182 0.051050 -0.043592 -65233.600000 0 0 1
7.128895 -19.307586 -30.746929 36.999697 -1.217096 2.551708 0.048080 -0.036949 9243.030000 0 0 1
7.223095 -20.050286 -31.951899 38.407172 -1.225020 2.553365 0.042742 -0.032605 704406.000000 0 0 1
8.675295 -20.122286 -32.545769 39.235114 -1.163746 2.549019 0.057704 -0.034575 762474.000000 0 0 1
9.056395 -18.781586 -32.939739 38.984518 -1.121494 2.577257 0.058106 -0.038268 -236272.000000 0 0 1
10.268395 -18.711486 -33.636559 39.836889 -1.068894 2.576160 0.071039 -0.038270 -732881.000000 0 0 1
10.527295 -17.291286 33.913254 39.495839 -1.023916 0.538159 0.064095 -0.035909 97917.400000 0 0 1
9.508395 -16.952386 32.989888 38.290020 -1.059632 0.532424 0.060328 -0.033297 323698.000000 0 0 1
9.666595 -15.550886 32.708631 37.485032 -1.014638 0.510340 0.059370 -0.028919 243409.000000 0 0 1
8.608095 -15.106786 31.666001 36.125474 -1.052866 0.502137 0.062870 -0.033445 111572.000000 0 0 1
8.829295 -15.795986 30.448061 35.419684 -1.061101 0.536238 0.063088 -0.031139 140971.000000 0 0 1
7.861795 -15.424786 29.485271 34.192295 -1.099430 0.530930 0.068993 -0.029236 -140806.000000 0 0 1
7.867595 -16.338686 28.202911 33.529925 -1.122032 0.571433 0.057338 -0.025088 -474837.000000 0 0 1
7.369195 -17.623386 28.530961 34.335178 -1.174743 0.589976 0.072387 -0.031691 345150.000000 0 0 1
7.544195 -18.461586 27.395371 33.885858 -1.182862 0.629265 0.063996 -0.032044 16352.900000 0 0 1
7.251895 -19.883986 27.879561 35.003325 -1.221077 0.649340 0.067027 -0.027457 321971.000000 0 0 1
8.174895 -20.213586 28.939231 36.233921 -1.186480 0.645701 0.076468 -0.024410 764649.000000 0 0 1
7.718195 -21.333786 29.639831 37.325869 -1.223663 0.653299 0.057421 -0.017107 -378663.000000 0 0 1
8.073695 -21.296186 31.128281 38.570480 -1.208423 0.631658 0.065152 -0.025505 -794623.000000 0 0 1
7.357195 -20.467786 32.013221 38.702776 -1.225726 0.596769 0.072830 -0.037691 26590.000000 0 0 1
7.179695 -19.100986 31.606081 37.621005 -1.211254 0.573296 0.059303 -0.030277 -379118.000000 0 0 1
6.514295 -18.116886 32.545611 37.813680 -1.225621 0.534186 0.061458 -0.027241 -474463.000000 0 0 1
5.155095 -18.390486 32.751122 37.913335 -1.297497 0.527950 0.074088 -0.036776 -692551.000000 0 0 1
4.609695 -17.394286 33.568600 38.087549 -1.311739 0.492077 0.081060 -0.037812 309368.000000 0 0 1
3.180395 -17.768786 -34.001849 38.496368 -1.393684 2.653541 0.075712 -0.043415 329638.000000 0 0 1
3.181295 -18.825086 -33.043109 38.162174 -1.403386 2.617664 0.067762 -0.042682 -202826.000000 0 0 1
2.138195 -18.719286 -32.108719 37.228394 -1.457065 2.610945 0.071332 -0.052587 -215139.000000 0 0 1
1.789095 -19.962486 -31.274299 37.145436 -1.481412 2.571668 0.051038 -0.040764 -414224.000000 0 0 1
0.805895 -20.738486 -31.971519 38.117086 -1.531956 2.565819 0.044740 -0.035219 837922.000000 0 0 1
-0.115605 -21.544986 -31.222909 37.935073 1.565431 2.537577 0.045143 -0.028085 1041410.000000 0 0 1
-0.956505 -20.847686 -30.071999 36.604180 1.524948 2.534913 0.055676 -0.030232 -321432.000000 0 0 1
-1.566805 -19.685386 -30.588979 36.409544 1.491371 2.568331 0.063057 -0.036661 -58725.900000 0 0 1
-1.878505 -18.739986 -29.557179 35.047720 1.470890 2.574267 0.087311 -0.030709 172809.000000 0 0 1
-1.822005 -17.287486 -30.101599 34.760367 1.465790 2.617893 0.085713 -0.028190 -79359.300000 0 0 1
-2.335205 -16.434586 -29.141019 33.537259 1.429650 2.623802 0.094639 -0.031548 -369685.000000 0 0 1
-2.106205 -15.095986 -29.553559 33.252635 1.432170 2.665426 0.092814 -0.030266 -199981.000000 0 0 1
-3.150205 -14.084686 -29.106049 32.487909 1.350756 2.681258 0.099966 -0.026105 -82611.700000 0 0 1
-3.045405 -13.787886 -27.727749 31.116046 1.353411 2.670577 0.101564 -0.030608 516985.000000 0 0 1
-4.138505 -12.916086 -27.365229 30.541909 1.260717 2.681451 0.105948 -0.035125 625521.000000 0 0 1
-4.199305 -12.539886 -25.888869 29.070886 1.247658 2.669333 0.108753 -0.036287 -367354.000000 0 0 1
-4.612805 -13.607486 -25.076189 28.900811 1.243963 2.621280 0.103331 -0.031729 146609.000000 0 0 1
-4.870805 -13.335886 -23.700759 27.627822 1.220609 2.601884 0.087961 -0.032648 416479.000000 0 0 1
-6.030905 -12.305186 -23.322959 27.050874 1.115091 2.610371 0.079166 -0.034053 1652930.000000 0 0 1
-7.317005 -12.876486 -23.714059 27.958881 1.054053 2.583329 0.072786 -0.028650 844716.000000 0 0 1
-8.352805 -11.925486 -23.612759 27.740745 0.959791 2.589053 0.059859 -0.028334 964013.000000 0 0 1
-9.786105 -12.574686 -23.770559 28.616953 0.909466 2.551063 0.064824 -0.028293 991714.000000 0 0 1
-10.318205 -13.298886 -22.630459 28.203960 0.910943 2.502079 0.058585 -0.028816 -79515.400000 0 0 1
-11.389505 -14.095086 -23.080959 29.344896 0.891167 2.475984 0.056640 -0.024029 -217078.000000 0 0 1
-11.742905 -15.205386 -22.045459 29.242124 0.913184 2.424765 0.052048 -0.019264 -332537.000000 0 0 1
-10.956705 -16.408786 -22.033059 29.576229 0.982055 2.411269 0.044632 -0.020269 -608131.000000 0 0 1
-11.575405 -17.565086 -21.546059 30.112371 0.988120 2.368167 0.053022 -0.014385 -414989.000000 0 0 1
-12.301305 -18.358986 -22.601359 31.610060 0.980460 2.367428 0.045464 -0.008698 324892.000000 0 0 1
-13.455205 -17.672686 -23.077759 32.030443 0.920067 2.375311 0.042943 -0.008682 34465.100000 0 0 1
-14.238605 -18.475986 -23.925559 33.414552 0.914207 2.368884 0.038550 -0.011469 -329679.000000 0 0 1
-15.307105 -17.755786 -24.725859 34.072621 0.859324 2.382820 0.056514 -0.018099 140302.000000 0 0 1
-16.469405 -17.466586 -23.921659 33.890540 0.814774 2.354420 0.063102 -0.010645 42967.200000 0 0 1
-17.413805 -16.880186 -24.789759 34.680159 0.769839 2.367150 0.059300 -0.013379 190572.000000 0 0 1
-18.229705 -15.679286 -24.215859 34.125796 0.710326 2.359735 0.057862 -0.013531 982852.000000 0 0 1
-19.307705 -15.926686 -23.262159 34.169794 0.689733 2.319625 0.064273 -0.012526 918326.000000 0 0 1
-19.969105 -14.762686 -22.916659 33.791645 0.636603 2.316073 0.069495 -0.020155 -200687.000000 0 0 1
-20.632005 -14.550986 -21.552059 33.194910 0.614249 2.277405 0.070316 -0.029854 -21429.700000 0 0 1
-19.787305 -14.600986 -20.392959 31.946815 0.635710 2.263137 0.077772 -0.021811 130339.000000 0 0 1
-20.418805 -14.784586 -19.131759 31.647050 0.626696 2.219979 0.075606 -0.023758 -194715.000000 0 0 1
-21.033105 -13.530886 -18.510459 31.114522 0.571660 2.207955 0.078447 -0.021900 -533233.000000 0 0 1
-22.306305 -13.179386 -18.964659 32.108032 0.533655 2.202662 0.075902 -0.032323 -291184.000000 0 0 1
-22.667905 -11.985086 -18.281859 31.491309 0.486363 2.190184 0.077245 -0.024433 154201.000000 0 0 1
-24.139005 -11.572386 -18.556959 32.572571 0.447037 2.176951 0.074487 -0.025219 283358.000000 0 0 1
-24.353605 -10.833086 -19.740759 33.168530 0.418542 2.208268 0.059221 -0.029826 -101390.000000 0 0 1
-25.736425 -10.658586 -19.937559 34.256025 0.392640 2.192002 0.051370 -0.031197 43611.200000 0 0 1
-26.277485 -9.704086 -21.048559 35.038797 0.353758 2.215200 0.052687 -0.021859 -72570.700000 0 0 1
-26.039325 -10.199986 -22.330459 35.787366 0.373344 2.244617 0.039912 -0.022650 160642.000000 0 0 1
-26.874655 -9.524086 -23.222359 36.772724 0.340580 2.254296 0.027076 -0.018102 -600673.000000 0 0 1
-26.853455 -9.955486 -24.705159 37.822805 0.355025 2.282575 0.034251 -0.014640 63078.500000 0 0 1
-25.658895 -9.745986 -25.455769 37.434734 0.362997 2.318564 0.027599 -0.019424 220197.000000 0 0 1
-24.908305 -10.957286 -25.402159 37.225736 0.414427 2.321812 0.039542 -0.006872 -260192.000000 0 0 1
-23.929605 -11.077186 -26.597939 37.453710 0.433536 2.360515 0.053092 -0.007001 63167.200000 0 0 1
-24.588405 -11.186386 -27.848539 38.797758 0.426959 2.371415 0.051174 -0.000202 458739.000000 0 0 1
-23.630505 -11.349786 -28.893429 39.013442 0.447766 2.404762 0.050466 -0.006014 396955.000000 0 0 1
-24.290705 -11.736186 -30.266419 40.544204 0.450081 2.413589 0.048338 -0.005838 308513.000000 0 0 1
-25.136385 -10.697586 -30.745019 41.128243 0.402363 2.415147 0.044787 0.001569 201937.000000 0 0 1
-24.393305 -9.750386 -31.451209 40.979042 0.380261 2.445721 0.043212 -0.009632 29265.300000 0 0 1
-25.258775 -8.495786 -31.867979 41.542173 0.324463 2.445141 0.047637 -0.001115 -162168.000000 0 0 1
-26.137875 -8.490586 -32.985719 42.934091 0.314086 2.446958 0.041827 0.011000 1212730.000000 0 0 1
-27.399595 -9.160786 -32.892659 43.778817 0.322656 2.420883 0.040181 0.006076 439705.000000 0 0 1
-28.412555 -8.542786 -31.889609 43.556855 0.292071 2.392251 0.034188 0.010609 -265725.000000 0 0 1
-29.714345 -9.136386 -32.075569 44.668310 0.298299 2.371841 0.037434 0.007377 555974.000000 0 0 1
-30.569635 -8.589386 -31.106619 44.451118 0.273915 2.345905 0.041700 0.008311 352751.000000 0 0 1
-32.078615 -8.897286 -31.357769 45.733018 0.270558 2.326320 0.041604 -0.001281 481552.000000 0 0 1
-32.465355 -10.210786 -31.038799 46.061551 0.304718 2.310210 0.049220 -0.003832 801021.000000 0 0 1
-33.851945 -10.555086 -31.173199 47.213688 0.302248 2.291958 0.049562 -0.008608 614900.000000 0 0 1
-34.048825 -12.085486 -30.837409 47.500813 0.341074 2.277325 0.056902 -0.011602 439943.000000 0 0 1
-35.378108 -12.585386 -31.000959 48.693551 0.341779 2.260948 0.023955 -0.015921 310183.000000 0 0 1
-35.330575 -13.992386 -31.087369 49.096445 0.377090 2.256464 0.029923 -0.022770 160623.000000 0 0 1
-36.636825 -14.785586 -30.821579 50.108285 0.383582 2.233308 0.032250 -0.024471 127620.000000 0 0 1
36.836139 -14.625786 -29.477949 49.393969 -0.377961 2.210294 0.026921 -0.025918 205881.000000 0 0 1
36.399019 -15.875386 -28.867469 49.094268 -0.411276 2.199381 0.021278 -0.024735 88420.100000 0 0 1
36.453079 -15.884586 -27.354759 48.264167 -0.410944 2.173378 0.024538 -0.018963 523982.000000 0 0 1
-36.101385 -15.832186 -26.889349 47.717975 0.413290 2.169420 0.033951 -0.024681 551998.000000 0 0 1
-35.983576 -15.831886 -25.438859 46.825227 0.414486 2.145126 0.040956 -0.023560 -1182150.000000 0 0 1
-34.649260 -15.395086 -24.891659 45.356086 0.418114 2.151731 0.082607 -0.025742 -1574710.000000 0 0 1
-33.717455 -16.385586 -25.054759 45.089856 0.452359 2.159956 0.079831 -0.022721 -517872.000000 0 0 1
-32.518215 -15.937886 -24.434859 43.686529 0.455714 2.164365 0.085131 -0.009750 140254.000000 0 0 1
-31.250265 -16.802586 -24.468559 43.100073 0.493334 2.174524 0.087358 -0.016512 6454.700000 0 0 1
-31.262435 -17.957286 -23.687259 43.138036 0.521387 2.152088 0.099315 -0.023611 201482.000000 0 0 1
-32.086365 -18.993786 -24.231559 44.468721 0.534485 2.147081 0.078206 -0.028517 51019.300000 0 0 1
-31.953175 -20.308986 -23.455759 44.537994 0.566175 2.125447 0.091143 -0.026253 1029020.000000 0 0 1
-30.598295 -20.809686 -23.605959 43.892368 0.597240 2.138639 0.078259 -0.020977 1147950.000000 0 0 1
-30.333185 -22.063686 -23.003459 44.000767 0.628865 2.120925 0.067629 -0.022953 -758533.000000 0 0 1
-28.947375 -22.655686 -23.333659 43.539525 0.664072 2.136392 0.074097 -0.020168 29016.000000 0 0 1
-27.817115 -21.994686 -22.798059 42.158149 0.669038 2.142154 0.094348 -0.020645 -62890.000000 0 0 1
-27.640275 -21.909786 -21.419259 41.265096 0.670259 2.116553 0.091493 -0.021909 -701786.000000 0 0 1
-27.429515 -23.247686 -20.628159 41.453035 0.703066 2.091657 0.085781 -0.022382 -83544.200000 0 0 1
-27.669605 -23.027786 -19.230759 40.813087 0.694093 2.061437 0.085203 -0.023897 119859.000000 0 0 1
-27.771835 -24.199686 -18.449859 41.198263 0.716773 2.035134 0.077104 0.000831 -16952.500000 0 0 1
-27.645685 -23.877586 -16.929359 40.261969 0.712394 2.004771 0.058695 -0.000756 -180007.000000 0 0 1
-28.775145 -23.253986 -16.392859 40.465821 0.679677 1.987889 0.054660 -0.003540 -637964.000000 0 0 1
-28.507415 -21.946386 -15.861559 39.318006 0.656083 1.986045 0.058924 -0.006698 -160528.000000 0 0 1
-29.611325 -21.096086 -15.164559 39.393391 0.619022 1.965952 0.050937 0.009905 104651.000000 0 0 1
-30.581205 -20.524186 -16.011659 40.159999 0.591091 1.980892 0.045332 0.011894 -22935.200000 0 0 1
-31.587015 -19.917786 -15.217059 40.323896 0.562594 1.957752 0.045890 0.012965 13135.800000 0 0 1
-32.802405 -19.436686 -16.013959 41.354920 0.534915 1.968424 0.042490 -0.006324 -308360.000000 0 0 1
-33.663315 -20.343086 -16.652259 42.712500 0.543583 1.971285 0.021635 -0.007716 -518001.000000 0 0 1
-34.297540 -19.710086 -17.683859 43.330447 0.521593 1.991186 0.021258 -0.015052 -146015.000000 0 0 1
-35.254831 -20.608286 -18.544359 44.849725 0.528983 1.997067 0.008943 -0.011957 1305420.000000 0 0 1
-36.439665 -21.147586 -17.905459 45.778543 0.525842 1.972658 0.005832 -0.007290 815823.000000 0 0 1
-36.207465 -22.075786 -16.839559 45.627750 0.547523 1.948798 0.027461 -0.012782 -202997.000000 0 0 1
36.758029 -23.332386 -16.939359 46.717178 -0.565584 1.941846 0.017454 0.007124 1530230.000000 0 0 1
35.337459 -23.138286 -16.687259 45.415645 -0.579729 1.947045 0.017866 -0.006944 1216260.000000 0 0 1
34.782289 -24.446686 -16.758459 45.697855 -0.612635 1.946281 0.019083 -0.007321 766750.000000 0 0 1
33.282179 -24.471586 -16.295259 44.408303 -0.634011 1.946516 0.022904 -0.012461 665415.000000 0 0 1
32.291219 -24.183786 -17.244259 43.874169 -0.642814 1.974731 0.016019 -0.012013 165583.000000 0 0 1
31.020039 -24.401186 -16.640359 42.831789 -0.666533 1.969805 0.029404 -0.015002 1033490.000000 0 0 1
29.763219 -24.159886 -17.557259 42.164044 -0.681856 2.000282 0.057028 -0.019505 684064.000000 0 0 1
29.593549 -22.803286 -17.890359 41.422613 -0.656523 2.017393 0.058883 -0.019998 -1011440.000000 0 0 1
28.285589 -22.598286 -18.230559 40.535297 -0.674090 2.037276 0.089160 -0.033121 -1269960.000000 0 0 1
34.825539 28.919114 -18.492959 48.899109 0.693004 1.958632 0.059543 -0.023453 -67982.300000 0 0 1
34.024079 29.227214 -19.626159 48.959719 0.709705 1.983255 0.044843 -0.041012 103699.000000 0 0 1
34.288609 28.374014 -20.712559 49.089749 0.691289 2.006372 0.052782 -0.039378 344482.000000 0 0 1
33.250769 28.635814 -21.872059 49.030709 0.710965 2.033187 0.071637 -0.046390 -199059.000000 0 0 1
31.980359 28.022214 -21.680359 47.728668 0.719527 2.042317 0.070066 -0.032056 26918.200000 0 0 1
31.197759 28.286314 -22.810559 47.892978 0.736492 2.067218 0.084530 -0.020582 36250.800000 0 0 1
30.394929 29.623314 -22.773959 48.166852 0.772543 2.063278 0.069642 -0.019408 -454641.000000 0 0 1
31.191279 30.797014 -22.836359 49.425208 0.779038 2.051089 0.080060 -0.034919 -293904.000000 0 0 1
30.402649 31.949014 -22.969959 49.726045 0.810194 2.050967 0.074322 -0.022893 -207292.000000 0 0 1
31.210749 33.224414 -22.673859 50.912439 0.816639 2.032362 0.069573 -0.021317 -42090.300000 0 0 1
31.547699 33.469514 -21.327259 50.698300 0.814948 2.004980 0.079768 -0.023602 791132.000000 0 0 1
32.783089 32.851714 -20.891559 50.896201 0.786444 1.993770 0.082103 -0.028319 471533.000000 0 0 1
32.966989 32.866214 -19.314259 50.398918 0.783867 1.964085 0.062887 -0.027087 -262826.000000 0 0 1
33.209959 -33.924382 -18.880659 51.090550 -0.796039 1.949324 0.060567 -0.021516 67908.900000 0 0 1
32.876099 -33.823382 -17.509359 50.313385 -0.799599 1.926240 0.044135 -0.027902 -412292.000000 0 0 1
33.044359 -32.391682 -16.911759 49.266198 -0.775424 1.921196 0.045913 -0.007241 -53101.700000 0 0 1
34.305189 -31.800282 -17.100059 49.804778 -0.747524 1.921269 0.044642 -0.016798 81071.000000 0 0 1
35.299249 -32.169482 -16.132059 50.409879 -0.739043 1.896545 0.050600 -0.014520 -556579.000000 0 0 1
36.603089 -31.443082 -16.348759 50.948360 -0.709712 1.897464 0.043725 -0.007054 -789900.000000 0 0 1
-36.490145 -32.022482 -17.357959 51.558402 0.720281 1.914170 0.037360 -0.012197 -818648.000000 0 0 1
-35.361411 -31.212482 -17.478459 50.300546 0.723158 1.925679 0.026246 -0.003990 -214241.000000 0 0 1
-34.339429 -31.779382 -18.514859 50.318243 0.746699 1.947605 0.024875 -0.011178 -789564.000000 0 0 1
-33.629315 -32.842982 -17.985559 50.329640 0.773569 1.936231 0.030943 -0.014862 -109140.000000 0 0 1
-32.653355 -33.408982 -18.845759 50.374243 0.796836 1.954239 0.027334 -0.008086 -132728.000000 0 0 1
-31.330425 -32.662082 -18.930459 49.058836 0.806205 1.966950 0.024742 -0.006390 -1852000.000000 0 0 1
-31.407525 -31.617482 -19.915659 48.813229 0.788729 1.991056 0.021275 -0.000761 619385.000000 0 0 1
-30.179325 -31.315982 -20.604059 48.124938 0.803880 2.013226 0.034525 -0.003573 711732.000000 0 0 1
-29.456825 -32.503882 -21.313859 48.769739 0.834536 2.023091 0.032108 0.004875 -563016.000000 0 0 1
-30.093125 -32.982082 -22.470759 49.983487 0.831168 2.037073 0.027288 0.013942 -533893.000000 0 0 1
-29.522355 34.004114 -23.075359 50.599619 -0.855831 2.044335 0.023341 0.005314 -237024.000000 0 0 1
-30.345395 33.473314 -24.266259 51.285057 -0.834372 2.063675 0.009839 0.000968 -855236.000000 0 0 1
-31.492895 32.757214 -23.875359 51.330988 -0.805074 2.054573 0.001499 -0.006531 -40750.400000 0 0 1
-32.234985 32.210914 -25.002059 51.978267 -0.785025 2.072603 0.013537 0.000665 733104.000000 0 0 1
-32.928805 33.267014 -25.903049 53.497368 -0.790507 2.076237 0.012623 -0.008743 -805279.000000 0 0 1
-32.072445 33.891514 -26.850909 53.835377 -0.812968 2.092963 0.009240 -0.011343 -97543.700000 0 0 1
-32.716175 -33.118282 -27.553299 54.095776 0.791506 2.105217 0.006293 -0.016754 489906.000000 0 0 1
-31.837585 -32.456182 -28.668759 53.748798 0.795019 2.133393 0.005528 -0.016434 -183948.000000 0 0 1
-31.763765 -33.143282 -29.904689 54.787812 0.806649 2.148173 0.015679 -0.014057 -265133.000000 0 0 1
-32.917525 -33.117682 -30.717609 55.892001 0.788429 2.152668 0.018789 -0.016079 -336740.000000 0 0 1
-32.976615 -34.042282 -31.956239 57.162359 0.801298 2.164028 0.048291 -0.020295 -139090.000000 0 0 1
-32.078345 -33.674782 -32.977319 57.013286 0.809673 2.187580 0.048750 -0.038824 -153933.000000 0 0 1
-32.178785 33.571614 33.963668 57.585226 -0.806579 0.939987 0.046898 -0.040524 -1208800.000000 0 0 1
-31.386735 -34.033782 32.711514 56.687465 0.825838 0.955684 0.061133 -0.038218 -1079560.000000 0 0 1
-30.073245 33.701814 32.860701 55.857301 -0.842233 0.941845 0.064676 -0.035329 -1381580.000000 0 0 1
-29.785215 32.363914 32.639144 54.771304 -0.826866 0.932389 0.074440 -0.042307 188365.000000 0 0 1
-28.254435 31.948514 32.793934 53.800212 -0.846682 0.915303 0.078518 -0.038246 993484.000000 0 0 1
-27.937225 31.765414 -33.860209 54.185273 -0.849431 2.245796 0.081465 -0.040373 567710.000000 0 0 1
-26.597635 31.333914 -33.617539 53.097903 -0.866973 2.256378 0.082592 -0.035830 212078.000000 0 0 1
-26.201015 29.906814 33.971057 52.296687 -0.851350 0.863760 0.084629 -0.033860 -480063.000000 0 0 1
-26.570595 28.906714 -33.164239 51.395150 -0.827483 2.272185 0.082961 -0.026820 320049.000000 0 0 1
-26.192605 27.602414 -33.635339 50.786631 -0.811599 2.294664 0.083087 -0.028168 -273347.000000 0 0 1
-26.210375 26.520114 -32.487149 49.454171 -0.791272 2.287515 0.092050 -0.035642 -187944.000000 0 0 1
-25.130355 26.455714 -31.549929 48.237305 -0.811085 2.283731 0.083975 -0.029870 137028.000000 0 0 1
-25.010905 27.583914 -30.697449 48.257135 -0.834281 2.260259 0.060389 -0.022252 219938.000000 0 0 1
-23.732705 27.556614 -29.823489 47.032423 -0.859816 2.257647 0.064155 -0.014293 254171.000000 0 0 1
-22.507905 27.949914 -30.418339 47.043372 -0.892836 2.273918 0.061268 -0.016171 92113.100000 0 0 1
-21.419405 27.820414 -29.525419 45.875012 -0.914670 2.269996 0.039555 -0.014109 114265.000000 0 0 1
-21.146105 29.067314 -28.592209 45.930175 -0.941860 2.242748 0.030472 -0.004569 -439787.000000 0 0 1
-20.603005 30.124714 -29.383179 46.854599 -0.970942 2.248639 0.026431 0.005991 180795.000000 0 0 1
-20.511905 31.326714 -28.567309 47.097690 -0.991073 2.222516 0.030505 0.002098 -204682.000000 0 0 1
-19.990305 32.502114 -29.363969 48.148130 -1.019387 2.226689 0.028809 0.008207 42081.700000 0 0 1
-18.644005 32.369514 -29.768649 47.765645 -1.048230 2.243654 0.041322 0.000241 -322435.000000 0 0 1
-18.272205 33.411314 -30.625829 48.868505 -1.070346 2.248106 0.051451 0.006314 -578594.000000 0 0 1
-16.790305 33.446314 -30.940809 48.558253 -1.105544 2.261642 0.060761 0.007054 -1560960.000000 0 0 1
-15.966005 33.920014 -29.929139 47.971179 -1.130866 2.244517 0.085462 0.002559 607228.000000 0 0 1
-14.612005 -33.909982 -30.363379 47.805150 1.163934 2.258997 0.104531 0.002584 1188940.000000 0 0 1
-13.725805 32.940214 -30.466599 46.921947 -1.175987 2.277465 0.110942 -0.011116 -983561.000000 0 0 1
-13.515505 32.394214 -29.175959 45.643078 -1.175534 2.264280 0.126185 -0.020431 -52826.700000 0 0 1
-13.538705 30.956614 -29.276579 44.707120 -1.158516 2.284784 0.106887 -0.022018 19181.900000 0 0 1
-13.405505 30.365314 -27.883099 43.350053 -1.155055 2.269477 0.103412 -0.032501 -351311.000000 0 0 1
-12.180905 30.724314 -27.333639 42.889227 -1.193347 2.261796 0.105223 -0.025377 -546347.000000 0 0 1
-12.117505 30.307214 -25.972379 41.712416 -1.190443 2.242925 0.094454 -0.031008 427253.000000 0 0 1
-10.861305 30.972514 -25.316029 41.450765 -1.233520 2.227803 0.097770 -0.028631 733889.000000 0 0 1
-9.683705 30.243314 -25.630309 40.808638 -1.260918 2.249855 0.090524 -0.022260 -757684.000000 0 0 1
-8.589605 30.796514 -24.961359 40.562002 -1.298794 2.233674 0.096395 -0.024044 246452.000000 0 0 1
-7.237105 30.239914 -25.515519 40.222752 -1.335892 2.257971 0.074551 -0.030639 394654.000000 0 0 1
-6.967705 28.945814 -24.933659 38.834217 -1.334575 2.267971 0.069505 -0.042789 -403221.000000 0 0 1
-5.745905 28.463314 -25.423909 38.594699 -1.371603 2.289940 0.066520 -0.054447 -446359.000000 0 0 1
-5.300105 27.164614 -24.733559 37.118140 -1.378106 2.300095 0.080167 -0.038664 -490803.000000 0 0 1
-5.983705 25.975114 -25.046599 36.576542 -1.344383 2.325087 0.091348 -0.036938 11665.200000 0 0 1
-5.401905 24.877314 -24.361859 35.235799 -1.356974 2.334215 0.098527 -0.044024 -319851.000000 0 0 1
-6.320505 23.644914 -24.400559 34.560353 -1.309594 2.354669 0.080371 -0.042071 -93408.600000 0 0 1
-6.374005 22.916614 -25.617419 34.957850 -1.299514 2.393237 0.080740 -0.037856 -222435.000000 0 0 1
-7.125405 21.758014 -25.527609 34.290544 -1.254319 2.410508 0.063504 -0.042590 -425729.000000 0 0 1
-6.944405 20.801014 -26.717299 34.564737 -1.248581 2.454296 0.065241 -0.036115 467349.000000 0 0 1
-5.712905 20.064014 -26.797019 33.960008 -1.293403 2.480099 0.086109 -0.046178 208872.000000 0 0 1
-5.725705 18.953614 -25.913549 32.611887 -1.277423 2.489152 0.082927 -0.040702 -473327.000000 0 0 1
-4.457505 18.173114 -26.231309 32.221313 -1.330265 2.521971 0.086816 -0.053529 -372467.000000 0 0 1
-4.473505 17.477914 -27.445789 32.844498 -1.320224 2.560072 0.087152 -0.053786 -145681.000000 0 0 1
-3.388005 16.579014 -27.532259 32.316676 -1.369217 2.590498 0.087232 -0.056417 -660270.000000 0 0 1
-3.148305 16.347314 -29.007129 33.444880 -1.380537 2.620572 0.089818 -0.046342 -216929.000000 0 0 1
-2.408705 17.436914 -29.485129 34.339782 -1.433527 2.603385 0.102668 -0.052139 -65659.600000 0 0 1
-2.207305 17.404314 -30.925059 35.554769 -1.444645 2.625566 0.102429 -0.057368 -66234.000000 0 0 1
-1.572205 18.703914 -31.444409 36.620473 -1.486936 2.603439 0.103297 -0.045872 -233770.000000 0 0 1
-0.185805 18.787614 -31.194769 36.415966 -1.560907 2.599485 0.129910 -0.051079 -135412.000000 0 0 1
0.410095 19.984914 -31.742369 37.511904 1.550279 2.579599 0.136516 -0.046875 498977.000000 0 0 1
0.257195 21.239714 -30.843419 37.450075 1.558688 2.538504 0.131146 -0.041533 -151205.000000 0 0 1
1.133895 21.109414 -29.754559 36.499683 1.517133 2.523872 0.151711 -0.054847 -496028.000000 0 0 1
1.028595 22.227714 -28.910239 36.481930 1.524554 2.485618 0.151130 -0.060870 383403.000000 0 0 1
2.161295 22.405614 -27.835459 35.797982 1.474632 2.461589 0.162941 -0.062007 1087080.000000 0 0 1
3.388995 22.743814 -28.522479 36.637388 1.422877 2.463081 0.155599 -0.065865 171215.000000 0 0 1
4.455795 22.710314 -27.591459 36.012513 1.377056 2.443646 0.141191 -0.066640 137448.000000 0 0 1
5.046895 24.103614 -27.170959 36.670374 1.364395 2.405282 0.156733 -0.060767 -170762.000000 0 0 1
5.723795 24.728714 -28.235639 37.967386 1.343338 2.409357 0.135894 -0.059326 193615.000000 0 0 1
6.183695 26.069314 -27.868589 38.658834 1.337899 2.375875 0.131719 -0.054255 293949.000000 0 0 1
7.148895 26.777814 -28.867529 40.018649 1.309910 2.376549 0.123831 -0.047122 -478435.000000 0 0 1
8.468595 26.356414 -28.840069 39.976584 1.259905 2.376653 0.096401 -0.040304 -549760.000000 0 0 1
9.216595 27.190914 -29.746439 41.341771 1.243992 2.373914 0.097582 -0.038653 1536100.000000 0 0 1
10.785795 26.980514 -29.774849 41.603163 1.190495 2.368404 0.091338 -0.032919 1364930.000000 0 0 1
11.496695 27.879814 -30.577599 42.947032 1.179675 2.363116 0.087825 -0.028130 763720.000000 0 0 1
12.850995 28.142214 -30.161829 43.207270 1.142430 2.343499 0.083758 -0.029820 972035.000000 0 0 1
13.629095 29.267014 -30.828859 44.639992 1.134979 2.333130 0.095291 -0.030951 -355414.000000 0 0 1
13.066395 30.538714 -30.615789 45.173778 1.166503 2.315472 0.095690 -0.028708 101730.000000 0 0 1
13.706895 31.517914 -31.419439 46.566501 1.160577 2.311384 0.128853 -0.040895 98203.400000 0 0 1
12.900195 32.817414 -31.521429 47.296915 1.196261 2.300245 0.136248 -0.054199 384536.000000 0 0 1
11.908795 32.951614 -32.533519 47.812740 1.224000 2.319154 0.108283 -0.049852 624013.000000 0 0 1
10.944295 33.953214 -32.242199 48.084901 1.258977 2.305715 0.101094 -0.040506 563636.000000 0 0 1
9.884095 -33.818782 -33.321279 48.494463 -1.286450 2.328307 0.082877 -0.033813 355723.000000 0 0 1
10.454595 -33.091282 33.686339 48.364253 -1.264788 0.800270 0.068242 -0.021340 415645.000000 0 0 1
9.431395 -32.823982 32.722316 47.298150 -1.291001 0.806775 0.064788 -0.020783 420860.000000 0 0 1
9.799295 -31.862982 31.629021 45.952919 -1.272432 0.811665 0.074697 -0.028539 -140767.000000 0 0 1
9.614395 -30.523482 31.987891 45.247594 -1.265650 0.785617 0.061839 -0.024393 -267248.000000 0 0 1
9.884595 -29.643282 30.953631 43.983595 -1.248939 0.790129 0.091372 -0.026409 -345128.000000 0 0 1
9.020195 -28.326082 31.072491 43.002681 -1.262508 0.763282 0.091197 -0.027003 1781740.000000 0 0 1
7.580795 -28.473482 30.897241 42.694814 -1.310592 0.761681 0.059594 -0.020626 1534760.000000 0 0 1
6.957395 -28.980982 32.106430 43.807825 -1.335187 0.748232 0.051085 -0.008524 -583417.000000 0 0 1
5.424995 -29.076482 31.957281 43.544692 -1.386340 0.746756 0.061670 -0.006878 -356565.000000 0 0 1
4.834295 -29.995182 31.035361 43.431267 -1.411001 0.774765 0.057330 -0.005348 62056.400000 0 0 1
4.990795 -29.865982 29.639741 42.372151 -1.405220 0.796085 0.062899 -0.017572 -807745.000000 0 0 1
4.313695 -28.717982 28.948991 41.004567 -1.421702 0.786970 0.042932 -0.015807 -972291.000000 0 0 1
2.973495 -28.989282 28.709001 40.907541 -1.468582 0.792872 0.069885 -0.020127 -505766.000000 0 0 1
2.394695 -28.116682 27.747551 39.575358 -1.485831 0.793812 0.078308 -0.026529 -160083.000000 0 0 1
1.043495 -28.631182 27.215811 39.516248 -1.534366 0.811068 0.074805 -0.022903 -137977.000000 0 0 1
1.116395 -29.822482 26.460431 39.884598 -1.533379 0.845410 0.086638 -0.024587 95697.200000 0 0 1
0.941195 -30.985482 27.253471 41.276357 -1.540430 0.849620 0.110895 -0.029370 -504980.000000 0 0 1
1.514095 -32.290082 26.680691 41.914212 -1.523940 0.880774 0.104937 -0.029465 168049.000000 0 0 1
2.928695 -32.390582 26.714761 42.088069 -1.480623 0.883131 0.081974 -0.021640 359256.000000 0 0 1
3.515095 -32.017882 25.466041 41.061173 -1.461449 0.901802 0.074877 -0.029889 -72383.600000 0 0 1
5.053595 -32.110882 25.586341 41.367964 -1.414697 0.903956 0.075916 -0.020228 283133.000000 0 0 1
5.769995 -31.731582 24.407641 40.446497 -1.390924 0.922969 0.070915 -0.037232 942232.000000 0 0 1
7.196295 -31.814182 24.542241 40.819731 -1.348342 0.925751 0.067976 -0.038791 546899.000000 0 0 1
7.860095 -31.132282 23.336021 39.693450 -1.323490 0.942328 0.067149 -0.035056 -493102.000000 0 0 1
9.204495 -30.821082 23.552551 39.867085 -1.280585 0.938775 0.055702 -0.026342 -269786.000000 0 0 1
9.902095 -30.374082 22.393771 39.014322 -1.255656 0.959428 0.044440 -0.026044 -361225.000000 0 0 1
11.075395 -29.447882 22.659071 38.772099 -1.211060 0.946635 0.035571 -0.010396 -372338.000000 0 0 1
12.149595 -30.203282 23.221531 39.988629 -1.188343 0.951204 0.045656 -0.012816 47900.700000 0 0 1
13.321295 -29.414082 23.117331 39.712166 -1.145543 0.949460 0.057264 -0.010169 163156.000000 0 0 1
14.508795 -29.797482 24.030231 40.937111 -1.117673 0.943444 0.062590 -0.009142 -5506.100000 0 0 1
14.299195 -29.390782 25.365301 41.372497 -1.117991 0.910823 0.057208 -0.010975 -83295.100000 0 0 1
15.397795 -29.680482 26.175351 42.463774 -1.092234 0.906613 0.054406 -0.008596 -263636.000000 0 0 1
-11.310505 -13.988586 26.185571 31.769359 0.890862 0.601938 0.078492 -0.036504 -481983.000000 0 0 1
-9.956905 -13.978586 25.850901 31.029178 0.951865 0.586079 0.086037 -0.034288 -1210540.000000 0 0 1
-9.167805 -14.232486 26.939041 31.817043 0.998547 0.561071 0.085653 -0.034249 -100817.000000 0 0 1
-7.629605 -14.135886 26.725321 31.181355 1.075870 0.541196 0.111277 -0.025504 298124.000000 0 0 1
-7.151205 -15.076886 25.814721 30.738445 1.127906 0.573847 0.102569 -0.027877 -119014.000000 0 0 1
-7.395805 -14.782586 24.410851 29.480713 1.106905 0.595215 0.106491 -0.025420 -598541.000000 0 0 1
-6.638905 -15.769086 23.498961 29.067857 1.172312 0.629338 0.094833 -0.029710 65487.900000 0 0 1
-7.224005 -17.067586 23.293581 29.767090 1.170401 0.672081 0.104219 -0.032882 -196115.000000 0 0 1
-7.113305 -17.944386 24.397781 31.110317 1.193390 0.669335 0.101668 -0.029220 -52146.300000 0 0 1
-7.726505 -19.356986 24.044441 31.820228 1.191016 0.714175 0.102111 -0.030912 273899.000000 0 0 1
-9.125505 -19.402586 23.836191 32.060867 1.131170 0.732557 0.078491 -0.025945 -150109.000000 0 0 1
-9.550005 -20.703486 23.616641 32.826554 1.138606 0.767805 0.071291 -0.026386 -821503.000000 0 0 1
-11.057305 -20.879386 23.599481 33.393835 1.083766 0.785971 0.043168 -0.018343 -872180.000000 0 0 1
-11.599505 -20.705386 24.861711 34.371008 1.060143 0.762178 0.051812 -0.015039 277824.000000 0 0 1
-13.001405 -20.993086 24.826151 35.015482 1.016293 0.782710 0.071726 -0.016954 286698.000000 0 0 1
-13.603705 -20.977086 26.200761 36.215726 0.995474 0.761990 0.074557 -0.022102 -471465.000000 0 0 1
-13.288105 -22.037786 27.068731 37.349082 1.028196 0.760125 0.083147 -0.011486 -170757.000000 0 0 1
-12.335505 -21.825886 28.076921 37.641034 1.056375 0.728892 0.098002 -0.010021 -50633.700000 0 0 1
-11.930805 -23.080786 28.868791 38.839076 1.093708 0.732818 0.085793 -0.006519 -276145.000000 0 0 1
-13.018505 -23.620986 29.585131 40.033891 1.067077 0.739208 0.076676 -0.001490 -195484.000000 0 0 1
-12.801105 -24.927986 30.076761 41.108202 1.096389 0.750059 0.066252 0.000770 -98602.900000 0 0 1
-13.865205 -25.482576 31.038601 42.485295 1.072490 0.751636 0.060301 -0.008676 72062.100000 0 0 1
-13.668305 -24.952186 32.316551 43.055703 1.069659 0.721864 0.079760 -0.005080 -769576.000000 0 0 1
-14.706205 -25.212746 33.181480 44.192371 1.042758 0.721461 0.077815 -0.003604 -947813.000000 0 0 1
-14.621505 -24.684086 -33.438729 44.059517 1.036024 2.432487 0.081091 -0.005683 -15562.300000 0 0 1
-14.852105 -23.292786 -33.178969 43.173868 1.003169 2.447284 0.092743 -0.007416 163497.000000 0 0 1
-16.169905 -22.849186 -33.465629 43.629112 0.954935 2.445024 0.105769 -0.013821 -231074.000000 0 0 1
-16.364105 -21.310986 -33.207329 42.716141 0.915955 2.461311 0.096805 -0.018687 -12293.400000 0 0 1
-16.365605 -20.954186 -31.834019 41.476688 0.907737 2.445753 0.094669 -0.020119 113672.000000 0 0 1
-16.582805 -19.566886 -31.693469 40.771662 0.867759 2.461224 0.075342 -0.023512 23739.900000 0 0 1
-16.615605 -19.207586 -30.168319 39.435227 0.857627 2.441852 0.078258 -0.022980 549434.000000 0 0 1
-17.838605 -19.561686 -29.504069 39.640452 0.831437 2.410270 0.084282 -0.019381 691548.000000 0 0 1
-17.744905 -19.252486 -28.114339 38.418171 0.826124 2.391753 0.072771 -0.018765 213789.000000 0 0 1
-16.826305 -20.141086 -27.211409 37.805405 0.874827 2.374275 0.068984 -0.010767 -358631.000000 0 0 1
-15.460805 -19.972186 -27.436039 37.291566 0.912038 2.397521 0.064120 -0.016492 -686284.000000 0 0 1
-14.809605 -21.082486 -26.830869 37.197999 0.958421 2.376472 0.057144 -0.014003 733397.000000 0 0 1
-13.253605 -21.159886 -27.004779 36.778484 1.011223 2.395365 0.084197 -0.016547 163893.000000 0 0 1
-12.576605 -20.236586 -26.154049 35.379721 1.014733 2.402735 0.076859 -0.020694 388751.000000 0 0 1
-11.167005 -20.251386 -26.318609 35.035550 1.066864 2.420670 0.056793 -0.025996 268394.000000 0 0 1
-10.398205 -21.395486 -25.647949 34.981520 1.118411 2.393791 0.082330 -0.030129 -974854.000000 0 0 1
-10.625305 -22.718386 -26.117829 36.209986 1.133324 2.376456 0.080475 -0.028780 140635.000000 0 0 1
-9.930305 -23.637986 -25.296059 36.017439 1.173084 2.349459 0.108392 -0.028832 189647.000000 0 0 1
-10.199505 -25.085886 -25.749139 37.367763 1.184627 2.331006 0.105469 -0.028933 -209795.000000 0 0 1
-9.383605 -25.436716 -26.864519 38.167799 1.217384 2.351603 0.120276 -0.033538 321173.000000 0 0 1
-9.676205 -26.743076 -27.383979 39.480417 1.223630 2.337284 0.114455 -0.023941 -282515.000000 0 0 1
-9.559705 -27.996726 -26.440479 39.677494 1.241752 2.300146 0.142670 -0.026761 -306959.000000 0 0 1
-10.558405 -28.158186 -25.481709 39.416758 1.212054 2.273743 0.123875 -0.033009 -119870.000000 0 0 1
-10.136405 -29.227026 -24.676359 39.571308 1.236961 2.244126 0.150887 -0.033176 79207.400000 0 0 1
-11.042305 -29.377636 -23.410159 39.153716 1.211259 2.211680 0.150978 -0.036250 172370.000000 0 0 1
-10.741305 -28.397666 -22.382359 37.719664 1.209183 2.206057 0.120789 -0.043435 23472.400000 0 0 1
-11.599605 -27.286076 -22.615659 37.290063 1.168832 2.222422 0.108781 -0.034697 23099.800000 0 0 1
-11.602405 -26.169846 -21.521659 35.814221 1.153486 2.215454 0.118315 -0.035496 -172501.000000 0 0 1
-12.122705 -26.575866 -20.280759 35.560452 1.142836 2.177689 0.100471 -0.028959 -136986.000000 0 0 1
-12.219705 -25.408516 -19.525859 34.295379 1.122521 2.176504 0.093849 -0.022670 -117015.000000 0 0 1
-12.883805 -25.625896 -18.139959 33.937252 1.104939 2.134730 0.111769 -0.027543 -756851.000000 0 0 1
-14.250505 -25.797386 -18.165659 34.620415 1.066111 2.123170 0.130843 -0.031979 -976847.000000 0 0 1
-14.847305 -26.301446 -16.981959 34.649609 1.056885 2.083007 0.128382 -0.031510 397029.000000 0 0 1
-16.382505 -26.494406 -17.102659 35.536473 1.017002 2.072900 0.129144 -0.036987 -715938.000000 0 0 1
-17.074005 -25.300366 -17.038059 34.956052 0.977148 2.079922 0.122944 -0.030872 -319841.000000 0 0 1
-18.451505 -25.438086 -16.774459 35.622138 0.943259 2.061107 0.136958 -0.024701 492163.000000 0 0 1
-19.421905 -26.050956 -17.864059 37.080821 0.930159 2.073458 0.127377 -0.018516 -474339.000000 0 0 1
-19.279505 -27.463256 -18.111459 38.130757 0.958722 2.065741 0.117197 -0.022206 165831.000000 0 0 1
-19.722905 -28.364886 -17.071359 38.535581 0.963213 2.029741 0.122900 -0.029777 723439.000000 0 0 1
-21.227205 -28.834246 -17.170459 39.709352 0.936199 2.017953 0.111250 -0.023764 927443.000000 0 0 1
-21.619405 -29.736596 -18.172059 41.010822 0.942159 2.029854 0.097373 -0.027835 58829.600000 0 0 1
-22.831605 -30.351256 -17.770959 41.931943 0.925859 2.008438 0.088799 -0.016657 345418.000000 0 0 1
-23.448505 -31.428026 -18.729759 43.455230 0.929795 2.016411 0.067906 -0.014327 -96734.500000 0 0 1
-22.759805 -32.679776 -18.723959 44.006398 0.962457 2.010291 0.069794 -0.015087 122674.000000 0 0 1
-23.070905 -33.558176 -19.752859 45.261388 0.968516 2.022409 0.057195 -0.005372 236184.000000 0 0 1
-22.342305 33.242163 -19.290959 44.456283 -0.979036 2.019648 0.057413 -0.005993 433446.000000 0 0 1
-23.043705 32.589114 -18.236159 43.881889 -0.955322 1.999370 0.056166 -0.008101 580880.000000 0 0 1
-22.330205 31.352941 -18.018859 42.500874 -0.951916 2.008614 0.045996 -0.013359 508605.000000 0 0 1
-23.260005 30.203381 -17.513659 41.952358 -0.914547 2.001451 0.050329 -0.027791 419632.000000 0 0 1
-23.740805 30.280411 -16.128659 41.721251 -0.905868 1.967718 0.040464 -0.027311 174710.000000 0 0 1
-24.500905 29.104941 -15.836359 41.209007 -0.871075 1.965239 0.038431 -0.021680 -51876.300000 0 0 1
-23.795705 27.712811 -15.735859 39.772512 -0.861300 1.977568 0.039587 -0.026912 -174625.000000 0 0 1
-23.086805 27.323561 -16.892759 39.559359 -0.869246 2.011994 0.031207 -0.026399 -63782.000000 0 0 1
-22.689005 25.996581 -16.838159 38.394489 -0.853231 2.024788 0.032258 -0.026487 -225582.000000 0 0 1
-21.858105 25.593461 -18.078259 38.205045 -0.863956 2.063705 0.048589 -0.018547 -551000.000000 0 0 1
-21.492505 24.210681 -18.123759 37.101961 -0.844803 2.081149 0.055747 -0.022518 76622.600000 0 0 1
-20.796505 23.747491 -19.258959 36.977635 -0.851550 2.118616 0.055295 -0.008830 1094630.000000 0 0 1
-19.355105 24.347411 -19.523759 36.723204 -0.899139 2.131340 0.052999 -0.014928 845167.000000 0 0 1
-18.302005 23.846711 -18.696159 35.400217 -0.916198 2.127201 0.069745 -0.019736 662544.000000 0 0 1
-17.217105 24.697251 -18.365159 35.265592 -0.962002 2.118546 0.084831 -0.031178 52272.800000 0 0 1
-17.375805 25.824451 -17.269359 35.595669 -0.978530 2.077335 0.091825 -0.041542 -436759.000000 0 0 1
-18.154805 26.853401 -17.802659 36.981573 -0.976311 2.073039 0.070342 -0.033670 -216048.000000 0 0 1
-17.900605 28.064201 -17.073159 37.410210 -1.003014 2.044715 0.086354 -0.043602 26806.800000 0 0 1
-18.893605 29.275721 -17.305659 38.904010 -0.997684 2.031780 0.074380 -0.040097 386282.000000 0 0 1
-19.143605 29.760891 -18.616259 39.984414 -0.999183 2.055095 0.068607 -0.040327 301496.000000 0 0 1
-19.837805 28.868281 -19.510759 40.094711 -0.968724 2.079009 0.059966 -0.035563 -167031.000000 0 0 1
-19.950205 29.471611 -20.909959 41.277269 -0.975722 2.102002 0.058178 -0.035528 577.284000 0 0 1
-20.943505 30.440651 -21.115659 42.557428 -0.968162 2.089977 0.054473 -0.030264 -133034.000000 0 0 1
-20.974205 30.768791 -22.505559 43.510182 -0.972478 2.114429 0.058653 -0.029289 454835.000000 0 0 1
-21.733405 32.059804 -22.940859 45.016163 -0.975056 2.105532 0.053553 -0.024542 97.538200 0 0 1
-20.861705 33.131328 -22.760659 45.287341 -1.008848 2.097381 0.042005 -0.025729 25807.500000 0 0 1
-21.191605 -33.883106 -23.579859 46.402141 1.011886 2.103847 0.044185 -0.018571 -519634.000000 0 0 1
-20.134305 -32.784226 -23.500959 45.083154 1.020040 2.119147 0.059978 -0.018332 -224766.000000 0 0 1
-19.910105 -31.985226 -22.320259 43.791105 1.014013 2.105631 0.069269 -0.021056 112807.000000 0 0 1
-19.374105 -32.683546 -21.211259 43.514223 1.035704 2.079970 0.076619 -0.032381 -314648.000000 0 0 1
-18.943805 -31.642276 -20.147259 42.023962 1.031343 2.070794 0.101562 -0.033911 -29741.000000 0 0 1
-17.805305 -30.888516 -20.494759 41.123769 1.047882 2.092511 0.099679 -0.034762 -60682.100000 0 0 1
-17.402405 -30.142896 -19.335159 39.815653 1.047213 2.077865 0.105494 -0.034886 -78298.000000 0 0 1
-16.191405 -29.218476 -19.552259 38.706223 1.064773 2.100346 0.124177 -0.035398 1069990.000000 0 0 1
-14.976805 -29.927716 -19.917859 38.944755 1.106803 2.107655 0.139306 -0.044562 586253.000000 0 0 1
-13.920805 -28.991436 -20.111059 37.930816 1.123139 2.129637 0.128002 -0.047506 -838067.000000 0 0 1
-12.629205 -29.833136 -20.297759 38.229724 1.170343 2.130508 0.154398 -0.044696 -250650.000000 0 0 1
-12.155405 -30.406186 -19.075359 37.896692 1.190490 2.098269 0.146873 -0.037619 269825.000000 0 0 1
-11.657605 -29.445146 -18.100559 36.476658 1.193821 2.090039 0.115836 -0.028326 -585037.000000 0 0 1
-10.921705 -30.036246 -16.858159 36.133879 1.222042 2.056179 0.109035 -0.017154 81333.500000 0 0 1
-11.707705 -30.664546 -15.847559 36.449003 1.206078 2.020598 0.138898 -0.033532 -85147.200000 0 0 1
-12.338605 -31.824066 -16.277359 37.814874 1.200927 2.015786 0.150034 -0.042436 356527.000000 0 0 1
-13.231705 -32.466536 -15.122459 38.181706 1.183799 1.978024 0.146461 -0.048510 850947.000000 0 0 1
-12.409605 -33.188336 -14.136559 38.148476 1.212978 1.950416 0.148560 -0.042253 740783.000000 0 0 1
-13.213005 -33.689456 -13.109359 38.489196 1.197032 1.918350 0.162059 -0.047146 -393335.000000 0 0 1
-12.399405 -34.039076 -11.895159 38.130024 1.221466 1.888055 0.146230 -0.040224 -162666.000000 0 0 1
-11.902605 -32.875446 -11.216459 36.718876 1.223426 1.881227 0.126365 -0.031046 174796.000000 0 0 1
-11.638105 -33.145596 -9.831959 36.479356 1.233123 1.843692 0.124530 -0.030847 -109073.000000 0 0 1
-10.285905 -32.510776 -9.409759 35.373633 1.264376 1.840048 0.102733 -0.029325 323339.000000 0 0 1
-9.219105 -33.336286 -9.895559 35.975296 1.300991 1.849454 0.064104 -0.028751 428779.000000 0 0 1
-8.001005 -32.576146 -9.713459 34.922380 1.329954 1.852658 0.044064 -0.026624 927181.000000 0 0 1
-6.758505 -33.311236 -10.297959 35.515683 1.370624 1.864976 0.030372 -0.031608 299611.000000 0 0 1
-6.352105 33.715233 -9.491959 35.597240 -1.384575 1.840711 0.016249 -0.011850 629024.000000 0 0 1
-5.091005 33.111751 -9.861859 34.922238 -1.418239 1.857086 0.017011 -0.009531 1154210.000000 0 0 1
-4.524305 31.993921 -8.903559 33.516469 -1.430316 1.839672 0.015992 -0.017264 -27561.600000 0 0 1
-3.966905 32.548092 -7.753859 33.693278 -1.449516 1.803008 0.036899 -0.022189 -152299.000000 0 0 1
-3.369405 31.606551 -6.895459 32.524980 -1.464593 1.784422 0.035240 -0.029206 -204739.000000 0 0 1
-3.162705 32.234054 -5.487859 32.850473 -1.472992 1.738639 0.049690 -0.032519 -637747.000000 0 0 1
-2.108005 33.152870 -5.594059 33.687535 -1.507297 1.737626 0.035663 -0.031600 -335743.000000 0 0 1
-1.902805 33.878199 -4.395159 34.215062 -1.514689 1.699609 0.050245 -0.028755 -18342.700000 0 0 1
-0.750505 33.256697 -3.580059 33.457256 -1.548233 1.678006 0.055787 -0.030868 668034.000000 0 0 1
0.549395 33.307052 -4.235159 33.579728 1.554303 1.697256 0.054750 -0.031384 1230930.000000 0 0 1
1.437295 32.495942 -3.423459 32.707371 1.526595 1.675658 0.057105 -0.028173 1968520.000000 0 0 1
2.934895 32.476986 -3.998459 32.853553 1.480673 1.692804 0.058186 -0.020905 1515380.000000 0 0 1
3.633695 33.677807 -3.844059 34.090691 1.463316 1.683796 0.057737 -0.022895 150475.000000 0 0 1
5.027595 33.462381 -4.075059 34.082455 1.421666 1.690648 0.070117 -0.017750 686456.000000 0 0 1
5.936895 -33.465336 -3.705559 34.189276 -1.395219 1.679393 0.071747 -0.018412 -91214.000000 0 0 1
5.627695 -32.300876 -4.469559 33.090701 -1.398300 1.706280 0.070452 -0.019527 -73159.900000 0 0 1
5.866795 -31.150576 -3.686059 31.911826 -1.384640 1.686562 0.064095 -0.023622 -134474.000000 0 0 1
5.905595 -29.920216 -4.593059 30.841393 -1.375923 1.720278 0.050478 -0.017316 40792.800000 0 0 1
6.976595 -29.913226 -5.519259 31.207950 -1.341665 1.748586 0.068771 -0.024513 -90294.600000 0 0 1
6.725495 -28.996326 -6.570859 30.482706 -1.342883 1.788062 0.063889 -0.018434 107593.000000 0 0 1
6.977095 -27.450036 -6.351759 29.026352 -1.321893 1.791409 0.060414 -0.014225 128063.000000 0 0 1
6.207495 -26.785636 -5.345259 28.010267 -1.343069 1.762806 0.054194 -0.012359 -360842.000000 0 0 1
6.824295 -25.640146 -4.775659 26.959135 -1.310670 1.748880 0.054588 -0.009679 -284457.000000 0 0 1
6.081495 -24.960486 -3.627759 25.945540 -1.331808 1.711078 0.051400 -0.008583 118730.000000 0 0 1
5.005595 -24.201786 -4.149659 25.059969 -1.366845 1.737152 0.050462 -0.018674 -249623.000000 0 0 1
4.117095 -23.746986 -3.139759 24.304894 -1.399129 1.700341 0.046948 -0.013417 500010.000000 0 1 0
2.899295 -22.971486 -3.676959 23.443871 -1.445247 1.728288 0.048373 -0.015872 761033.000000 0 1 0
1.950095 -23.664886 -4.519759 24.171427 -1.488578 1.758891 0.052408 -0.021972 -256620.000000 0 1 0
0.917495 -22.776286 -4.814659 23.297680 -1.530535 1.778955 0.056341 -0.020704 -43928.800000 0 1 0
-15.062205 23.074614 18.037771 32.934314 -0.992483 0.991196 0.020348 -0.000719 -134088.000000 0 0 1
-15.354905 22.674714 19.355371 33.534254 -0.975549 0.955523 0.023857 0.003851 268730.000000 0 0 1
-15.044405 23.627614 20.355671 34.625881 -1.003807 0.942368 0.037913 -0.003029 -1116590.000000 0 0 1
-15.182305 22.990614 21.779871 35.120272 -0.987166 0.901861 0.062464 -0.012575 -47273.300000 0 0 1
-14.117105 22.131214 22.208871 34.384841 -1.002987 0.868606 0.062902 -0.006039 721324.000000 0 0 1
-12.810205 22.679114 22.296571 34.286742 -1.056627 0.862821 0.027064 -0.012005 -23348.400000 0 0 1
-12.634105 23.795514 23.394701 35.681356 -1.082700 0.855745 0.054639 -0.018720 -800557.000000 0 0 1
-12.370405 23.203414 24.660791 36.049688 -1.080998 0.817458 0.041014 -0.013272 118248.000000 0 0 1
-12.031005 24.202014 25.605631 37.230779 -1.109465 0.812405 0.064268 -0.017487 -29654.400000 0 0 1
-11.540005 23.589414 26.923651 37.610041 -1.115824 0.772936 0.059112 -0.015791 -772117.000000 0 0 1
-10.242605 23.125114 26.882461 36.910007 -1.153845 0.754923 0.018359 -0.006476 -1318830.000000 0 0 1
-9.895005 22.411414 28.030971 37.227919 -1.155020 0.718254 0.015471 -0.010451 217146.000000 0 0 1
-8.353305 22.160914 28.210501 36.833629 -1.210327 0.698372 0.012427 -0.015105 867621.000000 0 0 1
-7.565505 23.302214 28.578801 37.642767 -1.256864 0.708696 0.012265 -0.015838 44783.500000 0 0 1
-7.533505 24.365314 27.588981 37.570921 -1.270930 0.746136 0.012522 -0.007851 -1501430.000000 0 0 1
-6.528705 25.443914 27.874311 38.301357 -1.319623 0.755742 0.020287 -0.016689 52163.600000 0 0 1
-5.174105 25.010414 27.941531 37.855268 -1.366796 0.740525 0.020787 -0.016039 23056.100000 0 0 1
-4.272905 26.077414 28.167581 38.622557 -1.408385 0.753492 0.037880 -0.009041 867143.000000 0 0 1
-2.805905 25.501114 28.195261 38.120240 -1.461206 0.738261 0.043587 -0.010761 638439.000000 0 0 1
-2.266005 25.307614 26.885791 36.992646 -1.481496 0.757163 0.045297 -0.007560 -570323.000000 0 0 1
-0.910605 24.983914 26.955561 36.764486 -1.534365 0.747787 0.059984 0.000436 -155073.000000 0 0 1
-0.319505 24.742214 25.524621 35.549761 -1.557884 0.769876 0.056960 -0.002799 61220.800000 0 0 1
-0.745605 23.535714 24.976831 34.326781 -1.539127 0.755951 0.054113 0.004975 -339187.000000 0 0 1
-0.281105 23.399414 23.712431 33.315027 -1.558784 0.778790 0.050566 0.007348 -61901.600000 0 0 1
-0.637805 22.063214 22.980071 31.863394 -1.541896 0.765255 0.042148 0.006068 176141.000000 0 0 1
0.193195 20.997714 23.393151 31.435344 1.561596 0.731509 0.056433 0.004406 -243203.000000 0 0 1
-0.130605 19.777014 22.741471 30.138378 -1.564193 0.715800 0.062222 -0.001481 -348169.000000 0 0 1
0.855895 18.647214 23.012271 29.631331 1.524929 0.681514 0.069984 0.002952 -796520.000000 0 0 1
2.042795 18.869914 22.339571 29.313872 1.462960 0.704274 0.069821 -0.002507 -1117680.000000 0 0 1
2.905295 17.767214 22.369271 28.714089 1.408711 0.677672 0.059777 -0.006065 -171990.000000 0 0 1
4.295695 17.883314 21.738071 28.474720 1.335056 0.702210 0.062704 -0.007865 827.262000 0 0 1
5.241195 18.606414 22.485171 29.652179 1.296223 0.710099 0.060224 -0.001068 -179045.000000 0 0 1
6.472395 18.842114 21.812171 29.541293 1.239918 0.740158 0.065884 -0.011161 479413.000000 0 0 1
7.514995 19.477714 22.813571 30.924352 1.202569 0.741107 0.073287 -0.013670 -50062.400000 0 0 1
7.205395 20.745814 23.407321 32.096872 1.236513 0.753540 0.060871 -0.004149 -69773.100000 0 0 1
7.044495 21.814114 22.517571 32.132873 1.258435 0.794328 0.072759 -0.013191 -453468.000000 0 0 1
5.898395 22.663714 23.036471 32.849871 1.316187 0.793626 0.054263 -0.003427 -391408.000000 0 0 1
5.533895 23.829914 22.352671 33.138055 1.342616 0.830466 0.057981 -0.012812 188712.000000 0 0 1
4.455495 24.457214 23.031071 33.888597 1.390597 0.823564 0.041700 -0.004067 -240408.000000 0 0 1
4.225895 25.830614 22.349271 34.417564 1.408633 0.864058 0.061672 -0.006439 -130862.000000 0 0 1
3.885395 25.846514 20.951571 33.497864 1.421588 0.895076 0.075224 -0.013757 60751.800000 0 0 1
2.641095 25.236014 20.682971 32.735563 1.466520 0.886898 0.065999 -0.012621 -415480.000000 0 0 1
2.174195 25.620214 19.291971 32.145025 1.486137 0.927102 0.072439 -0.015813 -429127.000000 0 0 1
1.581495 26.880414 19.209771 33.076776 1.512030 0.951131 0.081040 -0.024569 253389.000000 0 0 1
1.080395 27.117614 17.878571 32.498855 1.530976 0.988277 0.088514 -0.019613 -137345.000000 0 0 1
-0.090205 28.085014 17.819171 33.261074 -1.567584 1.005417 0.064899 -0.007208 -593250.000000 0 0 1
0.357895 29.364614 18.207471 34.553157 1.558609 1.015799 0.086816 -0.014584 235418.000000 0 0 1
-0.643705 30.351814 18.399271 35.499016 -1.549591 1.025930 0.055291 -0.012351 -65214.600000 0 0 1
-0.145505 31.774714 18.871671 36.956645 -1.566217 1.034863 0.056003 -0.004568 -103050.000000 0 0 1
0.314695 31.813514 20.181971 37.676394 1.560905 1.005500 0.066891 -0.013173 -58534.700000 0 0 1
0.921895 33.055414 20.467171 38.889785 1.542914 1.016569 0.059398 -0.013559 -408767.000000 0 0 1
1.575395 32.872314 21.800271 39.475597 1.522908 0.985739 0.059531 -0.023125 -95562.900000 0 0 1
0.578495 32.771414 22.816971 39.936380 1.553146 0.962667 0.062642 -0.018882 350091.000000 0 0 1
1.143995 32.732414 24.109121 40.669023 1.535861 0.936249 0.066804 -0.029909 -439777.000000 0 0 1
0.220195 32.367014 25.273331 41.065964 1.563993 0.907862 0.069061 -0.015438 -873398.000000 0 0 1
-0.882105 33.203114 25.389431 41.807274 -1.544236 0.918142 0.066822 -0.014443 -321427.000000 0 0 1
-1.713005 33.037014 26.530861 42.405958 -1.518992 0.894845 0.078340 -0.013220 86700.700000 0 0 1
-1.193905 33.337414 27.987161 43.544113 -1.534999 0.872738 0.103609 -0.022307 -994913.000000 0 0 1
-0.147305 32.565814 28.455971 43.246922 -1.566273 0.852652 0.085180 -0.018749 -348724.000000 0 0 1
0.292395 32.989514 29.713081 44.398882 1.561933 0.837624 0.088395 -0.018735 -199747.000000 0 0 1
1.455895 32.173414 30.353911 44.256165 1.525576 0.815000 0.080580 -0.008645 278436.000000 0 0 1
2.785295 32.157914 29.931161 44.020038 1.484399 0.823110 0.054219 -0.002290 -35694.800000 0 0 1
2.924395 31.727814 28.600261 42.815666 1.478885 0.839297 0.050783 -0.006292 -717760.000000 0 0 1
4.373595 31.507714 28.088121 42.435916 1.432867 0.847452 0.020827 -0.002935 259202.000000 0 0 1
4.894395 30.353614 28.779711 42.113760 1.410927 0.818414 0.024011 -0.005733 1624360.000000 0 0 1
6.295295 30.118914 28.449151 41.906252 1.364748 0.824566 0.023419 -0.019883 1628670.000000 0 0 1
7.090695 28.949314 29.097391 41.653318 1.330591 0.797412 0.031926 -0.016667 161281.000000 0 0 1
7.269295 29.141914 30.512661 42.814907 1.326340 0.777507 0.039187 -0.022619 63625.200000 0 0 1
7.759395 27.959714 31.135131 42.559960 1.300088 0.750190 0.038441 -0.024698 -43041.100000 0 0 1
7.639095 27.831714 32.688854 43.606436 1.302919 0.723288 0.056241 -0.036322 712267.000000 0 0 1
6.266295 27.746214 33.120346 43.658632 1.348679 0.709603 0.068089 -0.033775 634224.000000 0 0 1
6.164295 27.668214 -33.522579 43.900933 1.351583 2.439661 0.095353 -0.037651 -300.935000 0 0 1
6.399495 26.290414 -32.945079 42.632354 1.332024 2.453993 0.101561 -0.039665 -559341.000000 0 0 1
7.723695 25.861114 -32.931939 42.578930 1.280569 2.455035 0.074173 -0.034603 -580898.000000 0 0 1
7.707795 24.484514 -32.672009 41.549509 1.265815 2.475657 0.095834 -0.042357 -413003.000000 0 0 1
9.079695 23.927414 -32.989929 41.752813 1.208114 2.481809 0.077202 -0.029710 -959865.000000 0 0 1
9.355895 23.771314 33.685033 42.276348 1.195837 0.648845 0.051452 -0.021117 387491.000000 0 0 1
10.663095 23.336214 33.321535 42.054788 1.142192 0.656167 0.062471 -0.035829 152504.000000 0 0 1
10.857295 21.817514 33.696671 41.585459 1.109038 0.626134 0.071836 -0.037084 -971520.000000 0 0 1
9.996195 21.034414 32.902564 40.310659 1.127160 0.615950 0.059426 -0.037023 -15546.800000 0 0 1
9.824495 19.730614 33.412224 40.027422 1.108805 0.583148 0.066625 -0.030246 235342.000000 0 0 1
8.531595 19.672214 -33.808929 40.035332 1.161590 2.576385 0.108778 -0.048293 -162925.000000 0 0 1
8.793695 20.200614 -32.542859 39.299256 1.160219 2.546467 0.108050 -0.043163 -906958.000000 0 0 1
7.626395 20.305514 -31.834479 38.521550 1.211515 2.543493 0.119489 -0.054187 -1065550.000000 0 0 1
7.794395 20.938414 -30.413599 37.738002 1.214436 2.508015 0.131558 -0.064631 -315118.000000 0 0 1
7.947295 22.349814 -30.325759 38.500978 1.229153 2.477801 0.139508 -0.060516 -93941.000000 0 0 1
8.195395 22.822214 -29.028139 37.823945 1.226040 2.445657 0.103446 -0.048200 319352.000000 0 0 1
9.736495 22.966814 -28.862179 38.148385 1.169826 2.428858 0.103330 -0.049952 614935.000000 0 0 1
10.446995 21.738314 -28.716549 37.501122 1.122805 2.443006 0.100574 -0.048855 -405956.000000 0 0 1
11.837795 21.879414 -28.829249 38.078442 1.074853 2.429661 0.088443 -0.046585 20269.800000 0 0 1
12.613095 20.545014 -28.999369 37.711419 1.020201 2.448042 0.090192 -0.054585 -119008.000000 0 0 1
12.534095 19.699914 -30.115489 38.106860 1.004147 2.482079 0.083140 -0.046600 -376100.000000 0 0 1
11.298195 19.055914 -30.271719 37.512052 1.035616 2.509828 0.113108 -0.052290 -402196.000000 0 0 1
11.307695 17.966814 -31.324889 37.840706 1.009064 2.545988 0.108707 -0.054997 28242.400000 0 0 1
12.144795 16.847214 -30.969439 37.288481 0.946195 2.550866 0.108974 -0.044732 337086.000000 0 0 1
12.246095 15.785214 -31.932579 37.667352 0.910990 2.582529 0.093813 -0.036182 98805.000000 0 0 1
13.303895 15.938514 -33.067609 39.044802 0.875251 2.580952 0.068815 -0.013127 -31519.900000 0 0 1
13.115495 17.151614 -33.784119 40.094398 0.917966 2.572916 0.076370 -0.022881 -52331.600000 0 0 1
13.662295 17.184714 32.980504 39.619267 0.899096 0.587307 0.074851 -0.018737 218532.000000 0 0 1
12.642395 16.874214 31.827971 38.178384 0.927799 0.585086 0.086490 -0.028201 -214239.000000 0 0 1
13.179895 17.252514 30.554071 37.482131 0.918433 0.617785 0.074517 -0.025183 303934.000000 0 0 1
12.300695 17.024414 29.470111 36.188744 0.945107 0.619197 0.076761 -0.023989 319089.000000 0 0 1
10.822195 17.468014 29.422491 35.887803 1.016130 0.609653 0.070928 -0.027994 362957.000000 0 0 1
9.936295 16.792214 30.336281 36.069355 1.036487 0.571567 0.081454 -0.025852 693824.000000 0 0 1
8.700795 17.531614 30.425201 36.176708 1.110120 0.571637 0.087508 -0.028008 330039.000000 0 0 1
7.707595 16.894014 31.369171 36.453253 1.142772 0.534484 0.106390 -0.030899 -439443.000000 0 0 1
7.941995 16.988714 32.731905 37.723591 1.133496 0.520285 0.114669 -0.031905 -159057.000000 0 0 1
7.792895 15.767614 33.399375 37.747386 1.111772 0.484704 0.147361 -0.042594 -103423.000000 0 0 1
7.762495 15.951214 -33.142589 37.591605 1.117894 2.650141 0.148276 -0.048311 -44635.800000 0 0 1
6.616495 16.631714 -32.687579 37.267542 1.192167 2.640599 0.136988 -0.053648 -81957.800000 0 0 1
6.528295 16.765914 -31.280819 36.086066 1.199479 2.619624 0.144410 -0.059212 -296815.000000 0 0 1
5.455095 17.764814 -30.825829 35.994144 1.272863 2.599077 0.140149 -0.061769 -833502.000000 0 0 1
5.461795 17.999214 -29.401049 34.903074 1.276181 2.572449 0.134939 -0.073488 162644.000000 0 0 1
4.648695 19.021414 -28.808589 34.833308 1.331102 2.544620 0.134811 -0.073687 -231544.000000 0 0 1
3.150995 18.743414 -28.829949 34.531294 1.404242 2.558735 0.140666 -0.073308 -1449270.000000 0 0 1
2.761295 17.692014 -27.962329 33.204276 1.415970 2.572018 0.144216 -0.068828 1141630.000000 0 0 1
1.357895 17.334614 -28.026179 32.981804 1.492622 2.586301 0.131766 -0.065068 1826600.000000 0 0 1
0.223695 18.373314 -27.704149 33.243775 1.558622 2.555962 0.126693 -0.064644 -195671.000000 0 0 1
0.039495 18.585914 -26.323049 32.223294 1.568671 2.526803 0.133086 -0.068864 -226552.000000 0 0 1
-0.774705 19.722114 -26.237749 32.832627 -1.531535 2.496654 0.141805 -0.061723 -253432.000000 0 0 1
-1.271905 20.133714 -24.814059 31.980020 -1.507707 2.458975 0.128567 -0.063535 -461755.000000 0 0 1
-2.209005 19.285314 -24.249459 31.061862 -1.456750 2.466554 0.116520 -0.049778 -513255.000000 0 0 1
-2.606605 19.712314 -22.978659 30.387308 -1.439327 2.428271 0.107117 -0.045649 777044.000000 0 0 1
-3.859705 18.982014 -22.339659 29.568134 -1.370196 2.427261 0.068743 -0.029473 372492.000000 0 0 1
-5.111205 19.510914 -22.672959 30.345729 -1.314587 2.414567 0.068173 -0.023687 15235.500000 0 0 1
-6.101405 18.529114 -22.289059 29.620219 -1.252691 2.422638 0.063459 -0.031135 1372140.000000 0 0 1
-7.620605 18.943114 -22.279159 30.220459 -1.188318 2.399744 0.090683 -0.026163 768909.000000 0 0 1
-8.117205 19.855014 -21.319759 30.243061 -1.182706 2.353145 0.068664 -0.017438 -107390.000000 0 0 1
-7.744405 21.169214 -21.573559 31.201440 -1.220086 2.334261 0.066364 -0.026767 -146838.000000 0 0 1
-8.118105 22.223014 -20.423159 31.254942 -1.220555 2.282913 0.072625 -0.024464 55211.100000 0 0 1
-7.398205 22.164314 -19.218759 30.254768 -1.248636 2.259104 0.085065 -0.026379 -86733.200000 0 0 1
-7.823305 23.259814 -18.401059 30.672822 -1.246338 2.214190 0.094886 -0.026949 -90840.300000 0 0 1
-6.984105 23.381114 -17.127659 29.812932 -1.280526 2.182795 0.104998 -0.026297 460866.000000 0 0 1
-5.683605 23.919914 -17.359459 30.096785 -1.337513 2.185587 0.100662 -0.026034 108851.000000 0 0 1
-4.866105 23.654214 -16.203859 29.082054 -1.367908 2.161779 0.096869 -0.023932 836668.000000 0 0 1
-3.331605 23.838414 -16.353159 29.099749 -1.431938 2.167561 0.089562 -0.024596 654064.000000 0 0 1
-2.875705 25.184414 -16.424259 30.203985 -1.457103 2.145729 0.065494 -0.028923 -707684.000000 0 0 1
-1.534105 25.249314 -16.805959 30.369748 -1.510113 2.157211 0.064576 -0.036690 -265632.000000 0 0 1
-1.133005 26.722014 -17.063159 31.725402 -1.528422 2.138668 0.038321 -0.046832 141417.000000 0 0 1
-1.886505 27.349714 -18.094359 32.847703 -1.501928 2.154186 0.044041 -0.046555 -25942.300000 0 0 1
-1.274305 28.560114 -18.430759 34.014656 -1.526208 2.143430 0.057701 -0.048470 -197486.000000 0 0 1
-2.248205 29.530814 -19.203559 35.297310 -1.494812 2.146055 0.096752 -0.045739 826920.000000 0 0 1
-3.282905 30.158914 -18.448559 35.506153 -1.462370 2.117165 0.066064 -0.034294 241188.000000 0 0 1
-4.421505 29.324114 -18.240959 34.816461 -1.421143 2.122240 0.029029 -0.037070 1000790.000000 0 0 1
-5.620005 30.085714 -17.465759 35.239004 -1.386125 2.089365 0.074767 -0.023933 1376020.000000 0 0 1
-6.100705 31.219414 -18.203859 36.650388 -1.377814 2.090577 0.123812 -0.033246 -107636.000000 0 0 1
-5.759105 32.418614 -17.597259 37.333596 -1.394982 2.061619 0.113406 -0.058103 -399752.000000 0 0 1
-6.493805 33.683114 -18.071859 38.772591 -1.380342 2.055673 0.112749 -0.036110 -213063.000000 0 0 1
-7.880205 33.560114 -17.868059 38.828423 -1.340166 2.048994 0.131662 -0.057029 -277122.000000 0 0 1
-8.486105 -33.266182 -17.792159 38.667994 1.321026 2.048934 0.177911 -0.050437 111695.000000 0 0 1
30.053395 -20.358986 -25.875519 44.578440 -0.595415 2.190077 0.045904 0.003951 130504.000000 0 0 1
29.714395 -21.609986 -25.373499 44.651441 -0.628786 2.175183 0.049935 0.001803 571650.000000 0 0 1
28.329595 -21.868286 -25.680529 44.048580 -0.657385 2.193218 0.058933 -0.001315 1143670.000000 0 0 1
27.674795 -23.274286 -25.439089 44.212372 -0.699241 2.183870 0.060482 0.003901 261061.000000 0 0 1
28.093595 -24.365986 -26.227749 45.506550 -0.714461 2.185053 0.042155 0.018286 356019.000000 0 0 1
29.463995 -24.745686 -26.001179 46.438532 -0.698579 2.165068 0.047994 0.016126 819343.000000 0 0 1
29.713895 -26.159616 -26.524559 47.652841 -0.721871 2.161109 0.049050 0.004955 -37481.500000 0 0 1
29.250195 -27.178246 -25.636769 47.449708 -0.748696 2.141582 0.066831 -0.010089 -268535.000000 0 0 1
29.390395 -28.519566 -26.077559 48.551004 -0.770362 2.137812 0.046539 -0.007984 734284.000000 0 0 1
28.215995 -29.006406 -27.015539 48.655454 -0.799210 2.159450 0.065327 -0.007585 260568.000000 0 0 1
28.060295 -28.476186 -28.335019 49.001495 -0.792754 2.187376 0.038417 -0.014104 39088.400000 0 0 1
29.063595 -28.761556 -29.311919 50.310120 -0.780175 2.192751 0.021710 -0.015509 -116644.000000 0 0 1
29.359195 -30.217336 -29.737109 51.568840 -0.799801 2.185417 0.037848 -0.019221 -382398.000000 0 0 1
30.130795 -31.107416 -28.934819 52.084161 -0.801345 2.159808 0.048674 -0.014463 1623440.000000 0 0 1
31.498495 -30.774836 -28.552719 52.483363 -0.773778 2.146033 0.047781 -0.010154 1772720.000000 0 0 1
32.586895 -30.424376 -29.622679 53.526175 -0.751092 2.157266 0.043515 -0.005744 -22657.800000 0 0 1
32.357295 -29.157116 -30.168199 52.983508 -0.733422 2.176558 0.042586 -0.014627 22790.300000 0 0 1
33.478995 -28.875836 -30.978539 53.984505 -0.711710 2.181985 0.041082 -0.009125 143779.000000 0 0 1
33.403495 -27.463846 -31.577379 53.546121 -0.688123 2.201512 0.035385 0.002222 74485.700000 0 0 1
33.325995 -26.280786 -30.717759 52.391624 -0.667749 2.197293 0.025174 0.005230 -461241.000000 0 0 1
32.038695 -25.992996 -30.252599 51.159882 -0.681593 2.203509 0.021898 0.002534 -329278.000000 0 0 1
31.994195 -24.601986 -29.550629 50.021254 -0.655520 2.202799 0.020755 0.003633 -125019.000000 0 0 1
32.815495 -24.429386 -28.400739 49.802144 -0.639937 2.177633 0.018720 0.005317 245131.000000 0 0 1
32.704895 -23.167186 -27.776839 48.763525 -0.616322 2.176844 0.013133 0.007260 77545.800000 0 0 1
33.747095 -22.895786 -26.647729 48.715345 -0.596117 2.149583 0.009277 0.006501 58392.100000 0 0 1
33.568295 -23.721486 -25.553319 48.399498 -0.615184 2.127001 0.015944 -0.004054 96575.800000 0 0 1
32.924395 -23.204486 -24.381159 47.084019 -0.613927 2.115100 0.035063 0.003579 -32859.500000 0 0 1
33.452595 -21.962986 -23.606159 46.461807 -0.580959 2.103747 0.026214 0.005933 -200180.000000 0 0 1
33.432495 -20.825086 -24.451759 46.360591 -0.557087 2.126364 0.022922 -0.000647 -17040.000000 0 0 1
33.623595 -19.733286 -23.565059 45.555029 -0.530723 2.114475 0.007513 -0.008625 -101577.000000 0 0 1
33.660195 -18.352486 -24.350559 45.417751 -0.499172 2.136661 -0.003759 -0.011900 1176520.000000 0 0 1
32.406595 -17.998686 -25.019389 44.722588 -0.506981 2.164501 0.011627 -0.009009 1394430.000000 0 0 1
32.559095 -16.917586 -25.900449 44.912499 -0.479201 2.185464 0.013999 -0.008564 19106.200000 0 0 1
31.524295 -16.943186 -27.076629 44.877572 -0.493168 2.218484 0.006569 0.001370 -355973.000000 0 0 1
30.226395 -16.773786 -26.603639 43.620504 -0.506627 2.226716 0.021848 0.004843 73368.300000 0 0 1
29.296795 -16.639386 -27.716289 43.627560 -0.516527 2.259184 0.021317 -0.004255 223515.000000 0 0 1
27.903895 -16.130686 -27.364079 42.280245 -0.524146 2.274711 0.032067 0.000921 -278741.000000 0 0 1
27.016695 -16.914286 -26.622849 41.530361 -0.559367 2.266656 0.058067 0.009300 80564.800000 0 0 1
27.232795 -16.759386 -25.247409 40.742285 -0.551675 2.239138 0.079316 0.006780 -184126.000000 0 0 1
26.681095 -17.892086 -24.373959 40.324898 -0.590714 2.219858 0.088727 0.006125 29447.000000 0 0 1
26.494995 -17.595386 -23.055859 39.283011 -0.586225 2.198042 0.100591 0.002327 140160.000000 0 0 1
26.022395 -18.652886 -22.198859 38.960037 -0.621913 2.177041 0.101325 -0.000901 68542.300000 0 0 1
26.173495 -18.146886 -20.730759 38.001653 -0.606236 2.147809 0.099689 -0.001525 -294238.000000 0 0 1
25.332195 -17.107686 -20.352159 36.723335 -0.593979 2.158201 0.123310 -0.002587 -350757.000000 0 0 1
25.387695 -15.834686 -20.997559 36.553656 -0.557675 2.182705 0.108154 0.000467 44098.300000 0 0 1
26.587395 -14.899586 -20.664559 36.822699 -0.510793 2.166620 0.079578 -0.006105 254397.000000 0 0 1
26.485795 -14.368986 -19.349459 35.810147 -0.497080 2.141631 0.080621 -0.017942 628797.000000 0 0 1
27.619095 -13.544586 -19.064259 36.190001 -0.455943 2.125607 0.058875 -0.017701 246509.000000 0 0 1
27.409595 -12.643286 -17.854759 35.070371 -0.432188 2.104949 0.064797 -0.019384 -230379.000000 0 0 1
27.493395 -13.243886 -16.574459 34.727510 -0.448910 2.068344 0.051727 -0.008965 173272.000000 0 0 1
27.470595 -12.273786 -15.584059 33.884248 -0.420187 2.048702 0.041599 -0.005632 -41694.300000 0 0 1
28.123395 -12.754086 -14.289059 34.026008 -0.425764 2.004181 0.064627 -0.013489 -372103.000000 0 0 1
27.469595 -13.908586 -13.783159 33.734298 -0.468696 1.991694 0.081227 -0.014873 464407.000000 0 0 1
28.038395 -14.225786 -12.524259 33.843487 -0.469525 1.949874 0.094195 -0.021475 -125045.000000 0 0 1
27.494395 -15.519286 -11.885459 33.735057 -0.513872 1.930843 0.086364 -0.030705 255336.000000 0 0 1
26.204795 -15.284886 -11.331459 32.383961 -0.528039 1.928271 0.075984 -0.025687 376881.000000 0 0 1
25.641095 -16.438686 -10.760359 32.302963 -0.570098 1.910394 0.071177 -0.017990 -1230100.000000 0 0 1
24.171995 -16.291686 -10.500859 30.983421 -0.593056 1.916564 0.087430 -0.022713 -1291160.000000 0 0 1
23.857795 -15.640286 -9.270559 29.995936 -0.580276 1.885001 0.070336 -0.020880 74431.000000 0 0 1
22.496595 -15.775786 -8.970159 28.903908 -0.611566 1.886351 0.082124 -0.021532 -637437.000000 0 0 1
21.994395 -15.506986 -7.563459 27.953996 -0.614102 1.844779 0.068966 -0.013078 -464681.000000 0 0 1
22.196395 -14.173586 -7.112059 27.279147 -0.568286 1.834558 0.071464 -0.009110 345751.000000 0 0 1
21.994095 -13.811486 -5.740859 26.598022 -0.560727 1.788346 0.061687 -0.009875 -665625.000000 0 0 1
22.874695 -14.474286 -4.671759 27.469655 -0.564163 1.741697 0.061012 -0.010739 -483168.000000 0 0 1
24.233995 -14.182686 -4.878959 28.499812 -0.529495 1.742836 0.066308 -0.008126 413615.000000 0 0 1
25.091095 -15.035386 -4.075459 29.533629 -0.539855 1.709232 0.060027 -0.013413 364780.000000 0 0 1
26.579595 -14.647586 -4.159959 30.632203 -0.503675 1.707021 0.064302 -0.014320 -213484.000000 0 0 1
26.993995 -13.454586 -3.549259 30.369374 -0.462390 1.687934 0.067534 -0.012573 1638450.000000 0 0 1
28.337695 -13.096686 -4.029459 31.476732 -0.432924 1.699162 0.075241 -0.020823 1469410.000000 0 0 1
28.947595 -11.891486 -3.272459 31.465531 -0.389776 1.674986 0.120050 -0.033571 -516795.000000 0 0 1
29.628495 -12.206286 -2.032659 32.108765 -0.390789 1.634144 0.134440 -0.040220 734467.000000 0 0 1
30.178395 -11.131786 -1.275559 32.191291 -0.353382 1.610431 0.140272 -0.035922 -188297.000000 0 0 1
31.536795 -10.646286 -1.787159 33.333268 -0.325570 1.624437 0.140395 -0.037303 -739579.000000 0 0 1
31.401795 -9.958586 -2.997859 33.079197 -0.307101 1.661548 0.134631 -0.038820 -27004.100000 0 0 1
32.569095 -10.171386 -3.734259 34.324156 -0.302704 1.679806 0.168179 -0.044609 -438446.000000 0 0 1
32.491195 -9.840386 -5.251359 34.352404 -0.294081 1.724265 0.160872 -0.046046 79271.900000 0 0 1
31.599495 -10.755186 -5.895159 33.896238 -0.328061 1.745603 0.135917 -0.047536 581351.000000 0 0 1
31.591395 -10.661386 -7.326359 34.137324 -0.325476 1.787093 0.122750 -0.036142 29366.800000 0 0 1
30.337095 -11.426986 -7.806159 33.344436 -0.360231 1.807096 0.099267 -0.033648 -40644.600000 0 0 1
30.513895 -12.838586 -7.806459 34.012760 -0.398262 1.802376 0.088824 -0.031258 681765.000000 0 0 1
29.355995 -13.667286 -8.076459 33.373617 -0.435727 1.815224 0.083981 -0.027511 576712.000000 0 0 1
29.553995 -15.214286 -7.996559 34.188566 -0.475414 1.806879 0.082813 -0.022670 -146183.000000 0 0 1
30.383295 -15.571186 -9.090759 35.330558 -0.473591 1.831029 0.095156 -0.032603 391358.000000 0 0 1
30.478795 -17.017886 -9.063659 36.065430 -0.509233 1.824831 0.083591 -0.026790 -119602.000000 0 0 1
30.685695 -17.682886 -10.476259 36.933024 -0.522779 1.858400 0.070417 -0.032389 368141.000000 0 0 1
31.904895 -17.337986 -11.166259 37.989648 -0.497783 1.869131 0.067044 -0.028312 1005750.000000 0 0 1
31.969095 -17.876786 -12.470559 38.692600 -0.509871 1.898953 0.060895 -0.019012 -89662.500000 0 0 1
31.225595 -17.047986 -13.567459 38.075550 -0.499738 1.935133 0.066275 -0.023908 43501.300000 0 0 1
31.849495 -15.857486 -13.909959 38.201271 -0.461957 1.943487 0.051956 -0.025919 -272270.000000 0 0 1
31.083895 -15.269986 -14.860859 37.685887 -0.456624 1.976140 0.056858 -0.026401 -990662.000000 0 0 1
31.817195 -14.026586 -15.389559 38.025222 -0.415218 1.987469 0.054111 -0.020515 1087760.000000 0 0 1
32.948995 -14.164386 -16.268859 39.381999 -0.406004 1.996656 0.027175 -0.020977 1607780.000000 0 0 1
34.135995 -14.800686 -15.795559 40.420615 -0.409116 1.972275 0.043987 -0.021862 469132.000000 0 0 1
35.279195 -15.064286 -16.842359 41.895338 -0.403565 1.984508 0.043408 -0.023626 1251650.000000 0 0 1
36.496495 -15.605586 -16.287259 42.904583 -0.404063 1.960177 0.043554 -0.023305 961045.000000 0 0 1
-36.463499 -16.000486 -17.277559 43.406409 0.413508 1.980177 0.037909 -0.023733 -1051180.000000 0 0 1
-35.019799 -15.915086 -16.897059 42.014127 0.426556 1.984688 0.043991 -0.016813 -1233330.000000 0 0 1
-34.691099 -16.878486 -15.856159 41.710591 0.452819 1.960752 0.031314 -0.016153 97966.800000 0 0 1
-35.047399 -16.431086 -14.567159 41.358226 0.438398 1.930737 0.023048 -0.012325 -599181.000000 0 0 1
-34.440099 -17.294986 -13.467259 40.824062 0.465387 1.906978 0.025083 -0.009351 1063730.000000 0 0 1
-33.033699 -17.149086 -13.144759 39.472789 0.478841 1.910288 0.057800 -0.007505 1348550.000000 0 0 1
-32.860399 -17.473886 -11.790159 39.040368 0.488733 1.877585 0.079385 0.001734 -269570.000000 0 0 1
-31.541899 -16.951386 -11.216959 37.524139 0.493137 1.874364 0.110794 0.000139 -337642.000000 0 0 1
-31.577399 -15.530886 -11.085959 36.894973 0.457095 1.875985 0.093493 -0.017994 936958.000000 0 0 1
-30.458499 -15.151486 -10.244259 35.527912 0.461603 1.863293 0.129404 -0.031520 684466.000000 0 0 1
-30.541599 -15.462186 -8.710759 35.323445 0.468648 1.819967 0.130885 -0.023785 -242220.000000 0 0 1
-30.340099 -16.828686 -8.398659 35.696831 0.506420 1.808300 0.102999 -0.016204 -52546.100000 0 0 1
-30.252199 -17.126686 -7.020159 35.465498 0.515143 1.770056 0.135440 -0.025683 -3778.580000 0 0 1
-30.444499 -18.665886 -6.701859 36.334525 0.550005 1.756307 0.106640 -0.033905 379943.000000 0 0 1
-31.701799 -19.214586 -7.077259 37.739793 0.544896 1.759441 0.069214 -0.023292 -169388.000000 0 0 1
-31.637699 -19.858886 -8.331359 38.271803 0.560536 1.790243 0.068887 -0.011406 218506.000000 0 0 1
-32.882899 -20.651486 -8.866959 39.829535 0.560776 1.795300 0.051106 -0.015933 908408.000000 0 0 1
-33.962799 -19.765486 -9.263759 40.372805 0.527060 1.802314 0.040269 -0.018912 70065.700000 0 0 1
-34.891299 -20.554386 -9.928259 41.694794 0.532365 1.811223 0.019766 -0.013746 -209596.000000 0 0 1
-36.222799 -19.801986 -10.232159 42.531246 0.500284 1.813759 0.019599 -0.022483 259506.000000 0 0 1
-36.470999 -19.634186 -11.614759 43.017876 0.493855 1.844188 0.011698 -0.019563 -54012.100000 0 0 1
36.134995 -19.099186 -11.753459 42.528350 -0.486227 1.850809 0.033388 -0.033545 -330155.000000 0 0 1
35.776395 -18.877386 -13.235359 42.561495 -0.485522 1.887010 0.017924 -0.030860 -157601.000000 0 0 1
35.308495 -20.125786 -13.761059 42.908085 -0.518067 1.897275 0.017372 -0.025568 138729.000000 0 0 1
34.948295 -19.921086 -15.118259 42.974349 -0.518081 1.930287 0.018195 -0.024879 -25148.200000 0 0 1
33.645395 -20.637986 -15.553759 42.424738 -0.550212 1.946170 0.030488 -0.031250 40504.500000 0 0 1
32.537895 -20.157286 -14.802859 41.038462 -0.554636 1.939822 0.045656 -0.027339 862483.000000 0 0 1
31.302895 -20.855686 -15.065859 40.519266 -0.587717 1.951765 0.065080 -0.029913 1090090.000000 0 0 1
30.424695 -20.353186 -16.275859 40.060177 -0.589595 1.989181 0.067888 -0.024903 -314709.000000 0 0 1
29.934795 -19.032386 -16.135959 38.970409 -0.566324 1.997703 0.053994 -0.015983 -136938.000000 0 0 1
29.052195 -18.788386 -17.173859 38.626090 -0.574060 2.031544 0.056163 -0.012700 -989508.000000 0 0 1
28.217095 -17.570086 -17.055459 37.360420 -0.556926 2.044867 0.069282 -0.001364 -925070.000000 0 0 1
27.188895 -17.722286 -16.131559 36.242828 -0.577654 2.032078 0.087062 -0.013471 61896.500000 0 0 1
26.378395 -16.527586 -16.149259 35.068210 -0.559719 2.049366 0.064450 -0.009295 -1407970.000000 0 0 1
25.055495 -16.505686 -15.357259 33.705502 -0.582512 2.043877 0.061263 -0.006837 -25901.800000 0 0 1
24.010195 -17.164786 -16.033559 33.588604 -0.620653 2.068434 0.072675 -0.002781 -2943.180000 0 0 1
23.579295 -16.546086 -17.204359 33.552139 -0.611880 2.109199 0.084100 -0.000503 -1014510.000000 0 0 1
22.500395 -17.379586 -18.001559 33.650763 -0.657691 2.135248 0.097604 -0.004144 322661.000000 0 0 1
21.199895 -17.458786 -17.511159 32.571236 -0.688926 2.138416 0.089224 -0.000620 -825932.000000 0 0 1
20.381995 -18.124286 -18.421959 32.913280 -0.726833 2.164835 0.090713 -0.017450 151256.000000 0 0 1
18.930195 -18.336086 -17.930659 31.875897 -0.769457 2.168220 0.092504 -0.011731 210145.000000 0 0 1
18.147395 -17.188486 -17.714159 30.635982 -0.758268 2.187334 0.099380 -0.012610 -3104.630000 0 0 1
16.869395 -17.513386 -17.219459 29.796055 -0.804126 2.186963 0.096370 -0.026128 323659.000000 0 0 1
15.829695 -16.371486 -17.060759 28.454776 -0.802222 2.213766 0.090561 -0.016382 336884.000000 0 0 1
15.054995 -16.018886 -18.236459 28.562668 -0.816408 2.263307 0.079732 -0.002617 269449.000000 0 0 1
14.154795 -15.010686 -17.814059 27.258385 -0.814736 2.283030 0.073131 -0.010005 -160862.000000 0 0 1
13.209195 -14.661086 -18.964659 27.369482 -0.837446 2.336317 0.067380 -0.020084 -255363.000000 0 0 1
13.698995 -13.602586 -19.751159 27.618853 -0.781867 2.367611 0.069890 -0.024983 185046.000000 0 0 1
12.934295 -13.471686 -20.932559 28.052706 -0.805746 2.413112 0.054755 -0.010329 83014.700000 0 0 1
13.082995 -12.046086 -21.529759 27.924961 -0.744158 2.451185 0.059696 -0.016439 -526310.000000 0 0 1
14.353895 -11.702186 -21.995859 28.754012 -0.683978 2.441786 0.057009 -0.011802 -617123.000000 0 0 1
14.384195 -10.331086 -22.361759 28.525158 -0.622853 2.471769 0.048583 -0.015512 581319.000000 0 0 1
15.821095 -9.900086 -22.803159 29.466978 -0.559140 2.455701 0.066019 -0.010519 566092.000000 0 0 1
16.167695 -10.107886 -24.152159 30.771585 -0.558736 2.473307 0.078884 -0.002465 -172634.000000 0 0 1
17.435295 -9.556386 -24.384159 31.462695 -0.501388 2.457540 0.090928 -0.012667 -585571.000000 0 0 1
22.252995 5.554114 -7.121059 24.015691 0.244592 1.871840 0.148743 0.015899 -84513.500000 0 1 0
22.095995 6.940714 -7.147659 24.238307 0.304357 1.870138 0.141753 0.002961 517135.000000 0 1 0
21.092895 7.270114 -6.209459 23.158630 0.331920 1.842245 0.125253 0.000710 -99215.500000 0 1 0
20.838295 8.833914 -6.129959 23.448858 0.400961 1.835288 0.101688 0.003087 -775353.000000 0 1 0
19.873295 9.426314 -6.942559 23.065176 0.442894 1.876535 0.038250 -0.005271 146292.000000 0 1 0
19.974495 10.847714 -7.087159 23.809266 0.497514 1.873041 0.080769 0.001291 45534.900000 0 1 0
19.737895 11.740714 -5.789659 23.684362 0.536610 1.817749 0.113658 0.004940 386224.000000 0 1 0
20.893095 11.756814 -4.965159 24.482583 0.512551 1.775017 0.128258 0.009560 403738.000000 0 1 0
20.647095 12.696414 -3.937459 24.556161 0.551322 1.731837 0.154321 -0.007591 499342.000000 0 1 0
21.664695 12.585614 -2.765159 25.207197 0.526277 1.680715 0.140843 -0.029579 546670.000000 0 0 1
22.978495 13.103614 -2.978259 26.619278 0.518261 1.682915 0.128112 -0.033746 1295660.000000 0 0 1
23.746495 13.231114 -1.746759 27.239853 0.508340 1.634965 0.122379 -0.035921 588405.000000 0 0 1
24.655995 11.997614 -1.398459 27.455719 0.452871 1.621753 0.115018 -0.037800 353354.000000 0 0 1
25.848095 11.770814 -2.201759 28.487257 0.427322 1.648163 0.096723 -0.029339 1306410.000000 0 0 1
26.486295 10.577914 -1.752559 28.574246 0.379966 1.632168 0.120286 -0.033085 320000.000000 0 0 1
27.975395 10.344914 -2.132259 29.902951 0.354192 1.642163 0.131858 -0.037651 630809.000000 0 0 1
28.791295 11.482614 -1.782259 31.047794 0.379491 1.628232 0.106151 -0.044944 -312378.000000 0 0 1
30.139595 11.160514 -1.890559 32.195131 0.354639 1.629552 0.099890 -0.036024 -850849.000000 0 0 1
31.074595 12.259314 -1.404359 33.434914 0.375767 1.612811 0.075380 -0.029739 -759018.000000 0 0 1
31.199395 12.432014 0.025741 33.585084 0.379186 1.570030 0.101448 -0.036438 237660.000000 0 0 1
32.103495 13.446914 0.422241 34.808507 0.396660 1.558666 0.076633 -0.023701 657174.000000 0 0 1
33.616095 13.023014 0.368341 36.052412 0.369601 1.560579 0.075041 -0.026195 -36772.300000 0 0 1
34.519295 14.039514 0.676141 37.271260 0.386282 1.552654 0.067870 -0.027605 203746.000000 0 0 1
35.355295 14.457314 -0.421159 38.199322 0.388168 1.581822 0.093359 -0.023285 -310185.000000 0 0 1
34.681595 15.443014 -1.337059 37.987991 0.418922 1.606000 0.063177 -0.007742 -141118.000000 0 0 1
33.598495 14.836214 -2.035559 36.784720 0.415825 1.626162 0.074956 -0.004394 -5869.970000 0 0 1
32.986595 15.789914 -2.878059 36.684057 0.446444 1.649332 0.064924 0.009689 -250417.000000 0 0 1
31.662895 15.356914 -3.517159 35.365861 0.451586 1.670412 0.060759 -0.006326 -946775.000000 0 0 1
31.693195 14.338514 -4.474759 35.072426 0.424861 1.698731 0.066846 -0.005777 504929.000000 0 0 1
30.655195 14.433114 -5.470359 34.321722 0.440033 1.730864 0.065978 -0.015901 1201170.000000 0 0 1
29.222695 14.009114 -4.976759 32.787029 0.447025 1.723176 0.064489 -0.024275 -80565.000000 0 0 1
28.275395 13.886114 -6.004159 32.068240 0.456504 1.759139 0.086181 -0.035940 134203.000000 0 0 1
27.083695 13.355814 -5.437159 30.683334 0.458137 1.748939 0.090489 -0.026596 -208248.000000 0 0 1
26.022995 12.964114 -6.456959 29.781820 0.462190 1.789341 0.078706 -0.025692 -483239.000000 0 0 1
26.475295 12.004214 -7.471359 30.014390 0.425688 1.822367 0.070009 -0.017741 592052.000000 0 0 1
25.414495 11.607814 -8.338459 29.157637 0.428445 1.860824 0.090608 -0.014612 103415.000000 0 0 1
24.995295 12.679414 -9.332359 29.540231 0.469448 1.892223 0.097755 -0.005376 85677.100000 0 0 1
24.213795 13.757014 -8.785359 29.201812 0.516669 1.876380 0.093247 -0.016229 451020.000000 0 0 1
24.025795 14.805414 -9.692859 29.839414 0.552268 1.901633 0.094370 -0.025277 -867613.000000 0 0 1
23.165195 15.995314 -9.198659 29.615733 0.604314 1.886621 0.088751 -0.025232 680466.000000 0 0 1
21.762895 15.771614 -9.086659 28.371372 0.627113 1.896817 0.102549 -0.028616 781758.000000 0 0 1
21.295595 15.059714 -7.942759 27.265083 0.615525 1.866399 0.114246 -0.030894 261716.000000 0 0 1
19.803995 14.600514 -8.151359 25.919450 0.635292 1.890714 0.138739 -0.021796 493993.000000 0 0 1
19.033195 14.853914 -7.000759 25.137858 0.662688 1.853023 0.180983 -0.055087 -628751.000000 0 0 1
17.698995 14.731814 -7.419059 24.193454 0.694160 1.882474 0.176402 -0.054538 -731483.000000 0 1 0
16.744895 15.097914 -6.263459 23.400202 0.733722 1.841767 0.170005 -0.034871 -296130.000000 0 1 0
16.622095 14.043314 -5.317359 22.400514 0.701501 1.810461 0.135611 -0.040877 199078.000000 0 1 0
16.132495 14.606614 -4.124859 22.150057 0.735799 1.758113 0.127215 -0.037909 -187883.000000 0 1 0
16.037795 13.542114 -3.047059 21.210476 0.701227 1.714953 0.109243 -0.028488 733727.000000 0 1 0
17.336395 13.117614 -2.571959 21.891491 0.647745 1.688555 0.115847 -0.022709 1292800.000000 0 1 0
17.353595 12.454714 -1.350559 21.403065 0.622508 1.633939 0.115577 -0.022867 -172084.000000 0 1 0
17.211995 13.281514 -0.058959 21.740627 0.657209 1.573508 0.119151 -0.026743 -726019.000000 0 1 0
15.990795 13.943914 0.016141 21.216468 0.717126 1.570036 0.103107 -0.036472 896.419000 0 1 0
16.007695 14.828314 1.137641 21.849930 0.747170 1.518707 0.090731 -0.028920 -922441.000000 0 1 0
14.773795 15.682814 1.215741 21.579938 0.815236 1.514430 0.085488 -0.028165 -1136860.000000 0 1 0
14.756495 16.740714 0.365741 22.319037 0.848312 1.554409 0.100683 -0.027186 275677.000000 0 1 0
13.732195 17.642514 0.722941 22.368597 0.909392 1.538471 0.077801 -0.031032 -292579.000000 0 1 0
13.798795 19.056014 0.061841 23.527479 0.944067 1.568168 0.078672 -0.035083 -243711.000000 0 1 0
13.269795 19.024614 -1.242659 23.228595 0.961746 1.624319 0.076603 -0.047970 349533.000000 0 1 0
12.561595 20.238714 -1.533059 23.869426 1.015316 1.635067 0.072778 -0.043595 1764700.000000 0 1 0
10.989695 20.326514 -1.270759 23.142070 1.075154 1.625735 0.061285 -0.043209 1489780.000000 0 1 0
10.575295 20.307014 0.096041 22.895871 1.090671 1.566602 0.050053 -0.050507 -101017.000000 0 1 0
9.169395 20.390114 0.072241 22.357097 1.148194 1.567565 0.046641 -0.039758 335855.000000 0 1 0
8.455095 20.462214 1.485641 22.190042 1.178958 1.503795 0.031006 -0.035326 236812.000000 0 1 0
8.379495 21.783014 1.992041 23.424002 1.203566 1.485651 0.028056 -0.028383 474195.000000 0 1 0
7.452895 21.944014 3.070541 23.377631 1.243388 1.439070 0.026168 -0.023811 319109.000000 0 1 0
7.032795 23.345814 3.460141 24.626405 1.278198 1.429825 0.020790 -0.019032 -89135.800000 0 1 0
7.768195 23.778314 4.550941 25.425659 1.255034 1.390836 0.015482 -0.023283 -119218.000000 0 0 1
7.372095 25.011714 4.982241 26.547248 1.284167 1.382002 0.011026 -0.015932 -95220.500000 0 0 1
7.867795 25.259114 6.461241 27.233668 1.268838 1.331260 0.016313 -0.021243 129923.000000 0 0 1
7.296195 24.323114 7.343841 26.434454 1.279367 1.289279 0.026232 -0.018300 89712.500000 0 0 1
7.887795 24.483914 8.601341 27.123098 1.259133 1.248103 0.033265 -0.013964 160500.000000 0 0 1
7.245295 23.578114 9.739841 26.519545 1.272666 1.194724 0.037060 -0.013609 474430.000000 0 0 1
5.958295 23.898514 10.252641 26.678773 1.326461 1.176347 0.040292 -0.015090 328864.000000 0 0 1
5.506795 22.823014 11.070441 25.957069 1.334039 1.130187 0.041574 -0.016475 -543109.000000 0 0 1
4.200595 23.147414 11.763241 26.302503 1.391278 1.107132 0.052378 -0.019496 -394354.000000 0 0 1
3.053495 23.061014 10.933941 25.703799 1.439153 1.131412 0.043646 -0.016785 239770.000000 0 0 1
1.879895 23.178614 11.734841 26.047815 1.489869 1.103458 0.044597 -0.020889 169119.000000 0 0 1
0.639695 23.520814 10.886141 25.925779 1.543606 1.137465 0.055323 -0.013176 -277762.000000 0 0 1
0.751295 24.840014 10.346541 26.919169 1.540560 1.176286 0.055990 -0.010525 172245.000000 0 0 1
-0.145005 25.103114 9.272641 26.761339 -1.565020 1.216965 0.051179 -0.018342 457268.000000 0 0 1
-1.512705 25.735514 9.658241 27.529740 -1.512085 1.212340 0.053960 -0.028998 106355.000000 0 0 1
-2.397505 24.822814 10.301041 26.982061 -1.474510 1.179082 0.041499 -0.027395 60145.700000 0 0 1
-3.687505 25.393214 10.098641 27.575271 -1.426588 1.195852 0.045466 -0.026644 -278612.000000 0 0 1
-4.823705 24.420014 10.513341 27.021021 -1.375776 1.171164 0.046314 -0.027666 -49260.100000 0 0 1
-5.239005 24.498314 11.870541 27.722272 -1.360118 1.128302 0.039830 -0.018110 -49581.700000 0 0 1
-6.043405 25.565514 12.232841 28.978625 -1.338669 1.134999 0.042048 -0.017153 -591071.000000 0 0 1
-6.639505 25.537614 13.667141 29.716049 -1.316438 1.092886 0.031060 -0.015644 239359.000000 0 0 1
-7.680605 24.576114 13.856141 29.239866 -1.267890 1.077106 0.028554 -0.020143 284977.000000 0 0 1
-8.130605 24.652214 15.202641 30.082532 -1.252218 1.040992 0.020123 0.001731 -74237.700000 0 0 1
-9.475505 23.957414 15.441441 30.036328 -1.194163 1.030847 0.014447 -0.006980 -317030.000000 0 0 1
-10.645905 24.652614 15.097241 30.806061 -1.163149 1.058622 0.020436 -0.003420 -459095.000000 0 0 1
-11.735605 23.774514 15.249841 30.586102 -1.112265 1.048828 0.011664 -0.002803 -172623.000000 0 0 1
-13.086705 24.519814 15.139541 31.649469 -1.080538 1.072021 0.012513 -0.006643 -284407.000000 0 0 1
-13.401905 25.252014 16.313841 32.915296 -1.082871 1.052235 0.012929 -0.006496 -210053.000000 0 0 1
-14.277405 26.277514 15.959741 33.897867 -1.073087 1.080578 0.006577 0.001394 -705510.000000 0 0 1
-14.834505 27.131514 17.161741 35.365336 -1.070442 1.064124 0.022440 0.002096 -284764.000000 0 0 1
-15.939305 26.490014 17.717341 35.632661 -1.029120 1.050402 0.025367 -0.004416 -266457.000000 0 0 1
-16.610605 27.295714 18.708041 37.026464 -1.024119 1.041112 0.043553 -0.017906 972412.000000 0 0 1
-18.011705 26.718314 19.125741 37.471107 -0.977642 1.035131 0.048156 -0.022419 1125930.000000 0 0 1
-19.082105 27.074514 18.250341 37.818396 -0.956856 1.067200 0.050330 -0.020302 167815.000000 0 0 1
-20.313205 26.622714 18.761241 38.384625 -0.919025 1.060117 0.078515 -0.011513 -289787.000000 0 0 1
-21.530405 26.897614 17.878141 38.815821 -0.895776 1.092138 0.059487 -0.017124 -659198.000000 0 0 1
-21.944005 28.232014 17.952741 40.011085 -0.910067 1.105493 0.059590 -0.020194 395503.000000 0 0 1
-22.652805 28.632314 16.773941 40.178653 -0.901468 1.140122 0.046499 -0.012862 -483593.000000 0 0 1
-23.726205 29.669014 16.993041 41.616664 -0.896241 1.150180 0.043650 -0.025825 -1014920.000000 0 0 1
-24.950005 29.193214 17.463141 42.186584 -0.863608 1.144007 0.066122 -0.022481 -216559.000000 0 0 1
-25.846545 30.303214 17.616841 43.550911 -0.864603 1.154352 0.067006 -0.026408 88576.800000 0 0 1
-27.195275 29.833314 18.191641 44.278047 -0.831623 1.147410 0.085912 -0.021377 -281575.000000 0 0 1
-28.074225 29.165114 17.263241 44.008926 -0.804454 1.167702 0.099595 -0.012496 1295350.000000 0 0 1
-29.445525 29.051314 17.705941 44.994646 -0.778659 1.166347 0.120415 -0.007783 1235350.000000 0 0 1
-29.725075 28.132314 18.928141 45.091926 -0.757876 1.137607 0.106178 -0.009513 -700184.000000 0 0 1
-29.677625 26.781014 18.574341 44.079364 -0.734138 1.135825 0.091522 -0.004605 194845.000000 0 0 1
-30.325295 26.031414 19.579041 44.503898 -0.709354 1.115265 0.083503 -0.006179 -31745.800000 0 0 1
-30.362995 24.569714 19.118941 43.486967 -0.680325 1.115590 0.081294 -0.009942 1193490.000000 0 0 1
-31.306845 24.331114 17.982141 43.537100 -0.660672 1.145017 0.097463 -0.010745 1076780.000000 0 0 1
-30.833685 23.280514 17.210241 42.295282 -0.646716 1.151731 0.096316 -0.010551 -147227.000000 0 0 1
-31.117915 21.818514 17.628141 41.894195 -0.611501 1.136494 0.094560 -0.008172 290118.000000 0 0 1
-32.504665 21.519014 17.540341 42.746752 -0.584785 1.147979 0.108421 -0.011521 286976.000000 0 0 1
-32.622175 20.131514 17.367741 42.084708 -0.552906 1.145396 0.088069 -0.015554 7413.960000 0 0 1
-33.986695 19.646614 16.841341 42.716691 -0.524137 1.165537 0.095957 -0.026261 -28473.700000 0 0 1
-34.266340 19.948014 15.466941 42.559742 -0.527188 1.198863 0.084676 -0.025780 3088.160000 0 0 1
-35.285840 19.145814 14.915841 42.826803 -0.497138 1.215058 0.101734 -0.040024 -80342.700000 0 0 1
-35.549402 19.514114 13.451941 42.726051 -0.502021 1.250506 0.108259 -0.028773 180328.000000 0 0 1
-36.111895 20.811514 13.208641 43.722492 -0.522815 1.263900 0.094193 -0.037819 -102658.000000 0 0 1
-36.639075 21.080414 11.942541 43.925278 -0.522100 1.295447 0.075373 -0.014512 -346918.000000 0 0 1
-35.679710 21.145214 10.757841 42.847322 -0.534990 1.317007 0.091476 -0.024637 -386119.000000 0 0 1
-35.163525 19.896314 10.408241 41.721317 -0.514910 1.318663 0.084241 -0.024113 -34381.700000 0 0 1
-34.025255 19.964414 9.567341 40.593471 -0.530622 1.332871 0.108768 -0.022837 172809.000000 0 0 1
-32.970955 18.967614 10.171341 39.373982 -0.522047 1.309507 0.104903 -0.024195 -217598.000000 0 0 1
-32.598195 19.284514 11.477141 39.575998 -0.534207 1.276567 0.119921 -0.039383 63968.100000 0 0 1
-31.739745 18.284114 11.971041 38.536036 -0.522633 1.254924 0.114694 -0.041449 6088.380000 0 0 1
-31.343125 18.410414 13.471841 38.766292 -0.531091 1.215877 0.097024 -0.023626 248871.000000 0 0 1
-30.257945 19.287514 13.764041 38.431762 -0.567492 1.204519 0.097133 -0.020340 -92775.500000 0 0 1
-30.552775 20.604714 13.839641 39.364477 -0.593336 1.211541 0.096798 -0.018521 -114973.000000 0 0 1
-29.270535 21.459414 13.937141 38.878202 -0.632623 1.204155 0.098945 -0.018133 -10892.000000 0 0 1
-28.669305 21.258114 15.175241 38.783043 -0.638035 1.168768 0.093230 -0.015631 -820561.000000 0 0 1
-27.546985 22.058014 15.319841 38.471937 -0.675193 1.161234 0.101632 -0.011126 -666058.000000 0 0 1
-26.862535 21.989814 16.683741 38.516165 -0.685983 1.122798 0.087201 -0.004632 -140769.000000 0 0 1
-26.060585 20.823314 16.855841 37.374910 -0.674152 1.102918 0.092779 -0.011474 167843.000000 0 0 1
-25.699255 20.756714 18.219941 37.726107 -0.679405 1.066772 0.075602 0.002353 -219682.000000 0 0 1
-24.775605 19.560514 18.397041 36.536221 -0.668310 1.043118 0.084695 -0.007777 -238203.000000 0 0 1
-24.017205 19.471814 19.557541 36.585176 -0.681258 1.006791 0.085695 -0.008898 390977.000000 0 0 1
-22.983605 18.482314 19.424441 35.315025 -0.677268 0.988392 0.076751 -0.008486 963929.000000 0 0 1
-22.098805 18.279114 20.749341 35.398000 -0.691080 0.944470 0.083496 -0.006453 333278.000000 0 0 1
-22.660905 17.437914 21.742341 35.921121 -0.655874 0.920679 0.107059 -0.002248 711517.000000 0 0 1
-23.739005 18.036714 22.500741 37.351664 -0.649739 0.924289 0.078906 -0.017090 370618.000000 0 0 1
-24.420105 16.987114 23.391041 37.842363 -0.607780 0.904450 0.079117 -0.017252 81085.300000 0 0 1
-23.644705 16.553614 24.535041 37.882219 -0.610792 0.866279 0.089054 -0.026695 639812.000000 0 0 1
-24.430305 15.689614 25.364641 38.553455 -0.570886 0.852758 0.087748 -0.022279 257312.000000 0 0 1
20.688795 24.372714 33.697070 46.449413 0.866970 0.759098 0.056606 -0.011916 97767.600000 0 0 1
21.773995 23.743314 32.997883 46.116289 0.828636 0.773405 0.062315 -0.017539 312140.000000 0 0 1
21.953595 22.377514 33.318706 45.747674 0.794960 0.754937 0.064719 -0.012675 -98540.500000 0 0 1
20.932495 21.301514 32.839417 44.388638 0.794135 0.738000 0.048365 -0.009547 -180883.000000 0 0 1
21.031395 20.961814 31.451711 43.254218 0.783741 0.756655 0.059389 -0.010800 270813.000000 0 0 1
20.158395 19.873714 31.123371 42.071245 0.778287 0.738056 0.077623 -0.019593 -6819.290000 0 0 1
20.432095 19.421714 29.667531 40.924759 0.760051 0.759865 0.078319 -0.009781 -437824.000000 0 0 1
21.731795 18.946214 29.522471 41.265073 0.717026 0.773550 0.075546 -0.015298 -743624.000000 0 0 1
21.819895 18.091114 28.383941 40.112895 0.692241 0.784698 0.076049 -0.010862 263656.000000 0 0 1
23.078095 17.175414 28.408991 40.430979 0.639798 0.791676 0.079758 -0.008114 580518.000000 0 0 1
24.314895 17.874514 28.364811 41.415877 0.633914 0.816360 0.078773 -0.007736 -174523.000000 0 0 1
25.364895 16.999114 28.578141 41.821740 0.590433 0.818479 0.074163 -0.001407 -385751.000000 0 0 1
26.792195 17.528514 28.815341 43.074289 0.579350 0.837976 0.069908 -0.007160 94959.700000 0 0 1
27.560395 17.730714 27.632621 42.866249 0.571679 0.870265 0.085155 -0.001813 492381.000000 0 0 1
28.797795 18.334814 28.007811 44.157852 0.566950 0.883738 0.091823 0.001744 1056420.000000 0 0 1
29.978195 18.346114 26.963571 44.297926 0.549183 0.916392 0.096768 0.009344 568702.000000 0 0 1
29.773495 19.225114 25.837501 43.859349 0.573355 0.940853 0.108990 -0.007162 964821.000000 0 0 1
30.887395 19.066614 24.915371 44.026613 0.553039 0.969252 0.107810 -0.005263 740021.000000 0 0 1
30.945495 20.218914 23.810471 43.970066 0.578742 0.998558 0.110863 -0.009637 -44645.800000 0 0 1
29.931195 20.082414 22.844971 42.674026 0.590964 1.005890 0.101151 -0.014124 122036.000000 0 0 1
30.152595 21.011314 21.811371 42.736287 0.608597 1.035180 0.099667 -0.023731 -205649.000000 0 0 1
30.836595 20.487714 20.556671 42.346413 0.586429 1.063929 0.125996 -0.019967 -740221.000000 0 0 1
30.128895 19.499314 19.849071 41.011696 0.574402 1.065593 0.116586 -0.039154 5875.910000 0 0 1
30.766795 18.876414 18.727871 40.665069 0.550310 1.092193 0.130733 -0.036251 -452875.000000 0 0 1
31.928695 17.950414 19.035071 41.279448 0.512164 1.091531 0.155211 -0.049955 -507907.000000 0 0 1
31.492295 16.729814 19.632671 40.707408 0.488322 1.067532 0.151336 -0.041133 774428.000000 0 0 1
32.606195 15.987714 20.138971 41.525283 0.455880 1.064455 0.136209 -0.032476 207293.000000 0 0 1
32.129395 14.514414 20.577171 40.821394 0.424307 1.042482 0.135710 -0.029589 292061.000000 0 0 1
31.526095 14.286014 21.819171 40.915291 0.425469 1.008327 0.115498 -0.028183 1664530.000000 0 0 1
30.159495 14.798014 21.904971 40.104914 0.456147 0.992985 0.113361 -0.020675 1268650.000000 0 0 1
29.287895 14.414514 23.145371 40.015837 0.457361 0.954024 0.080830 -0.015333 375768.000000 0 0 1
28.619595 13.170714 22.878171 38.935326 0.431303 0.942714 0.080559 -0.010728 -23435.400000 0 0 1
28.239695 12.591114 24.131551 39.221783 0.419411 0.908082 0.071149 -0.003532 -129233.000000 0 0 1
27.847695 11.143514 23.873411 38.335516 0.380644 0.898545 0.076835 -0.003629 -653647.000000 0 0 1
26.690995 11.083814 23.113561 37.006713 0.393596 0.896206 0.077707 0.003847 -541591.000000 0 0 1
26.313695 9.762914 22.829371 36.178795 0.355277 0.887935 0.063471 0.009977 -19944.700000 0 0 1
25.098895 9.688214 21.887271 34.682397 0.368381 0.887855 0.066408 -0.002355 996342.000000 0 0 1
23.749695 9.719014 22.419271 34.075372 0.388435 0.852727 0.065346 -0.001805 1634610.000000 0 0 1
22.927995 8.957914 21.508671 32.688837 0.372462 0.852660 0.061168 0.002649 432886.000000 0 0 1
21.384995 9.030914 21.696871 31.774669 0.399583 0.819160 0.050056 0.000873 308611.000000 0 0 1
21.072395 8.460114 22.916371 32.261113 0.381780 0.780815 0.053267 0.006003 -1228170.000000 0 0 1
19.704995 8.472014 23.032171 31.472889 0.406050 0.749822 0.067022 -0.006158 -1260620.000000 0 0 1
19.203995 7.864214 24.350661 31.993655 0.388677 0.705775 0.060232 -0.003947 -247487.000000 0 0 1
19.216995 6.465614 24.315731 31.659940 0.324556 0.695040 0.064595 -0.000279 242940.000000 0 0 1
18.775395 5.841514 25.530871 32.225209 0.301633 0.656286 0.059655 -0.007698 45732.200000 0 0 1
19.155095 4.343614 25.560561 32.235492 0.222989 0.655190 0.064984 -0.013458 -313666.000000 0 0 1
20.514095 4.004214 25.561761 33.019168 0.192770 0.685426 0.068726 -0.006235 -409689.000000 0 0 1
20.740795 2.649614 25.774601 33.189322 0.127061 0.681556 0.065141 -0.003197 -919339.000000 0 0 1
22.060795 2.161514 25.241691 33.593061 0.097668 0.720621 0.056651 -0.002186 -1491450.000000 0 0 1
23.097995 2.745914 25.936991 34.839416 0.118326 0.731052 0.057721 -0.005140 -1829480.000000 0 0 1
24.268895 2.078014 25.662531 35.381674 0.085416 0.759318 0.071385 -0.010568 -915262.000000 0 0 1
25.313195 2.491314 26.726101 36.895107 0.098104 0.760661 0.054995 -0.013676 -1033830.000000 0 0 1
25.112095 1.853814 27.956201 37.624501 0.073688 0.733207 0.066868 -0.015675 -174721.000000 0 0 1
25.807795 2.191414 29.113251 38.966985 0.084710 0.727069 0.065311 -0.000933 345866.000000 0 0 1
27.365395 2.269614 29.013401 39.947383 0.082748 0.757887 0.046415 -0.006082 -41685.600000 0 0 1
27.799495 3.494714 28.331611 39.846018 0.125055 0.779838 0.060350 0.001955 -301589.000000 0 0 1
29.141895 3.672114 27.963691 40.554931 0.125347 0.809962 0.060262 0.002437 -46585.800000 0 0 1
29.705095 2.608114 26.920661 40.173585 0.087576 0.836441 0.079076 -0.002441 -399073.000000 0 0 1
29.329795 2.763814 25.574801 39.012126 0.093955 0.855872 0.064273 0.005016 41030.500000 0 0 1
29.876395 1.720214 24.790301 38.860225 0.057514 0.878982 0.082895 0.003616 -144509.000000 0 0 1
29.634795 1.943214 23.288871 37.740809 0.065478 0.905777 0.078609 -0.001708 -195319.000000 0 0 1
30.263295 3.072114 22.794271 38.011626 0.101166 0.927713 0.080059 0.006147 374987.000000 0 0 1
31.641695 2.950914 22.392071 38.875565 0.092991 0.956977 0.069052 -0.000017 901560.000000 0 0 1
32.165195 4.288014 21.860071 39.126072 0.132531 0.977969 0.071166 -0.004017 -720007.000000 0 0 1
31.673395 4.617714 20.572571 38.049414 0.144772 0.999551 0.069557 -0.002062 -12357.300000 0 0 1
32.214295 5.819414 20.056371 38.391202 0.178720 1.021109 0.081383 -0.001305 -722555.000000 0 0 1
33.707895 5.734214 19.695271 39.458929 0.168502 1.048198 0.060890 -0.007101 -388322.000000 0 0 1
34.682595 5.696414 20.702971 40.791476 0.162791 1.038479 0.068221 -0.004529 129073.000000 0 0 1
34.779995 6.880614 21.421571 41.423117 0.195311 1.027290 0.082960 -0.009721 -1091140.000000 0 0 1
35.496795 6.640814 22.775471 42.694788 0.184944 1.008124 0.105975 -0.024730 -371725.000000 0 0 1
34.810895 5.795014 23.664341 42.489782 0.164959 0.980097 0.102630 -0.013209 -420790.000000 0 0 1
35.497895 5.627914 24.823491 43.680426 0.157234 0.966361 0.117718 -0.016945 -318622.000000 0 0 1
34.811595 4.586314 25.749611 43.542208 0.130992 0.938038 0.112383 -0.014120 182030.000000 0 0 1
34.812995 3.310114 25.161391 43.081284 0.094798 0.947094 0.113693 -0.019739 -30379.600000 0 0 1
34.197795 2.345214 26.010871 43.029694 0.068471 0.921675 0.096803 -0.013479 88494.200000 0 0 1
34.128995 0.929314 25.477381 42.599869 0.027223 0.929715 0.105719 -0.013787 120345.000000 0 0 1
33.118595 0.744114 24.491421 41.197387 0.022464 0.934165 0.105558 -0.016682 72816.400000 0 0 1
33.276495 -0.621186 24.072721 41.075624 -0.018665 0.944610 0.099569 -0.017450 140792.000000 0 0 1
32.172595 -1.174886 23.128371 39.640607 -0.036502 0.947824 0.115298 -0.014293 214286.000000 0 0 1
30.895295 -1.252586 23.733641 38.979147 -0.040521 0.916148 0.104579 -0.004329 -345272.000000 0 0 1
30.085295 -2.077186 22.949571 37.896206 -0.068934 0.920289 0.115978 -0.017677 419203.000000 0 0 1
28.583095 -2.177586 23.379411 36.990972 -0.076038 0.886626 0.098997 -0.004160 620049.000000 0 0 1
27.908695 -1.004386 23.032571 36.199494 -0.035973 0.881146 0.097687 -0.002811 -145641.000000 0 0 1
26.499895 -1.140286 22.997671 35.106090 -0.043003 0.856494 0.081438 0.006849 275979.000000 0 0 1
25.784495 0.232014 22.780771 34.407231 0.008998 0.847189 0.073111 0.008779 -206486.000000 0 0 1
25.961295 0.829114 21.490871 33.712517 0.031926 0.879580 0.075386 0.006173 -279354.000000 0 0 1
25.142295 1.921914 21.501871 33.138485 0.076293 0.864726 0.061299 0.012564 -448451.000000 0 0 1
25.411395 2.914414 20.367271 32.696460 0.114190 0.898327 0.071616 0.003638 -118278.000000 0 0 1
24.836395 2.612614 19.106471 31.444069 0.104808 0.917719 0.083185 0.002103 296185.000000 0 0 1
24.438695 3.821114 18.433371 30.848661 0.155099 0.930364 0.070335 0.002665 121879.000000 0 0 1
23.915395 3.500414 17.007471 29.554239 0.145335 0.957622 0.083427 -0.000847 -141890.000000 0 0 1
24.915795 2.928714 16.205171 29.866064 0.117008 0.997273 0.083772 0.000217 157344.000000 0 0 1
24.650495 3.023414 14.832471 28.927325 0.122042 1.032412 0.086619 -0.011425 -572034.000000 0 0 1
24.061395 1.792914 14.113971 27.952986 0.074377 1.041509 0.098215 0.000002 220343.000000 0 0 1
22.659795 1.746714 14.383671 26.896232 0.076932 1.006544 0.092358 0.002646 585200.000000 0 0 1
22.155095 0.673614 13.605971 26.008161 0.030395 1.020262 0.107237 -0.009587 -274182.000000 0 0 1
20.641395 0.441114 13.938571 24.910751 0.021367 0.976965 0.108672 -0.020454 167575.000000 0 1 0
19.722795 1.223614 13.183471 23.754784 0.061961 0.982455 0.110854 -0.019435 528311.000000 0 1 0
19.584795 0.990114 11.795971 22.884262 0.050512 1.029249 0.105394 -0.016973 -1230780.000000 0 1 0
19.299295 -0.478286 11.328871 22.383808 -0.024777 1.040117 0.100175 -0.010259 -2283.380000 0 1 0
20.413795 -1.364086 11.314371 23.379451 -0.066723 1.065639 0.108205 -0.028264 970673.000000 0 1 0
21.494495 -1.052586 10.433471 23.916073 -0.048931 1.119365 0.113215 -0.031452 -105840.000000 0 1 0
22.714595 -1.973486 10.573371 25.132521 -0.086664 1.136574 0.134421 -0.046676 -415708.000000 0 0 1
23.409295 -1.807386 11.760971 26.259896 -0.077055 1.106417 0.136179 -0.043174 251067.000000 0 0 1
24.556895 -2.660386 11.713471 27.337230 -0.107915 1.127986 0.129064 -0.050331 222168.000000 0 0 1
25.067995 -2.843686 13.174071 28.461326 -0.112956 1.089559 0.141045 -0.028099 -118103.000000 0 0 1
25.668595 -1.656186 13.616071 29.103558 -0.064433 1.083941 0.126770 -0.031801 -44340.400000 0 0 1
25.950495 -1.640786 14.987471 30.012408 -0.063143 1.047918 0.109809 -0.024629 -648518.000000 0 0 1
26.945395 -0.555486 15.287271 30.984892 -0.020612 1.054827 0.140108 -0.020428 -330439.000000 0 0 1
28.269495 -1.051386 15.286271 32.154935 -0.037174 1.075384 0.145701 -0.019940 208188.000000 0 0 1
29.268195 -0.091286 15.579471 33.156530 -0.003119 1.081646 0.114699 -0.015992 553478.000000 0 0 1
30.695095 -0.665586 15.816171 34.536692 -0.021680 1.095106 0.107287 -0.012079 316809.000000 0 0 1
31.176295 -1.298786 14.655371 34.473585 -0.041635 1.131703 0.114062 -0.016682 725128.000000 0 0 1
32.557095 -1.643086 14.832171 35.814207 -0.050425 1.143796 0.104143 -0.018550 689327.000000 0 0 1
33.167995 -2.521886 13.711471 35.978886 -0.075888 1.179813 0.100902 -0.028843 20802.400000 0 0 1
33.259995 -1.844486 12.452871 35.562668 -0.055400 1.213047 0.105581 -0.029876 452489.000000 0 0 1
34.173295 -2.549086 11.618571 36.184294 -0.074455 1.243912 0.101159 -0.036148 228215.000000 0 0 1
34.248895 -2.161386 10.120571 35.778266 -0.063025 1.284012 0.142314 -0.045173 -252309.000000 0 0 1
34.706995 -0.881986 9.799071 36.074578 -0.025407 1.295706 0.101607 -0.032213 6326.130000 0 0 1
33.698295 0.087314 9.933471 35.131987 0.002591 1.284139 0.111480 -0.033168 -387259.000000 0 0 1
34.169295 1.555314 9.674071 35.546411 0.045487 1.295166 0.120504 -0.039851 -40925.700000 0 0 1
34.696795 1.639014 8.354271 35.726010 0.047203 1.334768 0.116787 -0.041135 273121.000000 0 0 1
35.050095 2.923614 7.944471 36.057888 0.083220 1.348648 0.131764 -0.039344 -156915.000000 0 0 1
35.434395 2.847214 6.462971 36.131329 0.080179 1.390954 0.121700 -0.045629 1190.470000 0 0 1
36.005695 4.017114 5.932271 36.711566 0.111109 1.408493 0.121055 -0.029921 19884.900000 0 0 1
36.204195 4.091514 4.560971 36.719023 0.112535 1.446262 0.123964 -0.026315 -144441.000000 0 0 1
36.570095 5.446114 3.918871 37.180499 0.147836 1.465199 0.134821 -0.036052 357830.000000 0 0 1
35.571495 6.459714 4.099971 36.385009 0.179640 1.457874 0.143172 -0.036706 225024.000000 0 0 1
35.946195 7.682614 3.458771 36.920382 0.210558 1.476977 0.134570 -0.042017 -1002950.000000 0 0 1
34.961895 8.882814 3.609471 36.252817 0.248807 1.471067 0.153368 -0.036273 1817560.000000 0 0 1
33.718595 8.743014 2.838471 34.949118 0.253706 1.489490 0.150638 -0.042757 1400540.000000 0 0 1
32.864595 7.630214 3.118571 33.882551 0.228130 1.478625 0.176267 -0.039194 -1098360.000000 0 0 1
31.696595 7.638314 2.137271 32.673933 0.236473 1.505337 0.181344 -0.036660 -84757.400000 0 0 1
32.150495 7.484314 0.796071 33.019737 0.228717 1.546685 0.190351 -0.039194 -102562.000000 0 0 1
31.029895 7.549014 -0.034429 31.934983 0.238646 1.571874 0.164836 -0.032642 -257585.000000 0 0 1
31.310095 7.314214 -1.481129 32.187164 0.229490 1.616829 0.137719 -0.034867 -741287.000000 0 0 1
30.164295 6.989214 -2.185029 31.040428 0.227687 1.641248 0.155040 -0.036733 101627.000000 0 0 1
30.541295 6.783514 -3.548229 31.486135 0.218562 1.683728 0.139533 -0.031293 -506723.000000 0 0 1
29.447695 6.248514 -4.455829 30.431317 0.209089 1.717747 0.169622 -0.035753 -675104.000000 0 0 1
29.396695 4.880014 -4.421129 30.125182 0.164505 1.718087 0.171556 -0.040207 425498.000000 0 0 1
28.261595 4.446414 -5.112529 29.062455 0.156051 1.747632 0.178928 -0.030602 -808721.000000 0 0 1
28.156895 2.964614 -5.377729 28.818737 0.104903 1.758502 0.195675 -0.028052 -521170.000000 0 0 1
27.762095 2.318314 -4.203429 28.174054 0.083313 1.720550 0.201512 -0.032246 370053.000000 0 0 1
27.707695 0.905414 -4.340729 28.060257 0.032666 1.726113 0.179689 -0.024852 -208757.000000 0 0 1
27.830295 0.188614 -3.003629 27.992547 0.006777 1.678304 0.173580 -0.029436 -428893.000000 0 0 1
29.056395 0.371214 -2.366829 29.154995 0.012775 1.652067 0.180753 -0.032906 -180672.000000 0 0 1
29.088095 -0.218086 -1.111329 29.110133 -0.007497 1.608982 0.183772 -0.030523 -35761.900000 0 0 1
30.363595 0.160214 -0.303229 30.365531 0.005276 1.580782 0.188536 -0.030132 -112221.000000 0 0 1
31.482295 -0.605686 -0.641429 31.494653 -0.019237 1.591164 0.181692 -0.035171 510811.000000 0 0 1
32.643295 -0.014386 -0.002429 32.643298 -0.000441 1.570871 0.133521 -0.028704 549429.000000 0 0 1
-2.512705 -21.379286 -8.585459 23.175367 1.453803 1.950296 0.040541 -0.000388 376656.000000 0 1 0
-3.216805 -21.834786 -7.430159 23.287614 1.424524 1.895534 0.043390 -0.006971 -296552.000000 0 1 0
-2.547805 -22.910286 -6.883759 24.057403 1.460043 1.860991 0.050597 -0.012421 -167646.000000 0 1 0
-3.119405 -23.421386 -5.538459 24.268632 1.438389 1.801040 0.045288 -0.013092 -177491.000000 0 1 0
-3.027905 -22.488886 -4.458959 23.125754 1.436961 1.764825 0.046507 -0.020295 -231812.000000 0 1 0
-3.500805 -23.224286 -3.373059 23.727634 1.421184 1.713437 0.050036 -0.021685 -137235.000000 0 1 0
-3.071705 -22.619286 -1.989359 22.913424 1.435822 1.657726 0.048381 -0.024165 -394131.000000 0 1 0
-1.697305 -22.810486 -1.802259 22.944438 1.496524 1.649426 0.057007 -0.016042 -758912.000000 0 1 0
-1.324105 -22.527386 -0.432459 22.570409 1.512086 1.589958 0.055071 -0.017674 -176184.000000 0 1 0
0.180695 -22.559786 -0.147859 22.560994 -1.562787 1.577350 0.051855 -0.015777 -388744.000000 0 1 0
0.809295 -21.491486 -0.765059 21.520321 -1.533158 1.606354 0.030430 -0.011317 142007.000000 0 1 0
2.083895 -21.244686 -0.136559 21.347082 -1.473019 1.577193 0.032148 -0.010200 940520.000000 0 1 0
2.893695 -20.127286 -0.821659 20.350828 -1.428005 1.611182 0.035491 -0.010232 348314.000000 0 1 0
3.534195 -20.510586 -2.023659 20.910998 -1.400161 1.667723 0.037994 -0.004844 180593.000000 0 1 0
4.746395 -19.765186 -2.195559 20.445325 -1.335120 1.678391 0.046839 -0.001188 696688.000000 0 1 0
5.638695 -20.056686 -3.424259 21.113765 -1.296733 1.733697 0.045441 -0.005066 -1091520.000000 0 1 0
6.409595 -21.232786 -3.197459 22.408432 -1.277623 1.713975 0.047025 0.000460 6939.880000 0 1 0
7.310595 -21.585686 -4.233259 23.179886 -1.244243 1.754453 0.051067 -0.006071 -67754.900000 0 1 0
8.434695 -20.608786 -4.474259 22.713104 -1.182319 1.769083 0.062647 -0.017176 -1472520.000000 0 1 0
8.137695 -19.672186 -5.560859 22.003184 -1.178566 1.826297 0.046650 -0.016771 710607.000000 0 1 0
9.246895 -18.764586 -5.742659 21.693152 -1.112938 1.838712 0.060130 -0.033328 469741.000000 0 1 0
9.300295 -18.021586 -7.135059 21.498421 -1.094380 1.909100 0.053286 -0.012021 -662460.000000 0 1 0
10.456195 -17.309286 -7.438359 21.546985 -1.027382 1.923265 0.069499 -0.028094 -339473.000000 0 1 0
10.305795 -16.437586 -8.527359 21.192439 -1.010785 1.984909 0.060453 -0.016980 -319283.000000 0 1 0
10.613495 -16.988486 -9.979859 22.379734 -1.012379 2.033013 0.057017 -0.003432 -177334.000000 0 1 0
9.571495 -17.598186 -10.735159 22.727808 -1.072655 2.062735 0.051095 -0.008967 605117.000000 0 1 0
8.685695 -16.656986 -11.377859 21.962516 -1.090141 2.115375 0.027893 -0.018844 235508.000000 0 1 0
8.046695 -17.055186 -12.710959 22.741968 -1.129959 2.163880 0.030673 -0.022952 -616020.000000 0 1 0
6.954095 -17.930586 -12.588959 22.985804 -1.200821 2.150390 0.016248 -0.013629 44256.200000 0 1 0
6.577195 -18.432386 -13.866259 23.985109 -1.228051 2.187218 0.018831 -0.003140 -524377.000000 0 1 0
5.440595 -19.415286 -13.776559 24.420216 -1.297582 2.170194 0.022310 0.008366 -706960.000000 0 1 0
5.789795 -20.629686 -13.153459 25.141979 -1.297182 2.121359 0.032273 0.002906 86021.200000 0 0 1
4.660995 -21.303586 -12.620859 25.196303 -1.355401 2.095436 0.051232 0.000031 274937.000000 0 0 1
4.987495 -22.775686 -12.360059 26.388975 -1.355216 2.058252 0.032057 -0.001948 40650.300000 0 0 1
5.182995 -23.396386 -13.643659 27.575419 -1.352787 2.088374 0.047893 -0.010227 -200330.000000 0 0 1
5.014495 -24.787086 -13.575459 28.702575 -1.371188 2.063455 0.041443 -0.014005 -809882.000000 0 0 1
3.646595 -25.355716 -13.890559 29.140308 -1.427958 2.067669 0.058095 -0.021588 -477269.000000 0 0 1
2.720695 -24.912786 -12.875259 28.174835 -1.462019 2.045390 0.066853 -0.021963 1074530.000000 0 0 1
1.329795 -25.017886 -13.268159 28.349726 -1.517693 2.057842 0.061180 -0.032714 1002110.000000 0 0 1
0.616695 -26.327516 -12.876259 29.314099 -1.547377 2.025562 0.050205 -0.023715 -764679.000000 0 0 1
0.942095 -27.425306 -13.722659 30.681367 -1.536459 2.034500 0.062759 -0.024964 184799.000000 0 0 1
0.376595 -28.663836 -13.308059 31.604774 -1.557659 2.005429 0.040062 -0.014461 951500.000000 0 0 1
-1.142105 -28.971536 -13.583859 32.018362 1.531395 2.008932 0.019057 -0.013526 517536.000000 0 0 1
-2.049605 -28.157236 -12.926359 31.050307 1.498133 2.000173 0.032212 -0.019843 -558619.000000 0 0 1
-3.360805 -28.654676 -13.128259 31.697581 1.454043 1.997830 0.042497 -0.017518 191341.000000 0 0 1
-4.427005 -27.833136 -12.312659 30.755217 1.413062 1.982688 0.024200 -0.013954 51605.000000 0 0 1
-4.671405 -28.149406 -10.958059 30.566159 1.406345 1.937460 0.019272 -0.029070 -283130.000000 0 0 1
-5.265005 -29.357216 -10.692159 31.684202 1.393340 1.915014 0.020092 -0.020200 -948259.000000 0 0 1
-5.617705 -29.498986 -9.145759 31.390981 1.382612 1.866434 0.018189 -0.020206 -139888.000000 0 0 1
-6.878605 -28.965906 -8.790859 31.042198 1.337643 1.857916 0.039325 -0.021192 -186303.000000 0 0 1
-7.019005 -27.557026 -8.802159 29.768004 1.321391 1.870976 0.050353 -0.019783 -1461840.000000 0 0 1
-8.447805 -27.107356 -8.612759 29.670756 1.268693 1.865313 0.055628 -0.025754 162833.000000 0 0 1
-9.484505 -27.336266 -9.604659 30.487321 1.236835 1.891293 0.083612 -0.024467 634748.000000 0 0 1
-9.787405 -28.702636 -9.924159 31.908048 1.242168 1.887066 0.080831 -0.036246 137288.000000 0 0 1
-11.205505 -28.823796 -10.598159 32.690909 1.200018 1.900955 0.111329 -0.034610 573076.000000 0 0 1
-11.339905 -28.258516 -11.903259 32.692885 1.189177 1.943455 0.118964 -0.037995 520806.000000 0 0 1
-12.321505 -28.997506 -12.671859 33.959547 1.168997 1.953194 0.127879 -0.035872 370695.000000 0 0 1
-12.582005 -28.296816 -14.038859 34.001561 1.152405 1.996420 0.133931 -0.030098 -66344.000000 0 0 1
-13.467305 -27.204126 -14.208359 33.515820 1.111119 2.008576 0.132251 -0.041143 8309.450000 0 0 1
-13.197005 -26.084256 -13.341159 32.133096 1.102410 1.998942 0.139210 -0.038908 -364380.000000 0 0 1
-14.121905 -24.886286 -13.477059 31.628887 1.054649 2.010973 0.149982 -0.042321 -507072.000000 0 0 1
-13.832305 -24.089986 -14.609559 31.386291 1.049569 2.054968 0.146000 -0.038491 748876.000000 0 0 1
-14.985405 -23.299686 -14.983559 31.495154 0.999245 2.066603 0.150363 -0.040408 630641.000000 0 0 1
-14.717505 -22.328586 -16.145759 31.238697 0.988028 2.113965 0.138561 -0.033706 -273389.000000 0 0 1
-13.942405 -21.226486 -15.814759 29.917569 0.989628 2.127760 0.119762 -0.029115 50261.000000 0 0 1
-13.613905 -20.464986 -16.961459 29.863776 0.983790 2.174823 0.091967 -0.016203 -60047.400000 0 0 1
-13.569505 -18.977186 -16.558159 28.608349 0.950046 2.188038 0.080570 -0.014673 259812.000000 0 0 1
-12.477405 -18.256486 -17.133059 27.973677 0.971264 2.229979 0.067699 -0.004587 472847.000000 0 0 1
-12.697805 -16.913686 -16.985659 27.125995 0.926821 2.247436 0.071516 0.001427 246167.000000 0 0 1
-11.428205 -16.091486 -17.342859 26.273837 0.953256 2.291723 0.072864 -0.004090 457473.000000 0 0 1
-10.480305 -16.131686 -16.296459 25.211954 0.994652 2.273625 0.081654 -0.008170 296909.000000 0 0 1
-9.261605 -15.484886 -16.645459 24.548530 1.031771 2.315921 0.079412 -0.005580 -18024.600000 0 1 0
-8.479005 -14.794786 -15.486759 23.035167 1.050385 2.308120 0.068076 -0.005796 249416.000000 0 1 0
-8.038705 -15.635186 -14.421059 22.738662 1.095899 2.257781 0.069769 -0.007723 587026.000000 0 1 0
-7.176705 -16.732786 -14.789859 23.457006 1.165626 2.253005 0.074416 0.003830 -630821.000000 0 1 0
-6.720505 -17.513686 -13.553359 23.142772 1.204395 2.196467 0.061783 -0.000846 -662922.000000 0 1 0
-6.008505 -16.747686 -12.562859 21.781013 1.226333 2.185578 0.055173 -0.003248 602775.000000 0 1 0
-5.584305 -17.506686 -11.412759 21.631448 1.262018 2.126570 0.039351 -0.007625 174447.000000 0 1 0
-4.468705 -18.563186 -11.580359 22.330828 1.334562 2.115988 0.044547 -0.006345 267323.000000 0 1 0
-3.140905 -18.061486 -11.664559 21.728886 1.398617 2.137463 0.042180 -0.000803 294569.000000 0 1 0
-2.121305 -19.063486 -11.629559 22.431296 1.459976 2.115836 0.030456 0.003396 495664.000000 0 1 0
-0.761805 -18.486486 -12.035259 22.072108 1.529611 2.147508 0.027101 0.006318 -1023680.000000 0 1 0
-0.645005 -18.285186 -13.468659 22.719349 1.535536 2.205362 0.032259 0.007114 -41572.600000 0 1 0
0.562095 -17.701086 -13.931859 22.533110 -1.539052 2.237354 0.035346 0.007572 428546.000000 0 1 0
1.794595 -18.653286 -13.856159 23.305767 -1.474884 2.207487 0.035976 -0.000377 -562860.000000 0 1 0
1.923495 -19.602986 -14.893559 24.694027 -1.472987 2.218208 0.052799 0.005470 295998.000000 0 1 0
1.134495 -20.817386 -14.752259 25.539768 -1.516353 2.186605 0.058042 -0.003074 -1020700.000000 0 0 1
1.204595 -21.775986 -15.958659 27.024496 -1.515535 2.202506 0.078794 -0.008493 426771.000000 0 0 1
2.393695 -22.547186 -16.046359 27.777526 -1.465029 2.186673 0.070292 -0.007539 51425.000000 0 0 1
3.581095 -21.790986 -16.140659 27.353101 -1.407914 2.201961 0.062041 -0.014036 -1476420.000000 0 0 1
4.833295 -22.623486 -16.428759 28.374054 -1.360320 2.188306 0.068397 -0.008951 -205932.000000 0 0 1
4.903995 -23.191286 -17.704659 29.586142 -1.362408 2.212312 0.064805 -0.007695 -92225.500000 0 0 1
6.214295 -23.666186 -17.883359 30.307100 -1.314012 2.201944 0.055137 -0.010131 -45238.500000 0 0 1
6.550795 -23.717586 -19.376959 31.319376 -1.301315 2.237869 0.051173 -0.008260 -146365.000000 0 0 1
6.585095 -22.415586 -19.927559 30.707158 -1.285062 2.277006 0.057010 -0.012282 70876.200000 0 0 1
7.152695 -22.336386 -21.224559 31.631583 -1.260888 2.306343 0.039821 -0.007019 -149039.000000 0 0 1
7.500195 -20.948286 -21.781259 31.136904 -1.226982 2.345539 0.032303 -0.011485 218481.000000 0 0 1
6.377095 -20.110186 -22.005259 30.484722 -1.263719 2.377262 0.071323 -0.013573 128970.000000 0 0 1
6.822695 -18.904986 -22.520459 30.184743 -1.224450 2.412963 0.075695 -0.013155 335745.000000 0 0 1
5.658395 -17.916886 -22.833959 29.570625 -1.264896 2.453067 0.070135 -0.014434 723429.000000 0 0 1
4.770795 -18.389286 -23.906859 30.536277 -1.316959 2.470110 0.069442 -0.018127 781380.000000 0 0 1
3.807595 -17.484086 -24.395159 30.254170 -1.356369 2.508735 0.083194 -0.015401 401708.000000 0 0 1
2.488895 -17.379386 -23.596559 29.411481 -1.428554 2.501919 0.093091 -0.012119 15207.000000 0 0 1
2.704995 -16.695186 -22.408559 28.074717 -1.410170 2.495057 0.092084 -0.015126 267844.000000 0 0 1
1.443395 -16.151586 -22.017359 27.344491 -1.481668 2.506783 0.089920 -0.015361 680306.000000 0 0 1
1.529395 -15.210886 -20.787559 25.803734 -1.470587 2.507488 0.090824 -0.022078 18465.400000 0 0 1
2.097195 -13.966386 -21.037259 25.338200 -1.421750 2.550368 0.081349 -0.018243 -270115.000000 0 0 1
2.225295 -13.216486 -19.850859 23.951702 -1.403988 2.547733 0.080385 -0.024278 242261.000000 0 1 0
3.488095 -12.309686 -19.884859 23.645354 -1.294673 2.569856 0.068124 -0.021211 -843789.000000 0 1 0
4.670495 -12.990186 -19.657659 24.020449 -1.225648 2.529368 0.055516 -0.013649 -1173270.000000 0 1 0
5.800295 -12.197086 -19.846959 24.006542 -1.126901 2.544069 0.050153 -0.009006 -127816.000000 0 1 0
6.306195 -11.335486 -18.682059 22.743804 -1.063111 2.534681 0.050100 -0.001266 -855466.000000 0 1 0
5.393695 -10.351486 -18.278359 21.687406 -1.090447 2.573279 0.028105 -0.001307 -153774.000000 0 1 0
5.477595 -9.051186 -18.884959 21.646470 -1.026577 2.630942 0.037663 -0.019825 -274672.000000 0 1 0
4.980295 -8.841586 -20.357859 22.746854 -1.057814 2.679171 0.052894 -0.029755 -1171840.000000 0 1 0
3.631795 -9.038486 -20.528459 22.722275 -1.188727 2.698549 0.048324 -0.027617 -1259970.000000 0 1 0
3.275895 -9.027986 -21.881959 23.896780 -1.222711 2.728009 0.053734 -0.030565 536235.000000 0 1 0
1.739495 -8.889086 -22.087059 23.872156 -1.377550 2.752418 0.065834 -0.029911 255279.000000 0 1 0
1.221795 -7.660686 -21.804559 23.143415 -1.412639 2.799783 0.050200 -0.027254 -920693.000000 0 1 0
-0.136505 -7.599186 -22.121759 23.390991 1.552835 2.810656 0.052150 -0.022505 -243882.000000 0 1 0
-0.497305 -6.374686 -23.068859 23.938591 1.492941 2.871208 0.065917 -0.022499 -93355.900000 0 1 0
0.013695 -6.585086 -24.350059 25.224767 -1.568717 2.877476 0.073021 -0.023343 -598068.000000 0 0 1
-0.529905 -5.845586 -25.413679 26.082690 1.480393 2.914612 0.078041 -0.034766 -56972.100000 0 0 1
-0.147705 -4.370286 -25.583649 25.954658 1.537012 2.972308 0.078183 -0.033070 -105823.000000 0 0 1
-0.657805 -3.916786 -26.813889 27.106430 1.404404 2.994543 0.064841 -0.030612 -130769.000000 0 0 1
-0.404905 -2.543286 -27.149019 27.270890 1.412916 3.047017 0.049413 -0.019762 -371601.000000 0 0 1
-1.076805 -1.406886 -26.268869 26.328545 0.917523 3.074251 0.044409 -0.026200 1076050.000000 0 0 1
-2.511405 -1.347886 -26.200869 26.355445 0.492579 3.033234 0.044702 -0.029433 491022.000000 0 0 1
-3.071905 -0.825086 -27.379159 27.563303 0.262398 3.025936 0.049475 -0.019890 488978.000000 0 0 1
-4.634805 -0.896686 -27.175759 27.582736 0.191107 2.969597 0.071045 -0.030278 957479.000000 0 0 1
-5.228705 0.040214 -26.241099 26.756985 -0.007691 2.944907 0.075440 -0.034357 190346.000000 0 0 1
-6.600005 -0.312286 -26.128499 26.950993 0.047281 2.893905 0.093453 -0.043514 -118594.000000 0 0 1
-7.462705 0.783214 -25.510449 26.591133 -0.104568 2.855519 0.093874 -0.041280 -427848.000000 0 0 1
-7.878305 1.928014 -26.317849 27.539319 -0.240007 2.842643 0.112404 -0.043787 1160260.000000 0 0 1
-8.883105 1.720614 -27.348779 28.806696 -0.191326 2.822083 0.126670 -0.044538 816442.000000 0 0 1
-10.330705 1.287914 -27.013419 28.950077 -0.124029 2.773745 0.115594 -0.039081 -236751.000000 0 0 1
-11.331105 1.943714 -27.749979 30.037198 -0.169885 2.748826 0.120013 -0.047019 764008.000000 0 0 1
-12.610005 1.321614 -27.508569 30.289936 -0.104426 2.709700 0.086700 -0.032883 981605.000000 0 0 1
-13.764505 1.988614 -28.332989 31.562231 -0.143481 2.685287 0.068200 -0.022006 688016.000000 0 0 1
-15.029805 1.342714 -28.014059 31.819576 -0.089100 2.647508 0.064438 -0.021556 934681.000000 0 0 1
-16.122405 2.027814 -28.564289 32.862784 -0.125119 2.624376 0.055905 -0.020283 -212884.000000 0 0 1
-16.716805 3.247914 -27.813289 32.612567 -0.191900 2.592196 0.053105 -0.010682 -625959.000000 0 0 1
-16.085305 4.548514 -27.845869 32.477968 -0.275580 2.600948 0.065701 -0.005111 -146051.000000 0 0 1
-16.038305 5.162814 -29.118909 33.642127 -0.311430 2.617042 0.058448 -0.006520 142036.000000 0 0 1
-17.384905 5.443214 -29.865329 34.982872 -0.303431 2.593870 0.037807 -0.005515 525848.000000 0 0 1
-18.148305 6.507014 -29.279189 35.056713 -0.344268 2.559283 0.031763 0.009486 411119.000000 0 0 1
-18.833705 7.288014 -30.234879 36.358926 -0.369220 2.552719 0.019827 0.011667 411365.000000 0 0 1
-19.760405 8.382214 -29.543009 36.517455 -0.401186 2.513263 0.024498 0.006128 23638.200000 0 0 1
-18.987305 9.384414 -28.951759 35.871846 -0.459034 2.510001 0.020453 0.005992 179051.000000 0 0 1
-19.774005 10.445814 -28.472089 36.204781 -0.485999 2.475785 0.039889 0.003161 -125067.000000 0 0 1
-9.219805 24.735014 30.837071 40.592496 -1.214006 0.707984 0.045266 -0.015390 -366249.000000 0 0 1
-10.109505 25.858114 30.820461 41.481863 -1.198107 0.733275 0.052106 -0.022811 31489.800000 0 0 1
-9.892205 26.847814 31.838481 42.805954 -1.217776 0.732079 0.073723 -0.027548 -854334.000000 0 0 1
-8.518305 27.461914 31.939781 42.975201 -1.270021 0.732935 0.066115 -0.029313 -784962.000000 0 0 1
-8.130405 28.339314 30.907611 42.714174 -1.291405 0.761805 0.081126 -0.017707 -842500.000000 0 0 1
-6.775305 28.297414 30.640561 42.255087 -1.335789 0.759569 0.084160 -0.010455 -678317.000000 0 0 1
-6.237705 29.257614 29.533891 42.037694 -1.360742 0.791812 0.109224 -0.022083 -46989.000000 0 0 1
-6.347605 30.595714 29.915961 43.259156 -1.366231 0.807161 0.117529 -0.022677 325145.000000 0 0 1
-5.999905 31.539314 28.896561 43.194195 -1.382807 0.837945 0.119838 -0.016215 144758.000000 0 0 1
-6.474405 32.937814 29.421541 44.636808 -1.376706 0.851133 0.112290 -0.021477 270210.000000 0 0 1
-5.733305 33.329214 30.575121 45.591067 -1.400443 0.835727 0.123430 -0.027715 121796.000000 0 0 1
-6.422005 -33.797482 31.310171 46.517080 1.383021 0.832418 0.115929 -0.024341 -277342.000000 0 0 1
-7.432505 33.804514 32.338430 47.368358 -1.354373 0.819343 0.097028 -0.029269 -318609.000000 0 0 1
-6.927905 32.965814 33.329994 47.388071 -1.363656 0.790709 0.109465 -0.026913 -74657.100000 0 0 1
-7.216405 31.619914 33.033443 46.293669 -1.346416 0.776226 0.109046 -0.020314 16559.400000 0 0 1
-7.215005 30.702114 -33.810899 46.236922 -1.339984 2.390954 0.094597 -0.020068 -35463.300000 0 0 1
-5.922405 30.603914 -33.265079 45.587717 -1.379641 2.388670 0.099568 -0.019152 -37098.300000 0 0 1
-6.070105 30.055214 -32.016829 44.331021 -1.371512 2.377806 0.085899 -0.022114 -759172.000000 0 0 1
-4.769005 29.577214 -31.394929 43.395813 -1.410933 2.379591 0.082998 -0.028537 -322741.000000 0 0 1
-4.262405 28.335414 -31.824869 42.823896 -1.421489 2.408572 0.099499 -0.020327 176190.000000 0 0 1
-3.429305 28.461714 -32.979369 43.697461 -1.450886 2.426024 0.081287 -0.023548 -296482.000000 0 0 1
-2.666305 27.218814 -33.423509 43.186849 -1.473150 2.455817 0.092267 -0.037284 -269809.000000 0 0 1
-1.607805 26.868814 -32.514959 42.210671 -1.511029 2.450111 0.123458 -0.033227 705404.000000 0 0 1
-0.858105 25.682814 -32.729599 41.612137 -1.537397 2.475982 0.139918 -0.034511 604236.000000 0 0 1
-0.175605 25.524914 33.932361 42.461244 -1.563917 0.644938 0.114196 -0.025758 -85635.600000 0 0 1
-1.117305 24.987714 32.955595 41.372763 -1.526112 0.649224 0.112283 -0.023345 375454.000000 0 0 1
-0.760405 24.887914 31.592471 40.225250 -1.540253 0.667472 0.104191 -0.023818 -70538.500000 0 0 1
-0.243105 26.121314 30.830381 40.409090 -1.561490 0.702922 0.091067 -0.018699 359951.000000 0 0 1
-1.276405 27.107614 30.817701 41.063155 -1.523744 0.721985 0.100433 -0.020430 524898.000000 0 0 1
-0.822805 28.319714 30.193091 41.404178 -1.541750 0.753603 0.099878 -0.015258 141500.000000 0 0 1
-1.912105 29.404114 30.292001 42.259477 -1.505859 0.771580 0.102073 -0.015170 133797.000000 0 0 1
-2.105205 29.893314 31.570081 43.528291 -1.500488 0.759359 0.119232 -0.019180 -66599.600000 0 0 1
-2.957205 31.015914 31.710241 44.455274 -1.475739 0.776591 0.115076 -0.020170 269781.000000 0 0 1
-2.641205 31.747214 33.048395 45.902701 -1.487793 0.767043 0.129350 -0.017896 544594.000000 0 0 1
-1.416905 32.463614 32.926620 46.260741 -1.527178 0.778793 0.138029 -0.020079 40526.300000 0 0 1
-0.971805 33.018714 -33.920069 47.347133 -1.541373 2.369443 0.105530 -0.022296 -1093080.000000 0 0 1
0.458195 33.485714 33.982021 47.710384 1.557114 0.778089 0.107116 -0.020337 -815670.000000 0 0 1
0.625895 -33.385482 33.421428 47.243772 -1.552051 0.784948 0.117809 -0.020456 -241826.000000 0 0 1
1.985195 -33.073782 33.285568 46.965361 -1.510845 0.783106 0.083328 -0.015977 -301485.000000 0 0 1
2.248295 -31.604882 32.870911 45.655451 -1.499778 0.767026 0.085799 -0.020587 -57702.100000 0 0 1
1.902195 -30.589982 33.846731 45.661434 -1.508693 0.735859 0.078073 -0.013076 202368.000000 0 0 1
2.247195 -29.276782 33.482193 44.533550 -1.494190 0.719945 0.058614 -0.021514 -376140.000000 0 0 1
1.835695 -28.261982 -33.459299 43.836447 -1.505935 2.439165 0.062572 -0.020935 262450.000000 0 0 1
0.437095 -28.124982 -33.279069 43.574099 -1.555256 2.439876 0.050418 -0.027265 189122.000000 0 0 1
0.128995 -27.397782 -32.100619 42.203138 -1.566088 2.435066 0.053697 -0.026497 620208.000000 0 0 1
-1.423805 -27.193582 -32.072309 42.073164 1.518486 2.437653 0.083742 -0.029354 722314.000000 0 0 1
-1.886305 -26.583682 -30.877549 40.788152 1.499958 2.429540 0.094150 -0.026582 1117760.000000 0 0 1
-3.252205 -26.117482 -31.011959 40.674824 1.446912 2.437866 0.103397 -0.028347 1078670.000000 0 0 1
-3.775105 -25.453782 -29.720269 39.312095 1.423557 2.427989 0.105840 -0.028503 -105082.000000 0 0 1
-4.169805 -26.410582 -28.734539 39.250221 1.414205 2.392175 0.105409 -0.034320 -166200.000000 0 0 1
-4.521605 -25.747682 -27.490409 37.935612 1.396957 2.381337 0.102734 -0.028378 514577.000000 0 0 1
-3.415305 -25.228982 -26.487739 36.739164 1.436242 2.375994 0.099565 -0.028544 440328.000000 0 0 1
-2.699205 -24.082382 -26.897819 36.204136 1.459180 2.408261 0.103845 -0.028247 389816.000000 0 0 1
-1.543105 -23.861782 -26.088549 35.388956 1.506218 2.399705 0.085743 -0.026865 9899.760000 0 0 1
-0.630105 -22.793782 -26.803599 35.190715 1.543160 2.436678 0.072351 -0.027636 379487.000000 0 0 1
-0.004205 -23.166182 -28.024869 36.360216 1.570615 2.450824 0.047000 -0.027958 733158.000000 0 0 1
1.002695 -24.196582 -27.925179 36.963436 -1.529381 2.427185 0.036468 -0.023310 527671.000000 0 0 1
1.871295 -24.670482 -29.153299 38.236753 -1.495090 2.437875 0.022015 -0.025380 -189529.000000 0 0 1
2.686495 -23.670882 -29.565689 37.969170 -1.457786 2.463349 0.030341 -0.025534 -372378.000000 0 0 1
3.526695 -24.105282 -30.637319 39.142656 -1.425523 2.469803 0.024381 -0.017319 -78740.300000 0 0 1
4.612695 -23.065282 -31.038649 38.944600 -1.373416 2.493100 0.027708 -0.026340 -14168.200000 0 0 1
5.793195 -22.984282 -30.223809 38.409855 -1.323889 2.476527 0.017705 -0.022360 1640700.000000 0 0 1
6.827595 -23.995582 -30.340019 39.280030 -1.293587 2.453413 0.034862 -0.011068 166755.000000 0 0 1
7.427195 -24.186482 -31.737749 40.588592 -1.272856 2.468565 0.054910 -0.010673 -954739.000000 0 0 1
6.600795 -24.953682 -32.630849 41.605637 -1.312197 2.472346 0.017164 -0.017163 255603.000000 0 0 1
6.870395 -24.772082 -34.017147 42.638300 -1.300252 2.494446 0.034231 -0.016194 959.794000 0 0 1
6.364595 -23.391582 33.522291 41.369290 -1.305138 0.626101 0.045529 -0.016999 -167195.000000 0 0 1
4.982995 -23.136682 33.619368 41.114452 -1.358665 0.613389 0.050019 -0.022025 -51753.400000 0 0 1
4.557395 -21.909282 33.038950 39.904370 -1.365709 0.595348 0.069057 -0.040395 326271.000000 0 0 1
3.070195 -21.524882 33.356842 39.817403 -1.429117 0.577655 0.053542 -0.036055 614642.000000 0 0 1
2.123395 -22.443982 32.872939 39.860648 -1.476468 0.601131 0.052825 -0.031753 -190929.000000 0 0 1
1.737495 -23.401582 33.828479 41.170608 -1.496685 0.606469 0.048919 -0.025110 -779387.000000 0 0 1
0.393795 -24.013782 33.440653 41.171520 -1.554399 0.622835 0.057414 -0.022127 -307117.000000 0 0 1
0.445595 -24.805182 32.277803 40.710591 -1.552834 0.655308 0.058175 -0.023118 167484.000000 0 0 1
-0.873705 -25.202082 31.934841 40.690814 1.536142 0.668396 0.061305 -0.025683 202639.000000 0 0 1
-0.986705 -26.347382 30.928851 40.641751 1.533364 0.705925 0.067794 -0.025272 -329791.000000 0 0 1
-2.278705 -26.687182 30.507141 40.596599 1.485617 0.720508 0.078317 -0.022083 -207637.000000 0 0 1
-2.240005 -27.922382 29.809401 40.905714 1.490745 0.754324 0.086956 -0.023818 -947232.000000 0 0 1
-3.570605 -28.283182 29.242771 40.839041 1.445216 0.772670 0.096704 -0.019810 -2339580.000000 0 0 1
-4.551905 -28.695282 30.050261 41.799010 1.413478 0.768545 0.100738 -0.018777 -1528130.000000 0 0 1
-5.625805 -29.048582 29.239801 41.598507 1.379496 0.791323 0.096841 -0.022087 -684843.000000 0 0 1
-6.928105 -29.454582 29.951351 42.575280 1.339782 0.790498 0.082427 -0.017212 -397039.000000 0 0 1
-7.846705 -30.091882 29.079511 42.575934 1.315718 0.818930 0.108835 -0.016696 250554.000000 0 0 1
-9.159005 -30.246282 29.583891 43.288931 1.276760 0.818379 0.084568 -0.017738 78080.200000 0 0 1
-9.364605 -31.423682 30.600621 44.850213 1.281165 0.819913 0.073150 -0.017723 -591025.000000 0 0 1
-9.502105 -32.747282 30.067801 45.461491 1.288387 0.848125 0.101238 -0.021821 38906.000000 0 0 1
-10.753405 -33.024182 29.488041 45.560695 1.256002 0.866857 0.095901 -0.020234 -243537.000000 0 0 1
-10.781705 33.659114 28.968341 45.698424 -1.260803 0.884208 0.113192 -0.022739 -282771.000000 0 0 1
-10.991105 32.777914 30.032581 45.794672 -1.247258 0.855542 0.098807 -0.020526 200957.000000 0 0 1
-10.712605 31.394314 29.699651 44.524512 -1.241958 0.840567 0.102189 -0.026741 130297.000000 0 0 1
-11.221305 30.413214 30.802441 44.717689 -1.217330 0.810936 0.092604 -0.013002 -13592.000000 0 0 1
-12.618205 30.222414 30.723111 44.905712 -1.175286 0.817332 0.084244 -0.010938 -154256.000000 0 0 1
-13.099605 29.038314 31.313571 44.669487 -1.147016 0.793989 0.073092 -0.015594 -64724.700000 0 0 1
-13.260305 29.086114 32.878563 45.856708 -1.143048 0.771329 0.078314 -0.025573 371428.000000 0 0 1
-14.333305 29.935214 33.380917 47.072777 -1.124243 0.782527 0.080470 -0.014778 1045960.000000 0 0 1
-14.406305 29.799214 -33.301099 46.952082 -1.120480 2.359240 0.073458 -0.021342 -322174.000000 0 0 1
-15.809405 30.088714 -32.768109 47.212466 -1.087015 2.337905 0.064509 -0.014496 -278985.000000 0 0 1
-15.885405 29.468314 -31.518419 45.979760 -1.076385 2.326065 0.064648 -0.015801 239401.000000 0 0 1
-17.146005 29.712814 -30.899749 46.169593 -1.047417 2.304017 0.074407 -0.010088 449007.000000 0 0 1
-17.179105 29.175214 -29.432599 44.861929 -1.038634 2.286397 0.080452 -0.020578 -68516.300000 0 0 1
-17.018205 27.764814 -29.328829 43.825614 -1.020915 2.303950 0.071240 -0.027234 164449.000000 0 0 1
-17.152505 27.428414 -27.936539 42.743146 -1.011942 2.283116 0.066381 -0.026328 -64331.000000 0 0 1
-17.778805 26.027314 -27.737549 41.986648 -0.971515 2.292451 0.038645 -0.026604 740967.000000 0 0 1
-19.184105 26.033014 -28.026529 42.792920 -0.935723 2.284891 0.049351 -0.022377 402171.000000 0 0 1
-19.658005 24.764114 -27.691779 42.030146 -0.899841 2.290092 0.036161 -0.021590 -1130750.000000 0 0 1
-21.127105 24.522314 -27.906239 42.737064 -0.859637 2.282302 0.047304 -0.015002 -1202960.000000 0 0 1
-21.974605 25.174214 -26.979419 42.947798 -0.853156 2.250022 0.040076 -0.013356 -940451.000000 0 0 1
-23.250005 24.759614 -27.312849 43.584320 -0.816832 2.248065 0.040640 -0.018217 -995371.000000 0 0 1
-24.311905 24.984614 -26.246459 43.636868 -0.799043 2.216142 0.058107 -0.023271 -147285.000000 0 0 1
-24.885705 26.293914 -26.009779 44.577762 -0.812906 2.193791 0.033702 -0.003697 319059.000000 0 0 1
-26.042575 26.256714 -25.179689 44.739775 -0.789493 2.168570 0.031120 0.004528 82895.700000 0 0 1
-25.915435 25.830814 -23.722559 43.607345 -0.783763 2.145998 0.027143 0.006118 -777886.000000 0 0 1
-25.728975 24.439814 -23.446259 42.532479 -0.759707 2.154664 0.025075 -0.003391 108302.000000 0 0 1
-26.925315 23.674014 -23.313459 42.766212 -0.721231 2.147349 0.024458 -0.003914 526887.000000 0 0 1
-27.791215 23.884814 -22.006159 42.744672 -0.709948 2.111603 0.021404 -0.004169 -83631.300000 0 0 1
-27.167315 23.441914 -20.842059 41.496720 -0.711920 2.097004 0.016519 -0.004945 255655.000000 0 0 1
-26.125975 24.291214 -20.367559 41.078792 -0.749023 2.089572 0.020999 -0.002921 112056.000000 0 0 1
-25.134085 23.680214 -19.341959 39.580123 -0.755623 2.081371 0.030578 -0.003589 -393162.000000 0 0 1
-25.557815 23.453014 -18.058759 39.107091 -0.742479 2.050794 0.031954 -0.009717 807622.000000 0 0 1
-24.479205 23.056114 -17.161059 37.753382 -0.755470 2.042671 0.049524 -0.017278 661561.000000 0 0 1
-24.969805 23.119914 -15.671659 37.464950 -0.746950 2.002371 0.033708 -0.018618 162015.000000 0 0 1
-25.395465 24.412414 -15.187859 38.361005 -0.765664 1.977865 0.039483 -0.025827 642323.000000 0 0 1
-26.076715 24.374114 -13.876859 38.296994 -0.751663 1.941583 0.014520 -0.022712 411866.000000 0 0 1
-26.265435 25.802614 -13.461659 39.202860 -0.776510 1.921315 0.019389 -0.019143 -190356.000000 0 0 1
-25.055805 26.452614 -13.174059 38.743903 -0.812510 1.917744 0.034217 -0.018263 -413730.000000 0 0 1
-25.222705 27.275514 -12.034959 39.050977 -0.824481 1.884082 0.042715 -0.023546 753043.000000 0 0 1
-23.869205 27.947214 -11.596259 38.539058 -0.863937 1.876429 0.054758 -0.025638 1053130.000000 0 0 1
-22.937505 26.979214 -11.080359 37.105007 -0.866191 1.874044 0.052421 -0.026470 589543.000000 0 0 1
-21.795105 27.617114 -10.495759 36.713657 -0.902683 1.860723 0.052545 -0.026357 492802.000000 0 0 1
-20.846605 26.501714 -9.933759 35.151122 -0.904271 1.857301 0.096819 -0.020760 -171820.000000 0 0 1
-20.130205 25.789514 -10.918359 34.489633 -0.908023 1.892907 0.083831 -0.028328 -6063.650000 0 0 1
-19.522005 24.699314 -10.268559 33.115074 -0.901945 1.886081 0.092615 -0.019361 -189792.000000 0 0 1
-18.656105 23.846214 -11.251859 32.300101 -0.906910 1.926611 0.090838 -0.027920 -25120.400000 0 0 1
-18.231005 22.645614 -10.685059 30.973600 -0.892980 1.923006 0.074106 -0.018603 -69023.600000 0 0 1
-17.504405 21.910514 -11.614559 30.354124 -0.896724 1.963443 0.092870 -0.018365 -48553.100000 0 0 1
-17.173805 20.464114 -11.262959 28.992651 -0.872597 1.969774 0.077957 -0.007820 413261.000000 0 0 1
-18.365105 19.664614 -11.230959 29.156622 -0.819556 1.966214 0.068515 -0.002003 416540.000000 0 0 1
-18.070605 18.419914 -10.643859 27.912932 -0.794970 1.962024 0.088781 -0.018959 -955769.000000 0 0 1
-19.173705 17.363414 -10.448159 27.897727 -0.735892 1.954672 0.075251 -0.008172 33193.100000 0 0 1
-19.849705 16.805014 -11.603059 28.478944 -0.702524 1.990430 0.081805 -0.005735 351521.000000 0 0 1
-20.685905 17.738914 -12.243759 29.874494 -0.708853 1.993075 0.078433 -0.006582 -632375.000000 0 0 1
-21.458205 17.151314 -13.472259 30.596142 -0.674307 2.026757 0.078013 -0.011604 50104.300000 0 0 1
-20.677705 17.178914 -14.649059 30.614988 -0.693238 2.069734 0.081456 -0.014075 40739.600000 0 0 1
-21.310905 16.598314 -15.795659 31.291557 -0.661720 2.099935 0.074916 -0.011083 79880.800000 0 0 1
-20.319505 16.356014 -16.961659 31.114295 -0.677747 2.147353 0.088873 -0.018671 -110226.000000 0 0 1
-19.976605 17.496414 -17.700759 31.914043 -0.719309 2.158725 0.076959 -0.019335 -7956.080000 0 0 1
-19.019705 16.998614 -18.624159 31.584195 -0.729344 2.201443 0.085885 -0.014945 -286635.000000 0 0 1
-18.174205 18.222214 -19.140659 32.073597 -0.786717 2.210270 0.070479 -0.011112 -183821.000000 0 0 1
-17.348205 18.708314 -18.115159 31.290897 -0.823102 2.188209 0.084959 -0.015131 134489.000000 0 0 1
-16.758805 19.970714 -18.427459 31.925824 -0.872624 2.186087 0.083600 -0.013991 45628.500000 0 0 1
34.023199 29.840414 1.795241 45.290742 0.719996 1.531148 0.095466 -0.017844 -1032430.000000 0 0 1
35.337979 30.182914 1.592541 46.500723 0.706882 1.536542 0.105384 -0.017499 -987608.000000 0 0 1
35.471809 30.677514 0.291841 46.898233 0.713048 1.564573 0.076891 -0.009144 -105483.000000 0 0 1
36.913429 30.754114 -0.240859 48.046590 0.694625 1.575809 0.037139 -0.004183 -236494.000000 0 0 1
-36.175875 31.694914 0.427041 48.098274 -0.719472 1.561918 0.012453 -0.006711 386810.000000 0 0 1
-34.979213 31.824714 -0.345559 47.291408 -0.738213 1.578103 0.045004 -0.006263 669340.000000 0 0 1
-33.964915 32.946614 0.090741 47.319162 -0.770181 1.568879 0.041903 -0.006240 84227.700000 0 0 1
-33.239745 32.613614 1.219841 46.583436 -0.775890 1.544607 0.049020 -0.006290 -217899.000000 0 0 1
-32.986735 33.740114 2.049841 47.230519 -0.796688 1.527382 0.019379 -0.005746 -489682.000000 0 0 1
-32.117905 33.485514 3.242041 46.511830 -0.806242 1.501036 0.051916 -0.004037 -422123.000000 0 0 1
-32.111575 -33.399782 3.985641 46.503592 0.805060 1.484985 0.027958 0.007791 175289.000000 0 0 1
-31.265265 -33.516882 5.120141 46.120647 0.820141 1.459551 0.052659 -0.012175 -566073.000000 0 0 1
-31.207975 -32.123782 5.878141 45.171093 0.799858 1.440296 0.054842 -0.008562 422129.000000 0 0 1
-32.434325 -31.640382 6.438141 45.766242 0.773008 1.429654 0.061431 -0.008823 574406.000000 0 0 1
-32.932605 -32.474682 7.485541 46.852906 0.778397 1.410342 0.057220 -0.022761 -1355820.000000 0 0 1
-34.071125 -31.943782 8.364341 47.446907 0.753184 1.393582 0.065494 -0.019031 -136248.000000 0 0 1
-35.336642 -31.623682 7.865241 48.068676 0.730005 1.406432 0.063673 -0.023001 19284.900000 0 0 1
-36.043469 -32.763682 7.319141 49.256070 0.737768 1.421650 0.053141 -0.026078 -268122.000000 0 0 1
36.332699 -32.460982 7.209241 49.251939 -0.729177 1.423894 0.047654 -0.018195 507047.000000 0 0 1
35.654709 -32.546582 8.456341 49.010692 -0.739857 1.397388 0.035275 -0.015943 1714330.000000 0 0 1
34.216149 -32.387682 8.263641 47.832986 -0.757952 1.397165 0.033202 -0.003541 1835650.000000 0 0 1
33.293949 -32.627882 9.513341 47.576984 -0.775295 1.369482 0.051317 -0.017375 1021440.000000 0 0 1
31.898699 -32.465382 9.215641 46.437658 -0.794202 1.371018 0.052223 -0.023397 1192410.000000 0 0 1
30.971769 -32.507282 10.300541 46.065985 -0.809583 1.345286 0.057801 -0.020661 384306.000000 0 0 1
30.943539 -31.249282 11.274441 45.399705 -0.790314 1.319833 0.059240 -0.015640 -440602.000000 0 0 1
30.419019 -30.029582 10.718141 44.067801 -0.778956 1.325113 0.041181 -0.017382 993471.000000 0 0 1
31.274869 -29.331882 9.756041 43.973368 -0.753350 1.347072 0.034779 -0.017142 1022550.000000 0 0 1
30.458989 -28.041282 9.272441 42.426898 -0.744094 1.350467 0.020322 -0.015344 558256.000000 0 0 1
31.017629 -27.467082 8.131541 42.221509 -0.724764 1.376993 0.023763 -0.016679 -61895.200000 0 0 1
30.431279 -26.190182 7.902241 40.919846 -0.710635 1.376460 0.014208 -0.016158 192083.000000 0 0 1
30.178919 -25.797582 6.433741 40.220336 -0.707286 1.410144 -0.000061 -0.008667 1189060.000000 0 0 1
31.449699 -25.500982 5.799841 40.902589 -0.681322 1.428520 0.031312 -0.014450 783977.000000 0 0 1
31.355299 -24.987782 4.472641 40.342887 -0.672862 1.459702 0.027442 -0.011767 -472506.000000 0 0 1
32.685569 -24.396082 4.000741 40.981961 -0.641185 1.473019 0.045610 -0.011708 8283.410000 0 0 1
33.527419 -25.478282 3.610141 42.264214 -0.649822 1.485274 0.040372 0.000418 -333685.000000 0 0 1
34.842859 -25.109582 3.287441 43.073463 -0.624452 1.494400 0.045555 -0.006289 -31123.800000 0 0 1
35.807269 -26.316982 3.365341 44.565340 -0.633807 1.495210 0.044893 -0.004788 -56626.600000 0 0 1
35.728889 -27.074682 4.535641 45.057341 -0.648463 1.469962 0.026588 -0.007913 -251493.000000 0 0 1
36.443559 -28.273782 4.442841 46.338737 -0.659825 1.474771 0.032108 -0.009569 -586786.000000 0 0 1
36.096939 -29.194382 5.685941 46.772116 -0.680070 1.448928 0.049317 -0.014624 1113780.000000 0 0 1
34.790179 -29.801982 5.623241 46.153391 -0.708325 1.448655 0.031445 -0.010229 833389.000000 0 0 1
33.726109 -28.923082 5.972641 44.829316 -0.708882 1.437168 0.027611 0.003634 -1137920.000000 0 0 1
32.439949 -29.705782 6.307241 44.436078 -0.741430 1.428376 0.020206 0.001189 365244.000000 0 0 1
31.589239 -30.222982 5.259441 44.033741 -0.763298 1.451069 -0.000274 -0.005342 496882.000000 0 0 1
31.071409 -29.177682 4.415241 42.851650 -0.753977 1.467578 0.015731 -0.007203 -748593.000000 0 0 1
29.667309 -29.530282 3.866241 42.037300 -0.783083 1.478694 0.004789 -0.000972 125177.000000 0 0 1
29.518359 -30.681382 3.051341 42.684791 -0.804715 1.499250 0.022222 0.006456 254332.000000 0 0 1
28.261689 -31.298782 3.336841 42.302143 -0.836346 1.491833 0.041057 -0.001224 351665.000000 0 0 1
28.100489 -32.666482 2.668341 43.172405 -0.860397 1.508950 0.051636 0.001976 -470055.000000 0 0 1
28.093689 -32.836782 1.243241 43.232572 -0.863086 1.542035 0.053696 0.006107 181369.000000 0 0 1
28.055989 33.890114 0.959341 44.006803 0.879302 1.548995 0.074126 0.009934 -178681.000000 0 0 1
27.971589 33.726314 -0.549459 43.819812 0.878402 1.583336 0.064455 0.008204 -96033.900000 0 0 1
28.994719 -33.748082 -1.313859 44.512391 -0.861013 1.600317 0.054259 0.005632 173073.000000 0 0 1
28.598189 -33.748382 -2.663859 44.315977 -0.867817 1.630943 0.055766 0.006149 424704.000000 0 0 1
29.688609 -33.314682 -3.731059 44.779486 -0.842888 1.654214 0.043535 0.006612 582792.000000 0 0 1
30.001709 -31.910982 -3.672359 43.953379 -0.816227 1.654445 0.020733 0.001883 659192.000000 0 0 1
30.977599 -31.561682 -4.686459 44.471500 -0.794737 1.676374 0.009890 0.004696 266450.000000 0 0 1
31.375589 -30.049282 -4.614159 43.688413 -0.763809 1.676609 -0.006034 0.011142 -261446.000000 0 0 1
30.420979 -29.089282 -5.073659 42.395333 -0.763024 1.690759 0.005126 -0.000084 410826.000000 0 0 1
30.876369 -27.715482 -4.768759 41.764089 -0.731503 1.685229 0.001914 -0.012461 541676.000000 0 0 1
31.860389 -27.162982 -5.855959 42.275338 -0.705980 1.709763 0.023757 -0.014070 849110.000000 0 0 1
33.094389 -27.908782 -5.896359 43.691026 -0.700597 1.706165 0.019734 0.006930 420374.000000 0 0 1
34.034859 -27.209582 -6.700959 44.086685 -0.674413 1.723383 0.037310 -0.005506 124432.000000 0 0 1
34.304509 -27.902282 -8.071459 44.949807 -0.682841 1.751342 0.038191 -0.018324 514584.000000 0 0 1
33.113019 -27.792282 -8.920459 44.141336 -0.698259 1.774286 0.043430 -0.017680 1273030.000000 0 0 1
32.732179 -29.012082 -9.563559 44.772292 -0.725221 1.786059 0.040930 -0.005603 182750.000000 0 0 1
32.522619 -30.279182 -8.733959 45.286109 -0.749691 1.764874 0.039692 -0.005732 -951861.000000 0 0 1
33.697499 -30.915082 -8.358559 46.487947 -0.742362 1.751580 0.037670 0.001298 -962556.000000 0 0 1
33.417309 -32.082782 -7.673059 46.956334 -0.765027 1.734941 0.043347 0.000049 257481.000000 0 0 1
34.643729 -32.838082 -7.103859 48.259635 -0.758647 1.718534 0.036735 -0.001691 318608.000000 0 0 1
34.296109 33.984814 -6.481159 48.715461 0.780839 1.704233 0.027990 -0.004684 -32545.800000 0 0 1
33.832439 -34.027782 -5.157559 48.261002 -0.788277 1.677869 0.033189 -0.000376 -150393.000000 0 0 1
33.721299 32.677314 -4.641959 47.185598 0.769676 1.669332 0.016409 0.005309 -77268.600000 0 0 1
32.692259 31.881214 -5.190959 45.958042 0.772839 1.683988 0.042169 -0.003836 -18146.900000 0 0 1
32.955629 30.542314 -5.101759 45.220951 0.747410 1.683856 0.040740 0.003179 -72513.800000 0 0 1
31.741089 29.642314 -5.431359 43.768290 0.751220 1.695211 0.059877 -0.010507 -29557.800000 0 0 1
31.525029 29.571414 -6.821259 43.758720 0.753433 1.727318 0.037247 -0.003091 241876.000000 0 0 1
30.479979 28.643314 -7.110059 42.426660 0.754343 1.739176 0.034559 -0.001998 223637.000000 0 0 1
30.350339 28.369814 -8.616259 42.429110 0.751683 1.775293 0.040579 0.002080 -346465.000000 0 0 1
31.229179 27.386214 -9.055859 42.512056 0.719929 1.785460 0.042518 0.000755 -175254.000000 0 0 1
31.476449 27.361114 -10.481459 43.003004 0.715568 1.817014 0.033592 0.002639 -167459.000000 0 0 1
32.631999 28.212514 -11.040059 44.527252 0.712890 1.821349 0.051628 -0.004286 -387125.000000 0 0 1
33.880549 27.749114 -10.529859 45.042012 0.686236 1.806758 0.053121 -0.010098 190521.000000 0 0 1
34.946139 28.601014 -10.878359 46.449858 0.685879 1.807188 0.065168 -0.010742 -105275.000000 0 0 1
35.084129 29.958414 -10.093559 47.225868 0.706755 1.786187 0.062030 -0.013125 -920996.000000 0 0 1
35.570229 29.826914 -8.752859 47.238740 0.697801 1.757163 0.041618 -0.011485 154073.000000 0 0 1
35.510049 31.129014 -8.133259 47.917940 0.719750 1.741355 0.034512 -0.010987 -716526.000000 0 0 1
36.548119 31.246414 -6.982659 48.588691 0.707354 1.715005 0.029330 -0.008086 477760.000000 0 0 1
-35.987036 31.397514 -7.291959 48.311938 -0.717394 1.722310 0.039453 -0.012758 -76523.700000 0 0 1
-35.350773 30.308814 -7.875559 47.226326 -0.708759 1.738341 0.046494 -0.017342 -493815.000000 0 0 1
-33.898445 30.520714 -8.403959 46.381517 -0.733012 1.752995 0.086215 -0.030566 588716.000000 0 0 1
-33.036825 31.136714 -7.439459 46.002960 -0.755798 1.733227 0.066221 -0.030830 173905.000000 0 0 1
-31.706245 31.293514 -7.857859 45.236224 -0.778847 1.745389 0.087176 -0.047413 13118.900000 0 0 1
-31.314555 32.583214 -8.673259 46.016222 -0.805250 1.760413 0.067905 -0.040484 -240643.000000 0 0 1
-31.507295 33.800714 -8.060859 46.906027 -0.820501 1.743505 0.054857 -0.021711 51146.900000 0 0 1
-30.499295 -33.966782 -7.129959 46.203740 0.839134 1.725731 0.086263 -0.017449 6824.300000 0 0 1
-30.720395 -32.555982 -6.511859 45.233162 0.814399 1.715260 0.066303 -0.015876 -85121.400000 0 0 1
-31.677485 -32.339282 -5.502559 45.602307 0.795736 1.691755 0.061979 -0.016228 -4259.050000 0 0 1
-31.359125 -32.979282 -4.248859 45.706461 0.810575 1.663890 0.065768 -0.015091 346132.000000 0 0 1
-32.555625 -32.926782 -3.241759 46.417138 0.791066 1.640693 0.056988 -0.013260 312924.000000 0 0 1
-32.966085 -31.623482 -2.812659 45.768094 0.764614 1.632290 0.055422 -0.008638 281843.000000 0 0 1
-33.960275 -31.779082 -1.794959 46.544949 0.752231 1.609370 0.060251 -0.006511 -144224.000000 0 0 1
-34.718832 -30.497482 -1.536759 46.236948 0.720760 1.604039 0.072185 0.000094 121920.000000 0 0 1
-35.680276 -30.756282 -0.494759 47.109190 0.711418 1.581299 0.053454 0.006058 432746.000000 0 0 1
-36.392585 -29.537882 -0.203759 46.871615 0.681802 1.575144 0.072944 -0.003320 81435.000000 0 0 1
36.392959 -29.616382 0.831341 46.928335 -0.683096 1.553080 0.068339 0.001325 -444492.000000 0 0 1
35.118739 -30.060182 0.409641 46.228867 -0.707943 1.561935 0.023133 0.006707 275761.000000 0 0 1
34.128769 -29.976782 1.418041 45.446575 -0.720721 1.539589 0.037957 0.004588 358987.000000 0 0 1
33.433879 -28.592082 1.629441 44.022568 -0.707495 1.533774 0.009227 0.017814 -864159.000000 0 0 1
32.642269 -28.143382 0.581641 43.103433 -0.711521 1.557302 0.002166 0.009568 -393219.000000 0 0 1
31.990019 -26.937782 0.831741 41.829382 -0.699871 1.550911 0.004296 0.010367 -575716.000000 0 0 1
30.711559 -26.824882 -0.014659 40.777130 -0.717949 1.571156 -0.001256 -0.007704 -437885.000000 0 0 1
29.678189 -27.680882 0.454141 40.586111 -0.750591 1.559607 -0.002726 0.004280 91831.700000 0 0 1
29.687979 -29.072182 0.120141 41.552164 -0.774919 1.567905 0.000006 0.005137 -661725.000000 0 0 1
29.277639 -29.397882 -1.362259 41.512304 -0.787447 1.603618 0.011198 -0.004666 948378.000000 0 0 1
27.894489 -29.184682 -1.723059 40.408132 -0.807998 1.613451 0.017309 -0.002503 1034660.000000 0 0 1
27.700589 -29.796582 -3.024859 40.795940 -0.821836 1.645011 0.030791 -0.003130 -521346.000000 0 0 1
26.227789 -30.104782 -3.244559 40.058981 -0.854113 1.651880 0.054288 -0.010942 -460230.000000 0 0 1
25.355989 -29.003682 -3.386159 38.673063 -0.852401 1.658467 0.060089 -0.009061 257182.000000 0 0 1
24.021589 -29.532182 -3.377659 38.217733 -0.887936 1.659291 0.046207 -0.011397 780156.000000 0 0 1
22.936989 -28.414382 -3.508059 36.684998 -0.891661 1.666569 0.050678 -0.013819 232250.000000 0 0 1
22.972189 -27.725282 -4.751259 36.317863 -0.878879 1.701997 0.061738 -0.020945 -18105.100000 0 0 1
22.229989 -26.548982 -4.555059 34.925197 -0.873710 1.701592 0.063132 -0.029154 115628.000000 0 0 1
21.706089 -25.814482 -5.843459 34.229925 -0.871639 1.742349 0.069006 -0.041310 2880.390000 0 0 1
20.565389 -26.421682 -6.411459 34.090282 -0.909395 1.759996 0.080126 -0.040745 -619399.000000 0 0 1
20.131589 -25.639982 -7.502159 33.451038 -0.905167 1.796993 0.091868 -0.035638 -1160980.000000 0 0 1
18.657889 -25.904782 -7.608559 32.818664 -0.946609 1.804761 0.092529 -0.031520 -1460470.000000 0 0 1
17.923689 -25.247182 -6.591659 31.656418 -0.953438 1.780556 0.090513 -0.029195 -716918.000000 0 0 1
16.593389 -25.661482 -6.749159 31.295421 -0.996796 1.788164 0.080350 -0.029969 -143156.000000 0 0 1
15.609589 -24.781882 -5.908459 29.878267 -1.008696 1.769859 0.066360 -0.017392 372427.000000 0 0 1
15.890989 -24.949582 -4.508559 29.922103 -1.003668 1.722049 0.061167 -0.015212 -76558.800000 0 0 1
15.028689 -24.052282 -3.876959 28.625244 -1.012316 1.706652 0.058371 -0.013068 74619.900000 0 0 1
14.729389 -24.473182 -2.396759 28.664194 -1.029012 1.654509 0.050774 -0.011101 -13201.000000 0 0 1
13.923289 -25.588982 -2.199159 29.214556 -1.072484 1.646144 0.054368 -0.005137 62153.500000 0 0 1
14.752589 -26.641182 -1.742659 30.502923 -1.065078 1.627958 0.053065 -0.010439 -259352.000000 0 0 1
14.187489 -28.047882 -1.995959 31.495276 -1.102495 1.634212 0.059689 -0.006643 567893.000000 0 0 1
13.078789 -28.413482 -1.158759 31.300534 -1.139408 1.607825 0.067066 -0.012282 516797.000000 0 0 1
12.400889 -29.648282 -1.456259 32.170225 -1.174643 1.616079 0.069198 -0.017254 282782.000000 0 0 1
13.120789 -30.965582 -1.113659 33.649110 -1.170009 1.603899 0.065373 -0.015320 -356615.000000 0 0 1
14.223889 -31.321282 -1.892159 34.451734 -1.144514 1.625746 0.070325 -0.014047 -550699.000000 0 0 1
14.793389 -32.568782 -1.539359 35.804183 -1.144439 1.613803 0.075479 -0.018998 -59028.300000 0 0 1
16.228089 -32.600682 -2.131359 36.478734 -1.108923 1.629257 0.067927 -0.011202 130814.000000 0 0 1
17.041989 -31.624482 -1.473059 35.954237 -1.076526 1.611778 0.056945 -0.003868 -241000.000000 0 0 1
18.282989 -31.408082 -2.094759 36.402243 -1.043634 1.628373 0.063155 -0.002309 -443902.000000 0 0 1
19.130189 -30.458582 -1.290059 35.991021 -1.009991 1.606648 0.053226 -0.009639 -313455.000000 0 0 1
18.534389 -29.150582 -1.233159 34.565889 -1.004457 1.606479 0.057001 -0.011474 246087.000000 0 0 1
19.105589 -28.382782 -0.213659 34.214785 -0.978326 1.577041 0.053285 -0.008529 -285378.000000 0 0 1
18.754089 -26.858082 -0.203459 32.758416 -0.961235 1.577007 0.045720 -0.013962 -241719.000000 0 0 1
19.068289 -26.058282 -1.330559 32.317241 -0.939074 1.611980 0.054523 -0.025240 826078.000000 0 0 1
18.203389 -26.396182 -2.462259 32.158739 -0.967069 1.647437 0.068672 -0.024765 119697.000000 0 0 1
33.017929 -29.029082 13.823941 46.086577 -0.721199 1.266150 0.060815 -0.022478 -110169.000000 0 0 1
33.875789 -29.434482 14.832741 47.264871 -0.715361 1.251581 0.072705 -0.013744 -209506.000000 0 0 1
33.134609 -29.753682 15.987241 47.315703 -0.731689 1.226128 0.064643 -0.012447 -124595.000000 0 0 1
33.913869 -30.487882 17.080541 48.697088 -0.732251 1.212424 0.062853 -0.003057 -869465.000000 0 0 1
33.142929 -30.765682 18.197141 48.745429 -0.748218 1.188222 0.059805 -0.007251 -183530.000000 0 0 1
33.776939 -31.308782 19.336641 49.950247 -0.747495 1.173292 0.048549 -0.004605 -106276.000000 0 0 1
34.648019 -32.609482 19.343741 51.361891 -0.755098 1.184655 0.047142 0.003478 -187701.000000 0 0 1
35.759999 -32.497382 18.514641 51.746008 -0.737636 1.204887 0.053479 0.009759 -28141.000000 0 0 1
36.603429 -33.659782 18.629141 53.102136 -0.743528 1.212353 0.063637 0.011126 142716.000000 0 0 1
-36.177545 -33.739282 17.564941 52.494582 0.750539 1.229610 0.068738 0.009688 -210776.000000 0 0 1
-35.054382 -33.004482 18.002841 51.402411 0.755288 1.212976 0.069047 0.010229 -62224.000000 0 0 1
-34.137340 -32.921582 16.928641 50.356405 0.767270 1.227942 0.089184 0.011400 -175706.000000 0 0 1
-32.830065 -32.179282 17.354041 49.137380 0.775388 1.209835 0.087096 0.006495 489163.000000 0 0 1
-31.846675 -32.168382 16.319341 48.117943 0.790424 1.224780 0.099295 -0.003682 247489.000000 0 0 1
-32.006515 -31.053582 15.429941 47.189248 0.770288 1.237690 0.105652 -0.004040 -700985.000000 0 0 1
-30.809625 -30.947482 14.499341 46.013157 0.787630 1.250221 0.096298 -0.014075 -547403.000000 0 0 1
-29.600805 -30.690682 15.152741 45.251864 0.803473 1.229347 0.092053 -0.019863 -279504.000000 0 0 1
-28.562565 -30.602182 14.176141 44.195890 0.819858 1.244268 0.074921 -0.011607 544223.000000 0 0 1
-27.155305 -30.353882 14.768541 43.322957 0.840959 1.222928 0.069985 -0.017977 640975.000000 0 0 1
-26.104435 -30.295182 13.797941 42.303934 0.859566 1.238555 0.067460 -0.019077 230044.000000 0 0 1
-24.887205 -29.997282 14.471141 41.576723 0.878237 1.215297 0.063584 -0.021361 -367933.000000 0 0 1
-23.636305 -29.913582 13.625641 40.486485 0.902089 1.227548 0.068725 -0.020371 -419695.000000 0 0 1
-23.143005 -31.161882 13.152841 40.983641 0.932003 1.244086 0.070198 -0.022803 204693.000000 0 0 1
-21.889505 -31.039582 12.514041 39.990091 0.956581 1.252521 0.056177 -0.020283 4892.490000 0 0 1
-21.447405 -32.443482 12.110641 40.733750 0.986679 1.268920 0.045228 -0.019978 -499146.000000 0 0 1
-22.336505 -33.054382 11.223741 41.442539 0.976531 1.296545 0.045785 -0.022031 10018.700000 0 0 1
-22.073005 33.656014 11.115041 41.755108 -0.990326 1.301352 0.052969 -0.013146 -255289.000000 0 0 1
-23.004605 32.881114 10.206241 41.407088 -0.960319 1.321744 0.048085 -0.004305 -384363.000000 0 0 1
-22.862705 33.153814 8.836341 41.230567 -0.967088 1.354806 0.037258 -0.000651 500281.000000 0 0 1
-24.021605 32.801714 8.072241 41.450586 -0.938702 1.374800 0.039120 -0.007105 -16307.900000 0 0 1
-23.927505 33.365814 6.661541 41.595423 -0.948668 1.409953 0.045409 -0.004937 84343.600000 0 0 1
-23.119805 32.681714 5.694541 40.435723 -0.955106 1.429497 0.032932 -0.001844 694930.000000 0 0 1
-21.708005 32.620914 5.822541 39.613931 -0.983628 1.423280 0.038281 -0.005420 209159.000000 0 0 1
-20.841905 33.874214 5.462241 40.145778 -1.019222 1.434313 0.044139 -0.006934 -291849.000000 0 0 1
-20.755605 -33.089182 6.350041 39.572872 1.010572 1.409635 0.055527 -0.011235 -99711.500000 0 0 1
-20.099005 -33.432682 7.534041 39.730040 1.029511 1.380010 0.057632 -0.010018 -409810.000000 0 0 1
-20.069205 -32.204782 8.459941 38.877907 1.013511 1.351439 0.064791 -0.016506 -367966.000000 0 0 1
-19.223105 -31.158582 8.042841 37.484294 1.018011 1.354549 0.092505 -0.034124 -185275.000000 0 0 1
-19.178005 -29.989782 8.865941 36.684981 1.001849 1.326702 0.095443 -0.033523 332159.000000 0 0 1
-18.373105 -30.134382 10.199241 36.737944 1.023271 1.289479 0.073194 -0.020849 336034.000000 0 0 1
-16.995005 -30.429982 10.084541 36.283771 1.061454 1.289152 0.084971 -0.029259 19610.700000 0 0 1
-16.311005 -30.322182 11.348341 36.252841 1.077272 1.252411 0.087544 -0.024364 426983.000000 0 0 1
-14.941605 -31.032082 11.192241 36.214748 1.122067 1.256600 0.078915 -0.021799 152904.000000 0 0 1
-14.002905 -30.360882 10.362041 35.003377 1.138655 1.270263 0.082020 -0.019570 -120112.000000 0 0 1
-12.991105 -31.272882 9.975441 35.302570 1.177075 1.284324 0.088331 -0.008000 34716.400000 0 0 1
-11.771505 -30.528482 9.398841 34.042544 1.202773 1.291072 0.090281 -0.003670 123323.000000 0 0 1
-10.937605 -29.851582 10.303041 33.420066 1.219587 1.257402 0.082343 -0.006421 21202.500000 0 0 1
-9.951005 -28.975682 9.765441 32.155505 1.239990 1.262229 0.096567 -0.008975 785812.000000 0 0 1
-9.084105 -28.364182 10.937241 31.728080 1.260851 1.218858 0.095615 -0.007669 200120.000000 0 0 1
-9.758105 -27.411382 11.703541 31.362037 1.228798 1.188367 0.093813 -0.013891 -423966.000000 0 0 1
-9.075405 -27.128282 12.902741 31.381323 1.247963 1.147070 0.090236 -0.006220 184324.000000 0 0 1
-9.608305 -25.843982 13.603541 30.745525 1.214851 1.112461 0.078080 -0.015961 266073.000000 0 0 1
-9.203905 -24.600382 13.041341 29.325199 1.212783 1.109941 0.067146 -0.016559 27409.300000 0 0 1
-9.849205 -24.307082 11.789441 28.754687 1.185816 1.148342 0.071143 -0.017018 161397.000000 0 0 1
-9.355705 -23.037882 11.096641 27.228821 1.185042 1.151045 0.055408 -0.018154 -208044.000000 0 0 1
-8.129805 -23.123382 10.428941 26.637330 1.232711 1.168518 0.047695 -0.015890 -393927.000000 0 0 1
-7.687705 -21.824182 10.042341 25.223885 1.232113 1.161321 0.046269 -0.010748 -376511.000000 0 0 1
-6.598605 -21.807182 8.967041 24.484743 1.276966 1.195842 0.045408 -0.015106 -447083.000000 0 1 0
-5.408405 -22.241082 9.574841 24.811170 1.332254 1.174604 0.057845 -0.023760 -1561430.000000 0 1 0
-4.382805 -22.067282 8.713741 24.126815 1.374737 1.201280 0.051424 -0.027502 -2128920.000000 0 1 0
-3.083805 -22.765982 8.920141 24.644852 1.436159 1.200440 0.052572 -0.033448 -1049370.000000 0 1 0
-2.454805 -22.342582 10.096641 24.640601 1.461364 1.148609 0.055973 -0.031311 -725474.000000 0 1 0
-1.606705 -23.378182 10.485041 25.672106 1.502178 1.150072 0.055175 -0.037579 -78258.600000 0 0 1
-0.477405 -22.955682 11.468941 25.665695 1.550002 1.107545 0.043220 -0.036172 -112149.000000 0 0 1
-0.884405 -22.732082 12.822141 26.113924 1.531910 1.057550 0.053815 -0.031637 -547070.000000 0 0 1
0.142195 -22.542382 13.778441 26.420156 -1.564489 1.022174 0.075678 -0.030887 -671728.000000 0 0 1
0.810795 -21.155882 13.706941 25.221201 -1.532490 0.996232 0.065039 -0.034009 -56159.200000 0 0 1
1.753795 -21.052782 12.642241 24.619539 -1.487684 1.031533 0.054598 -0.044118 -140916.000000 0 1 0
2.358995 -19.791582 12.717441 23.643285 -1.452164 1.002866 0.050140 -0.036535 -738598.000000 0 1 0
3.870295 -19.709682 12.579141 23.699906 -1.376898 1.011290 0.063817 -0.030246 -403864.000000 0 1 0
4.210095 -20.021082 11.218941 23.333094 -1.363533 1.069210 0.060824 -0.033754 -120073.000000 0 1 0
5.588795 -20.303782 11.017041 23.766645 -1.302190 1.088798 0.080960 -0.032814 465436.000000 0 1 0
5.849695 -21.107282 9.745741 23.973230 -1.300441 1.152148 0.087213 -0.042198 -406929.000000 0 1 0
5.772895 -20.296082 8.599941 22.786317 -1.293681 1.183791 0.068888 -0.041379 -260814.000000 0 1 0
6.105695 -20.974982 7.405941 23.066802 -1.287530 1.243943 0.067565 -0.040997 361386.000000 0 1 0
7.568795 -21.510982 7.155341 23.899957 -1.232468 1.266746 0.069091 -0.025478 1274950.000000 0 1 0
8.627595 -20.576582 6.853641 23.341027 -1.173770 1.272774 0.082731 -0.034266 617840.000000 0 1 0
9.021395 -19.591482 7.774541 22.927172 -1.139265 1.224839 0.084458 -0.028570 -110613.000000 0 1 0
9.814895 -19.951982 9.082041 24.018685 -1.113629 1.183027 0.077991 -0.022518 270713.000000 0 1 0
9.053295 -20.325382 10.218941 24.484895 -1.151759 1.140261 0.084195 -0.026970 -315014.000000 0 1 0
9.760495 -19.927382 11.405441 24.948986 -1.115339 1.096008 0.085710 -0.020576 275131.000000 0 1 0
8.982895 -20.074382 12.731041 25.411663 -1.150040 1.046052 0.101084 -0.030316 -41691.700000 0 0 1
8.781495 -21.391482 13.153641 26.603166 -1.181259 1.053607 0.088478 -0.037103 -61380.000000 0 0 1
7.914795 -21.449882 14.271541 26.952149 -1.217305 1.012769 0.106891 -0.036255 246240.000000 0 0 1
8.058495 -22.897082 14.830141 28.445541 -1.232391 1.022362 0.109505 -0.031507 184814.000000 0 0 1
7.793795 -23.937182 13.968241 28.789646 -1.256028 1.064224 0.103606 -0.031773 -256877.000000 0 0 1
7.799595 -25.166782 14.644041 30.143798 -1.270267 1.063511 0.106459 -0.024963 301146.000000 0 0 1
7.699695 -26.415082 13.780841 30.772609 -1.287166 1.106461 0.109680 -0.031621 63321.800000 0 0 1
8.897495 -26.491282 13.048241 30.841693 -1.246769 1.133964 0.110128 -0.027975 -186515.000000 0 0 1
9.031695 -27.667082 12.308141 31.599514 -1.255261 1.170703 0.097219 -0.026271 661121.000000 0 0 1
10.417695 -28.049182 11.665341 32.114875 -1.215178 1.199055 0.100055 -0.025094 871591.000000 0 0 1
11.395395 -28.583582 12.557941 33.235194 -1.191438 1.183323 0.093140 -0.022074 300016.000000 0 0 1
12.635395 -28.656982 11.891941 33.500658 -1.155520 1.207908 0.103976 -0.019839 -287633.000000 0 0 1
13.692995 -29.540682 12.541841 34.891945 -1.136748 1.203120 0.086120 -0.014858 -500385.000000 0 0 1
14.598495 -28.841882 13.391841 34.990165 -1.102236 1.178045 0.082132 -0.014459 353727.000000 0 0 1
15.459795 -29.742182 14.068641 36.352845 -1.091440 1.173418 0.075417 -0.004492 935817.000000 0 0 1
16.850095 -30.059582 13.386341 36.968883 -1.059884 1.200279 0.085758 -0.004667 627356.000000 0 0 1
17.557995 -28.819782 13.185141 36.231354 -1.023615 1.198328 0.079950 -0.016145 609263.000000 0 0 1
18.810295 -29.050282 12.537341 36.809388 -0.996175 1.223239 0.064732 -0.015875 62991.100000 0 0 1
19.656695 -27.750282 12.516241 36.236999 -0.954494 1.218132 0.037926 -0.018252 -533738.000000 0 0 1
20.938395 -27.894782 11.998341 36.884895 -0.926898 1.239476 0.031627 -0.017597 -585314.000000 0 0 1
21.630195 -26.690182 11.887941 36.353188 -0.889735 1.237656 0.023380 -0.010858 823371.000000 0 0 1
23.099095 -26.835682 11.326741 37.175490 -0.860088 1.261191 0.039695 -0.008254 868599.000000 0 0 1
23.936495 -27.587982 12.170741 38.499084 -0.856149 1.249148 0.042299 -0.015776 -606527.000000 0 0 1
24.963895 -28.146882 11.418241 39.316908 -0.845258 1.276135 0.020153 -0.020379 -525032.000000 0 0 1
26.015295 -28.915382 12.310341 40.797542 -0.838145 1.264277 0.034314 -0.016936 988669.000000 0 0 1
26.925995 -28.153282 13.175441 41.124309 -0.807677 1.244665 0.026263 -0.018325 2065010.000000 0 0 1
28.236195 -28.194482 12.506341 41.816505 -0.784659 1.267071 0.020569 -0.018292 1036400.000000 0 0 1
29.309795 -27.400482 13.287041 42.265778 -0.751743 1.251005 0.047802 -0.028565 -219703.000000 0 0 1
29.180295 -25.969582 13.442741 41.311210 -0.727246 1.239360 0.063372 -0.025718 -97203.100000 0 0 1
28.469195 -25.573082 14.580141 40.951900 -0.731860 1.206779 0.067504 -0.029664 -721964.000000 0 0 1
29.340395 -25.332282 15.828441 41.870310 -0.712218 1.183123 0.066324 -0.023397 -181614.000000 0 0 1
29.817195 -26.506082 16.532041 43.185019 -0.726678 1.177951 0.075385 -0.020895 290164.000000 0 0 1
30.456395 -26.214082 17.762141 43.934767 -0.710678 1.154600 0.088195 -0.005860 129060.000000 0 0 1
30.762195 -27.455282 18.529941 45.204689 -0.728656 1.148439 0.068259 -0.000304 -135763.000000 0 0 1
29.547395 -27.972182 19.011041 44.910035 -0.758019 1.133696 0.058605 -0.004193 -124385.000000 0 0 1
29.787795 -29.060382 19.809541 46.089440 -0.773038 1.126518 0.069352 -0.003669 -1007230.000000 0 0 1
28.567095 -29.859582 20.098141 45.952245 -0.807516 1.118124 0.046034 0.005072 -1828440.000000 0 0 1
27.687495 -29.127282 20.956241 45.322842 -0.810735 1.090122 0.049014 0.004799 1234670.000000 0 0 1
26.454295 -29.763582 21.371241 45.193257 -0.844196 1.078233 0.058270 -0.001070 1138620.000000 0 0 1
25.468795 -30.292982 20.333741 44.494779 -0.871698 1.096186 0.073431 -0.004612 -1228660.000000 0 0 1
25.961795 -31.436282 19.647041 45.257716 -0.880488 1.121741 0.055076 0.000112 103863.000000 0 0 1
25.384995 -31.664582 18.378341 44.551175 -0.895029 1.145575 0.076444 -0.001594 -155907.000000 0 0 1
26.072695 -30.713182 17.320441 43.852966 -0.866936 1.164765 0.073423 -0.000200 99660.400000 0 0 1
27.364495 -31.147082 16.970141 44.798906 -0.849955 1.182289 0.059691 -0.010647 -60769.700000 0 0 1
28.010695 -30.267882 16.081541 44.264655 -0.824110 1.198984 0.066473 -0.023716 456856.000000 0 0 1
29.330695 -30.878382 15.496741 45.320119 -0.811098 1.221816 0.068855 -0.020011 145273.000000 0 0 1
29.197995 -31.706682 14.382241 45.438810 -0.826565 1.248739 0.088648 -0.017492 308533.000000 0 0 1
28.704795 -33.014982 14.663441 46.140772 -0.855120 1.247390 0.058563 -0.019405 -700771.000000 0 0 1
27.744095 -33.590582 13.678741 45.663661 -0.880432 1.266571 0.072103 -0.020175 -628672.000000 0 0 1
28.338895 -33.938182 12.427641 45.927546 -0.875066 1.296788 0.087396 -0.024401 425187.000000 0 0 1
27.672495 33.041414 11.943641 44.723066 0.873599 1.300458 0.086219 -0.027375 -219255.000000 0 0 1
28.284195 32.742714 10.570841 44.540136 0.858327 1.331177 0.087927 -0.036342 -92033.800000 0 0 1
29.555695 32.156114 10.752141 44.979588 0.827511 1.329414 0.080293 -0.031315 -192962.000000 0 0 1
29.939595 31.573514 9.551541 44.547706 0.811954 1.354707 0.089667 -0.040138 -770772.000000 0 0 1
31.443795 31.344014 9.515941 45.406086 0.783809 1.359657 0.081453 -0.035763 -681225.000000 0 0 1
31.866895 30.361014 10.385241 45.223262 0.761203 1.339085 0.070957 -0.023800 -38169.800000 0 0 1
33.225295 29.996914 10.249641 45.921566 0.734378 1.345701 0.090558 -0.024463 -118022.000000 0 0 1
33.642595 28.953414 11.272841 45.795211 0.710626 1.322082 0.085787 -0.025656 -351860.000000 0 0 1
33.171795 27.668314 11.162241 44.615011 0.695186 1.317920 0.083819 -0.027819 33803.900000 0 0 1
33.389195 26.985214 12.417941 44.690551 0.679722 1.289225 0.089945 -0.029286 -54079.500000 0 0 1
33.111095 25.487414 12.377641 43.579340 0.656025 1.282806 0.092847 -0.035614 317422.000000 0 0 1
34.165595 24.827314 11.664241 43.814814 0.628406 1.301330 0.090256 -0.027862 252390.000000 0 0 1
34.197295 23.381814 11.684641 43.042944 0.599725 1.295882 0.102549 -0.031746 472812.000000 0 0 1
32.952695 22.649714 11.043541 41.483123 0.602179 1.301329 0.106548 -0.033591 1132650.000000 0 0 1
31.814695 22.513314 11.890041 40.747972 0.615834 1.274694 0.112447 -0.041633 673339.000000 0 0 1
30.706395 21.998514 11.151341 39.384892 0.621658 1.283732 0.104380 -0.032305 240106.000000 0 0 1
29.427195 21.607214 11.899541 38.398315 0.633351 1.255711 0.094416 -0.028336 -1445.690000 0 0 1
28.699595 22.737514 12.363741 38.646131 0.670003 1.245149 0.098788 -0.020563 -739613.000000 0 0 1
27.551095 22.287414 12.980041 37.739543 0.680174 1.219689 0.098326 -0.018424 -1057470.000000 0 0 1
24.490595 9.257914 25.913401 36.837516 0.361415 0.790554 0.045764 0.005624 -134249.000000 0 0 1
24.235195 8.032814 26.578141 36.854692 0.320057 0.765321 0.039238 -0.001993 115321.000000 0 0 1
22.864895 7.714914 26.677601 35.972458 0.325418 0.735326 0.041799 -0.000227 -228275.000000 0 0 1
22.564495 6.447414 27.469701 36.129075 0.278317 0.706989 0.063169 -0.004618 -108263.000000 0 0 1
22.787795 6.517614 28.872551 37.354880 0.278576 0.687357 0.058407 -0.004271 967304.000000 0 0 1
24.178295 6.315814 29.196361 38.430547 0.255509 0.707918 0.049519 -0.004089 724504.000000 0 0 1
24.276495 6.240814 30.746191 39.668933 0.251624 0.683971 0.061229 -0.014942 -452656.000000 0 0 1
24.330195 7.452214 31.420921 40.432266 0.297222 0.680712 0.060680 -0.016590 128663.000000 0 0 1
24.411095 7.260814 32.833724 41.553272 0.289106 0.659727 0.070403 -0.020441 -55081.300000 0 0 1
24.544095 8.575414 33.609113 42.491444 0.336130 0.658417 0.089086 -0.026303 -220152.000000 0 0 1
25.849495 9.062914 33.485531 43.262149 0.337212 0.685639 0.066567 -0.031086 -404949.000000 0 0 1
26.161895 9.926914 -33.483259 43.636189 0.362659 2.445460 0.078460 -0.026134 421396.000000 0 0 1
27.366995 10.878814 -33.809559 44.837342 0.378363 2.425002 0.046957 -0.023763 133230.000000 0 0 1
27.083095 12.096814 33.625114 44.838323 0.420069 0.722857 0.038658 -0.021932 169162.000000 0 0 1
26.885295 13.101114 -33.444749 44.866574 0.453433 2.411971 0.046093 -0.013502 -318936.000000 0 0 1
26.202095 14.387014 34.013071 45.281618 0.502136 0.721001 0.041244 -0.007301 -684424.000000 0 0 1
27.025295 15.105014 33.142836 45.353893 0.509667 0.751361 0.024950 -0.006233 34057.400000 0 0 1
26.606495 16.461114 32.953330 45.440024 0.554047 0.759464 0.045497 -0.005263 -215528.000000 0 0 1
27.134895 17.457914 34.010349 46.880541 0.571704 0.759082 0.030581 -0.000936 -415518.000000 0 0 1
26.746995 17.346814 -32.678039 45.652688 0.575357 2.368561 0.031112 -0.010734 5930.260000 0 0 1
27.697795 16.660314 -31.890759 45.406546 0.541524 2.349473 0.027125 -0.010640 -320227.000000 0 0 1
27.088095 16.050014 -30.590769 43.899464 0.534895 2.341774 0.026012 -0.003299 -276828.000000 0 0 1
26.192295 15.051114 -30.939949 43.241794 0.521563 2.368151 0.035325 0.002041 -113062.000000 0 0 1
25.388195 14.707314 -29.802719 41.821855 0.525058 2.364009 0.057066 -0.001693 124850.000000 0 0 1
24.699595 13.345014 -29.977849 41.071046 0.495360 2.388975 0.068685 -0.011898 -650727.000000 0 0 1
23.788795 13.402314 -31.071299 41.363684 0.513064 2.420634 0.065995 -0.015037 470777.000000 0 0 1
23.196095 12.119514 -31.367969 40.852061 0.481470 2.446264 0.064793 -0.019914 224177.000000 0 0 1
22.329695 11.400014 -30.319489 39.342686 0.472037 2.450659 0.067726 -0.022864 -896192.000000 0 0 1
21.283495 12.198814 -29.819719 38.613648 0.520449 2.453185 0.083537 -0.019471 384709.000000 0 0 1
20.412895 11.324014 -29.074579 37.286066 0.506481 2.465096 0.091763 -0.021585 200380.000000 0 0 1
19.044895 11.854314 -28.627529 36.369880 0.556757 2.476925 0.071921 -0.013931 -963919.000000 0 0 1
18.122195 12.120014 -29.598059 36.760764 0.589474 2.506731 0.048437 -0.000357 -1377550.000000 0 0 1
16.977995 12.426414 -28.878409 35.729967 0.631825 2.511954 0.049837 -0.017687 -1201140.000000 0 0 1
16.005195 13.222114 -29.765409 36.290083 0.690462 2.532570 0.043386 -0.014220 -33856.600000 0 0 1
15.143295 12.602714 -30.709819 36.486172 0.694087 2.571190 0.038794 -0.006612 675568.000000 0 0 1
13.834095 12.398014 -30.179529 35.438635 0.730708 2.589826 0.051118 -0.012310 351425.000000 0 0 1
12.809595 11.654714 -31.046989 35.550437 0.738226 2.632777 0.062044 -0.015615 -8218.360000 0 0 1
12.301795 12.410914 -32.115549 36.561912 0.789814 2.643275 0.071932 -0.009858 -352021.000000 0 0 1
11.411895 11.572214 -32.799049 36.604987 0.792373 2.681535 0.095498 -0.004682 -243441.000000 0 0 1
10.848395 12.279514 33.962488 37.708417 0.847198 0.449509 0.117885 -0.017462 -243528.000000 0 0 1
11.741395 12.592914 32.939699 37.168072 0.820376 0.481640 0.085838 -0.006106 -42022.700000 0 0 1
11.050295 13.106714 31.784521 36.113027 0.870321 0.494639 0.102627 -0.021157 298356.000000 0 0 1
11.885195 12.962014 30.459671 35.171910 0.828709 0.523604 0.085380 -0.015967 46868.300000 0 0 1
12.094195 11.655714 30.052371 34.427754 0.766938 0.509658 0.079502 -0.014738 73996.800000 0 0 1
12.333995 11.641914 28.666721 33.308295 0.756541 0.534255 0.085157 -0.010877 -167653.000000 0 0 1
12.990195 10.309314 28.211221 32.724610 0.670840 0.531437 0.078982 -0.013058 -136138.000000 0 0 1
12.183295 9.139614 28.531691 32.342273 0.643614 0.490326 0.098266 -0.023074 538202.000000 0 0 1
12.701095 7.892214 28.069441 31.804062 0.555992 0.489487 0.060897 -0.019241 -208444.000000 0 0 1
11.787295 6.643914 28.393531 31.452735 0.513263 0.444708 0.073069 -0.025167 435999.000000 0 0 1
10.608495 6.736614 27.592921 30.319819 0.565773 0.427362 0.080538 -0.027153 44395.700000 0 0 1
9.634095 5.734614 27.745441 29.925091 0.536913 0.384028 0.069601 -0.029782 160.845000 0 0 1
9.977895 4.420814 27.123601 29.236821 0.417068 0.382537 0.065872 -0.023559 -300742.000000 0 0 1
10.997695 3.741714 27.825621 30.153190 0.327942 0.395488 0.060803 -0.017511 131313.000000 0 0 1
11.156795 2.405814 27.349041 29.634980 0.212385 0.395346 0.046230 -0.013045 -172175.000000 0 0 1
11.715795 1.472214 28.426911 30.781756 0.125005 0.393693 0.037911 -0.014542 325395.000000 0 0 1
10.731895 1.366114 29.445751 31.370242 0.126614 0.352095 0.043531 -0.017700 253110.000000 0 0 1
10.860395 0.100714 30.060481 31.962335 0.009273 0.346706 0.043610 -0.018628 -105691.000000 0 0 1
9.848295 -0.182286 31.159331 32.679138 -0.018507 0.306176 0.045336 -0.015699 -186994.000000 0 0 1
9.989695 0.643414 32.280198 33.796733 0.064319 0.300706 0.046651 -0.020610 658361.000000 0 0 1
8.685395 1.026514 32.753577 33.901130 0.117643 0.260932 0.057892 -0.021207 510325.000000 0 0 1
8.749795 2.316314 33.632580 34.829221 0.258791 0.262891 0.061930 -0.024134 30427.700000 0 0 1
8.996695 3.569814 32.956583 34.348515 0.377738 0.285659 0.071557 -0.030704 -297750.000000 0 0 1
10.188995 3.688814 32.245198 34.017286 0.347360 0.324199 0.053121 -0.021751 -726798.000000 0 0 1
10.416895 5.071714 31.632751 33.687756 0.453092 0.351090 0.061627 -0.024792 54617.800000 0 0 1
10.574795 6.059014 32.576758 34.781936 0.520306 0.357999 0.050914 -0.018304 2503.160000 0 0 1
10.732595 7.293314 31.885971 34.425226 0.596868 0.386488 0.060263 -0.021116 -211576.000000 0 0 1
10.975395 8.462614 32.844622 35.648903 0.656840 0.399293 0.093139 -0.024995 343035.000000 0 0 1
9.780495 9.086114 33.305215 35.881094 0.748610 0.381222 0.122776 -0.030053 658094.000000 0 0 1
9.072595 8.314214 -33.735079 35.909520 0.741808 2.791808 0.103323 -0.028733 816030.000000 0 0 1
7.797795 9.097914 -33.195219 35.291645 0.862197 2.795181 0.117536 -0.035119 978114.000000 0 0 1
7.039695 8.202414 -32.385729 34.141944 0.861534 2.819457 0.117956 -0.025929 748599.000000 0 0 1
5.717395 8.637514 -32.030279 33.663541 0.986083 2.828816 0.115830 -0.029449 1016550.000000 0 0 1
5.104695 7.806114 -30.872829 32.250967 0.991660 2.848200 0.104766 -0.020019 -144963.000000 0 0 1
5.544895 8.218814 -29.556349 31.174870 0.977281 2.817948 0.098944 -0.024559 413813.000000 0 0 1
4.969095 7.598514 -28.377719 29.794701 0.991645 2.831948 0.064892 -0.017322 -665659.000000 0 0 1
3.526495 7.787614 -27.980019 29.256872 1.145588 2.845066 0.072485 -0.014342 -176549.000000 0 0 1
2.553995 7.311814 -28.943059 29.961411 1.234748 2.880123 0.071967 -0.017795 668542.000000 0 0 1
1.242095 7.321214 -28.379209 29.334663 1.402740 2.885666 0.088574 -0.014528 220600.000000 0 0 1
0.252595 6.783914 -29.447959 30.220317 1.533579 2.915022 0.081028 -0.024890 -349913.000000 0 0 1
0.131795 7.608714 -30.567409 31.500419 1.553477 2.897599 0.090388 -0.026052 -117762.000000 0 0 1
-0.424605 6.849814 -31.600679 32.337333 -1.508888 2.927736 0.086292 -0.028546 -761780.000000 0 0 1
-0.531905 7.660614 -32.878459 33.763308 -1.501474 2.912147 0.098225 -0.040883 137583.000000 0 0 1
0.681495 8.107614 -33.465159 34.440016 1.486937 2.903095 0.096199 -0.032073 658461.000000 0 0 1
1.671595 7.163714 -33.906319 34.695122 1.341556 2.927948 0.100726 -0.036751 325682.000000 0 0 1
1.371095 6.716314 32.693060 33.403966 1.369419 0.206679 0.115657 -0.047354 221018.000000 0 0 1
0.248195 5.842014 32.559957 33.080833 1.528337 0.177691 0.110635 -0.044101 127734.000000 0 0 1
-0.017705 5.353914 31.256421 31.711647 -1.567489 0.169645 0.124036 -0.039319 -232609.000000 0 0 1
0.957995 4.321614 30.657841 30.975754 1.352649 0.143394 0.122607 -0.035713 103122.000000 0 0 1
0.653095 4.031014 29.293441 29.576702 1.410175 0.138510 0.105152 -0.033175 121488.000000 0 0 1
1.744595 3.378914 28.674271 28.925326 1.094180 0.131848 0.083102 -0.018331 186771.000000 0 0 1
1.712395 3.609714 27.117431 27.410170 1.127850 0.146280 0.085927 -0.015530 82009.500000 0 0 1
2.160895 4.879214 26.747751 27.274867 1.153881 0.196920 0.090712 -0.020697 -152274.000000 0 0 1
1.948995 5.189114 25.363551 25.962188 1.211506 0.215161 0.067531 -0.012762 -238661.000000 0 0 1
2.421495 6.615214 24.980551 25.954819 1.219896 0.274861 0.070427 -0.009440 1380480.000000 0 0 1
3.868895 6.671214 25.003431 26.165722 1.045258 0.299176 0.076705 -0.004455 909819.000000 0 0 1
4.455595 6.649214 23.705021 25.019840 0.980425 0.325631 0.064238 -0.012498 326177.000000 0 0 1
6.012595 6.565514 23.835451 25.443781 0.829329 0.357459 0.071441 -0.013944 520352.000000 0 0 1
6.607495 5.470214 24.515611 25.973013 0.691511 0.336586 0.078389 -0.021006 -132261.000000 0 0 1
6.460795 4.081414 24.168261 25.347675 0.563417 0.306251 0.074948 -0.022207 -565452.000000 0 0 1
6.715195 3.704314 22.642371 23.905914 0.504095 0.326580 0.064616 -0.021527 743385.000000 0 1 0
5.654195 4.186914 21.812371 22.918981 0.637391 0.312017 0.032370 -0.020915 894713.000000 0 1 0
4.381095 3.532214 21.862971 22.575651 0.678534 0.251937 0.023967 -0.025100 1091200.000000 0 1 0
3.255595 4.175014 20.972671 21.630593 0.908507 0.247272 -0.005532 -0.016877 697205.000000 0 1 0
2.917095 5.525314 21.260671 22.159753 1.085039 0.285833 -0.000198 -0.011271 -130362.000000 0 1 0
1.743595 5.941014 20.607271 21.517328 1.285328 0.291876 0.004469 -0.006766 -34306.500000 0 1 0
1.457895 7.428614 20.818271 22.151979 1.377005 0.348773 0.016345 0.011811 -318117.000000 0 1 0
2.193595 8.274714 20.012471 21.766528 1.311661 0.404206 0.008473 0.008185 -517508.000000 0 1 0
2.030195 9.668914 20.344771 22.616792 1.363832 0.452075 0.025020 0.007420 -150606.000000 0 1 0
3.147895 10.525014 19.745571 22.595857 1.280177 0.507714 0.045166 -0.009021 -685361.000000 0 1 0
2.940095 10.859414 18.367971 21.539577 1.306393 0.549560 0.017759 -0.003037 185018.000000 0 1 0
3.896195 11.780914 17.836171 21.727846 1.251399 0.607829 0.020152 -0.001992 1619020.000000 0 1 0
5.429295 11.332614 17.787871 21.778745 1.124020 0.615034 0.028557 -0.009836 1198930.000000 0 1 0
5.543795 10.114214 17.127971 20.649416 1.069398 0.592647 0.020914 -0.006924 88829.100000 0 1 0
6.860395 9.615414 17.334871 20.976629 0.951081 0.598131 0.014423 -0.004982 360884.000000 0 1 0
6.868495 8.178414 17.953571 20.890031 0.872235 0.536638 0.023636 -0.003657 15038.900000 0 1 0
6.486195 8.185414 19.328871 21.969911 0.900701 0.495380 0.039393 -0.000823 -278501.000000 0 1 0
6.440995 6.922314 20.026071 22.146069 0.821401 0.441125 0.036120 -0.003957 489300.000000 0 1 0
7.816395 6.270014 20.376071 22.706681 0.676058 0.457046 0.066706 -0.005063 501848.000000 0 1 0
8.553895 5.930314 19.214771 21.852807 0.606207 0.496445 0.051066 -0.003111 230668.000000 0 1 0
9.867795 5.409814 19.421171 22.445965 0.501483 0.525165 0.060503 -0.005980 674506.000000 0 1 0
10.036495 3.888714 19.379671 22.168107 0.369647 0.506982 0.057806 -0.009126 -350881.000000 0 1 0
9.413895 3.251514 20.435671 22.733464 0.332567 0.453488 0.078214 -0.015661 188377.000000 0 1 0
9.827095 1.868514 20.445871 22.761739 0.187896 0.455011 0.072605 -0.019197 57927.700000 0 1 0
9.005195 0.983614 21.411071 23.248548 0.108796 0.400250 0.066329 -0.022750 -158071.000000 0 1 0
9.217095 1.165614 22.743371 24.567751 0.125794 0.387806 0.076419 -0.017909 370904.000000 0 1 0
8.610395 0.061314 23.455261 24.985834 0.007121 0.351834 0.058543 -0.024457 -37060.300000 0 1 0
9.085995 0.135414 24.942911 26.546609 0.014903 0.349368 0.059930 -0.018257 -139245.000000 0 0 1
10.383995 -0.332186 25.222541 27.278458 -0.031979 0.390728 0.065645 -0.017658 -72377.700000 0 0 1
10.562795 -1.769886 25.201871 27.383196 -0.166016 0.401846 0.068285 -0.012746 195867.000000 0 0 1
12.035295 -2.283286 25.159051 27.982844 -0.187488 0.453114 0.067923 -0.012417 471718.000000 0 0 1
12.143595 -3.652286 25.224791 28.232891 -0.292152 0.465819 0.064258 -0.006861 -367126.000000 0 0 1
13.452795 -4.161986 25.219931 28.885026 -0.300037 0.509242 0.068942 -0.004217 -210625.000000 0 0 1
13.527195 -5.743686 25.281521 29.242610 -0.401534 0.526554 0.070152 -0.008397 -200434.000000 0 0 1
13.200095 -6.272486 24.050781 28.142968 -0.443599 0.546030 0.070980 -0.010478 109180.000000 0 0 1
12.788295 -7.603086 24.311411 28.502493 -0.536391 0.549171 0.074035 -0.013652 33721.300000 0 0 1
12.439195 -8.398786 23.015671 27.477159 -0.593878 0.577868 0.068744 -0.015737 185916.000000 0 0 1
12.201995 -9.770886 23.311221 28.067275 -0.675205 0.590705 0.073416 -0.010190 -430061.000000 0 0 1
12.205795 -10.520986 22.152671 27.393674 -0.711400 0.628894 0.078123 -0.016090 155217.000000 0 0 1
11.600395 -11.967786 22.217471 27.774324 -0.800985 0.643620 0.084299 -0.017756 -186618.000000 0 0 1
10.209795 -11.912586 22.370971 27.324164 -0.862218 0.611610 0.077771 -0.017584 -816450.000000 0 0 1
9.653495 -13.201386 22.295171 27.650338 -0.939405 0.632883 0.074545 -0.016670 -107873.000000 0 0 1
8.135795 -13.267886 22.523471 27.377631 -1.020731 0.604659 0.044461 -0.007132 -131452.000000 0 0 1
7.430095 -12.419486 21.687771 26.073154 -1.031656 0.588445 0.039704 -0.017860 81038.700000 0 0 1
6.029295 -12.370786 21.958371 25.914451 -1.117294 0.559839 0.014271 -0.016788 975602.000000 0 0 1
5.177695 -11.281386 21.290971 24.645154 -1.140517 0.527832 0.006446 -0.007609 193486.000000 0 1 0
5.465895 -10.035986 21.900971 24.703229 -1.072086 0.480934 0.003314 0.002796 -210032.000000 0 1 0
4.839595 -8.929886 21.228471 23.533221 -1.074151 0.446268 0.000003 0.004173 -149020.000000 0 1 0
5.353695 -7.598086 21.678371 23.586961 -0.956982 0.405050 0.002027 -0.004949 -13400.700000 0 1 0
4.763495 -6.463786 21.061671 22.540306 -0.935699 0.364224 -0.003490 -0.007665 254617.000000 0 1 0
5.479695 -5.298086 21.520171 22.830123 -0.768549 0.340398 0.015555 -0.016041 100110.000000 0 1 0
-8.684005 -14.935986 -20.432059 26.757515 1.044154 2.439668 0.057376 -0.004543 -473019.000000 0 0 1
-8.193105 -14.275686 -19.277959 25.348804 1.049774 2.434891 0.070667 -0.008278 260458.000000 0 0 1
-7.172305 -13.331386 -19.643559 24.799943 1.077212 2.485007 0.057290 -0.019916 208896.000000 0 1 0
-6.384705 -12.835486 -18.456459 23.369960 1.109210 2.481200 0.050851 -0.017322 127490.000000 0 1 0
-5.428705 -13.794086 -17.989159 23.310029 1.195860 2.452361 0.058621 -0.011786 718345.000000 0 1 0
-4.528305 -13.334186 -16.972259 22.053653 1.243415 2.448994 0.055958 -0.012273 1215010.000000 0 1 0
-3.491905 -14.426986 -16.459659 22.164198 1.333323 2.407776 0.047383 -0.002142 875768.000000 0 1 0
-2.461105 -14.745886 -17.394559 22.936191 1.405420 2.431635 0.038724 0.006649 219670.000000 0 1 0
-1.498605 -15.540986 -16.733259 22.886022 1.474664 2.390812 0.042140 0.011692 -705371.000000 0 1 0
-0.187005 -15.927186 -17.368559 23.566439 1.559056 2.399423 0.050646 0.013188 -629815.000000 0 1 0
-0.234005 -16.723886 -18.522859 24.956750 1.556805 2.407141 0.083111 -0.002845 -521975.000000 0 1 0
-0.548505 -18.080986 -18.287259 25.722494 1.540470 2.361636 0.071302 0.008362 -369284.000000 0 0 1
-1.025805 -18.541186 -19.618759 27.013395 1.515527 2.383662 0.089444 -0.009053 -341740.000000 0 0 1
-2.355705 -18.155686 -19.854559 27.007069 1.441767 2.396701 0.102584 -0.015609 -365152.000000 0 0 1
-2.697005 -18.341086 -21.209159 28.169091 1.424795 2.423289 0.088994 -0.021567 192357.000000 0 0 1
-3.689805 -17.253186 -21.718359 27.981676 1.360108 2.459355 0.088345 -0.025262 194591.000000 0 0 1
-3.197405 -15.942086 -21.891259 27.269043 1.372859 2.502753 0.093600 -0.015519 -51760.400000 0 0 1
-3.578405 -15.172986 -20.704259 25.916998 1.339188 2.496207 0.068796 -0.011587 114008.000000 0 0 1
-2.634005 -13.991386 -20.469859 24.934153 1.384715 2.533881 0.080798 -0.021612 -17287.000000 0 1 0
-2.627105 -13.081886 -21.556959 25.352315 1.372612 2.587343 0.084812 -0.035993 -384336.000000 0 0 1
-1.678405 -12.094986 -21.339559 24.586225 1.432908 2.621851 0.065860 -0.022924 -184887.000000 0 1 0
-1.770305 -11.093086 -22.540059 25.184217 1.412544 2.679244 0.081678 -0.026654 230942.000000 0 0 1
-2.831605 -10.150386 -22.519259 24.862931 1.298747 2.703910 0.080393 -0.030169 123864.000000 0 1 0
-2.976805 -9.587986 -23.750859 25.785541 1.269760 2.741673 0.090583 -0.031549 -113833.000000 0 0 1
-4.016805 -8.449886 -23.886459 25.653425 1.127048 2.768273 0.090622 -0.029770 21638.300000 0 0 1
-5.347305 -8.921186 -23.865359 26.033374 1.030823 2.730592 0.079632 -0.030398 189492.000000 0 0 1
-6.241705 -7.834386 -23.758359 25.783640 0.898067 2.742595 0.088746 -0.031158 -167348.000000 0 0 1
-7.715005 -8.229286 -23.437659 26.010888 0.817642 2.693029 0.066456 -0.036687 483938.000000 0 0 1
-8.605405 -8.606586 -24.460259 27.320881 0.785467 2.679890 0.061623 -0.029789 137748.000000 0 0 1
-8.931105 -7.565686 -25.405619 27.972302 0.702818 2.709860 0.059077 -0.030067 -903152.000000 0 0 1
-10.009105 -8.077586 -26.356989 29.327810 0.679009 2.687599 0.057589 -0.031549 -417617.000000 0 0 1
-10.575305 -7.058186 -27.117319 29.950026 0.588525 2.703162 0.062358 -0.036533 228505.000000 0 0 1
-11.218205 -7.582786 -28.317029 31.387910 0.594392 2.695555 0.067875 -0.033441 83845.900000 0 0 1
-11.937605 -6.588186 -29.210969 32.236490 0.504289 2.704878 0.059417 -0.033747 131023.000000 0 0 1
-11.067105 -5.677286 -29.873199 32.359240 0.473983 2.747053 0.054370 -0.019555 149029.000000 0 0 1
-11.768105 -5.112286 -30.936219 33.491393 0.409821 2.748442 0.051775 -0.022186 -490299.000000 0 0 1
-10.936505 -4.147986 -31.750789 33.836748 0.362517 2.788629 0.035863 -0.017685 -541926.000000 0 0 1
-10.037705 -4.794286 -32.593859 34.439807 0.445590 2.812700 0.047052 -0.019467 -273478.000000 0 0 1
-9.369805 -3.832486 -33.388309 34.889258 0.388262 2.847204 0.041756 -0.020043 -768228.000000 0 0 1
-8.254605 -4.219986 33.757522 35.007386 0.472590 0.268020 0.039255 -0.012573 -1430370.000000 0 0 1
-6.982605 -4.136886 -33.784609 34.745796 0.534854 2.905830 0.045038 -0.012708 -1054470.000000 0 0 1
-6.015705 -4.425686 33.283879 34.111464 0.634279 0.220726 0.048470 -0.015690 -44389.000000 0 0 1
-4.583705 -4.067586 33.708672 34.261205 0.725811 0.179837 0.054301 -0.018851 -113982.000000 0 0 1
-4.394205 -2.650686 33.833395 34.220371 0.542786 0.150531 0.071744 -0.024624 219925.000000 0 0 1
-3.033205 -2.240086 33.927922 34.136816 0.636114 0.110685 0.066852 -0.027737 523729.000000 0 0 1
-2.859605 -0.749786 -33.799809 33.928846 0.256427 3.054351 0.074217 -0.030844 -87826.900000 0 0 1
-3.059705 -0.576486 -32.455029 32.604034 0.186229 3.045951 0.068094 -0.030399 136859.000000 0 0 1
-3.457905 0.747814 -32.010249 32.205160 -0.212982 3.031517 0.084650 -0.029753 -517916.000000 0 0 1
-3.882205 0.668414 -30.534069 30.787134 -0.170502 3.013287 0.116698 -0.046638 312039.000000 0 0 1
-5.126505 0.053214 -30.313609 30.744085 -0.010380 2.974053 0.084412 -0.044411 452447.000000 0 0 1
-6.327405 0.805314 -30.558519 31.217105 -0.126593 2.935818 0.092849 -0.043983 431452.000000 0 0 1
-7.585205 -0.086286 -30.431139 31.362350 0.011375 2.897297 0.075308 -0.042365 -71354.000000 0 0 1
-7.771905 -0.818086 -29.190009 30.218014 0.104876 2.880004 0.073093 -0.037239 658154.000000 0 0 1
-8.820105 -1.796886 -29.388889 30.736458 0.200976 2.844383 0.054160 -0.020320 580657.000000 0 0 1
-8.994505 -2.645186 -28.079779 29.603582 0.286025 2.819346 0.061051 -0.023613 -57536.900000 0 0 1
-9.642405 -1.905286 -27.078139 28.806799 0.195081 2.793401 0.065417 -0.026010 118570.000000 0 0 1
-10.120405 -2.578486 -25.964979 27.986627 0.249473 2.759171 0.061358 -0.028404 -196958.000000 0 0 1
-11.048905 -1.818686 -25.015169 27.407017 0.163140 2.720710 0.084324 -0.029141 219070.000000 0 0 1
-10.431805 -0.734086 -24.276459 26.433083 0.070254 2.734844 0.077420 -0.028832 350480.000000 0 0 1
-11.405905 -0.102386 -23.493759 26.116314 0.008976 2.689607 0.094065 -0.036901 287367.000000 0 0 1
-10.705305 1.128814 -22.830159 25.240720 -0.105056 2.700995 0.099187 -0.036932 413019.000000 0 0 1
-10.453805 2.163214 -23.765659 26.053178 -0.204051 2.719413 0.092612 -0.038258 125356.000000 0 0 1
-9.713005 3.203314 -23.127059 25.287636 -0.318564 2.725215 0.080855 -0.039391 -209511.000000 0 0 1
-9.652005 4.490914 -24.036159 26.288143 -0.435490 2.724658 0.106045 -0.040815 -215407.000000 0 0 1
-10.886105 5.153314 -24.225459 27.054330 -0.442129 2.680209 0.122712 -0.035132 -276946.000000 0 0 1
-11.540305 4.651814 -25.321609 28.213505 -0.383170 2.684863 0.106412 -0.036229 -692483.000000 0 0 1
-13.011705 5.036214 -25.534459 29.097706 -0.369295 2.641508 0.107179 -0.013984 -155330.000000 0 0 1
-13.261805 6.388014 -25.777609 29.684462 -0.448889 2.622737 0.096832 -0.010399 906305.000000 0 0 1
-14.692205 6.509414 -25.939949 30.514166 -0.417061 2.586963 0.097981 -0.018723 1022750.000000 0 0 1
-15.033905 7.931914 -26.402639 31.401161 -0.485484 2.569588 0.106872 -0.004907 -101417.000000 0 0 1
-14.852305 8.834114 -25.328179 30.661852 -0.536585 2.542856 0.144070 -0.015449 248706.000000 0 0 1
-15.292005 10.139914 -25.651579 31.538338 -0.585520 2.520677 0.122104 -0.013882 -33258.400000 0 0 1
-14.888805 11.139014 -24.541159 30.789976 -0.642314 2.493191 0.129281 -0.016149 145416.000000 0 0 1
-15.624805 10.987914 -23.326359 30.149425 -0.612894 2.455444 0.151902 -0.018799 204911.000000 0 0 1
-15.279805 12.018714 -22.456259 29.701944 -0.666501 2.428059 0.150778 -0.023611 -225763.000000 0 0 1
-16.030905 12.011914 -21.128559 29.115151 -0.643051 2.382832 0.152045 -0.027685 -1430230.000000 0 0 1
-17.342805 12.337414 -21.315159 30.121764 -0.618326 2.356939 0.125772 -0.027373 -1340160.000000 0 0 1
-17.924805 12.714214 -20.058659 29.753986 -0.616946 2.310610 0.120136 -0.017916 -127790.000000 0 0 1
-19.413305 13.068614 -20.176959 30.899430 -0.592497 2.282319 0.085324 -0.017249 -311623.000000 0 0 1
-19.574905 14.309614 -20.693859 31.877543 -0.631242 2.277286 0.068469 -0.013951 979412.000000 0 0 1
-20.964105 14.693614 -20.697159 32.920638 -0.611326 2.250675 0.031466 -0.015267 825385.000000 0 0 1
-21.223305 15.992814 -21.492859 34.178089 -0.645769 2.250868 0.031806 -0.013798 -141374.000000 0 0 1
-21.014805 15.843814 -22.864959 34.863374 -0.646015 2.286097 0.043168 -0.020166 184334.000000 0 0 1
-21.381505 17.022014 -23.529659 36.063313 -0.672364 2.281615 0.035115 -0.014473 -221745.000000 0 0 1
-21.232105 16.926214 -25.046029 36.940528 -0.673031 2.315848 0.026504 -0.014162 -693169.000000 0 0 1
-19.967305 17.174314 -25.551699 36.695227 -0.710341 2.341057 0.031205 -0.026908 -628066.000000 0 0 1
-19.917905 16.603214 -26.832699 37.314654 -0.694885 2.373292 0.022285 -0.034487 -102207.000000 0 0 1
-19.019305 17.336014 -27.857689 37.925218 -0.739130 2.395789 0.010796 -0.023140 -86223.600000 0 0 1
-19.506505 18.586514 -28.244599 39.034851 -0.761252 2.379762 -0.000472 -0.033511 151811.000000 0 0 1
-18.910805 19.628114 -27.523639 38.735412 -0.804009 2.361083 -0.007462 -0.032195 -1018470.000000 0 0 1
-19.739005 20.946114 -27.737079 39.971409 -0.815059 2.337719 0.037924 -0.024637 949773.000000 0 0 1
-20.996305 21.129714 -27.101749 40.271757 -0.788565 2.309015 0.053575 -0.002101 893818.000000 0 0 1
-21.982805 20.096714 -27.185999 40.326172 -0.740606 2.310613 0.086762 -0.031229 -1208830.000000 0 0 1
-23.138805 20.275714 -26.267069 40.453279 -0.719546 2.277485 0.082159 -0.007904 -593947.000000 0 0 1
-22.691705 19.933914 -24.955059 39.179451 -0.720790 2.261322 0.044554 0.008158 553776.000000 0 0 1
-23.663005 20.365114 -23.978659 39.365617 -0.710634 2.225756 0.039766 -0.008971 384974.000000 0 0 1
-23.369505 20.051014 -22.533859 38.156936 -0.709120 2.202546 0.042875 0.008458 419428.000000 0 0 1
-22.390405 20.961414 -21.971059 37.728485 -0.752447 2.192409 0.045364 0.000764 313217.000000 0 0 1
-21.532305 20.438214 -20.993959 36.360790 -0.759336 2.186311 0.044533 -0.001008 -104787.000000 0 0 1
-22.180605 20.033514 -19.628559 35.757534 -0.734580 2.151886 0.054957 -0.010304 -475767.000000 0 0 1
-22.978505 18.843314 -19.716959 35.662875 -0.686842 2.156602 0.070880 -0.007371 441943.000000 0 0 1
-23.632205 18.435714 -18.524759 35.235258 -0.662495 2.124387 0.067655 -0.007756 -64377.600000 0 0 1
-24.742705 19.337714 -17.982059 36.187057 -0.663391 2.090842 0.056514 -0.018430 -1602000.000000 0 0 1
-25.915475 19.237814 -18.703259 37.303046 -0.638574 2.095997 0.055231 -0.018284 -648775.000000 0 0 1
-26.789865 20.325114 -18.456359 38.359410 -0.649037 2.072754 0.045764 -0.016146 94821.000000 0 0 1
-28.183715 20.107014 -19.139559 39.559279 -0.619680 2.075810 0.027667 -0.006132 893479.000000 0 0 1
-29.152585 19.140314 -18.748459 39.594565 -0.580970 2.064069 0.031874 -0.007160 499324.000000 0 0 1
-29.524605 19.125914 -17.393759 39.243417 -0.574824 2.029992 0.013400 0.000052 -642989.000000 0 0 1
-30.632695 18.128814 -17.006959 39.449367 -0.534378 2.016517 0.004977 -0.001766 -338417.000000 0 0 1
-30.193375 16.793314 -17.014259 38.511561 -0.507585 2.028396 0.033197 -0.011600 322932.000000 0 0 1
-31.101245 15.909714 -16.340659 38.567131 -0.472842 2.008316 0.011681 -0.008950 114196.000000 0 0 1
-30.377285 14.665714 -15.884059 37.284929 -0.449781 2.010883 0.065579 -0.006638 306409.000000 0 0 1
-29.433705 14.873214 -14.808559 36.150365 -0.467888 1.992853 0.055883 -0.006863 324738.000000 0 0 1
-30.070715 14.971614 -13.549559 36.221371 -0.461950 1.954197 0.014428 -0.001799 290969.000000 0 0 1
-29.151115 15.537014 -12.416559 35.289620 -0.489684 1.930340 0.031907 -0.009183 256219.000000 0 0 1
-28.876065 16.918314 -12.347059 35.672207 -0.529983 1.924234 0.033969 -0.000881 -342165.000000 0 0 1
-30.012625 17.713614 -12.160859 36.910924 -0.533186 1.906533 0.012556 0.003154 -395061.000000 0 0 1
-29.756725 19.207114 -12.306159 37.494233 -0.573185 1.905209 0.055644 -0.003806 -156845.000000 0 0 1
-28.975535 19.721714 -11.233259 36.806436 -0.597610 1.880943 -0.006115 -0.015929 -113141.000000 0 0 1
-28.332165 20.877614 -11.648859 37.071313 -0.635056 1.890440 -0.020962 -0.021202 -730058.000000 0 0 1
-27.271205 21.319014 -10.665459 36.221141 -0.663508 1.869680 0.015499 -0.016730 -525314.000000 0 0 1
-27.719335 22.260014 -9.753759 36.864693 -0.676598 1.838567 -0.000019 -0.012828 27852.800000 0 0 1
-27.037295 23.515614 -9.858159 37.164267 -0.715847 1.839269 0.021245 -0.010052 -6567.220000 0 0 1
-27.562275 24.606214 -8.871959 37.998111 -0.728795 1.806456 0.042135 0.004770 -223943.000000 0 0 1
-27.142475 24.407914 -7.565959 37.278734 -0.732401 1.775173 0.031625 -0.000101 -377272.000000 0 0 1
-27.996425 24.821014 -6.551059 37.984194 -0.725350 1.744131 0.058148 -0.010527 -419832.000000 0 0 1
-27.752485 24.109314 -5.206359 37.129041 -0.715266 1.711483 0.061215 -0.007319 -184924.000000 0 0 1
-28.000615 22.739514 -5.330059 36.462714 -0.682080 1.717500 0.055649 -0.008515 -82433.900000 0 0 1
-27.731635 22.021014 -4.150259 35.653798 -0.671118 1.687465 0.062733 -0.006294 235696.000000 0 0 1
-27.976625 20.479514 -4.437859 34.954208 -0.631896 1.698102 0.062763 -0.006336 -243628.000000 0 0 1
-26.968815 19.952814 -5.249759 33.955732 -0.636972 1.726025 0.037968 -0.006528 -111401.000000 0 0 1
-27.100155 20.253914 -6.641459 34.478231 -0.641817 1.764636 0.023365 -0.002620 90048.200000 0 0 1
-28.129565 19.336514 -7.407759 34.929187 -0.602226 1.784499 0.023330 -0.003020 524085.000000 0 0 1
-27.566605 18.007314 -7.584859 33.789217 -0.578642 1.797201 0.034341 -0.002499 669313.000000 0 0 1
-28.173355 17.440814 -8.719059 34.262836 -0.554312 1.828102 0.033514 -0.008431 -140077.000000 0 0 1
-27.629785 16.056914 -8.965459 33.190495 -0.526440 1.844315 0.061815 -0.012841 1152.170000 0 0 1
-28.281785 15.118414 -8.127759 33.083021 -0.490915 1.819015 0.053326 -0.003963 209442.000000 0 0 1
-27.938385 13.789814 -8.443459 32.280092 -0.458498 1.835443 0.074634 -0.012127 -101729.000000 0 0 1
-28.564655 12.778014 -7.486559 32.175546 -0.420637 1.805627 0.082213 -0.016214 -455117.000000 0 0 1
-29.967095 12.795514 -7.517559 33.440480 -0.403551 1.797538 0.078372 -0.009314 -278246.000000 0 0 1
-30.588525 11.884514 -6.600059 33.473278 -0.370578 1.769271 0.086435 -0.014530 126474.000000 0 0 1
-31.208315 10.696014 -7.339859 33.797000 -0.330183 1.789716 0.087825 -0.013093 100160.000000 0 0 1
-30.230995 9.813814 -7.884159 32.747275 -0.313895 1.813943 0.101240 -0.010084 585804.000000 0 0 1
-30.906025 8.608514 -8.267959 33.130772 -0.271653 1.823017 0.098674 -0.006594 236806.000000 0 0 1
-29.981105 7.532214 -8.887059 32.164899 -0.246138 1.850735 0.123993 -0.008349 -184368.000000 0 0 1
-29.422295 7.972014 -10.098659 32.112418 -0.264598 1.890703 0.111190 -0.026516 -154761.000000 0 0 1
-28.682585 6.911714 -10.615759 31.355332 -0.236464 1.916186 0.135103 -0.029082 -155423.000000 0 0 1
-27.793365 7.331014 -11.835759 31.085368 -0.257895 1.961404 0.114261 -0.023964 -58019.900000 0 0 1
-26.568265 7.947814 -11.543559 30.038213 -0.290674 1.965241 0.129856 -0.031641 -48356.300000 0 0 1
-25.705445 7.924814 -12.628459 29.716167 -0.299048 2.009724 0.110491 -0.015112 -569308.000000 0 0 1
-33.260035 25.714214 -33.704999 53.883928 -0.658139 2.246583 0.048025 0.000258 -201351.000000 0 0 1
-33.742275 27.046714 -33.782449 54.875493 -0.675696 2.233969 0.047910 -0.011624 117212.000000 0 0 1
-33.571545 27.486314 32.929624 54.469315 -0.686063 0.921591 0.020117 -0.016171 -295615.000000 0 0 1
-33.777295 29.017514 32.784617 55.296952 -0.709744 0.936162 0.040726 -0.021796 67661.500000 0 0 1
-33.584885 29.523514 31.466851 54.678562 -0.721131 0.957596 0.073200 -0.019556 82430.900000 0 0 1
-33.452985 30.964414 31.433771 55.371284 -0.746785 0.967098 0.077015 -0.025563 18789.900000 0 0 1
-33.082605 31.584914 30.030531 54.716528 -0.762242 0.989822 0.087369 -0.029993 573585.000000 0 0 1
-31.690585 31.451814 29.751771 53.653310 -0.781617 0.983012 0.084053 -0.030801 443414.000000 0 0 1
-31.422735 32.131114 28.552611 53.245173 -0.796544 1.004811 0.077181 -0.026649 -326557.000000 0 0 1
-30.023915 31.959114 27.966681 52.009189 -0.816609 1.003059 0.102447 -0.033776 -773436.000000 0 0 1
-29.902255 30.699914 27.404681 50.868911 -0.798560 1.001866 0.119985 -0.042273 -15523.900000 0 0 1
-28.788155 30.471914 26.576661 49.634810 -0.813804 1.005763 0.097094 -0.032060 -453206.000000 0 0 1
-28.784405 31.180514 25.177851 49.342585 -0.825335 1.035302 0.112454 -0.031096 -177140.000000 0 0 1
-28.615185 32.589914 25.279691 50.199543 -0.850248 1.043054 0.103048 -0.036035 -221578.000000 0 0 1
-29.532855 33.274514 24.460581 50.771083 -0.844901 1.068109 0.107630 -0.032197 -40050.900000 0 0 1
-29.727075 -33.325982 24.904131 51.132532 0.842414 1.062087 0.120174 -0.027868 116326.000000 0 0 1
-30.518845 -33.312382 26.081991 52.166895 0.829135 1.047230 0.114346 -0.040219 192121.000000 0 0 1
-30.710995 -31.963682 26.492371 51.639984 0.805383 1.032096 0.090277 -0.036741 -253870.000000 0 0 1
-31.151375 -31.869082 27.948471 52.603837 0.796786 1.010661 0.087995 -0.040036 1732360.000000 0 0 1
-32.558105 -32.235482 28.180671 53.789467 0.780419 1.019365 0.077954 -0.042684 1607880.000000 0 0 1
-32.789525 -32.544582 29.571561 54.852347 0.781649 1.001414 0.066591 -0.034885 527509.000000 0 0 1
-34.257088 -32.928482 29.933671 56.159217 0.765626 1.008637 0.082537 -0.035058 529744.000000 0 0 1
-34.350865 -33.309382 31.268061 57.159326 0.770007 0.991980 0.066324 -0.032129 -640632.000000 0 0 1
-35.676453 -33.505082 31.647221 58.283329 0.754022 0.996804 0.064173 -0.031294 -623501.000000 0 0 1
-35.915312 -33.714982 33.147494 59.374793 0.753808 0.978491 0.065269 -0.016572 -48153.100000 0 0 1
-35.517370 33.119614 33.623572 59.067225 -0.750478 0.965212 0.028712 -0.019852 -472128.000000 0 0 1
-36.407125 32.784414 -33.455869 59.326147 -0.733088 2.169935 0.036711 -0.014751 -503465.000000 0 0 1
-36.197815 31.269314 -33.084859 58.160637 -0.712477 2.175907 0.031987 -0.017418 468388.000000 0 0 1
-35.101773 31.045214 -32.210649 56.863571 -0.724148 2.172994 0.031210 -0.020413 -148940.000000 0 0 1
-34.882176 29.625014 -32.017939 55.852986 -0.704081 2.181268 0.036331 -0.014213 421326.000000 0 0 1
-33.775685 29.398214 -30.934069 54.423970 -0.716216 2.175345 0.035941 -0.007882 285615.000000 0 0 1
-34.136726 29.689614 -29.590079 54.058876 -0.715835 2.150012 0.046312 -0.017286 -448987.000000 0 0 1
-34.374638 31.046014 -29.333799 54.826476 -0.734562 2.135339 0.024657 -0.011868 196297.000000 0 0 1
-35.599077 31.258814 -28.404649 55.237957 -0.720571 2.110898 0.019664 -0.013126 243687.000000 0 0 1
-35.438163 30.723214 -27.111279 54.173801 -0.714254 2.094915 0.024755 -0.024838 -161264.000000 0 0 1
-36.533025 31.050614 -26.283579 54.677501 -0.704455 2.072251 0.051709 -0.026560 27554.400000 0 0 1
-36.292195 30.636014 -24.769059 53.564868 -0.701087 2.051510 0.052107 -0.029765 -647108.000000 0 0 1
-35.486096 31.419514 -24.009759 53.131134 -0.724692 2.039686 0.051310 -0.026714 -879272.000000 0 0 1
-35.487322 31.152514 -22.565459 52.335735 -0.720441 2.016582 0.043708 -0.031103 -468028.000000 0 0 1
-36.750565 30.907314 -21.715459 52.701302 -0.699247 1.995497 0.041346 -0.031502 -175139.000000 0 0 1
36.306479 32.052314 -21.587259 53.023778 0.723245 1.990100 0.044818 -0.035371 -204111.000000 0 0 1
36.707089 33.245814 -20.915659 53.760202 0.735958 1.970402 0.049006 -0.037499 -542991.000000 0 0 1
36.950859 32.952914 -19.403259 53.176564 0.728268 1.944304 0.051434 -0.034870 698710.000000 0 0 1
-35.751280 32.225614 -19.107359 51.785475 -0.733579 1.948698 0.054945 -0.037386 452381.000000 0 0 1
-35.559473 32.073514 -17.714159 51.058573 -0.733901 1.925101 0.066231 -0.030939 -320879.000000 0 0 1
-34.344465 31.216314 -17.401759 49.566337 -0.737721 1.929521 0.064760 -0.027365 -462223.000000 0 0 1
-34.201329 31.028914 -16.008359 48.875270 -0.736802 1.904490 0.065843 -0.019753 364262.000000 0 0 1
-33.134505 30.107914 -15.740159 47.456660 -0.737578 1.908874 0.063392 -0.020121 334765.000000 0 0 1
-32.729925 30.193014 -14.220359 46.744890 -0.745102 1.879907 0.075986 -0.019912 474772.000000 0 0 1
-33.785145 29.721814 -13.372059 46.942883 -0.721503 1.859655 0.069370 -0.016767 548201.000000 0 0 1
-33.294255 29.416114 -12.108059 46.048022 -0.723635 1.836869 0.080691 -0.010842 -280013.000000 0 0 1
-34.269618 28.445414 -11.457059 45.987091 -0.692796 1.822585 0.081116 -0.013908 -144763.000000 0 0 1
-33.795795 27.975814 -10.190159 45.040441 -0.691458 1.799017 0.087411 -0.013812 477654.000000 0 0 1
-34.522457 26.855414 -9.663659 44.792853 -0.661126 1.788247 0.093375 -0.019725 47025.900000 0 0 1
-33.693895 26.119214 -8.630359 43.496839 -0.659430 1.770535 0.097375 -0.012223 -153117.000000 0 0 1
-33.380695 26.952014 -7.562159 43.564529 -0.679245 1.745265 0.091467 -0.019727 -439154.000000 0 0 1
-32.300985 26.499314 -6.832159 42.334923 -0.687049 1.732889 0.093097 -0.028213 -831894.000000 0 0 1
-31.698255 27.584814 -5.948859 42.439254 -0.716123 1.711433 0.095340 -0.026611 137695.000000 0 0 1
-30.783535 26.950414 -5.012859 41.219894 -0.719103 1.692711 0.100593 -0.023086 567769.000000 0 0 1
-30.776275 27.526314 -3.700459 41.455645 -0.729713 1.660178 0.099462 -0.017886 354675.000000 0 0 1
-29.882375 26.632014 -2.763859 40.123054 -0.727948 1.639735 0.090834 -0.015171 709596.000000 0 0 1
-30.538715 25.398914 -2.402059 39.793063 -0.693771 1.631197 0.084394 -0.008722 417315.000000 0 0 1
-29.616655 24.585814 -1.721359 38.530139 -0.692848 1.615487 0.096743 -0.013678 456848.000000 0 0 1
-30.404895 23.378514 -1.081559 38.369029 -0.655492 1.598988 0.110769 -0.024140 564981.000000 0 0 1
-30.754915 22.420114 -2.064459 38.115461 -0.629920 1.624986 0.090754 -0.016740 100056.000000 0 0 1
-31.657755 21.405914 -1.649559 38.251114 -0.594551 1.613934 0.089509 -0.017132 123774.000000 0 0 1
-32.166585 20.636514 -2.847559 38.323146 -0.570413 1.645169 0.100308 -0.014844 418691.000000 0 0 1
-31.134905 19.778514 -3.323059 37.035317 -0.565938 1.660644 0.083724 -0.015544 652657.000000 0 0 1
-31.691155 18.983914 -4.343459 37.196559 -0.539705 1.687834 0.085141 -0.008241 86186.000000 0 0 1
-30.638225 18.017614 -4.908759 35.880791 -0.531606 1.708034 0.076433 -0.005885 -193410.000000 0 0 1
-30.338265 16.916314 -4.100859 34.976979 -0.508652 1.688311 0.088707 -0.014962 183614.000000 0 0 1
-29.798635 15.865914 -4.915159 34.115168 -0.489260 1.715375 0.070591 -0.011713 -146683.000000 0 0 1
-29.329215 14.651514 -4.097259 33.040237 -0.463290 1.695125 0.076411 -0.012052 923617.000000 0 0 1
-30.467125 13.996714 -3.447859 33.705214 -0.430647 1.673270 0.091917 -0.016478 1224050.000000 0 0 1
-30.145905 12.876114 -2.648659 32.887465 -0.403670 1.651421 0.088351 -0.021116 427595.000000 0 0 1
-31.445295 12.167914 -2.120159 33.784017 -0.369210 1.633594 0.098461 -0.018956 951041.000000 0 0 1
-32.207435 11.412814 -3.094559 34.309583 -0.340548 1.661114 0.087116 -0.004122 301576.000000 0 0 1
-33.268135 10.720514 -2.510559 35.042848 -0.311739 1.642500 0.092284 -0.004721 -537878.000000 0 0 1
-34.245935 10.111814 -3.530559 35.881718 -0.287112 1.669350 0.076084 -0.004980 -301388.000000 0 0 1
-33.793365 9.041014 -4.295459 35.244609 -0.261416 1.692976 0.076374 -0.012171 458254.000000 0 0 1
-34.806779 8.680514 -5.249959 36.255004 -0.244406 1.716114 0.088149 -0.009489 439890.000000 0 0 1
-34.306283 7.736814 -6.371459 35.740381 -0.221811 1.750025 0.095630 -0.017700 47359.000000 0 0 1
-33.585145 6.599014 -5.871559 34.727283 -0.194015 1.740689 0.090506 -0.012076 547903.000000 0 0 1
-33.362815 5.621414 -6.878559 34.525242 -0.166926 1.771371 0.101758 -0.017431 -356840.000000 0 0 1
-32.155675 4.742714 -6.498359 33.146787 -0.146437 1.768122 0.117093 -0.018211 -617743.000000 0 0 1
-30.941625 5.202514 -7.009259 32.149340 -0.166582 1.790583 0.119540 -0.022710 -593381.000000 0 0 1
-29.935625 4.441714 -6.433359 30.939596 -0.147301 1.780257 0.115081 -0.028188 -532508.000000 0 0 1
-28.507415 4.964614 -6.209459 29.595228 -0.172422 1.782180 0.134111 -0.028591 57290.200000 0 0 1
-27.694295 5.047714 -7.371059 29.099586 -0.180286 1.826891 0.135726 -0.026566 356309.000000 0 0 1
-26.355115 4.813214 -6.961859 27.680799 -0.180638 1.825031 0.153159 -0.030956 135862.000000 0 0 1
-25.320965 5.152914 -8.073559 27.071870 -0.200762 1.873631 0.142290 -0.033385 13568.300000 0 0 1
-25.436805 4.206714 -9.164659 27.362721 -0.163896 1.912330 0.146632 -0.040892 222424.000000 0 0 1
-24.668705 4.646614 -10.238559 27.110222 -0.186179 1.958069 0.133612 -0.039859 -262584.000000 0 0 1
-24.944805 3.832114 -11.488359 27.729241 -0.152432 1.997975 0.117996 -0.042168 414454.000000 0 0 1
-26.183885 4.212214 -12.089459 29.146074 -0.159504 1.998507 0.127580 -0.025746 784507.000000 0 0 1
-26.446925 3.572514 -13.306659 29.820628 -0.134270 2.033337 0.124542 -0.025807 190023.000000 0 0 1
-27.439045 4.338214 -14.230959 31.212842 -0.156806 2.044216 0.106865 -0.013474 -55897.500000 0 0 1
-26.776995 5.345214 -15.060659 31.183365 -0.197030 2.074841 0.090531 -0.011042 635479.000000 0 0 1
-27.487145 6.137614 -16.027359 32.405087 -0.219687 2.088164 0.115443 -0.016789 -284345.000000 0 0 1
-28.347565 5.493614 -17.113059 33.565176 -0.191422 2.105802 0.081925 -0.004797 108153.000000 0 0 1
-29.568925 4.927914 -16.654159 34.292371 -0.165141 2.077905 0.085574 -0.008934 329894.000000 0 0 1
-30.367545 4.503414 -17.743959 35.458661 -0.147224 2.094872 0.093271 0.002909 683351.000000 0 0 1
-31.877625 4.260014 -17.382959 36.558145 -0.132849 2.066315 0.091404 -0.007634 742149.000000 0 0 1
-32.264845 3.109214 -16.566659 36.402495 -0.096069 2.043277 0.084817 -0.019068 292135.000000 0 0 1
-31.969725 1.896214 -17.157859 36.332507 -0.059243 2.062633 0.106738 -0.019958 -381488.000000 0 0 1
-31.897635 0.676414 -16.175659 35.771058 -0.021203 2.040026 0.111701 -0.018966 -218481.000000 0 0 1
-31.307555 -0.484286 -16.722559 35.497063 0.015467 2.061330 0.109274 -0.010095 320934.000000 0 0 1
-31.459385 -1.567386 -15.809059 35.243098 0.049781 2.035963 0.119743 -0.026176 -195729.000000 0 0 1
-31.099975 -2.910586 -16.387359 35.273581 0.093316 2.053955 0.109492 -0.017223 -373010.000000 0 0 1
-31.953735 -3.356986 -17.397159 36.537264 0.104674 2.067066 0.104119 -0.015410 -208994.000000 0 0 1
-31.557005 -4.531686 -18.044259 36.632991 0.142628 2.085835 0.111209 -0.016808 -223628.000000 0 0 1
-32.520565 -4.823986 -19.197159 38.070841 0.147263 2.099308 0.112134 -0.012902 -81788.300000 0 0 1
-32.356385 -6.061786 -19.868159 38.450288 0.185198 2.113816 0.109274 -0.014946 245118.000000 0 0 1
-33.312535 -6.202586 -20.925559 39.825571 0.184086 2.124017 0.101019 -0.016844 263347.000000 0 0 1
-33.115575 -7.524886 -21.733559 40.318889 0.223437 2.140095 0.114102 -0.022461 104537.000000 0 0 1
-31.895285 -7.529886 -22.451759 39.725179 0.231837 2.171444 0.109326 -0.017146 -67094.100000 0 0 1
-31.822755 -8.415386 -23.503259 40.446380 0.258528 2.190872 0.097699 -0.011684 -460054.000000 0 0 1
-30.438075 -8.480386 -24.151959 39.770724 0.271720 2.223429 0.076360 -0.005113 -632319.000000 0 0 1
-30.144345 -7.238486 -24.847659 39.730132 0.235666 2.246454 0.071132 -0.010295 59806.400000 0 0 1
-30.419545 -7.188786 -26.266729 40.828524 0.232064 2.269653 0.066862 -0.009470 1455170.000000 0 0 1
-31.956535 -7.176786 -26.719939 42.269156 0.220914 2.255106 0.081299 -0.006412 1390670.000000 0 0 1
-32.668665 -8.361386 -26.503439 42.890404 0.250566 2.236909 0.069841 -0.012284 -140665.000000 0 0 1
-33.880605 -8.362386 -27.251709 44.277314 0.241983 2.233789 0.070153 -0.014093 271618.000000 0 0 1
-34.794886 -9.514586 -26.837599 44.960740 0.266923 2.210443 0.070056 -0.014479 -689512.000000 0 0 1
-34.322255 -10.800286 -27.296169 45.163527 0.304863 2.219790 0.063527 -0.009845 -85744.600000 0 0 1
-35.130433 -11.920786 -27.025649 45.898127 0.327137 2.200392 0.042901 -0.008942 -1718.470000 0 0 1
-36.468615 -12.017586 -27.811229 47.411462 0.318326 2.197642 0.028816 -0.006512 30877.100000 0 0 1
36.508829 -10.992486 -27.450779 46.981641 -0.292458 2.194798 0.025088 -0.012114 -363304.000000 0 0 1
35.672929 -10.854786 -28.572979 46.976583 -0.295385 2.224636 0.027031 -0.021235 -919512.000000 0 0 1
34.657039 -9.763386 -28.352259 45.828862 -0.274598 2.237826 0.032662 -0.014494 -877799.000000 0 0 1
33.710109 -10.112086 -27.392019 44.597627 -0.291431 2.232173 0.019777 -0.013220 -385533.000000 0 0 1
32.730599 -9.100686 -27.266389 43.561112 -0.271198 2.247125 0.011398 -0.014100 -359783.000000 0 0 1
31.580909 -9.433986 -26.337319 42.190144 -0.290286 2.244971 0.013684 -0.010646 -369186.000000 0 0 1
31.924189 -9.438086 -24.948259 41.601044 -0.287453 2.213926 -0.001613 -0.003801 -264132.000000 0 0 1
30.792219 -9.680186 -24.183859 40.332688 -0.304589 2.213809 -0.006714 0.000818 -469404.000000 0 0 1
31.241199 -9.680286 -22.721959 39.824714 -0.300475 2.177971 -0.010463 -0.000386 -189843.000000 0 0 1
31.946109 -10.835186 -22.429759 40.509865 -0.326995 2.157581 -0.015132 -0.004443 -93090.700000 0 0 1
32.165949 -10.807486 -21.060159 39.937204 -0.324141 2.126254 -0.003947 -0.003962 -233106.000000 0 0 1
32.965189 -11.957886 -20.403659 40.570974 -0.347982 2.097762 0.016693 -0.007841 157264.000000 0 0 1
34.340059 -11.988286 -20.732759 41.866525 -0.335877 2.088874 0.027792 -0.009337 360738.000000 0 0 1
35.090229 -12.866286 -19.859159 42.323181 -0.351441 2.059211 0.052840 -0.010753 398462.000000 0 0 1
36.591589 -12.879986 -20.252459 43.760718 -0.338449 2.051948 0.057912 -0.019459 -117569.000000 0 0 1
-36.608755 -11.658986 -20.135359 43.377017 0.308319 2.053521 0.080155 -0.018982 171436.000000 0 0 1
-36.714775 -10.772086 -21.231459 43.758284 0.285390 2.077387 0.094648 -0.018390 -553431.000000 0 0 1
-36.113515 -11.218586 -22.632659 44.071305 0.301197 2.110109 0.069384 -0.015649 -24347.800000 0 0 1
-36.739855 -12.272886 -23.318459 45.212733 0.322394 2.112679 0.057423 -0.012886 1272100.000000 0 0 1
35.878199 -12.011886 -23.955759 44.781792 -0.323067 2.135238 0.059767 -0.010363 1212120.000000 0 0 1
35.288009 -13.171386 -24.824559 45.110837 -0.357239 2.153522 0.026000 -0.017258 -117200.000000 0 0 1
35.166059 -14.452486 -24.259259 45.100306 -0.389934 2.138735 0.023298 -0.022010 689744.000000 0 0 1
34.257869 -14.615586 -23.161359 43.859610 -0.403254 2.127134 0.005812 -0.019265 3457.700000 0 0 1
-30.522425 8.780914 -19.361559 37.196678 -0.280123 2.118254 0.061902 -0.002580 213478.000000 0 0 1
-29.428895 7.887114 -19.318759 36.076043 -0.261852 2.135897 0.068823 -0.003292 330700.000000 0 0 1
-28.524115 8.094114 -20.418559 36.000797 -0.276496 2.173862 0.067782 -0.017555 545176.000000 0 0 1
-27.381005 7.066614 -20.450459 34.898105 -0.252573 2.196916 0.074294 -0.022427 -450725.000000 0 0 1
-26.316655 7.179814 -19.578759 33.577431 -0.266342 2.193327 0.077204 -0.019057 -697170.000000 0 0 1
-25.278875 6.307614 -19.885159 32.775403 -0.244528 2.222711 0.094419 -0.026641 474547.000000 0 0 1
-23.888305 6.703414 -19.271859 31.416420 -0.273579 2.231196 0.072627 -0.026629 549124.000000 0 0 1
-23.162205 7.682314 -19.913559 31.496913 -0.320257 2.255235 0.076608 -0.027472 -634008.000000 0 0 1
-21.841005 7.754514 -19.441259 30.251025 -0.341161 2.268767 0.072856 -0.017334 103820.000000 0 0 1
-21.069205 8.999114 -20.025159 30.428645 -0.403666 2.289092 0.079927 -0.008044 -157958.000000 0 0 1
-20.850405 8.773614 -21.391159 31.133541 -0.398298 2.328256 0.104555 -0.028159 23191.200000 0 0 1
-20.310205 9.865014 -22.109159 31.601232 -0.452156 2.345675 0.082388 -0.021214 306013.000000 0 0 1
-19.270505 9.484714 -23.193359 31.610822 -0.457379 2.394571 0.113190 -0.015033 381557.000000 0 0 1
-19.872705 8.715614 -24.198259 32.502955 -0.413310 2.410573 0.106913 -0.015999 -201743.000000 0 0 1
-18.857605 8.259414 -25.032779 32.410912 -0.412820 2.453339 0.084489 -0.006993 -216239.000000 0 0 1
-19.352305 7.292914 -26.120549 33.316383 -0.360392 2.471904 0.060738 -0.003723 -174322.000000 0 0 1
-19.589005 6.032814 -25.585509 32.783261 -0.298752 2.466172 0.088135 -0.007716 293929.000000 0 0 1
-20.298105 5.175514 -26.469319 33.755353 -0.249656 2.472124 0.082744 -0.020017 -637474.000000 0 0 1
-20.685005 3.866414 -25.696619 33.213473 -0.184786 2.455426 0.075888 -0.008101 562549.000000 0 0 1
-19.711205 2.810714 -25.413419 32.284262 -0.141640 2.477014 0.077219 -0.008718 1445460.000000 0 0 1
-18.484105 3.285014 -24.815959 31.117282 -0.175885 2.493932 0.092550 -0.013626 194658.000000 0 0 1
-17.645405 2.107914 -24.210159 30.032239 -0.118896 2.508394 0.095894 -0.013075 121121.000000 0 0 1
-18.117905 1.425214 -23.023659 29.332211 -0.078502 2.473375 0.099955 -0.012583 -105079.000000 0 0 1
-19.363505 0.776114 -23.106859 30.157497 -0.040060 2.443713 0.078219 -0.008380 -214461.000000 0 0 1
-19.683305 -0.026686 -21.840959 29.401712 0.001356 2.408109 0.108953 -0.014263 127341.000000 0 0 1
-18.996805 -1.251686 -21.695159 28.863909 0.065794 2.421336 0.115175 -0.013976 386610.000000 0 0 1
-19.734205 -1.962986 -20.719359 28.680725 0.099145 2.378084 0.110170 -0.012412 289193.000000 0 0 1
-19.111205 -3.370786 -20.382659 28.143439 0.174582 2.380731 0.114381 -0.034036 151467.000000 0 0 1
-19.312605 -4.335886 -21.414859 29.161152 0.220849 2.395523 0.111224 -0.039347 322055.000000 0 0 1
-19.074505 -5.670386 -20.910959 28.866212 0.288955 2.380974 0.116801 -0.033246 -69262.500000 0 0 1
-19.102105 -6.796386 -21.955459 29.885171 0.341826 2.395963 0.091023 -0.037711 -329610.000000 0 0 1
-17.843105 -6.923386 -22.546559 29.574600 0.370132 2.437752 0.105134 -0.034603 -335627.000000 0 0 1
-17.913005 -7.771286 -23.646059 30.666019 0.409330 2.451337 0.114334 -0.036676 230636.000000 0 0 1
-16.493205 -7.941086 -24.216359 30.356526 0.448719 2.494320 0.099065 -0.039982 -529754.000000 0 0 1
-16.512805 -8.790186 -25.363849 31.516106 0.489172 2.506118 0.077773 -0.053195 -134625.000000 0 0 1
-15.394805 -8.941286 -26.207369 31.682373 0.526181 2.544886 0.079184 -0.051631 409286.000000 0 0 1
-14.102105 -9.639186 -25.643619 30.811985 0.599585 2.553970 0.079794 -0.048480 552977.000000 0 0 1
-13.466605 -8.935486 -24.561059 29.401326 0.585827 2.559606 0.072902 -0.039649 388404.000000 0 0 1
-12.443105 -9.691186 -23.935959 28.664962 0.661705 2.558974 0.063139 -0.035355 35455.500000 0 0 1
-11.560105 -8.959386 -22.908859 27.179449 0.659326 2.573399 0.054609 -0.033608 -339001.000000 0 0 1
-12.134305 -8.625686 -21.657759 26.281216 0.617972 2.539368 0.056895 -0.034834 -581040.000000 0 0 1
-11.350305 -7.843386 -20.872659 25.020312 0.604679 2.557529 0.056488 -0.028039 -1277420.000000 0 0 1
-11.978405 -7.845086 -19.477959 24.174748 0.579837 2.507678 0.072525 -0.026766 244454.000000 0 1 0
-13.075805 -6.974986 -19.358859 24.380166 0.490030 2.488225 0.089118 -0.023045 1061560.000000 0 1 0
-14.371005 -7.482386 -19.775359 25.565146 0.480037 2.455186 0.126228 -0.034177 824230.000000 0 0 1
-15.544605 -6.482986 -19.667659 25.893641 0.395124 2.433426 0.130924 -0.023803 11051.300000 0 0 1
-15.915505 -6.139986 -18.318959 25.031719 0.368194 2.391799 0.119944 -0.024257 156567.000000 0 0 1
-15.164405 -5.104486 -17.764459 23.907968 0.324696 2.408390 0.126477 -0.031855 -692704.000000 0 1 0
-15.406105 -4.868686 -16.212159 22.888562 0.306091 2.357895 0.128903 -0.019693 510203.000000 0 1 0
-16.649105 -4.327486 -15.745159 23.320160 0.254296 2.311996 0.145213 -0.023362 664957.000000 0 1 0
-16.681405 -2.909786 -15.958659 23.268324 0.172695 2.326572 0.082312 -0.026250 3896.950000 0 1 0
-17.944405 -2.399086 -15.238659 23.663770 0.132907 2.270467 0.074076 -0.022753 -159844.000000 0 1 0
-17.876105 -2.569086 -13.834259 22.749551 0.142739 2.224476 0.096146 -0.019948 1243730.000000 0 1 0
-18.944905 -1.937586 -13.067659 23.096047 0.101920 2.172195 0.099351 -0.022390 759270.000000 0 1 0
-18.439105 -0.707686 -12.238359 22.142241 0.038361 2.156415 0.086211 -0.024242 -61075.300000 0 1 0
-17.964505 0.344414 -13.080059 22.224536 -0.019170 2.200050 0.105863 -0.029835 -48948.600000 0 1 0
-17.064705 1.108514 -12.383359 21.113516 -0.064868 2.197544 0.100526 -0.026355 -1124810.000000 0 1 0
-16.518305 2.171014 -13.366459 21.359540 -0.130682 2.246933 0.106656 -0.024598 374125.000000 0 1 0
-15.688605 1.674814 -14.438759 21.387265 -0.106351 2.311910 0.095052 -0.026906 254742.000000 0 1 0
-14.333905 1.471414 -14.132059 20.182690 -0.102294 2.346484 0.085010 -0.024833 -669737.000000 0 1 0
-13.692805 0.543714 -15.168359 20.441811 -0.039687 2.406884 0.080301 -0.027665 -221383.000000 0 1 0
-13.310005 1.161114 -16.355359 21.118764 -0.087016 2.456636 0.088612 -0.033145 45311.200000 0 1 0
-13.114905 0.221914 -17.392259 21.783954 -0.016919 2.495426 0.078033 -0.023252 -47576.400000 0 1 0
-12.426705 0.888314 -18.580059 22.370308 -0.071363 2.550923 0.085015 -0.022451 640435.000000 0 1 0
-11.112505 1.422014 -18.336559 21.488119 -0.127274 2.593145 0.058901 -0.025731 358639.000000 0 1 0
-10.699305 2.074914 -19.472959 22.315387 -0.191552 2.631347 0.060780 -0.020451 171849.000000 0 1 0
-9.315405 2.775714 -19.329959 21.636281 -0.289594 2.675664 0.041044 -0.020949 -231604.000000 0 1 0
-8.332405 1.765314 -19.340259 21.132698 -0.208774 2.726755 0.036210 -0.021738 1329110.000000 0 1 0
-6.929005 2.181314 -19.233859 20.559926 -0.304987 2.780474 0.029765 -0.018874 2211510.000000 0 1 0
-6.342205 3.168714 -20.295259 21.497950 -0.463346 2.805515 0.032773 -0.014882 -809326.000000 0 1 0
-6.321405 2.722614 -21.619759 22.688913 -0.406687 2.833381 0.036991 -0.015142 365358.000000 0 1 0
-5.787605 3.724714 -22.494559 23.523925 -0.571840 2.844671 0.034957 -0.006242 -372786.000000 0 1 0
-5.169605 3.271114 -23.813759 24.586991 -0.564159 2.890137 0.053602 -0.021538 -344804.000000 0 1 0
-3.929605 2.625314 -23.662359 24.129676 -0.588985 2.944464 0.057084 -0.030683 -289237.000000 0 1 0
-3.422605 2.290214 -24.959359 25.296816 -0.589715 2.978071 0.077082 -0.032048 332032.000000 0 0 1
-1.939505 1.857314 -24.930959 25.075167 -0.763754 3.034293 0.048073 -0.027017 252365.000000 0 0 1
-0.917205 2.850214 -24.720559 24.901225 -1.259459 3.021060 0.034248 -0.027680 1440840.000000 0 1 0
0.450195 2.437514 -24.670759 24.794969 1.388160 3.041456 0.034385 -0.022152 666326.000000 0 1 0
0.895095 1.443314 -23.607859 23.668869 1.015681 3.069777 0.034386 -0.021237 -1207220.000000 0 1 0
0.462395 0.091514 -23.788659 23.793328 0.195389 3.121781 0.041488 -0.020994 -132011.000000 0 1 0
1.028195 -0.719386 -22.811359 22.845848 -0.610497 3.086637 0.035376 -0.018811 -942493.000000 0 1 0
0.693395 -2.225786 -22.766759 22.885808 -1.268797 3.039549 0.044270 -0.026697 293169.000000 0 1 0
-0.519605 -2.522486 -22.080759 22.230448 1.367648 3.025480 0.048927 -0.029692 727775.000000 0 1 0
-1.738905 -2.537986 -22.840559 23.046828 0.970105 3.007702 0.060669 -0.032405 745232.000000 0 1 0
-2.522705 -1.191286 -22.830459 23.000283 0.441182 3.019997 0.055993 -0.031614 -1351780.000000 0 1 0
-3.035805 -0.976786 -21.521159 21.756160 0.311294 2.994480 0.043794 -0.031202 36689.500000 0 1 0
-3.980005 0.071614 -21.547559 21.912162 -0.017992 2.958914 0.039881 -0.027311 1725710.000000 0 1 0
-5.431305 -0.200986 -22.152259 22.809253 0.036988 2.900997 0.041321 -0.025885 1075750.000000 0 1 0
-6.315305 -1.108686 -21.498759 22.434547 0.173784 2.851747 0.041860 -0.020373 812273.000000 0 1 0
-7.678205 -0.937786 -21.891559 23.217980 0.121534 2.801941 0.045278 -0.014149 520197.000000 0 1 0
-8.577505 -2.102586 -21.491159 23.234981 0.240388 2.751696 0.038552 -0.014480 -211946.000000 0 1 0
-8.514905 -3.162686 -22.367759 24.141724 0.355637 2.755849 0.055497 -0.020609 31719.300000 0 1 0
-9.188605 -4.246586 -21.737059 23.978400 0.432918 2.705778 0.050546 -0.024924 -147132.000000 0 1 0
-10.018205 -5.141386 -22.693659 25.333780 0.474155 2.680994 0.053688 -0.028969 644780.000000 0 0 1
-11.378805 -4.700086 -22.789759 25.902531 0.391711 2.646295 0.055012 -0.030675 677869.000000 0 0 1
-12.059405 -5.365786 -23.874159 27.279963 0.418643 2.636550 0.047489 -0.037177 404322.000000 0 0 1
-13.582405 -5.509786 -23.685059 27.853572 0.385373 2.587431 0.104279 -0.037193 8594.980000 0 0 1
-14.395905 -4.382186 -23.633659 28.017770 0.295493 2.574607 0.082422 -0.032561 -767954.000000 0 0 1
-15.749705 -4.638286 -23.835759 28.943225 0.286403 2.538411 0.093767 -0.032685 -238693.000000 0 0 1
-16.530305 -3.290286 -23.915659 29.258088 0.196478 2.527685 0.096842 -0.027292 -109845.000000 0 0 1
-16.277805 -2.843186 -25.211619 30.144259 0.172922 2.561415 0.084781 -0.035232 25741.500000 0 0 1
-16.639105 -1.509386 -25.464439 30.456127 0.090466 2.560935 0.085419 -0.025595 192719.000000 0 0 1
-18.132105 -1.295786 -25.864269 31.613489 0.071342 2.528966 0.085902 -0.029556 409566.000000 0 0 1
-18.595205 -1.821186 -27.123359 32.935922 0.097627 2.538383 0.092104 -0.041689 -60676.000000 0 0 1
-18.217205 -0.953486 -28.130779 33.527845 0.052292 2.566289 0.065749 -0.034923 -637174.000000 0 0 1
-18.105405 -1.561486 -29.551989 34.692419 0.086031 2.590262 0.061340 -0.030835 1839630.000000 0 0 1
-19.429005 -2.036686 -30.007269 35.806012 0.104446 2.564498 0.068305 -0.036482 1895000.000000 0 0 1
-19.387705 -2.561086 -31.326079 36.929195 0.131338 2.583514 0.075397 -0.044662 -184987.000000 0 0 1
-20.711905 -3.191486 -31.836639 38.114829 0.152887 2.559442 0.060998 -0.034004 1240770.000000 0 0 1
-21.859605 -2.347286 -32.103099 38.909652 0.106970 2.541118 0.061923 -0.032979 1183740.000000 0 0 1
-22.591605 -1.871686 -30.986489 38.393311 0.082660 2.509987 0.050917 -0.021070 -285750.000000 0 0 1
-23.704405 -0.897086 -31.469629 39.408643 0.037827 2.495673 0.050226 -0.021672 -20801.300000 0 0 1
-23.225205 0.340414 -31.976579 39.522495 -0.014656 2.513369 0.050558 -0.029114 427899.000000 0 0 1
-24.297305 1.056114 -32.526899 40.613711 -0.043439 2.499567 0.051148 -0.032094 95121.700000 0 0 1
-23.721005 2.334014 -33.188309 40.860709 -0.098079 2.518762 0.054233 -0.025444 -419405.000000 0 0 1
-23.144305 3.294214 -32.303369 39.875034 -0.141384 2.515145 0.031497 -0.019290 146902.000000 0 0 1
-23.997705 3.883514 -31.350649 39.671586 -0.160438 2.482021 0.038913 -0.019751 -299754.000000 0 0 1
-25.048905 4.866614 -32.007429 40.934180 -0.191894 2.468543 0.038450 -0.024253 -1057220.000000 0 0 1
-26.063455 4.145614 -32.535679 41.893439 -0.157737 2.460094 0.056756 -0.029748 -1034090.000000 0 0 1
-26.856125 4.935714 -33.409769 43.148875 -0.181755 2.456390 0.067887 -0.033098 348997.000000 0 0 1
-28.158255 4.268014 -33.967079 44.326806 -0.150427 2.443839 0.087954 -0.032506 164757.000000 0 0 1
-28.039255 3.137514 33.257750 43.613321 -0.111434 0.703536 0.101036 -0.029756 723066.000000 0 0 1
-29.304925 2.787314 32.684807 43.986866 -0.094829 0.733168 0.110209 -0.030350 545738.000000 0 0 1
-29.507905 1.245714 32.504949 43.918561 -0.042191 0.737549 0.103580 -0.018496 -117214.000000 0 0 1
-29.435195 0.486514 33.713835 44.758129 -0.016527 0.717815 0.096937 -0.012586 170089.000000 0 0 1
-29.820685 -0.880886 33.527762 44.879394 0.029531 0.727163 0.081924 -0.005674 -784972.000000 0 0 1
-29.915725 -1.607386 -33.197819 44.717217 0.053679 2.407434 0.060620 0.000699 71370.100000 0 0 1
-28.674805 -1.874386 -32.577349 43.440090 0.065274 2.418764 0.078402 -0.015631 247319.000000 0 0 1
-27.946725 -0.765386 -32.126729 42.587932 0.027380 2.425478 0.084950 -0.018605 -922451.000000 0 0 1
-27.965855 -0.556986 -30.581139 41.444002 0.019914 2.400736 0.105905 -0.020923 -144952.000000 0 0 1
-27.071155 -1.343086 -29.796759 40.280245 0.049573 2.403475 0.087239 -0.025871 468751.000000 0 0 1
-26.869615 -0.830886 -28.543329 39.209542 0.030913 2.386151 0.094898 -0.030906 -457143.000000 0 0 1
-25.778895 -1.492386 -27.714479 37.879691 0.057827 2.391528 0.091116 -0.029342 -524127.000000 0 0 1
-26.080805 -2.772186 -27.278769 37.842101 0.105895 2.375835 0.082021 -0.024121 24717.500000 0 0 1
-25.125795 -3.215386 -26.336859 36.541407 0.127280 2.375666 0.079758 -0.023885 -159925.000000 0 0 1
-25.455085 -4.547486 -25.576619 36.370378 0.176783 2.350722 0.067740 -0.024525 242580.000000 0 0 1
-26.595955 -4.477986 -24.735459 36.595630 0.166806 2.312999 0.078698 -0.020456 150869.000000 0 0 1
-26.725945 -5.653686 -23.967259 36.341021 0.208470 2.290963 0.051193 -0.015448 195918.000000 0 0 1
-27.699245 -5.376686 -22.807059 36.281109 0.191725 2.250575 0.072798 -0.014435 -23441.900000 0 0 1
-27.931245 -6.444286 -21.970659 36.116383 0.226752 2.224750 0.058276 -0.018865 132997.000000 0 0 1
-28.985015 -6.212486 -21.029059 36.344840 0.211140 2.187805 0.083231 -0.015435 46526.400000 0 0 1
-29.380275 -7.417086 -20.171559 36.401999 0.247284 2.158118 0.083309 -0.020275 -784804.000000 0 0 1
-28.521425 -7.741086 -19.131459 35.205238 0.265028 2.145310 0.069017 -0.023569 -346665.000000 0 0 1
-29.023385 -8.651986 -18.143459 35.304374 0.289716 2.110539 0.080462 -0.030263 183146.000000 0 0 1
-29.882525 -7.907086 -17.076859 35.314394 0.258677 2.075521 0.083795 -0.024492 372693.000000 0 0 1
-29.051965 -7.076686 -16.261959 34.037442 0.238934 2.068907 0.081752 -0.035206 329452.000000 0 0 1
-29.753975 -6.404886 -15.239359 34.037621 0.212026 2.035011 0.087351 -0.029661 -360976.000000 0 0 1
-28.872365 -5.596686 -14.300259 32.702198 0.191468 2.023376 0.094018 -0.031153 -164612.000000 0 0 1
-28.365815 -4.411086 -14.878159 32.333214 0.154271 2.048962 0.092447 -0.022168 431821.000000 0 0 1
-27.422875 -3.734986 -14.056059 31.040892 0.135367 2.040726 0.097971 -0.025273 124078.000000 0 0 1
-14.557505 21.230314 -4.992459 26.221591 -0.969736 1.762361 0.081040 -0.018859 40576.300000 0 0 1
-14.762105 20.734014 -6.299359 26.220241 -0.952078 1.813418 0.108525 -0.020936 193423.000000 0 0 1
-15.682005 19.657614 -6.403159 25.948941 -0.897424 1.820132 0.096066 -0.029485 54677.000000 0 0 1
-15.643305 19.018414 -7.824159 25.838548 -0.882465 1.878436 0.110033 -0.033473 7374.570000 0 0 1
-14.423605 18.376514 -8.191859 24.755670 -0.905335 1.908062 0.105967 -0.032063 259035.000000 0 1 0
-14.601805 17.362914 -9.232459 24.493301 -0.871564 1.957285 0.088224 -0.033290 -201009.000000 0 1 0
-14.857805 15.957714 -8.601159 23.438920 -0.821076 1.946536 0.085434 -0.035408 628780.000000 0 1 0
-16.190305 15.885414 -8.069459 24.074645 -0.775893 1.912598 0.077286 -0.025403 821074.000000 0 1 0
-16.437305 14.738714 -7.276659 23.245741 -0.730968 1.889180 0.080355 -0.022662 -543231.000000 0 1 0
-17.855505 14.838614 -6.714559 24.167930 -0.693382 1.852330 0.098190 -0.028763 -337307.000000 0 1 0
-18.807305 14.569614 -7.743459 25.018984 -0.659109 1.885467 0.084280 -0.023121 44230.900000 0 0 1
-20.065905 15.118214 -7.373059 26.183257 -0.645691 1.856252 0.085724 -0.016170 -128989.000000 0 0 1
-21.129505 14.646314 -8.357659 27.033701 -0.606127 1.885103 0.075359 -0.007914 -564979.000000 0 0 1
-21.505105 13.302614 -8.081759 26.547014 -0.553969 1.880138 0.102325 -0.015757 399993.000000 0 0 1
-22.479405 12.823714 -9.021059 27.407131 -0.518419 1.906200 0.101565 -0.016694 452040.000000 0 0 1
-23.050805 11.480214 -8.471259 27.108987 -0.462078 1.888608 0.125557 -0.021895 162107.000000 0 0 1
-22.091805 10.430314 -8.472659 25.857789 -0.441108 1.904626 0.131158 -0.026093 216387.000000 0 0 1
-22.532605 9.356814 -7.655759 25.571056 -0.393589 1.874851 0.148223 -0.034889 -245247.000000 0 0 1
-21.395105 8.439114 -7.210759 24.103199 -0.375705 1.874611 0.133726 -0.019466 -346797.000000 0 1 0
-20.953105 7.460414 -8.148459 23.687292 -0.342057 1.921971 0.110932 -0.021886 592759.000000 0 1 0
-20.040205 6.604614 -7.437759 22.372997 -0.318358 1.909690 0.095393 -0.014717 -5096.120000 0 1 0
-19.687805 5.398314 -8.342759 22.053415 -0.267618 1.958753 0.071300 -0.026566 -363259.000000 0 1 0
-20.734105 4.479714 -8.527859 22.862531 -0.212785 1.953043 0.099108 -0.026769 394021.000000 0 1 0
-20.356005 3.410814 -9.435159 22.694114 -0.166016 1.999568 0.083962 -0.027649 507630.000000 0 1 0
-21.405705 2.228514 -9.438259 23.500026 -0.103735 1.984090 0.086354 -0.020393 610106.000000 0 1 0
-21.156605 1.452014 -8.224059 22.745229 -0.068524 1.940751 0.092609 -0.021049 585582.000000 0 1 0
-22.063705 0.377914 -7.947459 23.454467 -0.017127 1.916487 0.098246 -0.017212 -347055.000000 0 1 0
-21.956105 -0.858986 -8.893659 23.704548 0.039103 1.955396 0.091651 -0.027327 -1134760.000000 0 1 0
-20.818405 -1.586186 -8.668859 22.606882 0.076045 1.964337 0.073534 -0.017647 -629190.000000 0 1 0
-20.750505 -2.952686 -9.125359 22.859877 0.141346 1.981426 0.060988 -0.012367 329772.000000 0 1 0
-21.730605 -4.077586 -8.558059 23.708359 0.185486 1.940107 0.071818 -0.014074 556544.000000 0 1 0
-21.331305 -4.456686 -7.282959 22.976686 0.205964 1.893331 0.053715 -0.010775 722959.000000 0 1 0
-22.352205 -5.236686 -6.681459 23.909953 0.230130 1.854010 0.079681 -0.010717 -40129.600000 0 1 0
-22.307205 -6.717786 -7.036359 24.336195 0.292510 1.864116 0.084603 -0.028349 -9918.870000 0 1 0
-21.311705 -7.497286 -6.367259 23.472112 0.338270 1.845508 0.069289 -0.026750 894490.000000 0 1 0
-21.463205 -8.917886 -6.633359 24.170215 0.393794 1.848807 0.079639 -0.030009 -22652.200000 0 1 0
-20.466905 -9.751086 -5.765459 23.392700 0.444616 1.819826 0.075765 -0.025484 972610.000000 0 1 0
-19.221505 -10.007086 -6.443459 22.608100 0.480007 1.859810 0.061162 -0.014632 206709.000000 0 1 0
-18.334705 -10.662486 -5.592959 21.934703 0.526740 1.828626 0.064481 -0.011648 -174706.000000 0 1 0
-17.350805 -11.580186 -6.393159 21.817965 0.588520 1.868183 0.043867 -0.012799 213270.000000 0 1 0
-16.326805 -10.907186 -7.105159 20.880961 0.588962 1.918000 0.049573 -0.030442 222689.000000 0 1 0
-16.732605 -10.319086 -8.303459 21.340362 0.552612 1.970447 0.059485 -0.033993 -288614.000000 0 1 0
-15.768605 -10.621286 -9.493659 21.250651 0.592768 2.033922 0.062422 -0.024147 387029.000000 0 1 0
-15.850705 -11.977486 -9.885259 22.190614 0.647103 2.032496 0.072216 -0.023248 -475112.000000 0 1 0
-14.793205 -12.335686 -10.688559 22.028467 0.695058 2.077406 0.070628 -0.013999 -484569.000000 0 1 0
-14.955905 -13.764186 -11.297759 23.254489 0.743928 2.078110 0.080419 -0.015586 542775.000000 0 1 0
-15.921505 -13.749586 -12.390259 24.414421 0.712329 2.103074 0.089862 -0.015476 690271.000000 0 1 0
-16.142505 -15.019386 -12.947159 25.569344 0.749372 2.101749 0.079330 -0.012595 1827.220000 0 0 1
-16.258105 -15.042886 -14.531359 26.491032 0.746594 2.151412 0.081055 -0.013315 -41675.500000 0 0 1
-16.710805 -16.305186 -15.087759 27.798391 0.773113 2.144512 0.084293 -0.009850 315917.000000 0 0 1
-16.900705 -16.202986 -16.451859 28.615280 0.764324 2.183318 0.090152 -0.006374 -189547.000000 0 0 1
-17.468605 -17.492586 -17.069959 30.042074 0.786084 2.175115 0.097504 -0.018820 83494.000000 0 0 1
-18.828605 -17.660886 -16.722759 30.758314 0.753408 2.145615 0.073921 -0.019107 173132.000000 0 0 1
-19.651205 -18.071186 -17.832859 32.105272 0.743537 2.159700 0.072243 -0.013696 -445413.000000 0 0 1
-21.123205 -18.151186 -17.503059 32.893957 0.709869 2.131882 0.058209 -0.023525 -601189.000000 0 0 1
-21.696205 -16.936086 -16.995959 32.348399 0.662800 2.123985 0.058575 -0.009356 226496.000000 0 0 1
-21.644005 -16.805086 -15.618959 31.540858 0.660204 2.088859 0.061456 -0.017113 -451859.000000 0 0 1
-21.647405 -15.279186 -15.198659 30.546078 0.614622 2.091586 0.077863 -0.019772 573844.000000 0 0 1
-22.896905 -14.563486 -15.135359 31.071570 0.566503 2.079577 0.093132 -0.022090 841492.000000 0 0 1
-22.734905 -13.252286 -14.739659 30.162170 0.527755 2.081373 0.102667 -0.021006 379895.000000 0 0 1
-24.093805 -12.497286 -14.490459 30.767954 0.478490 2.061174 0.118483 -0.035982 400957.000000 0 0 1
-24.698905 -13.007786 -13.334559 30.936206 0.484743 2.016435 0.137222 -0.033607 181966.000000 0 0 1
-25.513205 -12.109186 -12.616259 30.930988 0.443142 1.990932 0.158135 -0.040046 -91687.600000 0 0 1
-26.388065 -12.787486 -11.512359 31.502130 0.451247 1.944909 0.164121 -0.041538 342822.000000 0 0 1
-27.192355 -11.812786 -10.824559 31.561641 0.409819 1.920869 0.138850 -0.041879 345609.000000 0 0 1
-27.887845 -12.299386 -9.719759 31.991882 0.415370 1.879495 0.136222 -0.033661 255857.000000 0 0 1
-28.867985 -11.235886 -9.108659 32.288905 0.371176 1.856777 0.153514 -0.041913 569851.000000 0 0 1
-28.078925 -10.173386 -8.532159 31.059967 0.347603 1.849074 0.155605 -0.046562 215560.000000 0 0 1
-28.818045 -9.327186 -7.742059 31.263647 0.313017 1.821038 0.168939 -0.051911 -655831.000000 0 0 1
-27.996085 -8.223386 -7.110459 30.032707 0.285698 1.809823 0.144883 -0.045400 -202963.000000 0 0 1
-27.137175 -8.609786 -6.050859 29.106143 0.307224 1.780213 0.143224 -0.048562 234960.000000 0 0 1
-26.325735 -7.592886 -5.460859 27.937738 0.280800 1.767528 0.138451 -0.040733 138776.000000 0 0 1
-26.981165 -6.295886 -4.867059 28.130228 0.229242 1.744690 0.136522 -0.044119 -33919.200000 0 0 1
-27.930935 -6.524886 -3.791959 28.932512 0.229492 1.702237 0.131153 -0.044719 770019.000000 0 0 1
-27.466455 -6.727786 -2.464959 28.385653 0.240216 1.657744 0.152288 -0.038974 -358210.000000 0 0 1
-26.939595 -5.433486 -1.770959 27.539079 0.199021 1.635148 0.155442 -0.026843 692903.000000 0 0 1
-28.025045 -4.604886 -1.303959 28.430766 0.162858 1.616677 0.161218 -0.030259 852032.000000 0 0 1
-27.504905 -3.625186 -0.498159 27.747251 0.131046 1.588751 0.150087 -0.035320 -594339.000000 0 0 1
-28.514865 -2.533686 -0.023559 28.627219 0.088622 1.571619 0.151176 -0.036250 558125.000000 0 0 1
-29.512145 -3.077086 0.872041 29.684939 0.103890 1.541416 0.145587 -0.030040 410713.000000 0 0 1
-29.047685 -3.256686 2.183741 29.311137 0.111649 1.496225 0.150377 -0.030939 -299397.000000 0 0 1
-30.105015 -3.596786 3.272341 30.495197 0.118911 1.463283 0.121779 -0.026843 211936.000000 0 0 1
-30.645825 -4.921986 3.184241 31.201473 0.159249 1.468564 0.122466 -0.029010 256045.000000 0 0 1
-31.660135 -5.192486 4.129741 32.347810 0.162560 1.442780 0.127629 -0.029928 36736.300000 0 0 1
-32.279025 -6.564186 3.850441 33.163985 0.200622 1.454431 0.119624 -0.021700 283552.000000 0 0 1
-31.333265 -7.593086 4.190541 32.511369 0.237750 1.441542 0.110241 -0.015094 798644.000000 0 0 1
-31.929105 -8.855886 3.966741 33.371088 0.270560 1.451647 0.122171 -0.020388 134244.000000 0 0 1
-31.005995 -10.067886 4.283841 32.879863 0.313968 1.440137 0.116025 -0.015322 58356.100000 0 0 1
-31.029885 -10.335886 5.689441 33.197200 0.321536 1.398563 0.089976 -0.007695 446785.000000 0 0 1
-30.293725 -11.526086 5.996741 32.962423 0.363564 1.387851 0.083525 -0.004989 -75528.600000 0 0 1
-30.344625 -11.847486 7.495041 33.426559 0.372230 1.344649 0.069688 -0.013366 -156748.000000 0 0 1
-29.854505 -10.746186 8.221141 32.777418 0.345513 1.317272 0.069247 -0.005699 419471.000000 0 0 1
-29.935595 -11.008986 9.633041 33.318660 0.352404 1.277490 0.073200 -0.009949 -370689.000000 0 0 1
-30.100985 -9.734486 10.461241 33.320671 0.312779 1.251439 0.062215 -0.014127 210191.000000 0 0 1
-28.944335 -8.914586 10.671541 32.111153 0.298771 1.232022 0.065252 -0.015166 482355.000000 0 0 1
-29.200505 -7.864386 11.528341 32.363880 0.263081 1.206588 0.077914 -0.019957 -418724.000000 0 0 1
-28.114785 -6.799786 11.600941 31.165046 0.237301 1.189373 0.104463 -0.022216 -472400.000000 0 0 1
-28.043725 -5.997486 10.464741 30.527548 0.210688 1.220904 0.127102 -0.017268 548573.000000 0 0 1
-27.324455 -4.775486 10.670441 29.720186 0.173022 1.203568 0.131066 -0.023345 -455801.000000 0 0 1
-27.466045 -3.770986 9.518841 29.312324 0.136443 1.240061 0.141580 -0.024900 -367996.000000 0 0 1
-26.951895 -4.243186 8.326241 28.526051 0.156154 1.274602 0.125928 -0.011989 68123.600000 0 0 1
-27.166705 -3.428086 7.248741 28.325358 0.125524 1.312007 0.132853 -0.034311 -539747.000000 0 0 1
-26.613525 -3.805786 5.907041 27.525568 0.142039 1.354512 0.132255 -0.021030 16100.300000 0 0 1
-25.196105 -3.726586 5.870741 26.138033 0.146839 1.344258 0.169850 -0.034089 783232.000000 0 0 1
-24.570105 -4.168586 4.677541 25.356391 0.168061 1.385262 0.187741 -0.025286 -853813.000000 0 0 1
-23.054505 -4.224286 4.683941 23.901760 0.181220 1.373553 0.186587 -0.019800 -707813.000000 0 1 0
-22.614205 -2.878886 4.578541 23.251953 0.126623 1.372591 0.152084 -0.021322 -632837.000000 0 1 0
-21.316005 -2.793786 4.096341 21.885094 0.130322 1.382511 0.132371 -0.009712 -578782.000000 0 1 0
-20.548105 -1.488586 4.574841 21.103784 0.072318 1.352283 0.093840 -0.017638 -201506.000000 0 1 0
-20.778905 -0.261086 3.882141 21.140059 0.012564 1.386109 0.098332 -0.013152 472101.000000 0 1 0
-22.005605 0.336514 4.235341 22.412006 -0.015291 1.380677 0.102242 -0.039253 -260912.000000 0 1 0
-22.360705 1.459014 3.296341 22.649409 -0.065157 1.424740 0.124650 -0.026161 -61692.800000 0 1 0
-21.354005 2.445114 3.100841 21.716062 -0.114007 1.427516 0.072589 -0.017992 503533.000000 0 1 0
-21.810205 3.366214 2.121741 22.170211 -0.153133 1.474947 0.108094 -0.016582 78309.200000 0 1 0
-20.679905 4.236114 1.523441 21.164216 -0.202047 1.498752 0.077553 -0.009088 5379.560000 0 1 0
-21.089205 5.180514 0.514141 21.722262 -0.240878 1.547125 0.109352 -0.014073 980783.000000 0 1 0
-21.872705 4.745414 -0.665859 22.391462 -0.213645 1.600538 0.121671 -0.009415 265993.000000 0 1 0
-21.252105 3.806214 -1.741459 21.660377 -0.177219 1.651282 0.098955 -0.008986 -437628.000000 0 1 0
-21.045505 2.506314 -1.164859 21.226206 -0.118532 1.625702 0.062501 -0.006517 589849.000000 0 1 0
-20.679905 1.514114 -2.091259 20.840451 -0.073086 1.671312 0.062775 -0.006736 -325167.000000 0 1 0
-19.981105 0.359114 -1.315559 20.027587 -0.017971 1.636531 0.071600 -0.008445 98552.700000 0 1 0
-20.845005 -0.402486 -0.430159 20.853328 0.019306 1.591426 0.095992 -0.013081 1139930.000000 0 1 0
-20.143805 -1.164386 0.545241 20.184796 0.057739 1.543781 0.087587 -0.011041 -137947.000000 0 1 0
-19.301005 -2.383986 0.133741 19.448138 0.122894 1.563919 0.065009 -0.008224 42295.600000 0 1 0
-18.654805 -3.043386 1.218641 18.940672 0.161717 1.506412 0.064949 -0.004632 711577.000000 0 1 0
-17.922205 -4.241786 0.973541 18.443047 0.232401 1.517985 0.044122 -0.003316 28935.200000 0 1 0
-18.725405 -5.512186 0.560141 19.527897 0.286283 1.542108 0.048250 -0.006898 43941.000000 0 1 0
-19.502605 -6.004086 1.646141 20.472187 0.298653 1.490301 0.093980 -0.016389 767314.000000 0 1 0
-20.290505 -7.168686 1.381341 21.563923 0.339614 1.506694 0.087358 -0.021062 74948.200000 0 1 0
-21.052005 -7.500986 2.693641 22.510162 0.342283 1.450846 0.110589 -0.020743 156503.000000 0 1 0
-20.262705 -8.273786 3.619041 22.184008 0.387663 1.406927 0.098229 -0.016223 784143.000000 0 1 0
-20.978405 -8.560386 4.747541 23.149791 0.387433 1.364252 0.093938 -0.017647 -115794.000000 0 1 0
-20.010205 -9.243686 5.791541 22.790261 0.432746 1.313855 0.083506 -0.009070 365838.000000 0 1 0
-19.531205 -10.452386 5.161841 22.745658 0.491381 1.341864 0.086842 -0.009297 208702.000000 0 1 0
-18.666605 -11.146086 6.005241 22.555272 0.538295 1.301300 0.099670 -0.015131 -278931.000000 0 1 0
-18.135905 -12.456686 5.432741 22.662629 0.601847 1.328716 0.075743 -0.011117 41447.000000 0 1 0
-19.178605 -13.409186 5.408241 24.018206 0.610172 1.343676 0.093430 -0.009594 300702.000000 0 1 0
-18.621105 -14.582886 4.932541 24.160631 0.664374 1.365195 0.081579 -0.009653 285396.000000 0 1 0
-19.523105 -15.860186 5.176241 25.680549 0.682244 1.367843 0.094495 -0.012858 345036.000000 0 0 1
-18.880105 -17.034886 4.739341 25.867104 0.734066 1.386537 0.095800 -0.024439 208014.000000 0 0 1
-19.474305 -18.161986 5.295841 27.150547 0.750544 1.374483 0.095196 -0.026049 669747.000000 0 0 1
-18.452705 -19.403386 5.286641 27.293631 0.810506 1.375869 0.092750 -0.039625 561256.000000 0 0 1
-18.121505 -19.811686 3.936741 27.136503 0.829925 1.425211 0.098460 -0.037903 259394.000000 0 0 1
-17.425205 -21.035086 3.895541 27.591445 0.878984 1.429136 0.085962 -0.039511 692279.000000 0 0 1
-15.867005 -20.869186 3.876541 26.501176 0.920731 1.423991 0.085491 -0.035374 524889.000000 0 0 1
-15.141405 -22.020286 4.196641 27.051191 0.968433 1.415030 0.078609 -0.030236 431726.000000 0 0 1
-13.728405 -21.785886 4.225141 26.094937 1.008501 1.408166 0.075384 -0.024683 549555.000000 0 0 1
-12.937405 -23.072586 4.462341 26.825979 1.059755 1.403675 0.078987 -0.018167 -410446.000000 0 0 1
-13.026105 -23.978686 3.383141 27.497317 1.073160 1.447448 0.091024 -0.023300 18923.700000 0 0 1
-12.427205 -25.233806 3.596541 28.356930 1.113181 1.443623 0.097859 -0.020306 -1526.500000 0 0 1
18.998295 18.974614 -24.106659 36.084653 0.784775 2.302393 0.080048 -0.020254 -681528.000000 0 0 1
18.061195 19.101214 -25.087039 36.337620 0.813377 2.332821 0.068721 -0.025800 -1002500.000000 0 0 1
18.670995 19.392114 -26.275339 37.617198 0.804341 2.344085 0.066758 -0.020343 17715.500000 0 0 1
17.733095 19.577714 -27.518909 38.144985 0.834797 2.376660 0.047236 -0.016923 282016.000000 0 0 1
17.402595 20.975314 -27.743509 38.891084 0.878224 2.365084 0.046405 -0.011006 5469.520000 0 0 1
16.504995 21.044414 -28.807819 39.308684 0.905706 2.393314 0.034205 -0.009334 -366230.000000 0 0 1
16.236695 22.522014 -29.266059 40.340719 0.946164 2.382516 0.039571 -0.007240 -112431.000000 0 0 1
15.536995 23.227114 -28.254109 39.739045 0.981238 2.361703 0.042748 -0.014682 278114.000000 0 0 1
15.193795 24.533214 -28.658409 40.669822 1.016295 2.352741 0.042226 -0.008382 -272625.000000 0 0 1
14.440195 25.301914 -27.612529 40.139231 1.052188 2.329414 0.040878 -0.011617 110552.000000 0 0 1
13.129095 24.827214 -27.322719 39.182836 1.084360 2.342439 0.053152 -0.025243 -92426.500000 0 0 1
12.516695 25.633614 -26.364869 38.843997 1.116559 2.316838 0.050501 -0.021054 987485.000000 0 0 1
11.008095 25.121114 -26.095109 37.857671 1.157798 2.331312 0.075577 -0.024682 1821370.000000 0 0 1
10.294495 25.988814 -25.282819 37.691060 1.193646 2.306071 0.074058 -0.033133 -340746.000000 0 0 1
9.854895 27.217714 -25.783479 38.764813 1.223404 2.298459 0.093502 -0.044194 -628556.000000 0 0 1
9.460795 28.224114 -24.671359 38.662426 1.247364 2.262853 0.107928 -0.045665 -837614.000000 0 0 1
10.540095 28.694414 -23.965759 38.843540 1.218774 2.235698 0.088498 -0.035413 -749012.000000 0 0 1
10.157395 29.350714 -22.768759 38.510433 1.237627 2.203387 0.114188 -0.040842 -526643.000000 0 0 1
11.286295 29.713314 -21.809759 38.547725 1.207789 2.172182 0.080846 -0.034659 -357822.000000 0 0 1
12.063295 30.809614 -22.281759 39.890252 1.197601 2.163465 0.074978 -0.039779 -245904.000000 0 0 1
12.789995 31.363414 -21.259059 39.989940 1.183584 2.131297 0.060136 -0.025311 -769418.000000 0 0 1
14.038995 32.115114 -21.706159 41.226584 1.158683 2.125285 0.051127 -0.012954 212270.000000 0 0 1
15.091495 31.297614 -22.244459 41.256634 1.121495 2.140251 0.044699 -0.015033 402503.000000 0 0 1
16.122295 32.075214 -22.824559 42.540666 1.105039 2.137122 0.036506 -0.016303 270813.000000 0 0 1
17.349795 31.259114 -23.313159 42.680803 1.064098 2.148643 0.011296 -0.012004 477886.000000 0 0 1
18.090195 30.658414 -22.240059 41.973965 1.037720 2.129224 0.016567 -0.007809 645714.000000 0 0 1
19.232995 29.990914 -22.813659 42.306336 1.000566 2.140342 0.016671 -0.009644 678959.000000 0 0 1
20.222095 29.331714 -21.821559 41.778739 0.967201 2.120357 0.015597 -0.002282 -61102.400000 0 0 1
20.916095 30.209314 -20.995559 42.319017 0.965208 2.089927 0.022425 -0.003831 301016.000000 0 0 1
21.787495 29.477914 -20.096059 41.803037 0.934300 2.072286 0.035777 -0.004879 404203.000000 0 0 1
22.507695 30.324814 -19.070659 42.306982 0.932293 2.038423 0.046290 -0.015282 -326815.000000 0 0 1
23.529595 31.151414 -19.584459 43.676120 0.923893 2.035773 0.055682 -0.013230 55464.100000 0 0 1
24.252695 31.780814 -18.523159 44.060422 0.918949 2.004686 0.065132 -0.016123 575625.000000 0 0 1
25.502795 32.564914 -19.065459 45.545119 0.906423 2.002706 0.068338 -0.014231 109374.000000 0 0 1
26.637995 31.785514 -19.233959 45.714843 0.873278 2.005055 0.066916 -0.010237 -723001.000000 0 0 1
27.772295 32.553414 -18.905959 46.780983 0.864488 1.986832 0.061941 -0.006380 1075710.000000 0 0 1
29.207595 32.009114 -19.285659 47.429987 0.831130 1.989540 0.071296 -0.014975 982068.000000 0 0 1
29.453395 30.766214 -18.629259 46.487758 0.807195 1.983115 0.072807 -0.004212 307361.000000 0 0 1
30.604795 30.103514 -19.163859 47.012004 0.777141 1.990662 0.057022 -0.014402 300563.000000 0 0 1
31.024695 28.936814 -18.220459 46.172026 0.750592 1.976452 0.049774 -0.020749 -326428.000000 0 0 1
31.379995 29.378114 -16.919959 46.195916 0.752462 1.945788 0.045573 -0.009784 138513.000000 0 0 1
31.804895 28.331414 -16.081959 45.528560 0.727702 1.931816 0.055556 -0.017169 -611164.000000 0 0 1
32.376795 28.751314 -14.745559 45.741955 0.726158 1.899022 0.060811 -0.009657 690664.000000 0 0 1
33.711495 29.266414 -14.886559 47.059510 0.714933 1.892660 0.042314 0.000579 560589.000000 0 0 1
33.770095 30.666014 -15.200559 48.082021 0.737262 1.892452 0.047403 -0.006483 1441310.000000 0 0 1
35.284895 31.132214 -14.968859 49.379199 0.722955 1.878783 0.049641 -0.015426 1895600.000000 0 0 1
35.719795 31.259914 -13.586759 49.372928 0.718911 1.849580 0.059953 -0.014697 -702007.000000 0 0 1
-36.798399 31.413714 -13.606559 50.260144 -0.706621 1.844940 0.060453 -0.022805 -482031.000000 0 0 1
-36.181299 31.592914 -12.226659 49.565006 -0.717800 1.820048 0.059558 -0.012522 -633925.000000 0 0 1
-36.435799 32.825614 -11.709659 50.420279 -0.733321 1.805177 0.062562 -0.019730 -27856.900000 0 0 1
-35.626299 33.141214 -10.599959 49.798920 -0.749276 1.785293 0.055136 -0.015715 -59350.500000 0 0 1
-36.030299 -33.629082 -9.875259 50.265479 0.750941 1.768545 0.042775 -0.008274 315136.000000 0 0 1
-35.039699 -33.029082 -9.041059 48.994301 0.755869 1.756393 0.043381 -0.012339 -135055.000000 0 0 1
-34.968199 -33.630582 -7.750259 49.131024 0.765901 1.729205 0.043357 -0.012508 65435.900000 0 0 1
-34.866599 -32.711982 -6.509859 48.250718 0.753526 1.706126 0.041049 -0.005343 -158023.000000 0 0 1
-35.930899 -31.803682 -6.395659 48.408761 0.724541 1.703302 0.031331 -0.000452 -362755.000000 0 0 1
-35.640599 -30.793882 -5.427559 47.412803 0.712572 1.685522 0.066732 -0.003584 46952.000000 0 0 1
-36.905699 -30.104282 -4.885459 47.876572 0.684246 1.673017 0.047750 -0.003628 -261046.000000 0 0 1
36.301295 -30.963382 -3.980959 47.878629 -0.706207 1.654039 0.021905 0.002526 1075600.000000 0 0 1
34.928795 -30.609482 -3.712159 46.591214 -0.719588 1.650556 0.019995 0.001224 791590.000000 0 0 1
34.755595 -29.399482 -2.809059 45.608900 -0.702104 1.632425 0.016555 0.012233 -794142.000000 0 0 1
35.149695 -28.156682 -3.362559 45.162004 -0.675381 1.645321 0.052787 -0.005228 407499.000000 0 0 1
34.478295 -27.155582 -2.603859 43.965424 -0.667143 1.630056 0.046704 -0.001937 -66014.500000 0 0 1
34.919495 -25.703082 -2.854859 43.453075 -0.634524 1.636543 0.065615 -0.022435 -488530.000000 0 0 1
34.525195 -25.190882 -4.093859 42.934011 -0.630341 1.666294 0.060500 -0.027391 403710.000000 0 0 1
34.490495 -23.785982 -4.013159 42.088866 -0.603738 1.666291 0.067818 -0.028214 -49600.700000 0 0 1
34.065595 -23.276382 -5.434559 41.614771 -0.599417 1.701762 0.072040 -0.033237 -321559.000000 0 0 1
35.121095 -23.465782 -6.336259 42.711619 -0.589021 1.719696 0.073022 -0.039144 209277.000000 0 0 1
34.732795 -23.267682 -7.664759 42.502948 -0.590241 1.752123 0.054460 -0.038515 -283638.000000 0 0 1
35.987995 -23.084582 -8.543759 43.600797 -0.570343 1.768027 0.046301 -0.038419 -7445.210000 0 0 1
36.665095 -24.306582 -8.725659 44.847254 -0.585415 1.766609 0.044657 -0.030017 -957074.000000 0 0 1
-36.168399 -24.077982 -9.548559 44.486822 0.587346 1.787117 0.051442 -0.024944 -579707.000000 0 0 1
-35.506399 -25.340582 -10.202759 44.798948 0.619855 1.800558 0.057881 -0.026773 283378.000000 0 0 1
-34.675499 -26.143282 -9.376159 44.427174 0.646019 1.783441 0.065829 -0.017271 246886.000000 0 0 1
-35.406899 -27.210282 -8.740559 45.502147 0.655238 1.764089 0.054577 -0.010989 138465.000000 0 0 1
-34.525799 -28.347282 -8.196459 45.417851 0.687443 1.752258 0.056562 -0.006672 -117926.000000 0 0 1
-33.902899 -29.126282 -9.223259 45.637872 0.709759 1.774295 0.056008 -0.004394 77093.300000 0 0 1
-33.272999 -30.261582 -8.691759 45.808324 0.738036 1.761696 0.058172 -0.012223 -365495.000000 0 0 1
-32.761599 -31.142082 -9.816959 46.254993 0.760060 1.784658 0.050969 -0.005225 -170800.000000 0 0 1
-31.450799 -30.818082 -10.258759 45.212267 0.775237 1.799692 0.024381 0.018491 344559.000000 0 0 1
-31.014099 -31.604982 -11.372159 45.717341 0.794834 1.822185 0.005830 0.010997 -205943.000000 0 0 1
-31.428899 -31.023182 -12.750359 45.965043 0.778902 1.851875 0.002213 0.014141 -253369.000000 0 0 1
-30.666599 -29.890682 -13.088159 44.779382 0.772586 1.867407 -0.003387 0.014587 -2471.900000 0 0 1
-31.100599 -29.370482 -14.300259 45.103990 0.756795 1.893415 -0.005032 0.024740 -312470.000000 0 0 1
-30.259899 -28.206382 -14.754859 43.920011 0.750289 1.913408 0.006574 0.007062 566971.000000 0 0 1
-28.958199 -28.616782 -15.213459 43.462016 0.779468 1.928410 0.017540 0.004270 307036.000000 0 0 1
-28.215099 -27.545582 -15.769759 42.468061 0.773392 1.951240 0.050460 0.008397 -697711.000000 0 0 1
-26.930199 -28.194782 -16.235259 42.234642 0.808334 1.965361 0.071902 0.003452 -1111930.000000 0 0 1
-27.090499 -28.944382 -17.416859 43.301494 0.818471 1.984740 0.057443 0.001428 -153949.000000 0 0 1
-27.299099 -28.257682 -18.646859 43.490720 0.802651 2.013910 0.056584 0.002189 105419.000000 0 0 1
-26.034499 -27.588082 -19.264459 42.544292 0.814363 2.040710 0.078100 -0.000486 152284.000000 0 0 1
-25.569499 -26.590882 -18.423759 41.234806 0.804977 2.033983 0.078970 -0.003875 -142078.000000 0 0 1
-24.206999 -26.375382 -18.760759 40.417888 0.828240 2.053493 0.106888 -0.016285 459437.000000 0 0 1
-23.481899 -25.278582 -17.921859 38.879292 0.822229 2.049875 0.096317 -0.014176 130382.000000 0 0 1
-23.376899 -25.732982 -16.573559 38.514265 0.833337 2.015646 0.093652 -0.012079 -87139.700000 0 0 1
-23.018499 -24.663082 -15.762859 37.236899 0.819875 2.007895 0.106213 -0.018178 -27610.300000 0 0 1
-23.557199 -24.725282 -14.288159 37.019356 0.809586 1.967049 0.088112 -0.013489 261551.000000 0 0 1
-24.953499 -24.475382 -14.268859 37.753434 0.775726 1.958376 0.052215 0.004212 174526.000000 0 0 1
-25.468699 -24.385782 -12.930159 37.556757 0.763680 1.922271 0.041315 0.005976 1019210.000000 0 0 1
-27.018899 -24.113882 -12.840259 38.423593 0.728646 1.911528 0.025920 0.021365 409242.000000 0 0 1
-27.684399 -25.347882 -13.098159 39.755539 0.741368 1.906536 0.029351 0.017539 916757.000000 0 0 1
-29.061799 -25.454082 -12.701659 40.667316 0.719317 1.888442 0.025755 0.016807 1211440.000000 0 0 1
-30.152199 -24.538482 -13.385559 41.115270 0.683112 1.902402 0.023540 0.015674 -494030.000000 0 0 1
-30.163999 -23.238082 -12.790559 40.168068 0.656424 1.894865 0.035138 0.024393 335271.000000 0 0 1
-30.809699 -23.129582 -11.512859 40.208967 0.643964 1.861186 0.046270 0.016495 70678.200000 0 0 1
-32.301399 -23.472282 -11.267459 41.488360 0.628398 1.845832 0.045230 0.002422 698109.000000 0 0 1
-33.407799 -22.660482 -11.681359 42.024191 0.596013 1.852474 0.056470 -0.009870 619054.000000 0 0 1
-33.679999 -22.659482 -13.050259 42.639228 0.592228 1.881850 0.047526 0.002292 -254631.000000 0 0 1
-35.169399 -22.400782 -13.390559 43.794848 0.567139 1.881529 0.030380 -0.012210 261502.000000 0 0 1
-36.025099 -23.423682 -12.889059 44.862061 0.576519 1.862208 0.042775 -0.013887 -677726.000000 0 0 1
36.567195 -23.040382 -13.154059 45.177961 -0.562246 1.866236 0.047926 -0.030266 -1041540.000000 0 0 1
35.538495 -24.104282 -12.856859 44.825214 -0.595985 1.861704 0.046485 -0.018904 -598583.000000 0 0 1
35.738995 -25.288682 -13.592159 45.842556 -0.615804 1.871818 0.041291 -0.009321 -54322.600000 0 0 1
34.804895 -26.248882 -13.193159 45.546064 -0.646166 1.864674 0.045915 -0.016415 -133478.000000 0 0 1
34.913195 -27.567882 -13.988759 46.632657 -0.668375 1.875466 0.038076 -0.014890 263068.000000 0 0 1
34.176995 -27.471082 -15.194359 46.406851 -0.677047 1.904364 0.044295 -0.020308 -93604.300000 0 0 1
33.939895 -28.678082 -15.783359 47.153613 -0.701565 1.912107 0.032954 -0.004670 -13867.900000 0 0 1
33.051895 -28.663582 -17.059259 46.957928 -0.714412 1.942591 0.030751 -0.012355 83258.300000 0 0 1
31.684295 -28.381082 -16.879459 45.763484 -0.730460 1.948558 0.066978 -0.019487 161078.000000 0 0 1
31.059695 -28.047982 -18.145659 45.614240 -0.734489 1.979922 0.063892 -0.022712 278720.000000 0 0 1
29.524595 -28.192182 -18.139759 44.671598 -0.762317 1.988945 0.071122 -0.027841 -202416.000000 0 0 1
28.874795 -27.303782 -17.286559 43.336767 -0.757441 1.981101 0.068820 -0.029500 19028.200000 0 0 1
27.498395 -27.670482 -17.246259 42.652676 -0.788517 1.987055 0.088968 -0.026539 154348.000000 0 0 1
26.712095 -26.938282 -16.189559 41.246926 -0.789614 1.974148 0.086775 -0.030971 -420944.000000 0 0 1
26.673595 -25.546182 -16.318259 40.377886 -0.763812 1.986833 0.086123 -0.031719 217271.000000 0 0 1
26.201195 -24.836182 -15.114859 39.138185 -0.758659 1.967296 0.077678 -0.021082 -324475.000000 0 0 1
26.053595 -23.301582 -15.183559 38.108975 -0.729696 1.980595 0.071727 -0.026657 567676.000000 0 0 1
24.774195 -22.974682 -15.754159 37.279891 -0.747729 2.007099 0.080156 -0.029889 639321.000000 0 0 1
24.601995 -21.615982 -16.207159 36.540126 -0.720881 2.030346 0.088135 -0.026975 -691216.000000 0 0 1
23.173395 -21.107882 -16.159559 35.265851 -0.738787 2.046789 0.094185 -0.025886 -823036.000000 0 0 1
22.705795 -20.814682 -14.866459 34.202569 -0.741972 2.020456 0.100426 -0.023027 -681300.000000 0 0 1
21.434795 -20.274482 -14.948659 33.075179 -0.757586 2.039758 0.104290 -0.024302 -732309.000000 0 0 1
21.239595 -18.946582 -14.192759 31.804524 -0.728400 2.033367 0.101869 -0.018620 -65620.700000 0 0 1
20.944995 -19.032482 -12.802159 31.061607 -0.737595 1.995613 0.090212 -0.026752 116147.000000 0 0 1
20.789695 -17.789482 -12.157059 29.941128 -0.707787 1.988904 0.081463 -0.023749 -348295.000000 0 0 1
19.909395 -17.852782 -10.918659 28.884649 -0.730990 1.958441 0.087759 -0.016999 -454112.000000 0 0 1
20.478695 -18.519582 -9.829259 29.308125 -0.735204 1.912801 0.083109 -0.020430 309837.000000 0 0 1
19.505395 -18.665782 -8.783859 28.390633 -0.763406 1.885351 0.087610 -0.027272 368818.000000 0 0 1
20.012195 -19.397682 -7.519459 28.866941 -0.769807 1.834323 0.077928 -0.030116 -659431.000000 0 0 1
20.996895 -18.681582 -6.893959 28.937826 -0.727112 1.811343 0.073919 -0.032666 -752198.000000 0 0 1
21.632695 -19.496482 -5.902959 29.714159 -0.733506 1.770785 0.069310 -0.021998 -43247.000000 0 0 1
22.929195 -18.845482 -5.374159 30.162589 -0.687952 1.749926 0.060819 -0.018477 269688.000000 0 0 1
23.875895 -18.741682 -6.444759 31.029726 -0.665504 1.780016 0.054127 -0.025863 150876.000000 0 0 1
24.831095 -17.724982 -6.325359 31.157157 -0.619942 1.775232 0.056504 -0.022163 -320211.000000 0 0 1
25.926595 -17.731282 -7.413259 32.272947 -0.599841 1.802571 0.064168 -0.031102 -132647.000000 0 0 1
26.704995 -18.893382 -7.306259 33.518622 -0.615732 1.790537 0.079850 -0.040040 -89554.600000 0 0 1
26.847395 -19.511482 -8.572059 34.277700 -0.628458 1.823556 0.089235 -0.042629 -201700.000000 0 0 1
27.701595 -20.808582 -8.489659 35.671414 -0.644249 1.811099 0.082801 -0.048605 606546.000000 0 0 1
29.100395 -20.550982 -8.375859 36.596869 -0.614881 1.801711 0.066154 -0.036457 492183.000000 0 0 1
29.780495 -21.822582 -8.373959 37.857973 -0.632390 1.793835 0.069110 -0.040112 166644.000000 0 0 1
-30.380035 29.591214 4.133541 42.610711 -0.772246 1.473636 0.059690 -0.017544 149483.000000 0 0 1
-29.929415 30.614614 3.268441 42.938412 -0.796715 1.494603 0.050475 -0.009081 -579176.000000 0 0 1
-28.873515 31.269514 3.904341 42.739985 -0.825215 1.479318 0.047341 0.003458 -245330.000000 0 0 1
-28.249775 32.386014 3.026641 43.082065 -0.853507 1.500485 0.043560 0.007198 -555638.000000 0 0 1
-27.341295 31.935414 2.042441 42.090245 -0.862746 1.522252 0.041892 0.004364 77236.500000 0 0 1
-26.902855 33.076614 1.285741 42.655353 -0.887968 1.540649 0.060825 -0.013046 144766.000000 0 0 1
-25.729435 33.928414 1.878741 42.622422 -0.921976 1.526703 0.064218 -0.008916 -482729.000000 0 0 1
-24.499305 33.336314 1.574341 41.400536 -0.937021 1.532760 0.056405 -0.008893 -614483.000000 0 0 1
-23.472105 33.965214 2.329741 41.352185 -0.966094 1.514427 0.054722 -0.014207 25051.900000 0 0 1
-22.063405 33.478014 1.969341 40.142865 -0.988091 1.521718 0.055431 -0.019147 -200631.000000 0 0 1
-21.601205 33.963514 0.741641 40.257700 -1.004317 1.552373 0.072286 -0.024085 -32835.300000 0 0 1
-20.238805 33.604014 0.620641 39.232948 -1.028707 1.554976 0.069209 -0.026385 -163473.000000 0 0 1
-19.493005 -33.846382 -0.600059 39.062961 1.048267 1.586158 0.082625 -0.025011 37987.500000 0 0 1
-19.378405 -32.466782 -0.548159 37.814217 1.032682 1.585293 0.087024 -0.027754 578734.000000 0 0 1
-18.391005 -31.967182 0.365841 36.881752 1.048730 1.560877 0.092886 -0.024539 20341.000000 0 0 1
-18.212305 -30.380182 0.287141 35.422112 1.030759 1.562690 0.104980 -0.026341 -141501.000000 0 0 1
-17.460605 -29.826282 -0.768559 34.569792 1.041174 1.593030 0.104884 -0.019611 39607.500000 0 0 1
-17.332805 -28.417082 -0.698259 33.293307 1.023098 1.591771 0.085589 -0.016696 -78922.000000 0 0 1
-16.468405 -27.799282 -1.792259 32.360789 1.035981 1.626208 0.081130 -0.008884 5557.300000 0 0 1
-17.031405 -28.011182 -3.072859 32.926244 1.024499 1.664258 0.069021 -0.007780 114568.000000 0 0 1
-16.212505 -27.329882 -3.993959 32.026856 1.035380 1.695828 0.062110 0.004280 -16760.500000 0 0 1
-16.723805 -27.484482 -5.467659 32.633996 1.024164 1.739135 0.107262 -0.007875 -912657.000000 0 0 1
-17.869105 -26.762682 -5.652459 32.672563 0.982087 1.744674 0.095371 -0.001040 -1336880.000000 0 0 1
-18.087805 -26.473682 -7.046559 32.828015 0.971409 1.787131 0.129770 -0.021494 129098.000000 0 0 1
-18.465105 -24.985482 -7.312859 31.917273 0.934351 1.801969 0.104315 -0.016395 696249.000000 0 0 1
-17.357205 -24.097982 -7.067459 30.527599 0.946591 1.804426 0.089137 -0.006166 582614.000000 0 0 1
-17.751305 -22.754782 -7.218259 29.748819 0.908300 1.815883 0.070649 -0.010481 221499.000000 0 0 1
-16.576905 -21.814282 -6.866459 28.245441 0.920983 1.816356 0.094391 -0.004921 166624.000000 0 0 1
-15.573705 -21.805782 -7.827159 27.915889 0.950603 1.854990 0.117164 -0.015174 -569126.000000 0 0 1
-14.491905 -20.907082 -7.625059 26.556787 0.964677 1.862018 0.113221 -0.030387 831957.000000 0 0 1
-13.536005 -20.896582 -8.857159 26.426121 0.995996 1.912579 0.090069 -0.020546 296685.000000 0 0 1
-14.168405 -20.138882 -9.881859 26.532422 0.957702 1.952438 0.114355 -0.026013 31964.700000 0 0 1
-13.358905 -19.957482 -11.024159 26.425244 0.980926 2.001140 0.096769 -0.023196 -182205.000000 0 0 1
-14.138205 -19.301382 -12.129559 26.824586 0.938592 2.040005 0.113729 -0.020665 -727514.000000 0 0 1
-15.234105 -19.991982 -12.610059 28.120649 0.919653 2.035801 0.100775 -0.004906 -757862.000000 0 0 1
-15.823005 -19.221782 -13.639459 28.388012 0.882080 2.071982 0.102379 -0.026006 -430877.000000 0 0 1
-17.142005 -19.718382 -14.204759 29.739504 0.855180 2.068762 0.125914 -0.027998 -203047.000000 0 0 1
-18.317905 -19.479182 -13.458159 29.935033 0.816112 2.037090 0.133908 -0.029225 146488.000000 0 0 1
-19.455405 -19.904982 -14.168159 31.232320 0.796820 2.041639 0.110086 -0.027720 -234088.000000 0 0 1
-20.822205 -19.693782 -13.485259 31.674303 0.757554 2.010584 0.081763 -0.016711 398417.000000 0 0 1
-21.791205 -20.436082 -14.210959 33.082343 0.753318 2.014805 0.087247 -0.024412 1171120.000000 0 0 1
-23.176605 -20.019882 -14.100259 33.715990 0.712450 2.002267 0.072631 -0.007647 1519230.000000 0 0 1
-24.086005 -20.767782 -15.166759 35.234458 0.711554 2.015790 0.076384 -0.011652 130670.000000 0 0 1
-24.079005 -20.190482 -16.473559 35.480025 0.697785 2.053646 0.071170 -0.027827 247250.000000 0 0 1
-25.046705 -20.835582 -17.261959 36.870505 0.693874 2.058024 0.079021 -0.025958 -249424.000000 0 0 1
-25.151555 -20.101482 -18.606259 37.186868 0.674262 2.094793 0.085794 -0.021700 178816.000000 0 0 1
-23.883805 -19.953782 -19.217259 36.577214 0.695988 2.123968 0.087754 -0.027023 227976.000000 0 0 1
-24.006505 -19.201682 -20.448359 36.920892 0.674651 2.157768 0.091712 -0.031030 -270147.000000 0 0 1
-22.754105 -18.389682 -20.860259 35.931603 0.679716 2.190206 0.074027 -0.017319 285349.000000 0 0 1
-21.639905 -19.242682 -21.143659 35.855552 0.726828 2.201471 0.065297 -0.012869 -181896.000000 0 0 1
-20.912205 -18.661282 -22.175159 35.739354 0.728580 2.240137 0.064575 -0.019363 -1821.860000 0 0 1
-19.475005 -19.262082 -22.246559 35.287576 0.779902 2.252911 0.069418 -0.014090 229649.000000 0 0 1
-19.326905 -20.405082 -23.069759 36.360836 0.812528 2.258115 0.057934 -0.010880 -718720.000000 0 0 1
-18.018705 -20.851282 -23.087759 35.951277 0.858143 2.268156 0.055975 -0.003032 -825646.000000 0 0 1
-18.026405 -22.256582 -23.765159 37.216791 0.890026 2.263422 0.057762 -0.001427 -72427.800000 0 0 1
-18.110205 -22.244582 -25.163029 38.157293 0.887493 2.290890 0.060376 -0.003101 144239.000000 0 0 1
-18.039805 -23.606182 -25.646489 39.248297 0.918270 2.282919 0.078042 -0.010277 -43910.500000 0 0 1
-18.065405 -23.796982 -27.152759 40.372361 0.921467 2.308456 0.086166 -0.002492 -84975.900000 0 0 1
-16.781405 -23.519382 -27.638219 39.983097 0.951058 2.334010 0.070722 -0.007585 -166383.000000 0 0 1
-16.765505 -23.771982 -29.028059 41.095225 0.956547 2.355140 0.110276 -0.009554 113606.000000 0 0 1
-15.374905 -23.659782 -29.702949 40.968746 0.994539 2.381852 0.075510 -0.007306 362472.000000 0 0 1
-14.470405 -24.699482 -29.325369 40.980902 1.040840 2.368259 0.075786 -0.003575 -339027.000000 0 0 1
-13.212505 -24.503582 -29.884659 40.842241 1.076277 2.391623 0.076951 -0.004176 -511628.000000 0 0 1
-12.272205 -25.678282 -29.663859 41.108706 1.124967 2.376901 0.081463 -0.006007 -917040.000000 0 0 1
-12.621905 -26.783282 -30.512099 42.516407 1.130403 2.371225 0.082455 -0.000160 82285.900000 0 0 1
-11.843405 -27.961282 -30.454829 43.006931 1.170142 2.357653 0.082555 -0.004062 -12920.600000 0 0 1
-10.473205 -27.855282 -31.164339 43.090843 1.211161 2.379256 0.078464 -0.010154 -305021.000000 0 0 1
-9.547605 -27.053882 -30.513579 41.882548 1.231531 2.387001 0.093624 -0.017752 -53387.700000 0 0 1
-8.422905 -26.789282 -31.368489 42.102174 1.266169 2.411416 0.087249 -0.013222 861038.000000 0 0 1
-7.402605 -25.681882 -30.846299 40.814848 1.290161 2.427613 0.111285 -0.015902 354369.000000 0 0 1
-7.824905 -24.323582 -30.781649 40.004696 1.259552 2.448777 0.112189 -0.011355 -5370.930000 0 0 1
-8.665305 -24.097882 -29.665129 39.189479 1.225606 2.429455 0.109084 -0.010579 -85642.700000 0 0 1
-9.187305 -22.640582 -29.524319 38.323465 1.185309 2.450261 0.105929 -0.017378 -282798.000000 0 0 1
-10.071905 -22.131882 -30.466689 38.980541 1.143721 2.468002 0.091199 -0.012905 -190995.000000 0 0 1
-10.487005 -20.842382 -30.039029 38.035844 1.104626 2.481207 0.093396 -0.015236 65635.400000 0 0 1
-11.025705 -20.064382 -31.230299 38.723083 1.068325 2.509010 0.088653 -0.012851 -259215.000000 0 0 1
-11.545605 -18.820682 -30.969679 38.034722 1.020544 2.522228 0.094908 -0.020718 -173836.000000 0 0 1
-11.819205 -18.272582 -32.289649 38.938442 0.996655 2.548558 0.118979 -0.006406 334143.000000 0 0 1
-13.020905 -17.270382 -32.115689 38.719860 0.924776 2.548896 0.096132 -0.019689 368346.000000 0 0 1
-12.738205 -15.875182 -32.212719 38.104364 0.894595 2.578075 0.109896 -0.020560 234080.000000 0 0 1
-11.830605 -15.275982 -31.257109 36.746778 0.911825 2.587937 0.089093 -0.014959 477322.000000 0 0 1
-11.639405 -13.750582 -31.384749 36.187798 0.868357 2.620497 0.087711 -0.019098 -335660.000000 0 0 1
-10.878905 -13.235982 -32.447379 36.692972 0.882832 2.655776 0.093646 -0.024325 -225259.000000 0 0 1
-11.309105 -13.556382 -33.768139 38.104574 0.875531 2.659866 0.098941 -0.025553 -104126.000000 0 0 1
-11.959705 -12.408982 33.397367 37.581931 0.803833 0.476393 0.095717 -0.018542 -170824.000000 0 0 1
-13.120405 -11.949382 34.000358 38.353059 0.738722 0.481050 0.081853 -0.015992 -696462.000000 0 0 1
-13.981905 -11.320982 33.055145 37.633774 0.680620 0.498424 0.075360 -0.029264 920146.000000 0 0 1
-15.131505 -10.473982 33.720028 38.414933 0.605470 0.499579 0.075313 -0.029736 662135.000000 0 0 1
-14.655905 -9.268282 -33.751529 37.945517 0.563898 2.666988 0.078213 -0.028555 122759.000000 0 0 1
-15.516005 -8.803682 -32.705849 37.254849 0.516099 2.642245 0.072556 -0.028700 662067.000000 0 0 1
-14.798005 -7.751082 -31.755449 35.881315 0.482500 2.657319 0.073274 -0.033835 131572.000000 0 0 1
-14.403005 -6.424982 -32.228939 35.880795 0.419594 2.686505 0.068637 -0.036115 1391350.000000 0 0 1
-15.491005 -5.425382 -32.254719 36.190785 0.336878 2.670871 0.064984 -0.025864 1329260.000000 0 0 1
-16.058205 -4.842882 -30.909539 35.167016 0.292908 2.644422 0.076562 -0.036297 221504.000000 0 0 1
-16.711005 -5.763082 -30.041999 34.856742 0.332095 2.609743 0.079268 -0.037404 90608.200000 0 0 1
-17.089405 -5.296182 -28.741769 33.855377 0.300524 2.584805 0.092037 -0.045750 551029.000000 0 0 1
-15.918305 -4.730682 -27.840409 32.416973 0.288872 2.603762 0.081809 -0.044332 596410.000000 0 0 1
-15.541605 -3.455482 -28.259779 32.436044 0.218779 2.628532 0.077846 -0.038154 -96189.600000 0 0 1
-14.209605 -3.228382 -27.835319 31.418789 0.223405 2.659324 0.072353 -0.034549 224271.000000 0 0 1
-13.568805 -2.017082 -28.597149 31.717156 0.147575 2.694321 0.059209 -0.015788 91622.000000 0 0 1
-13.301005 -2.158082 -29.988769 32.877048 0.160848 2.719294 0.053319 -0.016182 258142.000000 0 0 1
-13.128105 -0.855082 -30.651319 33.355384 0.065042 2.736160 0.040170 -0.018687 -3034.790000 0 0 1
-13.156305 -0.998082 -32.150589 34.752624 0.075718 2.752166 0.027634 -0.020914 90533.900000 0 0 1
-14.477605 -1.245082 -32.645419 35.733383 0.085789 2.722806 0.052667 -0.025445 763156.000000 0 0 1
-14.559005 -1.413082 34.028437 37.039114 0.096756 0.405979 0.021756 -0.019162 -439038.000000 0 0 1
-15.954705 -1.850082 33.576741 37.220599 0.115443 0.446182 0.034989 -0.022827 -299276.000000 0 0 1
-16.016005 -2.041082 32.188484 36.010789 0.126757 0.464922 0.036847 -0.024032 192739.000000 0 0 1
-17.334305 -2.075082 31.673171 36.165921 0.119143 0.503760 0.052266 -0.024024 44597.000000 0 0 1
-17.411905 -1.992082 30.132691 34.858599 0.113914 0.526788 0.056693 -0.017770 71017.200000 0 0 1
-16.849805 -0.784082 29.633841 34.098317 0.046500 0.517476 0.043508 -0.010941 67696.200000 0 0 1
-16.906605 -0.792082 28.204581 32.893146 0.046816 0.540482 0.037073 -0.015619 -88023.300000 0 0 1
-16.224805 0.454918 27.595411 32.014965 -0.028031 0.531686 0.029729 -0.012856 -217759.000000 0 0 1
-16.621205 1.733918 28.130911 32.720316 -0.103944 0.536039 0.036193 -0.011511 1612240.000000 0 0 1
-18.006805 2.164918 27.894971 33.272531 -0.119653 0.576495 0.054514 -0.015471 1762650.000000 0 0 1
-18.381405 2.713918 26.483721 32.351644 -0.146586 0.611791 0.059090 -0.018357 -308793.000000 0 0 1
-18.032005 4.051918 26.362371 32.195432 -0.221036 0.611438 0.040326 -0.010879 106402.000000 0 0 1
-18.660605 4.669918 25.268701 31.757418 -0.245219 0.650669 0.041911 -0.001987 -791042.000000 0 0 1
-18.434805 6.208918 25.314201 31.924935 -0.324871 0.655196 0.038496 -0.003456 505479.000000 0 0 1
-17.103705 6.697918 25.208211 31.190587 -0.373249 0.629708 0.023526 0.000325 404529.000000 0 0 1
-16.402005 6.382918 24.015901 29.774669 -0.371122 0.632439 0.012609 -0.003788 -577557.000000 0 0 1
-15.225805 7.265918 23.626551 29.031580 -0.445251 0.620096 0.000475 0.007493 -794698.000000 0 0 1
-14.196405 7.238918 24.555131 29.272757 -0.471546 0.575649 0.000324 0.000216 -771305.000000 0 0 1
-13.193105 8.041918 23.976751 28.523938 -0.547415 0.572437 0.008022 0.003453 240648.000000 0 0 1
-11.830105 8.117918 24.740121 28.599398 -0.601410 0.525532 0.004913 0.014286 379914.000000 0 0 1
-10.848405 8.889918 24.066241 27.855026 -0.686499 0.527671 0.001285 0.009131 18376.200000 0 0 1
-9.633505 8.881918 24.773101 28.024978 -0.744828 0.486521 0.008466 -0.002681 -298805.000000 0 0 1
-9.416205 10.226918 25.580611 29.113956 -0.826647 0.497795 0.017488 -0.020466 -80976.400000 0 0 1
-10.445805 10.342918 26.579361 30.373561 -0.780449 0.505191 0.010307 -0.019492 648845.000000 0 0 1
-10.498805 11.666918 27.104291 31.320672 -0.838049 0.524888 0.028222 -0.022931 -543083.000000 0 0 1
-11.086105 12.837918 26.236361 31.241967 -0.858492 0.573920 0.011919 -0.027099 1137480.000000 0 0 1
-12.506505 12.810918 25.961611 31.536289 -0.797421 0.603719 0.011838 -0.023126 1067090.000000 0 0 1
-12.973305 11.791918 25.130471 30.641419 -0.737731 0.609128 0.007685 -0.012551 -1027730.000000 0 0 1
-14.459205 11.718918 24.798181 31.005668 -0.681099 0.643843 0.001194 -0.012565 -480115.000000 0 0 1
-14.817305 12.818918 23.995651 30.978516 -0.713213 0.684730 0.013755 -0.019206 -395228.000000 0 0 1
-16.107605 12.638918 23.460181 31.138036 -0.665314 0.717541 0.024380 -0.011616 -43165.400000 0 0 1
-16.176605 12.047918 22.070471 29.898839 -0.640148 0.740440 0.019349 0.001131 -206726.000000 0 0 1
-16.075705 10.657918 22.049971 29.295405 -0.585448 0.718678 0.020187 0.001438 51105.700000 0 0 1
-16.101905 10.338918 20.682471 28.176749 -0.570796 0.746565 0.020673 0.004323 -170415.000000 0 0 1
-16.353105 8.839918 20.351771 27.563795 -0.495571 0.740173 0.012050 0.002353 469733.000000 0 0 1
-17.706905 8.575918 20.684471 28.546947 -0.451030 0.760375 0.026355 0.010813 -220928.000000 0 0 1
-18.191005 7.338918 20.270171 28.207308 -0.383465 0.768989 0.022884 0.010170 1461770.000000 0 0 1
-19.737505 7.304918 20.680371 29.506079 -0.354471 0.794159 0.034151 0.003756 1394350.000000 0 0 1
-19.997405 7.333918 22.062271 30.666372 -0.351512 0.767817 0.034782 -0.002666 -16526.900000 0 0 1
-21.400905 7.356918 22.230871 31.722777 -0.331111 0.794298 0.040192 -0.009384 -36595.000000 0 0 1
-21.850005 8.044918 23.557051 33.122169 -0.352785 0.779568 0.055324 -0.016713 -448600.000000 0 0 1
-21.679305 9.455918 23.722231 33.498521 -0.411296 0.783911 0.054448 -0.016667 73661.000000 0 0 1
-20.417105 10.074918 23.657991 32.833865 -0.458398 0.766221 0.042823 -0.011227 570132.000000 0 0 1
-19.275605 9.783918 24.704591 32.826678 -0.469693 0.718830 0.049693 -0.018853 484910.000000 0 0 1
-19.503305 10.421918 25.918581 34.070047 -0.490762 0.706338 0.060761 -0.019309 136316.000000 0 0 1
-18.951805 9.673918 26.979881 34.360873 -0.471971 0.667790 0.056994 -0.018301 112874.000000 0 0 1
-31.587145 -13.494886 20.834371 40.173756 0.403756 1.025576 0.057448 -0.000952 98818.300000 0 0 1
-30.933245 -14.763686 20.839371 40.113731 0.445303 1.024522 0.064797 -0.012002 208567.000000 0 0 1
-31.774965 -15.873886 20.558671 41.040073 0.463305 1.046110 0.051198 -0.004500 169028.000000 0 0 1
-32.023405 -16.313386 19.120471 40.708936 0.471156 1.081860 0.050203 -0.004922 353012.000000 0 0 1
-32.523035 -15.254586 18.293671 40.312636 0.438574 1.099777 0.046917 -0.010294 35730.400000 0 0 1
-31.713005 -15.105986 17.136971 39.084284 0.444536 1.116910 0.048113 -0.010202 -641978.000000 0 0 1
-32.129745 -13.925686 16.205671 38.585866 0.408981 1.137362 0.040384 -0.009333 -353178.000000 0 0 1
-33.392975 -14.005686 15.618971 39.436053 0.397135 1.163576 0.044730 -0.009165 1279000.000000 0 0 1
-34.629352 -14.026786 16.421371 40.811814 0.384856 1.156694 0.046346 -0.009323 1079810.000000 0 0 1
-35.097173 -12.723986 17.110571 41.066812 0.347799 1.141037 0.022825 -0.005758 33712.300000 0 0 1
-36.259695 -12.860686 17.923571 42.443105 0.340840 1.134819 -0.003385 0.001551 202120.000000 0 0 1
-36.653665 -11.620886 18.439171 42.644334 0.307021 1.123650 0.002855 0.007054 -140042.000000 0 0 1
36.237629 -11.711386 19.585071 42.824027 -0.312588 1.095796 0.011336 0.010908 -126365.000000 0 0 1
36.709469 -12.466286 20.722471 43.959233 -0.327374 1.079916 0.014719 0.009625 -85316.000000 0 0 1
35.960559 -12.160186 21.864771 43.807535 -0.326082 1.048225 0.021670 0.002512 -1111060.000000 0 0 1
36.647809 -12.550186 23.179891 45.142844 -0.329936 1.031562 0.017814 -0.004469 877320.000000 0 0 1
-36.056754 -11.825586 23.590101 44.681393 0.316917 1.014597 0.017282 -0.001987 1814.200000 0 0 1
-34.952893 -12.388786 22.987671 43.630491 0.340627 1.015881 0.015759 -0.007133 -1811600.000000 0 0 1
-33.779435 -11.447686 23.206921 42.551862 0.326748 0.993954 0.044580 -0.006492 -691773.000000 0 0 1
-33.985455 -10.290286 22.396871 41.982389 0.294010 1.008084 0.050403 -0.001822 777524.000000 0 0 1
-32.736025 -9.582986 22.195571 40.695508 0.284779 0.993923 0.075612 -0.014920 636672.000000 0 0 1
-32.756705 -8.233586 21.368671 39.967659 0.246254 1.006704 0.077075 -0.010940 -58384.300000 0 0 1
-33.019275 -8.254086 19.966871 39.459833 0.244958 1.040250 0.065152 -0.013775 448770.000000 0 0 1
-34.373646 -8.519386 19.617871 40.484421 0.242951 1.064915 0.046561 -0.010955 -125578.000000 0 0 1
-34.671386 -8.300286 18.122771 39.992932 0.234976 1.100501 0.040659 -0.005573 -564467.000000 0 0 1
-36.001949 -8.410086 17.722471 40.999462 0.229486 1.123798 -0.027151 0.001965 -482168.000000 0 0 1
-36.128435 -8.346786 16.292671 40.501652 0.227047 1.156799 0.004820 0.005142 394396.000000 0 0 1
36.295789 -8.449186 15.813771 40.482692 -0.228714 1.169480 0.012504 0.001577 390092.000000 0 0 1
35.810399 -9.716486 16.203871 40.489013 -0.264952 1.159057 0.007048 0.017001 -454132.000000 0 0 1
34.454979 -9.870086 15.881371 39.201812 -0.278992 1.153688 0.029289 0.013297 -38763.000000 0 0 1
33.953279 -11.375686 16.051671 39.241400 -0.323285 1.149384 0.029256 0.012109 161992.000000 0 0 1
33.657589 -11.697186 17.402571 39.654847 -0.334477 1.116477 0.021457 0.004392 443208.000000 0 0 1
32.588509 -12.652686 17.524571 39.105139 -0.370341 1.106113 0.044572 0.005698 609344.000000 0 0 1
32.320819 -13.001586 18.983871 39.674474 -0.382459 1.071861 0.036614 0.004706 -4501.790000 0 0 1
33.034539 -14.130786 19.465771 40.864117 -0.404204 1.074293 0.024006 0.001173 -171182.000000 0 0 1
32.953969 -14.063186 20.855071 41.456860 -0.403354 1.043667 0.032055 -0.002759 -102021.000000 0 0 1
33.627259 -15.266686 21.531371 42.748850 -0.426173 1.042953 0.014016 -0.003882 72066.000000 0 0 1
33.756109 -15.164586 22.895771 43.516156 -0.422222 1.016736 0.016429 -0.014432 -132796.000000 0 0 1
34.293759 -16.356586 23.495161 44.672389 -0.445042 1.016972 0.005732 -0.016636 294964.000000 0 0 1
34.773209 -16.130686 24.972231 45.749179 -0.434339 0.993392 0.019554 -0.009937 -144314.000000 0 0 1
35.976049 -15.440586 25.166891 46.540951 -0.405415 0.999471 0.027236 -0.004998 -309467.000000 0 0 1
36.299789 -15.169286 26.491131 47.429547 -0.395832 0.978176 0.029303 -0.009897 -502930.000000 0 0 1
-36.326405 -14.353386 26.540601 47.223203 0.376295 0.973965 0.033128 -0.015818 -303982.000000 0 0 1
-35.119229 -14.911386 26.043401 46.194896 0.401526 0.971850 0.031215 -0.016135 258995.000000 0 0 1
-34.073645 -14.045486 26.444381 45.360713 0.390987 0.948405 0.046740 -0.021014 730464.000000 0 0 1
-32.621325 -14.445186 26.011991 44.152440 0.416862 0.940802 0.040028 -0.020527 142645.000000 0 0 1
-32.467865 -14.631586 24.633181 43.301723 0.423393 0.965661 0.037021 -0.012985 1601530.000000 0 0 1
-31.115265 -15.141186 24.367831 42.322647 0.452883 0.957259 0.052835 -0.020252 1681440.000000 0 0 1
-30.765725 -16.591486 24.800751 42.858890 0.494579 0.953711 0.057670 -0.015622 -781401.000000 0 0 1
-30.848815 -16.886886 26.188631 43.848155 0.500851 0.930719 0.058074 -0.019711 113559.000000 0 0 1
-30.356075 -18.176886 26.445411 44.172958 0.539529 0.928946 0.062365 -0.024550 -465532.000000 0 0 1
-29.998055 -18.390086 27.933171 44.925946 0.549954 0.899808 0.065793 -0.036367 -44689.400000 0 0 1
-28.973885 -17.489286 28.326781 44.133521 0.543079 0.873897 0.067407 -0.035869 -164317.000000 0 0 1
-28.185535 -18.071086 29.339991 44.517677 0.570127 0.851223 0.081533 -0.039500 262201.000000 0 0 1
-26.903745 -17.293686 29.713901 43.655458 0.571296 0.822153 0.048459 -0.029222 -34567.900000 0 0 1
-27.245275 -16.000186 30.158401 43.678829 0.531003 0.808674 0.061582 -0.036522 -108190.000000 0 0 1
-26.199735 -15.100686 29.870901 42.505618 0.522862 0.791538 0.039701 -0.029486 -570383.000000 0 0 1
-26.083375 -13.739386 30.620531 42.505648 0.484817 0.766436 0.040464 -0.016310 -215114.000000 0 0 1
-25.631555 -13.911686 31.945761 43.255558 0.497265 0.739901 0.033597 -0.017379 102152.000000 0 0 1
-25.289745 -12.621186 32.414614 43.006659 0.462898 0.717105 0.033755 -0.006520 -610042.000000 0 0 1
-24.650405 -12.544186 33.800361 43.674517 0.470729 0.685796 0.046644 -0.004432 545283.000000 0 0 1
-23.280205 -12.974986 33.810932 43.052263 0.508461 0.667541 0.027579 -0.004197 582425.000000 0 0 1
-23.111105 -14.389486 33.803765 43.403629 0.556888 0.678008 0.029991 -0.012809 -656516.000000 0 0 1
-22.943605 -15.039086 -32.912239 42.846220 0.580218 2.446740 0.034979 -0.010546 109712.000000 0 0 1
-21.802205 -14.572886 -32.178179 41.510725 0.589211 2.457792 0.028207 -0.004749 500555.000000 0 0 1
-21.758605 -15.307286 -30.963459 40.822612 0.613074 2.431786 0.047387 -0.003615 410716.000000 0 0 1
-20.502505 -15.058686 -30.061459 39.380300 0.633494 2.439299 0.059510 -0.004415 346992.000000 0 0 1
-20.507005 -13.881486 -29.282609 38.349760 0.595064 2.439615 0.056327 -0.008713 191743.000000 0 0 1
-21.049405 -14.105486 -28.012419 37.772183 0.590385 2.406271 0.061337 -0.009299 -237858.000000 0 0 1
-20.673405 -12.964286 -26.980709 36.378854 0.560108 2.406337 0.064879 -0.011978 1098250.000000 0 0 1
-19.299005 -12.980186 -26.518539 35.272790 0.592087 2.421604 0.063862 -0.013948 1193500.000000 0 0 1
-18.890105 -11.816986 -25.817489 34.103078 0.559005 2.429571 0.068656 -0.017355 553059.000000 0 0 1
-17.528905 -11.812586 -25.063379 32.786775 0.592988 2.440962 0.079227 -0.023714 -375593.000000 0 0 1
-17.505505 -12.638386 -23.925259 32.227155 0.625317 2.407434 0.088416 -0.025349 -334684.000000 0 0 1
-16.271305 -12.776086 -23.278259 31.142592 0.665646 2.415047 0.088542 -0.026896 -239581.000000 0 0 1
-15.145705 -13.538986 -24.003459 31.446185 0.729443 2.439231 0.061308 -0.022688 -775369.000000 0 0 1
-14.528605 -12.864286 -25.056979 31.692624 0.724715 2.482625 0.063776 -0.030104 114606.000000 0 0 1
-13.685205 -13.731386 -25.834589 32.299563 0.787083 2.497830 0.062953 -0.032632 320587.000000 0 0 1
-12.812205 -12.919086 -26.882849 32.461407 0.789552 2.546592 0.071489 -0.030270 146340.000000 0 0 1
-13.521805 -12.201586 -27.849739 33.276506 0.734119 2.562426 0.068382 -0.031399 292227.000000 0 0 1
-12.618705 -11.494486 -28.713999 33.404321 0.738809 2.605262 0.073453 -0.037577 338172.000000 0 0 1
-13.438405 -10.555886 -29.620709 34.196547 0.665838 2.618323 0.066221 -0.036525 161404.000000 0 0 1
-12.663705 -9.584086 -30.327119 34.233876 0.647849 2.659185 0.056701 -0.027176 -4695.170000 0 0 1
-11.995905 -10.130786 -31.432819 35.136258 0.701304 2.678327 0.076431 -0.025076 -277894.000000 0 0 1
-11.081505 -9.169086 -32.214749 35.279766 0.691240 2.721675 0.073193 -0.021517 -148766.000000 0 0 1
-9.790705 -9.022086 -31.677789 34.361872 0.744565 2.743721 0.076311 -0.021646 -254071.000000 0 0 1
-9.233505 -7.813086 -32.180569 34.378640 0.702264 2.782064 0.062318 -0.018406 735947.000000 0 0 1
-7.700705 -7.565986 -31.938359 33.713554 0.776574 2.815636 0.068685 -0.013825 559268.000000 0 0 1
-7.159005 -7.406986 -30.676769 32.360144 0.802421 2.817625 0.062692 -0.014363 -274540.000000 0 0 1
-7.566705 -6.326486 -29.860069 31.446830 0.696366 2.822567 0.070700 -0.009495 -320970.000000 0 0 1
-7.159905 -4.891486 -30.314899 31.530683 0.599346 2.862992 0.066694 -0.017499 -479230.000000 0 0 1
-5.787605 -4.681186 -30.158609 31.063669 0.680102 2.899608 0.072578 -0.021723 -456008.000000 0 0 1
-5.371405 -3.492186 -30.781239 31.440929 0.576476 2.936382 0.077526 -0.028169 -929439.000000 0 0 1
-3.961805 -3.214186 -30.330629 30.756689 0.681589 2.974951 0.065869 -0.019600 -1537060.000000 0 0 1
-2.981705 -4.171386 -30.656369 31.082213 0.950207 2.975870 0.053806 -0.013675 618075.000000 0 0 1
-1.638305 -3.837986 -30.293549 30.579622 1.167346 3.004701 0.064217 -0.015523 916866.000000 0 0 1
-0.981205 -2.555286 -30.962789 31.083541 1.204167 3.053419 0.048480 -0.007444 295520.000000 0 0 1
0.372695 -2.379286 -30.443209 30.538318 -1.415418 3.062649 0.039767 -0.012596 1100190.000000 0 0 1
0.889995 -1.262886 -31.133209 31.171520 -0.956902 3.092008 0.026988 -0.004015 -351623.000000 0 0 1
1.321095 -0.178186 -30.174989 30.204420 -0.134068 3.097444 0.027216 -0.019324 -995884.000000 0 0 1
0.404895 0.313514 -29.278459 29.282936 0.658880 3.124104 0.048993 -0.023642 -989578.000000 0 0 1
0.641095 1.696614 -29.110179 29.166625 1.209514 3.079368 0.072943 -0.038555 -1252770.000000 0 0 1
-0.329505 2.503914 -28.290409 28.402911 -1.439952 3.052558 0.059798 -0.034747 -718150.000000 0 0 1
-1.508405 2.721314 -29.027259 29.193537 -1.064663 3.034811 0.042805 -0.049342 -606941.000000 0 0 1
-2.306705 3.674314 -28.387009 28.716611 -1.010192 2.989937 0.082352 -0.046912 -164913.000000 0 0 1
-3.699805 3.867814 -29.002939 29.492694 -0.807596 2.959098 0.108563 -0.049133 -38651.900000 0 0 1
-3.530905 4.398614 -30.279189 30.800071 -0.894392 2.957421 0.103866 -0.050387 -1170600.000000 0 0 1
-4.772105 4.617414 -30.795419 31.503195 -0.768925 2.929218 0.120739 -0.041996 -1451170.000000 0 0 1
-4.743405 5.371514 -32.141059 32.930240 -0.847416 2.922223 0.118247 -0.038548 -120776.000000 0 0 1
-4.423505 4.689214 -33.292249 33.910617 -0.814548 2.950329 0.115031 -0.040079 1132060.000000 0 0 1
-2.987705 4.541814 -33.414529 33.853880 -0.988942 2.980310 0.101456 -0.038797 904266.000000 0 0 1
-2.624605 3.973714 33.224029 33.563597 -0.987081 0.142368 0.087474 -0.036981 -477465.000000 0 0 1
-3.314405 2.788414 32.928551 33.212197 -0.699422 0.130787 0.087529 -0.036153 20773.300000 0 0 1
-3.040605 2.118514 31.658101 31.874264 -0.608535 0.116528 0.087625 -0.028299 -87013.200000 0 0 1
-3.031905 2.986214 30.326891 30.624014 -0.777806 0.139413 0.094296 -0.029576 6093.950000 0 0 1
-4.260405 3.637514 30.109291 30.626001 -0.706693 0.183953 0.078800 -0.025915 -210883.000000 0 0 1
-4.087405 4.546014 29.038531 29.675064 -0.838469 0.207496 0.073346 -0.024374 -251198.000000 0 0 1
-5.270705 5.444514 28.749781 29.731683 -0.801618 0.257716 0.077714 -0.021426 -316972.000000 0 0 1
-5.104205 6.147314 27.552991 28.688146 -0.877842 0.282250 0.069514 -0.015926 317677.000000 0 0 1
-6.361205 6.701814 27.128881 28.659299 -0.811467 0.328276 0.060181 -0.013913 646834.000000 0 0 1
-6.318905 7.486814 25.785871 27.584273 -0.869793 0.363091 0.056818 -0.008810 -393692.000000 0 0 1
-5.513805 8.610814 25.869401 27.816795 -1.001246 0.376405 0.070197 -0.011669 -280764.000000 0 0 1
-5.459005 9.281614 24.652211 26.901312 -1.039134 0.411819 0.063651 -0.017259 -106790.000000 0 0 1
-4.872205 10.664514 24.806171 27.437499 -1.142251 0.441534 0.069588 -0.015909 -547152.000000 0 0 1
-4.893305 11.521414 23.699831 26.802414 -1.169168 0.485927 0.078750 -0.020426 243731.000000 0 0 1
-4.242505 12.782114 23.964551 27.489653 -1.250328 0.512000 0.068148 -0.010981 215703.000000 0 0 1
-2.689705 12.914514 24.034821 27.416999 -1.365462 0.501964 0.073455 -0.010053 184316.000000 0 0 1
-2.033005 12.252014 25.095981 28.000950 -1.406362 0.459545 0.077005 -0.007345 -85477.200000 0 0 1
-2.199705 12.898814 26.306741 29.381333 -1.401886 0.461567 0.079285 -0.006477 -492432.000000 0 0 1
-1.324405 12.301114 27.457921 30.116588 -1.463544 0.423343 0.080844 -0.004508 773806.000000 0 0 1
0.059795 12.615814 27.390301 30.156109 1.566057 0.431633 0.086525 0.000760 25983.100000 0 0 1
0.754595 12.312814 28.575551 31.124539 1.509588 0.407527 0.091368 -0.017012 222950.000000 0 0 1
2.258195 12.664514 28.527131 31.293555 1.394342 0.423642 0.087360 -0.017169 69551.600000 0 0 1
2.624195 14.027714 28.486081 31.860948 1.385862 0.464434 0.084775 -0.016939 -401092.000000 0 0 1
4.027795 14.052014 28.469141 32.002722 1.291646 0.474361 0.100893 -0.024165 -220199.000000 0 0 1
4.627995 15.440714 28.751251 32.961621 1.279590 0.510982 0.093396 -0.022184 -139923.000000 0 0 1
4.308395 15.873814 30.061781 34.267345 1.305766 0.500647 0.098176 -0.020694 566308.000000 0 0 1
3.234195 16.819714 30.191851 34.711823 1.380829 0.516028 0.089751 -0.018228 311012.000000 0 0 1
3.442395 18.323514 29.774841 35.130363 1.385093 0.559439 0.087017 -0.011196 -440611.000000 0 0 1
4.568395 18.830214 30.428591 36.074178 1.332785 0.567029 0.101781 -0.011820 -249734.000000 0 0 1
5.125695 19.849514 29.636991 36.036470 1.318089 0.605150 0.085240 -0.008031 167928.000000 0 0 1
6.207795 20.751814 30.304491 37.249654 1.280124 0.620563 0.086682 -0.008069 80804.200000 0 0 1
5.753895 21.603614 31.391741 38.539134 1.310499 0.618857 0.074033 -0.029136 -761926.000000 0 0 1
6.737095 22.374914 31.975351 39.603640 1.278330 0.631091 0.057790 -0.029845 -776192.000000 0 0 1
6.924495 23.758714 31.284841 39.889427 1.287201 0.669247 0.046017 -0.013871 -128433.000000 0 0 1
7.421295 23.674914 29.969151 38.906647 1.267031 0.691511 0.021325 -0.007686 68089.600000 0 0 1
7.511195 24.947014 29.352951 39.247513 1.278344 0.725914 0.014961 -0.007827 224551.000000 0 0 1
8.116595 24.983314 27.940461 38.349895 1.256672 0.754569 0.037085 -0.010067 81286.500000 0 0 1
7.181695 24.418314 27.043581 37.137395 1.284751 0.755099 0.039527 -0.007608 308018.000000 0 0 1
7.693495 24.313714 25.756781 36.245804 1.264339 0.780426 0.050439 -0.007674 -200553.000000 0 0 1
28.777489 2.247114 6.732741 29.639892 0.077928 1.341645 0.126431 -0.027320 -9159.250000 0 0 1
29.133529 3.269314 7.626241 30.292086 0.111751 1.316301 0.118281 -0.033629 99797.100000 0 0 1
28.498089 3.067314 8.862541 30.001569 0.107220 1.270919 0.116513 -0.027887 -612378.000000 0 0 1
28.852729 3.981414 10.072041 30.818462 0.137125 1.237861 0.108506 -0.026168 -60386.800000 0 0 1
28.414589 5.309814 9.918341 30.560701 0.184739 1.240265 0.109375 -0.022694 -500093.000000 0 0 1
29.346979 6.053914 9.232141 31.354864 0.203434 1.271926 0.120742 -0.031919 -713140.000000 0 0 1
29.058429 7.508314 8.789841 31.273445 0.252856 1.285894 0.147064 -0.034316 451877.000000 0 0 1
27.983389 7.598514 7.830641 30.035419 0.265143 1.307035 0.122738 -0.032891 436854.000000 0 0 1
27.957989 8.879114 7.243141 30.215077 0.307513 1.328719 0.144148 -0.048221 349718.000000 0 0 1
26.806889 9.072014 6.206841 28.973015 0.326322 1.354895 0.124727 -0.040953 343537.000000 0 0 1
25.549789 9.419114 6.737841 28.051915 0.353198 1.328233 0.100707 -0.031711 -214611.000000 0 0 1
24.596289 9.386114 5.699141 26.936161 0.364550 1.357605 0.136450 -0.038908 -188132.000000 0 0 1
23.235089 10.002214 6.045641 26.008910 0.406502 1.336206 0.080159 -0.035107 -514558.000000 0 0 1
23.260189 11.361414 6.299841 26.642187 0.454364 1.332074 0.072412 -0.032862 402911.000000 0 0 1
21.958889 11.882014 6.535041 25.808561 0.495987 1.314797 0.065961 -0.021459 61165.800000 0 0 1
22.051989 13.384014 6.925741 26.709323 0.545500 1.308498 0.053029 -0.009451 -141623.000000 0 0 1
22.067189 14.121414 5.770141 26.826660 0.569262 1.354013 0.061032 -0.012254 196248.000000 0 0 1
22.030389 15.467214 6.178741 27.617922 0.612124 1.345165 0.070896 -0.027188 -298969.000000 0 0 1
21.756089 16.305114 4.949441 27.634781 0.643149 1.390723 0.064027 -0.025113 -791526.000000 0 0 1
20.467589 16.215114 4.439041 26.486925 0.669987 1.402408 0.089071 -0.028512 -327622.000000 0 0 1
20.296289 17.319614 3.547441 26.916402 0.706429 1.438617 0.094293 -0.026512 872036.000000 0 0 1
18.784389 17.280914 3.079341 25.709251 0.743735 1.450732 0.092586 -0.027880 770082.000000 0 0 1
17.961589 17.910614 4.030341 25.683700 0.783977 1.413223 0.100955 -0.035155 329656.000000 0 0 1
16.606089 17.767214 3.623941 24.587986 0.819165 1.422871 0.077983 -0.041252 173872.000000 0 1 0
15.667189 18.969614 3.991741 24.924708 0.880455 1.409952 0.084616 -0.039766 -649990.000000 0 1 0
14.347889 18.519414 3.998141 23.765853 0.911643 1.401762 0.079254 -0.048522 -677907.000000 0 1 0
13.570589 19.692314 4.024341 24.251669 0.967402 1.404084 0.063079 -0.045716 -476566.000000 0 1 0
12.069489 19.490714 3.793141 23.236790 1.016348 1.406824 0.051158 -0.046329 -135146.000000 0 1 0
11.403989 18.822614 4.880241 22.542372 1.026075 1.352577 0.042369 -0.043629 -817440.000000 0 1 0
10.045589 19.052914 4.743541 22.055126 1.085590 1.354026 0.038834 -0.031903 -1011100.000000 0 1 0
9.264189 18.517014 5.929341 21.537458 1.106903 1.291891 0.032538 -0.024253 -970400.000000 0 1 0
9.353589 19.401114 7.083041 22.672943 1.121558 1.253077 0.042063 -0.022512 1910.930000 0 1 0
8.720489 18.852814 8.204941 22.333755 1.137550 1.194607 0.039464 -0.014484 353293.000000 0 1 0
7.513889 19.630614 8.821641 22.795633 1.205236 1.173433 0.032423 -0.015087 613425.000000 0 1 0
6.395689 19.855214 7.995441 22.339684 1.259175 1.204775 0.035284 -0.020232 -261260.000000 0 1 0
6.351489 21.103314 7.308941 23.218784 1.278449 1.250565 0.038068 -0.016008 -836018.000000 0 1 0
5.104689 21.289514 6.455741 22.824940 1.335464 1.284046 0.026393 -0.011226 1218720.000000 0 1 0
3.780189 21.526914 7.026141 22.957886 1.396966 1.259761 0.021337 -0.009334 1514450.000000 0 1 0
3.693689 22.756814 7.772141 24.329450 1.409888 1.245643 0.038033 -0.011156 -646045.000000 0 1 0
3.688789 24.065014 6.898941 25.304693 1.418696 1.294666 0.048153 -0.017225 574582.000000 0 0 1
2.494589 24.045114 6.099441 24.931781 1.467420 1.323643 0.044631 -0.020721 590778.000000 0 1 0
2.432689 25.229314 5.332641 25.901223 1.474670 1.363430 0.051028 -0.019429 -534060.000000 0 0 1
1.138589 25.501014 4.577041 25.933519 1.526177 1.393376 0.054751 -0.026592 -928348.000000 0 0 1
0.127889 25.991314 5.390641 26.544751 1.565876 1.366296 0.063874 -0.028248 -462844.000000 0 0 1
-1.081611 25.980414 4.652341 26.415830 -1.529189 1.393753 0.076770 -0.033864 311393.000000 0 0 1
-2.320211 26.651714 5.295141 27.271520 -1.483959 1.375391 0.095788 -0.030156 750167.000000 0 0 1
-3.189611 27.153614 4.253241 27.669161 -1.453867 1.416467 0.113296 -0.032168 304570.000000 0 0 1
-4.289811 27.911214 4.729241 28.632221 -1.418295 1.404864 0.101295 -0.036033 -198091.000000 0 0 1
-5.199611 28.329014 3.572141 29.022908 -1.389273 1.447403 0.107727 -0.042440 -340691.000000 0 0 1
-4.583411 29.274814 2.729941 29.756932 -1.415492 1.478926 0.097611 -0.042815 -151126.000000 0 0 1
-5.276411 29.567814 1.528841 30.073801 -1.394204 1.519938 0.113988 -0.048607 -407620.000000 0 0 1
-4.555611 30.573714 0.630141 30.917676 -1.422880 1.550414 0.102777 -0.048151 -302695.000000 0 0 1
-4.480611 31.883114 1.061241 32.213896 -1.431178 1.537847 0.107888 -0.044132 468457.000000 0 0 1
-3.429511 32.070214 2.033941 32.317134 -1.464264 1.507818 0.100492 -0.047455 -107198.000000 0 0 1
-2.673211 33.388514 1.936641 33.551297 -1.490903 1.513042 0.095740 -0.046713 -735436.000000 0 0 1
-1.897911 33.488614 0.781841 33.551463 -1.514184 1.547491 0.072372 -0.043646 -124408.000000 0 0 1
-1.048011 -33.473482 0.659041 33.496368 1.539498 1.551120 0.071335 -0.041807 1279330.000000 0 0 1
0.321189 -33.598682 1.458641 33.631864 -1.561237 1.527412 0.067608 -0.028813 476726.000000 0 0 1
0.185189 -33.615482 2.859541 33.737397 -1.565287 1.485936 0.057823 -0.034840 725437.000000 0 0 1
1.457589 -33.834182 3.500841 34.046033 -1.527743 1.467788 0.052158 -0.031799 967035.000000 0 0 1
1.211489 -33.751282 5.044541 34.147682 -1.534917 1.422526 0.059583 -0.037469 857909.000000 0 0 1
0.385789 33.295914 5.645541 33.773346 1.559210 1.402848 0.083259 -0.046646 384147.000000 0 0 1
0.027489 33.528714 6.998641 34.251371 1.569976 1.365015 0.082262 -0.040057 413370.000000 0 0 1
1.134789 33.413614 8.118241 34.404407 1.536848 1.332585 0.066510 -0.035020 343550.000000 0 0 1
1.326289 32.097014 8.424741 33.210746 1.529499 1.314319 0.073630 -0.041961 -66723.900000 0 0 1
2.554789 31.911814 9.080141 33.276716 1.490909 1.294424 0.086524 -0.033950 -423884.000000 0 0 1
2.995789 30.478514 9.177341 31.970896 1.472819 1.279647 0.080035 -0.031412 -291470.000000 0 0 1
2.203189 29.611314 9.968941 31.321938 1.496530 1.246889 0.101519 -0.039392 53083.600000 0 0 1
2.690289 28.308514 10.074541 30.167964 1.476046 1.230307 0.085394 -0.036855 -559834.000000 0 0 1
1.953289 27.526114 11.132741 29.756348 1.499954 1.187338 0.076543 -0.038165 -573833.000000 0 0 1
2.319089 28.037314 12.400441 30.744758 1.488270 1.155638 0.093991 -0.030991 70750.400000 0 0 1
2.108489 27.144614 13.486941 30.383769 1.493276 1.110865 0.096493 -0.028475 -1012080.000000 0 0 1
0.699489 26.861614 13.990841 30.294872 1.544762 1.090748 0.065844 -0.024178 -343819.000000 0 0 1
-0.113811 27.876314 14.571841 31.455372 -1.566714 1.089132 0.067545 -0.027919 440589.000000 0 0 1
-0.535311 28.867714 13.622641 31.925035 -1.552255 1.129948 0.081223 -0.033236 -764158.000000 0 0 1
-1.273411 30.090314 14.228541 33.309158 -1.528502 1.129440 0.062168 -0.025246 -618348.000000 0 0 1
-2.430711 29.640114 14.842041 33.237493 -1.488972 1.107896 0.039569 -0.017939 -551536.000000 0 0 1
-3.099211 30.803614 15.373841 34.566209 -1.470522 1.109884 0.028712 -0.011748 -148606.000000 0 0 1
-4.447811 30.560114 16.058741 34.807855 -1.426268 1.091276 0.005161 0.001737 -174994.000000 0 0 1
-5.534311 30.271914 15.202041 34.323745 -1.389973 1.111964 0.019515 -0.004597 -501942.000000 0 0 1
-6.540811 29.728814 15.971941 34.375682 -1.354231 1.087581 0.017884 -0.002738 -214834.000000 0 0 1
-7.731611 29.155614 15.103741 33.733525 -1.311578 1.106564 0.016029 -0.010396 -149666.000000 0 0 1
-8.862711 28.820514 15.807241 34.044656 -1.272460 1.087942 0.022006 -0.006891 -1053700.000000 0 0 1
-9.898711 28.424014 14.918741 33.592826 -1.235680 1.110621 0.032097 -0.009817 233927.000000 0 0 1
-11.109311 27.895014 15.734541 33.898738 -1.191796 1.088107 0.034860 -0.006275 -387095.000000 0 0 1
-11.852411 28.827814 16.480841 35.258200 -1.180719 1.084412 0.031282 -0.012198 475008.000000 0 0 1
-11.206111 29.270014 17.664441 35.976981 -1.205159 1.057567 0.032834 -0.018549 -175597.000000 0 0 1
-12.084511 30.407314 18.269641 37.475592 -1.192515 1.061563 0.038531 -0.016951 -269336.000000 0 0 1
-13.158311 30.032814 19.072441 37.932428 -1.157856 1.043961 0.047995 -0.014975 -467015.000000 0 0 1
-13.905611 31.167914 19.327241 39.221769 -1.151147 1.055528 0.062936 -0.022884 -354649.000000 0 0 1
-15.053811 30.966414 20.334941 39.988072 -1.118303 1.037325 0.076555 -0.019231 -204352.000000 0 0 1
-14.647611 30.742014 21.619941 40.336656 -1.126150 1.005119 0.074525 -0.026785 351176.000000 0 0 1
-15.731111 30.344514 22.462741 40.900271 -1.092524 0.989381 0.066311 -0.022678 560755.000000 0 0 1
-15.189211 30.143714 23.946241 41.385724 -1.104039 0.953772 0.068768 -0.021807 -522306.000000 0 0 1
-14.246611 29.127814 24.121041 40.413119 -1.115901 0.931212 0.057050 -0.023734 257467.000000 0 0 1
-13.747611 28.902214 25.457341 40.895123 -1.126810 0.898859 0.068936 -0.019793 -131244.000000 0 0 1
-13.120711 30.085314 26.225441 42.012534 -1.159547 0.896652 0.065210 -0.021151 -458661.000000 0 0 1
-14.050411 31.152914 26.539841 43.269866 -1.147099 0.910493 0.068780 -0.016005 311182.000000 0 0 1
-13.534211 32.347614 27.030641 44.274130 -1.174530 0.914068 0.076078 -0.019710 -760815.000000 0 0 1
-14.567311 33.340514 27.607441 45.672391 -1.158868 0.921700 0.077634 -0.021165 53132.700000 0 0 1
-15.400911 32.873414 28.680341 46.264581 -1.132672 0.902156 0.038923 -0.023586 234324.000000 0 0 1
-14.791411 32.629214 29.930041 46.682533 -1.145187 0.874813 0.071940 -0.019222 -374060.000000 0 0 1
-15.726511 31.960814 30.969441 47.200881 -1.113524 0.855131 0.043510 -0.016550 914009.000000 0 0 1
-16.852711 32.778014 31.411641 48.426267 -1.095895 0.864989 0.044956 -0.012657 342094.000000 0 0 1
-17.583911 32.051514 32.348241 48.814980 -1.069018 0.846417 0.030671 -0.005808 135055.000000 0 0 1
-18.999711 32.681014 32.489141 49.845582 -1.044189 0.860846 0.037106 -0.002641 217141.000000 0 0 1
-18.973311 33.931314 33.149241 51.090047 -1.060941 0.864738 0.042847 -0.003824 -1026670.000000 0 0 1
-20.240311 -33.638382 33.092141 51.344920 1.029126 0.870418 0.039110 0.001696 -967389.000000 0 0 1
-20.344811 -32.163082 33.449441 50.667942 1.006785 0.849752 0.059642 -0.003013 -62359.200000 0 0 1
-20.054611 -31.611682 -33.317588 50.115343 1.005462 2.298047 0.061092 0.003164 351123.000000 0 0 1
-21.030611 -32.012482 -32.363888 50.144859 0.989551 2.272353 0.056407 0.000784 330526.000000 0 0 1
-20.783211 -31.268282 -31.024188 48.704698 0.984175 2.261378 0.068451 -0.000677 -24681.600000 0 0 1
-21.039611 -29.887682 -31.156388 48.027693 0.957420 2.276694 0.088083 -0.001696 219564.000000 0 0 1
-20.545211 -29.140382 -30.036988 46.620685 0.956694 2.270884 0.095648 0.000421 59284.700000 0 0 1
-21.012311 -27.680882 -30.174988 46.024758 0.921502 2.285807 0.099034 -0.006858 504718.000000 0 0 1
-22.400311 -27.461882 -29.960188 46.406269 0.886563 2.272614 0.089497 -0.003572 190939.000000 0 0 1
-22.756211 -26.118782 -30.222088 45.971845 0.854089 2.288165 0.097249 -0.006738 194540.000000 0 0 1
-24.057311 -25.632582 -29.532488 45.912431 0.817090 2.269512 0.089316 -0.003558 84723.400000 0 0 1
-24.112511 -25.758482 -28.122088 45.119446 0.818391 2.243728 0.087501 -0.008351 -317753.000000 0 0 1
-23.262211 -24.901282 -27.443588 43.753341 0.819416 2.248793 0.108450 -0.014131 -594845.000000 0 0 1
-22.868311 -25.347582 -26.035088 42.933500 0.836773 2.222328 0.103965 -0.011063 10922.700000 0 0 1
-23.866611 -25.207882 -25.036988 42.800739 0.812723 2.195635 0.091171 -0.009997 219206.000000 0 0 1
-23.574211 -26.012582 -23.937888 42.490238 0.834532 2.169260 0.089534 -0.005775 -13185.700000 0 0 1
-24.538311 -25.893782 -22.689488 42.278003 0.812269 2.137286 0.076388 -0.001629 228075.000000 0 0 1
-25.847611 -26.367382 -22.779488 43.384824 0.795352 2.123578 0.084219 -0.001547 -478590.000000 0 0 1
-25.983211 -27.843782 -22.880288 44.428719 0.819950 2.111791 0.072171 -0.003175 -771537.000000 0 0 1
-27.486111 -28.173282 -23.033788 45.604556 0.797744 2.100267 0.041838 0.007458 1324.670000 0 0 1
-28.116011 -27.723982 -21.880288 45.142843 0.778378 2.076805 0.043115 0.012052 -799030.000000 0 0 1
-29.432511 -27.325782 -22.165788 45.872576 0.748298 2.075106 0.039889 0.006066 -293965.000000 0 0 1
-30.176311 -26.758882 -20.975688 45.460170 0.725447 2.050378 0.044984 0.005620 -342949.000000 0 0 1
-30.664911 -27.746682 -20.122488 45.990539 0.735480 2.023652 0.029946 0.012878 216885.000000 0 0 1
-31.343411 -27.111482 -19.021988 45.599100 0.713128 2.001111 0.024062 0.009572 -786285.000000 0 0 1
-32.194611 -28.036682 -18.146688 46.388046 0.716475 1.972724 0.011419 0.008903 -874392.000000 0 0 1
-33.437911 -28.449082 -18.671688 47.708240 0.704960 1.972919 0.007892 0.010674 59.132300 0 0 1
-34.466811 -27.501282 -18.650588 47.876153 0.673463 1.970949 0.001324 0.013899 -926301.000000 0 0 1
-34.956911 -26.997682 -17.281988 47.429185 0.657629 1.943757 0.014849 0.011759 -1332950.000000 0 0 1
-34.212911 -25.923782 -16.743088 46.074904 0.648423 1.942699 0.008687 0.016990 -67928.700000 0 0 1
-34.576511 -25.476782 -15.500988 45.660510 0.635015 1.917164 0.016427 0.013051 -307753.000000 0 0 1
-34.195311 -26.374382 -14.271588 45.481926 0.656986 1.889974 0.029095 0.010954 188091.000000 0 0 1
-34.933211 -27.602682 -14.156888 46.718891 0.668710 1.878659 0.037566 0.011183 463197.000000 0 0 1
-34.662411 -28.245382 -12.903588 46.538016 0.683743 1.851748 0.034360 0.005496 78138.300000 0 0 1
-35.449311 -29.560582 -12.782688 47.894455 0.695063 1.840964 0.051129 0.003481 28847.800000 0 0 1
-34.819211 -30.540882 -13.565788 48.261305 0.720034 1.855726 0.052027 0.001526 309908.000000 0 0 1
-35.226811 -31.860382 -13.154188 49.285341 0.735260 1.840970 0.037755 -0.007467 -309659.000000 0 0 1
-34.729911 -33.092182 -13.906088 49.946357 0.761255 1.852945 0.037648 0.004891 204219.000000 0 0 1
-33.348911 -33.417282 -13.712088 49.161835 0.786422 1.853463 0.022689 -0.000524 415455.000000 0 0 1
-32.993811 -33.925782 -14.979588 49.638074 0.799324 1.877351 0.047862 -0.020790 -1722040.000000 0 0 1
-31.565311 33.795114 -14.939788 48.597077 -0.819500 1.883278 0.039628 -0.017154 -1316050.000000 0 0 1
-31.066311 33.154414 -16.153788 48.221113 -0.817901 1.912395 0.057006 -0.018704 229272.000000 0 0 1
-29.695711 32.792714 -16.044488 47.059781 -0.834919 1.918711 0.051625 -0.016503 166805.000000 0 0 1
9.375195 19.769214 -9.002659 23.659332 1.127975 1.961146 0.072251 -0.035850 -1067100.000000 0 1 0
7.984495 19.907114 -9.015259 23.266290 1.189353 1.968694 0.069719 -0.034600 -306235.000000 0 1 0
7.444095 20.031114 -10.318859 23.730549 1.214986 2.020651 0.082016 -0.035127 215847.000000 0 1 0
7.416395 18.707314 -11.155559 23.008977 1.193360 2.076971 0.066090 -0.023870 -223477.000000 0 1 0
8.742395 18.368814 -11.535359 23.386049 1.126584 2.086628 0.097275 -0.033283 101587.000000 0 1 0
8.723795 17.278814 -12.388059 22.980993 1.103249 2.140113 0.088710 -0.035831 856158.000000 0 1 0
10.097795 16.931514 -13.102259 23.670885 1.033035 2.157379 0.102801 -0.034113 1084880.000000 0 1 0
9.987495 15.771314 -13.881859 23.263499 1.006272 2.210207 0.105128 -0.040678 -35894.700000 0 1 0
11.257095 15.340414 -14.313259 23.810079 0.937731 2.215727 0.123620 -0.051804 -507458.000000 0 1 0
11.321295 13.982114 -15.028559 23.442031 0.890170 2.266720 0.102591 -0.054608 -331750.000000 0 1 0
11.329595 12.782814 -14.249759 22.244453 0.845594 2.266073 0.109531 -0.052390 778821.000000 0 1 0
12.587295 12.490914 -13.629759 22.365895 0.781555 2.226099 0.138470 -0.052888 572783.000000 0 1 0
13.617795 11.648314 -14.482159 23.040410 0.707606 2.250490 0.144293 -0.051203 50583.700000 0 1 0
14.037795 12.380414 -15.524559 24.317612 0.722744 2.263224 0.116451 -0.039529 -168654.000000 0 1 0
15.017095 11.607914 -16.207559 24.958801 0.658047 2.277555 0.113025 -0.050036 151438.000000 0 1 0
15.691395 12.270114 -17.427459 26.466807 0.663647 2.289573 0.087870 -0.043378 -176338.000000 0 0 1
16.633395 13.229314 -17.042559 27.242125 0.671897 2.246691 0.062779 -0.031179 -367718.000000 0 0 1
17.207395 13.766314 -18.198659 28.579661 0.674755 2.261098 0.041144 -0.021847 -606228.000000 0 0 1
18.282395 14.823714 -18.032559 29.650660 0.681303 2.224546 0.041906 -0.016449 -802161.000000 0 0 1
17.991895 16.146914 -17.676259 29.947976 0.731407 2.202143 0.051811 -0.023545 8224.440000 0 0 1
17.458795 16.932314 -18.716159 30.688880 0.770091 2.226690 0.051857 -0.017166 -403408.000000 0 0 1
17.442095 18.455814 -18.338259 31.323082 0.813630 2.196238 0.054908 -0.023070 -669820.000000 0 0 1
18.626495 19.161514 -18.168059 32.313902 0.799556 2.167884 0.061006 -0.019198 -528311.000000 0 0 1
18.404595 20.399914 -17.429959 32.537503 0.836773 2.136119 0.048842 -0.013095 -590802.000000 0 0 1
19.166395 21.640614 -17.888059 33.994845 0.845956 2.124921 0.057299 -0.021502 -1056550.000000 0 0 1
20.422695 21.646514 -17.309059 34.427628 0.814481 2.097593 0.068521 -0.022969 -1216060.000000 0 0 1
20.482295 22.579314 -16.212759 34.528298 0.834058 2.059577 0.062909 -0.024452 -197658.000000 0 0 1
21.856195 22.917314 -15.602259 35.303357 0.809093 2.028566 0.061791 -0.026881 -354115.000000 0 0 1
22.226295 21.965614 -14.615259 34.497858 0.779499 2.008275 0.075912 -0.030233 -361693.000000 0 0 1
22.890695 22.478114 -13.488159 34.802011 0.776304 1.968789 0.066690 -0.027798 944721.000000 0 0 1
24.457295 22.504614 -13.654459 35.931340 0.743842 1.960609 0.062996 -0.025086 689448.000000 0 0 1
24.899095 23.197614 -14.816659 37.116406 0.750037 1.981434 0.064100 -0.024421 -731389.000000 0 0 1
26.265095 23.451314 -14.822359 38.203687 0.728862 1.969238 0.061130 -0.019653 -708731.000000 0 0 1
26.829495 24.066514 -16.119759 39.482471 0.731165 1.991361 0.063034 -0.017535 -524332.000000 0 0 1
27.092995 23.017414 -17.019059 39.414212 0.704245 2.017284 0.062072 -0.030068 -15444.600000 0 0 1
27.325595 23.651714 -18.227859 40.476494 0.713454 2.037933 0.051191 -0.019312 -799112.000000 0 0 1
27.874195 22.657614 -19.258859 40.758335 0.682529 2.062937 0.047913 -0.021277 -1019110.000000 0 0 1
29.239595 22.486214 -19.174659 41.572242 0.655571 2.050185 0.043153 -0.013177 -1306390.000000 0 0 1
29.702995 21.721514 -20.234859 41.994542 0.631419 2.073555 0.056581 -0.018280 1010130.000000 0 0 1
31.221895 21.973114 -20.567459 43.366402 0.613253 2.064933 0.082790 -0.015749 819526.000000 0 0 1
31.581995 23.223614 -21.111259 44.524644 0.634055 2.064792 0.068291 -0.018400 -178636.000000 0 0 1
32.969395 23.459414 -21.178859 45.671317 0.618436 2.052990 0.085230 -0.016736 112010.000000 0 0 1
33.311495 24.830814 -21.804259 46.921751 0.640559 2.054085 0.099652 -0.022969 -143868.000000 0 0 1
33.430495 25.024314 -23.255559 47.797859 0.642571 2.078921 0.096799 -0.015128 789712.000000 0 0 1
32.280795 24.678514 -24.080859 47.233108 0.652714 2.105784 0.084561 -0.017018 673511.000000 0 0 1
32.395095 25.005514 -25.607119 48.274656 0.657365 2.129923 0.085864 -0.016521 -391710.000000 0 0 1
32.397995 26.366114 -25.905549 49.151801 0.683111 2.125924 0.092949 -0.023053 -115393.000000 0 0 1
31.124195 26.927514 -26.166249 48.769653 0.713232 2.137113 0.076817 -0.012517 398867.000000 0 0 1
30.490195 26.662114 -27.538389 48.978395 0.718518 2.167907 0.084234 -0.011363 -211686.000000 0 0 1
30.296895 25.304314 -27.764519 48.260529 0.695846 2.183773 0.067593 -0.017705 -278225.000000 0 0 1
29.771295 25.086514 -29.037209 48.567712 0.700206 2.211638 0.065673 -0.016856 -276897.000000 0 0 1
29.090395 23.751314 -29.315999 47.642458 0.684701 2.233605 0.056702 -0.018995 704245.000000 0 0 1
27.760495 23.734414 -28.781919 46.501251 0.707373 2.238201 0.057720 -0.014506 422999.000000 0 0 1
27.016595 22.591414 -29.144639 45.713000 0.696431 2.262119 0.060474 -0.020179 -162227.000000 0 0 1
25.577995 22.650914 -28.623159 44.571100 0.724781 2.268149 0.043499 -0.012350 -385791.000000 0 0 1
25.502195 22.295514 -27.244289 43.470716 0.718410 2.248143 0.035081 0.005644 -874964.000000 0 0 1
24.303995 22.614014 -26.666699 42.581576 0.749394 2.247530 0.039940 -0.004556 -1014180.000000 0 0 1
24.433895 22.830114 -25.143219 41.837911 0.751479 2.215507 0.042049 -0.000394 20342.900000 0 0 1
24.846195 21.692014 -24.346559 40.995509 0.717726 2.206674 0.040652 -0.005042 168862.000000 0 0 1
25.216795 22.160014 -23.071959 40.734117 0.720967 2.172932 0.049176 -0.008119 -43.089000 0 0 1
25.773295 21.008114 -22.118659 39.935431 0.683888 2.157790 0.065083 -0.015140 1090660.000000 0 0 1
27.051095 20.506214 -22.559759 40.757935 0.648636 2.157364 0.041839 -0.013767 789602.000000 0 0 1
26.976395 19.085114 -22.316659 39.874813 0.615725 2.164782 0.084417 -0.022138 636820.000000 0 0 1
28.258895 18.316114 -22.809459 40.673291 0.575076 2.166144 0.086988 -0.020825 1017530.000000 0 0 1
29.452795 18.541914 -22.068759 41.210433 0.561862 2.135912 0.096390 -0.029205 -303108.000000 0 0 1
30.539795 17.976114 -22.720459 42.095593 0.532004 2.140918 0.084185 -0.018874 63888.100000 0 0 1
31.851095 17.928814 -21.886559 42.602301 0.512689 2.110336 0.089569 -0.017859 173743.000000 0 0 1
32.679795 19.047114 -22.041659 43.778948 0.527707 2.098414 0.082718 -0.020239 -210449.000000 0 0 1
33.919695 18.772814 -21.409859 44.287089 0.505487 2.075369 0.068526 -0.016913 214355.000000 0 0 1
34.388595 19.821414 -20.406759 44.630704 0.522882 2.045681 0.055604 -0.020505 24110.400000 0 0 1
33.682195 19.721714 -19.161959 43.481225 0.529707 2.027169 0.051126 -0.018534 385138.000000 0 0 1
33.898195 20.825114 -18.284259 43.784553 0.550899 2.001594 0.033851 -0.007408 -168255.000000 0 0 1
33.089895 20.509914 -17.017859 42.487707 0.554869 1.982898 0.054077 -0.027444 -41532.400000 0 0 1
33.705095 19.505714 -16.245559 42.195076 0.524623 1.966016 0.057883 -0.036703 247171.000000 0 0 1
33.263495 19.507714 -14.877359 41.332152 0.530404 1.939007 0.067263 -0.035220 -272804.000000 0 0 1
33.809995 18.309114 -14.042459 40.933239 0.496317 1.920966 0.070359 -0.021920 -358926.000000 0 0 1
35.225995 18.308714 -14.110159 42.132841 0.479323 1.912292 0.057155 -0.022362 246896.000000 0 0 1
35.866195 17.245614 -13.359159 41.979307 0.448196 1.894660 0.052939 -0.008670 374915.000000 0 0 1
35.885595 17.412614 -11.821059 41.601833 0.451759 1.858914 0.077268 -0.018359 221013.000000 0 0 1
36.834895 18.492414 -11.538659 42.800929 0.465274 1.843763 0.067027 -0.023706 732871.000000 0 0 1
36.644395 19.043314 -10.287059 42.559171 0.479266 1.814926 0.077123 -0.022679 -37495.000000 0 0 1
35.436095 20.020014 -10.050259 41.922852 0.514257 1.812886 0.081820 -0.020681 1337720.000000 0 0 1
34.155895 19.411714 -10.275859 40.608288 0.516805 1.826626 0.102482 -0.037443 424595.000000 0 0 1
33.031095 20.188114 -9.959359 39.972516 0.548603 1.822604 0.067375 -0.016532 122306.000000 0 0 1
31.687595 19.486514 -10.246359 38.585175 0.551345 1.839572 0.048256 -0.015303 -23121.300000 0 0 1
31.454295 19.222514 -11.601259 38.645400 0.548560 1.875696 0.069499 -0.028122 386307.000000 0 0 1
30.269595 18.413814 -11.669859 37.302849 0.546520 1.888979 0.062495 -0.029720 581057.000000 0 0 1
30.007095 17.944314 -13.138359 37.350243 0.538949 1.930248 0.107670 -0.033175 -371161.000000 0 0 1
31.001795 17.085314 -13.577959 37.912797 0.503693 1.937068 0.098356 -0.027669 -357483.000000 0 0 1
30.425895 16.070814 -14.414759 37.306721 0.485949 1.967505 0.093356 -0.033868 -105438.000000 0 0 1
31.471795 15.224114 -15.116959 38.088974 0.450554 1.978917 0.091423 -0.040632 -105433.000000 0 0 1
32.306895 14.518814 -14.209659 38.163409 0.422357 1.952322 0.080575 -0.036386 1348110.000000 0 0 1
33.555895 14.115414 -14.846359 39.314849 0.398184 1.958029 0.069029 -0.027500 1087970.000000 0 0 1
34.515295 13.373614 -13.899059 39.539132 0.369658 1.929998 0.061553 -0.039905 -273866.000000 0 0 1
35.047695 14.184114 -12.835159 39.928327 0.384559 1.898062 0.061388 -0.028019 -7397.290000 0 0 1
35.751495 13.326214 -11.992159 39.994615 0.356793 1.875326 0.064517 -0.018660 -384747.000000 0 0 1
36.688495 13.994114 -10.971659 40.770801 0.364397 1.843261 0.084161 -0.014107 790012.000000 0 0 1
-35.999099 14.401914 -11.652559 40.486200 -0.380561 1.862741 0.041640 -0.009595 601034.000000 0 0 1
-35.143799 15.063714 -10.725959 39.712067 -0.404942 1.844286 0.033262 0.005273 203632.000000 0 0 1
-33.672299 15.143314 -11.249759 38.596642 -0.422626 1.866559 0.045637 -0.009152 567624.000000 0 0 1
-32.951599 13.976814 -11.623759 37.633376 -0.401161 1.884799 0.048794 -0.003592 197116.000000 0 0 1
-32.701099 13.023314 -10.599859 36.760381 -0.379000 1.863300 0.070630 -0.000055 144055.000000 0 0 1
-31.589499 11.991114 -11.086659 35.561177 -0.362790 1.887844 0.091801 -0.008116 952474.000000 0 0 1
-32.016599 11.247214 -12.239759 36.074564 -0.337826 1.916959 0.067040 -0.006155 292002.000000 0 0 1
-31.135999 10.154614 -12.294559 34.981750 -0.315260 1.929923 0.105834 -0.011602 -40204.300000 0 0 1
-31.083099 9.432614 -13.621459 35.223251 -0.294632 1.967866 0.116145 -0.022065 431510.000000 0 0 1
-32.281199 8.719714 -13.992659 36.247810 -0.263821 1.967118 0.079257 -0.017365 885527.000000 0 0 1
-32.074999 7.827014 -15.086159 36.299586 -0.239345 1.999400 0.098360 -0.024526 -449099.000000 0 0 1
-33.400699 7.325714 -15.648259 37.605063 -0.215909 1.999972 0.102058 -0.020483 -591274.000000 0 0 1
-34.112199 6.511014 -14.771459 37.738991 -0.188602 1.972961 0.102723 -0.033264 6401.960000 0 0 1
-34.920099 5.570714 -15.474759 38.599409 -0.158194 1.983303 0.080402 -0.038935 170932.000000 0 0 1
-36.103699 5.164314 -14.520959 39.255643 -0.142077 1.949706 0.084559 -0.035684 458282.000000 0 0 1
36.869295 4.254014 -15.089059 40.063964 0.114873 1.956946 0.101372 -0.034849 -403114.000000 0 0 1
35.727195 4.055014 -14.338459 38.710037 0.113016 1.950243 0.112065 -0.036812 -175827.000000 0 0 1
34.841095 2.878314 -14.895959 38.001002 0.082425 1.973588 0.119217 -0.033501 -132024.000000 0 0 1
35.481995 1.647314 -14.822259 38.488764 0.046393 1.966119 0.119416 -0.035477 124694.000000 0 0 1
34.611795 0.514314 -14.982159 37.718774 0.014858 1.979268 0.114134 -0.025177 385493.000000 0 0 1
33.970795 0.085414 -13.624359 36.601166 0.002514 1.952216 0.141764 -0.038612 -295103.000000 0 0 1
34.889595 -0.515086 -12.741959 37.147095 -0.014762 1.920920 0.148826 -0.039594 101543.000000 0 0 1
34.763895 -0.327286 -11.351459 36.571725 -0.009414 1.886398 0.161795 -0.035733 -274036.000000 0 0 1
35.064395 1.126114 -10.855159 36.723485 0.032105 1.870871 0.152292 -0.040837 -469308.000000 0 0 1
34.014495 2.021614 -11.114359 35.841341 0.059364 1.886093 0.147146 -0.029941 -64640.800000 0 0 1
34.189995 3.383314 -10.663859 35.973885 0.098635 1.871752 0.141608 -0.031644 -898707.000000 0 0 1
33.129595 4.389914 -11.047759 35.197931 0.131740 1.890068 0.133941 -0.025786 -563219.000000 0 0 1
33.151395 4.770414 -12.364759 35.702368 0.142917 1.924451 0.130372 -0.031256 -236492.000000 0 0 1
32.122395 5.647114 -12.619459 34.971258 0.174022 1.939978 0.120505 -0.035750 -752634.000000 0 0 1
32.223395 6.254414 -14.073459 35.714522 0.191712 1.975835 0.090064 -0.030353 -172788.000000 0 0 1
31.726695 5.473714 -15.187459 35.597803 0.170845 2.011571 0.079099 -0.022216 392459.000000 0 0 1
31.938995 6.138114 -16.422559 36.434548 0.189868 2.038392 0.069948 -0.014458 -368746.000000 0 0 1
30.874795 7.223014 -16.823159 35.894896 0.229812 2.058590 0.083133 -0.018760 922069.000000 0 0 1
29.697895 6.822214 -17.552659 35.165372 0.225803 2.093409 0.062733 -0.014012 640929.000000 0 0 1
28.763195 6.090314 -16.824759 33.874560 0.208658 2.090564 0.056613 -0.015570 -1568010.000000 0 0 1
27.442795 5.980014 -17.562359 33.125579 0.214554 2.129603 0.037479 -0.018803 -763830.000000 0 0 1
27.492595 5.200314 -18.723559 33.666863 0.186945 2.160533 0.040789 -0.012711 85143.400000 0 0 1
26.265695 5.281314 -19.410359 33.083848 0.198427 2.197776 0.026822 -0.013099 -42300.100000 0 0 1
25.909395 3.935214 -20.149859 33.057517 0.150732 2.226276 0.030823 -0.000536 -123425.000000 0 0 1
25.185295 3.098514 -19.277159 31.867047 0.122414 2.220467 0.046832 -0.012700 199719.000000 0 0 1
24.904095 1.806014 -19.810359 31.873593 0.072392 2.241489 0.050472 -0.009763 -710189.000000 0 0 1
23.851095 0.922314 -19.135559 30.592401 0.038650 2.246569 0.052754 -0.016510 -155257.000000 0 0 1
22.610095 1.615214 -19.187259 29.698084 0.071317 2.273230 0.056971 -0.022703 270328.000000 0 0 1
21.605995 0.831714 -18.545959 28.486196 0.038476 2.279764 0.062609 -0.021640 528769.000000 0 0 1
20.206595 1.522514 -18.550259 27.472470 0.075205 2.312074 0.071819 -0.027693 -569582.000000 0 0 1
19.507795 1.520114 -19.809959 27.844196 0.077766 2.362366 0.070779 -0.024827 543307.000000 0 0 1
18.413295 2.423814 -19.781859 27.133858 0.130881 2.387725 0.051316 -0.016952 1115360.000000 0 0 1
17.129795 1.981714 -18.957459 25.626984 0.115176 2.403489 0.069399 -0.015165 -158696.000000 0 0 1
17.282595 2.092314 -17.518559 24.697485 0.120479 2.359337 0.068363 -0.026162 -281212.000000 0 1 0
16.079595 1.897614 -16.847559 23.366526 0.117470 2.376059 0.045377 -0.014730 -134325.000000 0 1 0
15.122395 3.091414 -16.554859 22.634200 0.201648 2.391182 0.049680 -0.014875 117003.000000 0 1 0
14.562595 3.512814 -17.789959 23.257078 0.236700 2.441724 0.051799 -0.007400 196585.000000 0 1 0
13.533395 4.445114 -17.542559 22.597636 0.317354 2.459572 0.048950 -0.011481 -126150.000000 0 1 0
-20.484105 -21.890686 -17.001759 34.465352 0.818580 2.086676 0.104898 -0.025118 31752.200000 0 0 1
-20.167805 -22.196086 -18.301659 35.133421 0.833239 2.118723 0.102668 -0.022748 604584.000000 0 0 1
-21.314805 -22.122086 -19.149559 36.199630 0.803981 2.128217 0.103615 -0.015764 434601.000000 0 0 1
-20.864605 -22.724086 -20.511859 37.046621 0.828032 2.157570 0.092480 -0.010062 205068.000000 0 0 1
-20.722105 -24.137286 -20.405759 37.794301 0.861382 2.141134 0.098655 -0.012578 120178.000000 0 0 1
-20.402105 -24.728386 -21.615359 38.664747 0.880968 2.164031 0.094450 -0.011331 -95074.300000 0 0 1
-20.202105 -26.251666 -21.558359 39.522624 0.914897 2.147745 0.091635 -0.006514 32837.200000 0 0 1
-21.406905 -26.972746 -21.324959 40.503561 0.899940 2.125270 0.096443 0.001150 137881.000000 0 0 1
-21.235305 -28.399696 -21.275359 41.353619 0.928750 2.111190 0.108134 -0.013941 -239068.000000 0 0 1
-22.549205 -29.176796 -21.428859 42.649127 0.912833 2.097221 0.096462 -0.009722 -7633.740000 0 0 1
-23.206005 -29.184256 -22.689659 43.646994 0.899017 2.117465 0.076266 -0.007457 -104492.000000 0 0 1
-22.620805 -29.996946 -23.670559 44.405100 0.924674 2.133009 0.068872 -0.009428 -556580.000000 0 0 1
-23.042405 -29.513106 -25.064779 45.057951 0.907903 2.160697 0.060878 -0.002121 207434.000000 0 0 1
-24.418505 -29.686566 -25.378269 46.060961 0.882459 2.154324 0.050899 0.002904 484145.000000 0 0 1
-24.810205 -28.800776 -26.406329 46.285258 0.859697 2.177926 0.052787 0.009337 -346229.000000 0 0 1
-24.360005 -29.008156 -27.844919 47.013003 0.872275 2.204683 0.055537 -0.005046 -591616.000000 0 0 1
-24.874905 -30.123006 -28.499429 48.356735 0.880534 2.201060 0.034351 0.003584 281595.000000 0 0 1
-24.196105 -30.346816 -29.733809 48.892536 0.897692 2.224520 0.062070 -0.002728 -217867.000000 0 0 1
-24.680205 -31.643966 -30.498509 50.404485 0.908411 2.220657 0.038178 0.003266 123729.000000 0 0 1
-24.232605 -32.858596 -29.989909 50.658672 0.935355 2.204334 0.029980 -0.002819 -41333.700000 0 0 1
-25.075205 -33.821666 -30.588999 52.041885 0.932825 2.199104 0.032090 -0.002560 -26505.000000 0 0 1
-24.604305 32.821016 -30.485529 51.107322 -0.927519 2.209930 0.043908 -0.005345 -373483.000000 0 0 1
-23.631005 32.528589 -31.423959 51.029391 -0.942526 2.234199 0.045898 -0.009202 -629668.000000 0 0 1
-23.358605 31.188951 -31.347489 50.010401 -0.927975 2.248261 0.050402 -0.005334 719572.000000 0 0 1
-22.096805 30.666951 -32.177519 49.639938 -0.946417 2.276039 0.044027 0.000785 861156.000000 0 0 1
-22.245305 30.595161 -33.585499 50.585603 -0.942122 2.296864 0.043853 0.008956 169860.000000 0 0 1
-21.438905 29.561921 33.918490 49.839721 -0.943344 0.822281 0.033482 0.006854 67234.300000 0 0 1
-21.614605 29.325401 32.376003 48.737828 -0.935628 0.844254 0.037088 -0.002197 -115113.000000 0 0 1
-21.022305 30.374461 31.611051 48.618965 -0.965389 0.862976 0.037440 -0.001971 275082.000000 0 0 1
-21.083505 30.114471 30.214651 47.584879 -0.959995 0.882835 0.055161 -0.003984 -325033.000000 0 0 1
-20.450805 31.286811 29.506881 47.620962 -0.991855 0.902538 0.048675 -0.016968 -35300.900000 0 0 1
-21.302505 32.444818 29.550621 48.782191 -0.989812 0.920067 0.059053 -0.020666 335120.000000 0 0 1
-20.615305 33.622633 29.230251 49.090527 -1.020773 0.932989 0.052503 -0.030728 -401502.000000 0 0 1
-21.500105 -33.239836 29.184421 49.182025 0.996662 0.935525 0.059476 -0.037470 -393653.000000 0 0 1
-21.810005 -32.748006 30.452861 49.754245 0.983259 0.912126 0.056532 -0.026213 508349.000000 0 0 1
-23.121305 -32.163066 30.398601 49.931278 0.947513 0.916238 0.081914 -0.028123 462763.000000 0 0 1
-23.166105 -30.677016 29.888961 48.693919 0.924000 0.909915 0.089323 -0.025944 -743113.000000 0 0 1
-22.851605 -30.468626 28.543421 47.594746 0.927292 0.927648 0.065816 -0.026373 -247265.000000 0 0 1
-23.052305 -29.163826 28.073691 46.584006 0.901911 0.923983 0.076197 -0.036316 -663959.000000 0 0 1
-24.435405 -28.740516 27.607341 46.746888 0.866182 0.939031 0.091565 -0.026243 -1713430.000000 0 0 1
-25.408185 -28.733516 28.611051 47.851677 0.846740 0.929904 0.108812 -0.019882 742288.000000 0 0 1
-26.475295 -29.730696 28.545371 48.986669 0.843253 0.948728 0.090118 -0.024952 766309.000000 0 0 1
-27.476145 -29.521566 27.363411 48.736205 0.821269 0.974648 0.074814 -0.011787 -849057.000000 0 0 1
-26.848055 -29.755216 26.120131 47.837769 0.836713 0.993196 0.070954 -0.015723 -314804.000000 0 0 1
-27.603555 -29.465966 24.991071 47.484240 0.818021 1.016550 0.063649 -0.017839 -318040.000000 0 0 1
-26.805595 -29.826426 23.699301 46.581246 0.838689 1.037037 0.066562 -0.015839 -445522.000000 0 0 1
-25.850565 -28.820696 23.448461 45.262728 0.839672 1.026224 0.059545 -0.018204 94936.200000 0 0 1
-25.292305 -28.907056 22.168471 44.348164 0.851993 1.047344 0.077060 -0.016669 -588169.000000 0 0 1
-24.106005 -29.823536 21.995571 44.208007 0.891022 1.050027 0.075777 -0.021760 -1260610.000000 0 0 1
-24.500205 -31.180236 21.926971 45.312903 0.904798 1.065689 0.079677 -0.036660 692720.000000 0 0 1
-23.387805 -32.035246 21.671571 45.198489 0.940176 1.070739 0.075010 -0.020378 356704.000000 0 0 1
-22.597205 -32.563356 22.890371 45.770896 0.964145 1.047073 0.070664 -0.023410 14904.000000 0 0 1
-21.945805 -31.555176 23.668691 45.139278 0.963114 1.018847 0.086114 -0.035002 -65018.200000 0 0 1
-21.306105 -32.210356 24.708811 45.847382 0.986402 1.001623 0.079021 -0.042132 -511294.000000 0 0 1
-20.283105 -31.383946 25.502051 45.240590 0.997034 0.971940 0.081427 -0.031502 -1037840.000000 0 0 1
-19.067305 -31.179716 24.833661 44.186508 1.021943 0.973971 0.092133 -0.034547 436618.000000 0 0 1
-18.075605 -30.522526 25.663411 43.783133 1.036128 0.944500 0.098750 -0.037719 601438.000000 0 0 1
-17.387705 -31.388976 26.774951 44.771621 1.064931 0.929750 0.071740 -0.045027 -896447.000000 0 0 1
-18.228005 -31.823756 27.836141 46.041963 1.050632 0.921555 0.065680 -0.037017 767348.000000 0 0 1
-17.405605 -32.431936 28.888661 46.790386 1.078236 0.905356 0.064863 -0.037449 438750.000000 0 0 1
-17.636305 -31.828446 30.276861 47.336852 1.064807 0.876813 0.088185 -0.030806 -19299.000000 0 0 1
-17.324705 -30.437706 30.328201 46.329247 1.053343 0.857112 0.093366 -0.026396 92914.200000 0 0 1
-17.577505 -29.943006 31.637341 46.973116 1.039967 0.831835 0.102142 -0.012747 -102642.000000 0 0 1
-17.339905 -28.415246 31.741931 45.996181 1.022887 0.809170 0.107403 -0.017662 695460.000000 0 0 1
-18.261905 -27.535806 30.977821 45.291756 0.985194 0.817617 0.115393 -0.017493 798940.000000 0 0 1
-18.258505 -27.622416 29.559761 44.386375 0.986725 0.842010 0.111074 -0.020355 -673189.000000 0 0 1
-17.010705 -27.470026 28.687491 43.208084 1.016345 0.844724 0.087922 -0.014561 -363620.000000 0 0 1
-16.571205 -26.122556 28.528071 42.081392 1.005492 0.825859 0.079432 -0.004934 -34773.600000 0 0 1
-15.534805 -26.017916 27.592251 40.982855 1.032526 0.832183 0.068017 -0.007093 -369832.000000 0 0 1
-15.567005 -24.681886 26.894541 39.684297 1.008105 0.826149 0.064132 0.006852 -1081310.000000 0 0 1
-16.706705 -24.487986 26.162951 39.538278 0.972089 0.847697 0.079661 -0.009302 -795754.000000 0 0 1
-16.535505 -23.337186 25.296991 38.183569 0.954357 0.846632 0.066654 -0.000894 33905.700000 0 0 1
-17.293705 -22.057786 25.746321 38.059049 0.905877 0.827819 0.072193 -0.005166 -437642.000000 0 0 1
-17.061105 -20.899686 24.922941 36.729159 0.886175 0.824996 0.064644 -0.007486 385080.000000 0 0 1
-17.783305 -19.692586 25.234021 36.616932 0.836301 0.810501 0.069833 -0.005719 -50877.300000 0 0 1
-17.433005 -18.545786 24.291541 35.184298 0.816317 0.808743 0.059223 -0.014956 -546628.000000 0 0 1
-16.176005 -18.008986 24.534921 34.466637 0.838966 0.778674 0.058575 -0.014580 -718973.000000 0 0 1
-15.858705 -16.897486 23.658971 33.117525 0.817100 0.775038 0.049833 -0.011002 163899.000000 0 0 1
-14.467105 -16.249286 23.817371 32.258388 0.843354 0.740204 0.054846 -0.016781 -453516.000000 0 0 1
-13.372205 -16.981486 23.350581 31.818805 0.903750 0.746808 0.025225 -0.010693 -102593.000000 0 0 1
-12.188405 -16.197686 23.475041 31.016121 0.925711 0.712292 0.023494 -0.024082 -220788.000000 0 0 1
-11.741205 -15.538586 22.153771 29.497341 0.923711 0.721156 0.031246 -0.026371 -351082.000000 0 0 1
-11.120605 -16.354086 21.168771 28.969654 0.973627 0.751417 0.062988 -0.018167 538228.000000 0 0 1
-9.805905 -16.797386 21.520471 29.007561 1.042392 0.734909 0.059191 -0.015784 -141873.000000 0 0 1
-9.323805 -17.867986 20.583871 28.807881 1.089848 0.774855 0.059849 -0.015206 -193896.000000 0 0 1
-9.038205 -17.497386 19.258571 27.545239 1.094000 0.796572 0.057466 -0.021630 -68858.300000 0 0 1
-8.748705 -18.697186 18.537371 27.744526 1.133144 0.839083 0.055245 -0.020078 98009.300000 0 0 1
-8.551705 -18.502186 17.033871 26.563420 1.137844 0.874666 0.061374 -0.031786 -714260.000000 0 0 1
-7.320705 -17.961786 16.733071 25.616677 1.183780 0.858980 0.077566 -0.032630 -868883.000000 0 0 1
-7.339105 -17.732686 15.333471 24.564729 1.178387 0.896681 0.102744 -0.035251 381510.000000 0 1 0
-6.272005 -16.667286 14.957071 23.256191 1.210881 0.872200 0.085342 -0.038815 288627.000000 0 1 0
-6.539905 -15.362986 15.423471 22.730489 1.168339 0.825028 0.083412 -0.046532 352915.000000 0 1 0
-5.324205 -14.622286 15.561971 22.007574 1.221602 0.785381 0.063222 -0.032059 221412.000000 0 1 0
-5.555305 -13.406486 16.461671 21.944974 1.177960 0.722532 0.046076 -0.027921 -127546.000000 0 1 0
-5.423105 -13.558786 17.901371 23.102160 1.190316 0.684273 0.064578 -0.027742 72943.300000 0 1 0
-6.312705 -14.481586 18.533471 24.352743 1.159719 0.705878 0.084999 -0.030851 -728954.000000 0 1 0
-7.650205 -13.911486 18.897871 24.681665 1.068014 0.698723 0.092477 -0.036645 -1222890.000000 0 1 0
-7.608305 -12.896486 19.906171 24.909060 1.037798 0.644910 0.096306 -0.045022 104366.000000 0 1 0
-8.743905 -12.892386 20.764871 25.958608 0.974836 0.643631 0.099985 -0.031560 611485.000000 0 0 1
-8.342505 -12.107086 22.036371 26.491141 0.967451 0.588383 0.114427 -0.025137 -208045.000000 0 0 1
-8.301705 -10.734886 21.957471 25.812528 0.912525 0.553573 0.121024 -0.024243 220720.000000 0 0 1
-7.582605 -10.003186 22.959071 26.166363 0.922183 0.500325 0.103011 -0.023448 1219810.000000 0 0 1
-6.044005 -10.220786 23.219351 26.079354 1.036765 0.472717 0.123112 -0.028061 850839.000000 0 0 1
-5.811105 -11.314986 24.059441 27.214969 1.096347 0.486335 0.124042 -0.027240 -355720.000000 0 0 1
-4.449305 -11.603986 24.251061 27.250005 1.204656 0.473567 0.115586 -0.018238 -165804.000000 0 0 1
-4.233305 -12.654186 25.334011 28.633222 1.247962 0.484781 0.106796 -0.016740 154848.000000 0 0 1
-2.868305 -12.749386 25.735481 28.863281 1.349505 0.469855 0.091351 -0.018085 389281.000000 0 0 1
-2.639305 -13.789486 26.665241 30.135542 1.381684 0.484638 0.087284 -0.025909 31362.100000 0 0 1
-2.732205 -15.273586 26.212731 30.460706 1.393784 0.534463 0.081486 -0.030747 226591.000000 0 0 1
-1.673705 -15.606686 25.299961 29.773444 1.463962 0.555287 0.069867 -0.028857 494108.000000 0 0 1
-1.894605 -16.908886 24.712861 30.003757 1.459214 0.602963 0.075430 -0.022828 -280600.000000 0 0 1
-0.591905 -17.711786 24.720791 30.416693 1.537390 0.621961 0.071245 -0.024017 273439.000000 0 0 1
0.060095 -18.050686 25.947961 31.608979 -1.567467 0.607803 0.073560 -0.024704 277837.000000 0 0 1
0.406195 -17.122286 26.964741 31.944247 -1.547078 0.565877 0.077120 -0.027902 -357573.000000 0 0 1
1.193795 -17.698786 28.176321 33.295303 -1.503448 0.561880 0.063495 -0.021223 -547101.000000 0 0 1
2.476195 -18.138486 27.845791 33.324530 -1.435119 0.581582 0.061157 -0.023079 -447536.000000 0 0 1
3.278395 -18.390386 28.991181 34.488298 -1.394383 0.572389 0.057551 -0.031917 393533.000000 0 0 1
4.181195 -17.227586 29.471301 34.392291 -1.332697 0.541540 0.074580 -0.031351 -299359.000000 0 0 1
3.418295 -16.096486 29.899561 34.128658 -1.361542 0.503118 0.062337 -0.032117 -133742.000000 0 0 1
4.215595 -15.157386 30.526051 34.341773 -1.299530 0.475880 0.072174 -0.036372 -478532.000000 0 0 1
3.415095 -14.123986 31.314451 34.521655 -1.333556 0.434464 0.076149 -0.044358 -116014.000000 0 0 1
2.777695 -14.682586 32.430927 35.707967 -1.383823 0.431770 0.072809 -0.048433 -456735.000000 0 0 1
1.925695 -13.766686 33.014460 35.821565 -1.431817 0.398520 0.065456 -0.047190 -232979.000000 0 0 1
1.130495 -14.306586 -33.828729 36.746963 -1.491941 2.740374 0.059625 -0.043533 626299.000000 0 0 1
2.002995 -14.472686 -32.721809 35.835560 -1.433272 2.721644 0.070662 -0.036750 590079.000000 0 0 1
1.188995 -15.030286 -31.694919 35.098306 -1.491854 2.697574 0.068880 -0.048017 833844.000000 0 0 1
2.083295 -15.408586 -30.492879 34.228355 -1.436408 2.670044 0.074608 -0.035880 459748.000000 0 0 1
1.329295 -16.215886 -29.586339 33.764973 -1.489004 2.638807 0.064776 -0.033566 -116593.000000 0 0 1
1.841295 -16.258386 -28.307639 32.696297 -1.458025 2.617493 0.077065 -0.031216 -71739.200000 0 0 1
1.470995 -17.633686 -27.676709 32.849823 -1.487569 2.572745 0.080053 -0.035226 87401.700000 0 0 1
2.301495 -18.696086 -28.122609 33.848510 -1.448312 2.551407 0.071788 -0.027741 242809.000000 0 0 1
2.004895 -19.832286 -27.336779 33.832508 -1.470046 2.511552 0.083299 -0.027507 -275018.000000 0 0 1
3.043795 -20.958086 -27.645039 34.824620 -1.426572 2.487888 0.063296 -0.027874 164142.000000 0 0 1
4.381295 -20.753586 -27.256329 34.537147 -1.362741 2.480283 0.048761 -0.023676 99413.500000 0 0 1
4.628395 -20.861886 -25.850329 33.539228 -1.352474 2.450812 0.070754 -0.028434 -665517.000000 0 0 1
5.851295 -21.755786 -25.578049 34.085018 -1.308060 2.419492 0.037944 -0.022627 -517568.000000 0 0 1
5.604995 -23.132586 -25.754159 35.068635 -1.333079 2.395568 0.037406 -0.022670 255791.000000 0 0 1
5.757995 -23.617386 -27.043699 36.363402 -1.331658 2.409394 0.027078 -0.016302 -292310.000000 0 0 1
5.315595 -25.090266 -27.104079 37.314984 -1.362024 2.383806 0.026127 -0.003656 -117683.000000 0 0 1
6.109095 -25.917886 -26.318169 37.439335 -1.339312 2.350340 0.028556 -0.004560 -19876.900000 0 0 1
5.514095 -27.249306 -26.252199 38.237518 -1.371135 2.327538 0.031018 -0.006901 41477.200000 0 0 1
6.047795 -28.144906 -25.131649 38.214019 -1.359134 2.288498 0.037048 -0.013285 -51966.300000 0 0 1
7.369795 -28.548956 -25.444069 38.945569 -1.318166 2.282763 0.046994 -0.020619 -60632.800000 0 0 1
7.678495 -29.751906 -24.764159 39.463891 -1.318224 2.249153 0.057221 -0.021723 572678.000000 0 0 1
9.111395 -30.183486 -25.252389 40.394844 -1.277628 2.246106 0.076733 -0.029480 636323.000000 0 0 1
9.163195 -30.610216 -26.570129 41.556241 -1.279935 2.264485 0.069339 -0.027945 173557.000000 0 0 1
10.478495 -30.495316 -27.086379 42.112172 -1.239825 2.269461 0.098168 -0.040257 292075.000000 0 0 1
10.581495 -30.201236 -28.594719 42.915505 -1.233795 2.300036 0.101718 -0.040188 -119151.000000 0 0 1
10.226395 -31.374536 -29.344309 44.159133 -1.255709 2.297638 0.098816 -0.051295 133669.000000 0 0 1
10.805795 -31.223416 -30.618149 45.045953 -1.237618 2.318162 0.106851 -0.037853 -69765.700000 0 0 1
-34.727151 -4.939386 -5.596659 35.520348 0.141286 1.729018 0.195017 -0.047459 -179116.000000 0 0 1
-34.640455 -4.233486 -4.350859 35.168360 0.121609 1.694829 0.155590 -0.048304 675900.000000 0 0 1
-33.683265 -3.174086 -4.299459 34.104582 0.093956 1.697200 0.149649 -0.056526 -213815.000000 0 0 1
-34.171824 -1.926786 -5.051659 34.596898 0.056326 1.717335 0.202827 -0.042226 -35962.900000 0 0 1
-35.205347 -1.300886 -4.291259 35.489769 0.036935 1.692008 0.148915 -0.032922 42873.300000 0 0 1
-35.878130 -0.481386 -5.187759 36.254445 0.013416 1.714382 0.140338 -0.042051 -38075.500000 0 0 1
36.823759 0.279314 -4.559859 37.106058 0.007585 1.693995 0.156728 -0.040422 306358.000000 0 0 1
-36.587935 1.177214 -3.553559 36.778943 -0.032164 1.667567 0.147237 -0.030951 5642.480000 0 0 1
36.276029 1.926214 -2.985659 36.449619 0.053049 1.652800 0.139397 -0.034397 -1179290.000000 0 0 1
36.745939 2.846814 -1.823259 36.901120 0.077318 1.620226 0.119427 -0.029715 48806.700000 0 0 1
-36.404085 3.993914 -2.124059 36.684062 -0.109274 1.628730 0.147609 -0.043619 2018740.000000 0 0 1
-35.008733 3.676014 -2.482659 35.288639 -0.104619 1.641207 0.111634 -0.011226 1308360.000000 0 0 1
-34.099384 4.917914 -2.724259 34.559738 -0.143235 1.649706 0.089044 -0.013146 -196374.000000 0 0 1
-33.682825 5.514114 -1.544259 34.166108 -0.162268 1.616010 0.109309 -0.018488 150949.000000 0 0 1
-33.297825 6.865114 -1.744659 34.042896 -0.203324 1.622068 0.125223 -0.028195 -293874.000000 0 0 1
-32.713435 7.481414 -0.466859 33.561263 -0.224829 1.584707 0.130730 -0.033683 1342050.000000 0 0 1
-31.293285 7.131414 -0.290559 32.096903 -0.224063 1.579849 0.134528 -0.027141 2165510.000000 0 0 1
-30.717915 7.595514 0.945641 31.657170 -0.242404 1.540921 0.144284 -0.036026 75207.500000 0 0 1
-30.745585 9.092214 1.363941 32.090804 -0.287529 1.528281 0.147421 -0.039742 -623604.000000 0 0 1
-32.047055 9.571614 1.619441 33.485103 -0.290240 1.522414 0.134774 -0.039579 -56112.800000 0 0 1
-32.085885 10.848914 2.226841 33.943509 -0.326053 1.505145 0.131607 -0.036019 -682027.000000 0 0 1
-33.393915 11.597814 2.122741 35.414247 -0.334270 1.510820 0.119932 -0.038752 -1474540.000000 0 0 1
-33.615605 12.115914 0.825541 35.741934 -0.345932 1.547697 0.086701 -0.042420 845724.000000 0 0 1
-34.831588 12.864914 0.635441 37.136900 -0.353805 1.553685 0.088492 -0.030681 1531850.000000 0 0 1
-36.202925 12.105114 0.780241 38.181074 -0.322682 1.550360 0.109873 -0.034875 -23044.700000 0 0 1
-36.487815 11.132614 -0.210859 38.148922 -0.296134 1.576324 0.107510 -0.027409 1040890.000000 0 0 1
36.118919 10.529314 0.047341 37.622400 0.283657 1.569538 0.119536 -0.038628 1113340.000000 0 0 1
35.846639 9.287914 -0.824659 37.039532 0.253526 1.593062 0.130020 -0.038341 184547.000000 0 0 1
35.592399 9.492914 -2.224059 36.903668 0.260645 1.631099 0.127334 -0.037180 369428.000000 0 0 1
34.945119 8.332114 -2.783559 36.032397 0.234064 1.648125 0.114983 -0.036123 323100.000000 0 0 1
34.262139 8.503014 -4.183559 35.548524 0.243261 1.688756 0.109618 -0.025216 127364.000000 0 0 1
33.042249 9.203314 -4.116359 34.546137 0.271647 1.690235 0.125127 -0.035463 13029.700000 0 0 1
32.482779 9.571114 -5.331159 34.280583 0.286543 1.726946 0.106543 -0.023659 600877.000000 0 0 1
31.031769 10.162114 -5.350159 33.088721 0.316468 1.733201 0.136707 -0.039900 745069.000000 0 0 1
29.950609 9.239014 -5.336959 31.794362 0.299214 1.739453 0.136597 -0.037358 1226210.000000 0 0 1
28.784289 9.926314 -5.845159 31.003756 0.332081 1.760462 0.144851 -0.023748 630928.000000 0 0 1
27.523789 9.042014 -5.995159 29.584775 0.317409 1.774853 0.159814 -0.013432 6806.880000 0 0 1
27.692689 8.165614 -7.061959 29.722610 0.286739 1.810686 0.160376 -0.022799 864274.000000 0 0 1
26.520189 7.338614 -7.123559 28.423947 0.269963 1.824115 0.182974 -0.026668 450515.000000 0 0 1
26.601989 6.252714 -8.223059 28.537360 0.230856 1.863091 0.176987 -0.035483 517606.000000 0 0 1
27.615389 5.224814 -8.083659 29.244724 0.186989 1.850857 0.175790 -0.033809 1044100.000000 0 0 1
27.512589 4.275514 -9.193959 29.321518 0.154169 1.889733 0.162808 -0.030181 -335229.000000 0 0 1
28.426389 3.066814 -8.912959 29.948385 0.107471 1.872985 0.145135 -0.023600 -628079.000000 0 0 1
29.770469 3.402314 -9.129759 31.324256 0.113791 1.866549 0.163675 -0.019820 -134364.000000 0 0 1
30.723769 2.924514 -8.231659 31.941555 0.094901 1.831448 0.129036 -0.028219 -93148.800000 0 0 1
31.023519 1.380114 -8.054559 32.081760 0.044457 1.824575 0.132499 -0.031275 -486367.000000 0 0 1
29.888579 0.754814 -7.476159 30.818660 0.025249 1.815826 0.165291 -0.036040 454461.000000 0 0 1
30.128499 -0.522986 -6.853659 30.902631 -0.017357 1.794438 0.166615 -0.032395 -285498.000000 0 0 1
29.933759 -1.765586 -7.699259 30.958452 -0.058915 1.822131 0.164268 -0.029487 72109.700000 0 0 1
31.003359 -2.007886 -8.606359 32.238320 -0.064673 1.841034 0.152787 -0.026295 648395.000000 0 0 1
30.651139 -3.154786 -9.375759 32.207915 -0.102564 1.866174 0.134158 -0.028744 -226708.000000 0 0 1
31.579219 -3.342086 -10.569059 33.468217 -0.105439 1.892090 0.133286 -0.028077 -207501.000000 0 0 1
32.948559 -3.552886 -10.280459 34.697526 -0.107416 1.871600 0.169353 -0.033668 -39794.100000 0 0 1
33.688349 -3.750386 -11.427159 35.770801 -0.110869 1.895951 0.140533 -0.039673 268692.000000 0 0 1
35.213019 -3.939986 -11.118059 37.136120 -0.111427 1.874846 0.163116 -0.045847 529085.000000 0 0 1
35.546999 -5.223886 -10.591259 37.457347 -0.145913 1.857462 0.153946 -0.050474 -248971.000000 0 0 1
36.890579 -5.288986 -10.229159 38.646136 -0.142399 1.838676 0.155310 -0.039574 -467020.000000 0 0 1
-36.558305 -6.541786 -9.485859 38.331269 0.177067 1.820865 0.150008 -0.056084 -153354.000000 0 0 1
36.827159 -6.432286 -8.194859 38.272309 -0.172917 1.786587 0.169589 -0.055889 469266.000000 0 0 1
36.513889 -7.742286 -7.647459 38.101059 -0.208942 1.772884 0.159861 -0.047341 -99701.500000 0 0 1
36.438159 -7.779586 -6.111959 37.757349 -0.210343 1.733386 0.179947 -0.037756 -437871.000000 0 0 1
-36.193705 -7.800886 -5.518759 37.433873 0.212284 1.718763 0.159492 -0.034867 155098.000000 0 0 1
-36.211735 -8.449686 -4.269659 37.428825 0.229239 1.685119 0.180287 -0.029423 -367420.000000 0 0 1
-36.165515 -10.014886 -4.241959 37.765548 0.270149 1.683357 0.166492 -0.034861 -150419.000000 0 0 1
36.644579 -10.621586 -4.896059 38.465759 -0.282123 1.698426 0.140001 -0.032489 396371.000000 0 0 1
-36.812465 -11.760386 -5.614059 39.051017 0.309220 1.715058 0.112551 -0.028599 -500074.000000 0 0 1
36.247319 -11.979586 -6.834159 38.782526 -0.319195 1.747939 0.101307 -0.028647 -353692.000000 0 0 1
36.386549 -11.081286 -7.881659 38.844515 -0.295620 1.775118 0.134384 -0.034196 -110445.000000 0 0 1
35.845109 -11.628086 -9.009459 38.746026 -0.313687 1.805470 0.101938 -0.024427 -253252.000000 0 0 1
36.006999 -10.772486 -10.284559 38.965658 -0.290702 1.837900 0.080939 -0.029924 -341412.000000 0 0 1
35.151719 -9.679986 -10.374359 37.907423 -0.268717 1.848009 0.103344 -0.033762 89459.400000 0 0 1
35.306159 -9.167686 -11.648759 38.291838 -0.254052 1.879905 0.107749 -0.035203 -148655.000000 0 0 1
34.427459 -7.960186 -12.052359 37.334619 -0.227223 1.899504 0.118651 -0.031844 -277829.000000 0 0 1
34.752969 -7.467986 -13.348059 37.969860 -0.211669 1.930016 0.119210 -0.022677 476704.000000 0 0 1
33.901939 -6.465386 -13.874959 37.197542 -0.188446 1.953045 0.109863 -0.025869 -46867.100000 0 0 1
34.443249 -5.865586 -15.237059 38.117062 -0.168679 1.982034 0.103685 -0.025618 -145836.000000 0 0 1
35.556489 -5.019686 -15.299159 39.032363 -0.140248 1.973558 0.115234 -0.025486 119181.000000 0 0 1
35.235709 -3.646486 -15.163059 38.532718 -0.103121 1.975244 0.147232 -0.026599 -150129.000000 0 0 1
36.540589 -2.835386 -15.215659 39.683376 -0.077440 1.964300 0.135058 -0.036079 -814719.000000 0 0 1
-36.799915 -2.878886 -16.508459 40.435763 0.078072 1.991348 0.127456 -0.032493 864402.000000 0 0 1
-35.474654 -2.304886 -16.515759 39.198646 0.064882 2.005713 0.118644 -0.028879 730061.000000 0 0 1
-35.365274 -0.810986 -16.261759 38.933342 0.022928 2.001689 0.118203 -0.024083 -890710.000000 0 0 1
-36.075844 0.024314 -17.156559 39.947649 -0.000674 2.014709 0.097462 -0.019961 320127.000000 0 0 1
-35.779089 1.354014 -16.819559 39.558490 -0.037826 2.009959 0.104737 -0.028263 -95030.800000 0 0 1
-36.213625 2.310214 -17.955759 40.486702 -0.063708 2.030294 0.081791 -0.025344 -18144.400000 0 0 1
-35.291806 2.300214 -19.019159 40.156332 -0.065085 2.064202 0.079321 -0.014071 301228.000000 0 0 1
-35.386205 3.542914 -19.729659 40.669340 -0.099789 2.077301 0.063302 -0.006781 169014.000000 0 0 1
-34.524730 3.602514 -21.092559 40.618113 -0.103970 2.116816 0.060953 0.003595 1539500.000000 0 0 1
-33.116845 3.801614 -20.780559 39.281157 -0.114294 2.128243 0.077703 -0.004167 1214600.000000 0 0 1
-32.486465 4.140514 -22.002459 39.454055 -0.126770 2.162376 0.073879 -0.003460 414794.000000 0 0 1
-30.996665 4.609714 -21.916559 38.241055 -0.147634 2.181100 0.106699 -0.013176 549925.000000 0 0 1
-30.085705 3.627214 -21.577359 37.200655 -0.119984 2.189557 0.114246 -0.008107 438289.000000 0 0 1
-28.709745 4.024614 -21.614859 36.161431 -0.139275 2.211466 0.108202 -0.015060 816317.000000 0 0 1
-27.738545 2.927214 -21.126059 34.990082 -0.105140 2.219022 0.126040 -0.009853 34449.700000 0 0 1
-27.405595 3.218614 -19.745859 33.931181 -0.116908 2.191907 0.104766 -0.001371 297590.000000 0 0 1
-26.650195 2.212414 -19.073659 32.847102 -0.082827 2.190360 0.098717 -0.011660 -256068.000000 0 0 1
-26.094585 2.652714 -17.710259 31.648342 -0.101310 2.164694 0.093118 -0.009382 -767989.000000 0 0 1
-24.911105 3.347114 -17.880159 30.845849 -0.133562 2.189110 0.092578 -0.012626 -693636.000000 0 0 1
-24.143305 3.321114 -16.687059 29.536197 -0.136700 2.171193 0.098069 -0.021840 -239985.000000 0 0 1
-23.086405 4.419314 -16.617859 28.786554 -0.189137 2.186188 0.106235 -0.029476 -390555.000000 0 0 1
-21.928205 4.056514 -17.323159 28.238154 -0.182923 2.231239 0.120609 -0.036908 -396291.000000 0 0 1
-20.866505 4.945614 -17.074459 27.411809 -0.232718 2.243224 0.113237 -0.036454 -22508.900000 0 0 1
-19.533705 4.348114 -17.593959 26.646184 -0.219025 2.291989 0.154887 -0.041279 -168297.000000 0 0 1
-19.147705 3.144314 -17.022559 25.812571 -0.162761 2.290907 0.187496 -0.037165 -67861.000000 0 0 1
-18.030305 2.502514 -17.591859 25.314580 -0.137914 2.339119 0.144863 -0.034931 -400776.000000 0 0 1
-17.880305 1.085914 -16.941259 24.655441 -0.060658 2.328315 0.159321 -0.033044 632351.000000 0 1 0
-18.873805 0.096714 -17.304259 25.606000 -0.005124 2.312831 0.130644 -0.032525 882425.000000 0 0 1
-20.160605 0.329814 -16.743359 26.208755 -0.016358 2.263794 0.133725 -0.028891 -811933.000000 0 0 1
-21.231705 -0.490586 -17.383859 27.444936 0.023102 2.256747 0.115277 -0.027615 -876628.000000 0 0 1
-21.141305 -1.867386 -16.942959 27.157057 0.088100 2.244504 0.112356 -0.034198 206839.000000 0 0 1
-22.132905 -2.639786 -17.566659 28.379948 0.118709 2.238241 0.094578 -0.026960 -226228.000000 0 0 1
-22.390105 -3.934786 -16.740459 28.231938 0.173961 2.205528 0.113676 -0.028506 -235613.000000 0 0 1
-22.932705 -3.549586 -15.500759 27.906667 0.153564 2.159700 0.108149 -0.027734 373346.000000 0 0 1
-23.501705 -4.580986 -14.686859 28.089489 0.192508 2.120999 0.121940 -0.037796 98565.600000 0 0 1
-23.443705 -4.252886 -13.213559 27.245045 0.179457 2.077147 0.122157 -0.034149 -395411.000000 0 0 1
-24.218205 -3.177086 -12.797859 27.575361 0.130441 2.053420 0.088227 -0.032657 136421.000000 0 0 1
-24.216005 -2.932286 -11.367559 26.911607 0.120502 2.006892 0.103711 -0.048184 -209899.000000 0 0 1
-24.986205 -1.605386 -11.106959 27.390733 0.064163 1.988323 0.131307 -0.046665 -169231.000000 0 0 1
-25.407635 -1.388886 -9.776459 27.259055 0.054610 1.937618 0.129640 -0.051872 903327.000000 0 0 1
-26.033465 -0.065386 -9.720159 27.788974 0.002512 1.928138 0.131793 -0.049363 -23719.000000 0 0 1
-26.351565 0.328514 -8.326659 27.637767 -0.012466 1.876829 0.148687 -0.040409 141157.000000 0 0 1
-25.186835 0.525714 -7.517759 26.290107 -0.020870 1.860798 0.130395 -0.035896 811700.000000 0 0 1
-25.573665 0.941214 -6.224959 26.337205 -0.036787 1.809410 0.136397 -0.033988 -496912.000000 0 0 1
-24.385305 1.410414 -5.413759 25.018816 -0.057774 1.788909 0.097721 -0.021240 -593709.000000 0 0 1
-24.174405 2.804814 -5.478559 24.945610 -0.115508 1.792221 0.125060 -0.021812 1014820.000000 0 1 0
-22.781405 3.028914 -5.228859 23.569211 -0.132180 1.794509 0.107370 -0.005511 409303.000000 0 1 0
-22.316105 4.480014 -5.206659 23.349269 -0.198119 1.795677 0.117400 -0.018352 -377056.000000 0 1 0
-22.870105 5.278814 -4.172559 23.839418 -0.226844 1.746730 0.126021 -0.021076 723866.000000 0 1 0
-22.481705 6.633014 -4.374959 23.844585 -0.286901 1.755320 0.120200 -0.023680 -655961.000000 0 1 0
-23.044605 7.667114 -3.378959 24.520519 -0.321187 1.709037 0.121389 -0.016290 -491063.000000 0 1 0
-22.403305 7.715914 -2.116459 23.789132 -0.331686 1.659882 0.107414 -0.019305 1089240.000000 0 1 0
-20.994505 7.964914 -2.125759 22.554999 -0.362606 1.665184 0.118323 -0.019977 94858.300000 0 1 0
-20.530205 9.405214 -2.393359 22.708491 -0.429583 1.676387 0.105393 -0.018175 -646292.000000 0 1 0
-20.443205 9.816614 -3.767359 22.988770 -0.447674 1.735417 0.093987 -0.016170 630205.000000 0 1 0
-19.775605 11.064414 -3.912959 22.995806 -0.510106 1.741788 0.087526 -0.011383 -88147.700000 0 1 0
-19.665005 11.528014 -5.359659 23.416522 -0.530225 1.801727 0.084618 -0.014170 -41156.700000 0 1 0
-18.717105 10.801114 -6.115359 22.458667 -0.523390 1.846573 0.070909 -0.018238 169865.000000 0 1 0
-18.734805 11.294714 -7.477159 23.118638 -0.542530 1.900144 0.073605 -0.015188 241045.000000 0 1 0
-17.443305 10.911414 -8.259459 22.170848 -0.558985 1.952538 0.060286 -0.010750 87322.600000 0 1 0
-17.322805 9.572114 -8.713159 21.624618 -0.504816 1.985510 0.058190 -0.009958 417507.000000 0 1 0
-18.286505 9.043214 -9.630559 22.559336 -0.459262 2.011857 0.080802 -0.009324 73116.600000 0 1 0
-18.337705 9.725814 -11.046359 23.513505 -0.487649 2.059847 0.094744 -0.014126 786153.000000 0 1 0
-17.100505 9.471914 -11.737259 22.801484 -0.505830 2.111522 0.084626 -0.014552 661587.000000 0 1 0
-17.217105 10.152414 -12.939759 23.810451 -0.532789 2.145336 0.096939 -0.023019 89127.600000 0 1 0
-16.102305 9.833514 -13.961259 23.471237 -0.548243 2.207843 0.074671 -0.015721 15578.700000 0 1 0
-16.169505 8.573314 -14.576659 23.397299 -0.487526 2.243376 0.098175 -0.029026 -15208.900000 0 1 0
-15.689805 7.575714 -13.694259 22.160644 -0.449828 2.236934 0.076310 -0.025932 -383990.000000 0 1 0
-15.585305 6.236514 -14.389459 22.110006 -0.380639 2.279450 0.084236 -0.032212 141844.000000 0 1 0
-14.485305 6.157514 -15.293959 21.946394 -0.401944 2.341831 0.081956 -0.032087 579046.000000 0 1 0
-14.254305 4.882114 -15.844559 21.864819 -0.329979 2.381337 0.066677 -0.037134 -66258.300000 0 1 0
32.959249 -16.033086 28.245461 46.272864 -0.452750 0.914217 0.036175 -0.012341 -336410.000000 0 0 1
32.133989 -14.896386 28.446751 45.428110 -0.434082 0.894136 0.044324 -0.013252 -123574.000000 0 0 1
31.168409 -14.970686 29.468841 45.431308 -0.447777 0.864992 0.053455 -0.020140 -111061.000000 0 0 1
31.553649 -14.878786 30.958881 46.641862 -0.440621 0.844965 0.043674 -0.028725 -317759.000000 0 0 1
32.117449 -13.638786 31.317931 46.886669 -0.401577 0.839346 0.026093 -0.028177 65105.700000 0 0 1
32.396489 -13.655186 32.695736 48.010496 -0.398904 0.821652 0.010006 -0.020868 -153285.000000 0 0 1
32.587639 -12.179086 33.166462 48.065565 -0.357660 0.809272 0.037651 -0.020841 65016.200000 0 0 1
32.379299 -12.045186 -33.509679 48.129035 -0.356140 2.340951 0.015320 -0.030880 81226.900000 0 0 1
32.692759 -10.729786 -33.099629 47.744426 -0.317124 2.336809 0.045787 -0.019982 -162991.000000 0 0 1
32.239609 -10.487886 -31.645229 46.376811 -0.314513 2.321769 0.047073 -0.016559 -1005950.000000 0 0 1
30.881669 -10.385386 -31.450529 45.284318 -0.324415 2.338539 0.087560 -0.024087 -985884.000000 0 0 1
30.621549 -9.849986 -30.169049 44.100714 -0.311216 2.324158 0.067450 -0.020640 -371352.000000 0 0 1
29.308869 -10.433586 -29.645269 42.973381 -0.341999 2.332081 0.068301 -0.015273 -383061.000000 0 0 1
28.812639 -10.063686 -28.382689 41.677607 -0.336033 2.319931 0.062243 -0.016887 422234.000000 0 0 1
27.879489 -11.032586 -27.920699 40.970102 -0.376815 2.320592 0.114176 -0.017237 -631676.000000 0 0 1
27.278789 -10.813386 -26.486579 39.529741 -0.377401 2.305061 0.103400 -0.016677 421742.000000 0 0 1
26.335789 -9.708486 -26.376509 38.516862 -0.353185 2.325131 0.092110 -0.021809 815365.000000 0 0 1
25.208389 -9.584386 -27.197719 38.301948 -0.363327 2.360418 0.092317 -0.017848 52674.600000 0 0 1
24.060589 -10.633786 -27.171349 37.818930 -0.416147 2.372381 0.095431 -0.002898 -184706.000000 0 0 1
24.592089 -11.828786 -27.772089 38.935586 -0.448332 2.364967 0.095125 -0.011139 35248.100000 0 0 1
23.811289 -13.022986 -27.758339 38.821398 -0.500479 2.367459 0.102329 -0.014217 -124576.000000 0 0 1
24.498489 -14.263186 -28.353719 40.094236 -0.527233 2.356294 0.103476 -0.011690 -99762.000000 0 0 1
24.692089 -14.160786 -29.725239 41.156007 -0.520702 2.377857 0.102994 -0.020032 4899.260000 0 0 1
25.542289 -15.194686 -30.168419 42.348795 -0.536649 2.363679 0.094888 -0.010859 -237752.000000 0 0 1
25.796789 -15.130886 -31.676939 43.564279 -0.530465 2.384930 0.113366 -0.024117 -536726.000000 0 0 1
24.726289 -15.573986 -32.458519 43.674865 -0.562083 2.408615 0.124590 -0.028659 -353120.000000 0 0 1
24.969789 -15.685286 -33.864669 44.903611 -0.560876 2.425176 0.134432 -0.031521 -9565.060000 0 0 1
25.076589 -14.345686 33.417640 44.174344 -0.519633 0.712860 0.102300 -0.042667 191278.000000 0 0 1
23.859989 -13.632286 33.498817 43.327924 -0.519083 0.687009 0.128101 -0.035031 -20480.400000 0 0 1
23.537789 -12.884086 32.331981 42.016475 -0.500829 0.692727 0.102159 -0.032701 -1199500.000000 0 0 1
22.735289 -11.581686 32.529645 41.342552 -0.471151 0.665137 0.116328 -0.031509 732526.000000 0 0 1
21.318889 -11.789086 32.463851 40.587919 -0.505134 0.643767 0.110271 -0.026761 587024.000000 0 0 1
20.797889 -12.199386 31.209141 39.438403 -0.530485 0.657801 0.103697 -0.029058 -2352710.000000 0 0 1
19.330189 -12.440986 31.422741 38.933571 -0.571866 0.631596 0.112821 -0.027678 -1063630.000000 0 0 1
18.520289 -11.298386 31.667581 38.386069 -0.547780 0.600637 0.097712 -0.023922 -540446.000000 0 0 1
17.498789 -11.662686 32.540047 38.743780 -0.587877 0.573738 0.069352 -0.016822 -283155.000000 0 0 1
16.555389 -10.432286 32.799470 38.193176 -0.562290 0.537916 0.067671 -0.011279 -1058650.000000 0 0 1
15.734489 -10.150386 31.678601 36.798617 -0.572926 0.533831 0.081548 -0.015620 94747.100000 0 0 1
14.924989 -8.993786 31.911491 36.359135 -0.542328 0.499808 0.079207 -0.014881 94074.200000 0 0 1
13.841589 -9.128386 32.971977 36.906209 -0.583017 0.465941 0.080582 -0.017424 -2104410.000000 0 0 1
12.831189 -10.040686 32.639641 36.480144 -0.663992 0.462985 0.078648 -0.013084 -419907.000000 0 0 1
11.693289 -9.924186 33.442423 36.791549 -0.703743 0.429989 0.073577 -0.013434 405827.000000 0 0 1
10.572389 -9.029686 32.764013 35.592010 -0.706859 0.401325 0.069835 -0.012635 -89827.600000 0 0 1
10.860689 -7.631486 32.802477 35.386390 -0.612516 0.384516 0.078008 -0.013402 889311.000000 0 0 1
9.758389 -6.839686 32.320020 34.446932 -0.611332 0.353244 0.072637 -0.011303 683128.000000 0 0 1
10.200389 -5.337186 32.318499 34.307708 -0.482061 0.342200 0.073519 -0.011487 168928.000000 0 0 1
10.171989 -4.611186 33.576178 35.384914 -0.425613 0.321115 0.067041 -0.019262 35604.500000 0 0 1
10.756589 -3.369686 33.375927 35.227993 -0.303584 0.325702 0.059097 -0.012640 -269359.000000 0 0 1
10.435089 -2.376186 -33.553259 35.218724 -0.223893 2.832832 0.056608 -0.016243 -588089.000000 0 0 1
9.086589 -2.041886 -33.480979 34.752141 -0.221042 2.870288 0.045003 -0.010493 -717115.000000 0 0 1
8.855789 -1.253886 -32.351849 33.565448 -0.140654 2.871866 0.050663 -0.011833 766369.000000 0 0 1
7.318989 -1.016086 -32.119539 32.958531 -0.137947 2.915474 0.055653 -0.007871 761846.000000 0 0 1
6.709489 -0.113786 -33.033379 33.708074 -0.016957 2.941178 0.070089 -0.010153 -938226.000000 0 0 1
5.478289 0.255714 -32.532269 32.991295 0.046644 2.974584 0.065216 -0.004810 -767318.000000 0 0 1
4.718089 1.338814 -33.339409 33.698204 0.276494 2.995536 0.078318 -0.009170 -74696.300000 0 0 1
5.290489 2.634114 -33.334719 33.854561 0.461963 2.966124 0.072166 -0.013363 -89696.800000 0 0 1
4.703589 3.434314 33.705684 34.205137 0.630674 0.171099 0.079606 -0.015409 257908.000000 0 0 1
5.480489 4.764214 33.739308 34.511946 0.715595 0.211998 0.093907 -0.021878 221113.000000 0 0 1
5.322089 5.539714 32.604875 33.497626 0.805431 0.231389 0.114524 -0.046534 -188440.000000 0 0 1
6.085589 6.706314 32.694469 33.925467 0.833885 0.270211 0.123125 -0.045587 -267462.000000 0 0 1
5.589989 7.825414 31.742891 33.167698 0.950512 0.294173 0.135053 -0.046570 727887.000000 0 0 1
4.312489 8.386614 32.147130 33.501803 1.095845 0.285347 0.141295 -0.042179 1008020.000000 0 0 1
3.958389 9.595114 31.456821 33.125015 1.179525 0.318713 0.145810 -0.052370 146404.000000 0 0 1
3.509989 9.372914 29.959121 31.586714 1.212480 0.322417 0.137697 -0.048093 -174070.000000 0 0 1
2.334389 8.618814 29.785421 31.095090 1.306294 0.291264 0.123281 -0.049025 -383768.000000 0 0 1
1.958689 8.467314 28.454881 29.752515 1.343471 0.296429 0.090890 -0.030418 -98986.300000 0 0 1
0.754789 7.504214 28.375911 29.361118 1.470552 0.259785 0.092368 -0.031972 461125.000000 0 0 1
-0.478811 8.114714 28.756761 29.883593 -1.511859 0.275488 0.092133 -0.021211 -573219.000000 0 0 1
-1.369611 8.022914 27.703271 28.874110 -1.401714 0.285751 0.083389 -0.025121 834889.000000 0 0 1
-2.866411 8.304614 28.160101 29.498716 -1.238441 0.302411 0.078110 -0.021128 1106750.000000 0 0 1
-3.085611 9.665214 28.453241 30.208017 -1.261775 0.342523 0.076787 -0.017718 -139347.000000 0 0 1
-4.469911 9.775514 28.724541 30.669856 -1.141925 0.358077 0.062133 -0.003567 17213.900000 0 0 1
-4.786311 11.078914 29.513951 31.886116 -1.162995 0.388165 0.056957 -0.000954 -53137.800000 0 0 1
-4.749111 12.355714 28.840301 31.732959 -1.203840 0.430293 0.054473 -0.006983 155443.000000 0 0 1
-5.922211 12.590614 28.082311 31.340267 -1.131135 0.460015 0.038752 -0.011143 184153.000000 0 0 1
-6.034511 14.090114 27.724231 31.679325 -1.166151 0.505046 0.022774 -0.005804 207415.000000 0 0 1
-5.242511 14.512014 26.611451 30.761206 -1.224132 0.525451 0.031825 0.001816 152169.000000 0 0 1
-5.640511 15.808714 26.148211 31.071848 -1.228079 0.570668 0.036452 0.002210 -400830.000000 0 0 1
-4.532511 16.463314 25.368251 30.579937 -1.302142 0.592456 0.063735 0.001524 -433334.000000 0 0 1
-4.395911 15.896114 24.077111 29.184204 -1.300999 0.600585 0.067284 -0.005489 -22730.500000 0 0 1
-3.673511 16.826414 23.266921 28.947755 -1.355851 0.637215 0.093765 -0.003765 76683.600000 0 0 1
-3.295611 16.356514 21.816171 27.465286 -1.371972 0.652912 0.077562 -0.006344 -373809.000000 0 0 1
-2.398511 15.310314 21.729671 26.689646 -1.415400 0.619513 0.066345 -0.016020 -599665.000000 0 0 1
-2.093511 15.065214 20.413071 25.456570 -1.432717 0.640364 0.061626 -0.022057 -138378.000000 0 0 1
-1.148611 13.887814 20.289171 24.613841 -1.488278 0.601833 0.063996 -0.022198 -275364.000000 0 1 0
-1.847211 12.663514 20.376571 24.062033 -1.425949 0.560790 0.065471 -0.016302 134847.000000 0 1 0
-1.139911 11.659614 19.666571 22.891484 -1.473340 0.537245 0.054246 -0.015055 -89462.700000 0 1 0
-2.029411 10.413414 19.321371 22.042529 -1.378324 0.502150 0.043669 -0.014897 -105226.000000 0 1 0
-2.234311 9.544814 20.436871 22.666304 -1.340850 0.447247 0.056357 -0.025403 363609.000000 0 1 0
-3.275811 9.914814 21.349571 23.766335 -1.251692 0.454885 0.074192 -0.023401 989020.000000 0 1 0
-4.784311 9.826014 20.908371 23.592375 -1.117681 0.481645 0.061608 -0.019363 504976.000000 0 1 0
-5.361511 8.587814 21.174871 23.470652 -1.012689 0.445988 0.043204 -0.015424 -531353.000000 0 1 0
-6.760911 8.683114 21.116071 23.811654 -0.909224 0.480431 0.038059 -0.009412 108604.000000 0 1 0
-7.462511 7.265514 21.259871 23.674013 -0.772023 0.455535 0.034163 -0.002430 23.087900 0 1 0
-7.377311 6.615714 22.517071 24.601034 -0.731025 0.414570 0.031651 -0.000284 -133063.000000 0 1 0
-7.977011 5.367014 22.574971 24.537051 -0.592244 0.402624 0.025785 0.000119 -56289.000000 0 1 0
-8.166211 4.806014 24.000251 25.803039 -0.531939 0.376022 0.023164 -0.002453 228609.000000 0 0 1
-9.115511 5.476814 24.829251 27.010734 -0.541025 0.404660 -0.000690 -0.003017 302990.000000 0 0 1
-9.571011 4.741714 25.921331 28.035754 -0.459981 0.390861 -0.011893 0.002843 -68324.500000 0 0 1
-10.415211 5.587214 26.908421 29.389738 -0.492379 0.413868 -0.000303 0.001766 -468926.000000 0 0 1
-9.684211 6.437014 27.689591 30.032192 -0.586634 0.397590 0.018959 -0.012096 -344391.000000 0 0 1
-10.552411 7.152814 28.546361 31.263571 -0.595696 0.420005 0.023953 -0.014954 -22447.100000 0 0 1
-9.868211 8.251214 29.369621 32.063044 -0.696393 0.412813 0.040793 -0.013177 -459980.000000 0 0 1
-8.830811 7.657214 30.081851 32.272805 -0.714339 0.370597 0.041130 -0.017977 -537258.000000 0 0 1
-8.171711 8.646414 30.843601 33.058510 -0.813616 0.368134 0.048240 -0.020132 -266923.000000 0 0 1
-7.113611 8.023014 31.737441 33.499812 -0.845406 0.325810 0.069541 -0.019847 43855.800000 0 0 1
-5.846311 7.688914 31.188521 32.650002 -0.920700 0.300333 0.066461 -0.024567 -7295.810000 0 0 1
-5.021411 7.223814 32.237126 33.416019 -0.963354 0.266416 0.080940 -0.021834 1310880.000000 0 0 1
-3.461411 7.382514 31.996051 33.018634 -1.132365 0.249524 0.071709 -0.022095 1415990.000000 0 0 1
-2.981711 8.699314 32.215293 33.502146 -1.240593 0.278063 0.068622 -0.027556 -1470560.000000 0 0 1
-1.666311 8.815114 31.856231 33.095351 -1.383972 0.274507 0.087117 -0.027799 -1090130.000000 0 0 1
-1.372411 10.259514 31.473891 33.132265 -1.437816 0.317731 0.079237 -0.023419 -45276.900000 0 0 1
-1.682211 11.220814 32.475202 34.400222 -1.421986 0.336123 0.087721 -0.035741 54650.600000 0 0 1
-1.863211 12.472514 31.858111 34.263310 -1.422508 0.376920 0.080109 -0.030032 -153222.000000 0 0 1
-2.021911 13.672614 32.866747 35.654615 -1.423980 0.398075 0.080791 -0.032715 -1200290.000000 0 0 1
-0.858011 14.073014 33.454849 36.304446 -1.509903 0.398850 0.134211 -0.039468 -1385760.000000 0 0 1
-1.004411 15.031314 -33.571869 36.797006 -1.504074 2.719792 0.129893 -0.046186 245876.000000 0 0 1
0.381589 15.262114 -32.910449 36.279131 1.545799 2.707247 0.117644 -0.047668 204084.000000 0 0 1
1.277889 15.911414 -33.775669 37.357755 1.490656 2.700098 0.131314 -0.051521 -134708.000000 0 0 1
2.446389 16.349414 -33.124009 37.020104 1.422267 2.678684 0.146235 -0.052013 591994.000000 0 0 1
3.502889 17.013114 33.976633 38.159244 1.367740 0.472594 0.146283 -0.041732 613957.000000 0 0 1
3.289489 18.362414 -33.868779 38.666435 1.393534 2.638140 0.116959 -0.038718 279499.000000 0 0 1
4.402489 19.123314 33.732599 39.025265 1.344523 0.526883 0.089726 -0.017140 283416.000000 0 0 1
4.247289 20.650614 33.784030 39.822707 1.367951 0.557915 0.093366 -0.034178 -387997.000000 0 0 1
4.281289 21.210514 -33.017199 39.475952 1.371625 2.561456 0.123258 -0.057894 37230.600000 0 0 1
3.883689 22.572614 -33.079529 40.235074 1.400411 2.535985 0.108330 -0.046246 135450.000000 0 0 1
3.426089 23.295814 -31.796839 39.566046 1.424774 2.504182 0.122428 -0.046243 23160.300000 0 0 1
3.183589 24.678714 -31.952169 40.498337 1.442503 2.479935 0.136969 -0.049858 132551.000000 0 0 1
2.898789 25.208914 -30.645219 39.787206 1.456309 2.449995 0.146158 -0.049237 -100627.000000 0 0 1
2.599189 26.694114 -30.553659 40.655351 1.473733 2.421172 0.154262 -0.051532 -362550.000000 0 0 1
3.647089 27.621314 -30.567549 41.359561 1.439517 2.402483 0.141360 -0.045706 -217881.000000 0 0 1
3.268389 28.885514 -30.086459 41.835993 1.458126 2.373378 0.131448 -0.044136 -745137.000000 0 0 1
4.485389 29.787214 -29.979189 42.498807 1.421338 2.353801 0.147296 -0.055466 -277004.000000 0 0 1
5.280089 29.449114 -28.853959 41.565377 1.393386 2.338080 0.136605 -0.064782 -15711.700000 0 0 1
6.136789 30.509314 -28.502599 42.200433 1.372300 2.312317 0.122781 -0.064493 -867738.000000 0 0 1
7.158489 30.310114 -27.376719 41.466031 1.338871 2.291908 0.128285 -0.063214 269989.000000 0 0 1
8.398689 29.813314 -27.879269 41.672837 1.296203 2.303663 0.128703 -0.053626 427873.000000 0 0 1
9.508789 30.627914 -28.165179 42.682121 1.269770 2.291458 0.127368 -0.060133 -124144.000000 0 0 1
9.377589 31.882714 -29.068219 44.152101 1.284736 2.289441 0.134028 -0.068604 -1095070.000000 0 0 1
8.630389 32.923214 -28.401509 44.329080 1.314428 2.266202 0.121749 -0.069487 488231.000000 0 0 1
8.390289 -34.044582 -29.262069 45.669456 -1.329162 2.266253 0.103618 -0.063695 12702.600000 0 0 1
7.177589 33.853314 -30.215429 45.940579 1.361870 2.288567 0.082809 -0.045128 -126247.000000 0 0 1
7.449489 33.090614 -31.394179 46.217725 1.349364 2.317560 0.074530 -0.041127 -255865.000000 0 0 1
6.222189 32.568514 -31.780899 45.928741 1.382022 2.334998 0.069430 -0.030555 -435443.000000 0 0 1
6.419989 31.723714 -33.073509 46.275990 1.371121 2.366993 0.073533 -0.041814 152987.000000 0 0 1
6.609489 32.587314 33.854221 47.452362 1.370687 0.776407 0.064172 -0.027503 109894.000000 0 0 1
6.764189 31.864514 32.681863 46.143317 1.361622 0.783754 0.053131 -0.014932 -560806.000000 0 0 1
6.184389 32.650414 31.489621 45.780918 1.383602 0.812297 0.045620 -0.006274 -8082.170000 0 0 1
6.808989 33.891814 31.178791 46.552491 1.372532 0.836917 0.047634 -0.006739 212969.000000 0 0 1
6.103689 -33.470782 30.172071 45.474192 -1.390420 0.845311 0.032526 -0.006326 239508.000000 0 0 1
18.379595 -21.787586 29.337471 40.904713 -0.870041 0.770999 0.086366 -0.006373 -782229.000000 0 0 1
17.398895 -20.830186 29.654611 40.199678 -0.874914 0.741165 0.077426 -0.008756 357158.000000 0 0 1
16.074895 -21.347686 29.653631 39.918213 -0.925375 0.733464 0.070659 -0.005439 271354.000000 0 0 1
15.696395 -21.829086 31.044181 41.068564 -0.947393 0.713752 0.069330 -0.021020 -631241.000000 0 0 1
16.441695 -22.972286 31.438341 42.266115 -0.949599 0.732030 0.085654 -0.022374 284586.000000 0 0 1
16.067295 -23.314886 32.774195 43.311542 -0.967394 0.712533 0.112180 -0.026533 221314.000000 0 0 1
16.972695 -24.380286 33.471921 44.753102 -0.962649 0.725867 0.114228 -0.029074 -97017.500000 0 0 1
16.797395 -25.743416 33.180896 45.231049 -0.992671 0.747212 0.127220 -0.034724 -84786.100000 0 0 1
17.575295 -26.578016 -34.027764 46.617278 -0.986538 2.389029 0.126529 -0.035072 -102400.000000 0 0 1
17.245395 -28.039666 33.931033 47.275168 -1.019394 0.770253 0.102172 -0.019330 88953.600000 0 0 1
17.713895 -28.698876 32.746221 47.007686 -1.017802 0.800129 0.086349 -0.019822 615207.000000 0 0 1
16.980395 -29.908276 32.512094 47.327318 -1.054428 0.813495 0.100744 -0.029776 365022.000000 0 0 1
17.593295 -30.472056 31.198411 47.025642 -1.047192 0.845397 0.081620 -0.024592 342120.000000 0 0 1
18.799895 -31.171656 31.453721 48.108676 -1.028094 0.858193 0.077718 -0.029463 133973.000000 0 0 1
19.477795 -31.400946 30.208491 47.727946 -1.015589 0.885463 0.049911 -0.025711 -87902.800000 0 0 1
20.819595 -32.164186 30.349441 48.878205 -0.996328 0.900881 0.035180 -0.026440 -82081.300000 0 0 1
21.879495 -31.327816 30.756671 49.052188 -0.961142 0.893075 0.033655 -0.025934 310265.000000 0 0 1
23.053795 -32.103436 31.053271 50.263443 -0.948019 0.904841 0.048696 -0.033297 -374365.000000 0 0 1
24.157295 -31.150716 31.407971 50.402407 -0.911176 0.898040 0.049296 -0.038398 -1163590.000000 0 0 1
24.921995 -30.781886 30.301001 49.867634 -0.890210 0.917725 0.042042 -0.028189 -294300.000000 0 0 1
25.681495 -29.609596 30.556271 49.698622 -0.856323 0.908624 0.035420 -0.022985 359779.000000 0 0 1
26.920095 -29.506706 29.624671 49.728848 -0.831206 0.932630 0.042633 -0.019035 190366.000000 0 0 1
27.986695 -30.380886 29.924321 51.007041 -0.826394 0.943855 0.046187 -0.014867 314416.000000 0 0 1
29.106495 -30.115266 29.071691 50.983139 -0.802430 0.964021 0.044024 -0.033906 383946.000000 0 0 1
30.344295 -30.978116 29.321911 52.346865 -0.795734 0.976234 0.035131 -0.019530 -59163.000000 0 0 1
30.018295 -32.347146 29.018581 52.815849 -0.822723 0.989115 0.025490 -0.023003 4629.940000 0 0 1
31.066595 -33.222196 29.322881 54.117270 -0.818916 0.998172 0.039437 -0.020052 -583796.000000 0 0 1
30.425095 33.548838 29.845911 54.240108 0.834188 0.988126 0.033599 -0.014616 -355355.000000 0 0 1
29.806595 33.585835 31.091431 54.617932 0.844944 0.965199 0.043356 -0.013895 1182370.000000 0 0 1
28.583895 -33.732266 31.245871 54.140643 -0.867828 0.955594 0.029706 -0.006831 1295780.000000 0 0 1
27.326495 33.975179 30.390491 53.147268 0.893434 0.962078 0.036578 -0.012215 60233.700000 0 0 1
26.866395 32.637849 30.725121 52.259596 0.882088 0.942296 0.029742 -0.011915 -1441310.000000 0 0 1
25.506295 32.584555 30.595451 51.462665 0.906649 0.934131 0.031665 -0.016332 -977127.000000 0 0 1
24.939095 31.121151 30.608011 50.272605 0.895230 0.916198 0.034426 -0.018831 107947.000000 0 0 1
25.033095 30.448291 29.397441 49.172795 0.882694 0.929993 0.026394 -0.017517 175584.000000 0 0 1
24.349995 29.201211 29.444431 48.089578 0.875742 0.911851 0.067022 -0.034468 -234280.000000 0 0 1
23.791995 28.732231 28.101111 46.704096 0.879179 0.925188 0.063750 -0.032240 -469447.000000 0 0 1
22.713395 29.454201 27.573521 46.300619 0.913901 0.932868 0.079255 -0.041074 -312595.000000 0 0 1
22.249895 28.909501 26.367191 45.011619 0.914844 0.944946 0.073674 -0.030329 766939.000000 0 0 1
20.792595 29.398241 26.042851 44.438932 0.955206 0.944637 0.098471 -0.025140 687405.000000 0 0 1
20.854395 30.811271 25.838221 45.297394 0.975782 0.963788 0.087225 -0.027223 282376.000000 0 0 1
19.643795 31.292321 25.252921 44.752632 1.010221 0.971238 0.087410 -0.030145 -155225.000000 0 0 1
19.647295 32.691886 24.604871 45.389154 1.029654 0.997878 0.099099 -0.029884 -629366.000000 0 0 1
20.352795 32.767503 23.395801 45.114399 1.014987 1.025597 0.099907 -0.023577 -419804.000000 0 0 1
21.561095 33.430838 23.614961 46.261951 0.997982 1.035075 0.084680 -0.011574 -566471.000000 0 0 1
22.260495 33.777433 22.266371 46.176140 0.988096 1.067626 0.092258 -0.017969 -35388.100000 0 0 1
21.705695 -33.182776 21.611971 45.158732 -0.991526 1.071762 0.090156 -0.011573 421193.000000 0 0 1
22.358695 -32.998216 20.387071 44.770818 -0.975281 1.098014 0.108007 -0.011759 -224834.000000 0 0 1
21.716795 -31.863076 19.620671 43.264830 -0.972549 1.100106 0.086667 -0.008616 -354843.000000 0 0 1
21.953495 -30.594056 20.171271 42.718056 -0.948373 1.079017 0.083645 -0.005255 291747.000000 0 0 1
21.390895 -29.458316 19.492071 41.295321 -0.942741 1.079220 0.081022 -0.006800 -253056.000000 0 0 1
22.164295 -28.952146 18.272371 40.784338 -0.917418 1.106242 0.072028 -0.004028 -272490.000000 0 0 1
22.067595 -29.748316 17.124171 40.806596 -0.932558 1.137745 0.061799 -0.007220 -51284.600000 0 0 1
22.876595 -29.208446 16.125971 40.453910 -0.906372 1.160778 0.046801 -0.009518 -456975.000000 0 0 1
22.665495 -29.645076 14.652371 40.090487 -0.918041 1.196645 0.030850 -0.016009 -273461.000000 0 0 1
22.990895 -30.982376 14.403771 41.182004 -0.932394 1.213483 0.069143 -0.012372 60339.600000 0 0 1
22.898695 -31.396546 13.012671 40.980762 -0.940651 1.247672 0.054965 -0.015472 236282.000000 0 0 1
21.505395 -31.530046 12.305871 40.100626 -0.972212 1.258889 0.054645 -0.016988 432822.000000 0 0 1
20.859695 -32.768556 12.715171 40.872737 -1.003916 1.254455 0.057816 -0.015641 1016790.000000 0 0 1
19.599095 -33.008246 12.046571 40.234173 -1.034975 1.266721 0.071885 -0.009518 393614.000000 0 0 1
18.651295 -33.819556 12.897771 40.718370 -1.066807 1.248489 0.083024 -0.000619 -529149.000000 0 0 1
18.188095 -33.067436 14.022071 40.260161 -1.067930 1.215054 0.079835 -0.001976 362503.000000 0 0 1
18.773895 -33.462566 15.271571 41.296771 -1.059515 1.192002 0.067877 -0.001760 -730345.000000 0 0 1
18.579695 -32.363776 16.304571 40.724170 -1.049647 1.158880 0.068725 0.000114 -106745.000000 0 0 1
17.270495 -32.006876 16.682971 40.012893 -1.075983 1.140720 0.089743 -0.000918 -426324.000000 0 0 1
16.405195 -32.946846 17.235871 40.641116 -1.108807 1.132829 0.085665 -0.000163 -983705.000000 0 0 1
16.759895 -33.736646 18.524571 41.978745 -1.109723 1.113767 0.072411 -0.006618 -142336.000000 0 0 1
17.701295 33.300659 18.300071 41.918520 1.082221 1.119022 0.071018 -0.000499 461140.000000 0 0 1
18.151295 32.723702 19.553871 42.221607 1.064365 1.089279 0.059623 -0.003364 -33710.800000 0 0 1
18.931295 31.468641 19.283871 41.479356 1.029207 1.087271 0.077068 -0.005430 -7156.420000 0 0 1
18.134095 30.369651 18.866171 40.088571 1.032503 1.080812 0.055870 -0.008980 281091.000000 0 0 1
19.011295 29.327591 18.498471 39.544031 0.995660 1.084003 0.055182 -0.016309 611309.000000 0 0 1
18.238795 27.941461 18.454071 38.130455 0.992490 1.065608 0.059812 -0.018179 307374.000000 0 0 1
18.110095 27.305511 19.691571 38.227274 0.985170 1.029651 0.063538 -0.023786 -34647.500000 0 0 1
17.666895 25.997531 19.380471 36.926866 0.973920 1.018276 0.057860 -0.024569 -551996.000000 0 0 1
17.269895 25.111281 20.565871 36.766571 0.968350 0.977179 0.066072 -0.022873 81069.800000 0 0 1
16.081695 25.509711 21.215471 36.870889 1.008313 0.957704 0.072172 -0.019679 309648.000000 0 0 1
15.011495 24.593331 21.036971 35.675356 1.022773 0.940136 0.077597 -0.022311 419633.000000 0 0 1
13.718595 24.795831 21.854471 35.786184 1.065452 0.913857 0.081065 -0.030693 279960.000000 0 0 1
13.082295 26.032191 21.518671 36.219810 1.105116 0.934633 0.086462 -0.027919 -435271.000000 0 0 1
11.758895 26.130441 21.938471 36.088337 1.147936 0.917370 0.072625 -0.029283 -582316.000000 0 0 1
10.975195 27.323021 21.430471 36.417955 1.188840 0.941645 0.059943 -0.029237 -160162.000000 0 0 1
11.510995 28.571141 21.872371 37.778482 1.187802 0.953339 0.060864 -0.030003 74966.700000 0 0 1
11.096695 29.492671 20.884171 37.803477 1.210928 0.985507 0.060559 -0.033423 -17431.100000 0 0 1
11.587795 30.964581 20.935271 39.132695 1.212703 1.006310 0.058813 -0.030903 -223270.000000 0 0 1
11.074695 31.838501 21.924371 40.212151 1.236047 0.994148 0.057218 -0.033275 -370544.000000 0 0 1
11.418695 31.553811 23.281581 40.841910 1.223577 0.964240 0.075264 -0.026239 -409585.000000 0 0 1
10.724895 32.453533 24.217871 41.889861 1.251626 0.954359 0.057030 -0.025818 -229145.000000 0 0 1
9.340995 32.171667 24.311141 41.392052 1.288217 0.943030 0.034386 -0.028871 -315371.000000 0 0 1
8.963795 32.854291 25.466581 42.524120 1.304444 0.928702 0.041333 -0.021120 -1410100.000000 0 0 1
7.642895 32.429732 26.093741 42.320027 1.339344 0.906403 0.075282 -0.032253 -893883.000000 0 0 1
6.540995 33.112267 25.531841 42.321174 1.375767 0.923179 0.065364 -0.027728 211490.000000 0 0 1
5.966995 32.591159 24.339071 41.111787 1.389716 0.937231 0.060883 -0.039002 -498397.000000 0 0 1
5.120695 31.333211 24.403941 40.044275 1.408801 0.915462 0.056763 -0.034347 -847713.000000 0 0 1
5.897995 30.243981 24.701911 39.492647 1.378200 0.895048 0.037624 -0.020337 -625021.000000 0 0 1
5.203495 29.054831 24.451991 38.329616 1.393583 0.878976 0.044724 -0.019328 -990356.000000 0 0 1
6.054495 27.775171 24.802751 37.726562 1.356171 0.853387 0.043126 -0.020551 -240855.000000 0 0 1
7.132095 27.447901 23.984211 37.141573 1.316577 0.868790 0.046057 -0.024331 -332184.000000 0 0 1
8.179595 28.375871 24.019581 38.066207 1.290146 0.887961 0.066188 -0.029797 -1164160.000000 0 0 1
9.374695 28.043061 24.958131 38.693753 1.248179 0.869751 0.053742 -0.029494 -740025.000000 0 0 1
9.111095 27.979681 26.350651 39.499765 1.255992 0.840475 0.053840 -0.032008 687970.000000 0 0 1
10.275195 27.803121 27.203941 40.232420 1.216795 0.828245 0.076520 -0.027157 284253.000000 0 0 1
11.288995 28.921701 27.244801 41.305997 1.198654 0.850530 0.077809 -0.034991 -937647.000000 0 0 1
10.846795 30.153591 27.751131 42.391241 1.225490 0.857086 0.070234 -0.040551 8142.050000 0 0 1
11.881095 31.111781 27.768781 43.361371 1.206004 0.875773 0.059685 -0.027411 99053.600000 0 0 1
11.391195 32.339625 28.597241 44.647652 1.232131 0.875635 0.048615 -0.024817 13484.300000 0 0 1
11.314095 32.185986 30.001761 45.431840 1.232766 0.849487 0.064398 -0.036255 -441008.000000 0 0 1
10.076995 31.868971 30.564411 45.291946 1.264543 0.830061 0.073152 -0.037476 -571285.000000 0 0 1
10.210495 31.612531 32.076016 46.178752 1.258385 0.802925 0.100033 -0.036162 -476742.000000 0 0 1
10.795295 30.401871 32.441843 45.752435 1.229597 0.782613 0.078400 -0.039944 130589.000000 0 0 1
11.047395 30.327761 33.874911 46.790251 1.221469 0.761251 0.093770 -0.031133 -51448.100000 0 0 1
11.205095 28.868621 -33.699339 45.766766 1.200555 2.398423 0.085190 -0.029976 -560932.000000 0 0 1
12.349295 28.189381 33.965198 45.834277 1.157896 0.736173 0.094462 -0.031116 -517705.000000 0 0 1
12.246295 26.848111 -33.668099 44.769785 1.142854 2.421929 0.092337 -0.027581 496413.000000 0 0 1
13.431095 25.941621 33.878055 44.733484 1.093055 0.711580 0.106704 -0.029547 464660.000000 0 0 1
13.387095 24.571181 -33.930509 43.979958 1.071932 2.451991 0.072032 -0.019988 -516789.000000 0 0 1
13.600295 24.220411 -32.579989 42.814156 1.059150 2.435592 0.066250 -0.019861 -360339.000000 0 0 1
13.596795 22.654911 -32.311709 41.739242 1.030252 2.456140 0.057927 -0.036509 -21933.500000 0 0 1
14.757995 21.987511 -32.797379 42.153495 0.979663 2.462346 0.042632 -0.012819 193979.000000 0 0 1
14.805395 20.594911 -32.583969 41.292434 0.947507 2.480143 0.040915 -0.007182 -54075.800000 0 0 1
16.160195 19.935411 -32.980149 41.788308 0.889609 2.480333 0.055943 -0.016295 867277.000000 0 0 1
17.181095 20.254911 -32.014379 41.597739 0.867323 2.449039 0.048968 -0.015766 1512600.000000 0 0 1
18.441595 19.579711 -32.325219 42.052078 0.815323 2.447595 0.053147 -0.016444 785168.000000 0 0 1
19.631395 20.004111 -31.500219 42.164202 0.794801 2.414461 0.044816 -0.012016 -574031.000000 0 0 1
20.122995 21.282311 -31.787709 43.224184 0.813390 2.397075 0.033999 -0.008757 415940.000000 0 0 1
21.124395 21.753611 -30.838609 43.249040 0.800072 2.364631 0.024658 0.001905 746456.000000 0 0 1
20.678295 22.271111 -29.438609 42.311062 0.822467 2.340282 0.029386 -0.007890 -214785.000000 0 0 1
19.964095 23.458351 -29.534069 42.674589 0.865696 2.335158 0.024869 0.011117 -416992.000000 0 0 1
19.559295 23.984901 -28.313239 41.946168 0.886685 2.311747 0.029690 0.016168 236168.000000 0 0 1
20.662695 24.702781 -27.431429 42.304345 0.874220 2.276317 0.033701 0.003939 665373.000000 0 0 1
21.389695 25.709881 -28.121709 43.696081 0.876867 2.269956 0.032471 0.009505 -8820.280000 0 0 1
20.617595 26.862361 -28.413129 44.203818 0.916172 2.268912 0.026882 0.008308 -218719.000000 0 0 1
21.388495 27.680261 -29.487319 45.751137 0.912926 2.271186 0.027403 0.001792 -90206.700000 0 0 1
21.492295 27.214771 -30.823419 46.396612 0.902350 2.297415 0.029027 -0.000401 347901.000000 0 0 1
22.277095 26.037851 -31.105149 46.279249 0.863080 2.307863 0.031712 0.002673 638095.000000 0 0 1
23.737295 25.832521 -30.622479 46.567312 0.827641 2.288420 0.052300 -0.000636 -402517.000000 0 0 1
24.664095 26.664801 -31.188589 47.875435 0.824357 2.280294 0.058158 0.001270 -252976.000000 0 0 1
25.979295 26.274001 -30.796359 48.100547 0.791038 2.265620 0.068170 -0.009969 685085.000000 0 0 1
27.125795 27.244131 -31.211039 49.519495 0.787575 2.252707 0.059541 -0.002555 232059.000000 0 0 1
27.228795 28.349831 -30.332839 49.650793 0.805566 2.228023 0.046312 -0.002734 6654.440000 0 0 1
28.441495 29.020371 -30.593369 50.863098 0.795472 2.216154 0.054725 -0.015780 230559.000000 0 0 1
28.491995 30.345711 -29.845739 51.219372 0.816893 2.192848 0.045733 -0.012173 107985.000000 0 0 1
28.796895 30.188071 -28.437939 50.490565 0.808979 2.169089 0.062886 -0.010033 235798.000000 0 0 1
28.353795 31.286501 -27.690019 50.492771 0.834532 2.151241 0.050048 -0.012841 -768370.000000 0 0 1
28.740295 31.133731 -26.242769 49.839710 0.825351 2.125326 0.070064 -0.013948 90636.900000 0 0 1
28.109995 30.069521 -25.494879 48.418351 0.819066 2.125338 0.052945 -0.009477 -830369.000000 0 0 1
26.739995 30.025221 -25.414189 47.564926 0.843208 2.134482 0.043328 -0.003256 -1658480.000000 0 0 1
26.190095 29.537261 -24.111459 46.257251 0.845389 2.119108 0.044155 -0.000026 -127951.000000 0 0 1
26.414195 30.583661 -23.131959 46.563478 0.858419 2.090685 0.076693 -0.007911 116503.000000 0 0 1
25.814295 30.280371 -21.910959 45.424319 0.864847 2.074145 0.053264 -0.004881 114956.000000 0 0 1
3.461195 -26.152686 -19.422759 32.759523 -1.439215 2.205438 0.065667 -0.012285 -295251.000000 0 0 1
3.318995 -27.274236 -18.568259 33.161421 -1.449702 2.165104 0.073255 -0.007822 232186.000000 0 0 1
3.159695 -26.851526 -17.243059 32.067291 -1.453662 2.138521 0.077718 -0.013157 -140939.000000 0 0 1
3.095095 -28.019536 -16.247159 32.536812 -1.460780 2.093641 0.068085 -0.018405 825495.000000 0 0 1
4.350495 -28.500986 -15.726259 32.841257 -1.419322 2.070148 0.065032 -0.010156 780993.000000 0 0 1
4.104595 -29.322566 -14.601759 33.013208 -1.431719 2.028958 0.062690 -0.015100 435134.000000 0 0 1
5.426895 -30.026406 -14.197559 33.654225 -1.391989 2.006298 0.090361 -0.003854 717421.000000 0 0 1
6.490195 -29.134076 -13.791159 32.880283 -1.351606 2.003620 0.069786 -0.004072 246600.000000 0 0 1
7.730595 -29.816886 -13.771559 33.741141 -1.317113 1.991227 0.072467 -0.004501 240453.000000 0 0 1
8.104295 -30.642836 -12.511259 34.076305 -1.312240 1.946744 0.082024 -0.016878 -1183460.000000 0 0 1
8.443095 -29.825396 -11.414459 33.032256 -1.294930 1.923626 0.073957 -0.021569 -56489.300000 0 0 1
8.775495 -30.475686 -10.179959 33.307781 -1.290430 1.881400 0.083114 -0.021615 51307.700000 0 0 1
10.006795 -31.415406 -10.261559 34.530613 -1.262426 1.872527 0.085299 -0.019512 -683953.000000 0 0 1
11.174995 -30.742686 -9.871359 34.167776 -1.222145 1.863883 0.072947 -0.024322 -686866.000000 0 0 1
12.238295 -31.642106 -9.953759 35.356414 -1.201745 1.856181 0.082051 -0.023226 -55741.200000 0 0 1
13.504395 -31.285456 -9.124359 35.276087 -1.163306 1.832427 0.089042 -0.028499 225726.000000 0 0 1
14.310195 -30.232116 -9.613559 34.802054 -1.128700 1.850671 0.080119 -0.033852 373543.000000 0 0 1
15.342995 -29.925796 -8.677959 34.731365 -1.097039 1.823331 0.075009 -0.033387 -46148.500000 0 0 1
16.546395 -29.218056 -9.326059 34.849007 -1.055519 1.841711 0.086094 -0.037197 -185751.000000 0 0 1
16.492895 -27.804196 -9.540559 33.706248 -1.035407 1.857769 0.089279 -0.034086 52601.000000 0 0 1
15.856095 -27.456206 -10.786759 33.490493 -1.047082 1.898727 0.084539 -0.031363 -26860.700000 0 0 1
15.334895 -26.003686 -10.806159 32.064368 -1.037970 1.914540 0.080925 -0.024546 463767.000000 0 0 1
14.185095 -25.754026 -9.901559 31.024629 -1.067346 1.895630 0.067037 -0.026136 1483120.000000 0 0 1
13.556895 -24.483986 -9.983359 29.714010 -1.065113 1.913443 0.070796 -0.009474 152956.000000 0 0 1
12.991495 -24.161986 -11.359959 29.692240 -1.077459 1.963394 0.049039 -0.004546 -386446.000000 0 0 1
13.944595 -23.696086 -12.327459 30.131751 -1.038893 1.992284 0.046101 -0.005221 143754.000000 0 0 1
13.289995 -23.718686 -13.581659 30.391799 -1.060066 2.034077 0.050966 -0.003733 243288.000000 0 0 1
14.029595 -23.186086 -14.838259 30.896569 -1.026645 2.071743 0.061976 -0.010922 338397.000000 0 0 1
15.145495 -23.897886 -15.337859 32.182990 -1.005923 2.067560 0.062309 -0.015236 649633.000000 0 0 1
15.833795 -23.339086 -16.493259 32.671846 -0.974698 2.099965 0.067005 -0.021650 107029.000000 0 0 1
16.936895 -24.298486 -17.011059 34.156272 -0.962063 2.092129 0.077473 -0.022946 314878.000000 0 0 1
18.202995 -24.275686 -16.392159 34.487110 -0.927395 2.066116 0.094584 -0.021663 -108135.000000 0 0 1
19.094395 -23.314486 -16.952559 34.576732 -0.884581 2.083217 0.098711 -0.024771 -510557.000000 0 0 1
20.522795 -23.694886 -16.558759 35.451730 -0.857014 2.056781 0.105183 -0.020122 -385607.000000 0 0 1
21.204095 -24.629186 -17.391859 36.860374 -0.859989 2.062162 0.108961 -0.017741 374920.000000 0 0 1
22.494995 -24.914386 -16.842559 37.555601 -0.836386 2.035849 0.103843 -0.002773 702963.000000 0 0 1
23.217295 -26.006716 -17.736959 39.115109 -0.842006 2.041435 0.104881 -0.008804 348327.000000 0 0 1
23.851495 -25.450616 -18.936459 39.689005 -0.817822 2.068172 0.114009 -0.008383 301815.000000 0 0 1
24.205795 -26.518106 -19.825359 41.014330 -0.830953 2.075304 0.108629 -0.016120 -63545.800000 0 0 1
25.563295 -26.367056 -20.551759 42.084183 -0.800875 2.080993 0.099498 -0.024823 171824.000000 0 0 1
25.626695 -25.398146 -21.547759 42.024983 -0.780919 2.109166 0.109115 -0.024808 7466.380000 0 0 1
26.291195 -24.196186 -21.064459 41.477629 -0.743926 2.103485 0.113784 -0.024221 -230822.000000 0 0 1
25.426895 -22.896886 -20.949159 40.120588 -0.733091 2.120172 0.121349 -0.020209 298806.000000 0 0 1
25.001195 -22.254586 -22.194959 40.161455 -0.727341 2.156329 0.128241 -0.012842 335607.000000 0 0 1
24.244495 -23.072486 -23.080659 40.655281 -0.760634 2.174525 0.108375 -0.013813 -352334.000000 0 0 1
23.399295 -22.207586 -24.069559 40.249814 -0.759274 2.211805 0.110601 -0.004413 123309.000000 0 0 1
24.155695 -21.445786 -25.012139 40.853719 -0.726042 2.229682 0.090358 -0.000284 320305.000000 0 0 1
23.354995 -20.509886 -25.722429 40.345440 -0.720628 2.262116 0.081532 0.002987 715949.000000 0 0 1
24.128195 -20.006686 -27.027039 41.387173 -0.692284 2.282374 0.071716 0.001369 944583.000000 0 0 1
23.284195 -19.054586 -27.707369 40.901457 -0.685829 2.315043 0.069725 0.003518 524624.000000 0 0 1
23.698095 -18.804086 -29.032559 41.929498 -0.670756 2.335625 0.068341 -0.002073 -266048.000000 0 0 1
22.856995 -17.679886 -29.674269 41.419594 -0.658372 2.369469 0.097218 -0.007004 -1006010.000000 0 0 1
21.756295 -18.236986 -30.309039 41.527844 -0.697627 2.388897 0.096784 -0.013077 -861882.000000 0 0 1
21.051195 -17.193186 -30.890459 41.145824 -0.684860 2.420002 0.101763 -0.018014 -780456.000000 0 0 1
19.729595 -17.652786 -31.482609 41.134321 -0.729899 2.442399 0.086215 -0.020405 -600351.000000 0 0 1
19.939695 -18.434086 -32.648219 42.465434 -0.746183 2.447788 0.089533 -0.026044 295892.000000 0 0 1
18.701995 -18.893786 -33.143399 42.487935 -0.790500 2.465568 0.087293 -0.028935 110089.000000 0 0 1
18.973295 -19.706786 33.592965 43.322403 -0.804359 0.683420 0.108425 -0.027165 -273554.000000 0 0 1
19.547195 -20.891986 33.908566 44.366189 -0.818641 0.700859 0.107563 -0.021926 -191795.000000 0 0 1
20.011295 -21.570586 32.764595 44.037038 -0.822880 0.731724 0.094782 -0.026066 -171540.000000 0 0 1
20.911995 -22.747886 33.163698 45.327791 -0.827423 0.750069 0.076655 -0.024178 -161436.000000 0 0 1
20.254695 -23.752386 33.927374 46.103093 -0.864712 0.743798 0.091662 -0.019538 92007.300000 0 0 1
20.514495 -23.612086 -32.768659 45.300773 -0.855481 2.379449 0.091246 -0.017237 -186830.000000 0 0 1
19.752895 -24.578986 -31.809279 44.789883 -0.893834 2.360563 0.108083 -0.020480 -213485.000000 0 0 1
20.055195 -25.975426 -31.765039 45.672215 -0.913311 2.339912 0.111389 -0.031154 -347651.000000 0 0 1
21.104095 -26.337326 -30.922029 45.773457 -0.895263 2.312500 0.078665 -0.027794 -298344.000000 0 0 1
21.259295 -27.833316 -30.861139 46.680413 -0.918517 2.293101 0.076885 -0.037163 -496339.000000 0 0 1
20.120795 -28.428996 -30.340709 46.191046 -0.954884 2.287433 0.098079 -0.041926 -374322.000000 0 0 1
20.317295 -29.837816 -30.432769 47.214840 -0.972988 2.271243 0.097013 -0.039703 639734.000000 0 0 1
19.074995 -30.610616 -29.835999 46.808675 -1.013529 2.261920 0.120486 -0.043301 1648450.000000 0 0 1
17.794795 -30.563206 -30.479419 46.687891 -1.043546 2.282115 0.128780 -0.044256 718188.000000 0 0 1
17.776795 -31.367536 -31.634009 47.965062 -1.055202 2.290979 0.127367 -0.045827 87836.900000 0 0 1
16.328395 -31.883496 -31.895559 47.963532 -1.097494 2.298285 0.133531 -0.049826 496622.000000 0 0 1
15.428995 -30.971036 -32.469119 47.450001 -1.108610 2.324413 0.137624 -0.044780 -137789.000000 0 0 1
14.257195 -31.631356 -32.901089 47.815185 -1.147336 2.329648 0.113101 -0.041968 319588.000000 0 0 1
13.239795 -30.748276 -33.669979 47.480692 -1.164203 2.359060 0.106944 -0.038123 -92354.200000 0 0 1
12.428095 -29.904356 -32.932099 46.187132 -1.176919 2.364585 0.128598 -0.039940 -325762.000000 0 0 1
11.615695 -29.210436 -33.857829 46.200936 -1.192313 2.393281 0.101734 -0.029130 -219660.000000 0 0 1
10.546495 -28.220826 -33.360329 44.950585 -1.213154 2.407077 0.107598 -0.037470 283690.000000 0 0 1
9.551895 -28.918496 -32.594889 44.608798 -1.251775 2.390118 0.090087 -0.025100 128598.000000 0 0 1
8.545995 -27.962596 -32.283899 43.556755 -1.274189 2.405640 0.039509 -0.017820 872055.000000 0 0 1
7.258795 -28.504696 -31.544819 43.131002 -1.321444 2.391128 0.012553 -0.015920 776099.000000 0 0 1
6.474095 -29.473636 -32.181089 44.116114 -1.354573 2.388333 0.021329 -0.010731 169373.000000 0 0 1
7.044695 -30.770156 -32.168619 45.069393 -1.345730 2.365645 0.020507 -0.010717 384094.000000 0 0 1
5.854695 -31.742986 -32.420419 45.749078 -1.388406 2.358390 0.053654 -0.034954 1172250.000000 0 0 1
4.952095 -31.940646 -31.321689 45.008624 -1.416980 2.340474 0.058038 -0.042089 -131364.000000 0 0 1
3.870195 -32.763386 -31.579159 45.669039 -1.453216 2.334330 0.072155 -0.062569 -1445070.000000 0 0 1
2.966995 -32.940196 -30.326529 44.872685 -1.480967 2.312893 0.061145 -0.067701 -239063.000000 0 0 1
2.018695 -31.933976 -30.208849 44.004868 -1.507666 2.327445 0.055640 -0.047765 -811975.000000 0 0 1
0.850895 -32.095146 -30.951149 44.595919 -1.544291 2.337876 0.040094 -0.022444 -1103800.000000 0 0 1
-0.142305 -30.957926 -30.693069 43.594471 1.566200 2.351893 0.038690 -0.012417 -331620.000000 0 0 1
-0.915305 -31.003386 -29.502969 42.807392 1.541282 2.331184 0.019338 -0.022938 413997.000000 0 0 1
-1.581305 -29.710016 -29.384419 41.816619 1.517622 2.349978 0.062735 -0.013175 43769.600000 0 0 1
-2.230605 -29.467066 -28.018119 40.722212 1.495242 2.329568 0.070360 -0.014232 90216.000000 0 0 1
-1.358705 -29.379446 -26.884069 39.846594 1.524582 2.311340 0.047192 -0.015193 307522.000000 0 0 1
-2.125205 -29.531126 -25.695139 39.202602 1.498955 2.285568 0.060691 -0.020785 122967.000000 0 0 1
-1.259205 -29.934506 -24.429159 38.658039 1.528756 2.254837 0.032127 -0.016619 -41694.600000 0 0 1
-1.760605 -30.066546 -23.144959 37.984023 1.512306 2.226017 0.059731 -0.019215 -313818.000000 0 0 1
-0.749805 -30.627226 -22.323659 37.906924 1.546320 2.200502 0.041466 -0.008887 376348.000000 0 0 1
-1.238605 -30.684786 -20.839659 37.113092 1.530453 2.167015 0.004443 0.002474 170054.000000 0 0 1
-1.518705 -29.440906 -20.133559 35.699210 1.519257 2.169991 0.006564 -0.002838 -604824.000000 0 0 1
-0.347205 -28.801056 -19.766259 34.933169 1.558742 2.172237 0.033990 -0.013564 -705820.000000 0 0 1
-0.494705 -27.504086 -18.993359 33.428538 1.552812 2.175086 0.036109 -0.018940 -262065.000000 0 0 1
-0.982405 -27.661466 -17.705259 32.857236 1.535296 2.139873 0.029009 -0.018762 -117356.000000 0 0 1
-1.136005 -26.324376 -17.244959 31.490504 1.527669 2.150318 0.040398 -0.022266 -9442.230000 0 0 1
-1.844305 -26.343906 -15.859359 30.804579 1.500902 2.111615 0.041024 -0.018682 -70000.600000 0 0 1
-2.043705 -25.041186 -15.377159 29.456658 1.489363 2.120022 0.037316 -0.012920 -42718.000000 0 0 1
-2.812805 -25.080536 -14.206859 28.961698 1.459112 2.083505 0.040951 -0.012377 -183561.000000 0 0 1
-2.707705 -23.763586 -13.422659 27.426400 1.457342 2.082205 0.039977 -0.010242 327082.000000 0 0 1
-1.383605 -23.617586 -12.924259 26.958137 1.512280 2.070790 0.040151 -0.013287 -92451.000000 0 0 1
-1.255905 -22.586286 -11.964359 25.590300 1.515249 2.057296 0.046725 -0.014476 -12268.300000 0 0 1
0.073395 -22.572286 -11.187959 25.192933 -1.567545 2.030956 0.051557 -0.015687 -23902.900000 0 0 1
0.184395 -21.511586 -10.249559 23.829305 -1.562225 2.015427 0.037622 -0.014398 766732.000000 0 1 0
1.522995 -21.397486 -9.701659 23.543451 -1.499740 1.995526 0.034830 -0.020136 1315420.000000 0 1 0
1.971395 -19.943986 -9.398759 22.135619 -1.472270 2.009315 0.031586 -0.018404 -1639830.000000 0 1 0
2.367695 -19.259186 -10.560959 22.091991 -1.448472 2.069224 0.025521 -0.002529 -165781.000000 0 1 0
3.296995 -18.229786 -10.348259 21.219842 -1.391873 2.080214 0.020180 -0.002946 -353188.000000 0 1 0
4.676195 -18.588386 -9.808959 21.531617 -1.324345 2.043798 0.032425 -0.017812 -1271260.000000 0 1 0
4.628595 -19.189486 -8.563459 21.517274 -1.334113 1.980111 0.038901 -0.021578 -1038920.000000 0 1 0
5.868695 -19.768486 -8.332459 22.241054 -1.282212 1.954808 0.046186 -0.019185 -551518.000000 0 1 0
5.657995 -20.942286 -7.383959 22.915389 -1.306925 1.898877 0.054898 -0.015638 -394264.000000 0 1 0
4.811495 -21.904986 -7.885359 23.773047 -1.354577 1.908894 0.051822 -0.027508 -407325.000000 0 1 0
4.545195 -22.858186 -6.900659 24.305854 -1.374513 1.858665 0.064608 -0.021522 -127874.000000 0 1 0
3.615495 -23.953086 -7.444559 25.342525 -1.420987 1.868952 0.057786 -0.020475 -90965.500000 0 0 1
4.150495 -24.666886 -8.547659 26.433772 -1.404096 1.900076 0.057502 -0.017402 -132763.000000 0 0 1
3.180595 -25.404086 -9.263059 27.226605 -1.446244 1.917948 0.051586 -0.017985 95990.100000 0 0 1
3.833895 -26.390896 -10.212259 28.556406 -1.426532 1.936511 0.040073 -0.021984 -9146.040000 0 0 1
4.525095 -27.494286 -9.663359 29.492248 -1.407676 1.904620 0.061284 -0.025694 -175164.000000 0 0 1
5.146295 -28.158186 -10.729059 30.569273 -1.390028 1.929409 0.084694 -0.018437 -13356.600000 0 0 1
5.018995 -29.678436 -10.668959 31.934723 -1.403269 1.911432 0.083693 -0.023024 -660952.000000 0 0 1
3.774895 -30.138836 -11.094459 32.337072 -1.446195 1.920999 0.071136 -0.017432 -443032.000000 0 0 1
3.621595 -31.556946 -10.983359 33.609387 -1.456532 1.903706 0.082466 -0.017954 -182345.000000 0 0 1
2.243795 -32.108276 -11.384659 34.140686 -1.501028 1.910771 0.071309 -0.017863 -167409.000000 0 0 1
2.126395 -32.071996 -12.759859 34.582487 -1.504593 1.948696 0.067896 -0.018188 1094590.000000 0 0 1
0.973995 -32.917186 -13.017559 35.411108 -1.541216 1.947237 0.050371 -0.012663 513187.000000 0 0 1
0.525395 -32.793646 -14.474559 35.849855 -1.554776 1.986414 0.048762 0.000066 -191640.000000 0 0 1
-0.264205 -31.663286 -14.753059 34.932595 1.562452 2.006810 0.047163 -0.009959 -90630.000000 0 0 1
-0.614205 -31.564326 -16.141559 35.457493 1.551340 2.043435 0.019856 -0.002655 -524243.000000 0 0 1
-1.763105 -30.619046 -16.408059 34.783026 1.513278 2.062044 0.014993 0.010243 -145907.000000 0 0 1
-2.946605 -31.037636 -15.739159 34.924754 1.476143 2.038300 0.021714 0.000656 193197.000000 0 0 1
-4.102405 -30.745266 -16.515959 35.140830 1.438148 2.060080 0.034680 0.002459 821242.000000 0 0 1
-5.502005 -30.878976 -15.865159 35.149487 1.394467 2.039088 0.046358 -0.005901 -26234.600000 0 0 1
-5.757205 -29.902986 -14.849859 33.879968 1.380594 2.024512 0.033886 -0.005598 -138728.000000 0 0 1
-7.119005 -29.868896 -14.476359 33.946960 1.336820 2.011350 0.052347 -0.005983 206764.000000 0 0 1
-7.584305 -31.017966 -13.551859 34.688453 1.330988 1.972159 0.051821 -0.015686 -187594.000000 0 0 1
-8.069005 -32.183716 -14.220759 36.098897 1.325143 1.975709 0.062743 -0.017794 20870.100000 0 0 1
-8.718505 -33.095836 -13.355559 36.738503 1.313216 1.942851 0.081349 -0.024227 289521.000000 0 0 1
-9.005505 33.688017 -14.051059 37.595397 -1.309583 1.953839 0.114331 -0.028264 50604.800000 0 0 1
-7.850105 32.898450 -13.922359 36.575460 -1.336560 1.961293 0.093328 -0.028170 -14433.300000 0 0 1
-7.906105 31.745131 -14.701859 35.866482 -1.326713 1.993146 0.117302 -0.043304 -945138.000000 0 0 1
-7.896405 -22.309586 -3.678559 23.950002 1.230610 1.725000 0.081147 -0.007429 280367.000000 0 1 0
-7.611405 -21.145386 -4.411459 22.902441 1.225280 1.764627 0.059166 -0.011710 -484359.000000 0 1 0
-6.323805 -21.193186 -4.952659 22.664299 1.280819 1.791096 0.052353 -0.015532 -119647.000000 0 1 0
-6.354805 -20.119386 -6.124459 21.970030 1.264858 1.853303 0.049883 -0.013398 627324.000000 0 1 0
-7.257105 -20.483386 -7.183059 22.887354 1.230303 1.890035 0.047020 -0.013987 -140614.000000 0 1 0
-7.327005 -19.362986 -8.050759 22.213170 1.209046 1.941672 0.032174 -0.010920 -44206.900000 0 1 0
-8.239105 -19.636886 -9.241659 23.214185 1.173531 1.980245 0.041350 -0.015439 -103817.000000 0 1 0
-7.629505 -20.458386 -10.186059 24.093789 1.213843 2.007293 0.057992 -0.009858 -509655.000000 0 1 0
-8.481805 -20.704086 -11.262359 25.048770 1.181983 2.037133 0.075791 -0.011760 -79050.100000 0 0 1
-7.753605 -21.366086 -12.461559 25.921390 1.222682 2.072300 0.069326 -0.014844 156150.000000 0 0 1
-6.867805 -20.651286 -13.291759 25.501239 1.249741 2.119076 0.070445 -0.009944 -60253.900000 0 0 1
-6.276005 -21.483786 -14.283559 26.551108 1.286578 2.138817 0.048121 -0.006337 -218583.000000 0 0 1
-5.407305 -20.768786 -15.324159 26.370651 1.316094 2.190884 0.030967 0.008475 -21122.200000 0 0 1
-4.116005 -20.614886 -14.724159 25.665460 1.373726 2.181807 0.035465 -0.000150 554706.000000 0 0 1
-3.184105 -19.747186 -15.399359 25.243417 1.410929 2.226901 0.051499 0.003721 495165.000000 0 0 1
-3.492905 -18.199686 -15.492459 24.154611 1.381181 2.267101 0.060649 0.004767 -1310850.000000 0 1 0
-4.630505 -17.884286 -16.217159 24.582219 1.317445 2.291230 0.063361 0.008549 -784347.000000 0 1 0
-4.568105 -17.847286 -17.658859 25.519179 1.320221 2.335030 0.065415 0.001259 -13106.600000 0 0 1
-5.991605 -17.863186 -18.292359 26.260295 1.247172 2.341414 0.063060 0.003836 691177.000000 0 0 1
-6.841205 -18.918086 -17.883159 26.916601 1.223805 2.297476 0.042657 0.007834 137446.000000 0 0 1
-8.092505 -18.876086 -18.547859 27.673422 1.165781 2.305330 0.024380 0.005895 456944.000000 0 0 1
-9.142705 -19.873386 -17.980359 28.316670 1.139618 2.258772 0.050404 -0.004515 276274.000000 0 0 1
-8.759605 -21.224686 -18.265459 29.340159 1.179383 2.242782 0.055869 0.001781 564971.000000 0 0 1
-9.705105 -22.137186 -17.714159 29.967240 1.157625 2.203240 0.080217 -0.009393 317437.000000 0 0 1
-9.253105 -23.577186 -17.998159 31.071488 1.196807 2.188605 0.084375 -0.014727 -559039.000000 0 0 1
-9.168405 -23.890186 -19.394959 32.108644 1.204357 2.219359 0.074197 -0.014080 -217223.000000 0 0 1
-8.321105 -24.875986 -19.859859 32.900903 1.247993 2.218838 0.088744 -0.029336 336816.000000 0 0 1
-6.776705 -24.619286 -19.775859 32.297330 1.302188 2.229771 0.061838 -0.018089 374194.000000 0 0 1
-6.260905 -23.478186 -20.534159 31.813139 1.310192 2.272424 0.068647 -0.014905 192186.000000 0 0 1
-6.192105 -22.208786 -19.843159 30.419127 1.298888 2.281444 0.058923 -0.010668 -803386.000000 0 0 1
-5.159705 -22.179986 -18.716759 29.476963 1.342233 2.258756 0.072372 -0.004112 117745.000000 0 0 1
-3.816905 -22.395986 -19.159359 29.719185 1.401990 2.271401 0.072651 -0.015901 195973.000000 0 0 1
-2.950305 -22.188686 -18.068159 28.766307 1.438607 2.249907 0.044405 -0.016932 -1065930.000000 0 0 1
-1.621405 -22.846386 -18.295459 29.313991 1.499945 2.244802 0.073394 -0.021973 -620263.000000 0 0 1
-0.740705 -22.098686 -19.136859 29.242433 1.537291 2.284213 0.107707 -0.020751 -51841.100000 0 0 1
0.472495 -22.760786 -19.403259 29.912590 -1.550040 2.276626 0.074770 -0.019057 704096.000000 0 0 1
1.542895 -22.044586 -20.306459 30.011607 -1.500921 2.313959 0.082311 -0.016706 692666.000000 0 0 1
1.262795 -22.163086 -21.669159 31.021758 -1.513880 2.344116 0.085674 -0.029573 -189900.000000 0 0 1
1.000995 -20.962086 -22.289659 30.614374 -1.523080 2.386311 0.106048 -0.022376 -242451.000000 0 0 1
0.783095 -21.108686 -23.804859 31.825479 -1.533715 2.415811 0.100904 -0.030213 6274.640000 0 0 1
0.510895 -19.972486 -24.524659 31.632579 -1.545222 2.457982 0.088725 -0.029561 1285610.000000 0 0 1
-0.934805 -19.758886 -24.532659 31.514104 1.523521 2.463015 0.094209 -0.033734 1588320.000000 0 0 1
-1.361205 -18.534986 -25.466129 31.526533 1.497488 2.511153 0.099345 -0.020715 -168281.000000 0 0 1
-0.922205 -17.331986 -24.919459 30.368200 1.517638 2.533217 0.089774 -0.027328 -281657.000000 0 0 1
-1.603805 -16.215386 -25.381409 30.161678 1.472211 2.570872 0.100029 -0.031784 -138779.000000 0 0 1
-1.033405 -14.858786 -24.812359 28.939671 1.501360 2.600958 0.095619 -0.028164 1718560.000000 0 0 1
0.361995 -14.698286 -25.234519 29.205335 -1.546173 2.614033 0.097946 -0.038279 1177420.000000 0 0 1
0.966595 -13.515286 -24.747259 28.213898 -1.499399 2.640650 0.090373 -0.039931 231151.000000 0 0 1
0.622595 -12.256286 -25.559469 28.352964 -1.520042 2.693960 0.083402 -0.031973 -351927.000000 0 0 1
1.064595 -11.069086 -25.040929 27.399017 -1.474914 2.723673 0.084332 -0.029551 -184505.000000 0 0 1
0.844195 -10.055786 -25.985899 27.876485 -1.487042 2.771185 0.072634 -0.027283 -550467.000000 0 0 1
1.687995 -8.773986 -25.797909 27.301360 -1.380732 2.808181 0.068530 -0.032153 1280330.000000 0 0 1
3.106595 -8.883386 -26.079669 27.725703 -1.234381 2.795282 0.064543 -0.028602 1019380.000000 0 0 1
3.471895 -9.070986 -27.451479 29.119075 -1.205251 2.801524 0.061869 -0.029887 -587152.000000 0 0 1
4.929595 -8.804786 -27.848359 29.620200 -1.060402 2.793958 0.041561 -0.025688 -377329.000000 0 0 1
5.243295 -7.417386 -27.970209 29.408201 -0.955459 2.827582 0.039716 -0.025590 527453.000000 0 0 1
6.505295 -7.172586 -28.587369 30.182818 -0.834146 2.814998 0.042135 -0.020814 455479.000000 0 0 1
7.833395 -7.107686 -27.776619 29.722412 -0.736865 2.777745 0.048993 -0.023612 314685.000000 0 0 1
8.348995 -8.357486 -27.214949 29.668278 -0.785906 2.732062 0.040666 -0.022186 658709.000000 0 0 1
8.882495 -9.255486 -28.213749 30.993198 -0.805959 2.714854 0.048684 -0.031508 -477014.000000 0 0 1
9.392895 -10.590986 -27.620999 31.037316 -0.845279 2.667985 0.048639 -0.024188 671787.000000 0 0 1
8.369195 -11.575286 -27.280179 30.793486 -0.944785 2.659243 0.060935 -0.030587 1134960.000000 0 0 1
8.916295 -12.773486 -26.665369 30.882100 -0.961393 2.612880 0.059059 -0.024608 -99229.500000 0 0 1
9.779095 -13.715786 -27.467319 32.221221 -0.951411 2.591470 0.068856 -0.031828 136675.000000 0 0 1
8.962995 -14.398086 -28.444389 33.116814 -1.013987 2.603935 0.084482 -0.037967 595870.000000 0 0 1
9.642895 -15.484086 -29.092199 34.338001 -1.013808 2.581546 0.068620 -0.035935 433602.000000 0 0 1
8.722395 -16.221586 -30.141999 35.323648 -1.077443 2.593096 0.076455 -0.044869 95037.500000 0 0 1
8.476095 -15.292286 -31.207239 35.771356 -1.064679 2.630905 0.076315 -0.044772 215673.000000 0 0 1
7.623295 -15.881486 -32.176949 36.683678 -1.123267 2.640683 0.086788 -0.043323 -270205.000000 0 0 1
6.584395 -14.837186 -32.651209 36.463650 -1.153130 2.680227 0.102971 -0.047849 -480353.000000 0 0 1
7.078495 -13.831486 -33.409949 36.846163 -1.097780 2.706288 0.089637 -0.039546 207990.000000 0 0 1
6.073495 -12.845886 -33.727189 36.598188 -1.129147 2.742859 0.076633 -0.047335 253280.000000 0 0 1
6.504795 -11.782786 33.380476 35.991701 -1.066374 0.383263 0.084407 -0.037852 -357504.000000 0 0 1
6.702495 -12.260986 32.093104 35.003179 -1.070527 0.410647 0.085796 -0.030677 270455.000000 0 0 1
7.014795 -11.173886 31.235801 33.907791 -1.010197 0.399647 0.081155 -0.027835 -324010.000000 0 0 1
7.565395 -11.615886 29.824531 32.888701 -0.993510 0.435090 0.065081 -0.018104 -139623.000000 0 0 1
6.640495 -12.134186 28.878531 32.020371 -1.070063 0.446695 0.053067 -0.018086 -118543.000000 0 0 1
7.065295 -12.203386 27.560501 30.958395 -1.045990 0.472917 0.042021 -0.014487 -489270.000000 0 0 1
6.167795 -12.971886 26.572511 30.206123 -1.126961 0.495553 0.036142 -0.029440 -362425.000000 0 0 1
6.261695 -14.416086 26.681781 30.966914 -1.161029 0.532339 0.045460 -0.025883 -94494.700000 0 0 1
5.723095 -15.036386 25.500761 30.151874 -1.207111 0.562839 0.034283 -0.027199 -62477.500000 0 0 1
4.196195 -15.165686 25.386101 29.867377 -1.300860 0.554885 0.040008 -0.030172 -364523.000000 0 0 1
3.602495 -13.944086 25.002961 28.854177 -1.317972 0.522592 0.018942 -0.029619 -616093.000000 0 0 1
2.234995 -14.147186 24.761751 28.605635 -1.414110 0.524399 0.029644 -0.027106 -44125.800000 0 0 1
1.450295 -12.824086 24.605771 27.784969 -1.458183 0.483058 0.049259 -0.029577 -496808.000000 0 0 1
1.725395 -12.144586 23.380671 26.403100 -1.429670 0.483168 0.018861 -0.022855 -243006.000000 0 0 1
0.841595 -11.072986 23.186151 25.708304 -1.494938 0.446663 0.028153 -0.020753 377062.000000 0 0 1
-0.610605 -11.418486 22.784171 25.492609 1.517372 0.465146 0.060834 -0.023275 -309277.000000 0 0 1
-0.632805 -12.182486 21.583071 24.791981 1.518899 0.514444 0.054322 -0.017843 475862.000000 0 1 0
-1.948105 -12.674486 21.264071 24.831400 1.418287 0.542660 0.075395 -0.029746 810474.000000 0 1 0
-2.270705 -13.291486 19.917371 24.052471 1.401591 0.595122 0.094773 -0.032899 129738.000000 0 1 0
-1.392105 -14.389986 19.626971 24.376785 1.474355 0.634868 0.108393 -0.040748 -13551.500000 0 1 0
-1.549305 -14.988086 18.353371 23.746353 1.467793 0.687410 0.109284 -0.046973 138570.000000 0 1 0
-2.674905 -16.065086 18.245871 24.457185 1.405806 0.728711 0.082074 -0.043776 286492.000000 0 1 0
-2.451605 -17.182686 17.422971 24.592986 1.429074 0.783493 0.064480 -0.040317 -167529.000000 0 1 0
-3.525505 -18.082886 17.653971 25.516321 1.378248 0.806721 0.072342 -0.026324 304983.000000 0 0 1
-3.290505 -19.521586 17.153771 26.194877 1.403809 0.856809 0.073741 -0.031240 -69116.500000 0 0 1
-2.403005 -20.260786 17.948071 27.173647 1.452744 0.849318 0.080412 -0.032879 -409806.000000 0 0 1
-2.297905 -21.573186 17.459971 27.848398 1.464680 0.893145 0.074829 -0.041429 -237259.000000 0 0 1
-1.107505 -22.373086 18.020771 28.749430 1.521335 0.893329 0.089233 -0.034738 -778453.000000 0 0 1
0.036495 -22.224586 17.259471 28.139347 -1.569154 0.910492 0.081460 -0.041466 -1738220.000000 0 0 1
0.896295 -23.183986 17.759971 29.218438 -1.532155 0.917466 0.090815 -0.029896 218182.000000 0 0 1
2.259695 -23.193786 16.951771 28.817017 -1.473676 0.941896 0.075256 -0.035834 950347.000000 0 0 1
2.936795 -21.924786 17.126771 27.975834 -1.437640 0.911958 0.090099 -0.040896 -392743.000000 0 0 1
4.101395 -21.865386 16.370371 27.620745 -1.385376 0.936409 0.082446 -0.036930 -346169.000000 0 0 1
5.055895 -20.719786 16.714571 27.097019 -1.331460 0.906073 0.084253 -0.031249 -406777.000000 0 0 1
5.794795 -20.814786 17.936171 28.080975 -1.299274 0.877949 0.089355 -0.027009 325992.000000 0 0 1
6.548195 -19.708186 18.405871 27.750090 -1.250014 0.845613 0.098006 -0.029163 -26163.600000 0 0 1
7.652295 -19.099686 17.602171 27.077519 -1.189729 0.863125 0.102610 -0.027103 -982594.000000 0 0 1
7.094695 -18.269186 16.587971 25.676032 -1.200380 0.868400 0.092370 -0.031748 367203.000000 0 0 1
8.069595 -17.792986 15.687171 25.055858 -1.145013 0.894270 0.095508 -0.032264 229842.000000 0 0 1
7.365295 -16.747086 14.757271 23.505095 -1.156461 0.892031 0.068900 -0.020858 516891.000000 0 1 0
6.413295 -17.374486 13.879371 23.143898 -1.217189 0.927672 0.054545 -0.017643 555232.000000 0 1 0
5.788695 -16.469086 12.972871 21.749371 -1.232796 0.931699 0.037860 -0.017506 128288.000000 0 1 0
6.337495 -16.618186 11.532771 21.197470 -1.206462 0.995524 0.035645 -0.017714 642875.000000 0 1 0
7.668895 -16.103586 11.414871 21.176324 -1.126351 1.001500 0.046879 -0.014906 457118.000000 0 1 0
8.171195 -16.492586 10.138871 21.013579 -1.110798 1.067299 0.048226 -0.015666 -150081.000000 0 1 0
9.554995 -15.875086 9.910371 21.012656 -1.028991 1.079649 0.043752 -0.014260 -33211.600000 0 1 0
10.303095 -16.512786 8.882471 21.394488 -1.012955 1.142660 0.050782 -0.010735 -1138670.000000 0 1 0
11.587795 -16.026786 8.858171 21.670303 -0.944783 1.149690 0.044696 -0.009201 -784209.000000 0 1 0
12.597595 -16.893686 8.065571 22.564340 -0.930054 1.205263 0.059855 -0.018117 55360.100000 0 1 0
12.801395 -18.183186 8.593271 23.840056 -0.957375 1.202041 0.075463 -0.029088 -259799.000000 0 1 0
13.730295 -18.867486 7.820371 24.610185 -0.941706 1.247420 0.077303 -0.024646 -163822.000000 0 1 0
14.350395 -20.038786 8.597371 26.103669 -0.949326 1.235176 0.079614 -0.030598 -156185.000000 0 0 1
13.364995 -20.981986 8.904071 26.422515 -1.003632 1.227080 0.087080 -0.024656 -140564.000000 0 0 1
13.945395 -22.048186 9.605871 27.800527 -1.006825 1.217995 0.083494 -0.023349 -447248.000000 0 0 1
12.928995 -22.972086 10.204471 28.266709 -1.058169 1.201449 0.102977 -0.031832 -579481.000000 0 0 1
12.406295 -22.439086 11.385571 28.054588 -1.065739 1.152903 0.103392 -0.037461 147589.000000 0 0 1
11.342895 -23.078286 12.103571 28.421206 -1.113975 1.130880 0.117662 -0.039645 265450.000000 0 0 1
11.607995 -24.506086 12.552371 29.880692 -1.128427 1.137260 0.111043 -0.030369 -829100.000000 0 0 1
12.594295 -24.498186 13.508871 30.680074 -1.095940 1.114848 0.108383 -0.029538 -707321.000000 0 0 1
12.670095 -25.758476 14.181471 32.017877 -1.113665 1.111939 0.090349 -0.030577 460330.000000 0 0 1
14.029195 -25.997596 14.915171 33.093135 -1.075946 1.103244 0.077824 -0.023000 370219.000000 0 0 1
14.129195 -25.169196 16.083371 33.042357 -1.059267 1.062431 0.080587 -0.022123 110842.000000 0 0 1
14.999195 -25.745476 17.019071 34.314051 -1.043273 1.051834 0.072364 -0.016694 -510156.000000 0 0 1
15.001995 -25.018186 18.382971 34.480474 -1.030639 1.008487 0.081035 -0.010891 -320847.000000 0 0 1
15.454295 -23.744986 18.461471 33.815462 -0.993828 0.993277 0.066810 -0.025344 134870.000000 0 0 1
16.792495 -23.806586 18.951971 34.755123 -0.956474 0.994049 0.046856 -0.017251 251900.000000 0 0 1
17.311095 -22.371686 19.299271 34.243659 -0.912240 0.972075 0.047496 -0.028896 -109907.000000 0 0 1
17.457795 -21.377686 18.251971 33.089492 -0.885993 0.986522 0.042455 -0.029550 441814.000000 0 0 1
16.208295 -20.772686 17.960571 31.887229 -0.908202 0.972479 0.062777 -0.029473 -206222.000000 0 0 1
16.400595 -19.735186 16.811171 30.676905 -0.877417 0.990816 0.043981 -0.029249 584559.000000 0 0 1
17.279095 -18.633786 17.134671 30.649340 -0.823102 0.977551 0.030633 -0.024258 1141410.000000 0 0 1
18.688695 -18.872586 17.034771 31.553529 -0.790294 1.000515 0.037749 -0.027953 674241.000000 0 0 1
19.568195 -17.615086 17.345671 31.528999 -0.732920 0.988253 0.059857 -0.024249 7344.850000 0 0 1
19.550095 -17.261086 18.708871 32.096310 -0.723296 0.948506 0.051280 -0.015927 -24150.400000 0 0 1
20.014695 -15.972586 18.885371 31.817742 -0.673546 0.935336 0.066058 -0.019030 -123850.000000 0 0 1
20.592595 -15.795086 20.350671 32.980138 -0.654310 0.905797 0.064483 -0.011981 583916.000000 0 0 1
21.781995 -16.579086 20.537271 34.221351 -0.650591 0.927132 0.065309 -0.015337 292296.000000 0 0 1
22.057495 -16.598986 21.892771 35.232837 -0.645120 0.900301 0.078150 -0.011536 196732.000000 0 0 1
34.302019 -1.541986 -7.679359 35.184922 -0.044923 1.790824 0.170644 -0.038840 108661.000000 0 0 1
35.537219 -1.228986 -8.307359 36.515976 -0.034569 1.800305 0.155287 -0.039235 -798.231000 0 0 1
36.452379 -2.262886 -8.030559 37.395005 -0.061998 1.787232 0.158159 -0.049376 -854363.000000 0 0 1
-36.076764 -1.863786 -8.526559 37.117500 0.051616 1.802584 0.137950 -0.057472 -414064.000000 0 0 1
-35.058859 -2.823886 -8.268859 36.131315 0.080373 1.801698 0.157408 -0.055059 1218430.000000 0 0 1
-33.770305 -2.478486 -8.820159 34.991022 0.073261 1.825614 0.199963 -0.057106 972695.000000 0 0 1
-32.628555 -3.512886 -8.606659 33.926944 0.107250 1.827281 0.180713 -0.050129 -547185.000000 0 0 1
-32.152265 -3.370486 -7.310459 33.144700 0.104447 1.793187 0.163272 -0.044698 342006.000000 0 0 1
-30.987725 -4.182886 -7.157959 32.077594 0.134174 1.795836 0.150204 -0.048342 296804.000000 0 0 1
-30.380725 -4.212486 -5.724259 31.200972 0.137778 1.755306 0.149577 -0.061995 -22256.500000 0 0 1
-29.821225 -2.972486 -5.290359 30.432368 0.099349 1.745524 0.153122 -0.054439 580288.000000 0 0 1
-29.840025 -3.039786 -3.886559 30.245210 0.101519 1.699654 0.149975 -0.046317 -307316.000000 0 0 1
-29.660935 -1.656886 -3.294559 29.889304 0.055803 1.681246 0.170373 -0.040560 -675145.000000 0 0 1
-28.340555 -1.212986 -3.213359 28.547926 0.042774 1.683596 0.151079 -0.030771 -134147.000000 0 0 1
-28.243125 0.095214 -2.652459 28.367565 -0.003371 1.664436 0.163309 -0.040245 -520314.000000 0 0 1
-26.820995 0.470414 -2.212859 26.916237 -0.017537 1.653102 0.177918 -0.023415 -389831.000000 0 0 1
-26.399825 -0.327586 -1.124159 26.425779 0.012408 1.613349 0.163569 -0.030504 -600614.000000 0 0 1
-25.082105 0.041414 -0.891959 25.097994 -0.001651 1.606343 0.149158 -0.027808 -712774.000000 0 0 1
-24.443405 -0.807886 0.247941 24.458009 0.033039 1.560659 0.146697 -0.029483 -86350.200000 0 1 0
-24.327405 -2.224686 -0.077759 24.429038 0.091194 1.573979 0.143681 -0.030800 211175.000000 0 1 0
-23.488105 -2.894886 0.816841 23.679922 0.122631 1.536294 0.130837 -0.022399 -442252.000000 0 1 0
-23.723305 -4.435786 0.896541 24.151091 0.184846 1.533666 0.125741 -0.020013 14747.600000 0 1 0
-24.887605 -4.679586 1.672741 25.378918 0.185859 1.504838 0.135255 -0.031295 487291.000000 0 0 1
-25.361875 -5.984886 1.423841 26.097335 0.231740 1.516210 0.125955 -0.020367 -157491.000000 0 0 1
-26.729965 -6.334886 2.039141 27.545960 0.232702 1.496702 0.143108 -0.025107 -334105.000000 0 0 1
-26.632045 -6.805186 3.396241 27.696766 0.250173 1.447865 0.131307 -0.019970 295423.000000 0 0 1
-27.851655 -7.304686 3.918741 29.059072 0.256494 1.435530 0.120511 -0.006607 71842.800000 0 0 1
-27.845805 -7.603986 5.489141 29.382650 0.266575 1.382877 0.113788 -0.005835 16582.000000 0 0 1
-27.060855 -8.752186 5.868841 29.040212 0.312808 1.367301 0.108983 0.003771 113608.000000 0 0 1
-27.105785 -9.119986 7.230641 29.498812 0.324561 1.323157 0.078929 -0.003461 -25011.100000 0 0 1
-26.538065 -8.028486 8.233441 28.922570 0.293774 1.282132 0.095535 -0.008825 302106.000000 0 0 1
-25.189945 -7.713686 7.904841 27.504923 0.297154 1.279288 0.120719 -0.015525 393030.000000 0 0 1
-24.724805 -6.553886 8.583041 26.980326 0.259114 1.247048 0.127178 -0.026046 -128977.000000 0 0 1
-23.381805 -6.024886 8.061941 25.455902 0.252188 1.248546 0.159823 -0.034528 534780.000000 0 0 1
-22.195505 -6.735586 8.425241 24.677789 0.294634 1.222380 0.151054 -0.044459 407435.000000 0 1 0
-21.072005 -6.305686 7.703941 23.305403 0.290764 1.233895 0.140705 -0.037408 -125372.000000 0 1 0
-19.760805 -6.725186 8.410041 22.504363 0.328034 1.187794 0.156425 -0.041978 -207809.000000 0 1 0
-19.388805 -5.926186 9.470741 22.377229 0.296632 1.133788 0.128150 -0.038304 108456.000000 0 1 0
-18.287405 -6.492686 10.142941 21.896653 0.341154 1.089173 0.120444 -0.051134 -317969.000000 0 1 0
-17.810805 -5.614486 11.281341 21.817789 0.305369 1.027371 0.094703 -0.029788 -254424.000000 0 1 0
-18.725105 -5.538786 12.354141 23.106980 0.287594 1.006703 0.107138 -0.033255 127299.000000 0 1 0
-18.970605 -4.174786 12.634641 23.172114 0.216613 0.994107 0.108014 -0.027982 -585260.000000 0 1 0
-20.203205 -3.882386 13.463241 24.586608 0.189852 0.991322 0.108396 -0.041461 -873810.000000 0 1 0
-20.113705 -4.378386 14.779341 25.340883 0.214338 0.948108 0.105297 -0.034885 495106.000000 0 0 1
-21.313205 -4.289286 15.547541 26.727827 0.198597 0.949981 0.089991 -0.015933 64744.700000 0 0 1
-21.044105 -4.884186 16.916141 27.438394 0.228055 0.906489 0.082454 -0.014913 -49656.900000 0 0 1
-21.939605 -4.684686 18.005041 28.765849 0.210367 0.894489 0.077157 -0.018123 399143.000000 0 0 1
-21.651005 -5.564186 19.065941 29.380883 0.251551 0.864628 0.078662 -0.020511 87291.200000 0 0 1
-22.648705 -5.355486 20.252541 30.851426 0.232194 0.854688 0.095453 -0.010768 81933.900000 0 0 1
-22.419005 -4.103686 20.858941 30.895752 0.181041 0.829643 0.077592 -0.008214 160416.000000 0 0 1
-23.208005 -3.860486 21.996841 32.208320 0.164834 0.818996 0.086696 -0.015777 -192485.000000 0 0 1
-23.246405 -2.375186 22.466941 32.416050 0.101821 0.805042 0.076531 -0.007547 -211474.000000 0 0 1
-24.071405 -1.520986 21.737941 32.469741 0.063103 0.837284 0.081266 -0.009209 -289188.000000 0 0 1
-24.184305 -0.290086 22.385141 32.955414 0.011994 0.824049 0.072039 -0.017082 57294.200000 0 0 1
-25.346215 0.523314 21.743941 33.399154 -0.020644 0.861852 0.097663 -0.018588 47322.300000 0 0 1
-26.550625 0.351714 22.441641 34.766171 -0.013246 0.869116 0.115324 -0.019099 -414214.000000 0 0 1
-27.553465 1.260914 22.037741 35.305034 -0.045731 0.896677 0.124208 -0.018649 49126.100000 0 0 1
-28.604865 1.393214 23.167941 36.836570 -0.048667 0.890609 0.114623 -0.025114 -436884.000000 0 0 1
-28.295015 2.329314 24.222941 37.320028 -0.082137 0.864448 0.107080 -0.023862 171004.000000 0 0 1
-29.267675 2.323414 25.227841 38.709677 -0.079219 0.860947 0.102786 -0.030411 19305.700000 0 0 1
-28.695865 3.219014 26.395941 39.122378 -0.111710 0.830236 0.104722 -0.025747 472105.000000 0 0 1
-27.601745 2.578714 27.043741 38.728156 -0.093155 0.797781 0.103002 -0.029745 243767.000000 0 0 1
-27.085875 3.456314 28.000741 39.110514 -0.126920 0.772828 0.100454 -0.028392 -111900.000000 0 0 1
-25.953115 2.831714 28.839541 38.901182 -0.108679 0.735711 0.097701 -0.023732 181032.000000 0 0 1
-26.431745 1.957214 29.839041 39.910353 -0.073913 0.726277 0.095293 -0.024004 825529.000000 0 0 1
-25.276325 1.500514 30.552041 39.680869 -0.059295 0.692043 0.086875 -0.029755 722178.000000 0 0 1
-25.627045 0.406614 31.577241 40.669804 -0.015865 0.681816 0.084397 -0.037371 -18552.700000 0 0 1
-26.058335 -0.764586 30.962441 40.475847 0.029333 0.699816 0.065384 -0.032604 -318680.000000 0 0 1
-26.578425 -1.671486 31.878741 41.538665 0.062806 0.695946 0.064693 -0.024856 -635173.000000 0 0 1
-27.484075 -2.626986 31.104841 41.590703 0.095293 0.725934 0.068141 -0.013216 46585.800000 0 0 1
-28.729485 -2.122586 30.604341 42.029923 0.073748 0.755169 0.072769 -0.017764 423576.000000 0 0 1
-28.829025 -1.179286 29.564441 41.310527 0.040883 0.773223 0.076653 -0.014912 -1483730.000000 0 0 1
-30.293175 -1.061686 29.240941 42.116936 0.035033 0.803377 0.073102 -0.029056 -353905.000000 0 0 1
-31.081125 -0.276186 30.152941 43.304879 0.008886 0.800575 0.102558 -0.023931 -924269.000000 0 0 1
-32.420555 -0.406286 29.816441 44.048583 0.012531 0.827255 0.080985 -0.024825 -303822.000000 0 0 1
-33.397735 -0.132286 31.011941 45.575945 0.003961 0.822426 0.092600 -0.012593 252604.000000 0 0 1
-33.402625 -1.116286 31.986641 46.261503 0.033407 0.807328 0.071628 -0.011511 -18957.200000 0 0 1
-34.397670 -0.795486 32.941941 47.634064 0.023122 0.807146 0.090015 -0.013558 178007.000000 0 0 1
-34.590179 -1.898586 34.015941 48.550689 0.054833 0.794520 0.084882 -0.009459 177696.000000 0 0 1
-35.292168 -3.038486 33.519841 48.768323 0.085883 0.812992 0.057540 -0.002627 -9716.360000 0 0 1
-35.177662 -4.099086 -33.632588 48.840776 0.116002 2.330376 0.053846 -0.000820 96297.000000 0 0 1
-36.154445 -5.287086 -33.909188 49.849074 0.145207 2.318882 0.053922 -0.008481 85525.200000 0 0 1
36.422939 -4.906786 -33.676688 49.848032 -0.133911 2.312557 0.054254 -0.013714 -27941.100000 0 0 1
35.440039 -5.834186 33.841141 49.348322 -0.163158 0.815148 0.062988 -0.013760 985892.000000 0 0 1
33.973709 -5.317786 -33.973688 48.339458 -0.155267 2.350143 0.068364 -0.009732 135774.000000 0 0 1
33.500059 -5.580386 -32.666388 47.122049 -0.165063 2.336757 0.078420 -0.024338 -15620.000000 0 0 1
33.011749 -6.904586 -32.493388 46.832351 -0.206183 2.337581 0.084653 -0.024615 418984.000000 0 0 1
31.599739 -7.178886 -33.163888 46.367266 -0.223390 2.367769 0.088012 -0.023423 524235.000000 0 0 1
30.559009 -6.888686 -32.247288 44.957698 -0.221716 2.370688 0.085523 -0.025856 298558.000000 0 0 1
29.278589 -7.206386 -32.782388 44.540461 -0.241335 2.397959 0.093072 -0.024496 217571.000000 0 0 1
28.084289 -6.783286 -31.926488 43.058575 -0.236994 2.406050 0.089889 -0.033966 646244.000000 0 0 1
26.809589 -7.144786 -32.485588 42.721370 -0.260448 2.434734 0.082559 -0.029090 1169960.000000 0 0 1
25.718089 -6.985986 -31.575888 41.319012 -0.265237 2.440593 0.082519 -0.032132 800464.000000 0 0 1
24.322589 -7.480886 -32.070888 40.940125 -0.298387 2.470851 0.088110 -0.036808 511879.000000 0 0 1
24.196989 -8.869986 -32.125088 41.184854 -0.351363 2.465497 0.100993 -0.041262 205993.000000 0 0 1
23.848989 -9.447086 -30.822588 40.100544 -0.377158 2.447497 0.112464 -0.034335 -216976.000000 0 0 1
23.690489 -11.016986 -30.895988 40.462023 -0.435289 2.439636 0.124988 -0.032897 -339775.000000 0 0 1
22.516889 -11.433686 -31.512888 40.383184 -0.469854 2.466017 0.135501 -0.041320 -555516.000000 0 0 1
22.549289 -12.863486 -31.662488 40.944509 -0.518416 2.454830 0.124569 -0.033770 -111598.000000 0 0 1
21.364889 -13.422986 -32.522788 41.162686 -0.560950 2.481774 0.103384 -0.028299 784746.000000 0 0 1
20.040689 -13.172586 -32.094988 40.065377 -0.581484 2.499869 0.093331 -0.017603 137187.000000 0 0 1
19.566989 -11.862986 -32.399388 39.665070 -0.545021 2.526681 0.087510 -0.023205 51912.600000 0 0 1
18.186289 -11.524486 -31.731588 38.346428 -0.564825 2.545433 0.068470 -0.021983 537626.000000 0 0 1
17.052889 -12.000486 -32.387788 38.519884 -0.613219 2.569569 0.045212 -0.009739 -320077.000000 0 0 1
15.866489 -11.726386 -31.664988 37.308512 -0.636467 2.584382 0.059664 -0.014786 389320.000000 0 0 1
14.557789 -11.971186 -32.446388 37.523414 -0.688204 2.615343 0.050874 -0.018622 -752939.000000 0 0 1
14.278089 -13.285486 -32.851788 38.204815 -0.749402 2.605843 0.065932 -0.016812 339912.000000 0 0 1
13.023889 -13.457786 -33.495888 38.375880 -0.801781 2.631782 0.051904 -0.021015 1178200.000000 0 0 1
11.749189 -13.487186 -32.546688 37.138047 -0.854158 2.639070 0.045847 -0.026235 344196.000000 0 0 1
11.473289 -12.233486 -31.984488 36.115121 -0.817454 2.658636 0.084733 -0.017804 -610021.000000 0 0 1
10.406489 -12.267786 -31.080888 34.997359 -0.867303 2.663975 0.092116 -0.027253 66280.400000 0 0 1
9.190789 -11.446486 -31.584988 34.829644 -0.894268 2.706526 0.088871 -0.028686 -215418.000000 0 0 1
9.305089 -10.055586 -31.367588 34.229009 -0.824143 2.729797 0.077424 -0.018657 248282.000000 0 0 1
8.231789 -9.373086 -31.977088 34.324208 -0.850136 2.769639 0.067992 -0.016408 -239137.000000 0 0 1
8.593789 -7.893486 -32.291388 34.335027 -0.742948 2.794835 0.075356 -0.015230 -32110.700000 0 0 1
8.898889 -7.079386 -31.161488 33.171467 -0.672013 2.791691 0.068417 -0.019599 358519.000000 0 0 1
9.364289 -5.831586 -31.687488 33.552857 -0.556978 2.806577 0.055501 -0.010246 -24034.300000 0 0 1
9.559289 -4.787586 -30.506188 32.325354 -0.464312 2.804509 0.051144 -0.011106 224008.000000 0 0 1
8.295089 -4.412786 -29.972388 31.410591 -0.488900 2.837813 0.049496 -0.010113 260771.000000 0 0 1
8.407889 -3.378586 -29.018088 30.399948 -0.382087 2.838922 0.049378 -0.012475 -589484.000000 0 0 1
7.022189 -2.986986 -28.550488 29.552725 -0.402179 2.880415 0.042547 -0.006750 -1516150.000000 0 0 1
6.420989 -2.091886 -29.447088 30.211522 -0.314945 2.916159 0.042264 -0.004799 732257.000000 0 0 1
5.088989 -1.674286 -29.088088 29.577321 -0.317847 2.959457 0.054622 -0.009034 2485760.000000 0 0 1
3.880089 -2.739886 -29.105688 29.490730 -0.614835 2.979822 0.047890 -0.013651 744891.000000 0 0 1
4.161389 -3.624086 -28.022488 28.560654 -0.716494 2.947158 0.044226 -0.014727 -45992.800000 0 0 1
3.137089 -4.591686 -27.745588 28.297395 -0.971427 2.943785 0.063735 -0.018631 404145.000000 0 0 1
3.496389 -5.466086 -26.524388 27.306519 -1.001731 2.901674 0.051562 -0.032941 -177012.000000 0 0 1
3.335189 -4.817086 -25.336488 26.005104 -0.965212 2.914340 0.066787 -0.035915 -90915.300000 0 0 1
3.648689 -5.765686 -24.326288 25.265082 -1.006588 2.868133 0.053819 -0.042232 -5217.540000 0 0 1
3.427589 -5.247386 -22.903688 23.745786 -0.992175 2.874480 0.059678 -0.043983 627016.000000 0 1 0
4.364889 -4.172786 -22.652588 23.443637 -0.762901 2.881077 0.048628 -0.035839 320220.000000 0 1 0
4.156689 -3.580786 -21.411888 22.103598 -0.711105 2.890760 0.042025 -0.033522 -416846.000000 0 1 0
5.088589 -2.442086 -21.057288 21.800617 -0.447450 2.879706 0.048295 -0.033432 84266.400000 0 1 0
6.437389 -2.854086 -20.841488 21.998941 -0.417319 2.815765 0.051911 -0.030367 210782.000000 0 1 0
7.256589 -1.812886 -20.347388 21.678580 -0.244815 2.789329 0.073807 -0.027091 -69326.700000 0 1 0
8.727889 -2.232786 -20.246088 22.159997 -0.250451 2.722927 0.067162 -0.022896 -1461420.000000 0 1 0
9.464589 -2.499186 -21.456388 23.583913 -0.258164 2.713572 0.071990 -0.029629 968702.000000 0 1 0
10.663289 -3.228986 -21.132388 23.889535 -0.294036 2.656405 0.062987 -0.032399 800160.000000 0 1 0
11.807489 -2.493086 -20.413188 23.713509 -0.208088 2.607685 0.058243 -0.026713 -1252760.000000 0 1 0
11.474189 -2.197186 -19.074988 22.368277 -0.189199 2.592062 0.054992 -0.016316 319196.000000 0 1 0
12.500489 -1.512086 -18.346388 22.251709 -0.120377 2.540103 0.053217 -0.019945 165780.000000 0 1 0
12.615289 -0.015786 -18.635588 22.504020 -0.001251 2.546507 0.039229 -0.009115 -168251.000000 0 1 0
13.022189 0.317214 -19.932188 23.811135 0.024355 2.562748 0.037937 -0.012206 320995.000000 0 1 0
13.097689 1.696114 -20.009388 23.975026 0.128781 2.558190 0.055246 -0.017448 -127128.000000 0 1 0
13.522189 2.316414 -21.366288 25.391605 0.169658 2.570796 0.062569 -0.022136 -239944.000000 0 0 1
14.894489 2.223714 -21.682088 26.398932 0.148203 2.534525 0.071146 -0.022623 161656.000000 0 0 1
15.176289 3.289514 -22.553088 27.382155 0.213452 2.538599 0.082135 -0.031990 43581.600000 0 0 1
16.669989 3.503314 -22.934488 28.568382 0.207143 2.502761 0.070309 -0.030332 588027.000000 0 0 1
17.218889 2.506614 -23.828888 29.505748 0.144558 2.510870 0.065276 -0.024717 393994.000000 0 0 1
17.788189 1.338114 -23.237888 29.295215 0.075083 2.486894 0.056549 -0.022782 -192517.000000 0 0 1
9.891795 26.903714 3.114441 28.833266 1.218464 1.462570 0.008306 -0.018805 12068.200000 0 0 1
9.732695 27.055714 4.529241 29.107577 1.225482 1.414558 0.012360 -0.018716 500115.000000 0 0 1
10.828795 27.793814 5.084341 30.259039 1.199277 1.401968 0.022277 -0.017348 -130833.000000 0 0 1
10.510895 28.354414 6.528441 30.936585 1.215804 1.358171 0.019393 -0.022173 56910.900000 0 0 1
10.245895 27.340814 7.457241 30.134846 1.212247 1.320736 0.009284 -0.023736 75972.300000 0 0 1
10.214895 27.878614 8.770941 30.959500 1.219581 1.283559 0.016119 -0.020184 -742338.000000 0 0 1
10.331095 26.932614 9.898841 30.497284 1.204516 1.240228 0.029887 -0.023015 586215.000000 0 0 1
11.553795 26.257214 10.247541 30.462167 1.156270 1.227702 0.038468 -0.017721 586849.000000 0 0 1
12.105995 25.433614 9.223641 29.639491 1.126545 1.254347 0.037712 -0.021105 -652483.000000 0 0 1
13.392795 24.753614 9.683841 29.763823 1.074855 1.239408 0.055077 -0.025151 224369.000000 0 0 1
14.471495 25.689414 9.891841 31.100140 1.057780 1.247109 0.069250 -0.029578 1825540.000000 0 0 1
15.728495 24.996614 10.210041 31.248380 1.009165 1.237946 0.079191 -0.027758 1772890.000000 0 0 1
16.860595 25.990114 10.618741 32.749403 0.995314 1.240586 0.079781 -0.029955 -160698.000000 0 0 1
17.632595 26.577114 9.555641 33.295070 0.985024 1.279704 0.070344 -0.032696 18052.300000 0 0 1
19.015295 26.426914 9.645941 33.955963 0.947074 1.282758 0.059977 -0.034816 -515270.000000 0 0 1
19.811895 27.051914 10.750941 35.212214 0.938677 1.260523 0.065797 -0.035856 -1160530.000000 0 0 1
19.959195 28.473614 10.656241 36.368553 0.959419 1.273426 0.066413 -0.045960 794313.000000 0 0 1
18.762995 29.220514 10.992341 36.424168 0.999983 1.264230 0.061476 -0.028335 714097.000000 0 0 1
18.933195 30.669514 11.351741 37.788186 1.017732 1.265680 0.067198 -0.015757 -524461.000000 0 0 1
19.389595 31.641314 10.357441 38.527987 1.021023 1.298619 0.066833 -0.038188 300351.000000 0 0 1
18.614595 31.912314 9.186541 38.069561 1.042743 1.327081 0.084965 -0.039864 1222960.000000 0 0 1
17.177095 32.569114 9.394741 38.000802 1.085466 1.320981 0.083322 -0.027591 1046040.000000 0 0 1
17.217895 33.962614 9.794441 39.317250 1.101591 1.319032 0.070858 -0.026084 -521359.000000 0 0 1
15.977995 -33.508282 9.828041 38.401715 -1.125850 1.311990 0.080820 -0.011716 -489926.000000 0 0 1
16.028495 -31.962182 9.944741 37.113227 -1.105963 1.299525 0.089721 -0.001420 89025.900000 0 0 1
16.741395 -31.472482 8.806041 36.719720 -1.081926 1.328618 0.098972 -0.015772 321589.000000 0 0 1
16.638895 -30.063982 8.698941 35.445274 -1.065309 1.322845 0.080123 -0.024146 -104836.000000 0 0 1
17.280295 -29.625682 7.386141 35.083397 -1.042756 1.358678 0.074865 -0.023466 765.887000 0 0 1
16.581195 -30.052082 6.252841 34.887845 -1.066612 1.390596 0.083802 -0.013320 -147416.000000 0 0 1
17.142595 -29.406582 5.147841 34.425512 -1.043007 1.420698 0.077019 -0.018098 -5996.960000 0 0 1
16.500395 -29.787782 3.796041 34.263464 -1.064940 1.459779 0.079283 -0.026002 -69057.300000 0 0 1
16.895295 -31.024482 3.368641 35.486860 -1.072124 1.475727 0.076711 -0.021862 -95055.700000 0 0 1
16.946895 -31.252782 1.959041 35.605779 -1.073921 1.515748 0.070888 -0.030228 -125242.000000 0 0 1
17.318195 -32.677282 1.574541 37.016264 -1.083456 1.528247 0.070544 -0.023434 369717.000000 0 0 1
18.679295 -32.998882 1.871241 37.965034 -1.055708 1.521488 0.070817 -0.010571 553489.000000 0 0 1
18.918495 33.739614 1.432341 38.708173 1.059760 1.533784 0.091265 -0.011225 1115060.000000 0 0 1
20.335395 33.157614 1.857741 38.941069 1.020658 1.523072 0.096913 -0.015252 1220220.000000 0 0 1
20.420695 33.093414 3.261841 39.023307 1.017925 1.487112 0.072705 -0.036244 443478.000000 0 0 1
21.770595 32.787014 3.607241 39.521631 0.984642 1.479397 0.039916 -0.014708 467728.000000 0 0 1
21.986695 32.883014 5.138941 39.888797 0.981433 1.441606 0.036904 -0.001645 -603738.000000 0 0 1
21.502795 31.755614 5.863641 38.796540 0.975582 1.419077 0.054214 -0.017680 586854.000000 0 0 1
22.383795 30.598214 5.961441 38.377386 0.939215 1.414827 0.040948 -0.020872 -175838.000000 0 0 1
21.746395 29.507614 6.757641 37.272922 0.935683 1.388486 0.060097 -0.037620 -392823.000000 0 0 1
20.521995 29.136514 6.192541 36.172314 0.957164 1.398753 0.064427 -0.032672 -1221970.000000 0 0 1
19.619995 28.799314 7.166341 35.576694 0.972754 1.367975 0.059075 -0.043913 -1101680.000000 0 0 1
18.202495 28.758214 6.607241 34.670180 1.006501 1.379049 0.081314 -0.030995 -273663.000000 0 0 1
17.535495 29.991814 6.200841 35.290975 1.041721 1.394173 0.071055 -0.038432 248664.000000 0 0 1
18.008995 30.590014 5.017441 35.850350 1.038711 1.430380 0.072125 -0.032877 -344175.000000 0 0 1
17.987195 32.206514 5.146741 37.246311 1.061454 1.432172 0.085815 -0.032661 -259127.000000 0 0 1
16.687795 32.727414 5.145341 37.095022 1.099258 1.431641 0.097813 -0.025604 -333900.000000 0 0 1
16.736995 -33.987882 5.285841 38.252363 -1.113215 1.432169 0.094451 -0.026857 -1220570.000000 0 0 1
15.467495 -33.359882 5.738841 37.216387 -1.136645 1.415977 0.087649 -0.028761 -255139.000000 0 0 1
14.448595 -33.381582 4.694341 36.675997 -1.162311 1.442449 0.082319 -0.020640 757956.000000 0 0 1
13.359095 -32.481882 4.919041 35.464561 -1.180605 1.431645 0.072152 -0.020194 306090.000000 0 0 1
12.424795 -32.495382 3.723941 34.988471 -1.205592 1.464161 0.067621 -0.024917 189169.000000 0 0 1
11.430195 -31.467682 3.637641 33.676354 -1.222379 1.462567 0.063363 -0.028055 480218.000000 0 0 1
10.763695 -31.428082 2.364641 33.304249 -1.240831 1.499735 0.058369 -0.014746 -912027.000000 0 0 1
9.956095 -30.141682 2.263341 31.824009 -1.251769 1.499616 0.058863 -0.012829 -195400.000000 0 0 1
9.336695 -29.843682 1.000241 31.286095 -1.267590 1.538820 0.066508 -0.001381 -340473.000000 0 0 1
8.254295 -30.686882 0.766441 31.786877 -1.308031 1.546682 0.046275 -0.007694 -1562180.000000 0 0 1
8.264795 -31.297182 -0.607459 32.375754 -1.312615 1.589560 0.075051 -0.008479 -377815.000000 0 0 1
9.492895 -31.907082 -0.912659 33.301800 -1.281619 1.598205 0.067921 -0.020094 -198396.000000 0 0 1
9.464995 -32.709482 -2.126259 34.117698 -1.289124 1.633158 0.067908 -0.012427 326022.000000 0 0 1
10.794295 -33.520082 -2.177059 35.282464 -1.259258 1.632539 0.069530 -0.014361 411339.000000 0 0 1
10.838595 33.607314 -1.156559 35.330785 1.258821 1.603537 0.070876 -0.019698 -101410.000000 0 0 1
12.089995 32.967114 -1.163159 35.133340 1.219297 1.603909 0.087300 -0.025099 -440170.000000 0 0 1
12.296395 32.018214 0.073941 34.298292 1.204121 1.568640 0.072549 -0.029454 -201466.000000 0 0 1
12.718195 32.492614 1.379141 34.920259 1.197710 1.531292 0.062236 -0.026433 -60647.600000 0 0 1
13.977795 33.105614 1.396241 35.962619 1.171284 1.531962 0.074917 -0.024589 -529910.000000 0 0 1
15.205395 32.211114 1.552441 35.653471 1.129754 1.527240 0.083938 -0.027888 -713050.000000 0 0 1
15.864195 31.797114 0.389641 35.537037 1.108014 1.559832 0.088826 -0.025272 643546.000000 0 0 1
16.636795 30.566314 0.501541 34.804225 1.072351 1.556385 0.092881 -0.018734 183332.000000 0 0 1
17.190095 29.987614 -0.817059 34.574904 1.050286 1.594430 0.090674 -0.014564 417774.000000 0 0 1
18.232895 30.633614 -1.562759 35.683315 1.033919 1.614606 0.059640 -0.006820 329310.000000 0 0 1
17.868095 31.920514 -2.076359 36.640133 1.060484 1.627496 0.075245 -0.013839 -948727.000000 0 0 1
18.938695 32.798714 -2.644559 37.966084 1.047144 1.640509 0.061752 -0.005380 -100545.000000 0 0 1
19.936595 33.238814 -1.701159 38.796656 1.030525 1.614658 0.058939 0.001747 928954.000000 0 0 1
21.006395 33.946914 -2.311059 39.987531 1.016667 1.628623 0.052117 0.005943 -226284.000000 0 0 1
21.991595 -33.303282 -1.449259 39.935438 -0.987184 1.607094 0.049069 0.006430 237669.000000 0 0 1
22.973795 -34.011282 -0.645659 41.048501 -0.976720 1.586526 0.041045 0.004505 1341920.000000 0 0 1
23.917495 33.214014 -1.295859 40.949927 0.946706 1.602447 0.051980 0.014147 550141.000000 0 0 1
24.819695 33.827414 -2.450959 42.027591 0.937799 1.629147 0.052225 0.008673 -505021.000000 0 0 1
24.018995 -33.771482 -3.546159 41.593273 -0.952579 1.656158 0.051989 -0.003114 -56753.100000 0 0 1
24.766495 -33.279282 -4.633759 41.741605 -0.931017 1.682036 0.054481 -0.006838 -301160.000000 0 0 1
23.967395 -32.838582 -5.893859 41.079753 -0.940313 1.714767 0.044295 -0.020817 -134040.000000 0 0 1
23.057795 -31.789282 -5.624559 39.671854 -0.943270 1.713053 0.057140 -0.020015 43804.000000 0 0 1
22.423695 -31.365082 -6.797559 39.150955 -0.950123 1.745305 0.058334 -0.026041 28706.700000 0 0 1
21.435995 -30.193082 -6.544559 37.602597 -0.953415 1.745733 0.066699 -0.024529 -357537.000000 0 0 1
20.200395 -30.467482 -5.977359 37.041224 -0.985326 1.732875 0.066098 -0.017352 -851750.000000 0 0 1
19.469995 -29.258782 -6.020559 35.656755 -0.983643 1.740457 0.080550 -0.030013 -1021550.000000 0 0 1
18.239595 -29.195682 -5.196259 34.814821 -1.012387 1.720610 0.066570 -0.021294 -763824.000000 0 0 1
17.174195 -30.002982 -5.696059 35.036795 -1.050906 1.734095 0.078177 -0.028949 -494916.000000 0 0 1
16.154995 -29.963082 -4.747459 34.370169 -1.076311 1.709367 0.062642 -0.022125 -151124.000000 0 0 1
14.878295 -30.775182 -5.083259 34.558863 -1.120475 1.718422 0.056896 -0.015688 142238.000000 0 0 1
15.067995 -32.169382 -4.990359 35.872236 -1.132750 1.710364 0.058105 -0.007076 -689993.000000 0 0 1
13.885095 -32.831582 -5.290559 36.037462 -1.170690 1.718136 0.075178 -0.005625 -556893.000000 0 0 1
13.915495 33.758414 -5.242559 36.888426 1.179810 1.713398 0.077387 -0.014718 -935.173000 0 0 1
14.028695 33.173214 -3.951659 36.233714 1.170712 1.680074 0.090426 -0.025372 -103917.000000 0 0 1
14.394595 31.801514 -3.913259 35.126262 1.145750 1.682434 0.087324 -0.017226 -578278.000000 0 0 1
13.421895 30.758314 -4.459859 33.854269 1.159338 1.702917 0.084366 -0.019205 -87802.500000 0 0 1
12.360895 30.263114 -3.665959 32.895092 1.183029 1.682472 0.076578 -0.022601 109689.000000 0 0 1
12.786995 29.476614 -2.590659 32.234912 1.161495 1.651251 0.074196 -0.026400 -141867.000000 0 0 1
11.632195 28.669214 -1.941459 31.000017 1.185353 1.633465 0.060244 -0.020663 -29040.200000 0 0 1
10.734595 29.476814 -1.265659 31.396115 1.221553 1.611120 0.047486 -0.027047 -727164.000000 0 0 1
9.824395 28.684614 -0.554759 30.325461 1.240821 1.589091 0.033706 -0.020681 -350022.000000 0 0 1
8.839495 29.506314 0.292541 30.803325 1.279725 1.561299 0.025455 -0.011667 -194212.000000 0 0 1
8.012895 28.602014 0.953441 29.718526 1.297647 1.538708 0.015763 -0.017495 557092.000000 0 0 1
6.715095 29.170614 1.263541 29.960203 1.344537 1.528610 0.026657 -0.014819 669405.000000 0 0 1
5.918295 28.280914 2.192641 28.976611 1.364505 1.495055 0.030570 -0.021038 -108579.000000 0 0 1
5.386895 27.156014 1.489041 27.725169 1.374970 1.517063 0.044846 -0.033113 -105652.000000 0 0 1
4.054895 26.899314 1.863741 27.266991 1.421179 1.502391 0.048221 -0.035291 63453.800000 0 0 1
3.415695 25.690714 1.088741 25.939644 1.438617 1.528812 0.057240 -0.035602 -52182.500000 0 0 1
2.075595 25.507414 1.484341 25.634733 1.489603 1.512860 0.071401 -0.035038 -186136.000000 0 0 1
1.484195 24.734114 0.476641 24.783189 1.510862 1.551563 0.062962 -0.029919 152690.000000 0 1 0
0.100895 24.096914 0.748441 24.108746 1.566609 1.539747 0.063858 -0.027262 593181.000000 0 1 0
-1.027905 24.949514 0.659741 24.979394 -1.529620 1.544382 0.085404 -0.036678 -167417.000000 0 1 0
-2.228505 24.216614 0.624941 24.326965 -1.479031 1.545104 0.072511 -0.035724 -327954.000000 0 1 0
-3.383805 24.970414 1.315441 25.232957 -1.436104 1.518641 0.098913 -0.046898 -1200210.000000 0 0 1
-4.508805 24.176614 1.235241 24.624456 -1.386420 1.520612 0.090912 -0.045081 -266293.000000 0 1 0
-5.511605 24.686414 2.159341 25.386209 -1.351134 1.485634 0.073010 -0.037289 383441.000000 0 0 1
-6.842405 25.127314 1.545541 26.088103 -1.304933 1.511518 0.081974 -0.034754 -378823.000000 0 0 1
-6.816305 26.372714 0.868341 27.253185 -1.317871 1.538929 0.103880 -0.042741 212827.000000 0 0 1
-7.914205 26.439514 -0.031259 27.598615 -1.279952 1.571929 0.095294 -0.031818 122583.000000 0 0 1
-7.760405 27.669614 -1.004259 28.754826 -1.297355 1.605728 0.095853 -0.034601 -36758.200000 0 0 1
-7.917905 28.965914 -0.516559 30.033053 -1.303962 1.587997 0.109612 -0.041235 -3930.780000 0 0 1
-7.938005 29.903714 -1.592159 30.980301 -1.311328 1.622212 0.108273 -0.042755 -209141.000000 0 0 1
-7.646205 31.350614 -1.114159 32.288804 -1.331573 1.605309 0.097599 -0.045538 -727267.000000 0 0 1
-7.704205 32.412514 -2.061659 33.379280 -1.337434 1.632600 0.088458 -0.036654 -259865.000000 0 0 1
-6.725005 32.381614 -3.052859 33.213169 -1.366027 1.662843 0.071856 -0.029115 -821106.000000 0 0 1
-5.296505 32.729614 -2.669559 33.262699 -1.410361 1.651140 0.091747 -0.039561 -1468010.000000 0 0 1
-5.097605 -34.015882 -2.477559 34.484839 1.422044 1.642703 0.098710 -0.040880 84368.700000 0 0 1
-4.166105 -33.670082 -1.467959 33.958589 1.447689 1.614038 0.090941 -0.044377 -80287.700000 0 0 1
-4.150405 -32.096782 -1.436659 32.395884 1.442201 1.615158 0.089829 -0.043015 -353939.000000 0 0 1
-5.418605 -31.633882 -1.099759 32.113444 1.401152 1.605049 0.097695 -0.040217 -561988.000000 0 0 1
-5.600205 -30.358282 -1.644659 30.914277 1.388377 1.624022 0.100825 -0.033209 81275.200000 0 0 1
-7.007705 -29.761782 -1.438359 30.609484 1.339549 1.617804 0.122354 -0.032632 78797.300000 0 0 1
-7.219405 -29.140582 -0.175659 30.022062 1.327942 1.576647 0.115614 -0.027470 -804255.000000 0 0 1
-8.466905 -28.546482 -0.045959 29.775699 1.282461 1.572340 0.091715 -0.020504 -413051.000000 0 0 1
-8.662305 -27.845382 1.313941 29.191219 1.269200 1.525770 0.098485 -0.018409 397964.000000 0 0 1
-7.726705 -26.766582 1.343341 27.891871 1.289766 1.522615 0.101753 -0.020191 27021.900000 0 0 1
-7.463505 -26.335682 2.672641 27.503001 1.294639 1.473466 0.104278 -0.009741 133213.000000 0 0 1
-8.373005 -25.185882 3.182841 26.731374 1.249842 1.451446 0.091870 -0.007806 110445.000000 0 0 1
-8.167105 -23.893682 2.724241 25.397464 1.241436 1.463325 0.093262 -0.012407 -649398.000000 0 0 1
-9.000905 -23.026182 3.406741 24.956507 1.198160 1.433862 0.089724 -0.017792 -381508.000000 0 1 0
-8.214005 -21.785582 3.721641 23.578212 1.210240 1.412291 0.055609 -0.005484 116167.000000 0 1 0
-7.470805 -21.887282 4.908841 23.642394 1.241865 1.361646 0.051572 -0.001526 -565303.000000 0 1 0
-6.915205 -20.646482 5.335841 22.418040 1.247606 1.330474 0.032990 -0.000319 -413177.000000 0 1 0
-7.799505 -19.491482 5.825541 21.787315 1.190161 1.300121 0.039144 -0.010600 -153341.000000 0 1 0
-8.349205 -19.760482 7.114741 22.601005 1.171028 1.250553 0.051765 -0.010362 287550.000000 0 1 0
-9.178405 -18.729882 7.641141 22.213479 1.115148 1.219637 0.048828 -0.019307 -95801.100000 0 1 0
-28.312805 29.170914 -5.975359 41.088467 -0.800325 1.716741 0.085546 -0.010833 -132613.000000 0 0 1
-27.545515 29.678114 -4.920059 40.789127 -0.822649 1.691713 0.096712 -0.019944 -250373.000000 0 0 1
-26.459315 28.884914 -4.523859 39.432207 -0.829198 1.685774 0.078415 -0.017965 153460.000000 0 0 1
-25.472815 29.626214 -3.562559 39.233515 -0.860636 1.661726 0.066525 -0.012605 -52312.600000 0 0 1
-25.990855 29.846714 -2.238059 39.640381 -0.854344 1.627285 0.063383 -0.021245 -41125.100000 0 0 1
-25.438135 30.910614 -1.514659 40.060692 -0.882213 1.608614 0.067530 -0.020988 -580049.000000 0 0 1
-24.138005 30.635314 -0.778659 39.009897 -0.903468 1.590758 0.054099 -0.009618 15413.000000 0 0 1
-23.010005 30.356514 -1.635459 38.126802 -0.922200 1.613705 0.070007 -0.019874 344847.000000 0 0 1
-21.888605 30.268114 -0.779759 37.361448 -0.944697 1.591669 0.059160 -0.012199 -744843.000000 0 0 1
-20.617205 29.884314 -1.492259 36.336872 -0.966881 1.611875 0.046249 -0.013208 -826524.000000 0 0 1
-19.455005 29.888214 -0.726759 35.669746 -0.993771 1.591172 0.050125 -0.009517 -525307.000000 0 0 1
-18.291705 29.730414 -1.469259 34.937698 -1.019237 1.612862 0.048801 -0.013717 162075.000000 0 0 1
-16.907605 30.126814 -0.892659 34.558485 -1.059384 1.596630 0.047905 -0.017395 465226.000000 0 0 1
-16.493105 29.188914 0.111241 33.526521 -1.056474 1.567478 0.045495 -0.013592 -483618.000000 0 0 1
-15.341505 29.647714 0.741641 33.390100 -1.093279 1.548583 0.052589 -0.021048 -295712.000000 0 0 1
-14.838505 28.744114 1.895441 32.403673 -1.094251 1.512268 0.068207 -0.023775 14624.200000 0 0 1
-15.618705 28.955614 3.072941 33.042617 -1.076126 1.477662 0.048422 -0.018264 166112.000000 0 0 1
-15.091305 28.294414 4.222241 32.344222 -1.080813 1.439882 0.057544 -0.024088 768453.000000 0 0 1
-13.735805 28.888514 4.758941 32.339854 -1.126959 1.423106 0.077509 -0.022070 572823.000000 0 0 1
-13.791105 30.143414 5.469741 33.596698 -1.141709 1.407262 0.081709 -0.022363 -351416.000000 0 0 1
-14.171505 31.272814 4.733141 34.658666 -1.145320 1.433804 0.091305 -0.032171 -224071.000000 0 0 1
-13.894805 32.532314 5.474841 35.796522 -1.167142 1.417250 0.097484 -0.027567 2187.080000 0 0 1
-14.867205 32.828614 6.463341 36.613201 -1.145555 1.393336 0.087198 -0.024427 84053.100000 0 0 1
-14.497105 33.973514 7.165041 37.625836 -1.167472 1.379197 0.110207 -0.033195 -149163.000000 0 0 1
-15.617805 -33.540482 8.021441 37.857936 1.135012 1.357295 0.088091 -0.023407 -176771.000000 0 0 1
-15.887705 33.766214 9.151241 38.422931 -1.131009 1.330314 0.061985 -0.017319 -83888.500000 0 0 1
-16.929705 -33.854282 9.965841 39.141351 1.107088 1.313350 0.072532 -0.018022 -635566.000000 0 0 1
-17.210405 33.290614 11.172041 39.105979 -1.093661 1.281074 0.064710 -0.011240 132619.000000 0 0 1
-16.420205 33.439014 12.327541 39.239764 -1.114335 1.251225 0.069640 -0.014408 486321.000000 0 0 1
-15.051305 33.039514 12.215741 38.306340 -1.143333 1.246232 0.069981 -0.011696 305921.000000 0 0 1
-14.234705 33.094214 13.500941 38.472448 -1.164591 1.212238 0.062602 -0.010672 -479229.000000 0 0 1
-14.730405 32.275814 14.532341 38.339301 -1.142640 1.182032 0.045767 -0.004451 -47476.100000 0 0 1
-14.252305 30.924514 14.718841 37.095796 -1.138936 1.162791 0.037903 -0.006403 -295004.000000 0 0 1
-14.991105 29.865914 13.887541 36.187980 -1.105592 1.176930 0.041756 -0.006862 78151.200000 0 0 1
-14.649705 29.857314 12.505541 35.531136 -1.114651 1.211132 0.042823 -0.003413 795416.000000 0 0 1
-15.760405 29.322314 11.760541 35.305790 -1.077610 1.231201 0.024938 -0.004735 616919.000000 0 0 1
-15.610105 29.302014 10.261941 34.750408 -1.081308 1.271022 0.022788 -0.000840 -151063.000000 0 0 1
-14.907305 28.171814 9.834941 33.355733 -1.084096 1.271498 0.019851 0.001659 -108042.000000 0 0 1
-14.770805 28.174214 8.486441 32.923893 -1.087924 1.310094 0.028228 -0.002090 -418777.000000 0 0 1
-14.024705 26.927114 7.963041 31.387448 -1.090616 1.314291 0.036944 -0.008290 -921924.000000 0 0 1
-12.682205 26.968114 8.301441 30.935925 -1.131217 1.299124 0.044903 -0.006227 -481400.000000 0 0 1
-12.028305 25.707514 7.972041 29.480669 -1.133165 1.296971 0.050773 -0.010778 138618.000000 0 0 1
-10.912805 25.833914 6.922641 28.886042 -1.171112 1.328787 0.069349 -0.022233 -398976.000000 0 0 1
-11.330105 26.132314 5.607941 29.029608 -1.161692 1.376394 0.081801 -0.026211 -325507.000000 0 0 1
-10.269005 25.999214 4.739241 28.352637 -1.194630 1.402855 0.101593 -0.021480 -512999.000000 0 0 1
-10.652805 26.511214 3.317441 28.763382 -1.188720 1.455203 0.095263 -0.032225 103515.000000 0 0 1
-10.649805 27.929814 3.141741 30.056005 -1.206509 1.466075 0.112313 -0.029852 33381.200000 0 0 1
-10.771905 28.228014 1.764241 30.264952 -1.206249 1.512470 0.112457 -0.033961 -111628.000000 0 0 1
-10.458205 29.640714 1.387541 31.462220 -1.231600 1.526680 0.145816 -0.042421 -42991.200000 0 0 1
-11.355605 30.617214 1.871841 32.708827 -1.215634 1.513538 0.128861 -0.045215 20184.600000 0 0 1
-10.894505 31.944414 1.633141 33.790576 -1.242121 1.522446 0.128502 -0.048297 425721.000000 0 0 1
-11.761805 32.906414 2.520141 35.036028 -1.227516 1.498804 0.126637 -0.045851 1468540.000000 0 0 1
-13.102105 33.282414 2.115941 35.831013 -1.195763 1.511709 0.117470 -0.047886 1010630.000000 0 0 1
-13.076805 -33.848882 1.095041 36.303564 1.202131 1.540628 0.106408 -0.044590 -576470.000000 0 0 1
-14.494305 -33.480282 0.661941 36.489072 1.162236 1.552655 0.108407 -0.037888 -89560.500000 0 0 1
-15.256705 33.547714 0.122841 36.854190 -1.143978 1.567463 0.092060 -0.030911 27273.500000 0 0 1
-15.506605 33.653414 -1.274859 37.076035 -1.139019 1.605188 0.084051 -0.023794 151130.000000 0 0 1
-14.328405 33.251414 -2.221859 36.275287 -1.163930 1.632085 0.093242 -0.020031 269977.000000 0 0 1
-13.993605 31.903214 -2.229459 34.908546 -1.157440 1.634706 0.085508 -0.017066 1673390.000000 0 0 1
-12.535805 31.798814 -2.108359 34.245528 -1.195281 1.632401 0.088140 -0.014425 1626930.000000 0 0 1
-12.131905 30.312514 -2.170159 32.722183 -1.190094 1.637166 0.078603 -0.017585 -239588.000000 0 0 1
-12.180005 29.667214 -3.423559 32.252394 -1.181225 1.677146 0.059270 -0.010632 -138775.000000 0 0 1
-11.018605 29.723814 -4.254059 31.984556 -1.215801 1.704195 0.061006 -0.012427 173872.000000 0 0 1
-11.062105 29.103014 -5.670559 31.646656 -1.207560 1.750953 0.065345 -0.005372 -216516.000000 0 0 1
-11.187205 27.698714 -5.647759 30.401801 -1.186942 1.757652 0.057243 0.003269 94585.700000 0 0 1
-10.907105 27.187414 -6.941659 30.104934 -1.189271 1.803472 0.056954 -0.000209 -135392.000000 0 0 1
-11.385605 25.736514 -7.095959 29.023315 -1.154288 1.817792 0.069910 -0.008499 7336.420000 0 0 1
-10.788105 24.743514 -6.301059 27.718731 -1.159648 1.800122 0.045699 -0.005944 -196908.000000 0 0 1
-11.438405 23.499514 -6.451559 26.920009 -1.117804 1.812808 0.082591 -0.015912 -172580.000000 0 0 1
-10.859805 22.355014 -5.637659 25.484608 -1.118583 1.793860 0.072335 -0.023075 -1360170.000000 0 0 1
-9.562005 22.014614 -5.958959 24.730232 -1.161034 1.814150 0.073619 -0.023080 -837018.000000 0 1 0
-8.989105 20.843714 -5.427659 23.339321 -1.163634 1.805499 0.072522 -0.023508 -301842.000000 0 1 0
-8.856605 20.749914 -3.905259 22.896494 -1.167380 1.742196 0.067166 -0.033226 102019.000000 0 1 0
-10.016705 20.644214 -3.054959 23.148450 -1.119053 1.703155 0.077412 -0.035949 542609.000000 0 1 0
-10.641905 19.356814 -2.998259 22.291836 -1.068125 1.705705 0.078848 -0.031782 539658.000000 0 1 0
-11.983605 19.290914 -2.192559 22.815641 -1.014931 1.667044 0.080492 -0.026689 381388.000000 0 1 0
-11.890605 19.296614 -0.806459 22.680304 -1.018549 1.606361 0.074108 -0.032738 115044.000000 0 1 0
-11.388505 18.135914 -0.180859 21.415932 -1.010076 1.579241 0.066089 -0.024978 -396966.000000 0 1 0
-11.218405 18.206914 1.353541 21.428402 -1.018578 1.507588 0.062296 -0.032110 226177.000000 0 1 0
-12.371205 18.019414 2.178741 21.965722 -0.969155 1.471445 0.082084 -0.041184 368396.000000 0 1 0
-12.028105 18.206714 3.526541 22.104214 -0.986977 1.410570 0.078754 -0.033970 -539437.000000 0 1 0
-13.214705 18.140414 4.464541 22.883077 -0.941219 1.374435 0.081999 -0.035548 -446057.000000 0 1 0
-13.717205 16.837414 4.634241 22.206676 -0.887164 1.360564 0.055687 -0.035553 -375328.000000 0 1 0
-15.020605 16.893514 5.121441 23.178408 -0.844017 1.348000 0.078300 -0.038661 -423737.000000 0 1 0
-15.517305 15.517814 5.675841 22.667256 -0.785415 1.317705 0.061216 -0.033641 -51677.100000 0 1 0
-14.837505 15.033714 6.867241 22.210879 -0.791967 1.256462 0.067135 -0.028778 191050.000000 0 1 0
-15.285005 15.587314 8.037141 23.263521 -0.795190 1.218043 0.058280 -0.024429 -737540.000000 0 1 0
-14.175405 15.448914 9.118041 22.863721 -0.828360 1.160589 0.045457 -0.019866 814732.000000 0 1 0
-13.041905 16.304014 8.932841 22.709202 -0.896104 1.166515 0.052136 -0.025618 446807.000000 0 1 0
-12.109305 15.807414 7.981841 21.452725 -0.917101 1.189562 0.047163 -0.027727 335752.000000 0 1 0
-10.950905 16.877714 7.657041 21.526957 -0.995238 1.207138 0.055882 -0.031994 1225480.000000 0 1 0
-9.894005 17.033314 8.585841 21.488179 -1.044568 1.159758 0.052750 -0.024497 -198635.000000 0 1 0
-9.121605 18.124714 8.188841 21.880724 -1.104537 1.187209 0.037346 -0.033169 207372.000000 0 1 0
-7.864905 18.373514 9.073141 21.949138 -1.166340 1.144643 0.034881 -0.020873 615552.000000 0 1 0
-6.824105 17.343314 8.973441 20.685300 -1.195930 1.122082 0.027736 -0.016358 1538540.000000 0 1 0
-5.544405 17.650114 9.551841 20.820774 -1.266428 1.094192 0.025509 -0.013228 1283010.000000 0 1 0
-4.716005 18.797014 8.931241 21.338593 -1.324979 1.138950 0.018980 -0.011511 -1400090.000000 0 1 0
-5.280705 20.036914 9.134141 22.645007 -1.313107 1.155608 0.029989 -0.016417 -300220.000000 0 1 0
-4.628105 21.120214 8.447341 23.212936 -1.355075 1.198338 0.030212 -0.018633 -147205.000000 0 1 0
-3.241505 21.618214 8.866041 23.589431 -1.421962 1.185485 0.035341 -0.015253 149873.000000 0 1 0
-2.207805 20.778914 8.320241 22.491423 -1.464941 1.191863 0.028505 -0.003773 1201830.000000 0 1 0
-0.935105 21.485714 8.323441 23.060573 -1.527302 1.201523 0.026946 -0.004271 1884580.000000 0 1 0
0.373995 20.659414 8.089941 22.190053 1.552695 1.197620 0.021874 0.004017 827888.000000 0 1 0
0.767895 19.808414 9.130641 21.825021 1.532050 1.139161 0.020355 -0.008541 500015.000000 0 1 0
2.191395 19.599814 9.030141 21.690975 1.459452 1.141415 0.019158 -0.004720 985309.000000 0 1 0
2.653695 18.959814 10.362441 21.769172 1.431736 1.074679 0.011504 -0.019241 1135420.000000 0 1 0
4.087095 18.842314 10.520241 21.963894 1.357195 1.071305 0.027291 0.004367 1140810.000000 0 1 0
4.411395 18.116314 11.728041 22.027442 1.331941 1.009329 0.019255 -0.003022 383933.000000 0 1 0
5.914895 18.234214 12.109741 22.674179 1.257121 1.007382 0.039072 -0.004436 158213.000000 0 1 0
6.718795 17.435514 11.272941 21.822433 1.202982 1.027949 0.030114 -0.008274 -384124.000000 0 1 0
7.826995 17.070814 12.069941 22.323934 1.140895 0.999560 0.033379 0.001325 -191638.000000 0 1 0
8.965195 16.277714 11.397841 21.800218 1.067366 1.020627 0.037881 -0.006872 246331.000000 0 1 0
9.827195 17.043214 10.577641 22.336773 1.047757 1.077476 0.052384 -0.026273 281622.000000 0 1 0
10.940295 16.331014 10.055441 22.079492 0.980552 1.097952 0.052287 -0.029077 636866.000000 0 1 0
12.017495 17.285314 9.425441 23.066019 0.963270 1.149845 0.066443 -0.022358 -423835.000000 0 1 0
13.078795 16.712314 8.798041 22.973068 0.906765 1.177785 0.063003 -0.023609 -1300710.000000 0 1 0
13.933695 17.677914 8.271041 23.980547 0.903293 1.218657 0.066981 -0.018400 -489156.000000 0 1 0
14.954295 17.028714 7.341041 23.822236 0.850167 1.257539 0.066680 -0.029925 184870.000000 0 1 0
16.081495 16.481614 8.047341 24.392987 0.797685 1.234595 0.079873 -0.026871 795404.000000 0 1 0
17.207995 16.352814 7.185241 24.802365 0.759922 1.276883 0.111691 -0.022909 -475314.000000 0 1 0
18.535195 16.266114 7.891141 25.892278 0.720289 1.261101 0.079870 -0.019764 -1148200.000000 0 0 1
18.791795 15.027414 8.565241 25.540519 0.674546 1.228810 0.084822 -0.020557 -325091.000000 0 0 1
19.911895 15.193514 9.357741 26.737497 0.651793 1.213240 0.090826 -0.025540 -885429.000000 0 0 1
20.037095 14.019014 10.361041 26.558786 0.610493 1.170037 0.076644 -0.031659 -99422.700000 0 0 1
20.560595 12.882814 9.694741 26.128394 0.559733 1.190665 0.068592 -0.038199 303841.000000 0 0 1
20.791295 11.885214 10.688241 26.225460 0.519308 1.151024 0.082421 -0.039315 61170.300000 0 0 1
21.789095 10.789114 10.136741 26.342421 0.459769 1.175798 0.068964 -0.032678 -346407.000000 0 0 1
23.095295 10.974814 10.625841 27.690209 0.443609 1.176953 0.058683 -0.038706 630478.000000 0 0 1
24.105195 10.246214 9.922641 28.009001 0.401924 1.208667 0.081837 -0.027104 -3567.370000 0 0 1
24.142795 8.652514 10.018941 27.533974 0.344129 1.198371 0.089286 -0.030376 -1363550.000000 0 0 1
23.131595 7.983814 9.374741 26.204918 0.332345 1.204942 0.093436 -0.032798 -295828.000000 0 0 1
23.060595 6.613814 9.604941 25.841603 0.279305 1.189973 0.095071 -0.036574 80698.500000 0 0 1
24.137695 5.751114 8.845241 26.342777 0.233902 1.228369 0.107854 -0.037279 557513.000000 0 0 1
23.932895 5.767414 7.442641 25.718465 0.236474 1.277208 0.107000 -0.023826 316515.000000 0 0 1
25.039695 5.139214 6.841741 26.461430 0.202431 1.309270 0.116805 -0.031928 7569.650000 0 0 1
24.778195 4.875214 5.333341 25.810292 0.194273 1.362661 0.125661 -0.038944 -1035590.000000 0 0 1
23.788695 3.938414 5.301041 24.688340 0.164070 1.354393 0.124983 -0.035459 -301119.000000 0 1 0
23.469395 3.470014 3.990141 24.057737 0.146789 1.404169 0.122862 -0.026219 -344927.000000 0 1 0
22.422095 2.368514 3.996241 22.898256 0.105243 1.395376 0.126783 -0.018012 -876753.000000 0 1 0
22.918695 1.079314 4.240541 23.332674 0.047058 1.388038 0.133878 -0.025957 369043.000000 0 1 0
22.035395 0.060214 3.812141 22.362797 0.002733 1.399492 0.107755 -0.023338 -158339.000000 0 1 0
22.651395 -1.323686 3.998441 23.039648 -0.058371 1.396367 0.120137 -0.033781 -554019.000000 0 1 0
22.631095 -1.664686 5.384641 23.322350 -0.073425 1.337815 0.114648 -0.035163 665691.000000 0 1 0
22.789695 -3.052786 5.586241 23.662117 -0.133162 1.332463 0.109511 -0.036668 -302879.000000 0 1 0
22.732995 -3.510986 7.076841 24.066528 -0.153234 1.272331 0.139401 -0.043600 -159747.000000 0 1 0
22.789495 -4.929386 7.286241 24.428451 -0.213019 1.267918 0.129791 -0.042782 481838.000000 0 1 0
22.618695 -5.180986 8.648741 24.763859 -0.225173 1.214027 0.153420 -0.046343 -188718.000000 0 1 0
22.208795 -6.640586 8.879141 24.822713 -0.290546 1.204990 0.133393 -0.043557 1197280.000000 0 1 0
20.874695 -6.990686 8.394541 23.560367 -0.323149 1.206492 0.122191 -0.043764 1691050.000000 0 1 0
20.546195 -8.206486 9.073541 23.912793 -0.380003 1.181602 0.114727 -0.034512 -166502.000000 0 1 0
-27.285965 -32.847182 5.307641 43.030598 0.877618 1.447136 0.052080 -0.015706 65098.600000 0 0 1
-28.145295 -33.832582 5.851441 44.396403 0.876905 1.438612 0.052804 -0.017867 -39291.800000 0 0 1
-27.966945 -33.931682 7.232241 44.562478 0.881465 1.407781 0.050209 -0.003634 58107.900000 0 0 1
-28.822395 33.006214 7.801841 44.508532 -0.852963 1.394597 0.063876 -0.009322 -251705.000000 0 0 1
-30.205825 33.155114 7.761641 45.518091 -0.831912 1.399441 0.061627 -0.010537 -711173.000000 0 0 1
-30.900275 31.913714 7.873341 45.114318 -0.801531 1.395378 0.092032 -0.022835 1366420.000000 0 0 1
-32.465955 32.092514 7.988241 46.344145 -0.779614 1.397563 0.091582 -0.023097 805817.000000 0 0 1
-33.059595 32.346114 6.775941 46.745282 -0.774490 1.425329 0.075566 -0.016041 41207.600000 0 0 1
-34.471437 32.185014 6.888441 47.661366 -0.751110 1.425760 0.060665 -0.020750 361712.000000 0 0 1
-35.125876 32.148814 5.460141 47.928974 -0.741175 1.456627 0.040338 -0.015727 -235102.000000 0 0 1
-35.065767 30.889314 4.957441 46.992914 -0.722160 1.465106 0.048923 -0.023352 274947.000000 0 0 1
-35.682083 30.824714 3.698241 47.297474 -0.712492 1.492525 0.057907 -0.015490 -232627.000000 0 0 1
-35.220355 29.577614 2.932641 46.085888 -0.698535 1.507119 0.058346 -0.018906 -219839.000000 0 0 1
-35.579008 28.365914 3.549241 45.640859 -0.673071 1.492953 0.074436 -0.026318 -1078.740000 0 0 1
-34.972952 27.191514 3.090341 44.407613 -0.660871 1.501150 0.075715 -0.026958 -409415.000000 0 0 1
-35.459459 25.933114 3.859641 44.099847 -0.631455 1.483164 0.092505 -0.032468 -670181.000000 0 0 1
-36.792775 25.618014 3.595141 44.976839 -0.608224 1.490778 0.089346 -0.025926 -582084.000000 0 0 1
36.635179 24.676314 4.544441 44.403927 0.592766 1.468274 0.098574 -0.028150 909841.000000 0 0 1
35.144839 24.246414 4.264141 42.909570 0.603915 1.471257 0.112649 -0.030190 515147.000000 0 0 1
34.909379 23.349914 3.137541 42.115643 0.589528 1.496229 0.081667 -0.028055 154612.000000 0 0 1
35.211909 21.994114 3.415441 41.656750 0.558327 1.488714 0.075274 -0.024746 -1061350.000000 0 0 1
34.569119 20.971714 2.510841 40.511000 0.545302 1.508777 0.079459 -0.025233 -668348.000000 0 0 1
33.179889 20.864414 2.657041 39.284713 0.561347 1.503109 0.073469 -0.030999 -26106.400000 0 0 1
32.698279 20.106814 3.763841 38.569780 0.551318 1.473056 0.058001 -0.019804 -451319.000000 0 0 1
32.982759 18.566914 3.681041 38.028184 0.512714 1.473847 0.052608 -0.025153 -427065.000000 0 0 1
32.305359 17.915114 2.604341 37.032015 0.506334 1.500411 0.044244 -0.031278 279689.000000 0 0 1
32.625339 16.586014 2.381441 36.676694 0.470328 1.505820 0.046945 -0.028764 -337722.000000 0 0 1
31.977879 15.598114 3.392541 35.740666 0.453823 1.475732 0.069263 -0.027943 -666916.000000 0 0 1
30.591689 15.586414 3.359441 34.497443 0.471217 1.473259 0.077001 -0.026181 -540398.000000 0 0 1
30.070669 14.561014 4.236241 33.678094 0.450949 1.444676 0.109307 -0.034899 1038040.000000 0 0 1
28.505289 14.564214 4.446041 32.317721 0.472354 1.432786 0.096063 -0.027258 1042550.000000 0 0 1
27.831389 14.199514 3.242741 31.412223 0.471773 1.467380 0.094711 -0.035335 -171365.000000 0 0 1
26.495189 14.636114 3.259741 30.443994 0.504689 1.463517 0.069989 -0.021876 -262293.000000 0 0 1
25.649289 14.010214 2.145041 29.304834 0.499938 1.497533 0.071909 -0.027924 -390382.000000 0 0 1
25.971589 14.501114 0.869941 29.758403 0.509228 1.541559 0.082138 -0.025398 325693.000000 0 0 1
27.126889 13.938714 0.277041 30.499715 0.474653 1.561713 0.087035 -0.023842 -1007560.000000 0 0 1
27.663489 14.744314 -0.928359 31.361206 0.489689 1.600403 0.099534 -0.028719 -18063.000000 0 0 1
28.027589 16.087814 -0.623959 32.322636 0.521082 1.590102 0.062060 -0.025710 326098.000000 0 0 1
29.037039 16.220714 0.362841 33.262484 0.509438 1.559888 0.054974 -0.021291 -776210.000000 0 0 1
29.635069 17.633414 0.196341 34.484970 0.536749 1.565103 0.058147 -0.020634 -359597.000000 0 0 1
30.539119 17.891314 -0.839159 35.403970 0.529949 1.594501 0.048129 -0.010781 -99271.300000 0 0 1
31.089179 19.151714 -0.651159 36.520531 0.552119 1.588627 0.037016 0.000735 -169078.000000 0 0 1
31.771489 19.539814 -1.979659 37.351719 0.551384 1.623822 0.055767 -0.008881 120257.000000 0 0 1
32.386999 20.834514 -1.997959 38.561464 0.571650 1.622632 0.010287 -0.002678 570233.000000 0 0 1
31.708999 21.684114 -2.907659 38.524225 0.599803 1.646344 0.054525 -0.012742 -142311.000000 0 0 1
32.597809 22.912914 -3.059059 39.962190 0.612668 1.647420 0.048059 -0.008226 -56741.200000 0 0 1
32.612199 23.852514 -1.991759 40.453245 0.631489 1.620052 0.051995 -0.004262 -267893.000000 0 0 1
33.342819 23.493714 -0.887459 40.798110 0.613814 1.592550 0.048548 0.000120 -872068.000000 0 0 1
33.394559 24.524314 0.245341 41.433063 0.633429 1.564875 0.053592 -0.023913 317763.000000 0 0 1
34.200629 25.704514 0.053741 42.783267 0.644512 1.569540 0.081843 -0.017875 385476.000000 0 0 1
35.541079 25.651914 0.503041 43.834256 0.625177 1.559320 0.080096 -0.018194 55114.900000 0 0 1
36.358849 26.883814 0.136441 45.218624 0.636684 1.567779 0.063821 -0.012671 -523945.000000 0 0 1
36.824289 26.847814 -1.153659 45.586887 0.629977 1.596106 0.077841 -0.021611 -312102.000000 0 0 1
35.880799 27.246714 -2.091559 45.101993 0.649469 1.617187 0.058675 -0.018494 -466172.000000 0 0 1
36.315329 26.836114 -3.480259 45.288987 0.636408 1.647718 0.067442 -0.016972 80431.100000 0 0 1
-36.665335 27.724314 -4.087159 46.148557 -0.647422 1.659478 0.065996 -0.019612 18289.900000 0 0 1
-36.354505 27.364314 -5.437959 45.826053 -0.645232 1.689742 0.068668 -0.021117 -191368.000000 0 0 1
36.442169 27.392914 -6.506259 46.051437 0.644577 1.712553 0.057375 -0.010963 -509616.000000 0 0 1
35.445989 26.441214 -6.311959 44.669864 0.640909 1.712573 0.061567 -0.008357 -114465.000000 0 0 1
34.385119 26.625614 -7.288159 44.095090 0.658895 1.736841 0.044178 -0.006201 903441.000000 0 0 1
33.230679 25.619814 -6.948359 42.531548 0.656787 1.734901 0.050048 -0.011252 -154592.000000 0 0 1
33.448739 24.237714 -7.139259 41.919613 0.627061 1.741939 0.042194 -0.008784 140762.000000 0 0 1
34.483329 23.521314 -6.446559 42.236362 0.598616 1.724026 0.060639 -0.009410 381284.000000 0 0 1
34.528119 22.035214 -6.620059 41.491768 0.568022 1.731032 0.069450 -0.001534 -439454.000000 0 0 1
33.508499 21.419614 -5.916359 40.207246 0.568766 1.718479 0.045896 0.002305 -376879.000000 0 0 1
33.528369 20.044314 -6.172559 39.547775 0.538823 1.727516 0.066173 -0.004327 -31750.700000 0 0 1
32.352809 19.276714 -5.536359 38.065039 0.537346 1.716759 0.061315 -0.004296 -805436.000000 0 0 1
31.180939 19.304714 -6.256159 37.202990 0.554359 1.739762 0.058638 -0.011123 -133458.000000 0 0 1
30.219109 18.403514 -5.611959 35.824265 0.547013 1.728097 0.089998 -0.018642 625602.000000 0 0 1
28.867549 18.259614 -6.328159 34.738948 0.563996 1.753982 0.076284 -0.018375 -277712.000000 0 0 1
28.903869 17.269314 -7.349059 34.462610 0.538560 1.785694 0.068327 -0.021829 90011.800000 0 0 1
27.757089 17.333814 -8.176659 33.730918 0.558227 1.815644 0.087983 -0.026886 -126216.000000 0 0 1
27.828989 16.337414 -9.356759 33.599295 0.530854 1.853008 0.080383 -0.030321 -175058.000000 0 0 1
26.861089 16.384714 -10.393059 33.135972 0.547725 1.889830 0.078789 -0.030095 178118.000000 0 0 1
27.067689 15.395114 -11.358559 33.146435 0.517135 1.920562 0.081092 -0.027322 -488820.000000 0 0 1
26.457789 15.657814 -12.730059 33.275158 0.534371 1.963372 0.086853 -0.023232 -308476.000000 0 0 1
25.052589 15.819014 -12.788859 32.271169 0.563211 1.978273 0.084517 -0.024979 438776.000000 0 0 1
24.448789 15.675314 -14.065859 32.269291 0.570128 2.021823 0.072518 -0.029390 -121058.000000 0 0 1
24.472689 14.195714 -14.645459 31.857813 0.525631 2.048469 0.066009 -0.036000 -753097.000000 0 0 1
25.728789 13.671714 -14.995759 32.768264 0.488434 2.046125 0.084509 -0.044180 -145361.000000 0 0 1
26.025689 13.987014 -16.353759 33.770082 0.493142 2.076322 0.097169 -0.045438 201643.000000 0 0 1
27.493589 13.575014 -16.678159 34.904719 0.458637 2.068967 0.115778 -0.041026 401154.000000 0 0 1
27.605089 12.154814 -16.653659 34.454677 0.414767 2.075273 0.104353 -0.047736 -247254.000000 0 0 1
28.907459 11.681314 -16.852959 35.441734 0.384030 2.066342 0.096120 -0.033661 -228418.000000 0 0 1
28.854239 10.287814 -17.531559 35.295350 0.342493 2.090600 0.070127 -0.025297 -274346.000000 0 0 1
28.360289 10.373814 -18.823859 35.584542 0.350669 2.128206 0.067810 -0.031956 -727.426000 0 0 1
28.350889 9.172914 -19.536459 35.631285 0.312919 2.151121 0.055533 -0.022422 -451873.000000 0 0 1
29.706789 8.828914 -20.159759 36.971055 0.288888 2.147525 0.055854 -0.013430 -574202.000000 0 0 1
29.973629 9.781314 -21.254459 38.024262 0.315435 2.163941 0.059710 -0.012585 250165.000000 0 0 1
30.534139 9.331014 -22.473259 39.044190 0.296580 2.184116 0.043861 -0.005143 1360760.000000 0 0 1
32.032969 8.789114 -22.452259 40.093186 0.267787 2.165184 0.041258 -0.002735 1349790.000000 0 0 1
33.113519 9.702314 -22.447859 41.164868 0.285024 2.147562 0.042506 -0.001110 -1338650.000000 0 0 1
34.289869 9.032114 -22.467959 41.978368 0.257555 2.135573 0.015231 0.002003 -1323450.000000 0 0 1
35.449939 10.033814 -22.277559 43.054212 0.275827 2.114642 0.034583 -0.008683 -223464.000000 0 0 1
35.338309 10.760514 -21.038659 42.511291 0.295580 2.088511 0.031739 -0.007512 159974.000000 0 0 1
36.367009 11.720914 -20.915559 43.559152 0.311784 2.071639 0.012674 0.001345 23524.400000 0 0 1
36.463899 12.489614 -19.559659 43.222524 0.329996 2.040401 -0.000408 0.006288 -115354.000000 0 0 1
36.745179 11.676214 -18.405159 42.723436 0.307671 2.016173 0.006275 -0.001002 164913.000000 0 0 1
36.456199 12.324014 -17.189659 42.147599 0.325989 1.990888 0.005312 0.001453 -79380.300000 0 0 1
36.899339 11.484314 -15.950459 41.807509 0.301731 1.962238 0.003304 0.002504 6825.080000 0 0 1
36.110019 10.296714 -15.733659 40.712452 0.277776 1.967585 0.010496 0.000273 355932.000000 0 0 1
36.705209 9.378614 -14.801659 40.673331 0.250159 1.943265 0.016785 -0.010524 -283859.000000 0 0 1
35.807479 8.164214 -14.549859 39.503523 0.224171 1.947996 0.077558 -0.008077 382861.000000 0 0 1
34.757569 8.395214 -13.585359 38.250885 0.236997 1.933886 0.093533 -0.019631 934113.000000 0 0 1
35.248029 8.375914 -12.268159 38.250323 0.233301 1.897300 0.097210 -0.025435 26436.800000 0 0 1
34.124059 8.856614 -11.294859 37.019790 0.253939 1.880843 0.117719 -0.023237 249277.000000 0 0 1
33.931419 10.255814 -11.343559 37.218265 0.293521 1.880509 0.106594 -0.032034 590149.000000 0 0 1
32.953249 10.642014 -10.338259 36.139295 0.312370 1.860916 0.093304 -0.023481 305362.000000 0 0 1
33.412729 10.476314 -8.800959 36.105685 0.303834 1.817033 0.106685 -0.026708 394972.000000 0 0 1
34.674919 11.090914 -8.565559 37.399561 0.309571 1.801876 0.100761 -0.021259 368137.000000 0 0 1
34.590979 12.465914 -8.193759 37.670579 0.345892 1.790060 0.108189 -0.022609 -214967.000000 0 0 1
34.322309 12.776214 -6.696259 37.230262 0.356351 1.751641 0.094842 -0.019813 -135769.000000 0 0 1
35.472459 12.505414 -5.931659 38.077097 0.338935 1.727214 0.104841 -0.017140 104221.000000 0 0 1
35.293379 12.580014 -4.547059 37.743279 0.342402 1.691563 0.095070 -0.014484 -96915.100000 0 0 1
36.634959 12.436714 -3.780059 38.872624 0.327269 1.668192 0.104760 -0.005902 -18681.400000 0 0 1
-36.572865 13.642214 -3.991059 39.237903 -0.357029 1.672687 0.106786 -0.000675 10480.700000 0 0 1
-35.328177 13.605614 -3.294959 38.000653 -0.367614 1.657613 0.095381 -0.011632 426418.000000 0 0 1
-34.701669 15.032714 -3.252159 37.957409 -0.408794 1.656581 0.086745 -0.006304 197521.000000 0 0 1
-35.330247 15.838214 -2.273959 38.784614 -0.421431 1.629460 0.097345 -0.010153 122650.000000 0 0 1
-34.574778 16.995814 -2.063959 38.581510 -0.456878 1.624318 0.111499 -0.013867 -155620.000000 0 0 1
-35.200876 18.050914 -1.143159 39.575801 -0.473833 1.599686 0.107836 -0.013208 -87117.800000 0 0 1
-36.160345 18.892014 -1.749259 40.835508 -0.481447 1.613646 0.105141 -0.011674 63946.400000 0 0 1
-36.876335 19.606114 -0.784759 41.771757 -0.488663 1.589584 0.089099 -0.008973 214829.000000 0 0 1
36.200729 20.709914 -1.488859 41.732601 0.519641 1.606480 0.074292 -0.012818 859543.000000 0 0 1
-36.789615 21.782314 -1.826459 42.793469 -0.534574 1.613490 0.090328 -0.010377 812068.000000 0 0 1
36.723589 22.291714 -3.062559 43.068803 0.545561 1.641965 0.068032 -0.008640 60803.400000 0 0 1
-36.306085 23.499314 -3.546759 43.392731 -0.574443 1.652624 0.094969 -0.015892 843035.000000 0 0 1
-34.986767 23.013314 -3.865559 42.055072 -0.581819 1.662843 0.108015 -0.021650 437095.000000 0 0 1
-34.168487 24.114814 -4.209159 42.032450 -0.614583 1.671105 0.110251 -0.022956 -569139.000000 0 0 1
-32.707805 23.771614 -4.418959 40.674530 -0.628479 1.679653 0.096487 -0.027270 -612275.000000 0 0 1
-32.555255 22.891114 -5.528159 40.179700 -0.612835 1.708820 0.083175 -0.016901 206559.000000 0 0 1
-31.218945 22.897314 -6.028359 39.182275 -0.632820 1.725264 0.067919 -0.004144 109160.000000 0 0 1
-30.956745 22.188814 -7.339859 38.788363 -0.621891 1.761173 0.062045 -0.018105 -145590.000000 0 0 1
-31.712025 22.663014 -8.439559 39.880959 -0.620491 1.784027 0.066248 -0.025557 44678.900000 0 0 1
-31.179345 22.274414 -9.708359 39.529145 -0.620323 1.818935 0.024991 -0.019159 -369001.000000 0 0 1
-32.165215 22.422014 -10.871459 40.688284 -0.608770 1.841271 0.038964 -0.009457 -357863.000000 0 0 1
-32.427925 23.737114 -11.265359 41.736426 -0.631879 1.844103 0.044691 -0.016592 -33738.900000 0 0 1
-33.115815 23.686914 -12.522159 42.597319 -0.620904 1.869170 0.021789 -0.013270 -470244.000000 0 0 1
-33.635445 25.055414 -13.056259 43.927017 -0.640236 1.872583 0.060585 -0.018260 768591.000000 0 0 1
-32.640005 26.066714 -13.369459 43.858705 -0.673894 1.880556 0.054750 -0.016724 775092.000000 0 0 1
-31.650505 25.794814 -14.358159 43.281447 -0.683814 1.908943 0.054071 -0.019201 682824.000000 0 0 1
-30.189415 26.168314 -13.973859 42.325527 -0.714169 1.907261 0.039960 -0.019797 194364.000000 0 0 1
-29.449205 25.458814 -12.991859 41.038949 -0.712852 1.892912 0.027970 -0.018015 52887.300000 0 0 1
-29.956125 25.361814 -11.692659 40.954967 -0.702536 1.860325 0.048202 -0.014764 -1368430.000000 0 0 1
-30.124375 26.679514 -10.909359 41.692788 -0.724828 1.835539 0.054460 -0.005931 -133622.000000 0 0 1
-28.948945 27.337814 -10.502759 41.178945 -0.756782 1.828697 0.053253 -0.006956 -282597.000000 0 0 1
-29.224605 28.492114 -9.765559 41.967181 -0.772708 1.805644 0.047214 -0.012935 189747.000000 0 0 1
-27.964625 29.370714 -9.667659 41.690799 -0.809917 1.804816 0.069494 -0.020083 268722.000000 0 0 1
-28.217675 30.550314 -8.958359 42.541875 -0.825070 1.782962 0.072605 -0.032509 958781.000000 0 0 1
-26.950135 31.228914 -8.774659 42.172853 -0.858811 1.780392 0.095887 -0.026166 735544.000000 0 0 1
35.139069 -24.891986 33.901289 54.805679 -0.616331 0.903872 0.031013 -0.006864 -166475.000000 0 0 1
34.968359 -23.505586 -33.862239 54.055063 -0.591821 2.247774 0.030441 -0.010927 61316.600000 0 0 1
34.021649 -23.438586 -32.824049 52.766069 -0.603259 2.242177 0.024750 -0.003236 -135074.000000 0 0 1
33.551889 -22.002386 -32.683949 51.750118 -0.580422 2.254376 0.013951 0.000245 29299.100000 0 0 1
32.819879 -21.523986 -33.808579 51.801992 -0.580457 2.281873 0.006397 -0.002040 182315.000000 0 0 1
32.326409 -20.264786 -33.574789 50.822482 -0.559950 2.292452 0.007126 -0.004004 -42760.700000 0 0 1
31.890989 -19.403786 33.286007 50.015001 -0.546603 0.842605 0.008394 -0.002565 382633.000000 0 0 1
33.018129 -18.942286 32.521762 50.066675 -0.520852 0.863779 0.033783 -0.018139 646581.000000 0 0 1
32.782119 -18.581186 31.181491 48.910256 -0.515656 0.879515 0.034597 -0.015650 411522.000000 0 0 1
34.172129 -18.561886 30.463441 49.399385 -0.497598 0.906282 0.039039 -0.023510 753404.000000 0 0 1
34.929799 -17.361486 30.536201 49.537577 -0.461276 0.906602 0.027409 -0.028481 -64337.000000 0 0 1
36.149659 -17.413786 29.867341 50.020954 -0.448912 0.930920 0.052926 -0.034336 -469314.000000 0 0 1
-36.833625 -16.189086 30.074741 50.232385 0.414104 0.928904 0.068281 -0.038726 104546.000000 0 0 1
-35.486916 -16.592686 29.954091 49.314156 0.437370 0.917996 0.070633 -0.032473 363036.000000 0 0 1
-34.538296 -15.529486 30.137691 48.397719 0.422547 0.898596 0.066593 -0.034606 -151387.000000 0 0 1
-33.140185 -16.072786 30.385631 47.748224 0.451571 0.881011 0.086485 -0.035559 -543651.000000 0 0 1
-32.204685 -15.059786 30.763841 47.014389 0.437416 0.857474 0.080391 -0.029695 284644.000000 0 0 1
-31.030165 -15.741286 31.184121 46.723748 0.469462 0.840064 0.079899 -0.033581 507373.000000 0 0 1
-29.934435 -14.789286 31.776121 46.092464 0.458881 0.810137 0.064569 -0.027925 518567.000000 0 0 1
-30.413825 -14.101986 32.967242 47.018143 0.434164 0.793773 0.080275 -0.032948 54913.000000 0 0 1
-29.393455 -13.314086 33.461977 46.485955 0.425313 0.767239 0.064501 -0.026168 -483330.000000 0 0 1
-29.718565 -12.657086 -33.267109 46.369122 0.402631 2.370918 0.059510 -0.009360 -144354.000000 0 0 1
-29.998865 -13.644686 -32.329869 46.166327 0.426872 2.346602 0.075623 -0.010353 319973.000000 0 0 1
-30.186065 -13.062486 -31.085149 45.256088 0.408402 2.327973 0.079946 -0.001073 -241848.000000 0 0 1
-30.413755 -13.971386 -29.887949 44.871880 0.430625 2.299728 0.083043 -0.012023 -604726.000000 0 0 1
-31.711075 -14.462586 -29.859959 45.895270 0.427893 2.279185 0.081314 -0.015229 -512230.000000 0 0 1
-31.931435 -15.289386 -28.720119 45.587576 0.446560 2.252348 0.090960 -0.013217 351379.000000 0 0 1
-33.264615 -16.070586 -28.727719 46.798292 0.450047 2.231741 0.077412 -0.021536 141149.000000 0 0 1
-33.073955 -17.143186 -29.655749 47.615531 0.478203 2.243134 0.090207 -0.027331 -327987.000000 0 0 1
-34.208499 -17.919186 -29.796299 48.776409 0.482524 2.227962 0.071505 -0.029598 -632460.000000 0 0 1
-33.883925 -19.382886 -30.144079 49.320200 0.519605 2.228361 0.076126 -0.021079 -381367.000000 0 0 1
-35.056462 -20.084086 -30.332659 50.521245 0.520260 2.214790 0.034406 -0.022042 -528027.000000 0 0 1
-34.673259 -21.402586 -30.596589 50.955439 0.553018 2.214870 0.039281 -0.021506 -681094.000000 0 0 1
-35.785102 -22.400886 -30.700879 52.200739 0.559306 2.199542 0.048359 -0.021052 -751263.000000 0 0 1
-36.370655 -22.774586 -29.478729 52.062479 0.559448 2.172707 0.026550 -0.023009 438709.000000 0 0 1
36.462479 -23.740986 -29.530659 52.585231 -0.577153 2.167087 0.034088 -0.015030 587699.000000 0 0 1
36.871799 -25.194146 -29.893219 53.738990 -0.599423 2.160683 0.030677 -0.010896 11856.700000 0 0 1
-36.863515 -25.297576 -31.292589 54.572082 0.601438 2.181468 0.044472 -0.011878 -261824.000000 0 0 1
-35.976938 -26.374506 -31.543899 54.634899 0.632594 2.186286 0.027375 -0.004029 -66832.000000 0 0 1
-36.218855 -27.290806 -32.814379 55.976575 0.645736 2.197177 0.040679 -0.010595 186677.000000 0 0 1
36.434069 -27.947776 -32.675729 56.357987 -0.654342 2.189266 0.038807 -0.001637 8847.930000 0 0 1
36.365299 -29.080966 -33.474419 57.346963 -0.674552 2.194096 0.044499 -0.012014 -153248.000000 0 0 1
-36.765215 -30.277676 -32.949879 57.914706 0.688932 2.176010 0.048910 -0.024487 -67717.900000 0 0 1
36.579849 -30.829646 -31.762789 57.423228 -0.700302 2.156919 0.047842 -0.024777 -558372.000000 0 0 1
-36.440575 -31.670546 -31.136009 57.449021 0.715479 2.143583 0.047016 -0.027248 -741279.000000 0 0 1
-36.878855 -32.402686 -29.858439 57.458771 0.720879 2.117237 0.042594 -0.026664 -417170.000000 0 0 1
36.081619 -33.404946 -30.102749 57.653699 -0.746896 2.120143 0.053675 -0.023495 -97377.900000 0 0 1
35.551979 -33.753656 -28.816859 56.865313 -0.759456 2.102214 0.061842 -0.024719 166650.000000 0 0 1
34.381019 33.306631 -28.880129 55.905706 0.769527 2.113656 0.067746 -0.036175 193796.000000 0 0 1
33.285669 33.852559 -29.565869 55.929170 0.793842 2.127783 0.069777 -0.036419 -534289.000000 0 0 1
32.067319 33.459990 -28.974549 54.657189 0.806648 2.129531 0.074275 -0.031573 630692.000000 0 0 1
30.772089 33.840031 -29.772739 54.575499 0.832845 2.147821 0.056670 -0.026053 564867.000000 0 0 1
30.578029 33.260289 -31.028559 54.809070 0.827390 2.172589 0.059526 -0.017818 -684207.000000 0 0 1
29.605039 33.842509 -31.815999 55.082043 0.852086 2.186595 0.046672 -0.008370 -479816.000000 0 0 1
29.494869 33.277344 -33.281169 55.542462 0.845583 2.213301 0.044609 -0.018143 108903.000000 0 0 1
29.013239 31.923361 -33.269999 54.477168 0.833118 2.227759 0.040290 -0.014135 39579.600000 0 0 1
28.818299 31.401391 33.504217 54.213230 0.828266 0.904590 0.041690 -0.013390 184842.000000 0 0 1
28.601489 29.886531 33.544583 53.258698 0.807366 0.889446 0.041114 -0.019611 -731226.000000 0 0 1
29.824479 29.263021 33.702083 53.681043 0.775896 0.892046 0.049285 -0.012532 -987473.000000 0 0 1
29.706179 27.885201 33.999611 53.066138 0.753790 0.875383 0.040094 -0.013736 1292880.000000 0 0 1
31.125579 27.204001 -33.828169 53.415394 0.718268 2.256611 0.069225 -0.017015 1210010.000000 0 0 1
31.767379 27.601601 -32.661449 53.270864 0.715345 2.230801 0.073308 -0.013905 655091.000000 0 0 1
33.028739 26.890011 -32.492749 53.570038 0.683304 2.222507 0.087979 -0.014521 1286430.000000 0 0 1
33.624299 26.866041 -31.072539 53.083710 0.674135 2.196108 0.073574 -0.014948 -421135.000000 0 0 1
34.182199 28.101911 -30.671999 53.841542 0.688085 2.176903 0.038204 -0.014828 11176.400000 0 0 1
33.434699 29.333471 -30.550759 53.959989 0.720152 2.172653 0.061364 -0.017270 401549.000000 0 0 1
32.507359 29.472641 -29.279839 52.751056 0.736474 2.159228 0.082280 -0.015024 669914.000000 0 0 1
33.228169 29.694111 -28.069559 52.666418 0.729292 2.132902 0.067155 -0.023208 400764.000000 0 0 1
32.334029 30.237381 -27.091609 51.901290 0.751903 2.119971 0.072931 -0.018972 423088.000000 0 0 1
33.082879 30.534501 -25.755749 51.867053 0.745362 2.090442 0.091499 -0.024878 -226602.000000 0 0 1
33.853619 31.662541 -25.833259 53.065443 0.751967 2.079241 0.080320 -0.028712 -367476.000000 0 0 1
34.138829 32.245558 -24.567059 52.997887 0.756886 2.052791 0.067330 -0.038828 -160602.000000 0 0 1
34.538829 33.756134 -24.617759 54.207392 0.773938 2.042203 0.072449 -0.033991 -38300.500000 0 0 1
33.441769 -33.562776 -25.023459 53.581576 -0.787204 2.056710 0.078407 -0.026856 -45648.500000 0 0 1
33.610539 -32.199846 -24.970559 52.820708 -0.763966 2.063196 0.056034 -0.028474 -157690.000000 0 0 1
34.469849 -31.480486 -26.098609 53.482042 -0.740102 2.080580 0.042482 -0.026386 1699060.000000 0 0 1
35.863849 -31.873126 -26.146489 54.642023 -0.726551 2.069748 0.066214 -0.030106 873648.000000 0 0 1
36.734369 -31.034446 -25.412259 54.390565 -0.701487 2.056938 0.063426 -0.025275 -401683.000000 0 0 1
-35.725308 -31.553476 -25.548289 54.079890 0.723469 2.062828 0.019735 -0.022875 -738674.000000 0 0 1
-35.422736 -32.872616 -25.030459 54.423368 0.748076 2.048703 0.026752 -0.023975 -217058.000000 0 0 1
-35.454014 -33.004886 -23.637259 53.898326 0.749638 2.024784 0.028851 -0.024070 -108266.000000 0 0 1
-34.220886 -32.369456 -22.936259 52.392010 0.757602 2.023926 0.015915 -0.013083 111556.000000 0 0 1
-34.265117 -31.009126 -23.021259 51.629860 0.735558 2.032965 -0.001404 -0.006251 -445956.000000 0 0 1
-33.622535 -30.401526 -21.961859 50.369146 0.735131 2.021966 0.018366 -0.008514 -739611.000000 0 0 1
-33.602695 -28.871926 -22.129859 49.522317 0.709819 2.034056 0.013426 0.000066 86166.100000 0 0 1
-34.876054 -28.262766 -22.213959 50.085757 0.681037 2.030317 0.002952 0.004103 -190070.000000 0 0 1
-35.351627 -28.287026 -23.539159 51.029260 0.674840 2.050242 0.013042 -0.003207 -221975.000000 0 0 1
-36.564515 -27.367106 -23.796959 51.499684 0.642515 2.051135 0.010049 -0.003775 204357.000000 0 0 1
-36.258265 -25.998046 -23.572259 50.459999 0.622060 2.056858 -0.009455 0.001728 182453.000000 0 0 1
36.586429 -25.192266 -24.101859 50.538269 -0.603013 2.067924 0.002931 -0.003189 228002.000000 0 0 1
36.910869 -24.536986 -25.359399 51.064420 -0.586684 2.090492 0.012197 -0.003925 -252519.000000 0 0 1
-36.061394 -23.488786 -25.210509 49.877018 0.577327 2.100704 0.010513 -0.007892 -316244.000000 0 0 1
-35.789539 -22.909086 -26.471269 50.064412 0.569388 2.127917 0.025244 -0.017320 -364175.000000 0 0 1
-34.565115 -21.988986 -26.490079 48.785110 0.566585 2.144796 0.031318 -0.027070 -510759.000000 0 0 1
-34.546517 -20.738986 -25.780109 47.834939 0.540655 2.139973 0.027517 -0.016261 -70765.600000 0 0 1
-35.510924 -19.746686 -26.159289 48.324587 0.507494 2.142808 0.027246 -0.016365 659853.000000 0 0 1
-36.734445 -19.732486 -25.173469 48.708254 0.492936 2.113930 0.013693 -0.016104 121106.000000 0 0 1
-36.493985 -19.267986 -23.819759 47.649209 0.485778 2.094278 0.010021 -0.019246 -233999.000000 0 0 1
-35.631214 -20.045886 -23.023959 46.920397 0.512460 2.083692 0.000991 -0.013926 -553433.000000 0 0 1
-36.217945 -21.307286 -22.456059 47.644670 0.531778 2.061587 0.005506 -0.006064 -510977.000000 0 0 1
36.795329 -21.145186 -21.419759 47.537576 -0.521587 2.038218 0.001196 -0.008573 -648597.000000 0 0 1
36.302639 -22.387486 -20.995859 47.538481 -0.552601 2.028245 0.008296 -0.000612 478498.000000 0 0 1
35.144089 -22.107486 -19.947159 46.062317 -0.561508 2.018667 0.001421 -0.003800 110159.000000 0 0 1
33.949789 -21.690486 -20.532959 45.218002 -0.568532 2.042145 0.012952 -0.000890 205198.000000 0 0 1
32.871339 -21.634486 -19.554259 43.942518 -0.582088 2.031966 0.032521 -0.002449 660788.000000 0 0 1
31.576729 -21.065586 -20.115959 42.959289 -0.588319 2.058113 0.032085 0.001012 -582830.000000 0 0 1
30.958259 -21.832186 -21.157759 43.390193 -0.614216 2.080154 0.038977 0.000298 831672.000000 0 0 1
29.703399 -21.337386 -21.631559 42.491178 -0.622934 2.104916 0.077948 -0.003464 453567.000000 0 0 1
29.750849 -20.056386 -22.511259 42.357152 -0.593162 2.131123 0.055378 -0.003790 -514709.000000 0 0 1
30.142529 -18.940986 -21.740159 41.712917 -0.561027 2.119036 0.059431 -0.003000 111721.000000 0 0 1
30.264509 -17.743786 -22.441659 41.646254 -0.530278 2.139884 0.044626 -0.002577 -378288.000000 0 0 1
30.981159 -16.616686 -21.704859 41.316429 -0.492302 2.123902 0.030539 -0.010015 -520054.000000 0 0 1
30.398829 -16.219686 -20.457659 40.070972 -0.490136 2.106604 0.032766 -0.012321 186028.000000 0 0 1
31.240119 -15.641886 -19.442959 39.983024 -0.464206 2.078624 0.024542 -0.013076 367692.000000 0 0 1
32.238739 -16.650286 -18.770859 40.852337 -0.476735 2.048207 0.029215 -0.016431 425384.000000 0 0 1
33.396769 -16.895886 -19.552859 42.227117 -0.468367 2.052219 0.020862 -0.017099 -112863.000000 0 0 1
34.215749 -17.904186 -19.024959 43.049116 -0.482092 2.028552 0.026513 -0.019066 -67672.300000 0 0 1
35.425219 -18.154086 -19.952159 44.526459 -0.473568 2.035431 0.012297 -0.020259 -881.006000 0 0 1
36.233039 -16.993286 -20.099459 44.783848 -0.438541 2.036230 0.016504 -0.023548 195230.000000 0 0 1
-36.690115 -17.253386 -21.085259 45.699365 0.439562 2.050358 0.013574 -0.015913 687598.000000 0 0 1
-35.732306 -16.057986 -21.502159 44.687800 0.422352 2.072778 0.027675 -0.014676 1100330.000000 0 0 1
-34.768256 -15.564386 -20.557259 43.286056 0.420907 2.065665 0.048244 -0.020272 174582.000000 0 0 1
-33.957605 -14.547686 -21.035959 42.511947 0.404753 2.088429 0.061067 -0.022617 -899735.000000 0 0 1
-32.797235 -14.172286 -20.116059 41.002050 0.407884 2.083587 0.068284 -0.030755 -95808.100000 0 0 1
-31.717685 -15.091886 -20.173159 40.505961 0.444117 2.092121 0.077840 -0.034296 244463.000000 0 0 1
-31.975655 -16.297086 -19.428659 40.810664 0.471355 2.066975 0.062857 -0.028439 -426058.000000 0 0 1
-30.999145 -17.450186 -19.779259 40.702273 0.512712 2.078246 0.053500 -0.030317 243186.000000 0 0 1
-31.368625 -18.686486 -19.138959 41.224691 0.537256 2.053595 0.057121 -0.030543 432732.000000 0 0 1
-30.479515 -19.736986 -19.546559 41.238543 0.574650 2.064610 0.061844 -0.033554 135511.000000 0 0 1
-30.915445 -21.159786 -19.157459 42.077423 0.600207 2.043495 0.053570 -0.013236 -420041.000000 0 0 1
-31.848825 -21.663686 -20.067159 43.432175 0.597316 2.051084 0.039851 -0.018017 -156451.000000 0 0 1
-32.134865 -22.986786 -19.639459 44.121992 0.620936 2.032101 0.037707 -0.004443 -217624.000000 0 0 1
-33.129635 -23.759886 -20.479359 45.623558 0.622163 2.036304 0.016438 -0.004344 -335340.000000 0 0 1
-32.576525 -24.010886 -21.751559 45.944346 0.635169 2.063980 0.025588 -0.015129 509846.000000 0 0 1
-33.461905 -24.727386 -22.654659 47.374848 0.636405 2.069401 0.024052 -0.010236 399898.000000 0 0 1
-32.879415 -24.909886 -24.089759 47.768973 0.648356 2.099364 0.024369 -0.003744 148999.000000 0 0 1
-31.684675 -25.650336 -24.178059 47.396591 0.680537 2.106123 0.037515 -0.009775 -289414.000000 0 0 1
-31.343295 -25.839486 -25.525759 47.975468 0.689444 2.131826 0.035230 -0.004242 435509.000000 0 0 1
-29.806285 -26.020276 -25.746829 47.205599 0.717684 2.147685 0.049185 -0.005631 284278.000000 0 0 1
-29.103165 -24.849686 -25.489909 45.980828 0.706724 2.158390 0.058255 -0.010805 19466.900000 0 0 1
-27.714735 -25.062816 -25.757709 45.384037 0.735193 2.174323 0.052876 -0.005103 820864.000000 0 0 1
-26.952215 -23.736486 -26.077179 44.383126 0.722042 2.198821 0.068470 -0.006301 -10717.400000 0 0 1
-27.073795 -23.283486 -27.405429 45.012983 0.710271 2.225386 0.060327 -0.013392 402423.000000 0 0 1
-26.101015 -22.270686 -27.718499 44.108521 0.706378 2.250312 0.073769 -0.017556 456659.000000 0 0 1
-26.030275 -21.840186 -29.181279 44.789686 0.698091 2.280380 0.048735 -0.012524 -210038.000000 0 0 1
-25.514815 -22.787886 -30.069839 45.546555 0.729003 2.291881 0.063631 -0.010085 132239.000000 0 0 1
-25.491805 -22.258386 -31.391939 46.159741 0.717786 2.318657 0.058173 -0.008165 -421028.000000 0 0 1
-25.085705 -23.283486 -32.422309 47.144665 0.748156 2.329139 0.048211 -0.012220 -247458.000000 0 0 1
-26.073415 -24.237186 -32.706779 48.342502 0.748916 2.313882 0.010710 -0.009582 -370188.000000 0 0 1
-25.552485 -25.204006 -33.585999 49.154763 0.778533 2.323029 0.075229 -0.005855 166647.000000 0 0 1
-20.223705 -15.352686 -11.989159 28.079230 0.649327 2.011942 0.064274 -0.007066 -34605.600000 0 0 1
-20.274405 -14.330586 -10.974459 27.145090 0.615296 1.986998 0.085366 -0.012592 -48017.000000 0 0 1
-19.363505 -14.769886 -10.002459 26.327629 0.651623 1.960509 0.053334 -0.015525 -87497.500000 0 0 1
-19.543005 -14.079786 -8.613859 25.580617 0.624320 1.914242 0.089690 -0.025988 -389563.000000 0 0 1
-20.721305 -14.455986 -7.961959 26.490391 0.609139 1.876076 0.143715 -0.042601 -235278.000000 0 0 1
-20.944805 -13.862186 -6.709259 25.997292 0.584656 1.831826 0.104863 -0.040182 226420.000000 0 0 1
-22.265405 -14.357386 -6.043459 27.173630 0.572732 1.795073 0.152760 -0.045940 30063.900000 0 0 1
-22.342905 -15.687586 -5.555659 27.859847 0.612153 1.771557 0.135930 -0.036134 -170208.000000 0 0 1
-21.740705 -15.801386 -4.350959 27.226327 0.628494 1.731291 0.141830 -0.039583 -582887.000000 0 0 1
-21.667305 -17.240786 -3.809859 27.950525 0.672117 1.707529 0.114468 -0.030998 1158980.000000 0 0 1
-22.989105 -17.691386 -3.409259 29.207998 0.655899 1.687786 0.134477 -0.029359 1197670.000000 0 0 1
-22.912205 -18.844286 -2.591059 29.779017 0.688285 1.657916 0.116625 -0.020874 1071670.000000 0 0 1
-24.272005 -19.631986 -2.292359 31.301757 0.680103 1.644096 0.111911 -0.030539 1173640.000000 0 0 1
-24.699105 -20.379886 -3.448559 32.206802 0.689875 1.678077 0.074111 -0.029979 157191.000000 0 0 1
-25.662305 -21.381586 -3.127859 33.548616 0.694654 1.664166 0.082503 -0.028149 330349.000000 0 0 1
-25.667725 -22.433286 -4.242159 34.352297 0.718257 1.694602 0.080004 -0.022510 -105408.000000 0 0 1
-24.449005 -23.158686 -4.264359 33.945004 0.758302 1.696755 0.078076 -0.020522 -387977.000000 0 0 1
-24.188005 -23.950686 -5.421659 34.468672 0.780468 1.728745 0.077410 -0.009412 -234606.000000 0 0 1
-22.647605 -24.157686 -5.536159 33.573157 0.817650 1.736451 0.071456 -0.011370 834410.000000 0 0 1
-21.954605 -23.010186 -6.112559 32.385748 0.808870 1.760678 0.061852 -0.013453 357837.000000 0 0 1
-21.943205 -21.920186 -5.198359 31.448716 0.784873 1.736855 0.063944 -0.007805 -1419060.000000 0 0 1
-21.728305 -20.606786 -5.927459 30.526933 0.758913 1.766209 0.087560 -0.008097 -337574.000000 0 0 1
-20.496305 -20.382486 -6.538459 29.636054 0.782614 1.793252 0.056974 -0.005610 -216216.000000 0 0 1
-20.672405 -19.272986 -7.405759 29.217145 0.750379 1.827065 0.054954 -0.015821 342929.000000 0 0 1
-19.330705 -18.985686 -8.112059 28.283174 0.776394 1.861698 0.058395 -0.016531 -178961.000000 0 0 1
-19.008405 -19.864386 -9.199859 28.992252 0.807415 1.893700 0.062597 -0.009699 227005.000000 0 0 1
-17.755805 -19.763086 -9.869159 28.341638 0.838848 1.926469 0.069631 -0.009887 28521.100000 0 0 1
-17.596605 -18.382886 -10.592559 27.563985 0.807248 1.965235 0.075283 -0.011588 -514264.000000 0 0 1
-17.171105 -17.327086 -9.769859 26.277840 0.789920 1.951734 0.081585 -0.012026 -751632.000000 0 0 1
-15.852505 -17.359886 -9.359059 25.303350 0.830753 1.949670 0.082047 -0.009090 -1312720.000000 0 0 1
-15.574505 -16.267886 -8.364559 24.024470 0.807170 1.926413 0.063148 -0.007875 -230756.000000 0 1 0
-16.380505 -16.345686 -7.228459 24.243618 0.784334 1.873560 0.047356 -0.004926 -29764.900000 0 1 0
-16.574905 -15.139186 -6.589559 23.395399 0.740158 1.856321 0.062043 -0.006827 13057.200000 0 1 0
-17.317105 -15.286686 -5.236459 23.685130 0.723203 1.793725 0.071874 -0.016500 -33258.100000 0 1 0
-17.394805 -14.071186 -4.489659 22.819609 0.680163 1.768834 0.060048 -0.018652 179142.000000 0 1 0
-17.742205 -14.393986 -3.157259 23.063845 0.681584 1.708120 0.052345 -0.015477 -110063.000000 0 1 0
-18.687805 -13.372186 -2.491059 23.113952 0.621091 1.678779 0.073331 -0.015738 48116.600000 0 1 0
-19.928305 -13.142786 -3.135259 24.076960 0.583027 1.701385 0.109011 -0.034171 428384.000000 0 1 0
-20.715405 -12.253986 -2.368359 24.184650 0.534175 1.668882 0.122508 -0.027052 75035.700000 0 1 0
-22.245905 -12.373586 -2.579159 25.585894 0.507605 1.671772 0.133768 -0.022904 218738.000000 0 0 1
-22.713305 -11.710986 -3.754959 25.829075 0.476050 1.716691 0.135504 -0.036270 377641.000000 0 0 1
-24.128705 -11.733786 -3.825159 27.101808 0.452628 1.712410 0.142242 -0.031861 52590.700000 0 0 1
-24.656905 -11.076286 -5.097159 27.506874 0.422202 1.757178 0.153804 -0.046600 -233401.000000 0 0 1
-24.353405 -11.756286 -6.275259 27.761078 0.449742 1.798812 0.167017 -0.050028 371581.000000 0 0 1
-24.901805 -11.122386 -7.445259 28.270820 0.420064 1.837295 0.172980 -0.050591 -75489.600000 0 0 1
-24.084805 -11.478886 -8.701459 28.063465 0.444755 1.886056 0.181722 -0.057149 -67997.000000 0 0 1
-22.899405 -10.747086 -8.889559 26.812439 0.438802 1.908738 0.158792 -0.049320 184294.000000 0 0 1
-22.015505 -11.298786 -9.857059 26.636566 0.474167 1.949867 0.114991 -0.037426 315205.000000 0 0 1
-20.643905 -10.587086 -9.949859 25.243948 0.473869 1.975937 0.097491 -0.031229 822.400000 0 0 1
-20.815705 -9.213586 -10.214559 24.950370 0.416705 1.992587 0.098033 -0.032328 254376.000000 0 1 0
-19.584605 -8.533386 -10.143359 23.648745 0.410915 2.014090 0.096828 -0.022765 -169161.000000 0 1 0
-19.595505 -7.111686 -10.690159 23.427321 0.348142 2.044642 0.086174 -0.027907 -148422.000000 0 1 0
-19.523305 -6.952786 -12.118059 24.007249 0.342123 2.099908 0.124464 -0.028675 474357.000000 0 1 0
-19.698405 -5.610586 -12.576159 24.034675 0.277477 2.121457 0.131851 -0.037458 -403249.000000 0 1 0
-19.241505 -5.466586 -14.058159 24.448945 0.276810 2.183401 0.179184 -0.037418 -29299.300000 0 1 0
-20.009805 -6.118886 -15.102959 25.805667 0.296764 2.195994 0.161551 -0.046666 441077.000000 0 0 1
-19.448005 -6.045786 -16.417659 26.159433 0.301398 2.249263 0.162977 -0.056455 -511747.000000 0 0 1
-20.018905 -6.997686 -17.430359 27.450712 0.336277 2.258765 0.128447 -0.038722 34695.000000 0 0 1
-21.355705 -6.716986 -17.824659 28.616472 0.304732 2.243216 0.116027 -0.045587 468663.000000 0 0 1
-21.796105 -7.751586 -18.728559 29.764344 0.341691 2.251356 0.100057 -0.040688 -305509.000000 0 0 1
-23.260805 -7.551686 -19.133959 31.051592 0.313918 2.234704 0.097101 -0.037284 -1148200.000000 0 0 1
-23.402305 -6.378486 -19.957659 31.411162 0.266094 2.259282 0.095362 -0.033927 667360.000000 0 0 1
-24.713205 -6.258986 -20.529259 32.731756 0.248049 2.248745 0.071316 -0.028381 656295.000000 0 0 1
-25.759675 -5.792886 -19.486559 32.815307 0.221202 2.206601 0.066901 -0.025285 -1159310.000000 0 0 1
-25.834385 -4.423686 -19.127659 32.447678 0.169588 2.201227 0.080538 -0.024332 250773.000000 0 0 1
-26.960805 -4.236086 -18.292259 32.854774 0.155846 2.161278 0.103587 -0.021065 -128377.000000 0 0 1
-27.097325 -2.788486 -17.924459 32.608694 0.102545 2.152782 0.099317 -0.018979 49279.300000 0 0 1
-27.508975 -1.825886 -18.871259 33.409609 0.066277 2.171042 0.114823 -0.016485 714771.000000 0 0 1
-28.856085 -1.825786 -19.357459 34.795378 0.063188 2.160750 0.116949 -0.012941 476441.000000 0 0 1
-29.143405 -0.661286 -20.313759 35.530609 0.022687 2.179404 0.124238 -0.010823 -53238.200000 0 0 1
-28.420025 -0.627486 -21.536459 35.663856 0.022075 2.219148 0.123022 -0.010575 466363.000000 0 0 1
-29.012825 -1.438486 -22.563959 36.782407 0.049540 2.231211 0.118967 -0.004615 458234.000000 0 0 1
-27.974685 -1.596386 -23.735159 36.721781 0.057004 2.273589 0.126118 -0.012495 -91203.100000 0 0 1
-28.037805 -0.667286 -24.826159 37.455333 0.023795 2.295376 0.146740 -0.014678 270448.000000 0 0 1
-27.551235 0.663614 -24.564659 36.917928 -0.024082 2.298807 0.134341 -0.005639 -506000.000000 0 0 1
-26.066585 0.802714 -24.223859 35.593631 -0.030785 2.319333 0.129813 -0.009503 -1084820.000000 0 0 1
-25.195955 0.758314 -25.296249 35.711502 -0.030088 2.357954 0.115028 -0.024044 -1594090.000000 0 0 1
-23.910705 0.753514 -24.823059 34.474249 -0.031503 2.374665 0.102870 -0.023602 -925580.000000 0 0 1
-22.867605 0.036814 -25.729849 34.423158 -0.001610 2.415023 0.081485 -0.022917 23690.500000 0 0 1
-22.629205 0.740714 -26.900949 35.160925 -0.032721 2.441963 0.061433 -0.015971 142645.000000 0 0 1
-21.689705 0.056114 -27.700579 35.181935 -0.002587 2.477299 0.037436 -0.022028 -298104.000000 0 0 1
-21.488205 0.812214 -29.012459 36.112677 -0.037780 2.503758 0.036188 -0.002636 -347379.000000 0 0 1
-20.804405 2.077814 -28.938889 35.701539 -0.099544 2.515935 0.044004 -0.006099 394780.000000 0 0 1
-20.716005 2.709514 -30.198929 36.721515 -0.130055 2.536373 0.030783 -0.006925 -215162.000000 0 0 1
-20.058705 2.022814 -31.461079 37.366334 -0.100505 2.571708 0.035874 -0.004892 -651229.000000 0 0 1
-18.672305 2.118814 -31.373559 36.571089 -0.112990 2.601923 0.022236 -0.001648 -941758.000000 0 0 1
-18.062605 1.475014 -32.438079 37.157265 -0.081480 2.632104 0.016392 0.006650 641015.000000 0 0 1
-16.500205 1.534314 -32.346719 36.344478 -0.092721 2.668150 0.015822 -0.004344 772700.000000 0 0 1
-15.901405 2.815014 -32.493869 36.285403 -0.175214 2.680368 0.019511 0.001588 1215670.000000 0 0 1
-14.480505 2.728714 -32.788219 35.947158 -0.186256 2.719229 0.028131 -0.010271 1299640.000000 0 0 1
-13.855905 4.088614 -33.203269 36.209942 -0.286938 2.731203 0.049045 -0.013695 -359603.000000 0 0 1
-13.651405 4.932514 -32.068189 35.200274 -0.346723 2.716550 0.063136 -0.023871 134814.000000 0 0 1
-13.228905 6.200714 -32.466389 35.602236 -0.438316 2.718735 0.069843 -0.013853 -179087.000000 0 0 1
-13.162605 7.350114 -31.373079 34.807304 -0.509276 2.693641 0.077254 -0.016794 624869.000000 0 0 1
-12.101505 7.370914 -30.378839 33.520899 -0.547077 2.705161 0.105643 -0.033057 833346.000000 0 0 1
-12.267705 6.298214 -29.453439 32.521826 -0.474308 2.703710 0.110063 -0.036879 790675.000000 0 0 1
-10.873005 5.661814 -29.044359 31.525437 -0.480088 2.742205 0.133672 -0.040528 763054.000000 0 0 1
-10.147205 4.893514 -29.967269 32.014832 -0.449349 2.782009 0.100541 -0.047401 273159.000000 0 0 1
-10.822505 3.694114 -30.365719 32.447650 -0.328936 2.781424 0.095294 -0.043230 -96439.300000 0 0 1
-10.067405 2.869214 -31.454939 33.151142 -0.277640 2.820320 0.082263 -0.031949 143250.000000 0 0 1
-10.766705 1.653314 -31.729679 33.547398 -0.152368 2.810896 0.082352 -0.026410 241409.000000 0 0 1
-10.416905 1.012714 -32.935089 34.558032 -0.096914 2.833907 0.063816 -0.022865 -768045.000000 0 0 1
-10.860905 1.521714 33.739419 35.477081 -0.139203 0.314277 0.064405 -0.024020 89503.100000 0 0 1
-12.231105 1.296414 33.454826 35.644158 -0.105599 0.352310 0.025523 -0.013082 -101851.000000 0 0 1
-12.407405 1.526014 32.073885 34.423924 -0.122378 0.371642 0.009426 -0.004353 254280.000000 0 0 1
-13.825205 1.136414 31.532511 34.448904 -0.082014 0.414441 0.008267 -0.002967 -22821.400000 0 0 1
-14.661105 2.215214 31.835251 35.118918 -0.149960 0.435881 0.009145 0.002262 -617442.000000 0 0 1
-15.926305 1.775914 31.377801 35.233045 -0.111050 0.472180 0.011951 0.003284 73760.000000 0 0 1
-17.035705 2.868814 31.218091 35.679329 -0.166835 0.505437 0.026280 0.001594 310288.000000 0 0 1
-17.503705 3.411114 32.434863 37.013994 -0.192467 0.502697 0.024225 -0.001170 493516.000000 0 0 1
-16.814705 4.631114 32.728973 37.085943 -0.268757 0.489609 0.023598 0.003925 -14983.500000 0 0 1
-17.482405 5.317014 33.943538 38.549564 -0.295246 0.493845 0.016953 0.006543 1422040.000000 0 0 1
-18.874205 5.659414 33.711926 39.048157 -0.291318 0.528940 0.012453 0.007581 1215270.000000 0 0 1
-19.698905 5.422614 -33.229349 39.008220 -0.268622 2.590313 0.004530 0.011193 1237450.000000 0 0 1
-21.188505 5.963614 -33.291019 39.910016 -0.274358 2.557390 0.004204 0.007726 972243.000000 0 0 1
-21.363705 7.352314 -33.151799 40.118651 -0.331454 2.543381 0.007751 0.000889 114325.000000 0 0 1
-21.075505 8.140214 33.762935 40.624817 -0.368589 0.589729 0.000068 0.000730 -384685.000000 0 0 1
-20.892905 9.648914 -33.950139 41.014960 -0.432646 2.545882 0.008931 0.000311 -505966.000000 0 0 1
-19.749905 9.933214 -33.174819 39.865977 -0.466005 2.553785 0.009235 0.008054 124447.000000 0 0 1
-19.719105 11.269614 -32.628389 39.754988 -0.519206 2.533496 0.018528 -0.003709 77320.400000 0 0 1
-19.087505 12.316214 -33.628219 40.581758 -0.573029 2.547494 0.010530 -0.011608 118590.000000 0 0 1
-19.859305 12.496914 33.251324 40.696627 -0.561666 0.614514 0.029755 -0.017208 283581.000000 0 0 1
-18.973105 12.771414 32.173531 39.474344 -0.592466 0.617982 0.027600 -0.014027 167915.000000 0 0 1
-19.419305 12.145014 30.845651 38.419591 -0.558894 0.638715 0.044783 -0.022674 -196655.000000 0 0 1
-19.522705 10.771914 30.905451 38.109278 -0.504196 0.624990 0.028409 -0.012234 -43706.200000 0 0 1
-18.329905 10.053814 30.673101 37.120126 -0.501685 0.598254 0.028880 -0.013613 -41522.500000 0 0 1
-18.433805 8.500614 30.658231 36.769454 -0.432081 0.584848 0.035064 -0.008680 -167934.000000 0 0 1
-19.033405 7.884614 29.553971 36.026030 -0.392731 0.608773 0.038494 -0.017707 14884.400000 0 0 1
-19.231205 6.505314 29.875861 36.120983 -0.326186 0.596858 0.035230 -0.011230 -180905.000000 0 0 1
-19.747405 5.696214 28.701241 35.301106 -0.280831 0.621440 0.040506 -0.010504 645.012000 0 0 1
-21.137705 5.919614 28.547661 36.011295 -0.273055 0.655502 0.063778 -0.018526 52603.600000 0 0 1
-21.659705 5.016714 27.541991 35.395925 -0.227602 0.679142 0.059972 -0.015873 1044430.000000 0 0 1
-23.205805 5.304114 27.368021 36.271912 -0.224708 0.715868 0.065552 -0.016802 923043.000000 0 0 1
-23.495505 6.061414 26.214311 35.720717 -0.252477 0.746797 0.076735 -0.022512 1557500.000000 0 0 1
-24.930705 6.318614 26.234581 36.738511 -0.248220 0.775474 0.081130 -0.022333 1293750.000000 0 0 1
-25.388115 7.214714 24.999861 36.353838 -0.276878 0.812506 0.082302 -0.025873 -235726.000000 0 0 1
-25.334805 6.612014 23.730541 35.337086 -0.255291 0.834501 0.087141 -0.021954 521484.000000 0 0 1
-26.050745 5.364914 23.569821 35.538150 -0.203101 0.845675 0.088528 -0.022043 -145634.000000 0 0 1
-26.036215 4.774914 22.130971 34.503104 -0.181380 0.874449 0.095795 -0.008807 189343.000000 0 0 1
-26.956285 5.320014 21.168071 34.684739 -0.194853 0.914358 0.108376 -0.015735 352030.000000 0 0 1
-27.113785 4.512014 20.038571 34.015584 -0.164899 0.940852 0.112536 -0.016950 -133934.000000 0 0 1
-28.157655 5.097214 19.079371 34.392696 -0.179085 0.982733 0.160124 -0.027485 920001.000000 0 0 1
-29.535005 4.998714 19.487971 35.736322 -0.167658 0.994017 0.171659 -0.027932 765477.000000 0 0 1
-30.405805 5.242214 18.424071 35.936614 -0.170730 1.032490 0.178831 -0.033764 -355511.000000 0 0 1
-31.884555 5.259214 18.823471 37.397958 -0.163474 1.043349 0.175990 -0.036238 -85277.600000 0 0 1
-32.383205 6.344114 19.657671 38.410204 -0.193457 1.033538 0.165499 -0.031893 -191851.000000 0 0 1
-33.725815 6.081014 19.973871 39.665664 -0.178391 1.043087 0.162287 -0.024154 -110729.000000 0 0 1
-34.422749 7.252614 20.764471 40.849594 -0.207655 1.037569 0.136406 -0.016707 -193033.000000 0 0 1
-34.034535 7.508614 22.084471 41.260789 -0.217139 1.006003 0.130635 -0.027379 50896.000000 0 0 1
-34.727035 8.606414 22.677671 42.359345 -0.242936 1.005858 0.108581 -0.018306 289303.000000 0 0 1
-0.727005 32.258314 11.364941 34.209491 -1.548263 1.232144 0.075497 -0.012866 -9865.720000 0 0 1
-0.950105 32.562214 12.767641 34.988758 -1.541626 1.197263 0.054780 -0.010279 45175.600000 0 0 1
-0.617205 33.872714 13.106141 36.325097 -1.552577 1.201669 0.050023 -0.017310 -174402.000000 0 0 1
-0.454705 -34.043382 14.626141 37.055130 1.557440 1.165041 0.040737 -0.011975 -89979.100000 0 0 1
-1.658305 33.862114 15.318141 37.202664 -1.521863 1.146424 0.028128 0.004402 -146741.000000 0 0 1
-1.440005 -33.720782 16.623341 37.623135 1.528118 1.113150 0.022241 -0.011853 368473.000000 0 0 1
-2.751905 -33.421482 17.401841 37.780849 1.488642 1.092126 0.020222 -0.006686 -326157.000000 0 0 1
-3.352205 33.568614 17.937341 38.207818 -1.471265 1.082108 0.020258 -0.007001 -210932.000000 0 0 1
-4.158805 34.041614 19.022241 39.216997 -1.449230 1.064375 0.023217 -0.011521 -46102.100000 0 0 1
-5.146605 32.944414 19.493541 38.624088 -1.415828 1.041763 0.013306 -0.012865 79471.100000 0 0 1
-6.138105 32.659514 18.521941 38.044481 -1.385021 1.062317 0.018109 -0.014709 394492.000000 0 0 1
-7.279705 32.068714 19.148341 38.053325 -1.347576 1.043501 0.032775 -0.030166 175797.000000 0 0 1
-8.459605 31.835114 18.199541 37.633266 -1.311067 1.066030 0.022166 -0.031771 -277284.000000 0 0 1
-9.261905 32.997914 17.928641 38.679212 -1.297156 1.088831 0.037864 -0.028859 23140.000000 0 0 1
-9.928705 32.719614 16.720341 38.062083 -1.276179 1.115987 0.046344 -0.011844 84858.200000 0 0 1
-11.027905 33.801614 16.367541 39.141541 -1.255431 1.139374 0.076364 -0.021142 -263639.000000 0 0 1
-12.161305 33.639914 17.128241 39.660028 -1.223901 1.124224 0.068603 -0.015852 -830753.000000 0 0 1
-13.175905 -33.553182 16.735741 39.742994 1.196610 1.136140 0.056785 -0.017118 217456.000000 0 0 1
-14.445805 -33.717382 17.614041 40.691493 1.166017 1.123125 0.074289 -0.011991 198780.000000 0 0 1
-14.282305 -33.242882 18.913341 40.826314 1.165006 1.089122 0.075879 -0.016531 600210.000000 0 0 1
-15.505205 -33.511782 19.617641 41.812711 1.137449 1.082436 0.057421 -0.022844 687917.000000 0 0 1
-15.557005 -33.064582 21.065641 42.178766 1.131023 1.047847 0.062088 -0.039488 -86334.100000 0 0 1
-15.664005 -31.656982 21.231741 41.210586 1.111314 1.029554 0.061453 -0.031606 144036.000000 0 0 1
-15.707805 -31.406582 22.593441 41.756103 1.107034 0.999074 0.057894 -0.028962 125333.000000 0 0 1
-15.421905 -29.889582 22.890941 40.684364 1.094460 0.973212 0.063878 -0.032879 -36507.100000 0 0 1
-15.322205 -29.524582 24.272041 41.177699 1.092093 0.940423 0.070229 -0.041627 -66478.400000 0 0 1
-15.091405 -28.114782 24.545941 40.257853 1.078161 0.915091 0.065029 -0.016181 -431617.000000 0 0 1
-16.310105 -27.234882 24.261041 39.954430 1.031209 0.918242 0.081718 -0.016936 -42994.500000 0 0 1
-17.391605 -27.472382 25.174741 41.121373 1.006424 0.911949 0.090470 -0.019135 329230.000000 0 0 1
-18.430705 -26.617382 24.739441 40.745747 0.965168 0.918307 0.094897 -0.018984 -1585580.000000 0 0 1
-19.560705 -26.373782 25.714541 41.706537 0.932646 0.906432 0.106474 -0.016930 -464553.000000 0 0 1
-20.374405 -27.515582 26.036041 43.012779 0.933424 0.920642 0.120134 -0.017843 627029.000000 0 0 1
-21.240605 -27.928682 24.986241 43.075363 0.920590 0.951996 0.110477 -0.023490 -613977.000000 0 0 1
-22.614705 -27.219982 24.917841 43.281072 0.877548 0.957310 0.084549 -0.013087 -518474.000000 0 0 1
-22.680705 -25.869982 24.383341 42.168919 0.850994 0.954239 0.096715 -0.016628 -405646.000000 0 0 1
-23.951905 -25.678182 23.865841 42.457522 0.820167 0.973860 0.096858 -0.013941 -842836.000000 0 0 1
-24.287005 -24.218882 23.508241 41.581851 0.783994 0.969941 0.093310 -0.004830 -206650.000000 0 0 1
-25.013905 -23.608482 24.541041 42.253031 0.756501 0.951071 0.080943 -0.005666 202921.000000 0 0 1
-25.771445 -22.516482 24.048941 41.827156 0.718093 0.958241 0.061441 -0.001699 49989.000000 0 0 1
-26.394195 -21.610082 25.142441 42.376781 0.686066 0.935635 0.068007 -0.001147 561124.000000 0 0 1
-27.472295 -22.303782 25.803541 43.795074 0.681934 0.940743 0.058893 -0.000676 492841.000000 0 0 1
-27.823295 -21.585482 26.965941 44.353476 0.659813 0.917285 0.054266 -0.011223 -1526930.000000 0 0 1
-29.096425 -22.018482 27.665041 45.790502 0.647802 0.922078 0.047243 -0.010441 -700160.000000 0 0 1
-30.277825 -21.641182 26.995541 45.976589 0.620559 0.943252 0.040263 -0.008451 188741.000000 0 0 1
-30.653015 -22.391482 25.838241 45.919501 0.630892 0.973165 0.038312 -0.006392 -1007620.000000 0 0 1
-32.075095 -22.944982 26.033041 47.254663 0.620955 0.987343 0.042841 -0.012777 -386714.000000 0 0 1
-32.731395 -23.610682 24.961741 47.454158 0.624909 1.016885 0.031408 -0.007216 42745.600000 0 0 1
-32.148035 -24.736682 24.347541 47.309644 0.655841 1.030206 0.023400 -0.005834 -999707.000000 0 0 1
-32.692305 -25.079482 22.976141 47.177011 0.654379 1.062122 0.031135 -0.001969 -86787.800000 0 0 1
-34.031275 -25.526282 23.082441 48.399565 0.643554 1.073656 0.046083 -0.003250 18051.600000 0 0 1
-34.494552 -25.882482 21.762841 48.305262 0.643716 1.103440 0.049777 -0.006564 528976.000000 0 0 1
-35.940794 -26.482182 21.772641 49.669856 0.635018 1.117037 0.060588 -0.007281 363967.000000 0 0 1
-36.153995 -27.682082 22.560141 50.817015 0.653456 1.110796 0.064787 -0.004348 541610.000000 0 0 1
-35.371480 -28.854982 22.154341 50.740186 0.684283 1.118955 0.053284 -0.009979 -117988.000000 0 0 1
-35.944716 -29.708882 21.053841 51.165463 0.690701 1.146713 0.070356 -0.010207 -550869.000000 0 0 1
-35.711823 -29.135982 19.739541 50.138700 0.684339 1.166145 0.061795 -0.004198 347459.000000 0 0 1
-36.081774 -30.079682 18.802441 50.598553 0.694927 1.190064 0.063055 0.004924 -437033.000000 0 0 1
-36.204905 -29.447482 17.405241 49.808552 0.682832 1.213820 0.065688 0.010579 -689317.000000 0 0 1
-35.030425 -29.195982 16.671941 48.553987 0.694805 1.220295 0.073826 0.008065 -243794.000000 0 0 1
-35.169687 -28.627382 15.393741 47.889468 0.683207 1.243543 0.062822 -0.003448 -362226.000000 0 0 1
-35.790439 -29.552082 14.317541 48.572349 0.690215 1.271584 0.052730 -0.000936 -195183.000000 0 0 1
-35.090313 -30.718282 13.998041 48.691766 0.719060 1.279199 0.065487 -0.006572 -102209.000000 0 0 1
-35.769150 -31.574682 13.076841 49.471168 0.723194 1.303285 0.071101 -0.009040 140604.000000 0 0 1
-35.968334 -31.007582 11.657141 48.898673 0.711465 1.330085 0.070423 -0.014162 -333076.000000 0 0 1
36.851889 -30.147182 11.548141 48.992590 -0.685659 1.332845 0.069859 -0.015960 -400282.000000 0 0 1
36.663579 -29.693182 10.261941 48.282611 -0.680738 1.356624 0.057148 -0.016580 -324020.000000 0 0 1
35.473489 -28.741682 10.239341 46.789922 -0.680948 1.350174 0.086749 -0.010083 -406701.000000 0 0 1
35.470959 -27.873182 9.092341 46.019277 -0.666024 1.371911 0.096833 -0.040028 508102.000000 0 0 1
34.506329 -26.798482 9.098141 44.627587 -0.660325 1.365489 0.072006 -0.036651 335563.000000 0 0 1
34.682909 -25.828582 7.891541 43.957892 -0.640105 1.390293 0.057212 -0.030387 -192229.000000 0 0 1
35.700969 -24.891582 8.017941 44.254236 -0.608861 1.388611 0.076131 -0.038408 -298475.000000 0 0 1
35.645159 -23.982082 6.943241 43.519262 -0.592237 1.410568 0.059212 -0.038712 478442.000000 0 0 1
36.342699 -22.556582 7.201941 43.375789 -0.555475 1.403988 0.065770 -0.040984 245045.000000 0 0 1
35.585469 -21.784182 8.149841 42.512305 -0.549316 1.377897 0.067994 -0.029890 94617.100000 0 0 1
35.860529 -20.384782 8.095441 42.036330 -0.516895 1.377004 0.072744 -0.034395 59659.700000 0 0 1
34.991499 -19.526782 9.038741 41.077963 -0.508998 1.348942 0.085220 -0.025794 135685.000000 0 0 1
35.331389 -19.807582 10.368341 41.810882 -0.510962 1.320200 0.073566 -0.039664 369647.000000 0 0 1
34.435739 -19.098082 11.237241 40.949145 -0.506369 1.292810 0.081766 -0.024779 445138.000000 0 0 1
34.949419 -19.138582 12.724641 41.828982 -0.501005 1.261691 0.074569 -0.040687 613966.000000 0 0 1
36.092279 -18.321182 12.998941 42.512243 -0.469725 1.260050 0.035778 -0.023970 630270.000000 0 0 1
36.437089 -18.358582 14.397441 43.266445 -0.466718 1.231565 0.045620 -0.022184 371182.000000 0 0 1
-36.195605 -17.475582 14.723041 42.805207 0.449801 1.219671 0.056906 -0.027536 397640.000000 0 0 1
-35.030786 -17.934882 14.092141 41.801966 0.473182 1.226944 0.053854 -0.027472 -607780.000000 0 0 1
-33.956695 -17.152282 14.509341 40.715831 0.467737 1.206431 0.044816 -0.025759 509800.000000 0 0 1
-32.620205 -17.328782 13.679741 39.389082 0.488317 1.216108 0.057047 -0.026594 883656.000000 0 0 1
-31.952825 -18.575382 13.808841 39.455189 0.526584 1.213238 0.050547 -0.024387 102648.000000 0 0 1
-30.701835 -18.554482 13.168141 38.213498 0.543608 1.218990 0.023441 -0.016348 -18813.100000 0 0 1
-30.137975 -19.974582 12.779641 38.348412 0.585301 1.231047 0.017785 -0.022456 -225822.000000 0 0 1
-30.787405 -20.584482 11.680241 38.833147 0.589340 1.265286 0.026437 -0.023750 -561303.000000 0 0 1
-29.978455 -21.426682 10.905541 38.428392 0.620548 1.283053 0.024519 -0.023954 -365006.000000 0 0 1
-30.747995 -22.203882 9.784641 39.168748 0.625421 1.318315 0.030329 -0.024980 312281.000000 0 0 1
-31.264935 -23.450082 10.236041 40.400236 0.643529 1.314638 0.040899 -0.028905 -497561.000000 0 0 1
-32.623085 -23.324482 10.562441 41.471223 0.620702 1.313266 0.071528 -0.033402 -616911.000000 0 0 1
-33.377335 -24.670882 10.573041 42.830925 0.636521 1.321363 0.098422 -0.033792 -115685.000000 0 0 1
-33.734985 -25.140282 9.293341 43.086532 0.640441 1.353398 0.093339 -0.025566 24616.900000 0 0 1
-34.632118 -26.236282 9.409741 44.455251 0.648329 1.357515 0.103321 -0.022941 361169.000000 0 0 1
-34.862175 -26.974082 8.088941 44.815213 0.658519 1.389306 0.091373 -0.022481 128625.000000 0 0 1
-33.596325 -27.449082 7.698441 44.061675 0.685037 1.395175 0.070237 -0.019241 -89477.200000 0 0 1
-33.636465 -28.382382 6.657441 44.511717 0.700882 1.420667 0.064580 -0.017747 -1098960.000000 0 0 1
-32.334585 -28.501182 5.948441 43.511226 0.722469 1.433656 0.068544 -0.010358 -1060340.000000 0 0 1
-31.939225 -27.398882 5.154741 42.395568 0.709030 1.448908 0.081560 -0.006516 13655.300000 0 0 1
-30.630225 -27.694482 4.677241 41.558051 0.735106 1.458010 0.068869 -0.009929 243312.000000 0 0 1
-29.845325 -26.489682 4.140641 40.119716 0.725903 1.467405 0.076857 -0.009153 38714.400000 0 0 1
-30.299835 -26.051682 2.861041 40.061899 0.710154 1.499320 0.090265 -0.009851 81866.100000 0 0 1
-29.701845 -24.793782 2.447641 38.767541 0.695577 1.507618 0.080091 -0.016756 53352.800000 0 0 1
-29.909005 -24.361682 1.000541 38.588097 0.683536 1.544865 0.087064 -0.012027 71129.800000 0 0 1
-29.229875 -25.182782 0.030441 38.581849 0.711157 1.570007 0.095622 -0.018022 259448.000000 0 0 1
-29.041275 -24.673182 -1.277359 38.128641 0.704256 1.604304 0.097265 -0.029172 620747.000000 0 0 1
-30.371565 -24.639982 -2.119259 39.166975 0.681584 1.624931 0.111246 -0.027377 861807.000000 0 0 1
-31.236815 -23.564682 -1.780159 39.168889 0.646304 1.616260 0.093952 -0.020089 515373.000000 0 0 1
-32.542175 -23.810882 -2.322059 40.389890 0.631681 1.628319 0.097245 -0.028123 680315.000000 0 0 1
-33.579025 -22.682082 -2.239359 40.583772 0.594082 1.626003 0.070359 -0.032738 -98748.100000 0 0 1
-33.930135 -22.293682 -0.923359 40.609296 0.581313 1.593536 0.076778 -0.034979 172709.000000 0 0 1
-34.670796 -21.090182 -0.921459 40.591982 0.546499 1.593499 0.080068 -0.022918 -272627.000000 0 0 1
-35.024442 -20.675782 0.504241 40.674977 0.533275 1.558399 0.078728 -0.032814 -272163.000000 0 0 1
-35.923081 -21.475582 1.284841 41.872655 0.538816 1.540107 0.079057 -0.036608 461486.000000 0 0 1
-35.847856 -21.148382 2.647741 41.705316 0.532996 1.507267 0.077776 -0.027769 78161.600000 0 0 1
36.855609 -21.798882 3.433941 42.957178 -0.534122 1.490772 0.086534 -0.018518 2228090.000000 0 0 1
35.490739 -21.456482 3.066241 41.585755 -0.543770 1.496996 0.074901 -0.019992 1289760.000000 0 0 1
35.071379 -20.103582 3.249641 40.555096 -0.520495 1.490581 0.072325 -0.025580 884200.000000 0 0 1
33.642939 -19.854982 2.570341 39.149384 -0.533159 1.505094 0.064135 -0.011052 2162110.000000 0 0 1
32.593419 -20.681782 3.135641 38.728533 -0.565429 1.489743 0.065246 -0.009378 967361.000000 0 0 1
31.299599 -20.296882 2.655041 37.398898 -0.575300 1.499744 0.057107 -0.016681 653370.000000 0 0 1
30.150589 -21.212282 3.080441 36.993351 -0.613101 1.487430 0.038381 0.000658 -189665.000000 0 0 1
30.064699 -22.328082 2.175641 37.512168 -0.638792 1.512765 0.030271 -0.005130 -109110.000000 0 0 1
28.956699 -23.153382 2.449341 37.156006 -0.674489 1.504828 0.024586 -0.000349 -207143.000000 0 0 1
28.599089 -24.305182 1.489441 37.561525 -0.704412 1.531133 0.019818 -0.002834 -411383.000000 0 0 1
27.998789 -23.922182 0.320141 36.828053 -0.707043 1.562103 0.016510 -0.008667 -85769.000000 0 0 1
27.509989 -25.025682 -0.399659 37.191988 -0.738145 1.581542 0.018167 -0.011536 -213561.000000 0 0 1
26.644189 -24.685582 -1.635059 36.358825 -0.747259 1.615782 0.040681 -0.017124 79038.800000 0 0 1
27.380889 -24.168282 -2.757359 36.625428 -0.723157 1.646153 0.025199 -0.024497 154631.000000 0 0 1
27.753989 -25.171182 -3.658959 37.646518 -0.736636 1.668142 0.026148 -0.023900 -364818.000000 0 0 1
26.662389 -25.734982 -4.642559 37.346026 -0.767701 1.695431 0.039723 -0.027026 539541.000000 0 0 1
26.121789 -24.793182 -5.606959 36.448425 -0.759309 1.725242 0.040730 -0.037269 632142.000000 0 0 1
25.190989 -23.856582 -5.060759 35.061855 -0.758199 1.715640 0.047742 -0.039860 -337541.000000 0 0 1
24.586789 -22.831382 -6.028759 34.090000 -0.748395 1.748580 0.051697 -0.041381 143572.000000 0 0 1
23.756689 -23.461182 -6.996259 34.113853 -0.779140 1.777347 0.061215 -0.036936 192152.000000 0 0 1
22.828789 -22.707682 -7.741159 33.116732 -0.782739 1.806733 0.068510 -0.037912 71884.300000 0 0 1
23.386289 -21.525782 -8.593659 32.926111 -0.743996 1.834853 0.072774 -0.037411 -399023.000000 0 0 1
23.993289 -21.929382 -9.787559 33.946605 -0.740485 1.863270 0.079647 -0.036500 -12350.000000 0 0 1
24.013389 -20.743882 -10.645159 33.470448 -0.712478 1.894465 0.085297 -0.033095 -198293.000000 0 0 1
24.960789 -20.835682 -11.852359 34.607008 -0.695566 1.920356 0.064143 -0.012958 -1177120.000000 0 0 1
26.301689 -20.697682 -11.627259 35.431145 -0.666723 1.905157 0.066914 -0.026534 -1189130.000000 0 0 1
26.947789 -20.052382 -12.751259 35.928762 -0.639727 1.933608 0.069007 -0.028444 -177660.000000 0 0 1
28.471589 -20.223082 -12.801759 37.195288 -0.617599 1.922158 0.051288 -0.023407 -340101.000000 0 0 1
28.885839 -21.564982 -13.117159 38.360135 -0.641295 1.919785 0.044962 -0.020804 197659.000000 0 0 1
28.901679 -22.476282 -12.071659 38.551462 -0.660983 1.889284 0.054236 -0.026941 -515258.000000 0 0 1
28.945229 -23.945682 -12.665359 39.643830 -0.691153 1.895976 0.038393 -0.023820 500097.000000 0 0 1
30.272219 -24.247582 -13.126059 40.946867 -0.675341 1.897120 0.026788 -0.030990 933798.000000 0 0 1
30.447249 -25.697182 -13.216359 41.976806 -0.700995 1.891094 0.029099 -0.024890 -93767.900000 0 0 1
-3.293705 -9.017886 -27.409799 29.042517 1.220608 2.804686 0.089258 -0.026347 120017.000000 0 0 1
-3.224805 -7.705286 -26.934319 28.199793 1.174428 2.840877 0.086283 -0.021485 -343557.000000 0 0 1
-4.123605 -6.892586 -27.616079 28.760383 1.031652 2.858558 0.072386 -0.016037 -220221.000000 0 0 1
-4.220405 -5.452686 -26.966679 27.834248 0.912108 2.891263 0.071908 -0.019850 241222.000000 0 0 1
-5.039205 -5.507286 -25.793539 26.852010 0.829752 2.859882 0.057538 -0.020376 454672.000000 0 0 1
-4.881105 -4.262386 -25.114249 25.936819 0.717833 2.889071 0.065594 -0.024749 40552.400000 0 0 1
-5.593605 -4.166286 -23.770159 24.772299 0.640184 2.856181 0.056474 -0.022864 -168413.000000 0 1 0
-5.018105 -5.031686 -22.813659 23.894817 0.786749 2.839626 0.052629 -0.030336 478109.000000 0 1 0
-5.546905 -4.775886 -21.498059 22.709993 0.710846 2.813424 0.050011 -0.025265 -428339.000000 0 1 0
-4.978205 -5.707186 -20.488659 21.843526 0.853515 2.787536 0.047157 -0.030157 -448810.000000 0 1 0
-5.510005 -7.032586 -20.567259 22.423861 0.906200 2.731802 0.050001 -0.031142 662150.000000 0 1 0
-4.604005 -7.978086 -19.978359 21.999580 1.047399 2.709579 0.054663 -0.032831 -718782.000000 0 1 0
-5.046005 -9.473686 -20.175359 22.852964 1.081384 2.652657 0.052601 -0.027396 274200.000000 0 1 0
-6.193105 -9.954686 -19.520359 22.770479 1.014264 2.600732 0.041366 -0.013064 425587.000000 0 1 0
-7.397405 -9.199286 -19.564259 22.849697 0.893543 2.598695 0.037714 -0.023233 -745143.000000 0 1 0
-8.395205 -9.537086 -18.447459 22.399647 0.848990 2.538456 0.031482 -0.015238 -378389.000000 0 1 0
-9.262605 -10.578786 -18.778259 23.459104 0.851636 2.498872 0.057392 -0.005973 -56302.100000 0 1 0
-9.929005 -11.006386 -17.597259 23.008459 0.836815 2.441553 0.057081 -0.008015 -143138.000000 0 1 0
-10.855105 -12.249086 -17.598559 24.032950 0.845660 2.392443 0.063061 0.001813 1140810.000000 0 1 0
-12.106705 -12.109086 -18.316659 25.073936 0.785496 2.389859 0.088295 -0.015571 842792.000000 0 0 1
-11.989805 -12.039986 -19.731159 26.039111 0.787486 2.430656 0.081605 -0.021634 -714338.000000 0 0 1
-13.333905 -11.585386 -20.354659 26.950442 0.715346 2.426851 0.085642 -0.021956 135515.000000 0 0 1
-14.380005 -12.478286 -20.492659 27.972151 0.714710 2.392944 0.079529 -0.017149 -197876.000000 0 0 1
-15.011005 -12.910486 -19.258259 27.620489 0.710310 2.342344 0.080142 -0.015002 -733977.000000 0 0 1
-16.102005 -13.937886 -19.488259 28.867481 0.713481 2.311888 0.087843 -0.006386 -163652.000000 0 0 1
-15.612005 -15.277986 -19.684459 29.404582 0.774585 2.304244 0.078853 -0.004162 -493506.000000 0 0 1
-16.361705 -16.035186 -20.565059 30.785617 0.775320 2.302326 0.097291 -0.010605 -400974.000000 0 0 1
-15.940705 -17.477086 -20.765459 31.476322 0.831341 2.291238 0.059639 -0.009734 -71689.500000 0 0 1
-16.400805 -18.364386 -19.785359 31.586350 0.841819 2.247709 0.073161 -0.006530 -60645.400000 0 0 1
-16.028705 -19.624486 -20.296659 32.465276 0.885913 2.246159 0.063693 -0.006744 -47378.900000 0 0 1
-16.602705 -20.835186 -19.561359 33.051498 0.897974 2.204142 0.073103 -0.012601 -31596.900000 0 0 1
-16.217705 -22.060586 -20.153959 33.998021 0.936871 2.205325 0.070030 -0.011140 -106131.000000 0 0 1
-16.913905 -23.144786 -19.633959 34.745555 0.939705 2.171324 0.091627 -0.011718 -239276.000000 0 0 1
-16.405205 -24.464786 -20.180359 35.705789 0.980100 2.171453 0.087539 -0.009895 -19865.100000 0 0 1
-16.752805 -24.730986 -21.530259 36.821599 0.975399 2.195329 0.071728 -0.011826 296691.000000 0 0 1
-16.155405 -25.992556 -21.841159 37.598488 1.014689 2.190637 0.076425 -0.013050 65978.700000 0 0 1
-16.527805 -26.524206 -23.282659 38.971580 1.013549 2.211085 0.075906 -0.010654 -453598.000000 0 0 1
-17.764305 -27.160376 -23.440859 40.034115 0.991578 2.196320 0.099452 -0.013793 -474145.000000 0 0 1
-17.773005 -28.546836 -23.317159 40.920550 1.013931 2.177077 0.098248 -0.008150 -74618.000000 0 0 1
-18.750905 -29.255156 -24.325559 42.416900 1.000814 2.181553 0.103457 -0.014842 4807.610000 0 0 1
-18.483205 -29.283916 -25.705059 43.126867 1.007771 2.209349 0.096082 -0.008852 -17335.700000 0 0 1
-18.540505 -28.011966 -26.362979 42.701606 0.986116 2.236200 0.119553 -0.017276 -111832.000000 0 0 1
-17.356105 -27.727296 -27.303079 42.608631 1.011509 2.266320 0.131142 -0.016111 -103860.000000 0 0 1
-17.454505 -28.366156 -28.545339 43.864962 1.019182 2.279375 0.128236 -0.006338 578265.000000 0 0 1
-16.199805 -28.226316 -29.198729 43.723270 1.049770 2.302056 0.088170 0.005251 365879.000000 0 0 1
-16.370505 -28.483386 -30.716469 44.975528 1.049158 2.322603 0.106590 0.000666 66671.800000 0 0 1
-16.436405 -29.842596 -31.088109 46.121648 1.067362 2.310469 0.078655 0.003602 114881.000000 0 0 1
-16.875605 -29.957296 -32.393199 47.239231 1.057783 2.326398 0.087528 0.004070 -105295.000000 0 0 1
-16.813905 -31.408136 -32.916739 48.504537 1.079281 2.316695 0.075424 0.001275 220342.000000 0 0 1
-15.572505 -31.836276 -33.458029 48.739009 1.115872 2.327424 0.069977 -0.004395 228001.000000 0 0 1
-15.826205 -32.970926 33.771070 49.779874 1.123272 0.825203 0.061076 -0.007446 105030.000000 0 0 1
-14.539005 -33.505216 33.114557 49.300670 1.161384 0.834314 0.055146 -0.018174 -160448.000000 0 0 1
-13.861705 33.675709 33.888360 49.745565 -1.180310 0.821350 0.071341 -0.015910 88208.200000 0 0 1
-12.564405 33.448577 33.346965 48.874243 -1.211470 0.819890 0.073473 -0.017088 289199.000000 0 0 1
-11.521905 32.722071 -33.854339 48.472719 -1.232239 2.343984 0.094322 -0.022335 -242127.000000 0 0 1
-10.803305 33.559578 -33.030239 48.311007 -1.259358 2.323617 0.104352 -0.015341 -319604.000000 0 0 1
-10.071005 32.898212 -32.017369 46.998185 -1.273729 2.320261 0.100819 -0.021226 605661.000000 0 0 1
-9.185205 33.875720 -31.155659 46.931945 -1.306018 2.296748 0.095883 -0.014120 452045.000000 0 0 1
-10.052905 -33.409296 -30.381089 46.262863 1.278513 2.287239 0.113640 -0.017726 -190723.000000 0 0 1
-9.485005 -32.267376 -29.862489 44.976850 1.284899 2.296888 0.100480 -0.016252 68080.600000 0 0 1
-10.456605 -31.448796 -28.893279 43.968044 1.249799 2.287818 0.112712 -0.011086 796883.000000 0 0 1
-10.743905 -31.908526 -27.567899 43.515222 1.246010 2.256895 0.150293 -0.024022 -83810.000000 0 0 1
-11.169105 -33.261486 -27.399389 44.517433 1.246830 2.233785 0.142034 -0.024727 60098.500000 0 0 1
-11.654705 -33.533726 -25.921629 43.957636 1.236304 2.201478 0.148854 -0.026535 498538.000000 0 0 1
-10.546405 -33.385906 -25.030209 43.039014 1.264822 2.191454 0.147655 -0.044942 342705.000000 0 0 1
-10.864305 -33.641376 -23.668359 42.543701 1.258424 2.160760 0.149759 -0.047710 -642790.000000 0 0 1
-9.621505 -33.706016 -22.833559 41.833482 1.292738 2.148164 0.143012 -0.051400 -445227.000000 0 0 1
-8.883805 33.170905 -22.851659 41.248385 -1.309118 2.157959 0.121898 -0.045847 -278727.000000 0 0 1
-7.924505 33.282810 -21.831559 40.585221 -1.337052 2.138763 0.121010 -0.047821 -188184.000000 0 0 1
-7.184305 31.939401 -21.563959 39.201325 -1.349543 2.153259 0.112540 -0.048225 926644.000000 0 0 1
-6.019005 31.727281 -22.416359 39.310837 -1.383314 2.177586 0.088232 -0.056355 799541.000000 0 0 1
-5.326105 30.526951 -22.124059 38.075400 -1.398063 2.190826 0.069983 -0.044862 180432.000000 0 0 1
-3.904105 30.667201 -22.724459 38.368220 -1.444172 2.204673 0.078581 -0.048539 8047.290000 0 0 1
-3.945805 30.788561 -24.120359 39.310261 -1.443333 2.231395 0.093220 -0.045071 285008.000000 0 0 1
-2.641905 31.161261 -24.554659 39.760975 -1.486217 2.236429 0.077953 -0.049833 328679.000000 0 0 1
-2.625205 31.573511 -26.070029 41.029559 -1.487841 2.259318 0.085907 -0.029083 14312.700000 0 0 1
-1.608205 32.519771 -26.351979 41.887332 -1.521383 2.251211 0.089058 -0.042937 -62881.900000 0 0 1
-1.940705 33.813997 -25.972649 42.681743 -1.513466 2.224989 0.079100 -0.036237 53787.500000 0 0 1
-1.053805 -33.107846 -26.553229 42.453668 1.538978 2.246522 0.021821 -0.014916 1480840.000000 0 0 1
0.251895 -32.993926 -25.932149 41.965925 -1.563162 2.236908 0.053829 -0.029457 1021220.000000 0 0 1
1.028395 -31.982546 -26.589699 41.604722 -1.538653 2.264128 0.032195 -0.018121 559442.000000 0 0 1
2.334595 -31.669276 -25.793869 40.911087 -1.497211 2.252976 0.036560 -0.022433 123038.000000 0 0 1
2.097495 -31.193326 -24.481359 39.708437 -1.503656 2.235121 0.029672 -0.015520 145317.000000 0 0 1
3.243395 -30.500346 -24.072359 38.990629 -1.464855 2.236215 0.021317 -0.012512 -336344.000000 0 0 1
3.008095 -29.708156 -22.772259 37.552615 -1.469885 2.222333 0.031106 -0.009688 -212493.000000 0 0 1
2.999295 -30.589696 -21.656359 37.599509 -1.473060 2.184592 0.046242 -0.007484 519043.000000 0 0 1
3.297295 -29.859416 -20.437859 36.334046 -1.460815 2.168201 0.046777 -0.002332 -375323.000000 0 0 1
3.227695 -30.760716 -19.220059 36.414973 -1.466250 2.126812 0.052484 0.004510 -549046.000000 0 0 1
1.996095 -31.288186 -18.829859 36.571827 -1.507086 2.111656 0.042257 0.004191 -344986.000000 0 0 1
1.809495 -32.608736 -19.279359 37.924894 -1.515362 2.104071 0.047377 0.006141 -259980.000000 0 0 1
2.426595 -33.730416 -18.349759 38.475225 -1.498979 2.067948 0.026447 -0.000558 1059720.000000 0 0 1
3.867995 -33.712216 -18.417059 38.609104 -1.456560 2.068050 0.040273 0.002660 817951.000000 0 0 1
4.349095 33.310700 -17.652959 37.949233 1.440969 2.054626 0.047125 -0.003623 164580.000000 0 0 1
5.374795 32.430477 -18.407659 37.675803 1.406556 2.081258 0.072189 -0.004960 -450937.000000 0 0 1
6.546095 33.046773 -18.807759 38.583317 1.375242 2.079973 0.097359 -0.007750 -821840.000000 0 0 1
7.429295 32.159136 -19.446259 38.308764 1.343763 2.103215 0.098700 -0.023515 447100.000000 0 0 1
8.850395 32.755187 -19.627059 39.197617 1.306900 2.095227 0.096504 -0.032556 642356.000000 0 0 1
9.649695 33.045461 -18.467559 39.066223 1.286683 2.063176 0.086609 -0.022607 1021200.000000 0 0 1
11.019095 33.327117 -18.767459 39.803702 1.251477 2.061788 0.074827 -0.013498 1099760.000000 0 0 1
11.988595 33.506595 -17.548159 39.678158 1.227191 2.028916 0.053469 -0.016610 423318.000000 0 0 1
12.631895 32.380586 -16.972259 38.679771 1.198847 2.025047 0.060337 -0.020543 176873.000000 0 0 1
13.410295 32.764123 -15.844059 38.786054 1.182300 1.991605 0.053359 -0.025006 506952.000000 0 0 1
14.682595 31.917361 -15.556859 38.422811 1.139642 1.987650 0.058695 -0.020144 361044.000000 0 0 1
14.381695 30.625571 -15.117859 37.058176 1.131765 1.991003 0.074327 -0.017870 -628483.000000 0 0 1
15.512895 29.809201 -15.078659 36.832110 1.090957 1.992581 0.076852 -0.017550 -466701.000000 0 0 1
15.355395 28.641141 -14.138559 35.440118 1.078664 1.981159 0.079677 -0.013830 -410751.000000 0 0 1
15.103995 29.037801 -12.835459 35.157838 1.091159 1.944516 0.073953 -0.017129 611970.000000 0 0 1
13.747095 29.135281 -12.371659 34.509494 1.129932 1.937457 0.095728 -0.022406 479457.000000 0 0 1
13.173695 27.834721 -11.858959 32.999285 1.128750 1.938389 0.096308 -0.020107 -788945.000000 0 0 1
12.617495 26.937361 -12.827459 32.393924 1.132746 1.977935 0.085964 -0.024065 159643.000000 0 0 1
12.229295 25.624431 -12.355959 30.965091 1.125513 1.981254 0.107768 -0.027921 339760.000000 0 0 1
11.312995 25.605451 -11.112759 30.118373 1.154766 1.948696 0.101034 -0.029085 -21777.200000 0 0 1
10.060895 26.285751 -11.196659 30.290716 1.205248 1.949418 0.097440 -0.027133 425540.000000 0 0 1
9.558495 26.522021 -9.886559 29.875182 1.224888 1.908084 0.076665 -0.019628 129424.000000 0 0 1
8.320795 27.429851 -9.752759 30.277858 1.276271 1.898752 0.077021 -0.020577 36752.900000 0 0 1
8.646595 28.727241 -10.251559 31.703508 1.278432 1.900072 0.088842 -0.027713 185162.000000 0 0 1
7.661995 29.742631 -10.111459 32.335304 1.318668 1.888837 0.076201 -0.021619 172632.000000 0 0 1
8.291795 31.043141 -10.628159 33.843585 1.309784 1.890239 0.102048 -0.026706 -289024.000000 0 0 1
9.367595 31.405581 -9.830059 34.215383 1.280920 1.862202 0.082026 -0.022280 -588368.000000 0 0 1
9.966195 32.637336 -10.139559 35.599598 1.274428 1.859617 0.102654 -0.025385 236570.000000 0 0 1
11.059195 32.798280 -11.223259 36.386735 1.245580 1.884353 0.088339 -0.018842 -475249.000000 0 0 1
12.375495 32.531442 -10.823359 36.449866 1.207285 1.872281 0.077610 -0.016268 -925840.000000 0 0 1
13.176895 32.887444 -11.878359 37.367231 1.189716 1.894291 0.093079 -0.017304 -1081680.000000 0 0 1
14.672195 32.808393 -11.615759 37.770224 1.150266 1.883400 0.090722 -0.013501 -467767.000000 0 0 1
15.077295 33.684444 -10.548059 38.382654 1.149937 1.849192 0.090231 -0.016149 516212.000000 0 0 1
16.501095 33.677218 -10.422559 38.923911 1.115198 1.841871 0.071574 -0.014062 582264.000000 0 0 1
17.054095 -33.474566 -9.351959 38.714956 -1.099606 1.814769 0.081626 -0.022480 -28764.500000 0 0 1
17.031895 -33.959036 -8.029659 38.830104 -1.105916 1.779089 0.070656 -0.024501 61788.400000 0 0 1
17.615895 -32.983966 -7.200859 38.080364 -1.080262 1.761038 0.066027 -0.023755 -426124.000000 0 0 1
18.014995 -33.638746 -5.821859 38.600509 -1.079120 1.722197 0.064088 -0.013956 1106860.000000 0 0 1
19.023895 33.416115 -5.957859 38.910685 1.053254 1.724517 0.041880 -0.013245 1756960.000000 0 0 1
20.397895 33.845524 -6.164959 39.995004 1.028411 1.725557 0.052445 -0.011615 705634.000000 0 0 1
21.177295 32.749986 -6.947159 39.614422 0.996790 1.747077 0.037680 0.000557 46019.500000 0 0 1
21.435295 31.510661 -6.362759 38.637784 0.973445 1.736227 0.042433 0.007512 258723.000000 0 0 1
22.324395 31.498761 -5.226359 38.959792 0.954229 1.705349 0.043408 0.008833 -48016.000000 0 0 1
22.582295 30.063191 -4.732459 37.896592 0.926553 1.696001 0.033575 0.005085 -501314.000000 0 0 1
23.302795 29.369831 -5.658759 37.916075 0.900077 1.720600 0.038228 0.007032 -430189.000000 0 0 1
23.585395 28.055281 -5.222959 37.022276 0.871740 1.712345 0.049615 0.006924 85575.100000 0 0 1
24.606695 27.345431 -6.168259 37.300261 0.838066 1.736927 0.038999 0.013699 -1429270.000000 0 0 1
25.868495 27.835881 -6.032159 38.475996 0.822015 1.728223 0.057938 0.008969 -1345200.000000 0 0 1
26.785195 27.013291 -6.754159 38.636553 0.789638 1.746512 0.041306 0.004817 -41233.400000 0 0 1
27.582095 25.976431 -5.983659 38.358195 0.755428 1.727430 0.044684 0.003471 -363026.000000 0 0 1
28.655395 26.560631 -5.223159 39.419287 0.747479 1.703690 0.052452 0.001611 204283.000000 0 0 1
29.289695 25.567581 -4.488059 39.137324 0.717651 1.685724 0.052674 -0.000950 204494.000000 0 0 1
30.705195 25.984491 -3.989459 40.421758 0.702317 1.669653 0.052980 0.000376 292052.000000 0 0 1
30.601495 26.962671 -2.994059 40.895006 0.722269 1.644075 0.072848 -0.006342 134293.000000 0 0 1
31.808895 27.100961 -2.268859 41.849918 0.705650 1.625037 0.087998 -0.027770 146133.000000 0 0 1
31.796595 28.407841 -1.456959 42.663235 0.729170 1.604953 0.083869 -0.004638 85857.700000 0 0 1
31.978595 29.606251 -2.204859 43.635101 0.746896 1.621347 0.060160 -0.002515 58380.200000 0 0 1
31.551995 30.803561 -1.546759 44.122332 0.773396 1.605860 0.087150 -0.002007 218472.000000 0 0 1
33.535339 22.300714 19.007271 44.533326 0.586842 1.129834 0.153457 -0.034034 -118970.000000 0 0 1
33.654029 22.309214 20.384171 45.230621 0.585390 1.103278 0.133408 -0.034827 219253.000000 0 0 1
34.604389 23.273114 20.804671 46.604033 0.592063 1.108043 0.134273 -0.021359 122442.000000 0 0 1
34.697199 23.310614 22.354771 47.402702 0.591569 1.079700 0.093558 -0.013059 -86085.500000 0 0 1
33.575069 23.967214 22.890271 47.177082 0.619954 1.064206 0.094935 -0.016264 95786.500000 0 0 1
33.780619 24.373514 24.248981 48.199704 0.625026 1.043621 0.094335 -0.021252 -63399.500000 0 0 1
32.475369 24.807014 24.939031 47.874762 0.652320 1.022865 0.086099 -0.016985 -43976.100000 0 0 1
32.087689 26.125414 24.806471 48.244358 0.683333 1.030740 0.055514 -0.010995 701583.000000 0 0 1
30.824369 26.351114 25.453241 47.878914 0.707320 1.010288 0.043921 -0.009440 627069.000000 0 0 1
30.615249 27.934814 25.686441 48.759005 0.739650 1.015960 0.029579 -0.000993 -186983.000000 0 0 1
30.285519 28.638814 24.523491 48.361099 0.757459 1.038990 0.028349 0.006330 268261.000000 0 0 1
30.134759 30.013414 24.832351 49.249918 0.783381 1.042328 0.018202 0.005188 5371.510000 0 0 1
29.960779 30.904114 23.570681 49.074327 0.800896 1.069793 0.027079 0.004704 1259480.000000 0 0 1
31.305099 31.003814 23.021271 49.711413 0.780563 1.089309 0.026442 -0.001218 1218470.000000 0 0 1
31.407429 31.918714 21.960371 49.874731 0.793472 1.114852 0.023948 0.004553 295462.000000 0 0 1
32.865299 32.309414 21.593671 50.895115 0.776869 1.132632 0.026055 -0.009856 483301.000000 0 0 1
33.515639 33.112214 22.555971 52.234937 0.779343 1.124289 0.034687 0.002735 199658.000000 0 0 1
34.878079 33.360014 22.252971 53.146643 0.763155 1.138773 0.039757 0.004541 268662.000000 0 0 1
35.423789 -33.562682 23.104611 53.991865 -0.758427 1.128598 0.054822 0.006177 -169716.000000 0 0 1
34.888829 -32.312382 22.808771 52.740501 -0.747078 1.123564 0.040070 0.004000 -265496.000000 0 0 1
35.366959 -31.372582 23.719011 52.892837 -0.725619 1.105782 0.050773 -0.001152 -1029270.000000 0 0 1
34.663869 -30.031182 23.494861 51.531196 -0.713912 1.097374 0.055124 -0.008554 -484720.000000 0 0 1
33.288519 -30.053282 23.718391 50.733493 -0.734367 1.084325 0.055604 -0.002704 -238065.000000 0 0 1
32.549669 -30.478782 22.564671 49.976009 -0.752554 1.102339 0.047541 0.001951 -554489.000000 0 0 1
31.686199 -31.781582 22.716271 50.300230 -0.786901 1.102223 0.034914 0.006203 134195.000000 0 0 1
30.715359 -31.653582 23.747291 50.093077 -0.800440 1.076896 0.047626 -0.007926 307953.000000 0 0 1
29.938009 -32.855082 23.849641 50.443495 -0.831820 1.078332 0.029195 -0.001464 39394.000000 0 0 1
29.240259 -32.943682 25.192291 50.743773 -0.844884 1.051280 0.011776 -0.002098 -288738.000000 0 0 1
28.704389 33.869314 25.364361 51.131431 0.867753 1.051739 0.009138 -0.006218 374141.000000 0 0 1
27.998889 33.643814 26.601301 51.219852 0.876718 1.024700 0.011413 -0.003127 -178233.000000 0 0 1
27.648489 32.164714 26.789711 50.166686 0.860761 1.007455 0.008368 0.002365 103676.000000 0 0 1
26.995489 31.680614 25.650931 48.891594 0.865076 1.018493 0.003435 0.002093 571355.000000 0 0 1
25.567889 31.821114 25.650731 48.210582 0.893932 1.009769 0.003291 0.000805 343919.000000 0 0 1
24.926589 31.440014 24.310051 46.912556 0.900443 1.026052 0.035575 -0.006258 -53097.300000 0 0 1
25.276889 32.262414 23.176931 47.084547 0.906211 1.056134 0.041377 -0.011901 646802.000000 0 0 1
26.638389 32.282414 22.750871 47.637802 0.880897 1.072898 0.022026 -0.000336 142141.000000 0 0 1
26.695689 33.139714 21.466671 47.662547 0.892681 1.103596 0.029335 -0.006742 -373187.000000 0 0 1
28.019389 33.360414 21.081271 48.398589 0.872196 1.120118 0.033957 -0.006329 -221568.000000 0 0 1
28.052989 34.007214 19.810271 48.331228 0.881048 1.148468 0.038769 -0.006507 -549916.000000 0 0 1
29.455939 -33.729582 19.348171 48.782054 -0.852932 1.162959 0.051250 -0.014024 -490497.000000 0 0 1
30.225409 33.281714 18.918871 48.776752 0.833486 1.172481 0.061144 -0.010825 730314.000000 0 0 1
31.441569 33.674414 18.240871 49.550659 0.819675 1.193804 0.063516 -0.008176 829649.000000 0 0 1
32.220269 32.471814 17.601971 49.014221 0.789287 1.203472 0.054702 -0.002229 -283612.000000 0 0 1
33.223829 31.951214 18.413271 49.636191 0.765875 1.190749 0.050039 -0.002063 -182450.000000 0 0 1
34.022679 31.044414 17.676771 49.333220 0.739658 1.204335 0.068934 0.001160 371286.000000 0 0 1
35.119479 30.316714 18.507771 49.950161 0.712133 1.191222 0.069546 -0.000915 -141166.000000 0 0 1
36.103279 31.151714 19.006071 51.333291 0.711907 1.191520 0.082618 -0.000765 -410340.000000 0 0 1
36.795649 30.542214 20.057671 51.856116 0.692797 1.173643 0.098550 -0.008925 474132.000000 0 0 1
-35.893670 31.327914 20.662371 51.930024 -0.717581 1.161582 0.126154 -0.011344 807785.000000 0 0 1
-34.887565 31.703114 19.702371 51.092202 -0.737613 1.174912 0.124112 -0.008832 468887.000000 0 0 1
-33.764365 32.430914 20.125171 50.958994 -0.765257 1.164806 0.108612 -0.002023 -6408.270000 0 0 1
-34.020295 33.766914 20.873171 52.280726 -0.781660 1.160096 0.094854 -0.003759 -649787.000000 0 0 1
-34.255295 33.574314 22.262671 52.879924 -0.775359 1.136244 0.108141 -0.004386 213302.000000 0 0 1
-34.037015 -33.284182 22.885471 52.821397 0.774216 1.122688 0.095219 -0.005949 45510.400000 0 0 1
-34.087665 -33.401582 24.470961 53.632663 0.775233 1.096998 0.104876 -0.021667 644332.000000 0 0 1
-35.409088 -33.683082 24.934141 54.864059 0.760422 1.099018 0.098457 -0.015469 454704.000000 0 0 1
-35.283674 -34.006882 26.309021 55.619873 0.766974 1.078087 0.099603 -0.016121 -204829.000000 0 0 1
-36.638495 33.957214 26.986001 56.777777 -0.747436 1.075501 0.067046 -0.014203 -287219.000000 0 0 1
-36.620125 33.012414 28.028231 56.713621 -0.733634 1.053875 0.086436 -0.022418 -373692.000000 0 0 1
36.016619 32.799014 28.596991 56.486813 0.738675 1.039954 0.075745 -0.027062 -323712.000000 0 0 1
36.104519 31.812614 29.804841 56.603067 0.722289 1.016249 0.068617 -0.018950 -82481.800000 0 0 1
36.141949 30.420914 29.437281 55.661710 0.699660 1.013539 0.055537 -0.021357 256828.000000 0 0 1
-36.659145 29.896514 28.709551 55.334734 -0.684137 1.025310 0.060479 -0.020361 -290573.000000 0 0 1
-36.881075 28.429514 28.280641 54.481608 -0.656708 1.025015 0.060767 -0.015760 -354202.000000 0 0 1
35.858179 28.374914 27.463931 53.340531 0.669419 1.029930 0.063793 -0.017466 497670.000000 0 0 1
35.415189 27.038514 27.234821 52.221186 0.652068 1.022155 0.078531 -0.023223 -138035.000000 0 0 1
35.039699 26.048814 28.348881 52.057471 0.639269 0.994921 0.069125 -0.034680 -434190.000000 0 0 1
36.088079 25.539414 29.192161 52.979179 0.615873 0.987220 0.042422 -0.026166 391969.000000 0 0 1
35.900899 24.079614 29.406941 52.282603 0.590807 0.973437 0.038701 -0.017005 231885.000000 0 0 1
36.639839 23.143414 28.402551 51.815059 0.563364 0.990643 0.065496 -0.022266 26477.500000 0 0 1
35.968639 23.103814 27.166581 50.651282 0.570966 1.004695 0.068867 -0.019545 -113436.000000 0 0 1
36.653139 22.363014 26.204471 50.301404 0.547831 1.022834 0.069862 -0.028858 -253669.000000 0 0 1
36.279279 20.874514 26.271401 49.417789 0.522123 1.010286 0.066140 -0.027805 -440284.000000 0 0 1
35.053979 20.513014 25.671871 48.047998 0.529454 1.007121 0.097335 -0.008588 240947.000000 0 0 1
34.537459 19.263714 26.093891 47.379509 0.508784 0.987543 0.091420 -0.003432 -44732.200000 0 0 1
34.031079 19.106614 27.574811 47.786475 0.511588 0.955694 0.074459 0.002734 -379441.000000 0 0 1
32.824499 19.772114 27.892371 47.395871 0.542152 0.941597 0.070238 0.002319 -4627.510000 0 0 1
32.780799 21.175814 28.073701 48.074198 0.573546 0.947191 0.077385 -0.017221 -534576.000000 0 0 1
31.710449 21.585614 29.118411 48.159871 0.597662 0.921508 0.076866 -0.022122 841406.000000 0 0 1
30.334619 21.411214 28.731451 46.948115 0.614631 0.912231 0.088765 -0.028108 1022640.000000 0 0 1
29.714269 22.417914 27.939611 46.541621 0.646343 0.926902 0.082645 -0.025179 -150689.000000 0 0 1
29.735119 23.897614 28.442261 47.583983 0.676983 0.930133 0.075151 -0.018934 90907.800000 0 0 1
31.060819 24.453814 28.390171 48.669963 0.666942 0.947986 0.079226 -0.022534 637245.000000 0 0 1
31.276579 25.673914 29.083771 49.832118 0.687336 0.947598 0.062824 -0.018573 9930.390000 0 0 1
31.605969 25.449414 30.624711 50.837809 0.677909 0.924291 0.063979 -0.027556 571783.000000 0 0 1
32.828079 24.726614 30.839101 51.382277 0.645556 0.927058 0.056138 -0.022574 567971.000000 0 0 1
33.320739 24.627314 32.170669 52.456917 0.636488 0.910592 0.074838 -0.018393 343414.000000 0 0 1
32.442399 23.652214 33.009636 51.976654 0.629959 0.882677 0.076165 -0.015740 75414.500000 0 0 1
32.941199 23.673914 -33.757329 52.774369 0.623148 2.264844 0.059551 -0.016722 13175.400000 0 0 1
32.454659 22.636514 -32.958379 51.497295 0.609033 2.265297 0.050372 -0.021030 -437552.000000 0 0 1
33.066309 22.432314 -31.581979 50.931433 0.596084 2.239651 0.049751 -0.022254 -510703.000000 0 0 1
32.546629 23.313114 -30.613229 50.397957 0.621581 2.223618 0.038085 -0.027764 227452.000000 0 0 1
33.029969 23.152314 -29.295659 49.852223 0.611362 2.198948 0.073251 -0.035604 -1069910.000000 0 0 1
34.432789 23.568714 -28.943889 50.782378 0.600237 2.177253 0.079720 -0.009287 -787814.000000 0 0 1
34.975929 23.032414 -27.769059 50.248665 0.582343 2.156316 0.086997 -0.016663 -443746.000000 0 0 1
36.050119 23.770514 -27.247479 51.059509 0.582937 2.133697 0.100062 -0.019211 -97676.700000 0 0 1
36.932879 23.002514 -26.233329 50.806896 0.557030 2.113361 0.095375 -0.018578 180369.000000 0 0 1
-36.004788 22.135114 -26.810279 50.050965 -0.551218 2.136085 0.067792 -0.013543 75171.800000 0 0 1
-36.127265 20.788114 -26.267309 49.267601 -0.522145 2.133123 0.044773 -0.005462 47016.200000 0 0 1
-34.957152 19.791914 -26.518009 48.134469 -0.515178 2.154257 0.057349 0.000907 680559.000000 0 0 1
-33.738225 20.147814 -25.851469 47.037227 -0.538344 2.152677 0.070877 -0.009344 287932.000000 0 0 1
-32.780055 19.110514 -26.025449 46.011605 -0.527820 2.171991 0.043821 -0.010814 424892.000000 0 0 1
-31.517285 19.463914 -25.196259 44.799941 -0.553234 2.168103 0.040902 -0.015851 -32106.200000 0 0 1
-31.774925 19.136414 -23.841359 44.093748 -0.542071 2.142062 0.032617 -0.019226 218156.000000 0 0 1
-30.679705 19.391914 -22.975859 42.955567 -0.563672 2.135156 0.033214 -0.006184 58049.900000 0 0 1
-31.098885 19.752914 -21.570459 42.691955 -0.565875 2.100477 0.029929 -0.003984 -215924.000000 0 0 1
-31.748785 18.733114 -20.893859 42.372966 -0.533065 2.086439 0.004600 -0.005346 -142490.000000 0 0 1
-32.536035 19.221014 -19.822659 42.672928 -0.533598 2.053895 0.004497 0.000480 -1102590.000000 0 0 1
-33.514395 18.197014 -19.200359 42.696602 -0.497423 2.037218 -0.010553 -0.001573 115567.000000 0 0 1
-34.332662 18.630214 -18.120059 43.059878 -0.497174 2.005135 0.004467 -0.006869 375435.000000 0 0 1
-35.199704 19.696114 -18.483859 44.369011 -0.510148 2.000492 0.015514 -0.006588 -1553420.000000 0 0 1
-36.290545 19.952914 -17.452559 44.941231 -0.502698 1.969628 0.022270 -0.012555 -434554.000000 0 0 1
-35.951279 20.698814 -16.309359 44.574999 -0.522395 1.945381 0.023415 -0.017673 245062.000000 0 0 1
36.909169 20.516414 -15.356859 44.933763 0.507333 1.919592 0.033674 -0.007236 -375023.000000 0 0 1
-36.856175 21.211614 -13.973659 44.761293 -0.522228 1.888285 0.055688 -0.009608 -314962.000000 0 0 1
36.896269 22.605514 -14.108959 45.512708 0.549689 1.885990 0.068940 -0.014767 912159.000000 0 0 1
35.507899 22.964114 -14.125859 44.583644 0.574075 1.893192 0.076826 -0.015178 548986.000000 0 0 1
35.318339 24.407714 -14.564959 45.334971 0.604713 1.897871 0.069510 -0.023625 -26500.400000 0 0 1
35.917049 25.293014 -13.624859 45.993562 0.613543 1.871544 0.069451 -0.017528 216430.000000 0 0 1
35.692319 26.664414 -13.920459 46.676673 0.641619 1.873636 0.063036 -0.004749 401240.000000 0 0 1
36.916729 27.334214 -14.636159 48.210178 0.637347 1.879255 0.083786 -0.009880 556697.000000 0 0 1
-36.823905 26.837414 -15.955959 48.278768 -0.629797 1.907626 0.087414 -0.012538 6915.680000 0 0 1
-35.808125 27.594014 -16.566559 48.146675 -0.656560 1.922061 0.095273 -0.019962 -1010310.000000 0 0 1
-35.546798 27.313014 -18.064459 48.331152 -0.655153 1.953860 0.089458 -0.024261 -483880.000000 0 0 1
-34.864237 26.163214 -18.368159 47.301354 -0.643777 1.969606 0.076640 -0.028858 -702386.000000 0 0 1
-33.498535 26.246614 -18.099259 46.245214 -0.664608 1.972923 0.065123 -0.015226 -807989.000000 0 0 1
-32.737615 24.897414 -18.384459 45.051315 -0.650196 1.991144 0.050363 -0.020841 -145766.000000 0 0 1
-32.616005 24.690914 -19.772259 45.435529 -0.647978 2.021025 0.042877 -0.017670 115466.000000 0 0 1
-32.077915 23.429214 -20.080159 44.509926 -0.630829 2.038837 0.025258 -0.011223 -256781.000000 0 0 1
-31.713685 23.311814 -21.565059 44.880400 -0.633878 2.072022 0.023053 -0.004015 218099.000000 0 0 1
-32.889545 23.326314 -22.361659 46.107298 -0.616895 2.077150 0.050353 -0.009068 493231.000000 0 0 1
-32.593685 23.098014 -23.736459 46.468119 -0.616518 2.106925 0.055524 -0.007632 217956.000000 0 0 1
-33.528605 23.997814 -24.593259 48.009279 -0.621213 2.108611 0.042122 -0.002386 295620.000000 0 0 1
-33.187545 25.344714 -24.564759 48.447859 -0.652200 2.102538 0.026080 0.000906 -249039.000000 0 0 1
-34.149710 25.988314 -25.348549 49.841189 -0.650511 2.104338 0.044919 -0.012132 -26339.700000 0 0 1
-33.738215 27.434514 -25.746499 50.535156 -0.682713 2.105373 0.029931 0.002835 1806650.000000 0 0 1
-32.447605 27.432314 -26.457819 50.053922 -0.701837 2.127731 0.005091 -0.005366 1149960.000000 0 0 1
-32.045075 28.724214 -26.959109 50.781501 -0.730805 2.130440 0.015082 -0.008789 11694.200000 0 0 1
-30.752745 28.581314 -27.761939 50.332376 -0.748818 2.155044 0.022192 -0.008748 -236884.000000 0 0 1
-29.632405 28.283414 -26.958909 49.038900 -0.762110 2.152856 0.000766 0.000925 -1606220.000000 0 0 1
-28.434025 28.200114 -27.593579 48.632765 -0.781268 2.174125 0.013039 0.003291 -604447.000000 0 0 1
-27.585185 29.501914 -27.386149 48.798633 -0.818961 2.166640 0.007016 -0.008609 -496572.000000 0 0 1
-27.097555 29.868614 -26.139959 48.059433 -0.834004 2.145885 0.014090 -0.007885 -180532.000000 0 0 1
-28.019845 30.049414 -25.062069 48.126773 -0.820335 2.118527 0.008598 -0.000141 245957.000000 0 0 1
-27.339615 30.575614 -23.732859 47.387460 -0.841215 2.095349 -0.005886 -0.006971 431844.000000 0 0 1
-26.766685 31.857014 -23.776859 47.923520 -0.872011 2.089946 0.003530 -0.004214 562.325000 0 0 1
-25.933665 32.161114 -22.682059 47.131391 -0.892185 2.072878 0.024996 0.006657 133576.000000 0 0 1
-25.300785 33.596514 -22.715459 47.800079 -0.925328 2.066008 0.024445 0.012532 -16380.400000 0 0 1
-26.195555 -33.426382 -22.512259 48.065912 0.906087 2.058233 0.014015 -0.000027 221551.000000 0 0 1
-25.607265 -32.166982 -22.934259 47.078944 0.898455 2.079614 0.029558 -0.002009 196434.000000 0 0 1
17.043995 8.702914 -25.305309 31.726915 0.472103 2.494098 0.070155 -0.022536 1244340.000000 0 0 1
15.733695 8.069414 -25.318909 30.882224 0.473894 2.531952 0.062600 -0.026354 1481670.000000 0 0 1
15.928795 6.688914 -25.194819 30.549091 0.397565 2.540525 0.075142 -0.037907 180139.000000 0 0 1
14.536795 6.030314 -25.206129 29.715855 0.393226 2.583446 0.087720 -0.038138 316853.000000 0 0 1
13.701195 6.314114 -24.104559 28.436254 0.431835 2.582374 0.080434 -0.041087 113696.000000 0 0 1
12.358995 5.927514 -24.229159 27.837606 0.447204 2.626760 0.066091 -0.033820 193192.000000 0 0 1
11.511395 6.011314 -22.917159 26.340924 0.481254 2.626041 0.069700 -0.043549 271888.000000 0 0 1
12.173395 5.337014 -21.848959 25.574445 0.413179 2.595052 0.072209 -0.029272 681532.000000 0 0 1
11.426495 5.363814 -20.613559 24.171348 0.438885 2.592138 0.077424 -0.025970 173428.000000 0 1 0
11.515095 6.720114 -19.915659 23.966452 0.528267 2.551665 0.072804 -0.031992 -67414.300000 0 1 0
10.958095 6.697314 -18.639359 22.635361 0.548596 2.538282 0.056639 -0.019011 -750653.000000 0 1 0
11.123395 7.922814 -17.888559 22.505587 0.618911 2.489556 0.060077 -0.029718 -192440.000000 0 1 0
12.528995 8.415314 -17.481959 23.095716 0.591457 2.429407 0.043316 -0.025431 -127799.000000 0 1 0
12.920195 7.621614 -16.387159 22.216197 0.532959 2.400338 0.045291 -0.030718 -39104.600000 0 1 0
14.298495 7.840814 -16.200559 22.986592 0.501588 2.352913 0.044632 -0.030611 -377725.000000 0 1 0
14.892195 7.664714 -14.793059 22.346362 0.475323 2.294266 0.051999 -0.035980 532285.000000 0 1 0
16.281195 8.024614 -14.776659 23.405584 0.457932 2.254064 0.044741 -0.038421 1036350.000000 0 1 0
16.873495 7.929514 -13.493359 23.014403 0.439311 2.197281 0.041407 -0.035073 35995.200000 0 1 0
17.579795 9.272314 -13.108859 23.808972 0.485359 2.153861 0.079033 -0.044901 -113128.000000 0 1 0
16.710395 10.358414 -12.801459 23.460848 0.554908 2.147963 0.093242 -0.039838 240312.000000 0 1 0
17.418995 11.500014 -12.401959 24.279215 0.583512 2.106918 0.135806 -0.059327 -958480.000000 0 1 0
16.655795 12.787714 -12.058759 24.214764 0.654773 2.092078 0.151961 -0.049868 -786120.000000 0 1 0
15.790995 12.561814 -10.959359 22.962191 0.671994 2.068351 0.170633 -0.041817 375042.000000 0 1 0
15.486495 13.702214 -10.178759 23.047545 0.724345 2.028224 0.111122 -0.037834 32123.800000 0 1 0
14.731395 14.894214 -10.873659 23.602713 0.790894 2.049575 0.089900 -0.038878 -668808.000000 0 1 0
13.686795 15.406514 -10.101159 22.950434 0.844440 2.026539 0.122733 -0.043983 -203339.000000 0 1 0
13.473695 16.752514 -10.420159 23.890728 0.893452 2.022122 0.124485 -0.041200 -237254.000000 0 1 0
12.419695 17.301714 -9.466059 23.306746 0.948204 1.989034 0.116188 -0.034928 -165251.000000 0 1 0
12.832195 17.061014 -8.116959 22.839187 0.925930 1.934134 0.112454 -0.036034 236836.000000 0 1 0
11.820395 17.416114 -7.218759 22.252039 0.974506 1.901183 0.100882 -0.029563 -136531.000000 0 1 0
12.255295 17.196214 -5.778259 21.892700 0.951615 1.837896 0.090781 -0.026587 840515.000000 0 1 0
13.427595 17.958214 -5.434659 23.072349 0.928760 1.808579 0.118141 -0.034393 765960.000000 0 1 0
14.000295 17.549414 -4.218259 22.842590 0.897420 1.756529 0.124439 -0.034518 -372744.000000 0 1 0
15.107595 18.528914 -3.770759 24.202866 0.886764 1.727232 0.114060 -0.038233 -810220.000000 0 1 0
16.230495 18.435714 -4.579759 24.985570 0.848926 1.755135 0.120784 -0.050466 -585939.000000 0 1 0
17.018395 19.580214 -4.377959 26.309258 0.855282 1.737978 0.088491 -0.037824 -524873.000000 0 0 1
18.377295 19.542114 -5.090459 27.304431 0.816107 1.758327 0.088334 -0.030483 -711109.000000 0 0 1
19.358595 18.783114 -4.496159 27.345494 0.770311 1.735967 0.095145 -0.042192 -489277.000000 0 0 1
19.716895 17.658014 -5.311559 26.995816 0.730367 1.768843 0.120466 -0.041761 -266013.000000 0 0 1
20.675395 16.682014 -4.631359 26.966851 0.678906 1.743395 0.121645 -0.041004 380009.000000 0 0 1
22.055995 16.966414 -4.833559 28.243396 0.655703 1.742782 0.092203 -0.037886 420386.000000 0 0 1
22.925095 16.143814 -4.088059 28.335401 0.613538 1.715575 0.089512 -0.036179 531020.000000 0 0 1
24.408795 16.270614 -4.576359 29.689480 0.587948 1.725554 0.087195 -0.031728 698867.000000 0 0 1
24.994695 17.517014 -4.111959 30.797545 0.611282 1.704712 0.089475 -0.033785 660312.000000 0 0 1
26.377595 17.452514 -3.804359 31.856568 0.584516 1.690504 0.078450 -0.019679 39524.100000 0 0 1
26.957995 18.567514 -2.961559 32.867262 0.603141 1.661025 0.090459 -0.026097 -228665.000000 0 0 1
27.040295 19.742514 -3.753059 33.690204 0.630653 1.682427 0.090969 -0.022426 255490.000000 0 0 1
27.602595 20.821314 -3.021859 34.706800 0.646263 1.657975 0.119856 -0.010439 -160014.000000 0 0 1
27.511695 22.166114 -3.789659 35.532963 0.678206 1.677651 0.086746 -0.011394 120645.000000 0 0 1
28.549195 22.488814 -4.706959 36.646402 0.667209 1.699595 0.073577 -0.000658 228599.000000 0 0 1
28.694395 21.695814 -5.830359 36.442691 0.647393 1.731474 0.080432 -0.004269 -143168.000000 0 0 1
29.678395 22.270714 -6.857659 37.733530 0.643758 1.753551 0.065807 -0.001832 41169.100000 0 0 1
29.081395 23.305614 -7.721359 38.059146 0.675590 1.775092 0.054640 -0.003805 449738.000000 0 0 1
29.958095 24.210814 -8.383759 39.420025 0.679694 1.785111 0.037027 0.003404 -229178.000000 0 0 1
30.838295 23.608614 -9.523759 39.988362 0.653386 1.811271 0.030408 -0.005585 70424.900000 0 0 1
30.210895 23.277414 -10.761759 39.627662 0.656491 1.845822 0.033173 -0.005221 166294.000000 0 0 1
31.156895 22.784814 -11.712659 40.337157 0.631421 1.865409 0.023189 -0.011450 205125.000000 0 0 1
30.544595 22.346514 -13.064959 40.037884 0.631623 1.903199 0.042081 -0.009620 76164.600000 0 0 1
30.574395 23.369014 -14.025859 40.958872 0.652611 1.920306 0.044616 -0.021656 131842.000000 0 0 1
30.215795 22.894914 -15.315759 40.886964 0.648419 1.954749 0.047732 -0.027296 -332647.000000 0 0 1
30.589895 23.901214 -16.410659 42.146405 0.663261 1.970747 0.039256 -0.025519 540884.000000 0 0 1
31.994395 24.160014 -16.581059 43.385241 0.646778 1.962953 0.042818 -0.020196 743427.000000 0 0 1
32.184295 24.830314 -17.817459 44.382825 0.657122 1.983895 0.056726 -0.024989 245734.000000 0 0 1
33.665795 25.212514 -18.076959 45.780269 0.642801 1.976716 0.064873 -0.030511 -71790.200000 0 0 1
34.503595 24.109114 -18.148359 45.837870 0.609881 1.977871 0.072054 -0.023044 -2043500.000000 0 0 1
35.787595 24.571714 -18.096259 47.031858 0.601675 1.965751 0.079072 -0.026194 -1209680.000000 0 0 1
36.815995 23.386314 -18.162359 47.246253 0.565916 1.965375 0.071856 -0.032417 81669.300000 0 0 1
36.751795 22.777514 -19.455059 47.413172 0.554827 1.993612 0.061239 -0.018577 757899.000000 0 0 1
-35.922399 22.852314 -20.211759 47.129208 -0.566583 2.014025 0.078285 -0.018168 599268.000000 0 0 1
-35.903499 22.135214 -21.608259 47.391411 -0.552478 2.044239 0.073000 -0.022026 -97629.700000 0 0 1
-35.777599 20.734114 -21.511359 46.612001 -0.525230 2.050480 0.035124 -0.013756 137305.000000 0 0 1
-35.559399 20.200814 -22.775659 46.811050 -0.516623 2.078926 0.045900 -0.021635 13378.800000 0 0 1
-35.294999 18.683614 -22.690359 45.931109 -0.486856 2.087490 0.022099 -0.017936 -340998.000000 0 0 1
-36.400599 17.952014 -22.273559 46.296759 -0.458176 2.072710 0.024064 -0.016493 -403589.000000 0 0 1
-36.209999 16.593214 -22.444559 45.719329 -0.429693 2.083942 0.013959 -0.015473 -167033.000000 0 0 1
36.456995 15.728014 -22.127259 45.454356 0.407290 2.079221 0.028419 -0.011684 -188934.000000 0 0 1
35.320495 16.025414 -22.914059 45.048922 0.425938 2.104410 0.066808 -0.014286 416926.000000 0 0 1
34.329695 14.987414 -22.928759 43.918999 0.411632 2.120072 0.084606 -0.006870 95160.800000 0 0 1
34.640695 13.676814 -23.656759 44.121142 0.376032 2.136698 0.048647 -0.010719 -632854.000000 0 0 1
34.786495 13.698614 -25.080219 45.019658 0.375143 2.161680 0.047919 -0.002019 153566.000000 0 0 1
35.269495 12.415614 -25.416039 45.211279 0.338474 2.167793 0.038661 0.003693 -565065.000000 0 0 1
35.235795 11.961714 -26.870929 45.898700 0.327269 2.196219 0.056684 -0.004578 -1108720.000000 0 0 1
34.012495 11.881814 -27.484589 45.314787 0.336084 2.222480 0.048225 -0.002643 -819666.000000 0 0 1
33.322695 13.094814 -27.768469 45.309646 0.374431 2.230471 0.053055 -0.002270 -203497.000000 0 0 1
33.490495 13.409514 -29.284589 46.465207 0.380849 2.252669 0.060768 -0.005034 -348410.000000 0 0 1
34.836795 13.676514 -29.576219 47.701174 0.374101 2.239579 0.057908 -0.008782 -301503.000000 0 0 1
34.953895 13.678914 -30.905859 48.621595 0.373020 2.259634 0.065477 -0.008086 -850109.000000 0 0 1
36.365095 14.049514 -31.335769 50.017391 0.368681 2.247848 0.087752 -0.015329 470294.000000 0 0 1
-36.443399 13.189414 -30.949709 49.598049 -0.347250 2.244661 0.066137 -0.016521 797125.000000 0 0 1
-36.030999 13.083214 -29.566959 48.410830 -0.348306 2.227805 0.047448 -0.016434 -551358.000000 0 0 1
-34.967999 12.007814 -29.253639 47.145773 -0.330778 2.240168 0.048601 -0.019202 172257.000000 0 0 1
-35.363799 10.648714 -29.525919 47.283964 -0.292483 2.245209 0.050819 -0.023709 300036.000000 0 0 1
-34.272799 9.751814 -29.306469 46.136664 -0.277209 2.259077 0.043410 -0.030460 392093.000000 0 0 1
-34.573699 8.258614 -29.815169 46.394931 -0.234476 2.268733 0.042863 -0.026884 -283391.000000 0 0 1
-34.388499 8.145314 -31.189269 47.134759 -0.232575 2.293886 0.053146 -0.030982 -63620.400000 0 0 1
-34.671199 6.905214 -31.869639 47.596722 -0.196590 2.304435 0.057271 -0.023169 -927162.000000 0 0 1
-36.044299 6.267114 -31.822689 48.488676 -0.172152 2.286689 0.060384 -0.004816 -850400.000000 0 0 1
-36.369099 5.707114 -30.599789 47.870968 -0.155653 2.264272 0.045510 -0.005281 214685.000000 0 0 1
36.171895 5.348714 -30.509039 47.621593 0.146806 2.266148 0.035492 0.011569 -413160.000000 0 0 1
35.817095 4.692314 -29.180119 46.436639 0.130266 2.250273 0.043300 -0.005837 -357070.000000 0 0 1
36.532395 3.513614 -28.973839 46.759434 0.095883 2.239075 0.042879 0.003826 370617.000000 0 0 1
36.168395 2.925114 -27.764309 45.689888 0.080699 2.223918 0.046176 0.002963 228682.000000 0 0 1
-36.921499 1.581514 -27.593079 46.120237 -0.042808 2.212156 0.105400 -0.006684 452658.000000 0 0 1
-35.624399 1.661914 -27.027159 44.747370 -0.046617 2.219300 0.116730 -0.011611 376274.000000 0 0 1
-35.172399 0.344014 -26.731499 44.179056 -0.009780 2.220652 0.146173 -0.011167 -152614.000000 0 0 1
-33.908399 0.211414 -25.881509 42.657669 -0.006235 2.222731 0.143080 -0.015181 -171205.000000 0 0 1
-34.194999 0.396614 -24.507659 42.072326 -0.011598 2.192613 0.128149 -0.007345 1018050.000000 0 0 1
-32.940699 0.496214 -23.795459 40.639387 -0.015063 2.196326 0.161645 -0.004272 930252.000000 0 0 1
-33.066199 0.167614 -22.240559 39.850271 -0.005069 2.162894 0.147015 0.002360 -781191.000000 0 0 1
-33.193999 -1.242986 -21.912459 39.793749 0.037429 2.153940 0.154898 -0.009702 102109.000000 0 0 1
-33.539099 -1.361986 -20.575059 39.370791 0.040587 2.120691 0.116297 -0.004994 54088.600000 0 0 1
-35.034199 -1.087486 -20.279559 40.494916 0.031031 2.095311 0.095947 0.001896 -300724.000000 0 0 1
-35.865199 -2.212886 -20.517659 41.378541 0.061622 2.089613 0.093788 -0.006478 629252.000000 0 0 1
36.751695 -2.097586 -19.899959 41.846090 -0.057013 2.066387 0.076304 -0.002028 621644.000000 0 0 1
36.034895 -3.445486 -19.668559 41.197539 -0.095325 2.068513 0.090792 -0.010915 -210316.000000 0 0 1
35.670395 -4.252386 -20.802459 41.511470 -0.118653 2.095695 0.094860 -0.008190 163956.000000 0 0 1
36.721195 -4.842486 -21.526259 42.840117 -0.131115 2.097260 0.087646 -0.017288 -313087.000000 0 0 1
36.185895 -5.608886 -22.735259 43.101863 -0.153778 2.126425 0.081467 -0.022095 -564589.000000 0 0 1
35.661595 -6.879086 -22.403859 42.673224 -0.190558 2.123523 0.096828 -0.021120 123375.000000 0 0 1
35.291695 -7.478186 -23.607259 43.112987 -0.208808 2.150250 0.090381 -0.018244 -143864.000000 0 0 1
33.818595 -7.274186 -24.005259 42.105386 -0.211866 2.177452 0.058819 -0.008646 -922019.000000 0 0 1
33.517095 -6.045086 -24.648359 42.041411 -0.178440 2.197265 0.066730 -0.019641 -120821.000000 0 0 1
32.147095 -6.048586 -24.964159 41.148880 -0.185979 2.222673 0.033799 -0.014921 -186299.000000 0 0 1
31.682995 -4.821186 -25.763919 41.119770 -0.151011 2.247925 0.048828 -0.033850 -35023.500000 0 0 1
32.066895 -4.898186 -27.126259 42.286072 -0.151577 2.267240 0.056785 -0.033351 202239.000000 0 0 1
31.446195 -3.875586 -27.862509 42.192448 -0.122627 2.292104 0.067429 -0.034995 -242198.000000 0 0 1
32.118995 -3.461586 -29.196039 43.543324 -0.107359 2.305686 0.072098 -0.034350 -47317.500000 0 0 1
31.261595 -2.744086 -30.076319 43.467255 -0.087554 2.334956 0.063318 -0.038134 -142073.000000 0 0 1
30.527595 -3.568586 -30.947509 43.616707 -0.116369 2.359632 0.073310 -0.039394 -783555.000000 0 0 1
29.913195 -2.693986 -32.089309 43.952025 -0.089818 2.389262 0.083310 -0.027477 -247008.000000 0 0 1
28.799995 -1.932086 -31.632309 42.822606 -0.066986 2.401910 0.071142 -0.023769 178769.000000 0 0 1
27.581495 -2.592186 -31.373319 41.853834 -0.093708 2.418242 0.075672 -0.026124 -455575.000000 0 0 1
26.767395 -2.936986 -32.636359 42.311360 -0.109285 2.451737 0.096601 -0.030837 -1100620.000000 0 0 1
27.420495 -3.930186 -33.396929 43.389915 -0.142361 2.449157 0.110315 -0.041246 260266.000000 0 0 1
26.813495 -3.925286 33.358146 42.978335 -0.145360 0.682241 0.110247 -0.032023 256455.000000 0 0 1
27.480495 -5.038886 32.411088 42.790730 -0.181348 0.711425 0.091407 -0.035667 1766100.000000 0 0 1
28.892495 -4.857786 32.112364 43.469279 -0.166575 0.739602 0.096738 -0.027750 1107180.000000 0 0 1
29.209195 -3.865586 31.161551 42.885453 -0.131577 0.757403 0.117123 -0.032062 -371635.000000 0 0 1
29.929095 -2.618386 31.765031 43.722121 -0.087264 0.757551 0.088439 -0.028136 268008.000000 0 0 1
31.281895 -2.932586 32.080921 44.903702 -0.093474 0.774975 0.091974 -0.022480 112622.000000 0 0 1
31.998595 -1.744686 32.448055 45.605156 -0.054470 0.779166 0.077246 -0.013839 47263.800000 0 0 1
33.480195 -2.034386 32.718503 46.856831 -0.060689 0.797825 0.067181 -0.014884 -272152.000000 0 0 1
34.266995 -2.355886 31.604391 46.675632 -0.068643 0.826972 0.081489 -0.009467 -282233.000000 0 0 1
35.614595 -2.433286 31.997771 47.939311 -0.068217 0.839998 0.065216 -0.009238 -59873.900000 0 0 1
36.681895 -2.809586 30.959951 48.082988 -0.076444 0.871230 0.060493 -0.007428 29102.400000 0 0 1
36.876295 -1.836886 29.993431 47.569330 -0.049771 0.888573 0.060269 -0.001099 16996.300000 0 0 1
-36.005599 -2.221186 29.086531 46.339650 0.061612 0.892225 0.067682 -0.009290 158337.000000 0 0 1
-35.979399 -1.372386 27.800831 45.489414 0.038125 0.913284 0.080125 -0.010502 233185.000000 0 0 1
36.818095 -1.605586 26.941821 45.650977 -0.043581 0.939527 0.085101 -0.019320 44005.000000 0 0 1
-36.775099 -0.973086 25.726361 44.890984 0.026454 0.960531 0.096602 -0.034027 -39892.000000 0 0 1
-26.528725 15.048914 12.694941 33.036414 -0.516005 1.176378 0.108247 -0.021939 -133645.000000 0 0 1
-27.753475 14.384114 12.839541 33.793668 -0.478166 1.181066 0.112853 -0.015163 294835.000000 0 0 1
-28.875235 15.230714 13.052141 35.158388 -0.485378 1.190454 0.107093 -0.011003 1846200.000000 0 0 1
-30.261845 14.508514 13.388541 36.132109 -0.447059 1.191202 0.097630 -0.006385 1308760.000000 0 0 1
-31.243965 15.278814 14.014541 37.497132 -0.454822 1.187748 0.094916 -0.010074 -355195.000000 0 0 1
-32.374235 14.514814 14.384641 38.284316 -0.421476 1.185610 0.100824 -0.019977 678437.000000 0 0 1
-33.391655 15.274814 15.299341 39.779297 -0.429027 1.176016 0.083805 -0.015496 394439.000000 0 0 1
-32.918885 15.415714 16.611441 39.965451 -0.437963 1.142144 0.072042 -0.005418 6991.840000 0 0 1
-33.930355 15.867914 17.468541 41.330493 -0.437444 1.134423 0.072055 -0.015913 431482.000000 0 0 1
-33.206015 16.234614 18.825341 41.480063 -0.454733 1.099726 0.077687 -0.001924 614001.000000 0 0 1
-32.686175 15.082514 19.455241 40.919124 -0.432322 1.075314 0.074638 -0.004700 191352.000000 0 0 1
-31.587505 15.296814 20.346741 40.567880 -0.450983 1.045409 0.074991 -0.000023 382750.000000 0 0 1
-31.780515 15.911414 21.753641 41.670075 -0.464180 1.021550 0.078390 -0.015399 -346563.000000 0 0 1
-32.343855 17.220314 21.769241 42.621169 -0.489241 1.034726 0.063673 -0.011274 148512.000000 0 0 1
-32.603045 17.825914 22.984041 43.691967 -0.500349 1.016850 0.061178 -0.027441 -1000600.000000 0 0 1
-33.414005 17.058514 24.072041 44.575238 -0.472028 1.000322 0.061425 -0.024509 391521.000000 0 0 1
-34.759010 16.702114 23.762341 45.296780 -0.447936 1.018560 0.109067 -0.016289 912830.000000 0 0 1
-35.647809 17.827314 23.616141 46.328194 -0.463724 1.035894 0.114023 -0.027287 -1292040.000000 0 0 1
36.819229 17.507314 23.285841 46.950954 0.443851 1.051855 0.069300 -0.028103 -281597.000000 0 0 1
36.133059 16.790814 24.353341 46.697051 0.435006 1.022168 0.088544 -0.025762 782361.000000 0 0 1
35.156969 15.812214 23.909241 45.361772 0.422655 1.015637 0.113607 -0.024394 746361.000000 0 0 1
34.717919 14.824814 25.022841 45.290745 0.403570 0.985444 0.111005 -0.009326 193187.000000 0 0 1
33.767419 15.515114 25.868641 45.278515 0.430701 0.962680 0.088348 -0.016585 434309.000000 0 0 1
33.500729 14.912914 27.105341 45.600366 0.418815 0.934264 0.081061 -0.015260 31207.200000 0 0 1
32.578489 13.672414 27.138041 44.550714 0.397353 0.915809 0.081235 -0.016221 78164.300000 0 0 1
33.229869 12.468414 26.723841 44.428023 0.358961 0.925408 0.083272 -0.015833 494377.000000 0 0 1
32.314959 11.394314 26.907441 43.567159 0.338991 0.905098 0.067004 -0.013526 670419.000000 0 0 1
33.076809 10.022414 26.940941 43.821666 0.294211 0.908682 0.078996 -0.029944 -419871.000000 0 0 1
34.026989 9.857314 27.917341 45.104108 0.281972 0.903387 0.085500 -0.025022 -507464.000000 0 0 1
34.702759 8.644514 27.624641 45.189931 0.244133 0.913093 0.098674 -0.016908 541908.000000 0 0 1
35.757589 8.072014 28.653341 46.527159 0.222021 0.907343 0.091050 -0.018079 -96028.800000 0 0 1
36.891199 8.848214 28.769141 47.612130 0.235400 0.921985 0.088185 -0.018964 -108909.000000 0 0 1
-35.882972 7.955314 28.944341 46.783006 -0.218173 0.903718 0.106508 -0.022720 1222980.000000 0 0 1
-34.469157 8.606414 29.059341 45.898132 -0.244682 0.885210 0.128255 -0.022647 641081.000000 0 0 1
-33.830945 8.946914 27.847641 44.722156 -0.258541 0.898632 0.121214 -0.024268 21235.700000 0 0 1
-32.645015 9.693714 28.032341 44.107565 -0.288650 0.882082 0.094441 -0.017883 5877.040000 0 0 1
-32.092725 10.121314 26.698441 42.955684 -0.305504 0.900096 0.081554 -0.019504 -119227.000000 0 0 1
-31.557395 9.080214 25.879041 41.809619 -0.280168 0.903361 0.092648 -0.022974 516934.000000 0 0 1
-30.719825 9.606414 24.828041 40.650000 -0.303077 0.913756 0.089385 -0.021837 420730.000000 0 0 1
-29.756545 8.517314 24.263141 39.328065 -0.278779 0.905945 0.090799 -0.026223 -57610.500000 0 0 1
-28.949575 9.144614 23.323641 38.284385 -0.305962 0.915719 0.096090 -0.025157 -284334.000000 0 0 1
-28.063135 8.290814 22.629441 36.991469 -0.287263 0.912528 0.078779 -0.018696 -196827.000000 0 0 1
-27.069445 8.998114 21.687841 35.834109 -0.320918 0.920743 0.087105 -0.012829 -1972380.000000 0 0 1
-26.016135 9.529014 22.349641 35.597021 -0.351098 0.892007 0.090027 -0.018778 -518942.000000 0 0 1
-24.911405 10.072614 21.641041 34.501744 -0.384240 0.892786 0.087517 -0.013666 607462.000000 0 0 1
-24.215005 9.216914 20.587041 33.092964 -0.363696 0.899378 0.077957 -0.010640 -1223670.000000 0 0 1
-24.921305 9.216814 19.335341 32.861475 -0.354236 0.941731 0.083551 -0.017348 358761.000000 0 0 1
-24.316905 8.477014 18.276141 31.578300 -0.335432 0.953593 0.082577 -0.016422 -249089.000000 0 0 1
-24.241905 6.925614 18.418241 31.222840 -0.278275 0.939866 0.082909 -0.007904 -739490.000000 0 0 1
-23.093305 6.472014 19.070541 30.641039 -0.273245 0.899009 0.046747 -0.000770 -61878.600000 0 0 1
-23.118605 5.163814 19.670341 30.790538 -0.219755 0.877802 0.054741 -0.001410 -379908.000000 0 0 1
-23.186305 3.908114 18.718141 30.054067 -0.166983 0.898460 0.064815 -0.004323 -167734.000000 0 0 1
-24.422805 3.666414 18.061241 30.596151 -0.149010 0.939352 0.108711 -0.005458 385626.000000 0 0 1
-24.481905 2.558814 17.154141 30.002930 -0.104140 0.962160 0.106187 -0.007734 -156138.000000 0 0 1
-24.302505 1.104714 17.721441 30.097868 -0.045426 0.941230 0.101961 -0.006753 -244403.000000 0 0 1
-23.015805 0.633214 18.052041 29.257554 -0.027505 0.905866 0.064693 -0.001306 214931.000000 0 0 1
-23.076105 -0.516086 18.806741 29.773587 0.022361 0.887106 0.096312 -0.016428 -256528.000000 0 0 1
-21.763505 -1.307086 18.969241 28.899667 0.059987 0.854782 0.087851 -0.000964 78543.000000 0 0 1
-20.814105 -0.770386 19.880741 28.793478 0.036996 0.808672 0.057914 0.003666 431548.000000 0 0 1
-19.766505 -1.705186 20.131341 28.264701 0.086053 0.778107 0.042133 -0.004082 -165685.000000 0 0 1
-18.785805 -1.309986 21.207841 28.361860 0.069620 0.726116 0.051548 -0.003135 164625.000000 0 0 1
-19.324105 -1.446986 22.571841 29.748997 0.074740 0.709415 0.066109 -0.005449 -313968.000000 0 0 1
-18.388205 -0.971286 23.472241 29.833129 0.052772 0.665214 0.055399 -0.011950 -1116940.000000 0 0 1
-18.742505 -1.169386 24.980841 31.252062 0.062311 0.644610 0.063416 -0.011137 368102.000000 0 0 1
-19.602405 -0.157386 25.522141 32.181653 0.008029 0.654972 0.063041 -0.016173 305818.000000 0 0 1
-20.974205 -0.289286 25.218641 32.802147 0.013792 0.693817 0.092618 -0.020293 178550.000000 0 0 1
-21.890305 0.882614 25.793541 33.841857 -0.040298 0.704124 0.078274 -0.024147 340495.000000 0 0 1
-21.729105 2.149514 25.148141 33.304706 -0.098602 0.715001 0.070038 -0.018951 693971.000000 0 0 1
-22.888305 2.620114 24.442441 33.588279 -0.113978 0.755823 0.069015 -0.017308 -84247.800000 0 0 1
-22.524805 3.784014 23.447441 32.733288 -0.166439 0.772285 0.071386 -0.011538 7331.470000 0 0 1
-21.865205 3.476614 22.221641 31.368382 -0.157682 0.783555 0.069067 -0.007873 1181120.000000 0 0 1
-20.528705 2.974214 22.375441 30.511212 -0.143880 0.747558 0.054871 -0.005643 115115.000000 0 0 1
-19.939905 2.303114 21.110441 29.129966 -0.114993 0.760200 0.040076 -0.004262 -145422.000000 0 0 1
-19.696605 3.226214 20.032441 28.278321 -0.162354 0.783564 0.029522 0.003697 420206.000000 0 0 1
-19.332705 2.348214 18.945941 27.170136 -0.120871 0.799162 0.039966 -0.002282 -94130.200000 0 0 1
-18.864705 3.043414 17.697841 26.045212 -0.159950 0.823709 0.032297 0.004437 954295.000000 0 0 1
-17.482205 3.443414 17.540941 25.003384 -0.194477 0.793236 0.033584 -0.009992 1150760.000000 0 0 1
-17.183005 4.107214 16.379741 24.091924 -0.234625 0.823190 0.044216 -0.012158 1524370.000000 0 1 0
-15.749305 4.861714 16.274441 23.163211 -0.299414 0.791753 0.050678 -0.012724 1630490.000000 0 1 0
-15.482305 5.970614 17.111141 23.835712 -0.368067 0.770046 0.057700 -0.018122 -158034.000000 0 1 0
-16.234405 7.140014 16.936241 24.522887 -0.414346 0.808437 0.055091 -0.027325 -555635.000000 0 1 0
-15.818505 7.971814 15.753241 23.705264 -0.466807 0.843910 0.049698 -0.028379 -17735.100000 0 1 0
-16.127705 7.440914 14.472441 22.911169 -0.432273 0.887083 0.063611 -0.026558 1992500.000000 0 1 0
-17.569105 7.473014 14.186941 23.786314 -0.402167 0.931747 0.040136 -0.027046 1530100.000000 0 1 0
-17.814305 6.694414 12.885541 22.982642 -0.359462 0.975609 0.043573 -0.025906 -244708.000000 0 1 0
-17.483105 5.346014 13.097141 22.489419 -0.296753 0.949156 0.042942 -0.022277 360340.000000 0 1 0
-18.076705 4.560714 12.069141 22.208817 -0.247140 0.996268 0.049064 -0.029196 20429.200000 0 1 0
-17.698005 3.064014 12.120641 21.668353 -0.171428 0.977170 0.053474 -0.017193 -479641.000000 0 1 0
-18.238405 2.465114 13.258341 22.682589 -0.134346 0.946513 0.048535 -0.018599 77647.500000 0 1 0
-17.760205 1.165214 13.497641 22.337613 -0.065514 0.921964 0.040425 -0.007510 -659675.000000 0 1 0
-18.544605 0.409414 14.570941 23.587758 -0.022074 0.904939 0.044424 -0.015122 -628915.000000 0 1 0
-19.882405 0.285414 14.179641 24.422402 -0.014354 0.951331 0.068359 -0.008408 5730.060000 0 1 0
-20.673105 -0.318886 15.228241 25.678363 0.015424 0.935970 0.080136 -0.016608 -218324.000000 0 0 1
-22.117105 -0.523986 14.778541 26.605379 0.023687 0.981866 0.100636 -0.015858 -675641.000000 0 0 1
-22.341505 -1.639886 13.840141 26.332140 0.073269 1.017377 0.116377 -0.028966 2082510.000000 0 0 1
-23.764605 -1.768886 13.495841 27.386551 0.074297 1.055502 0.158072 -0.028598 1683570.000000 0 0 1
-23.932505 -2.959286 12.517141 27.169855 0.123027 1.092013 0.160794 -0.037590 -241330.000000 0 0 1
-23.713805 -4.246986 13.070741 27.408497 0.177215 1.073687 0.132757 -0.039098 363293.000000 0 0 1
-23.971705 -5.215086 12.110941 27.358996 0.214214 1.112225 0.151067 -0.047362 -323092.000000 0 0 1
-24.055605 -6.639386 12.682541 27.992864 0.269297 1.100598 0.133859 -0.049036 235505.000000 0 0 1
-25.091005 -6.753486 13.655341 29.353645 0.262928 1.086935 0.122824 -0.044995 440717.000000 0 0 1
-25.237375 -8.107186 14.064841 30.007855 0.310825 1.082972 0.138797 -0.060424 600134.000000 0 0 1
-26.324955 -8.352986 15.209541 31.529443 0.307254 1.067413 0.141692 -0.050090 1386110.000000 0 0 1
-27.654355 -8.200386 14.710741 32.379247 0.288272 1.099181 0.118182 -0.038141 158316.000000 0 0 1
-28.617165 -8.121986 15.696941 33.634845 0.276543 1.085255 0.115777 -0.035569 454903.000000 0 0 1
-30.049745 -7.574286 15.285141 34.554197 0.246915 1.112576 0.092260 -0.034520 1480450.000000 0 0 1
-30.914325 -8.350886 14.421741 35.120072 0.263833 1.147639 0.079011 -0.024267 861224.000000 0 0 1
-31.272965 -9.694786 14.678941 35.881173 0.300611 1.149330 0.076898 -0.021079 -54326.000000 0 0 1
-31.767415 -10.131586 16.114141 37.033542 0.308732 1.120622 0.072072 -0.021783 -12095.600000 0 0 1
-30.618315 -10.287486 16.919441 36.463421 0.324141 1.088278 0.084157 -0.020332 367801.000000 0 0 1
-30.952885 -10.694886 18.243841 37.487324 0.332679 1.062526 0.093106 -0.012304 195424.000000 0 0 1
-29.666455 -10.656686 19.100741 36.857860 0.344862 1.026020 0.111532 -0.009960 943623.000000 0 0 1
-28.643905 -11.570486 18.654841 36.088122 0.383900 1.027542 0.124866 -0.012647 2023550.000000 0 0 1
-27.395945 -11.502086 19.453641 35.514503 0.397497 0.991105 0.120181 -0.021091 1348210.000000 0 0 1
-26.363685 -12.466686 18.929141 34.767435 0.441712 0.995063 0.139005 -0.020832 -589785.000000 0 0 1
-25.896545 -12.172786 17.592341 33.590151 0.439405 1.019567 0.126580 -0.017538 554342.000000 0 0 1
-24.854905 -13.041286 17.119141 32.877142 0.483209 1.023125 0.115341 -0.022348 268515.000000 0 0 1
-24.559305 -12.796786 15.621141 31.795240 0.480351 1.057210 0.095762 -0.028834 -152608.000000 0 0 1
-23.652405 -11.720286 15.440241 30.581080 0.460059 1.041536 0.092402 -0.031317 -49412.000000 0 0 1
-23.164205 -11.685786 14.097041 29.527353 0.467222 1.073077 0.091327 -0.031156 695755.000000 0 0 1
-21.807005 -10.903986 13.986741 28.108207 0.463665 1.049963 0.092441 -0.041426 158260.000000 0 0 1
-21.852505 -9.518486 14.192441 27.740926 0.410797 1.033743 0.106524 -0.053557 854148.000000 0 0 1
-20.614105 -8.848786 13.812941 26.344633 0.405472 1.018883 0.116249 -0.053249 1008160.000000 0 0 1
-20.189605 -8.885886 12.299641 25.255896 0.414609 1.062144 0.136985 -0.041847 -846019.000000 0 0 1
-19.633205 -10.045386 11.896541 25.057937 0.472926 1.076103 0.131804 -0.044894 -61882.000000 0 0 1
-19.304705 -9.990286 10.558741 24.165357 0.477554 1.118606 0.145594 -0.028930 -552776.000000 0 1 0
-18.623605 -11.290986 9.992341 23.961885 0.545019 1.140643 0.118612 -0.021791 321742.000000 0 1 0
-17.229205 -11.486886 10.048141 23.016498 0.588033 1.119022 0.127085 -0.032302 204561.000000 0 1 0
-16.628105 -11.643686 11.316241 23.240624 0.610888 1.062240 0.122643 -0.027478 88051.500000 0 1 0
-15.092205 -11.876486 11.199341 22.231752 0.666719 1.042857 0.123276 -0.033004 357198.000000 0 1 0
-14.753805 -13.229986 10.993641 22.662026 0.730998 1.064304 0.109622 -0.036981 -188325.000000 0 1 0
-13.368905 -13.364986 10.835041 21.788726 0.785252 1.050338 0.125106 -0.043177 -267094.000000 0 1 0
-12.905105 -14.835186 10.746841 22.408014 0.854863 1.070600 0.125695 -0.046038 98376.000000 0 1 0
-13.495005 -15.539386 9.666741 22.738372 0.855695 1.131692 0.106330 -0.041215 411288.000000 0 1 0
-13.024605 -16.850286 9.823241 23.453540 0.912762 1.138631 0.087848 -0.034849 112539.000000 0 1 0
-13.130505 -17.786186 8.566041 23.709400 0.934863 1.201142 0.075880 -0.024169 100967.000000 0 1 0
-12.372105 -17.489586 7.389141 22.661730 0.955122 1.238661 0.081520 -0.032279 60069.400000 0 1 0
-12.676705 -18.398686 6.380041 23.236080 0.967491 1.292649 0.059479 -0.020680 891496.000000 0 1 0
-11.689305 -18.247686 5.071641 22.256222 1.001064 1.340901 0.062965 -0.022114 932924.000000 0 1 0
-12.063405 -19.008786 3.934241 22.854714 1.005307 1.397793 0.073990 -0.027430 -219620.000000 0 1 0
-11.138105 -18.858386 2.910841 22.094549 1.037304 1.438667 0.071484 -0.033312 -252658.000000 0 1 0
-11.352605 -19.738686 1.686841 22.832932 1.048853 1.496851 0.080822 -0.030477 932.219000 0 1 0
-11.180005 -21.158186 1.874241 24.003627 1.084687 1.492635 0.072337 -0.030316 -112900.000000 0 1 0
-11.632005 -21.985986 0.788841 24.885927 1.084168 1.539093 0.083338 -0.027980 -137149.000000 0 1 0
-10.872705 -21.854686 -0.543159 24.415938 1.109151 1.593044 0.099697 -0.028473 -30391.000000 0 1 0
-11.118705 -20.681386 -1.387059 23.521676 1.077508 1.629800 0.098331 -0.043779 221340.000000 0 1 0
-12.304905 -20.753486 -2.167859 24.224316 1.035608 1.660407 0.118129 -0.036762 737990.000000 0 1 0
-13.525705 -19.902786 -1.658559 24.120870 0.973901 1.639611 0.131396 -0.031595 629145.000000 0 1 0
-14.263605 -20.483386 -0.579459 24.967084 0.962524 1.594007 0.126818 -0.022417 -274878.000000 0 1 0
-15.261005 -19.640986 -0.147259 24.873445 0.910239 1.576717 0.126808 -0.014451 -469149.000000 0 1 0
26.661295 -20.105486 -4.142759 33.648442 -0.646125 1.694228 0.057986 -0.019401 -581523.000000 0 0 1
25.435095 -20.243586 -3.504459 32.695994 -0.672231 1.678186 0.048631 -0.018412 -380899.000000 0 0 1
25.591095 -21.206586 -2.472859 33.327743 -0.691980 1.645063 0.047657 -0.021603 -69892.200000 0 0 1
24.242895 -21.519286 -1.798359 32.465854 -0.725952 1.626217 0.042660 -0.021064 -74203.800000 0 0 1
23.345695 -22.163786 -2.686659 32.302832 -0.759433 1.654064 0.046652 -0.024024 -834176.000000 0 0 1
22.194895 -22.420786 -1.956859 31.609085 -0.790461 1.632744 0.052735 -0.024821 -1259670.000000 0 0 1
21.140595 -23.166286 -2.702659 31.478658 -0.831086 1.656759 0.065167 -0.033896 -775791.000000 0 0 1
20.347895 -22.409486 -3.552559 30.476918 -0.833577 1.687627 0.070284 -0.035237 -1084620.000000 0 0 1
19.527495 -23.215086 -4.348159 30.645876 -0.871459 1.713161 0.076684 -0.031954 40729.700000 0 0 1
18.622195 -22.234786 -5.227459 29.470293 -0.873589 1.749121 0.080566 -0.013530 632717.000000 0 0 1
17.502795 -21.628086 -4.571759 28.196150 -0.890433 1.733657 0.079154 -0.010554 518267.000000 0 0 1
17.843495 -20.793186 -3.445859 27.615590 -0.861595 1.695902 0.064604 -0.018878 -1300040.000000 0 0 1
16.652095 -20.216886 -2.715659 26.332290 -0.881787 1.674110 0.080695 -0.004927 -554424.000000 0 0 1
16.064595 -21.135386 -1.802359 26.608725 -0.920875 1.638584 0.069532 -0.014955 -159878.000000 0 0 1
15.322895 -20.404786 -0.880759 25.532765 -0.926690 1.605298 0.079780 -0.004148 -446165.000000 0 0 1
14.868395 -21.179786 0.371541 25.880311 -0.958723 1.556440 0.063151 -0.005191 168184.000000 0 0 1
13.943195 -22.251086 0.285841 26.260335 -1.011026 1.559911 0.061415 -0.007065 -19433.800000 0 0 1
13.454495 -22.637586 1.544141 26.379312 -1.034547 1.512227 0.058314 -0.000878 366691.000000 0 0 1
12.478495 -23.841986 1.559841 26.955263 -1.088618 1.512896 0.061198 -0.002620 166687.000000 0 0 1
13.190895 -25.040486 1.460241 28.340041 -1.085953 1.519248 0.049838 -0.006880 62455.200000 0 0 1
12.344995 -26.152496 1.238541 28.946259 -1.129767 1.527996 0.043055 -0.009625 43598.600000 0 0 1
12.781795 -27.413186 1.990641 30.312038 -1.134499 1.505077 0.051857 -0.004675 5650.990000 0 0 1
12.361495 -27.372016 3.352241 30.220379 -1.146604 1.459641 0.076272 -0.014253 129462.000000 0 0 1
12.822595 -28.456246 4.083541 31.477804 -1.147437 1.440702 0.074921 -0.018360 -113033.000000 0 0 1
12.261595 -28.425876 5.521141 31.446146 -1.163557 1.394307 0.085258 -0.021524 -77030.200000 0 0 1
12.672495 -29.591266 6.202741 32.782756 -1.166175 1.380441 0.074173 -0.019854 -133186.000000 0 0 1
12.133095 -29.727296 7.497841 32.971832 -1.183287 1.341388 0.073544 -0.025603 -277672.000000 0 0 1
12.792995 -30.903626 8.299941 34.461338 -1.178310 1.327557 0.078872 -0.016813 44217.600000 0 0 1
12.424395 -31.070356 9.636741 34.822397 -1.190394 1.290397 0.066461 -0.007918 -124983.000000 0 0 1
11.244795 -31.821416 9.815541 35.148154 -1.231121 1.287771 0.065316 -0.007234 -95637.500000 0 0 1
10.975895 -32.205286 11.243941 35.834019 -1.242332 1.251627 0.064984 0.002353 -679334.000000 0 0 1
11.940295 -33.095756 11.727941 37.086983 -1.224550 1.249046 0.052230 0.001552 -171188.000000 0 0 1
11.847195 -33.433586 13.068941 37.801559 -1.230251 1.217785 0.061980 0.003895 631264.000000 0 0 1
10.788795 33.514374 13.389741 37.668243 1.259357 1.207385 0.057218 -0.003517 588742.000000 0 0 1
11.250395 32.330543 12.918941 36.588720 1.235922 1.209930 0.070105 -0.009749 201706.000000 0 0 1
10.224295 31.341821 12.971141 35.427341 1.255462 1.195946 0.064085 -0.011393 -36275.600000 0 0 1
10.411495 30.149041 12.043341 34.094076 1.238284 1.209766 0.069472 -0.016573 -205158.000000 0 0 1
10.234595 30.375551 10.664441 33.780932 1.245808 1.249608 0.060765 -0.010449 -39452.100000 0 0 1
11.017395 31.419541 10.114641 34.797651 1.233539 1.275869 0.041441 -0.007434 -289222.000000 0 0 1
10.713995 31.805871 8.668041 34.663209 1.245879 1.318049 0.033111 -0.009647 -140865.000000 0 0 1
9.378695 32.256043 8.663441 34.691029 1.287840 1.318393 0.038585 -0.011597 -435258.000000 0 0 1
8.877395 32.612356 7.420641 34.604044 1.305026 1.354673 0.029335 -0.020177 -118710.000000 0 0 1
9.343595 33.954949 6.772141 35.862282 1.302266 1.380818 0.037678 -0.013090 231235.000000 0 0 1
8.613095 -33.015006 7.253241 34.882453 -1.315600 1.361334 0.042246 -0.015243 347530.000000 0 0 1
9.023595 -31.946906 6.400241 33.808181 -1.295512 1.380336 0.065547 -0.025267 -28152.700000 0 0 1
8.472095 -30.629106 6.854641 32.510069 -1.300941 1.358355 0.053699 -0.020840 -350438.000000 0 0 1
8.845095 -30.153596 8.136641 32.460437 -1.285466 1.317431 0.067033 -0.021248 -428467.000000 0 0 1
8.253495 -28.961536 8.521241 31.297001 -1.293175 1.295045 0.077666 -0.020293 -570849.000000 0 0 1
8.805495 -27.652026 7.998841 30.102371 -1.262510 1.301844 0.083019 -0.024254 -55234.800000 0 0 1
9.941195 -27.230236 8.762241 30.283493 -1.220752 1.277259 0.089296 -0.023731 176027.000000 0 0 1
10.683295 -26.161206 8.175941 29.417469 -1.183100 1.289160 0.093696 -0.033458 -88450.800000 0 0 1
10.057595 -24.929186 7.442441 27.892821 -1.187322 1.300701 0.095412 -0.031036 -626499.000000 0 0 1
9.709395 -25.335736 6.165141 27.824105 -1.204831 1.347366 0.086470 -0.026235 -466025.000000 0 0 1
9.031695 -24.328286 5.476441 26.522225 -1.215324 1.362815 0.080778 -0.024098 -30200.000000 0 0 1
8.824695 -24.761486 3.983041 26.587046 -1.228442 1.420419 0.069019 -0.016556 382340.000000 0 0 1
7.881395 -25.809156 3.753341 27.245485 -1.274418 1.432597 0.066071 -0.017333 -207571.000000 0 0 1
8.226495 -27.116216 4.245241 28.652861 -1.276242 1.422088 0.060446 -0.012259 -191113.000000 0 0 1
7.246895 -28.272676 3.973541 29.455911 -1.319877 1.435486 0.055566 -0.016518 -18072.800000 0 0 1
6.150495 -28.373616 4.880741 29.439978 -1.357331 1.404241 0.052055 -0.013834 191555.000000 0 0 1
5.105295 -29.213976 4.411841 29.983074 -1.397788 1.423116 0.043912 -0.016959 339125.000000 0 0 1
5.408895 -30.743356 4.504941 31.538937 -1.396642 1.427469 0.038215 -0.020394 -522812.000000 0 0 1
6.314195 -31.207106 3.541841 32.035873 -1.371160 1.460011 0.041086 -0.014402 -203849.000000 0 0 1
6.417395 -32.656366 3.754241 33.492021 -1.376756 1.458467 0.035264 -0.019540 -320532.000000 0 0 1
7.483695 -33.397806 2.943241 34.352318 -1.350360 1.485013 0.039034 -0.017391 -206105.000000 0 0 1
7.028695 -33.891946 1.723341 34.655972 -1.366310 1.521049 0.048471 -0.016159 -441727.000000 0 0 1
7.998895 33.363182 1.207241 34.329895 1.335486 1.535623 0.037984 -0.016218 -533514.000000 0 0 1
7.497495 32.865875 -0.192659 33.710759 1.346510 1.576511 0.052225 -0.013269 330007.000000 0 0 1
6.370195 32.045741 -0.120059 32.672976 1.374570 1.574471 0.035405 -0.012784 -602108.000000 0 0 1
5.118295 32.695481 -0.067859 33.093746 1.415512 1.572847 0.038002 -0.018031 162576.000000 0 0 1
3.985595 31.670141 0.320541 31.921553 1.445607 1.560755 0.045179 -0.023198 467382.000000 0 0 1
3.764195 30.662491 -0.662859 30.899788 1.448645 1.592250 0.054461 -0.017667 -174708.000000 0 0 1
2.574095 29.958861 -0.407159 30.071999 1.485086 1.584336 0.065576 -0.034438 105699.000000 0 0 1
2.355295 28.918191 -1.543059 29.054952 1.489529 1.623930 0.068296 -0.025669 -75260.300000 0 0 1
2.248295 29.492151 -2.819059 29.711764 1.494710 1.665819 0.077573 -0.032060 38497.600000 0 0 1
2.049595 28.434251 -3.774459 28.756808 1.498839 1.702431 0.074721 -0.033876 -182271.000000 0 0 1
1.635795 28.846031 -5.214059 29.359083 1.514149 1.749340 0.080724 -0.036383 -182273.000000 0 0 1
0.304295 29.259641 -5.360059 29.748100 1.560397 1.751967 0.078926 -0.037920 -222550.000000 0 0 1
-0.061705 30.101041 -6.448959 30.784177 -1.568746 1.781849 0.064340 -0.028435 -206032.000000 0 0 1
-0.152605 29.546171 -7.855059 30.572888 -1.565631 1.830639 0.064973 -0.028408 -440466.000000 0 0 1
-1.365205 28.860121 -8.120859 30.011976 -1.523527 1.844799 0.055582 -0.021585 178075.000000 0 0 1
-1.655105 28.645091 -9.523459 30.232051 -1.513081 1.891266 0.055357 -0.019240 64338.800000 0 0 1
-1.765105 29.842991 -10.450459 31.669099 -1.511719 1.907088 0.034936 -0.017087 474808.000000 0 0 1
-0.506905 30.383691 -10.925359 32.292245 -1.554114 1.915935 0.042330 -0.013366 679947.000000 0 0 1
-0.583005 31.716841 -11.371459 33.698783 -1.552417 1.914997 0.016687 -0.012358 181025.000000 0 0 1
-0.828505 32.860272 -10.283059 34.441620 -1.545589 1.873985 0.022328 -0.012326 849533.000000 0 0 1
0.331895 33.076817 -9.457359 34.403889 1.560763 1.849274 0.029712 -0.020578 713287.000000 0 0 1
-0.109205 33.711514 -8.253359 34.707291 -1.567557 1.810896 0.038224 -0.018228 -126730.000000 0 0 1
1.019895 34.047757 -7.279359 34.832155 1.540850 1.781332 0.052107 -0.027433 -496953.000000 0 0 1
1.854595 -33.042716 -7.765759 33.993640 -1.514728 1.801279 0.060328 -0.023654 -68594.300000 0 0 1
2.837095 -32.806786 -6.749859 33.613909 -1.484532 1.772976 0.067091 -0.031363 587668.000000 0 0 1
4.123095 -31.992886 -7.189059 33.048861 -1.442627 1.790078 0.049645 -0.031513 1554900.000000 0 0 1
4.988095 -32.613766 -8.215159 34.000406 -1.419028 1.814831 0.064545 -0.023478 592230.000000 0 0 1
5.859795 -33.544306 -7.671159 34.905649 -1.397853 1.792373 0.084963 -0.014137 -1615790.000000 0 0 1
6.148095 33.348261 -8.556759 34.973186 1.388483 1.817972 0.092863 -0.014816 -383596.000000 0 0 1
5.238795 32.307842 -8.686859 33.863006 1.410043 1.830226 0.077634 -0.017879 -876528.000000 0 0 1
4.019995 32.636970 -9.283959 34.169051 1.448241 1.845962 0.074040 -0.018627 -702189.000000 0 0 1
3.103895 31.447961 -9.455659 32.985116 1.472416 1.861540 0.065181 -0.029864 -291291.000000 0 0 1
3.726095 30.561061 -10.381559 32.490599 1.449472 1.896024 0.077418 -0.028238 39634.200000 0 0 1
3.074395 29.344981 -10.392659 31.282378 1.466410 1.909454 0.052924 -0.027325 -40914.600000 0 0 1
3.774795 28.298851 -11.284259 30.698673 1.438189 1.947203 0.056619 -0.030351 58899.300000 0 0 1
3.751395 28.659881 -12.659159 31.554969 1.440643 1.983599 0.056736 -0.026324 -272841.000000 0 0 1
4.674995 27.968441 -13.431459 31.376637 1.405175 2.013155 0.071565 -0.035418 -390816.000000 0 0 1
4.791795 28.426361 -14.888259 32.445024 1.403798 2.047527 0.077641 -0.025261 -364864.000000 0 0 1
3.702995 28.068241 -15.690259 32.368543 1.439626 2.076860 0.051061 -0.014835 -199215.000000 0 0 1
3.815895 28.712841 -16.926159 33.548221 1.438672 2.099636 0.097098 -0.017154 138347.000000 0 0 1
2.904495 28.132341 -18.028859 33.539595 1.467917 2.138313 0.079197 -0.024470 -4060.320000 0 0 1
3.300495 26.851161 -18.430559 32.734746 1.448492 2.168841 0.096250 -0.019599 -205758.000000 0 0 1
2.471095 26.288471 -19.409459 32.770675 1.477073 2.204684 0.109605 -0.031159 11544.400000 0 0 1
3.164495 25.137071 -20.167959 32.382602 1.445566 2.243116 0.122402 -0.032860 152051.000000 0 0 1
3.363895 24.018391 -19.318759 31.006666 1.431646 2.243435 0.110932 -0.031266 29535.300000 0 0 1
4.340395 23.202371 -19.954959 30.909374 1.385867 2.272599 0.113904 -0.023989 215121.000000 0 0 1
4.721295 22.041111 -19.060059 29.519266 1.359781 2.272712 0.106887 -0.025617 -178138.000000 0 0 1
3.750795 21.056011 -18.884659 28.531639 1.394511 2.294127 0.123522 -0.021565 -295203.000000 0 0 1
4.346395 19.954411 -18.244159 27.384649 1.356330 2.299923 0.095169 -0.012332 651844.000000 0 0 1
3.273295 18.839011 -18.053259 26.297204 1.398763 2.327473 0.088462 -0.019499 627230.000000 0 0 1
2.365895 18.955511 -16.969159 25.551149 1.446625 2.297119 0.081667 -0.006912 226368.000000 0 0 1
1.633995 17.736911 -16.680059 24.402711 1.478932 2.323388 0.058250 -0.002761 820377.000000 0 1 0
2.471095 16.618511 -15.893959 23.127887 1.423183 2.328452 0.034151 -0.006375 1483960.000000 0 1 0
3.507195 15.873511 -16.616259 23.245835 1.353344 2.367143 0.048201 -0.005213 562747.000000 0 1 0
2.999095 14.904511 -17.477159 23.164414 1.372227 2.425662 0.064720 -0.010787 -247294.000000 0 1 0
2.914395 15.197111 -18.964659 24.476604 1.381324 2.457207 0.069752 -0.013844 -652673.000000 0 1 0
4.218895 15.398711 -19.432959 25.150731 1.303381 2.453817 0.085831 -0.016142 -368238.000000 0 0 1
4.224795 15.959811 -20.709959 26.485219 1.312017 2.468575 0.094058 -0.033258 -392297.000000 0 0 1
4.227995 14.970911 -21.930959 26.888121 1.295551 2.524626 0.086520 -0.049518 938629.000000 0 0 1
3.140995 14.006511 -22.013459 26.280041 1.350194 2.563762 0.079786 -0.043133 1051420.000000 0 0 1
1.851895 14.554011 -22.313659 26.704833 1.444234 2.559959 0.077626 -0.052222 187817.000000 0 0 1
0.934695 13.420911 -22.817759 26.488575 1.501264 2.608853 0.074478 -0.042346 -167066.000000 0 0 1
0.490995 12.483011 -21.862659 25.180200 1.531484 2.622456 0.073749 -0.030382 -261585.000000 0 0 1
-0.268305 11.467011 -22.425259 25.188421 -1.547403 2.668801 0.039006 -0.017955 -642532.000000 0 0 1
-0.798105 10.530311 -21.399059 23.863029 -1.495150 2.683156 0.025360 -0.015373 5813.320000 0 1 0
-1.918305 11.152011 -20.724959 23.612945 -1.400449 2.641827 0.025743 -0.009095 420426.000000 0 1 0
-2.480905 10.433711 -19.656859 22.392171 -1.337354 2.642141 0.020918 -0.001948 65869.200000 0 1 0
-3.333805 9.171511 -19.877159 22.143448 -1.222150 2.685214 0.022786 -0.006771 -414392.000000 0 1 0
-2.700505 8.100511 -20.544759 22.248553 -1.249009 2.747694 0.016799 -0.009308 -655750.000000 0 1 0
-3.655605 7.149611 -20.920759 22.408894 -1.098149 2.775105 0.021103 -0.004817 -253180.000000 0 1 0
-3.071305 5.960911 -21.733759 22.744706 -1.095030 2.842324 0.023783 -0.013525 -636451.000000 0 1 0
-2.285705 5.139011 -20.968559 21.709775 -1.152296 2.879531 0.019215 -0.008711 -511126.000000 0 1 0
-1.915405 4.004711 -21.746559 22.195029 -1.124669 2.940226 0.031705 -0.014569 -541854.000000 0 1 0
-1.158805 3.000111 -20.903259 21.149225 -1.202196 2.988932 0.026915 -0.016209 14861.000000 0 1 0
0.204195 3.331311 -20.663259 20.931067 1.509577 2.981454 0.024368 -0.019281 177095.000000 0 1 0
0.851395 2.358811 -19.891559 20.049014 1.224407 3.016183 0.026819 -0.018406 464211.000000 0 1 0
2.403295 2.426811 -20.027759 20.316898 0.790267 2.972682 0.021978 -0.018133 404443.000000 0 1 0
2.904095 1.789811 -21.204459 21.477110 0.552323 2.982081 0.035937 -0.022446 -75678.600000 0 1 0
4.317995 1.774011 -21.128359 21.637923 0.389817 2.924141 0.054448 -0.018008 325832.000000 0 1 0
5.093295 1.250611 -22.345059 22.952284 0.240777 2.911057 0.052301 -0.010722 1161690.000000 0 1 0
6.535995 1.321211 -22.338459 23.312476 0.199456 2.851506 0.050228 -0.010946 1207910.000000 0 1 0
7.078295 0.611311 -23.415459 24.469566 0.086150 2.847004 0.044582 -0.014231 -1314270.000000 0 1 0
8.582195 0.547011 -23.420459 24.949372 0.063652 2.789692 0.051373 -0.023012 -1046900.000000 0 1 0
9.067195 1.848811 -23.800159 25.535851 0.201144 2.770769 0.059201 -0.027463 134480.000000 0 0 1
10.465395 1.763111 -23.556859 25.837156 0.166903 2.718305 0.060511 -0.033262 -22884.600000 0 0 1
14.488595 -20.813386 22.339071 33.795717 -0.962680 0.848642 0.097785 -0.015909 -454112.000000 0 0 1
13.351895 -21.180986 23.111031 34.073846 -1.008344 0.825400 0.086134 -0.014986 38629.900000 0 0 1
12.169295 -20.492886 22.856471 33.022240 -1.034926 0.806327 0.069058 -0.019792 -156079.000000 0 0 1
11.486995 -20.554786 21.477871 31.870820 -1.061186 0.831316 0.084614 -0.037293 -886049.000000 0 0 1
12.060795 -19.717486 20.505771 30.898684 -1.021833 0.845115 0.077600 -0.037365 51912.900000 0 0 1
11.250795 -19.794886 19.338671 29.873099 -1.053960 0.866680 0.113398 -0.038036 358647.000000 0 0 1
11.384895 -18.579186 18.392271 28.514515 -1.021035 0.869754 0.115581 -0.044243 -84980.600000 0 0 1
10.791695 -17.480586 19.029971 28.003059 -1.017715 0.823623 0.121471 -0.045677 -280724.000000 0 0 1
10.879495 -16.245686 18.292771 26.775197 -0.980707 0.818663 0.121770 -0.042410 405202.000000 0 0 1
9.790895 -15.173786 18.714671 26.006620 -0.997767 0.767553 0.110349 -0.039193 653613.000000 0 0 1
8.480195 -15.632686 18.436871 25.616650 -1.073756 0.767394 0.092697 -0.033744 -69166.800000 0 0 1
7.558795 -14.583786 18.762171 24.936745 -1.092615 0.719113 0.065606 -0.027666 260170.000000 0 1 0
6.126395 -14.890586 18.273471 24.355328 -1.180478 0.722301 0.034997 -0.019300 -265145.000000 0 1 0
5.887395 -14.913286 16.874071 23.276636 -1.194802 0.759855 0.034962 -0.019219 78288.400000 0 1 0
4.542695 -15.236986 16.568771 22.963579 -1.281050 0.764796 0.003278 -0.013120 -174143.000000 0 1 0
4.013995 -16.643586 16.722471 23.932449 -1.334142 0.797167 0.003031 -0.005266 69687.200000 0 1 0
2.676995 -16.663986 16.215771 23.405255 -1.411512 0.805396 0.007371 -0.006641 218408.000000 0 1 0
2.007695 -17.886886 16.448771 24.383059 -1.459020 0.830376 0.019931 -0.015480 342118.000000 0 1 0
0.518895 -17.788486 16.036771 23.955740 -1.541634 0.837351 0.032007 -0.009056 148902.000000 0 1 0
0.253695 -17.636186 14.672071 22.942734 -1.556412 0.876938 0.033424 -0.013847 -868760.000000 0 1 0
-1.097405 -17.868986 14.463271 23.015020 1.509459 0.891266 0.034020 -0.009856 -980539.000000 0 1 0
-1.537805 -17.816986 12.964471 22.088172 1.484699 0.943520 0.034321 -0.034486 354674.000000 0 1 0
-2.899005 -18.217386 12.826871 22.467888 1.412986 0.963197 0.043076 -0.035413 376679.000000 0 1 0
-3.051605 -19.579586 12.483971 23.420546 1.416184 1.008613 0.048728 -0.035947 279472.000000 0 1 0
-4.546305 -20.003286 12.409971 23.975148 1.347315 1.026732 0.047572 -0.030602 516078.000000 0 1 0
-5.111405 -20.397086 13.646371 25.067728 1.325258 0.995146 0.046592 -0.034719 -875059.000000 0 0 1
-6.436005 -20.742286 13.457471 25.549327 1.269931 1.016053 0.045253 -0.029890 -911625.000000 0 0 1
-7.118405 -21.371786 14.666471 26.879923 1.249278 0.993657 0.046547 -0.025955 1101240.000000 0 0 1
-8.554705 -21.218086 14.679871 27.182508 1.187552 1.000302 0.047098 -0.021477 905648.000000 0 0 1
-9.165005 -22.212086 15.461771 28.573422 1.179464 0.999023 0.047023 -0.027760 -411887.000000 0 0 1
-10.662805 -22.008886 15.655371 29.037512 1.119644 1.001377 0.054768 -0.020002 -409770.000000 0 0 1
-10.898805 -20.775986 16.321871 28.580220 1.087673 0.962964 0.039361 -0.019287 -314886.000000 0 0 1
-12.129605 -20.174886 15.994971 28.460366 1.029478 0.973984 0.056366 -0.022977 -104658.000000 0 0 1
-12.368805 -18.908586 16.884271 28.206392 0.991518 0.929047 0.058479 -0.019085 -134037.000000 0 0 1
-12.791205 -19.314886 18.201071 29.461139 0.985860 0.904855 0.045298 -0.015010 -12698.700000 0 0 1
-13.131305 -18.236586 18.970471 29.408893 0.946738 0.869696 0.046006 -0.016963 -191093.000000 0 0 1
-13.558305 -18.616686 20.393671 30.762159 0.941336 0.846049 0.046323 -0.015401 -239058.000000 0 0 1
-14.758105 -19.347986 20.464671 31.795424 0.919171 0.871557 0.056953 -0.020220 -94528.800000 0 0 1
-14.905905 -20.024086 21.684171 33.065893 0.930890 0.855572 0.053906 -0.009130 -217617.000000 0 0 1
-16.170805 -20.886586 21.563771 34.098983 0.911974 0.886165 0.063584 -0.013878 -1052240.000000 0 0 1
-16.070605 -21.992886 20.683671 34.201836 0.939750 0.921340 0.053693 -0.016470 1171190.000000 0 0 1
-17.326005 -22.191586 19.998571 34.534038 0.907906 0.953175 0.074123 -0.015009 1341820.000000 0 0 1
-18.583805 -22.690686 20.778371 35.943925 0.884573 0.954426 0.079083 -0.019676 -221328.000000 0 0 1
-19.124905 -21.712386 21.652071 36.138648 0.848674 0.928371 0.078534 -0.018348 -13623.600000 0 0 1
-20.049805 -22.343086 22.545471 37.543394 0.839441 0.926648 0.090663 -0.022935 70209.900000 0 0 1
-20.670805 -21.368586 23.545081 37.924523 0.801995 0.900982 0.084577 -0.010146 -266580.000000 0 0 1
-21.637605 -20.503886 22.987771 37.643497 0.758502 0.913889 0.092112 -0.007404 94226.500000 0 0 1
-22.001705 -19.523386 23.916401 37.910841 0.725786 0.888136 0.086321 -0.014594 231019.000000 0 0 1
-23.102805 -18.601886 23.295371 37.715303 0.677891 0.905028 0.085124 -0.013719 337339.000000 0 0 1
-22.659705 -17.954086 22.110471 36.396213 0.670050 0.917895 0.102923 -0.009779 -111495.000000 0 0 1
-23.494805 -16.871486 21.793471 36.216133 0.622767 0.925092 0.093820 -0.009841 -203729.000000 0 0 1
-23.110105 -16.238486 20.456671 34.874644 0.612507 0.943970 0.107687 -0.010565 -180542.000000 0 0 1
-21.979005 -15.400786 20.415171 33.720025 0.611199 0.920488 0.105467 -0.008127 -327038.000000 0 0 1
-21.644905 -15.082786 19.073371 32.554352 0.608594 0.944815 0.099219 -0.009027 778132.000000 0 0 1
-20.353705 -14.218486 18.814271 31.151492 0.609766 0.922335 0.081378 -0.020489 737099.000000 0 0 1
-20.202605 -13.916086 17.435871 30.096716 0.603187 0.952892 0.084303 -0.011855 60764.100000 0 0 1
-19.074805 -13.090386 17.201871 28.828992 0.601449 0.931431 0.085630 -0.028717 -211456.000000 0 0 1
-18.813805 -12.942686 15.629071 27.672012 0.602583 0.970609 0.075058 -0.030801 143542.000000 0 0 1
-18.305505 -11.700186 15.114671 26.465811 0.568719 0.962949 0.077284 -0.038649 180842.000000 0 0 1
-17.020505 -11.303686 15.535371 25.667463 0.586239 0.920710 0.083262 -0.045508 -200401.000000 0 0 1
-16.602505 -9.934486 14.933871 24.440902 0.539222 0.913448 0.095160 -0.055613 78333.200000 0 1 0
-17.453005 -8.893486 15.321771 24.868819 0.471272 0.907010 0.106364 -0.047081 52979.900000 0 1 0
-17.031605 -7.786286 14.578171 23.732360 0.428798 0.909331 0.103054 -0.045906 -793245.000000 0 1 0
-17.293005 -6.482386 15.394871 24.043116 0.358644 0.875904 0.097335 -0.036018 104347.000000 0 1 0
-16.468005 -6.409486 16.514571 24.186934 0.371169 0.819223 0.081194 -0.022661 294237.000000 0 1 0
-15.078905 -6.284586 16.219171 23.020228 0.394888 0.788991 0.083246 -0.026504 -512036.000000 0 1 0
-14.155405 -6.231986 17.435571 23.306915 0.414720 0.725624 0.068813 -0.027202 -93219.700000 0 1 0
-14.327105 -7.297186 18.373071 24.414844 0.471082 0.718890 0.047649 -0.026258 204562.000000 0 1 0
-13.752505 -8.554686 17.944271 24.172524 0.556472 0.734238 0.064146 -0.023744 -163333.000000 0 1 0
-13.782105 -9.586986 19.079071 25.413927 0.607774 0.721626 0.044222 -0.029644 408730.000000 0 0 1
-15.053005 -10.185386 19.262171 26.483321 0.594872 0.756370 0.045069 -0.026392 -245872.000000 0 0 1
-15.891105 -9.464386 20.124971 27.333428 0.537161 0.743245 0.028732 -0.014444 -552120.000000 0 0 1
-17.293505 -10.146586 20.278071 28.516989 0.530604 0.779753 0.038005 -0.014306 1529450.000000 0 0 1
-18.175205 -10.129286 19.070571 28.224585 0.508441 0.828920 0.060848 -0.022929 1019200.000000 0 0 1
-18.516805 -8.864186 18.522671 27.650230 0.446471 0.836733 0.065206 -0.026191 203052.000000 0 0 1
-19.734705 -8.994886 17.488271 27.860477 0.427659 0.892190 0.102854 -0.028275 2100840.000000 0 0 1
-21.009905 -9.125786 18.197071 29.254563 0.409769 0.899470 0.100680 -0.030959 293577.000000 0 0 1
-22.013605 -9.160886 17.265171 29.438186 0.394348 0.944079 0.136470 -0.043283 -655151.000000 0 0 1
-23.427505 -9.487686 17.782371 30.904318 0.384793 0.957702 0.134908 -0.038535 85905.700000 0 0 1
-23.985005 -8.406886 18.524871 31.450390 0.337125 0.940952 0.132953 -0.027538 -50854.600000 0 0 1
-25.323355 -8.613386 18.880571 32.740475 0.327860 0.956145 0.130775 -0.018018 -256689.000000 0 0 1
-26.063415 -7.409586 19.558571 33.417679 0.276983 0.945576 0.130170 -0.023343 74139.600000 0 0 1
-25.816725 -7.358686 20.919071 34.033235 0.277672 0.908834 0.147642 -0.026160 294604.000000 0 0 1
-26.522725 -6.270586 21.502171 34.714817 0.232160 0.902825 0.126761 -0.020488 -478351.000000 0 0 1
-26.448915 -6.245586 23.037871 35.627180 0.231890 0.867628 0.116539 -0.018454 302458.000000 0 0 1
-25.253385 -5.912986 23.728231 35.152892 0.230003 0.829831 0.106712 -0.026769 485233.000000 0 0 1
-24.202905 -6.886186 23.614401 34.508551 0.277194 0.817145 0.113093 -0.023615 -430125.000000 0 0 1
-23.206505 -6.792086 24.731101 34.587594 0.284728 0.774132 0.097621 -0.018518 -313966.000000 0 0 1
-22.417905 -5.606586 24.723981 33.841860 0.245067 0.751634 0.087516 -0.019430 553371.000000 0 0 1
-21.684405 -5.362286 25.940921 34.233009 0.242424 0.710900 0.082705 -0.026417 515348.000000 0 0 1
-21.243605 -3.840986 26.039171 33.824286 0.178874 0.692211 0.085969 -0.026348 345694.000000 0 0 1
-20.249905 -3.535086 27.020381 33.950795 0.172831 0.650355 0.063569 -0.022583 279871.000000 0 0 1
-20.708705 -3.450386 28.380271 35.301493 0.165099 0.636906 0.075692 -0.022215 570331.000000 0 0 1
-21.672405 -2.231586 28.750871 36.073338 0.102607 0.648465 0.088841 -0.027656 890194.000000 0 0 1
-22.917305 -2.365186 28.086511 36.326975 0.102841 0.686990 0.095412 -0.030511 -376380.000000 0 0 1
-23.825705 -1.403386 28.590081 37.242804 0.058834 0.695603 0.095201 -0.029284 -43329.700000 0 0 1
-25.130975 -1.265086 27.820891 37.512242 0.050297 0.735272 0.102960 -0.032546 -961038.000000 0 0 1
-24.939605 -0.465386 26.640481 36.495421 0.018658 0.752522 0.110613 -0.033845 -136281.000000 0 0 1
-26.079585 -0.142586 25.889961 36.748540 0.005467 0.789054 0.101973 -0.031837 -661916.000000 0 0 1
-26.926945 -1.259986 25.328181 36.988710 0.046759 0.816530 0.094207 -0.030164 -361548.000000 0 0 1
-27.850735 -1.827586 26.269111 38.328445 0.065527 0.815687 0.080365 -0.030539 202453.000000 0 0 1
-28.193395 -3.156986 25.992341 38.476433 0.111512 0.829100 0.073266 -0.025607 88429.900000 0 0 1
-27.064505 -4.212486 26.146971 37.866827 0.154407 0.808619 0.077279 -0.029485 305917.000000 0 0 1
-26.555845 -4.345986 27.483301 38.463390 0.162217 0.774842 0.065493 -0.025077 -536089.000000 0 0 1
-25.481625 -5.218586 27.493131 37.847313 0.202005 0.757695 0.088468 -0.025823 -460646.000000 0 0 1
-25.089405 -5.698186 28.898191 38.691769 0.223327 0.727436 0.061757 -0.015613 -228203.000000 0 0 1
-26.122215 -6.415386 29.519951 39.936885 0.240825 0.738966 0.066877 -0.013590 -28950.600000 0 0 1
-25.851115 -6.851886 30.812631 40.800082 0.259094 0.714822 0.051472 -0.003626 -183081.000000 0 0 1
-27.143215 -7.396686 31.465411 42.208260 0.266046 0.729542 0.038711 -0.003327 303633.000000 0 0 1
-27.758875 -8.476086 30.718741 42.261569 0.296355 0.757040 0.043698 -0.003953 1207220.000000 0 0 1
-29.115815 -8.593286 31.220551 43.546505 0.286994 0.771383 0.035128 -0.002543 1162250.000000 0 0 1
-30.087055 -9.327986 30.284091 43.696320 0.300636 0.805074 0.031296 -0.011247 -64571.500000 0 0 1
-29.840885 -10.736986 30.232941 43.815431 0.345385 0.809298 0.043524 -0.008230 189479.000000 0 0 1
-30.859485 -11.455186 29.558791 44.240832 0.355439 0.839099 0.038758 -0.010451 149768.000000 0 0 1
-30.313075 -12.783286 28.964261 43.831762 0.399080 0.848905 0.040818 -0.019682 602148.000000 0 0 1
-29.333505 -12.434486 27.961311 42.389927 0.400939 0.850481 0.052307 -0.020487 -17833.800000 0 0 1
-28.528695 -13.512886 27.562731 41.906905 0.442354 0.853017 0.072442 -0.026475 -189948.000000 0 0 1
-27.248635 -12.954486 26.879281 40.407952 0.443789 0.843038 0.071019 -0.023162 506704.000000 0 0 1
-26.278245 -12.260686 27.718091 40.114376 0.436549 0.807957 0.059431 -0.019157 544971.000000 0 0 1
-26.671025 -11.045586 28.382651 40.483619 0.392638 0.793872 0.063196 -0.020925 -836665.000000 0 0 1
-26.787775 -9.785986 27.452591 39.585290 0.350253 0.804454 0.076386 -0.017097 754144.000000 0 0 1
-25.606165 -9.320186 26.757861 38.190636 0.349076 0.794503 0.063644 -0.022287 752503.000000 0 0 1
-25.032905 -10.085786 25.681861 37.254898 0.383005 0.810198 0.058621 -0.025901 -33518.500000 0 0 1
-25.811085 -10.040386 24.376891 36.895180 0.370984 0.849037 0.088622 -0.020844 265285.000000 0 0 1
-27.136635 -10.565786 24.422891 38.006715 0.371296 0.872917 0.083289 -0.020488 167338.000000 0 0 1
-27.719565 -10.570486 23.137061 37.622241 0.364314 0.908431 0.111992 -0.013509 36484.000000 0 0 1
-29.001255 -11.443286 23.047171 38.771042 0.375824 0.934224 0.104685 -0.017947 1064410.000000 0 0 1
-30.197065 -10.937386 23.679831 39.902676 0.347502 0.935471 0.097878 -0.022002 643138.000000 0 0 1
-30.175915 -11.010286 25.119711 40.777593 0.349860 0.907119 0.096157 -0.021136 388158.000000 0 0 1
-31.588565 -10.729386 25.790491 42.167601 0.327434 0.912691 0.047255 -0.014135 786072.000000 0 0 1
-32.056445 -9.397386 25.651991 42.118300 0.285162 0.915939 0.056071 -0.022343 183067.000000 0 0 1
-33.389055 -9.097386 26.059301 43.320649 0.266009 0.925363 0.050267 -0.015756 592340.000000 0 0 1
-33.770025 -9.186586 27.558751 44.545401 0.265606 0.903752 0.039151 -0.010273 -209590.000000 0 0 1
-34.013575 -10.524186 28.041651 45.321253 0.300069 0.903670 0.035380 -0.019151 -107551.000000 0 0 1
-34.881632 -10.393586 29.122311 46.613988 0.289591 0.895979 0.046433 -0.020066 -1202530.000000 0 0 1
-35.272068 -11.770686 29.810201 47.658325 0.322091 0.895026 0.053816 -0.019227 -244109.000000 0 0 1
-36.337325 -12.397786 29.164121 48.214648 0.328801 0.921180 0.041899 -0.021662 -275394.000000 0 0 1
36.321129 -11.829386 29.491091 48.258504 -0.314855 0.913338 0.048126 -0.018574 -584527.000000 0 0 1
35.055879 -12.410886 28.819801 47.048120 -0.340262 0.911501 0.039163 -0.019433 296240.000000 0 0 1
34.840179 -11.897886 27.511831 45.959749 -0.329082 0.929035 0.041758 -0.017295 330432.000000 0 0 1
33.709709 -12.504586 26.866941 44.883645 -0.355214 0.929055 0.049514 -0.009940 207196.000000 0 0 1
33.570479 -12.038286 25.395771 43.781760 -0.344313 0.952002 0.050192 -0.016686 183812.000000 0 0 1
33.054959 -10.698286 25.222311 42.933071 -0.313012 0.942855 0.075511 -0.031094 128334.000000 0 0 1
33.302979 -10.294586 23.939021 42.286447 -0.299802 0.969010 0.061035 -0.027606 -78682.400000 0 0 1
32.918899 -8.782686 23.668501 41.484785 -0.260725 0.963640 0.110865 -0.015053 436589.000000 0 0 1
31.515449 -8.570686 23.753161 40.384314 -0.265530 0.941992 0.123379 -0.027371 28797.600000 0 0 1
31.309169 -7.250586 23.280731 39.684096 -0.227569 0.943879 0.137721 -0.024888 -83078.700000 0 0 1
29.821969 -6.917786 23.001971 38.292248 -0.227938 0.926426 0.128699 -0.019211 194447.000000 0 0 1
29.309119 -7.548086 21.861571 37.335323 -0.252057 0.945242 0.124717 -0.019246 -538680.000000 0 0 1
27.987889 -7.166986 21.620571 36.085131 -0.250688 0.928352 0.126774 -0.030782 -633589.000000 0 0 1
14.434495 -16.849786 26.565221 34.611860 -0.862450 0.695836 0.065447 -0.020214 143276.000000 0 0 1
13.794195 -17.997586 26.081981 34.560999 -0.916852 0.715653 0.045311 -0.013581 396817.000000 0 0 1
14.844795 -18.923486 25.952691 35.383731 -0.905601 0.747392 0.059504 -0.011046 -92279.300000 0 0 1
14.356795 -20.393386 25.930831 35.977989 -0.957396 0.765925 0.039183 -0.017878 -61944.400000 0 0 1
13.837295 -20.869786 27.137551 36.925132 -0.985316 0.745226 0.051887 -0.013374 954570.000000 0 0 1
12.426595 -20.632186 27.310271 36.413709 -1.028693 0.722735 0.059993 -0.014821 608341.000000 0 0 1
11.883495 -21.245686 28.659501 37.602707 -1.060813 0.704144 0.056973 -0.012392 -160764.000000 0 0 1
12.121295 -20.631386 29.903611 38.298901 -1.039606 0.674858 0.058956 -0.021374 -137094.000000 0 0 1
11.176095 -19.705486 30.406901 37.918213 -1.054877 0.640315 0.055595 -0.026581 -601895.000000 0 0 1
11.171095 -18.265586 29.837941 36.725028 -1.021897 0.622422 0.052282 -0.022991 449125.000000 0 0 1
12.329195 -17.446286 29.983181 36.815392 -0.955591 0.619068 0.045552 -0.012978 -45076.700000 0 0 1
12.010595 -16.173486 29.571311 35.781258 -0.932042 0.598029 0.047434 -0.012630 284990.000000 0 0 1
13.053995 -15.067586 29.932731 35.963972 -0.856879 0.587556 0.048427 -0.016125 590054.000000 0 0 1
12.548295 -13.805486 29.490861 34.896447 -0.833066 0.564051 0.073084 -0.017685 440514.000000 0 0 1
13.460895 -12.805186 29.926351 35.224352 -0.760439 0.555584 0.071396 -0.016632 19684.100000 0 0 1
12.964895 -11.387186 29.745331 34.388097 -0.720701 0.525668 0.071544 -0.012130 -206997.000000 0 0 1
13.133295 -10.820786 28.482011 33.178273 -0.689157 0.538549 0.089089 -0.013614 104382.000000 0 0 1
14.441995 -10.619786 27.967631 33.219564 -0.634053 0.569997 0.099378 -0.018513 -371471.000000 0 0 1
14.625095 -9.636386 26.816491 32.029323 -0.582602 0.578565 0.098414 -0.010427 -74739.300000 0 0 1
14.875895 -8.283686 27.298481 32.173261 -0.508089 0.557683 0.095693 -0.011859 -477891.000000 0 0 1
16.254195 -8.185086 27.500801 32.977091 -0.466498 0.584593 0.098399 -0.019549 -1177860.000000 0 0 1
16.771995 -6.733686 27.745981 33.113166 -0.381785 0.577347 0.092125 -0.018641 -946665.000000 0 0 1
18.141095 -6.572686 27.710011 33.766022 -0.347598 0.608253 0.088315 -0.025317 -945364.000000 0 0 1
18.498695 -5.237886 27.339261 33.422632 -0.275926 0.612894 0.087342 -0.021415 -842686.000000 0 0 1
19.970695 -4.998186 27.094971 34.028634 -0.245238 0.649741 0.073223 -0.018840 -1581020.000000 0 0 1
20.470395 -5.698886 25.995701 33.575152 -0.271521 0.685261 0.073956 -0.020251 918532.000000 0 0 1
21.886995 -5.611086 25.755651 34.261908 -0.250961 0.720117 0.075436 -0.018436 1248030.000000 0 0 1
22.879595 -6.124886 26.850841 35.804437 -0.261568 0.722839 0.074719 -0.019613 -435037.000000 0 0 1
23.371795 -5.010986 27.615431 36.523455 -0.211206 0.713461 0.073591 -0.013140 -81526.900000 0 0 1
24.243495 -5.469686 28.618631 37.903701 -0.221899 0.715088 0.092093 -0.025676 2956.250000 0 0 1
25.063395 -4.321886 29.311811 38.807663 -0.170759 0.714670 0.095696 -0.018594 75141.300000 0 0 1
25.983095 -3.751386 28.390171 38.667763 -0.143387 0.746297 0.087135 -0.009620 12091.700000 0 0 1
26.464195 -2.554186 28.913501 39.279358 -0.096217 0.743507 0.070448 -0.018887 -214906.000000 0 0 1
27.309295 -1.687286 27.936841 39.103856 -0.061706 0.774992 0.075190 -0.021573 -689460.000000 0 0 1
28.644795 -2.043186 27.980641 40.095076 -0.071208 0.798395 0.091550 -0.019459 -945506.000000 0 0 1
29.378195 -1.361986 26.939051 39.882901 -0.046327 0.829217 0.091454 -0.013591 855914.000000 0 0 1
30.857595 -1.122586 27.385801 41.272672 -0.036364 0.845264 0.085934 -0.010788 359397.000000 0 0 1
30.912395 -0.100186 28.356061 41.948211 -0.003241 0.828506 0.067371 -0.003378 -916548.000000 0 0 1
32.163295 0.045014 28.907041 43.244613 0.001400 0.838668 0.074396 -0.004570 -824366.000000 0 0 1
32.458895 1.353414 29.645461 43.980279 0.041672 0.831101 0.078646 -0.013329 57267.300000 0 0 1
32.529295 2.572214 28.897151 43.586886 0.078910 0.846007 0.074417 -0.017770 40548.100000 0 0 1
32.902895 3.619314 29.732711 44.494202 0.109559 0.838959 0.075368 -0.009725 -20332.500000 0 0 1
32.813395 5.068314 29.120911 44.163720 0.153248 0.850795 0.083277 -0.010021 -116787.000000 0 0 1
32.953895 6.165114 29.978351 44.974096 0.184945 0.841199 0.088923 -0.009948 240763.000000 0 0 1
31.810595 6.445114 30.765821 44.721238 0.199903 0.812140 0.084672 -0.013692 -352954.000000 0 0 1
32.098795 7.359514 31.947631 45.881872 0.225382 0.800564 0.057682 -0.020010 313562.000000 0 0 1
32.971795 6.814514 32.953915 47.111966 0.203808 0.796126 0.056792 -0.009669 583082.000000 0 0 1
33.030795 7.642314 -34.019694 48.028928 0.227369 2.357907 0.058457 -0.019535 28463.100000 0 0 1
33.689395 7.052614 -32.718789 47.489302 0.206362 2.330866 0.053728 -0.011700 -180292.000000 0 0 1
32.938795 6.079414 -32.049049 46.358009 0.182513 2.334135 0.028886 -0.009358 101828.000000 0 0 1
33.144495 4.770114 -32.513779 46.673947 0.142937 2.341465 0.050475 0.001286 -254269.000000 0 0 1
32.771895 3.753014 -31.428789 45.561507 0.114023 2.332023 0.043422 -0.000703 -242168.000000 0 0 1
32.909295 2.425714 -31.930249 45.917824 0.073576 2.339742 0.044524 -0.000612 305636.000000 0 0 1
33.025695 1.445914 -30.888859 45.242776 0.043754 2.322297 0.024018 -0.004961 -30896.500000 0 0 1
33.042995 -0.020886 -31.330159 45.534808 -0.000632 2.329593 0.029650 -0.016874 -65982.900000 0 0 1
34.176595 -0.328686 -32.136129 46.913521 -0.009617 2.325411 0.030228 -0.015100 268509.000000 0 0 1
34.679495 -1.652286 -32.063909 47.259831 -0.047608 2.316461 0.026654 -0.014522 127933.000000 0 0 1
35.622795 -1.924786 -30.904789 47.199515 -0.053980 2.284674 0.033934 -0.014733 -219162.000000 0 0 1
34.885595 -2.018386 -29.704719 45.863372 -0.057793 2.275330 0.038232 -0.016605 282512.000000 0 0 1
35.792595 -1.822486 -28.621419 45.865203 -0.050874 2.244690 0.064845 -0.021155 250421.000000 0 0 1
35.072795 -1.779786 -27.236679 44.442156 -0.050702 2.230467 0.056919 -0.022989 59289.900000 0 0 1
34.488695 -0.484086 -27.185539 43.917626 -0.014035 2.238280 0.028305 -0.015574 480983.000000 0 0 1
33.672095 -0.185986 -26.055179 42.576013 -0.005523 2.229344 0.022804 -0.007858 195308.000000 0 0 1
33.019995 1.213814 -26.078509 42.093729 0.036743 2.238946 -0.004061 0.002572 11143.200000 0 0 1
32.169895 1.580914 -27.152479 42.126696 0.049103 2.271222 0.009166 -0.008643 421227.000000 0 0 1
31.545895 2.807314 -26.893829 41.548797 0.088758 2.274811 0.011796 0.004890 235649.000000 0 0 1
30.683795 3.276414 -28.122629 41.750597 0.106377 2.309847 0.028969 -0.002332 -110631.000000 0 0 1
29.831995 4.354614 -27.893609 41.072667 0.144948 2.317371 0.030443 -0.000270 -169278.000000 0 0 1
29.111295 4.657114 -29.052939 41.391176 0.158632 2.348874 0.043686 -0.003670 -237896.000000 0 0 1
27.873795 5.502214 -28.690729 40.377973 0.194892 2.361081 0.046999 -0.013261 -643747.000000 0 0 1
26.821195 4.855314 -28.042699 39.106822 0.179086 2.370399 0.061542 -0.013379 -74637.600000 0 0 1
25.832295 5.780914 -27.682209 38.301842 0.220159 2.378553 0.061631 -0.019142 -1170590.000000 0 0 1
24.486595 5.167214 -27.396559 37.106129 0.207971 2.401387 0.068407 -0.011978 -951586.000000 0 0 1
23.711995 4.997514 -28.579669 37.470406 0.207719 2.438315 0.073016 -0.021367 1154090.000000 0 0 1
22.463195 4.339614 -28.238789 36.343590 0.190837 2.460674 0.071400 -0.021628 1409290.000000 0 0 1
21.470795 4.060314 -29.438579 36.662121 0.186902 2.503058 0.068905 -0.028503 478913.000000 0 0 1
21.774695 2.828114 -30.090569 37.250206 0.129158 2.511200 0.066620 -0.030500 60083.900000 0 0 1
20.968295 2.523714 -31.199269 37.675362 0.119782 2.546520 0.059086 -0.032921 -259495.000000 0 0 1
21.305495 3.329314 -32.536149 39.033440 0.155012 2.556291 0.054069 -0.026110 334397.000000 0 0 1
22.543195 2.859814 -33.054839 40.112299 0.126185 2.539333 0.062866 -0.021563 7046.100000 0 0 1
22.962395 3.666014 33.911716 41.118314 0.158317 0.601063 0.056386 -0.023474 -59643.500000 0 0 1
24.351395 3.141114 33.493118 41.528857 0.128283 0.632584 0.069390 -0.007437 4499.960000 0 0 1
24.321695 1.887814 32.864691 40.929165 0.077463 0.638543 0.086840 -0.015785 -737856.000000 0 0 1
25.616295 1.393314 32.811275 41.649918 0.054338 0.663588 0.100439 -0.018997 -771432.000000 0 0 1
25.726695 -0.063886 32.431626 41.396585 -0.002483 0.670619 0.077678 -0.016560 -895393.000000 0 0 1
25.189195 -0.465486 31.207701 40.107765 -0.018477 0.679167 0.077802 -0.019923 559326.000000 0 0 1
23.776095 -0.645186 31.125781 39.173118 -0.027129 0.652497 0.097681 -0.023976 360998.000000 0 0 1
23.040495 -1.549986 32.120559 39.560045 -0.067171 0.623321 0.096999 -0.036688 -1006250.000000 0 0 1
23.289695 -2.901886 31.832821 39.549454 -0.123961 0.635312 0.100137 -0.043058 360354.000000 0 0 1
22.599095 -3.782886 32.732410 39.955475 -0.165853 0.610743 0.100346 -0.039817 226602.000000 0 0 1
22.545995 -5.181086 32.173268 39.626818 -0.225879 0.623386 0.095487 -0.036614 838693.000000 0 0 1
23.834495 -5.784086 32.395153 40.632311 -0.238075 0.648028 0.105428 -0.026933 609775.000000 0 0 1
23.828495 -7.162586 32.107807 40.620328 -0.291997 0.659274 0.114658 -0.035238 -162713.000000 0 0 1
25.196795 -7.856686 31.971371 41.458106 -0.302259 0.690115 0.095171 -0.028554 156896.000000 0 0 1
25.794695 -7.652386 30.691031 40.815005 -0.288394 0.719774 0.113193 -0.032281 110412.000000 0 0 1
27.053095 -8.248386 30.422571 41.538399 -0.295943 0.748962 0.101793 -0.026757 329238.000000 0 0 1
27.358895 -8.132386 28.964121 40.664052 -0.288930 0.778058 0.106113 -0.026101 114957.000000 0 0 1
26.380295 -8.720186 28.112111 39.525338 -0.319250 0.779532 0.096018 -0.025763 -67398.000000 0 0 1
26.732895 -8.594686 26.764481 38.792444 -0.311065 0.809389 0.114634 -0.021600 75214.600000 0 0 1
25.839795 -9.449686 25.857951 37.757452 -0.350595 0.816407 0.088607 -0.030212 -1352880.000000 0 0 1
24.623795 -8.944186 25.533081 36.582345 -0.348415 0.798249 0.094973 -0.034524 -1546600.000000 0 0 1
23.936795 -9.808886 24.650521 35.732794 -0.388911 0.809505 0.109300 -0.038412 -190306.000000 0 0 1
22.588095 -9.205286 24.215831 34.371002 -0.386979 0.789018 0.070146 -0.029701 -604077.000000 0 0 1
21.664795 -9.366386 25.246711 34.561379 -0.408065 0.751758 0.062546 -0.016336 -793971.000000 0 0 1
20.441895 -8.824186 24.806061 33.332836 -0.407508 0.731471 0.065634 -0.017148 -171291.000000 0 0 1
19.316995 -8.740786 25.848971 33.432274 -0.424924 0.686965 0.070173 -0.014930 -752337.000000 0 0 1
18.677495 -9.915986 26.265831 33.720460 -0.488065 0.677841 0.085788 -0.015840 -294558.000000 0 0 1
19.468495 -10.939786 26.813291 34.894896 -0.511951 0.694457 0.076822 -0.018235 -661715.000000 0 0 1
18.713395 -11.956586 27.693591 35.497691 -0.568555 0.675888 0.079130 -0.023804 393961.000000 0 0 1
17.811295 -12.780986 26.907461 34.707453 -0.622426 0.683662 0.086082 -0.023152 901515.000000 0 0 1
17.069995 -13.685586 27.747641 35.335698 -0.675797 0.667684 0.086753 -0.019895 -33516.100000 0 0 1
17.889095 -14.850686 28.312551 36.635544 -0.692858 0.687529 0.090635 -0.014225 -596488.000000 0 0 1
17.143195 -15.694786 29.187421 37.311137 -0.741319 0.672493 0.074412 -0.008336 118270.000000 0 0 1
17.732195 -16.897986 29.673611 38.477212 -0.761314 0.690073 0.085373 -0.015446 -700569.000000 0 0 1
18.050295 -17.994586 28.624461 38.327249 -0.783853 0.727493 0.077102 -0.010528 -179317.000000 0 0 1
19.007495 -17.582686 27.683141 37.905039 -0.746478 0.751993 0.083918 -0.014981 185326.000000 0 0 1
19.289895 -18.644786 26.765901 37.896458 -0.768394 0.786552 0.071684 -0.007979 -453044.000000 0 0 1
20.417595 -18.370486 25.777491 37.667386 -0.732670 0.817091 0.076284 -0.014248 -831362.000000 0 0 1
21.663095 -18.298186 26.400871 38.744280 -0.701392 0.821104 0.107526 -0.016571 -185604.000000 0 0 1
22.568395 -17.552786 25.572111 38.358383 -0.661032 0.841074 0.101188 -0.017313 36617.800000 0 0 1
23.990395 -17.340586 26.089141 39.457296 -0.625874 0.848380 0.093916 -0.018926 -587235.000000 0 0 1
24.774295 -18.469686 26.046651 40.414391 -0.640627 0.870441 0.084793 -0.019384 -396609.000000 0 0 1
26.121395 -18.193786 26.329731 41.310965 -0.608379 0.879736 0.085251 -0.021251 -25173.300000 0 0 1
27.056495 -19.417786 26.495101 42.556958 -0.622491 0.898761 0.061642 -0.019908 -9067.350000 0 0 1
26.792395 -20.289586 27.605861 43.492336 -0.648150 0.883138 0.072229 -0.010965 -156181.000000 0 0 1
27.728395 -21.318486 27.733041 44.637017 -0.655445 0.900394 0.060418 -0.013104 -127406.000000 0 0 1
27.251995 -22.466286 28.651701 45.478843 -0.689437 0.889242 0.053541 -0.001160 63301.300000 0 0 1
27.050795 -22.167686 30.001481 46.078635 -0.686509 0.861773 0.062479 -0.005810 113980.000000 0 0 1
26.328995 -23.235086 30.606231 46.581397 -0.723057 0.853900 0.068031 -0.001391 -175783.000000 0 0 1
25.994795 -23.056386 32.091602 47.299019 -0.725565 0.825100 0.058512 -0.002276 -84319.300000 0 0 1
25.612895 -24.257986 32.716031 48.112461 -0.758237 0.823046 0.048412 -0.002305 119746.000000 0 0 1
25.346695 -24.139186 -33.943749 48.757905 -0.761002 2.340844 0.050529 0.001060 -286948.000000 0 0 1
25.281195 -25.465966 -33.226179 48.904326 -0.789039 2.317757 0.050863 -0.001074 937511.000000 0 0 1
24.151695 -26.363966 -33.460399 48.968983 -0.829164 2.323066 0.069670 -0.010322 733460.000000 0 0 1
23.892995 -26.843896 33.261554 48.967345 -0.843494 0.824043 0.053529 -0.009658 1077280.000000 0 0 1
22.513495 -27.648496 33.227035 48.737384 -0.887411 0.820635 0.074692 -0.012575 1315040.000000 0 0 1
22.559495 -29.029586 33.514398 49.747990 -0.910163 0.831615 0.079842 -0.022644 201114.000000 0 0 1
21.211895 -29.461306 33.602348 49.467472 -0.946779 0.824013 0.100305 -0.027575 -17991.100000 0 0 1
21.020095 -30.963536 -34.027979 50.581501 -0.974395 2.308696 0.071193 -0.029074 -194158.000000 0 0 1
21.529595 -31.422226 -32.789759 50.259805 -0.970092 2.281550 0.059750 -0.032417 1170450.000000 0 0 1
22.881095 -31.916786 -32.981889 51.283825 -0.948819 2.269368 0.038054 -0.022562 358071.000000 0 0 1
23.437095 -32.579786 -31.795299 51.202352 -0.947185 2.240780 0.030836 -0.027021 700175.000000 0 0 1
24.748595 -33.134446 -32.188019 52.406612 -0.929273 2.232165 0.025595 -0.017464 1560140.000000 0 0 1
25.386495 -33.744336 -31.108749 52.449104 -0.925813 2.205728 0.020708 -0.020104 -53902.000000 0 0 1
26.275495 -32.860436 -30.205579 51.793695 -0.896294 2.193447 0.022688 -0.028122 -497034.000000 0 0 1
26.546195 -33.481746 -28.975169 51.626429 -0.900427 2.166688 0.040759 -0.025518 -52726.000000 0 0 1
27.130995 -32.504296 -28.139819 50.837678 -0.875258 2.157385 0.044871 -0.020979 -730685.000000 0 0 1
27.409495 -33.104356 -26.716669 50.605920 -0.879230 2.126964 0.055532 -0.025314 22249.800000 0 0 1
28.490995 -33.985666 -26.496519 51.660698 -0.873120 2.109350 0.052174 -0.009460 498003.000000 0 0 1
29.746395 -33.318596 -26.341869 51.854323 -0.841981 2.103655 0.056607 -0.026395 308311.000000 0 0 1
-27.307665 -30.651282 9.589941 42.156573 0.843024 1.341303 0.050438 -0.015673 -102176.000000 0 0 1
-27.114225 -31.960982 10.137241 43.121332 0.867259 1.333489 0.060250 -0.016265 12254.800000 0 0 1
-25.907765 -32.100482 10.869841 42.659193 0.891751 1.313149 0.053529 -0.011632 52872.500000 0 0 1
-25.838065 -33.164582 12.020941 43.726401 0.908938 1.292297 0.050830 -0.007895 -8968.930000 0 0 1
-25.988885 33.529914 11.656641 43.994939 -0.911427 1.302640 0.051401 0.008427 -361388.000000 0 0 1
-27.313745 33.156314 11.404741 44.446035 -0.881718 1.311296 0.045592 -0.011187 -278255.000000 0 0 1
-27.299815 31.677514 11.017541 43.245012 -0.859489 1.313186 0.054436 -0.005365 200651.000000 0 0 1
-26.831495 31.332114 9.717341 42.379916 -0.862623 1.339447 0.081473 -0.019567 -198705.000000 0 0 1
-26.946715 29.985414 9.406241 41.397197 -0.838722 1.341575 0.098583 -0.016387 51360.400000 0 0 1
-26.271485 29.443014 8.115441 40.285760 -0.842261 1.367961 0.074452 -0.001585 71897.400000 0 0 1
-24.869405 29.296614 8.167041 39.287142 -0.866951 1.361388 0.057204 0.001855 4211.120000 0 0 1
-24.337105 28.998814 6.908141 38.483092 -0.872579 1.390307 0.043320 0.004060 -250885.000000 0 0 1
-22.998805 28.245314 6.899541 37.072180 -0.887425 1.383594 0.071043 0.008300 -189992.000000 0 0 1
-23.030005 26.879714 7.093041 36.100020 -0.862379 1.373027 0.067389 -0.003303 32953.300000 0 0 1
-23.477405 26.170114 5.980341 35.662697 -0.839582 1.402308 0.054979 -0.004582 -556221.000000 0 0 1
-23.723605 24.742414 6.309341 34.854043 -0.806416 1.388771 0.073185 0.002330 -717431.000000 0 0 1
-24.851405 24.584714 7.121841 35.675218 -0.780004 1.369816 0.099586 -0.006826 -101466.000000 0 0 1
-25.095915 23.270014 7.582141 35.054064 -0.747664 1.352775 0.114104 -0.022048 -231813.000000 0 0 1
-25.696845 22.323314 6.579941 34.669206 -0.715261 1.379846 0.112475 -0.034994 -902639.000000 0 0 1
-27.023375 22.580614 6.200341 35.757394 -0.696072 1.396515 0.119699 -0.040271 -139341.000000 0 0 1
-27.307905 22.065914 4.915941 35.451273 -0.679625 1.431680 0.105241 -0.037566 -25722.300000 0 0 1
-27.191385 23.113814 3.780641 35.887506 -0.704518 1.465253 0.094005 -0.039563 -872321.000000 0 0 1
-25.855335 23.450514 3.646441 35.095890 -0.736663 1.466709 0.086704 -0.035480 -547074.000000 0 0 1
-25.619015 24.250914 2.505241 35.365478 -0.757972 1.499898 0.066594 -0.026743 -301528.000000 0 0 1
-24.183505 24.787914 2.518741 34.722135 -0.797740 1.498193 0.050966 -0.020313 -128421.000000 0 0 1
-23.805805 25.572714 1.398641 34.966216 -0.821166 1.530786 0.032712 -0.019793 579265.000000 0 0 1
-22.435705 25.990514 1.513941 34.368005 -0.858673 1.526731 0.029539 -0.018189 341425.000000 0 0 1
-21.793305 26.681814 0.244841 34.451812 -0.885904 1.563689 0.036118 -0.017761 213607.000000 0 0 1
-21.482205 25.880914 -0.895259 33.646818 -0.878005 1.597407 0.037847 -0.014923 -307983.000000 0 0 1
-20.477905 24.946414 -0.676859 32.281982 -0.883455 1.591765 0.042476 -0.021778 -627054.000000 0 0 1
-20.195005 24.030114 -1.885159 31.445802 -0.871900 1.630782 0.043692 -0.024977 768204.000000 0 0 1
-21.361105 23.209214 -2.043859 31.609205 -0.826839 1.635502 0.032263 -0.021772 528096.000000 0 0 1
-21.024105 22.300514 -3.077859 30.802584 -0.814851 1.670885 0.030866 -0.022352 43726.500000 0 0 1
-22.182205 21.821014 -3.979859 31.369510 -0.777190 1.698009 0.041810 -0.018680 71435.800000 0 0 1
-22.717405 22.730114 -4.937859 32.513398 -0.785678 1.723258 0.034138 -0.008704 -401044.000000 0 0 1
-23.758505 22.152014 -5.636759 32.968945 -0.750421 1.742612 0.028947 0.001748 -390578.000000 0 0 1
-24.006605 22.848714 -6.992359 33.871432 -0.760691 1.778730 0.030019 -0.003431 -109774.000000 0 0 1
-23.166005 22.355114 -7.993259 33.170878 -0.767587 1.814164 0.037133 -0.009090 -89373.100000 0 0 1
-23.409105 22.990314 -9.224159 34.082633 -0.776373 1.844855 0.038667 -0.011151 -517691.000000 0 0 1
-22.572405 22.553614 -10.397159 33.560094 -0.784982 1.885787 0.043068 -0.014997 -509339.000000 0 0 1
-22.910805 21.249114 -10.819959 33.068132 -0.747787 1.904137 0.040150 -0.018227 72575.000000 0 0 1
-22.353805 20.898614 -12.072259 32.896567 -0.751767 1.946553 0.041352 -0.015895 -384104.000000 0 0 1
-23.392205 20.754514 -13.163959 33.929853 -0.725721 1.969231 0.033330 -0.020313 -198125.000000 0 0 1
-24.091505 19.511914 -13.181659 33.687855 -0.680754 1.972827 0.040134 -0.013487 56079.900000 0 0 1
-25.307785 19.712814 -13.861359 34.945906 -0.661756 1.978663 0.046793 -0.020848 225910.000000 0 0 1
-26.252275 18.484914 -13.995459 35.024947 -0.613490 1.981861 0.083393 -0.023380 68394.100000 0 0 1
-25.886955 17.693614 -15.057659 34.784070 -0.599563 2.018492 0.077392 -0.020732 -115606.000000 0 0 1
-26.804155 16.659714 -15.326559 35.084359 -0.556104 2.022889 0.083671 -0.024766 -263684.000000 0 0 1
-26.557825 16.016414 -16.703359 35.225641 -0.542679 2.064831 0.096124 -0.022963 -60191.300000 0 0 1
-25.390625 15.260614 -16.497659 33.907860 -0.541179 2.078926 0.110616 -0.022198 -214426.000000 0 0 1
-24.810505 14.977814 -17.751059 33.985235 -0.543127 2.120362 0.099700 -0.021010 58415.300000 0 0 1
-24.037305 13.630114 -17.764359 32.850335 -0.515832 2.142144 0.094124 -0.025036 7096.630000 0 0 1
-22.814905 13.671714 -17.065059 31.601454 -0.539864 2.141244 0.099815 -0.033269 -225755.000000 0 0 1
-22.105705 12.486614 -17.216659 30.675578 -0.514180 2.166691 0.109485 -0.022008 645636.000000 0 0 1
-20.804705 12.335614 -16.332359 29.184741 -0.535201 2.164723 0.108626 -0.032242 882429.000000 0 0 1
-19.706705 13.144114 -16.734559 29.002887 -0.588224 2.185843 0.098495 -0.020884 20983.300000 0 0 1
-18.723005 13.039914 -15.737659 27.717579 -0.608349 2.174610 0.095716 -0.014314 -460989.000000 0 0 1
-17.565205 14.035114 -15.881959 27.527395 -0.674149 2.185787 0.090021 -0.016539 -585295.000000 0 0 1
-16.808905 13.797414 -17.032359 27.622621 -0.687319 2.235225 0.114383 -0.028696 -71183.700000 0 0 1
-16.023005 15.000914 -17.147659 27.853300 -0.752465 2.233997 0.107159 -0.014054 33583.400000 0 0 1
-15.228105 15.067714 -18.488559 28.297668 -0.780104 2.282810 0.123261 -0.017462 -430812.000000 0 0 1
-14.198405 14.145714 -18.571059 27.323619 -0.783539 2.318110 0.121477 -0.013661 -607359.000000 0 0 1
-13.305805 14.581114 -19.604959 27.820995 -0.831098 2.352771 0.135338 -0.016313 -630119.000000 0 0 1
-12.090205 13.701414 -19.628359 26.817425 -0.847787 2.391940 0.120600 -0.005756 -797024.000000 0 0 1
-12.405505 12.306514 -19.789159 26.399956 -0.781392 2.418240 0.136354 -0.014404 87510.200000 0 0 1
-11.233705 11.515614 -19.705959 25.438756 -0.797790 2.456947 0.101076 -0.002412 278311.000000 0 0 1
-11.464505 10.176114 -20.496859 25.595105 -0.725933 2.499446 0.115048 -0.016031 109239.000000 0 0 1
-11.390905 10.228014 -21.937759 26.751266 -0.731660 2.532320 0.135385 -0.025993 -246803.000000 0 0 1
-11.725205 9.060014 -22.572659 27.001652 -0.657869 2.560700 0.135674 -0.012626 -6491.280000 0 0 1
-11.583605 9.166714 -24.128359 28.291098 -0.669446 2.592236 0.123232 -0.016974 -579526.000000 0 0 1
-10.275105 9.356714 -24.558859 28.218140 -0.738652 2.626651 0.113489 -0.017720 -811221.000000 0 0 1
-9.988205 8.520314 -25.642879 28.808284 -0.706255 2.668408 0.081285 -0.019582 -89331.600000 0 0 1
-9.754105 9.378114 -26.941529 30.148591 -0.765748 2.676154 0.104676 -0.024985 -11090.900000 0 0 1
-8.486805 9.992614 -27.097169 30.102072 -0.866704 2.690970 0.076985 -0.024780 135715.000000 0 0 1
-8.275705 11.212414 -26.392209 29.845506 -0.934965 2.655777 0.060655 -0.017688 28389.700000 0 0 1
-6.783305 11.606714 -26.530459 29.742130 -1.041904 2.672582 0.053952 -0.022382 79081.100000 0 0 1
-6.458605 11.958814 -27.860069 30.998552 -1.075608 2.687715 0.063186 -0.039975 -91615.800000 0 0 1
-5.242305 12.650914 -27.981579 31.152787 -1.177954 2.686464 0.073028 -0.038294 -469080.000000 0 0 1
-4.665705 12.626714 -29.378169 32.315314 -1.216847 2.711938 0.076416 -0.037751 -596717.000000 0 0 1
-3.310005 12.989614 -29.433539 32.342223 -1.321287 2.714238 0.102282 -0.053247 -242868.000000 0 0 1
-2.768705 12.584814 -30.671059 33.267959 -1.354243 2.743856 0.105562 -0.052104 393907.000000 0 0 1
-1.220505 12.506114 -30.635129 33.111986 -1.473512 2.752352 0.136181 -0.063758 -123706.000000 0 0 1
-0.593705 11.427014 -29.937289 32.049499 -1.518887 2.776513 0.108325 -0.036560 666798.000000 0 0 1
0.798295 11.235214 -30.182249 32.215454 1.499863 2.784415 0.127139 -0.046778 551721.000000 0 0 1
1.333595 10.863614 -31.515429 33.361937 1.448650 2.807329 0.143831 -0.042186 -810971.000000 0 0 1
1.299295 11.924814 -32.420899 34.568830 1.462267 2.787222 0.149417 -0.052084 67744.600000 0 0 1
1.177095 11.349214 -33.690639 35.570344 1.467450 2.815045 0.161366 -0.049674 -176928.000000 0 0 1
1.667495 12.196814 33.184994 35.394726 1.434923 0.355223 0.143802 -0.048590 448972.000000 0 0 1
3.079195 12.451814 33.250908 35.639192 1.328371 0.368171 0.151655 -0.054629 556114.000000 0 0 1
3.494595 13.184014 32.091931 34.870080 1.311692 0.401877 0.146170 -0.046794 1142920.000000 0 0 1
5.059095 13.419014 32.074759 35.134805 1.210265 0.420450 0.146331 -0.044632 1057330.000000 0 0 1
5.752595 12.289714 31.596751 34.387266 1.133008 0.405639 0.155537 -0.049432 -584313.000000 0 0 1
7.101595 12.504414 31.330681 34.473245 1.054294 0.430300 0.142373 -0.037024 -371506.000000 0 0 1
7.806695 11.214114 30.804691 33.699107 0.962660 0.417489 0.116738 -0.029758 19571.000000 0 0 1
7.315995 10.762214 29.596951 32.331541 0.973767 0.414245 0.116022 -0.031608 97486.800000 0 0 1
8.113295 9.653814 29.177221 31.785719 0.871888 0.407953 0.102359 -0.023557 354269.000000 0 0 1
7.532195 8.816914 28.019911 30.324699 0.863817 0.392394 0.088392 -0.021349 -182654.000000 0 0 1
6.449595 8.021514 28.398261 30.206012 0.893599 0.347718 0.092660 -0.029695 -393967.000000 0 0 1
6.068595 7.168514 27.353951 28.921516 0.868301 0.330749 0.109627 -0.031743 -49099.800000 0 0 1
5.392695 5.917414 27.867041 28.994291 0.831759 0.279760 0.119247 -0.036347 -384247.000000 0 0 1
6.291895 5.181514 28.600251 29.739038 0.688920 0.277631 0.091901 -0.028866 -269584.000000 0 0 1
5.586595 4.378514 29.540601 30.381385 0.664756 0.235809 0.086574 -0.036902 132387.000000 0 0 1
6.416395 3.255914 30.214481 31.059394 0.469579 0.233784 0.097704 -0.035031 -4934.360000 0 0 1
6.306995 1.992514 29.569991 30.300704 0.305999 0.220059 0.083113 -0.027296 615585.000000 0 0 1
7.368895 1.696614 28.623451 29.605423 0.226296 0.258278 0.079404 -0.025628 557689.000000 0 0 1
7.134395 0.331414 27.993611 28.890339 0.046420 0.249804 0.056125 -0.026720 53827.200000 0 0 1
7.594295 -0.765686 28.776601 29.771670 -0.100484 0.259273 0.038848 -0.021200 41296.300000 0 0 1
7.449895 -2.010586 28.127631 29.166882 -0.263601 0.267749 0.037421 -0.019652 -372117.000000 0 0 1
7.987595 -3.164586 28.994211 30.240379 -0.377215 0.288080 0.042263 -0.012481 -430521.000000 0 0 1
9.360595 -2.998586 29.193271 30.803560 -0.310013 0.324771 0.050209 -0.016885 -330063.000000 0 0 1
10.124995 -4.199486 28.933871 30.940590 -0.393169 0.362134 0.050503 -0.011011 723420.000000 0 0 1
11.663295 -3.933286 29.035491 31.536691 -0.325259 0.400954 0.052119 -0.006785 897890.000000 0 0 1
12.575595 -4.955286 28.667661 31.694404 -0.375358 0.440585 0.070222 -0.006575 201901.000000 0 0 1
12.749695 -6.024386 29.584691 32.773493 -0.441417 0.444788 0.074997 -0.003659 -524171.000000 0 0 1
12.189095 -7.373286 29.072741 32.375355 -0.544021 0.455617 0.079046 -0.004249 -173799.000000 0 0 1
10.784995 -7.332386 29.012041 31.808466 -0.597087 0.422454 0.059267 -0.002252 -488526.000000 0 0 1
10.212395 -8.596686 28.681381 31.635702 -0.699708 0.435606 0.047429 -0.000065 1042660.000000 0 0 1
8.680595 -8.403686 28.338441 30.806523 -0.769191 0.403011 0.041817 -0.004624 792116.000000 0 0 1
8.093095 -7.980986 29.528111 31.640222 -0.778424 0.367451 0.050816 -0.010351 1044350.000000 0 0 1
6.714095 -7.547286 29.259381 30.954030 -0.843755 0.332428 0.039056 -0.012081 1877990.000000 0 0 1
5.997795 -6.879286 30.485311 31.822198 -0.853746 0.290891 0.037232 -0.022253 206062.000000 0 0 1
5.835395 -7.579786 31.689711 33.102005 -0.914704 0.293161 0.050319 -0.026319 -168821.000000 0 0 1
5.214495 -6.889086 32.704326 33.826371 -0.922880 0.258286 0.053596 -0.023663 -147582.000000 0 0 1
6.016495 -5.692686 33.314202 34.328427 -0.757751 0.243686 0.062697 -0.022873 159771.000000 0 0 1
6.051195 -4.594686 32.441154 33.319012 -0.649428 0.230059 0.060824 -0.017391 -107960.000000 0 0 1
6.529995 -3.442486 33.095794 33.909041 -0.485155 0.219452 0.060227 -0.005025 -87348.900000 0 0 1
6.458495 -2.186186 32.187632 32.901903 -0.326391 0.208749 0.058511 -0.003201 -305992.000000 0 0 1
5.148295 -1.773386 31.934241 32.395147 -0.331732 0.168888 0.052224 -0.006504 -548469.000000 0 0 1
5.188595 -0.538286 31.311701 31.743249 -0.103374 0.165081 0.048980 -0.016793 -439129.000000 0 0 1
3.754295 -0.129086 31.023361 31.249965 -0.034370 0.120500 0.064265 -0.023642 -694533.000000 0 0 1
3.008195 0.120814 32.160505 32.301113 0.040140 0.093340 0.062565 -0.017345 179194.000000 0 0 1
1.667095 0.446814 31.715701 31.762628 0.261865 0.054365 0.075559 -0.020019 1010100.000000 0 0 1
0.747995 0.729114 32.921267 32.937834 0.772617 0.031718 0.075459 -0.017650 -470505.000000 0 0 1
1.245995 1.723014 33.741487 33.808419 0.944703 0.062935 0.070302 -0.014948 -508181.000000 0 0 1
0.411395 2.337814 -33.381799 33.466089 1.396606 3.070603 0.050672 -0.016681 -505792.000000 0 0 1
1.107295 3.546014 -32.727959 32.938118 1.268126 3.028569 0.051585 -0.020836 -288382.000000 0 0 1
2.079795 3.159514 -31.803429 32.027584 0.988634 3.023212 0.032622 0.001536 -444445.000000 0 0 1
2.571395 4.304514 -31.149159 31.550135 1.032312 2.981992 0.039100 -0.003543 -160952.000000 0 0 1
3.658695 3.885514 -30.104029 30.573449 0.815455 2.966131 0.032401 0.003491 39414.200000 0 0 1
3.216095 3.123614 -28.984539 29.329230 0.770812 2.988129 0.027038 -0.004328 -922307.000000 0 0 1
4.242095 2.834614 -28.118059 28.577187 0.589071 2.962096 0.036923 -0.009577 -821829.000000 0 0 1
3.746195 2.120514 -26.844449 27.187405 0.515078 2.982589 0.020146 -0.011608 -149234.000000 0 0 1
3.768995 0.735814 -26.918979 27.191509 0.192803 2.999893 0.035133 -0.011282 59765.800000 0 0 1
3.400895 0.137414 -25.659379 25.884139 0.040383 3.009714 0.037798 -0.015734 -469308.000000 0 0 1
3.952995 -1.244786 -25.470829 25.805789 -0.305067 2.980296 0.043791 -0.023621 -229586.000000 0 0 1
5.319895 -1.308686 -25.159009 25.748585 -0.241209 2.927185 0.034911 -0.025760 -346573.000000 0 0 1
5.721395 -2.607186 -24.777559 25.562848 -0.427576 2.893083 0.040325 -0.028371 777215.000000 0 0 1
7.229895 -2.840386 -24.392359 25.599342 -0.374342 2.833293 0.049000 -0.029629 1555110.000000 0 0 1
8.174895 -2.854486 -25.487719 26.918410 -0.335941 2.814097 0.041178 -0.019857 -3585.590000 0 0 1
9.410195 -3.344186 -25.010089 26.930278 -0.341459 2.761682 0.034753 -0.017288 88251.800000 0 0 1
-30.026815 -4.072986 17.488571 34.986411 0.134822 1.047351 0.143609 -0.030588 369197.000000 0 0 1
-31.439255 -4.030186 17.654371 36.281483 0.127494 1.062609 0.105385 -0.014553 84872.700000 0 0 1
-31.857395 -4.946786 18.616671 37.228279 0.154049 1.047119 0.090225 -0.017674 -343142.000000 0 0 1
-33.263345 -4.740986 19.176471 38.686743 0.141575 1.052172 0.071971 -0.013411 -493580.000000 0 0 1
-34.227444 -4.978386 18.205471 39.086333 0.144437 1.086285 0.058506 -0.011510 -1171650.000000 0 0 1
-35.510640 -4.644686 18.608271 40.358970 0.130059 1.091597 0.061508 -0.000853 -336333.000000 0 0 1
-36.530155 -4.768186 17.426071 40.753598 0.129794 1.128965 0.036288 -0.001378 153634.000000 0 0 1
36.016719 -4.756486 17.807071 40.458867 -0.131303 1.115055 0.056330 -0.001258 -469169.000000 0 0 1
35.200619 -4.857386 16.685571 39.256668 -0.137125 1.131793 0.032382 -0.004256 145337.000000 0 0 1
33.767819 -5.330786 17.067271 38.209614 -0.156574 1.107751 0.039606 -0.000672 584410.000000 0 0 1
33.046419 -4.491586 17.995671 37.895703 -0.135090 1.075976 0.066873 -0.013419 -131017.000000 0 0 1
32.149429 -5.247886 18.705271 37.563456 -0.161807 1.049546 0.130941 -0.016632 -687197.000000 0 0 1
31.451769 -4.579386 19.940071 37.520540 -0.144584 1.010492 0.141376 -0.024786 889549.000000 0 0 1
30.260149 -3.792486 19.630271 36.268541 -0.124679 0.998876 0.144622 -0.024545 1201480.000000 0 0 1
30.581869 -2.469986 19.180071 36.183237 -0.080591 1.012099 0.124285 -0.020625 -5740.450000 0 0 1
29.574439 -1.381486 19.601371 35.507318 -0.046678 0.985990 0.121879 -0.005122 300247.000000 0 0 1
29.996829 -0.069486 19.235671 35.634612 -0.002316 1.000593 0.100143 -0.003535 1189600.000000 0 0 1
28.911689 0.815614 19.653171 34.968530 0.028203 0.973965 0.090754 0.000799 1316400.000000 0 0 1
29.224159 2.284214 19.158871 35.019015 0.078003 0.991902 0.085585 0.000473 148232.000000 0 0 1
29.286929 2.346814 17.716271 34.308862 0.079961 1.028183 0.082470 -0.001434 111623.000000 0 0 1
28.977509 3.657614 17.212271 33.901865 0.125559 1.038273 0.081995 0.003061 184865.000000 0 0 1
28.739089 3.658514 15.718571 32.960483 0.126620 1.073682 0.085035 0.000271 -45074.900000 0 0 1
28.460889 4.887714 15.081071 32.578377 0.170075 1.089514 0.074632 0.000927 273042.000000 0 0 1
27.881889 4.575914 13.814371 31.451161 0.162668 1.116052 0.079246 -0.003799 -264539.000000 0 0 1
27.280989 5.840414 13.156871 30.845843 0.210900 1.130137 0.083953 -0.002145 265420.000000 0 0 1
26.065289 6.194114 13.818371 30.144878 0.233311 1.094604 0.069396 -0.001724 785378.000000 0 0 1
25.554289 7.488914 13.410771 29.815336 0.285077 1.104261 0.082912 -0.018244 180616.000000 0 0 1
24.273189 7.996714 14.147971 29.211303 0.318248 1.065197 0.085836 -0.022025 1758860.000000 0 0 1
22.972789 7.438214 13.790971 27.807678 0.313131 1.051878 0.090807 -0.016657 1960480.000000 0 0 1
22.759689 6.070814 14.136771 27.471922 0.260667 1.030267 0.101013 -0.015344 -571697.000000 0 0 1
21.404089 5.495114 13.638271 25.967936 0.251305 1.017850 0.118284 -0.022863 -106747.000000 0 0 1
21.264689 5.477314 12.203271 25.121859 0.252098 1.063560 0.124574 -0.032654 447543.000000 0 0 1
20.150189 4.696114 11.868571 23.852601 0.228969 1.049990 0.113772 -0.027725 -439183.000000 0 1 0
19.919189 4.618314 10.353171 22.919229 0.227827 1.102099 0.122660 -0.028895 -565153.000000 0 1 0
20.919989 3.897714 9.716271 23.393247 0.184203 1.142474 0.133383 -0.033008 73919.700000 0 1 0
20.574989 3.587614 8.395271 22.509591 0.172632 1.188595 0.144887 -0.026599 -505016.000000 0 1 0
21.669989 2.806014 7.715271 23.172991 0.128772 1.231374 0.135944 -0.027413 -1306510.000000 0 1 0
21.921689 1.535114 8.299171 23.490280 0.069913 1.209698 0.136860 -0.033190 577935.000000 0 1 0
22.748089 0.748514 7.489371 23.960937 0.032893 1.252903 0.127379 -0.024354 876113.000000 0 1 0
24.278089 1.078814 7.142971 25.330051 0.044407 1.284923 0.125595 -0.033877 1227730.000000 0 0 1
25.205589 0.718814 8.164771 26.504752 0.028510 1.257654 0.118118 -0.019714 581655.000000 0 0 1
25.224489 1.584214 9.284871 26.925701 0.062722 1.218735 0.122072 -0.026052 -969906.000000 0 0 1
25.890489 0.893614 10.476571 27.944131 0.034501 1.186495 0.110386 -0.020106 -543992.000000 0 0 1
27.285189 0.848514 10.382171 29.206009 0.031088 1.207368 0.109515 -0.029073 -523439.000000 0 0 1
27.793789 0.040414 11.410171 30.044772 0.001454 1.181246 0.112315 -0.021130 -371763.000000 0 0 1
29.327479 0.018314 11.459671 31.486908 0.000624 1.198291 0.118514 -0.019846 -82777.100000 0 0 1
29.946369 1.283314 11.757571 32.197397 0.042828 1.196979 0.104833 -0.006111 321994.000000 0 0 1
31.127879 1.029614 12.497771 33.558892 0.033065 1.189189 0.105466 -0.018569 -124532.000000 0 0 1
31.789099 2.353414 12.991071 34.421698 0.073897 1.183799 0.088513 -0.011665 -45993.300000 0 0 1
32.414009 3.064714 11.942471 34.679721 0.094269 1.219234 0.097628 -0.029278 133906.000000 0 0 1
32.870569 4.340514 12.332471 35.375192 0.131289 1.214699 0.091661 -0.024288 256340.000000 0 0 1
34.326589 4.641714 11.859771 36.613035 0.134407 1.240924 0.102127 -0.019333 257925.000000 0 0 1
35.250969 3.860914 12.599071 37.633416 0.109092 1.229420 0.096483 -0.026889 -267092.000000 0 0 1
36.560099 4.076214 12.148471 38.740698 0.111035 1.251831 0.108383 -0.020990 318168.000000 0 0 1
-36.268405 3.210314 12.928471 38.637400 -0.088285 1.229605 0.118912 -0.015675 -177460.000000 0 0 1
-36.137465 1.841614 12.493571 38.280508 -0.050917 1.238337 0.100626 -0.017945 286914.000000 0 0 1
36.670389 0.935614 12.621371 38.792935 0.025509 1.239412 0.083314 -0.012288 33821.000000 0 0 1
36.119379 0.615014 14.058471 38.763751 0.017026 1.199664 0.087708 -0.005973 -482890.000000 0 0 1
-36.862925 0.036214 14.895071 39.758517 -0.000982 1.186789 0.088804 -0.008578 -145004.000000 0 0 1
36.452849 -0.066686 16.180871 39.882768 -0.001829 1.153040 0.086979 -0.014609 -16980.500000 0 0 1
-36.557465 -0.849986 17.147171 40.388070 0.023246 1.132320 0.094016 -0.011885 -483576.000000 0 0 1
-35.383976 -0.153286 17.470071 39.462041 0.004332 1.112182 0.124580 -0.017044 36201.900000 0 0 1
-34.541064 -0.896086 18.374271 39.134408 0.025937 1.082053 0.106737 -0.014451 394759.000000 0 0 1
-34.896478 -0.635086 19.859871 40.156967 0.018197 1.053472 0.120931 -0.029300 -350588.000000 0 0 1
-35.654216 -1.651686 20.463671 41.142594 0.046292 1.050216 0.099409 -0.028472 -139139.000000 0 0 1
-35.702468 -1.486086 21.828671 41.873208 0.041600 1.022418 0.099770 -0.024582 -62084.900000 0 0 1
-35.823553 -2.808386 22.557171 42.426878 0.078235 1.010223 0.061191 -0.022072 -31523.200000 0 0 1
-34.761921 -3.711486 22.276971 41.453947 0.106366 1.003456 0.081849 -0.025012 100011.000000 0 0 1
-34.873499 -5.000386 22.886771 42.011535 0.142416 0.994677 0.071151 -0.017800 -89945.700000 0 0 1
-34.977998 -5.142286 24.434411 42.976085 0.145969 0.966044 0.066678 -0.028824 620341.000000 0 0 1
-33.793595 -4.667086 25.068201 42.334424 0.137237 0.937076 0.078041 -0.029235 -36419.500000 0 0 1
-34.002135 -4.886686 26.463071 43.362645 0.142740 0.914391 0.075038 -0.035615 625753.000000 0 0 1
-32.986175 -3.987586 27.245391 42.968592 0.120303 0.883982 0.083281 -0.033136 256321.000000 0 0 1
-33.134765 -2.618286 26.958051 42.796082 0.078855 0.889348 0.082558 -0.028580 -340886.000000 0 0 1
-32.456725 -2.189286 25.789741 41.513163 0.067350 0.900469 0.084601 -0.032252 -292791.000000 0 0 1
-32.376705 -0.666286 25.537441 41.241434 0.020576 0.903050 0.100979 -0.033006 341996.000000 0 0 1
-33.629555 -0.000886 25.567421 42.245000 0.000026 0.920757 0.108785 -0.041899 -124789.000000 0 0 1
-33.448955 1.272814 24.994891 41.775558 -0.038034 0.929401 0.127213 -0.032926 344805.000000 0 0 1
-34.701607 2.188814 24.765471 42.688652 -0.062992 0.951894 0.130441 -0.027993 640633.000000 0 0 1
-35.565045 1.687314 23.738591 42.792992 -0.047408 0.982757 0.135762 -0.022774 254075.000000 0 0 1
-36.548965 2.584714 23.216891 43.376625 -0.070602 1.006005 0.121673 -0.017667 544660.000000 0 0 1
-35.998464 3.723014 22.297771 42.508127 -0.103055 1.018606 0.116883 -0.007512 47462.000000 0 0 1
-35.572435 3.209014 21.062071 41.464524 -0.089967 1.037988 0.134499 -0.030400 445058.000000 0 0 1
-36.688815 3.292214 20.174771 41.999157 -0.089494 1.069730 0.116363 -0.024957 788125.000000 0 0 1
-36.283625 2.766514 18.744971 40.933226 -0.076100 1.095120 0.138609 -0.024603 403215.000000 0 0 1
-35.222535 3.507514 18.150571 39.779051 -0.099254 1.096981 0.158623 -0.034940 281624.000000 0 0 1
-34.750630 2.836614 16.972071 38.777621 -0.081447 1.117783 0.172804 -0.023016 172880.000000 0 0 1
-33.809145 3.658214 16.014571 37.588659 -0.107783 1.130676 0.167372 -0.025588 174579.000000 0 0 1
-34.420933 4.658514 15.238871 37.930536 -0.134522 1.157361 0.162553 -0.026471 -95222.600000 0 0 1
-33.489765 5.338914 14.427171 36.853923 -0.158089 1.168569 0.175884 -0.027768 125959.000000 0 0 1
-34.062415 6.720014 13.909671 37.401680 -0.194784 1.189742 0.174827 -0.035132 771630.000000 0 0 1
-33.152925 7.275414 12.923571 36.318959 -0.216026 1.206989 0.196811 -0.031210 757277.000000 0 0 1
-33.417505 8.641214 12.620271 36.751483 -0.253041 1.220267 0.166088 -0.032495 -123698.000000 0 0 1
-32.347205 9.268414 11.728871 35.634416 -0.279053 1.235399 0.188652 -0.033801 305768.000000 0 0 1
-32.841515 10.579714 11.411071 36.341547 -0.311647 1.251398 0.158513 -0.017768 603268.000000 0 0 1
-31.812035 11.258014 10.714771 35.405576 -0.340138 1.263346 0.159849 -0.033266 270122.000000 0 0 1
-32.196095 12.713014 10.381871 36.138519 -0.376069 1.279410 0.130587 -0.019087 -32679.200000 0 0 1
-31.238115 13.316414 9.550871 35.275571 -0.402961 1.296624 0.140487 -0.022290 -132784.000000 0 0 1
-31.570945 14.656214 9.251671 36.015589 -0.434625 1.311004 0.110839 -0.016477 -143786.000000 0 0 1
-30.517385 15.448814 8.448771 35.232916 -0.468619 1.328639 0.112071 -0.020785 245280.000000 0 0 1
-29.274965 15.595414 9.135171 34.404824 -0.489481 1.302053 0.134269 -0.014754 473663.000000 0 0 1
-28.484275 16.576514 8.435671 34.019043 -0.527044 1.320213 0.118888 -0.035787 -641634.000000 0 0 1
-27.014055 16.603414 8.807371 32.909001 -0.551101 1.299866 0.126857 -0.028650 -810277.000000 0 0 1
-26.663385 17.035814 10.143871 33.227296 -0.568548 1.260556 0.121309 -0.029041 265880.000000 0 0 1
-26.991135 18.383914 10.492771 34.301428 -0.597935 1.259914 0.117537 -0.033031 -345993.000000 0 0 1
-26.803215 18.748514 11.975771 34.833005 -0.610382 1.219830 0.111870 -0.023428 -108200.000000 0 0 1
-25.481755 18.717514 12.478871 33.990990 -0.633537 1.194882 0.093757 -0.020107 166017.000000 0 0 1
-25.315495 19.166914 13.784471 34.615842 -0.648044 1.161229 0.095661 -0.016590 -182126.000000 0 0 1
-25.801205 18.198514 14.869571 34.899746 -0.614298 1.130657 0.088470 -0.012887 -157558.000000 0 0 1
-24.910605 17.136414 15.145071 33.816684 -0.602570 1.106428 0.093844 -0.017573 414864.000000 0 0 1
-25.513815 16.282214 16.130871 34.296797 -0.568016 1.081130 0.099917 -0.016675 -336490.000000 0 0 1
-24.588405 15.151014 16.548971 33.286804 -0.552236 1.050470 0.093371 -0.013704 684004.000000 0 0 1
-23.502905 15.666514 17.387471 33.168515 -0.587941 1.019002 0.080594 -0.003938 1162720.000000 0 0 1
-22.412005 14.781314 17.604071 32.104339 -0.583043 0.990419 0.068322 -0.011599 255996.000000 0 0 1
-22.746905 13.632714 18.587271 32.384553 -0.539921 0.959469 0.079441 -0.019261 -408523.000000 0 0 1
-22.731905 14.154514 19.890571 33.357527 -0.556923 0.931932 0.078370 -0.017899 192380.000000 0 0 1
-22.889605 13.142714 20.853271 33.638131 -0.521217 0.902143 0.077318 -0.023436 -587134.000000 0 0 1
-22.695305 13.697914 22.304571 34.643955 -0.543031 0.871312 0.074612 -0.011709 -18744.400000 0 0 1
-21.359905 13.906014 22.709871 34.137385 -0.577101 0.842969 0.078943 -0.017381 63649.500000 0 0 1
-20.742505 15.088214 22.240971 33.949470 -0.628883 0.856455 0.066609 -0.003644 711647.000000 0 0 1
-19.215005 15.335314 22.644771 33.424152 -0.673576 0.826442 0.057538 -0.011956 2772190.000000 0 0 1
-18.187105 14.738214 21.782571 31.976025 -0.681030 0.821374 0.041668 -0.013316 761621.000000 0 0 1
-18.104105 15.376514 20.540971 31.402664 -0.704110 0.857784 0.054301 -0.010195 -1092420.000000 0 0 1
-16.972805 14.722614 19.689571 29.874918 -0.714523 0.851219 0.036556 -0.001851 355984.000000 0 0 1
-15.705405 14.551514 20.251571 29.470875 -0.747280 0.813207 0.039306 -0.001495 -104643.000000 0 0 1
-14.985405 15.755114 20.530971 29.904962 -0.810432 0.814076 0.024174 -0.006263 -817071.000000 0 0 1
-13.912605 15.562614 21.615571 30.049766 -0.841319 0.767965 0.011328 -0.006302 205677.000000 0 0 1
-12.783305 14.814614 21.157271 28.818671 -0.858869 0.746380 -0.002802 -0.004093 345471.000000 0 0 1
-12.023605 14.229014 22.251871 29.020298 -0.869209 0.697003 0.017428 -0.004345 125902.000000 0 0 1
-10.698805 13.679114 21.726071 27.813751 -0.907049 0.674328 0.013715 -0.003995 -1410940.000000 0 0 1
-10.128105 12.742614 22.613471 27.862552 -0.899221 0.623897 0.020265 -0.009401 -79289.700000 0 0 1
-9.013705 12.064314 22.072671 26.720729 -0.929130 0.598733 0.035615 -0.004934 200004.000000 0 0 1
-7.669005 12.803114 22.283471 26.819516 -1.031116 0.590131 0.035842 -0.001467 -531867.000000 0 0 1
-7.471405 13.889414 21.468971 26.639340 -1.077274 0.633582 0.029461 0.002439 -14690.900000 0 0 1
-6.780805 15.021214 22.050971 27.529285 -1.146766 0.641832 0.034341 0.006860 158041.000000 0 0 1
-7.809905 15.971814 22.702471 28.835667 -1.116003 0.664370 0.039787 -0.008475 1079500.000000 0 0 1
-8.776405 16.665014 21.875371 28.866587 -1.086067 0.710847 -0.009272 0.000431 500869.000000 0 0 1
-8.133605 17.581614 20.923671 28.514360 -1.137497 0.746906 0.023871 0.001458 -665858.000000 0 0 1
-9.046005 18.033014 19.784071 28.256491 -1.105841 0.795174 0.026949 0.005771 487307.000000 0 0 1
-10.223205 18.778914 19.987471 29.268764 -1.072264 0.819079 0.001395 0.009563 139245.000000 0 0 1
-11.210005 18.119514 20.784471 29.765336 -1.016762 0.797808 0.001305 0.003800 -296328.000000 0 0 1
-12.564705 18.891914 20.927971 30.866749 -0.983890 0.825744 0.002894 0.006980 552882.000000 0 0 1
-13.297805 18.839114 19.710771 30.335760 -0.956147 0.863536 0.004884 0.010232 -852197.000000 0 0 1
-14.473105 19.562214 19.825871 31.388153 -0.933823 0.887135 0.002700 0.006610 -650682.000000 0 0 1
-15.256305 19.466914 18.509771 30.892187 -0.906071 0.928328 0.015905 0.012928 -83744.100000 0 0 1
-15.923505 18.247314 18.233371 30.314655 -0.853299 0.925456 0.033130 0.012394 -21274.400000 0 0 1
-16.662305 18.300014 17.066571 30.063113 -0.832206 0.967097 0.041153 0.003194 -868905.000000 0 0 1
-17.314605 16.960914 16.603471 29.379303 -0.775079 0.970191 0.044450 -0.005072 736369.000000 0 0 1
-18.339705 16.433514 17.451971 30.182387 -0.730635 0.954255 0.058547 -0.006472 125833.000000 0 0 1
-19.556205 17.138514 17.443871 31.312337 -0.719607 0.979916 0.069720 -0.007268 -681735.000000 0 0 1
35.314119 -9.684186 11.700041 38.441662 -0.267650 1.261532 0.051286 -0.016463 -330770.000000 0 0 1
34.035649 -10.173786 11.386441 37.303919 -0.290462 1.260612 0.077515 -0.014511 -215936.000000 0 0 1
33.650429 -11.114586 12.379641 37.538525 -0.319014 1.234721 0.053576 -0.006797 -1043790.000000 0 0 1
32.205829 -11.523186 12.245941 36.331285 -0.343605 1.227000 0.088183 -0.000271 -955445.000000 0 0 1
31.225879 -10.509286 12.475941 35.229954 -0.324649 1.208814 0.098667 -0.009177 1960060.000000 0 0 1
29.834269 -10.916686 12.426641 34.112740 -0.350778 1.197935 0.105180 -0.006007 1428950.000000 0 0 1
29.280529 -11.794786 13.583941 34.365532 -0.382935 1.164426 0.102925 0.000900 -875775.000000 0 0 1
29.260489 -11.207686 14.877741 34.686245 -0.365793 1.127496 0.115997 -0.009064 370116.000000 0 0 1
28.499389 -11.845086 15.893141 34.714740 -0.393904 1.095253 0.121909 -0.015477 -367254.000000 0 0 1
26.991689 -11.637386 15.927641 33.431568 -0.407066 1.074212 0.129011 -0.025456 -599616.000000 0 0 1
26.648889 -10.358186 16.360841 32.941348 -0.370719 1.051043 0.119534 -0.023912 4224.580000 0 0 1
25.788189 -9.699986 15.429541 31.578333 -0.359770 1.060299 0.147945 -0.017780 412439.000000 0 0 1
25.360989 -8.274986 15.890941 31.051202 -0.315396 1.033558 0.177628 -0.025073 696109.000000 0 0 1
26.487389 -7.380686 15.809441 31.717420 -0.271756 1.048990 0.167846 -0.023956 545452.000000 0 0 1
26.259189 -6.017586 16.240341 31.456399 -0.225272 1.028294 0.157577 -0.029234 670069.000000 0 0 1
27.526289 -5.106486 16.016341 32.253619 -0.183428 1.051148 0.162692 -0.026887 749532.000000 0 0 1
27.852189 -4.755386 14.700641 31.850698 -0.169106 1.091056 0.170571 -0.031198 262615.000000 0 0 1
29.085949 -4.062986 14.613041 32.803068 -0.138791 1.109088 0.154102 -0.019083 83231.000000 0 0 1
29.282069 -3.528586 13.197141 32.311840 -0.119925 1.150062 0.152915 -0.030447 -220797.000000 0 0 1
29.759529 -4.489986 12.293341 32.510241 -0.149746 1.183013 0.128766 -0.040832 199018.000000 0 0 1
30.022979 -3.870286 11.037541 32.220889 -0.128204 1.221157 0.128426 -0.049571 108574.000000 0 0 1
30.683569 -4.784586 9.950841 32.609705 -0.154687 1.260701 0.134143 -0.049056 197464.000000 0 0 1
32.033079 -5.108886 10.223941 34.010996 -0.158156 1.265467 0.125476 -0.048885 356962.000000 0 0 1
32.546139 -5.936386 9.168941 34.330181 -0.180416 1.300434 0.122326 -0.048214 62177.900000 0 0 1
33.977279 -6.477886 9.358941 35.833061 -0.188393 1.306550 0.105644 -0.039806 281912.000000 0 0 1
35.040619 -5.537686 9.196941 36.648256 -0.156740 1.317133 0.107849 -0.040536 451569.000000 0 0 1
36.250849 -6.273986 8.966141 37.866590 -0.171374 1.331744 0.098306 -0.037247 410029.000000 0 0 1
-36.539065 -5.311586 8.491241 37.886903 0.144356 1.344756 0.091355 -0.034045 -66813.600000 0 0 1
-36.737895 -4.636786 7.247641 37.731963 0.125549 1.377513 0.087536 -0.037694 -198460.000000 0 0 1
-35.703392 -3.714686 6.988941 36.570157 0.103670 1.378503 0.096125 -0.031798 -131635.000000 0 0 1
-35.680567 -2.919786 5.611841 36.237009 0.081649 1.415306 0.100391 -0.042499 -377202.000000 0 0 1
-35.150481 -3.651686 4.531441 35.628992 0.103516 1.443267 0.101107 -0.041157 170463.000000 0 0 1
-35.304721 -2.963286 3.321141 35.584187 0.083738 1.477328 0.102748 -0.032551 282217.000000 0 0 1
-34.468847 -3.737986 2.233341 34.742795 0.108023 1.506470 0.124843 -0.037971 274507.000000 0 0 1
-34.930593 -5.081086 2.028441 35.356447 0.144449 1.513394 0.128353 -0.024619 807379.000000 0 0 1
-36.046518 -5.138886 1.102441 36.427668 0.141608 1.540528 0.122904 -0.023312 484878.000000 0 0 1
-35.561610 -5.202386 -0.411659 35.942487 0.145262 1.582250 0.145959 -0.032061 -776778.000000 0 0 1
-35.062870 -6.517186 -0.683259 35.669951 0.183774 1.589953 0.135482 -0.041645 297791.000000 0 0 1
-34.238612 -6.637486 -1.828459 34.923947 0.191484 1.623176 0.140252 -0.044008 -869275.000000 0 0 1
-32.853355 -6.052186 -1.685659 33.448667 0.182176 1.621213 0.118910 -0.041217 -1701970.000000 0 0 1
-32.111255 -6.792586 -0.727959 32.829893 0.208460 1.592972 0.122773 -0.035682 17857.900000 0 0 1
-30.886435 -6.093786 -0.476859 31.485449 0.194795 1.585942 0.129424 -0.041807 31490.000000 0 0 1
-30.129265 -7.074886 0.443141 30.951947 0.230639 1.556479 0.135176 -0.037300 -326657.000000 0 0 1
-29.556795 -8.279886 -0.147659 30.694991 0.273134 1.575607 0.137747 -0.036687 767518.000000 0 0 1
-29.010955 -9.182786 0.810441 30.440366 0.306550 1.544169 0.141280 -0.026216 -47864.200000 0 0 1
-28.719105 -10.576786 0.139241 30.605143 0.352870 1.566247 0.124354 -0.026691 616250.000000 0 0 1
-27.668355 -10.501586 -0.869559 29.607048 0.362756 1.600171 0.143208 -0.033011 944403.000000 0 0 1
-27.179275 -11.730386 -1.395159 29.635476 0.407442 1.617891 0.132307 -0.014426 199474.000000 0 0 1
-28.089525 -12.835486 -2.094059 30.954098 0.428618 1.638498 0.134115 -0.019961 211330.000000 0 0 1
-29.193165 -13.365186 -1.382459 32.136899 0.429337 1.613827 0.143494 -0.028659 691326.000000 0 0 1
-29.918445 -14.284486 -2.174659 33.224826 0.445443 1.636296 0.128479 -0.029162 395923.000000 0 0 1
-31.128135 -15.044086 -1.534759 34.606947 0.450195 1.615159 0.117327 -0.024111 283249.000000 0 0 1
-30.805805 -16.375586 -1.202059 34.908486 0.488587 1.605238 0.070144 -0.017906 195009.000000 0 0 1
-31.663365 -16.878786 -0.211259 35.881844 0.489752 1.576684 0.085048 -0.008219 -358769.000000 0 0 1
-31.831335 -18.439886 -0.324059 36.788154 0.525060 1.579605 0.078002 -0.009667 191837.000000 0 0 1
-30.630125 -19.210586 -0.111159 36.156099 0.560165 1.573871 0.096081 -0.018203 719687.000000 0 0 1
-30.750115 -20.620386 0.008141 37.023911 0.590706 1.570576 0.088596 -0.022709 234058.000000 0 0 1
-31.573925 -21.294586 1.200841 38.102679 0.593362 1.539275 0.091823 -0.019333 357966.000000 0 0 1
-30.830735 -21.248786 2.461541 37.524716 0.603446 1.505151 0.090799 -0.022413 1120760.000000 0 0 1
-31.676675 -21.600986 3.571841 38.506784 0.598489 1.477904 0.088465 -0.024687 640191.000000 0 0 1
-30.802755 -21.829286 4.863641 38.065502 0.616528 1.442676 0.066959 -0.012767 315420.000000 0 0 1
-30.411785 -20.607586 5.403441 37.131475 0.595546 1.424756 0.048566 -0.013650 -121210.000000 0 0 1
-29.702635 -20.743286 6.604241 36.825894 0.609628 1.390484 0.048511 -0.017938 -69980.000000 0 0 1
-28.901275 -19.510586 7.050641 35.576090 0.593803 1.371291 0.050844 -0.013350 -240912.000000 0 0 1
-27.825125 -19.887086 7.852141 35.091165 0.620535 1.345122 0.059910 -0.020112 -725652.000000 0 0 1
-27.230375 -18.767586 8.417541 34.125806 0.603451 1.321562 0.064740 -0.013685 -191374.000000 0 0 1
-26.330255 -19.259986 9.551141 33.991965 0.631541 1.285979 0.075043 -0.010580 47328.200000 0 0 1
-27.068575 -19.811886 10.653441 35.195375 0.631826 1.263278 0.057611 -0.016446 853912.000000 0 0 1
-26.240395 -19.927386 11.874541 35.023760 0.649500 1.224897 0.062447 -0.012896 579486.000000 0 0 1
-25.924745 -18.628786 12.647041 34.337614 0.623082 1.193601 0.058352 -0.006407 -121171.000000 0 0 1
-24.924005 -17.831686 12.034541 32.924235 0.621015 1.196602 0.063313 0.000456 199800.000000 0 0 1
-24.596705 -16.539286 12.641841 32.223625 0.591974 1.167648 0.073096 0.003452 473529.000000 0 0 1
-23.820405 -16.567486 14.009641 32.220542 0.607711 1.120975 0.077050 -0.001613 -57455.900000 0 0 1
-24.552205 -17.153886 15.046341 33.518039 0.609833 1.105259 0.077306 -0.008713 -334117.000000 0 0 1
-23.760805 -17.406886 16.171141 33.601806 0.632264 1.068707 0.091160 -0.003927 -74737.200000 0 0 1
-24.541305 -18.026086 17.367941 35.055111 0.633520 1.052447 0.096554 0.004514 -264787.000000 0 0 1
-25.349095 -17.094586 18.000741 35.479969 0.593314 1.038690 0.102966 0.001489 -63667.600000 0 0 1
-26.143485 -17.682986 19.028541 36.854514 0.594699 1.028254 0.077361 0.010493 -99770.200000 0 0 1
-27.124375 -16.761386 19.763141 37.513431 0.553510 1.015932 0.081210 0.005912 159312.000000 0 0 1
-26.501765 -16.099286 20.854441 37.368948 0.545901 0.978740 0.091659 -0.002626 216657.000000 0 0 1
-27.399745 -15.135786 21.349141 37.889628 0.504689 0.972233 0.095818 -0.011565 -100427.000000 0 0 1
-26.801775 -14.312786 22.451241 37.778952 0.490495 0.934427 0.099122 -0.016502 158625.000000 0 0 1
-25.708705 -13.533086 21.958741 36.417966 0.484545 0.923584 0.108701 -0.013816 469656.000000 0 0 1
-24.674505 -13.413986 22.928341 36.255690 0.497945 0.886140 0.094752 -0.017541 963128.000000 0 0 1
-23.388005 -12.720786 22.301941 34.730300 0.498149 0.873501 0.099408 -0.012996 628943.000000 0 0 1
-23.564905 -11.385886 21.987241 34.181602 0.450094 0.872064 0.118641 -0.015506 172309.000000 0 0 1
-22.523205 -10.822486 21.213841 32.778774 0.447929 0.866914 0.105499 -0.017899 -421476.000000 0 0 1
-22.099005 -9.391886 21.629141 32.317075 0.401863 0.837558 0.100082 -0.014686 29707.400000 0 0 1
-21.596105 -9.338186 22.950541 32.868234 0.408123 0.797834 0.092867 -0.014252 60175.000000 0 0 1
-20.213005 -9.607286 23.015941 32.102945 0.443695 0.771391 0.067957 -0.005766 -410256.000000 0 0 1
-19.662005 -9.756286 24.422841 32.836789 0.460603 0.732112 0.041937 -0.010653 89570.900000 0 0 1
-20.041605 -10.963286 25.067941 33.915502 0.500557 0.739020 0.051403 -0.009084 -136230.000000 0 0 1
-19.404605 -11.034586 26.300041 34.496275 0.517055 0.703779 0.049928 -0.015594 -1072160.000000 0 0 1
-19.680505 -12.334586 27.118041 35.705076 0.559851 0.708251 0.048560 -0.033277 544677.000000 0 0 1
-20.933705 -12.600586 27.771241 36.989683 0.541836 0.721549 0.046647 -0.025183 281046.000000 0 0 1
-21.907105 -12.958286 26.785741 36.950161 0.534154 0.759885 0.045151 -0.019444 -719659.000000 0 0 1
-23.184105 -13.426586 27.463541 38.366940 0.524932 0.773009 0.043501 -0.022507 -713011.000000 0 0 1
-23.230605 -14.724086 28.116041 39.331559 0.564919 0.774391 0.035008 -0.020565 -659820.000000 0 0 1
-22.400605 -14.857386 29.228241 39.709182 0.585639 0.743569 0.031162 -0.022998 -602725.000000 0 0 1
-22.708505 -15.803386 30.431841 41.128095 0.607985 0.737833 0.017410 -0.022021 -806887.000000 0 0 1
-22.448005 -17.121286 30.163041 41.314167 0.651585 0.752343 0.024641 -0.016573 -188782.000000 0 0 1
-22.627305 -17.967486 31.307741 42.602819 0.671110 0.745314 0.028093 -0.014962 621271.000000 0 0 1
-24.019605 -18.258586 32.015541 43.992184 0.649968 0.755753 0.037437 -0.013640 677853.000000 0 0 1
-24.509205 -17.203686 32.777141 44.396046 0.612018 0.740265 0.037764 -0.015627 -387226.000000 0 0 1
-25.756305 -17.600286 33.292441 45.623941 0.599456 0.752892 0.050948 -0.027510 -697197.000000 0 0 1
-26.489165 -16.496086 -33.955288 46.116790 0.556979 2.398366 0.047978 -0.025241 37667.500000 0 0 1
-25.988885 -16.166386 -32.683488 44.777054 0.556475 2.388995 0.053274 -0.024246 188082.000000 0 0 1
-26.943145 -15.237486 -32.170888 44.643925 0.514697 2.375479 0.067597 -0.013268 284476.000000 0 0 1
-26.460085 -14.489586 -30.922588 43.200586 0.501000 2.368552 0.062028 -0.002822 -272839.000000 0 0 1
-26.570325 -15.317186 -29.745088 42.724333 0.522944 2.340900 0.077129 -0.001399 211329.000000 0 0 1
-26.336815 -14.538186 -28.622188 41.523684 0.504385 2.331316 0.074398 0.000917 -316749.000000 0 0 1
-26.316255 -15.320386 -27.273788 40.879323 0.527202 2.301210 0.082925 -0.005786 725287.000000 0 0 1
-27.635915 -15.425686 -26.702088 41.408901 0.509098 2.271609 0.084941 -0.011215 947206.000000 0 0 1
-27.937385 -14.340986 -25.787888 40.634672 0.474251 2.258323 0.081227 -0.013833 -283523.000000 0 0 1
-27.207565 -14.375286 -24.438088 39.295300 0.486074 2.241974 0.076860 -0.025616 349209.000000 0 0 1
-25.899465 -13.754086 -24.490888 38.206816 0.488183 2.266608 0.072236 -0.022011 1493410.000000 0 0 1
-25.054405 -14.073186 -23.365288 37.036664 0.511785 2.253469 0.056515 -0.020664 166673.000000 0 0 1
-24.374905 -15.448486 -23.410188 37.159502 0.564893 2.252339 0.059693 -0.019195 -918887.000000 0 0 1
-23.563605 -15.556186 -24.579288 37.435008 0.583497 2.287079 0.076475 -0.010913 350979.000000 0 0 1
-22.903905 -16.820186 -24.636988 37.609689 0.633430 2.285072 0.079844 -0.017679 206723.000000 0 0 1
-21.886805 -16.990286 -25.801188 37.860314 0.660109 2.320584 0.063178 -0.011756 380122.000000 0 0 1
-22.498205 -17.035186 -27.092988 39.120286 0.648080 2.335823 0.065009 -0.011755 341228.000000 0 0 1
-23.415005 -18.095886 -27.325688 40.279235 0.657955 2.316388 0.075486 -0.015684 -39103.700000 0 0 1
-24.141705 -17.988486 -28.689988 41.587534 0.640371 2.332106 0.066095 -0.015886 -275546.000000 0 0 1
-23.615605 -18.673086 -29.826888 42.379526 0.669050 2.351535 0.059874 -0.007638 99855.100000 0 0 1
-24.387305 -18.537386 -30.994388 43.577832 0.649949 2.362060 0.046192 -0.004094 -425029.000000 0 0 1
-23.595405 -18.914686 -32.283188 44.234745 0.675731 2.388848 0.048231 -0.009523 -1051590.000000 0 0 1
-22.466105 -18.157086 -32.545888 43.515979 0.679720 2.415699 0.042237 -0.005782 -441736.000000 0 0 1
-21.233205 -18.751186 -32.212288 42.896241 0.723403 2.420273 0.064255 -0.011718 -31828.600000 0 0 1
-20.718205 -19.906086 -33.130688 43.853606 0.765410 2.427189 0.075750 -0.015827 -679310.000000 0 0 1
-20.119905 -19.535886 33.694441 43.838075 0.770672 0.694129 0.065532 -0.014280 417964.000000 0 0 1
-19.566805 -20.603186 32.909641 43.478680 0.811192 0.712218 0.079501 -0.014442 -85855.000000 0 0 1
-20.628905 -21.294686 32.022341 43.639956 0.801278 0.746920 0.066105 -0.013031 460030.000000 0 0 1
-21.645205 -21.899086 32.875541 45.043158 0.791228 0.752668 0.067109 -0.011360 519007.000000 0 0 1
-22.786205 -22.414486 32.226041 45.388744 0.777175 0.781297 0.070238 -0.003577 60222.000000 0 0 1
-22.574705 -23.508486 31.133041 45.072525 0.805658 0.808295 0.083734 -0.004994 -672331.000000 0 0 1
-22.135305 -24.738986 31.664141 45.875996 0.840887 0.809015 0.095761 0.000798 86965.800000 0 0 1
-22.254605 -25.752676 30.717441 45.847889 0.858135 0.836606 0.106562 -0.000940 4954.940000 0 0 1
-21.892605 -27.086466 31.387641 46.884398 0.891046 0.837303 0.111151 -0.012391 120123.000000 0 0 1
-22.728005 -27.513206 32.460441 48.241258 0.880356 0.832705 0.099617 -0.004940 175601.000000 0 0 1
-22.209405 -28.630826 33.134241 49.100507 0.911039 0.830069 0.104402 -0.014177 -209696.000000 0 0 1
-23.300005 -29.152626 -33.949688 50.451433 0.896518 2.308943 0.086938 -0.008243 542114.000000 0 0 1
-24.371705 -29.949206 33.523541 51.134751 0.887716 0.855830 0.075481 -0.014545 991836.000000 0 0 1
-25.470975 -29.160436 33.100041 50.938338 0.852829 0.863467 0.067492 -0.008845 -765362.000000 0 0 1
-26.470085 -28.791516 -33.899088 51.756786 0.827381 2.284938 0.040047 -0.002873 -1575480.000000 0 0 1
-27.582945 -28.112706 33.668541 51.814224 0.794910 0.863484 0.032309 0.001290 -518476.000000 0 0 1
-28.380455 -27.786046 -33.297188 51.828730 0.774816 2.268483 0.031216 0.012378 516449.000000 0 0 1
-29.635765 -26.864006 -33.635388 52.261771 0.736380 2.269982 0.025413 0.003742 457088.000000 0 0 1
-30.515645 -27.450076 33.536541 53.003876 0.732561 0.885737 0.023096 -0.000933 -991819.000000 0 0 1
-31.695605 -26.732476 33.438241 53.266806 0.700657 0.892137 0.021433 -0.008237 -546825.000000 0 0 1
